<VTKFile type="UnstructuredGrid" version="1,0" byte_order="LittleEndian">
<UnstructuredGrid>
<Piece NumberOfPoints="5802" NumberOfCells="5680">
<Points>
<DataArray type="Float64" NumberOfComponents="3" format="ascii">
-0.1100000000000E+01 -0.4260376958938E+01  0.0000000000000E+00
 0.0000000000000E+00 -0.4260376958938E+01  0.0000000000000E+00
 0.1100000000000E+01 -0.4260376958938E+01  0.0000000000000E+00
-0.1294830748007E+01 -0.1260376958938E+01  0.0000000000000E+00
-0.6474153677980E+00 -0.1260376958938E+01  0.0000000000000E+00
 0.6474153802085E+00 -0.1260376958938E+01  0.0000000000000E+00
 0.1294830748007E+01 -0.1260376958938E+01  0.0000000000000E+00
-0.1038349899718E+01  0.8622996231128E+00  0.0000000000000E+00
 0.1038349908233E+01  0.8622996153791E+00  0.0000000000000E+00
-0.5250000000000E+00  0.3489497150362E+00  0.0000000000000E+00
 0.5250000000000E+00  0.3489497150362E+00  0.0000000000000E+00
-0.1072500000000E+01 -0.4260376958938E+01  0.0000000000000E+00
-0.1045000000000E+01 -0.4260376958938E+01  0.0000000000000E+00
-0.1017500000000E+01 -0.4260376958938E+01  0.0000000000000E+00
-0.9900000000000E+00 -0.4260376958938E+01  0.0000000000000E+00
-0.9625000000000E+00 -0.4260376958938E+01  0.0000000000000E+00
-0.9350000000000E+00 -0.4260376958938E+01  0.0000000000000E+00
-0.9075000000000E+00 -0.4260376958938E+01  0.0000000000000E+00
-0.8800000000000E+00 -0.4260376958938E+01  0.0000000000000E+00
-0.8525000000000E+00 -0.4260376958938E+01  0.0000000000000E+00
-0.8250000000000E+00 -0.4260376958938E+01  0.0000000000000E+00
-0.7975000000000E+00 -0.4260376958938E+01  0.0000000000000E+00
-0.7700000000000E+00 -0.4260376958938E+01  0.0000000000000E+00
-0.7425000000000E+00 -0.4260376958938E+01  0.0000000000000E+00
-0.7150000000000E+00 -0.4260376958938E+01  0.0000000000000E+00
-0.6875000000000E+00 -0.4260376958938E+01  0.0000000000000E+00
-0.6600000000000E+00 -0.4260376958938E+01  0.0000000000000E+00
-0.6325000000000E+00 -0.4260376958938E+01  0.0000000000000E+00
-0.6050000000000E+00 -0.4260376958938E+01  0.0000000000000E+00
-0.5775000000000E+00 -0.4260376958938E+01  0.0000000000000E+00
-0.5500000000000E+00 -0.4260376958938E+01  0.0000000000000E+00
-0.5225000000000E+00 -0.4260376958938E+01  0.0000000000000E+00
-0.4950000000000E+00 -0.4260376958938E+01  0.0000000000000E+00
-0.4675000000000E+00 -0.4260376958938E+01  0.0000000000000E+00
-0.4400000000000E+00 -0.4260376958938E+01  0.0000000000000E+00
-0.4125000000000E+00 -0.4260376958938E+01  0.0000000000000E+00
-0.3850000000000E+00 -0.4260376958938E+01  0.0000000000000E+00
-0.3575000000000E+00 -0.4260376958938E+01  0.0000000000000E+00
-0.3300000000000E+00 -0.4260376958938E+01  0.0000000000000E+00
-0.3025000000000E+00 -0.4260376958938E+01  0.0000000000000E+00
-0.2750000000000E+00 -0.4260376958938E+01  0.0000000000000E+00
-0.2475000000000E+00 -0.4260376958938E+01  0.0000000000000E+00
-0.2200000000000E+00 -0.4260376958938E+01  0.0000000000000E+00
-0.1925000000000E+00 -0.4260376958938E+01  0.0000000000000E+00
-0.1650000000000E+00 -0.4260376958938E+01  0.0000000000000E+00
-0.1375000000000E+00 -0.4260376958938E+01  0.0000000000000E+00
-0.1100000000000E+00 -0.4260376958938E+01  0.0000000000000E+00
-0.8250000000000E-01 -0.4260376958938E+01  0.0000000000000E+00
-0.5500000000000E-01 -0.4260376958938E+01  0.0000000000000E+00
-0.2750000000000E-01 -0.4260376958938E+01  0.0000000000000E+00
 0.2750000000000E-01 -0.4260376958938E+01  0.0000000000000E+00
 0.5500000000000E-01 -0.4260376958938E+01  0.0000000000000E+00
 0.8250000000000E-01 -0.4260376958938E+01  0.0000000000000E+00
 0.1100000000000E+00 -0.4260376958938E+01  0.0000000000000E+00
 0.1375000000000E+00 -0.4260376958938E+01  0.0000000000000E+00
 0.1650000000000E+00 -0.4260376958938E+01  0.0000000000000E+00
 0.1925000000000E+00 -0.4260376958938E+01  0.0000000000000E+00
 0.2200000000000E+00 -0.4260376958938E+01  0.0000000000000E+00
 0.2475000000000E+00 -0.4260376958938E+01  0.0000000000000E+00
 0.2750000000000E+00 -0.4260376958938E+01  0.0000000000000E+00
 0.3025000000000E+00 -0.4260376958938E+01  0.0000000000000E+00
 0.3300000000000E+00 -0.4260376958938E+01  0.0000000000000E+00
 0.3575000000000E+00 -0.4260376958938E+01  0.0000000000000E+00
 0.3850000000000E+00 -0.4260376958938E+01  0.0000000000000E+00
 0.4125000000000E+00 -0.4260376958938E+01  0.0000000000000E+00
 0.4400000000000E+00 -0.4260376958938E+01  0.0000000000000E+00
 0.4675000000000E+00 -0.4260376958938E+01  0.0000000000000E+00
 0.4950000000000E+00 -0.4260376958938E+01  0.0000000000000E+00
 0.5225000000000E+00 -0.4260376958938E+01  0.0000000000000E+00
 0.5500000000000E+00 -0.4260376958938E+01  0.0000000000000E+00
 0.5775000000000E+00 -0.4260376958938E+01  0.0000000000000E+00
 0.6050000000000E+00 -0.4260376958938E+01  0.0000000000000E+00
 0.6325000000000E+00 -0.4260376958938E+01  0.0000000000000E+00
 0.6600000000000E+00 -0.4260376958938E+01  0.0000000000000E+00
 0.6875000000000E+00 -0.4260376958938E+01  0.0000000000000E+00
 0.7150000000000E+00 -0.4260376958938E+01  0.0000000000000E+00
 0.7425000000000E+00 -0.4260376958938E+01  0.0000000000000E+00
 0.7700000000000E+00 -0.4260376958938E+01  0.0000000000000E+00
 0.7975000000000E+00 -0.4260376958938E+01  0.0000000000000E+00
 0.8250000000000E+00 -0.4260376958938E+01  0.0000000000000E+00
 0.8525000000000E+00 -0.4260376958938E+01  0.0000000000000E+00
 0.8800000000000E+00 -0.4260376958938E+01  0.0000000000000E+00
 0.9075000000000E+00 -0.4260376958938E+01  0.0000000000000E+00
 0.9350000000000E+00 -0.4260376958938E+01  0.0000000000000E+00
 0.9625000000000E+00 -0.4260376958938E+01  0.0000000000000E+00
 0.9900000000000E+00 -0.4260376958938E+01  0.0000000000000E+00
 0.1017500000000E+01 -0.4260376958938E+01  0.0000000000000E+00
 0.1045000000000E+01 -0.4260376958938E+01  0.0000000000000E+00
 0.1072500000000E+01 -0.4260376958938E+01  0.0000000000000E+00
-0.1262459978996E+01 -0.1260376958938E+01  0.0000000000000E+00
-0.1230089209986E+01 -0.1260376958938E+01  0.0000000000000E+00
-0.1197718440975E+01 -0.1260376958938E+01  0.0000000000000E+00
-0.1165347671965E+01 -0.1260376958938E+01  0.0000000000000E+00
-0.1132976902954E+01 -0.1260376958938E+01  0.0000000000000E+00
-0.1100606133944E+01 -0.1260376958938E+01  0.0000000000000E+00
-0.1068235364934E+01 -0.1260376958938E+01  0.0000000000000E+00
-0.1035864595923E+01 -0.1260376958938E+01  0.0000000000000E+00
-0.1003493826913E+01 -0.1260376958938E+01  0.0000000000000E+00
-0.9711230579023E+00 -0.1260376958938E+01  0.0000000000000E+00
-0.9387522888919E+00 -0.1260376958938E+01  0.0000000000000E+00
-0.9063815198814E+00 -0.1260376958938E+01  0.0000000000000E+00
-0.8740107508710E+00 -0.1260376958938E+01  0.0000000000000E+00
-0.8416399818606E+00 -0.1260376958938E+01  0.0000000000000E+00
-0.8092692128501E+00 -0.1260376958938E+01  0.0000000000000E+00
-0.7768984438397E+00 -0.1260376958938E+01  0.0000000000000E+00
-0.7445276748293E+00 -0.1260376958938E+01  0.0000000000000E+00
-0.7121569058189E+00 -0.1260376958938E+01  0.0000000000000E+00
-0.6797861368084E+00 -0.1260376958938E+01  0.0000000000000E+00
-0.6150445990978E+00 -0.1260376958938E+01  0.0000000000000E+00
-0.5826738303977E+00 -0.1260376958938E+01  0.0000000000000E+00
-0.5503030616975E+00 -0.1260376958938E+01  0.0000000000000E+00
-0.5179322929974E+00 -0.1260376958938E+01  0.0000000000000E+00
-0.4855615242972E+00 -0.1260376958938E+01  0.0000000000000E+00
-0.4531907555970E+00 -0.1260376958938E+01  0.0000000000000E+00
-0.4208199868969E+00 -0.1260376958938E+01  0.0000000000000E+00
-0.3884492181967E+00 -0.1260376958938E+01  0.0000000000000E+00
-0.3560784494965E+00 -0.1260376958938E+01  0.0000000000000E+00
-0.3237076807964E+00 -0.1260376958938E+01  0.0000000000000E+00
-0.2913369120962E+00 -0.1260376958938E+01  0.0000000000000E+00
-0.2589661433960E+00 -0.1260376958938E+01  0.0000000000000E+00
-0.2265953746959E+00 -0.1260376958938E+01  0.0000000000000E+00
-0.1942246059957E+00 -0.1260376958938E+01  0.0000000000000E+00
-0.1618538372956E+00 -0.1260376958938E+01  0.0000000000000E+00
-0.1294830685954E+00 -0.1260376958938E+01  0.0000000000000E+00
-0.9711229989523E-01 -0.1260376958938E+01  0.0000000000000E+00
-0.6474153119507E-01 -0.1260376958938E+01  0.0000000000000E+00
-0.3237076249490E-01 -0.1260376958938E+01  0.0000000000000E+00
 0.6205262220726E-08 -0.1260376958938E+01  0.0000000000000E+00
 0.3237077490543E-01 -0.1260376958938E+01  0.0000000000000E+00
 0.6474154360559E-01 -0.1260376958938E+01  0.0000000000000E+00
 0.9711231230575E-01 -0.1260376958938E+01  0.0000000000000E+00
 0.1294830810059E+00 -0.1260376958938E+01  0.0000000000000E+00
 0.1618538497061E+00 -0.1260376958938E+01  0.0000000000000E+00
 0.1942246184062E+00 -0.1260376958938E+01  0.0000000000000E+00
 0.2265953871064E+00 -0.1260376958938E+01  0.0000000000000E+00
 0.2589661558066E+00 -0.1260376958938E+01  0.0000000000000E+00
 0.2913369245067E+00 -0.1260376958938E+01  0.0000000000000E+00
 0.3237076932069E+00 -0.1260376958938E+01  0.0000000000000E+00
 0.3560784619071E+00 -0.1260376958938E+01  0.0000000000000E+00
 0.3884492306072E+00 -0.1260376958938E+01  0.0000000000000E+00
 0.4208199993074E+00 -0.1260376958938E+01  0.0000000000000E+00
 0.4531907680076E+00 -0.1260376958938E+01  0.0000000000000E+00
 0.4855615367077E+00 -0.1260376958938E+01  0.0000000000000E+00
 0.5179323054079E+00 -0.1260376958938E+01  0.0000000000000E+00
 0.5503030741080E+00 -0.1260376958938E+01  0.0000000000000E+00
 0.5826738428082E+00 -0.1260376958938E+01  0.0000000000000E+00
 0.6150446115084E+00 -0.1260376958938E+01  0.0000000000000E+00
 0.6797861485984E+00 -0.1260376958938E+01  0.0000000000000E+00
 0.7121569169883E+00 -0.1260376958938E+01  0.0000000000000E+00
 0.7445276853782E+00 -0.1260376958938E+01  0.0000000000000E+00
 0.7768984537681E+00 -0.1260376958938E+01  0.0000000000000E+00
 0.8092692221580E+00 -0.1260376958938E+01  0.0000000000000E+00
 0.8416399905479E+00 -0.1260376958938E+01  0.0000000000000E+00
 0.8740107589378E+00 -0.1260376958938E+01  0.0000000000000E+00
 0.9063815273277E+00 -0.1260376958938E+01  0.0000000000000E+00
 0.9387522957176E+00 -0.1260376958938E+01  0.0000000000000E+00
 0.9711230641075E+00 -0.1260376958938E+01  0.0000000000000E+00
 0.1003493832497E+01 -0.1260376958938E+01  0.0000000000000E+00
 0.1035864600887E+01 -0.1260376958938E+01  0.0000000000000E+00
 0.1068235369277E+01 -0.1260376958938E+01  0.0000000000000E+00
 0.1100606137667E+01 -0.1260376958938E+01  0.0000000000000E+00
 0.1132976906057E+01 -0.1260376958938E+01  0.0000000000000E+00
 0.1165347674447E+01 -0.1260376958938E+01  0.0000000000000E+00
 0.1197718442837E+01 -0.1260376958938E+01  0.0000000000000E+00
 0.1230089211227E+01 -0.1260376958938E+01  0.0000000000000E+00
 0.1262459979617E+01 -0.1260376958938E+01  0.0000000000000E+00
-0.1312155011510E+01 -0.1150203083613E+01  0.0000000000000E+00
-0.1327637341374E+01 -0.1039753931085E+01  0.0000000000000E+00
-0.1341665909610E+01 -0.9291104213802E+00  0.0000000000000E+00
-0.1354391361466E+01 -0.8183095298948E+00  0.0000000000000E+00
-0.1365833298202E+01 -0.7073687601696E+00  0.0000000000000E+00
-0.1375894555970E+01 -0.5962944619521E+00  0.0000000000000E+00
-0.1384355932365E+01 -0.4850870562275E+00  0.0000000000000E+00
-0.1391121394834E+01 -0.3737634319943E+00  0.0000000000000E+00
-0.1396094802383E+01 -0.2623461592890E+00  0.0000000000000E+00
-0.1399062707537E+01 -0.1508575645009E+00  0.0000000000000E+00
-0.1399985099640E+01 -0.3933280323447E-01  0.0000000000000E+00
-0.1399371687134E+01  0.7219242573532E-01  0.0000000000000E+00
-0.1392023041888E+01  0.1834402819205E+00  0.0000000000000E+00
-0.1373224643109E+01  0.2933160172014E+00  0.0000000000000E+00
-0.1342254580417E+01  0.4003982422534E+00  0.0000000000000E+00
-0.1299147096451E+01  0.5031944588907E+00  0.0000000000000E+00
-0.1245788737132E+01  0.6010884805479E+00  0.0000000000000E+00
-0.1184295328924E+01  0.6940973779637E+00  0.0000000000000E+00
-0.1115423112669E+01  0.7817798453380E+00  0.0000000000000E+00
-0.9953999080977E+00  0.8990612908450E+00  0.0000000000000E+00
-0.9504827232491E+00  0.9333936741942E+00  0.0000000000000E+00
-0.9038779344468E+00  0.9653991725778E+00  0.0000000000000E+00
-0.8558287935509E+00  0.9951944276872E+00  0.0000000000000E+00
-0.8065745425279E+00  0.1022954470846E+01  0.0000000000000E+00
-0.7563745841864E+00  0.1048968117851E+01  0.0000000000000E+00
-0.7055221739023E+00  0.1073685095719E+01  0.0000000000000E+00
-0.6543373939483E+00  0.1097708159783E+01  0.0000000000000E+00
-0.6030028739072E+00  0.1121408936098E+01  0.0000000000000E+00
-0.5511573080626E+00  0.1143965177158E+01  0.0000000000000E+00
-0.4985400003731E+00  0.1164653488733E+01  0.0000000000000E+00
-0.4451206320031E+00  0.1183171501571E+01  0.0000000000000E+00
-0.3909756266655E+00  0.1199445140769E+01  0.0000000000000E+00
-0.3362124051434E+00  0.1213497677274E+01  0.0000000000000E+00
-0.2809356549253E+00  0.1225380721385E+01  0.0000000000000E+00
-0.2252455004057E+00  0.1235139228470E+01  0.0000000000000E+00
-0.1692277473422E+00  0.1242797659442E+01  0.0000000000000E+00
-0.1129623151839E+00  0.1248349912846E+01  0.0000000000000E+00
-0.5652622173773E-01  0.1251752523713E+01  0.0000000000000E+00
 0.5721518201715E-08  0.1252915917342E+01  0.0000000000000E+00
 0.5652623317123E-01  0.1251752523209E+01  0.0000000000000E+00
 0.1129623265888E+00  0.1248349911861E+01  0.0000000000000E+00
 0.1692277587027E+00  0.1242797657991E+01  0.0000000000000E+00
 0.2252455117006E+00  0.1235139226564E+01  0.0000000000000E+00
 0.2809356661393E+00  0.1225380719029E+01  0.0000000000000E+00
 0.3362124162747E+00  0.1213497674468E+01  0.0000000000000E+00
 0.3909756376678E+00  0.1199445137522E+01  0.0000000000000E+00
 0.4451206428730E+00  0.1183171497887E+01  0.0000000000000E+00
 0.4985400111013E+00  0.1164653484628E+01  0.0000000000000E+00
 0.5511573186457E+00  0.1143965172676E+01  0.0000000000000E+00
 0.6030028843689E+00  0.1121408931341E+01  0.0000000000000E+00
 0.6543374043658E+00  0.1097708154925E+01  0.0000000000000E+00
 0.7055221842887E+00  0.1073685090798E+01  0.0000000000000E+00
 0.7563745944774E+00  0.1048968112736E+01  0.0000000000000E+00
 0.8065745526520E+00  0.1022954465413E+01  0.0000000000000E+00
 0.8558288034476E+00  0.9951944218405E+00  0.0000000000000E+00
 0.9038779440484E+00  0.9653991662662E+00  0.0000000000000E+00
 0.9504827325158E+00  0.9333936673912E+00  0.0000000000000E+00
 0.9953999169960E+00  0.8990612835587E+00  0.0000000000000E+00
 0.1115423119969E+01  0.7817798372309E+00  0.0000000000000E+00
 0.1184295335069E+01  0.6940973696789E+00  0.0000000000000E+00
 0.1245788742186E+01  0.6010884722267E+00  0.0000000000000E+00
 0.1299147100436E+01  0.5031944506385E+00  0.0000000000000E+00
 0.1342254583294E+01  0.4003982341591E+00  0.0000000000000E+00
 0.1373224644928E+01  0.2933160093813E+00  0.0000000000000E+00
 0.1392023042748E+01  0.1834402745273E+00  0.0000000000000E+00
 0.1399371687293E+01  0.7219241886835E-01  0.0000000000000E+00
 0.1399985099629E+01 -0.3933280952953E-01  0.0000000000000E+00
 0.1399062707437E+01 -0.1508575702208E+00  0.0000000000000E+00
 0.1396094802193E+01 -0.2623461644373E+00  0.0000000000000E+00
 0.1391121394584E+01 -0.3737634365663E+00  0.0000000000000E+00
 0.1384355932078E+01 -0.4850870602232E+00  0.0000000000000E+00
 0.1375894555663E+01 -0.5962944653722E+00  0.0000000000000E+00
 0.1365833297899E+01 -0.7073687630143E+00  0.0000000000000E+00
 0.1354391361186E+01 -0.8183095321661E+00  0.0000000000000E+00
 0.1341665909368E+01 -0.9291104230793E+00  0.0000000000000E+00
 0.1327637341185E+01 -0.1039753932216E+01  0.0000000000000E+00
 0.1312155011393E+01 -0.1150203084174E+01  0.0000000000000E+00
-0.1100000000000E+01 -0.4186859601281E+01  0.0000000000000E+00
-0.1100000000000E+01 -0.4113342086429E+01  0.0000000000000E+00
-0.1100000000000E+01 -0.4039824684257E+01  0.0000000000000E+00
-0.1100000000000E+01 -0.3966307217550E+01  0.0000000000000E+00
-0.1100000000000E+01 -0.3892789747717E+01  0.0000000000000E+00
-0.1100000000000E+01 -0.3819272288129E+01  0.0000000000000E+00
-0.1100000000000E+01 -0.3745754823288E+01  0.0000000000000E+00
-0.1100000000000E+01 -0.3672237366229E+01  0.0000000000000E+00
-0.1100000000000E+01 -0.3598719903615E+01  0.0000000000000E+00
-0.1100000000000E+01 -0.3525202280347E+01  0.0000000000000E+00
-0.1100000000000E+01 -0.3451684819510E+01  0.0000000000000E+00
-0.1100000000000E+01 -0.3378167379304E+01  0.0000000000000E+00
-0.1100000000000E+01 -0.3304649961005E+01  0.0000000000000E+00
-0.1100000000000E+01 -0.3231132803085E+01  0.0000000000000E+00
-0.1100000000000E+01 -0.3157615389387E+01  0.0000000000000E+00
-0.1100003367493E+01 -0.3084098002567E+01  0.0000000000000E+00
-0.1100163445176E+01 -0.3010580866809E+01  0.0000000000000E+00
-0.1100782072834E+01 -0.2937066271891E+01  0.0000000000000E+00
-0.1102023699626E+01 -0.2863559587695E+01  0.0000000000000E+00
-0.1103929635720E+01 -0.2790067100603E+01  0.0000000000000E+00
-0.1106486188836E+01 -0.2716594812946E+01  0.0000000000000E+00
-0.1109666467309E+01 -0.2643146234865E+01  0.0000000000000E+00
-0.1113448355568E+01 -0.2569726064901E+01  0.0000000000000E+00
-0.1117821735375E+01 -0.2496339061666E+01  0.0000000000000E+00
-0.1122792268339E+01 -0.2422989996067E+01  0.0000000000000E+00
-0.1128385326244E+01 -0.2349685803919E+01  0.0000000000000E+00
-0.1134650256572E+01 -0.2276436016166E+01  0.0000000000000E+00
-0.1141610183162E+01 -0.2203248992725E+01  0.0000000000000E+00
-0.1149256669967E+01 -0.2130130513310E+01  0.0000000000000E+00
-0.1157601152556E+01 -0.2057088440583E+01  0.0000000000000E+00
-0.1166677440836E+01 -0.1984133466366E+01  0.0000000000000E+00
-0.1176543877319E+01 -0.1911281600770E+01  0.0000000000000E+00
-0.1187286815106E+01 -0.1838554023786E+01  0.0000000000000E+00
-0.1199019040451E+01 -0.1765979519674E+01  0.0000000000000E+00
-0.1211849657205E+01 -0.1693591126070E+01  0.0000000000000E+00
-0.1225739090867E+01 -0.1621398208059E+01  0.0000000000000E+00
-0.1240134799336E+01 -0.1549304059582E+01  0.0000000000000E+00
-0.1254460274118E+01 -0.1477195909045E+01  0.0000000000000E+00
-0.1268516310659E+01 -0.1405034780455E+01  0.0000000000000E+00
-0.1282077126715E+01 -0.1332779095968E+01  0.0000000000000E+00
 0.1282077126706E+01 -0.1332779095966E+01  0.0000000000000E+00
 0.1268516310640E+01 -0.1405034780452E+01  0.0000000000000E+00
 0.1254460274092E+01 -0.1477195909041E+01  0.0000000000000E+00
 0.1240134799309E+01 -0.1549304059577E+01  0.0000000000000E+00
 0.1225739090841E+01 -0.1621398208054E+01  0.0000000000000E+00
 0.1211849657183E+01 -0.1693591126066E+01  0.0000000000000E+00
 0.1199019040432E+01 -0.1765979519671E+01  0.0000000000000E+00
 0.1187286815092E+01 -0.1838554023783E+01  0.0000000000000E+00
 0.1176543877308E+01 -0.1911281600768E+01  0.0000000000000E+00
 0.1166677440828E+01 -0.1984133466364E+01  0.0000000000000E+00
 0.1157601152551E+01 -0.2057088440582E+01  0.0000000000000E+00
 0.1149256669964E+01 -0.2130130513309E+01  0.0000000000000E+00
 0.1141610183160E+01 -0.2203248992724E+01  0.0000000000000E+00
 0.1134650256572E+01 -0.2276436016165E+01  0.0000000000000E+00
 0.1128385326245E+01 -0.2349685803918E+01  0.0000000000000E+00
 0.1122792268340E+01 -0.2422989996067E+01  0.0000000000000E+00
 0.1117821735377E+01 -0.2496339061666E+01  0.0000000000000E+00
 0.1113448355570E+01 -0.2569726064901E+01  0.0000000000000E+00
 0.1109666467311E+01 -0.2643146234864E+01  0.0000000000000E+00
 0.1106486188837E+01 -0.2716594812945E+01  0.0000000000000E+00
 0.1103929635722E+01 -0.2790067100603E+01  0.0000000000000E+00
 0.1102023699627E+01 -0.2863559587694E+01  0.0000000000000E+00
 0.1100782072834E+01 -0.2937066271891E+01  0.0000000000000E+00
 0.1100163445176E+01 -0.3010580866809E+01  0.0000000000000E+00
 0.1100003367493E+01 -0.3084098002567E+01  0.0000000000000E+00
 0.1100000000000E+01 -0.3157615389387E+01  0.0000000000000E+00
 0.1100000000000E+01 -0.3231132803084E+01  0.0000000000000E+00
 0.1100000000000E+01 -0.3304649961005E+01  0.0000000000000E+00
 0.1100000000000E+01 -0.3378167379303E+01  0.0000000000000E+00
 0.1100000000000E+01 -0.3451684819509E+01  0.0000000000000E+00
 0.1100000000000E+01 -0.3525202280347E+01  0.0000000000000E+00
 0.1100000000000E+01 -0.3598719903615E+01  0.0000000000000E+00
 0.1100000000000E+01 -0.3672237366228E+01  0.0000000000000E+00
 0.1100000000000E+01 -0.3745754823288E+01  0.0000000000000E+00
 0.1100000000000E+01 -0.3819272288128E+01  0.0000000000000E+00
 0.1100000000000E+01 -0.3892789747717E+01  0.0000000000000E+00
 0.1100000000000E+01 -0.3966307217550E+01  0.0000000000000E+00
 0.1100000000000E+01 -0.4039824684257E+01  0.0000000000000E+00
 0.1100000000000E+01 -0.4113342086429E+01  0.0000000000000E+00
 0.1100000000000E+01 -0.4186859601281E+01  0.0000000000000E+00
-0.4993026772283E+00  0.3556667767856E+00  0.0000000000000E+00
-0.4735245663412E+00  0.3620663345754E+00  0.0000000000000E+00
-0.4476687203903E+00  0.3681445021493E+00  0.0000000000000E+00
-0.4217386039092E+00  0.3738974563371E+00  0.0000000000000E+00
-0.3957377550662E+00  0.3793215337829E+00  0.0000000000000E+00
-0.3696697320059E+00  0.3844132472497E+00  0.0000000000000E+00
-0.3435383923604E+00  0.3891692391890E+00  0.0000000000000E+00
-0.3173476215928E+00  0.3935863469447E+00  0.0000000000000E+00
-0.2911015020050E+00  0.3976615807158E+00  0.0000000000000E+00
-0.2648041726206E+00  0.4013921568435E+00  0.0000000000000E+00
-0.2384599212245E+00  0.4047754915326E+00  0.0000000000000E+00
-0.2120731315299E+00  0.4078092176262E+00  0.0000000000000E+00
-0.1856482734578E+00  0.4104911929749E+00  0.0000000000000E+00
-0.1591899043058E+00  0.4128195070651E+00  0.0000000000000E+00
-0.1327026716844E+00  0.4147924875445E+00  0.0000000000000E+00
-0.1061912807138E+00  0.4164087088354E+00  0.0000000000000E+00
-0.7966049358352E-01  0.4176669966766E+00  0.0000000000000E+00
-0.5311511853688E-01  0.4185664328113E+00  0.0000000000000E+00
-0.2655999858263E-01  0.4191063586748E+00  0.0000000000000E+00
-0.2220446049250E-15  0.4192863780493E+00  0.0000000000000E+00
 0.2655999858263E-01  0.4191063586748E+00  0.0000000000000E+00
 0.5311511853688E-01  0.4185664328113E+00  0.0000000000000E+00
 0.7966049358352E-01  0.4176669966766E+00  0.0000000000000E+00
 0.1061912807138E+00  0.4164087088354E+00  0.0000000000000E+00
 0.1327026716844E+00  0.4147924875445E+00  0.0000000000000E+00
 0.1591899043058E+00  0.4128195070651E+00  0.0000000000000E+00
 0.1856482734578E+00  0.4104911929749E+00  0.0000000000000E+00
 0.2120731315299E+00  0.4078092176262E+00  0.0000000000000E+00
 0.2384599212245E+00  0.4047754915326E+00  0.0000000000000E+00
 0.2648041726206E+00  0.4013921568435E+00  0.0000000000000E+00
 0.2911015020050E+00  0.3976615807158E+00  0.0000000000000E+00
 0.3173476215928E+00  0.3935863469447E+00  0.0000000000000E+00
 0.3435383923604E+00  0.3891692391890E+00  0.0000000000000E+00
 0.3696697320059E+00  0.3844132472497E+00  0.0000000000000E+00
 0.3957377550662E+00  0.3793215337829E+00  0.0000000000000E+00
 0.4217386039092E+00  0.3738974563371E+00  0.0000000000000E+00
 0.4476687203903E+00  0.3681445021493E+00  0.0000000000000E+00
 0.4735245663412E+00  0.3620663345754E+00  0.0000000000000E+00
 0.4993026772283E+00  0.3556667767856E+00  0.0000000000000E+00
-0.5254305397178E+00  0.2681545389214E+00  0.0000000000000E+00
-0.5268050578882E+00  0.1873700269828E+00  0.0000000000000E+00
-0.5292624474844E+00  0.1066113625129E+00  0.0000000000000E+00
-0.5329591987273E+00  0.2590019213582E-01  0.0000000000000E+00
-0.5380609472327E+00 -0.5473409942444E-01  0.0000000000000E+00
-0.5447201698628E+00 -0.1352545080815E+00  0.0000000000000E+00
-0.5530298983064E+00 -0.2156212933524E+00  0.0000000000000E+00
-0.5629460114855E+00 -0.2958059507282E+00  0.0000000000000E+00
-0.5741921869928E+00 -0.3758154612773E+00  0.0000000000000E+00
-0.5862076862055E+00 -0.4557136218161E+00  0.0000000000000E+00
-0.5982231853407E+00 -0.5356117823665E+00  0.0000000000000E+00
-0.6094693606238E+00 -0.6156212929469E+00  0.0000000000000E+00
-0.6193854734541E+00 -0.6958059503657E+00  0.0000000000000E+00
-0.6276952014524E+00 -0.7761727356826E+00  0.0000000000000E+00
-0.6343544235680E+00 -0.8566931443820E+00  0.0000000000000E+00
-0.6394561715120E+00 -0.9373274359778E+00  0.0000000000000E+00
-0.6431529221637E+00 -0.1018038606382E+01  0.0000000000000E+00
-0.6456103111509E+00 -0.1098797270870E+01  0.0000000000000E+00
-0.6469848287027E+00 -0.1179581782819E+01  0.0000000000000E+00
 0.5254305397188E+00  0.2681545388746E+00  0.0000000000000E+00
 0.5268050578950E+00  0.1873700268891E+00  0.0000000000000E+00
 0.5292624475072E+00  0.1066113623728E+00  0.0000000000000E+00
 0.5329591987840E+00  0.2590019195037E-01  0.0000000000000E+00
 0.5380609473528E+00 -0.5473409965283E-01  0.0000000000000E+00
 0.5447201700916E+00 -0.1352545083477E+00  0.0000000000000E+00
 0.5530298987105E+00 -0.2156212936477E+00  0.0000000000000E+00
 0.5629460121574E+00 -0.2958059510374E+00  0.0000000000000E+00
 0.5741921880529E+00 -0.3758154615791E+00  0.0000000000000E+00
 0.5862076877978E+00 -0.4557136220852E+00  0.0000000000000E+00
 0.5982231876201E+00 -0.5356117825798E+00  0.0000000000000E+00
 0.6094693637399E+00 -0.6156212930901E+00  0.0000000000000E+00
 0.6193854775356E+00 -0.6958059504369E+00  0.0000000000000E+00
 0.6276952065998E+00 -0.7761727356909E+00  0.0000000000000E+00
 0.6343544298531E+00 -0.8566931443434E+00  0.0000000000000E+00
 0.6394561789831E+00 -0.9373274359111E+00  0.0000000000000E+00
 0.6431529308512E+00 -0.1018038606307E+01  0.0000000000000E+00
 0.6456103210724E+00 -0.1098797270804E+01  0.0000000000000E+00
 0.6469848398672E+00 -0.1179581782779E+01  0.0000000000000E+00
-0.5506674949859E+00  0.3746172104400E+00  0.0000000000000E+00
-0.5763349899718E+00  0.4002847058438E+00  0.0000000000000E+00
-0.6020024849577E+00  0.4259522012477E+00  0.0000000000000E+00
-0.6276699799436E+00  0.4516196966515E+00  0.0000000000000E+00
-0.6533374749295E+00  0.4772871920553E+00  0.0000000000000E+00
-0.6790049699154E+00  0.5029546874591E+00  0.0000000000000E+00
-0.7046724649013E+00  0.5286221828630E+00  0.0000000000000E+00
-0.7303399598872E+00  0.5542896782668E+00  0.0000000000000E+00
-0.7560074548731E+00  0.5799571736706E+00  0.0000000000000E+00
-0.7816749498590E+00  0.6056246690745E+00  0.0000000000000E+00
-0.8073424448449E+00  0.6312921644783E+00  0.0000000000000E+00
-0.8330099398308E+00  0.6569596598821E+00  0.0000000000000E+00
-0.8586774348167E+00  0.6826271552860E+00  0.0000000000000E+00
-0.8843449298026E+00  0.7082946506898E+00  0.0000000000000E+00
-0.9100124247885E+00  0.7339621460936E+00  0.0000000000000E+00
-0.9356799197744E+00  0.7596296414974E+00  0.0000000000000E+00
-0.9613474147603E+00  0.7852971369013E+00  0.0000000000000E+00
-0.9870149097462E+00  0.8109646323051E+00  0.0000000000000E+00
-0.1012682404732E+01  0.8366321277089E+00  0.0000000000000E+00
 0.5506674954117E+00  0.3746172100533E+00  0.0000000000000E+00
 0.5763349908233E+00  0.4002847050705E+00  0.0000000000000E+00
 0.6020024862350E+00  0.4259522000876E+00  0.0000000000000E+00
 0.6276699816466E+00  0.4516196951048E+00  0.0000000000000E+00
 0.6533374770583E+00  0.4772871901219E+00  0.0000000000000E+00
 0.6790049724699E+00  0.5029546851390E+00  0.0000000000000E+00
 0.7046724678816E+00  0.5286221801562E+00  0.0000000000000E+00
 0.7303399632932E+00  0.5542896751733E+00  0.0000000000000E+00
 0.7560074587049E+00  0.5799571701905E+00  0.0000000000000E+00
 0.7816749541165E+00  0.6056246652076E+00  0.0000000000000E+00
 0.8073424495282E+00  0.6312921602248E+00  0.0000000000000E+00
 0.8330099449398E+00  0.6569596552419E+00  0.0000000000000E+00
 0.8586774403515E+00  0.6826271502591E+00  0.0000000000000E+00
 0.8843449357631E+00  0.7082946452762E+00  0.0000000000000E+00
 0.9100124311748E+00  0.7339621402934E+00  0.0000000000000E+00
 0.9356799265864E+00  0.7596296353105E+00  0.0000000000000E+00
 0.9613474219981E+00  0.7852971303277E+00  0.0000000000000E+00
 0.9870149174097E+00  0.8109646253448E+00  0.0000000000000E+00
 0.1012682412821E+01  0.8366321203620E+00  0.0000000000000E+00
-0.1072499999993E+01 -0.4186859601281E+01  0.0000000000000E+00
-0.1072499999986E+01 -0.4113342086429E+01  0.0000000000000E+00
-0.1072499999979E+01 -0.4039824684257E+01  0.0000000000000E+00
-0.1072499999972E+01 -0.3966307217550E+01  0.0000000000000E+00
-0.1072499999965E+01 -0.3892789747717E+01  0.0000000000000E+00
-0.1072499999958E+01 -0.3819272288129E+01  0.0000000000000E+00
-0.1072499999951E+01 -0.3745754823288E+01  0.0000000000000E+00
-0.1072499999944E+01 -0.3672237366229E+01  0.0000000000000E+00
-0.1072499999937E+01 -0.3598719903615E+01  0.0000000000000E+00
-0.1072499999930E+01 -0.3525202280347E+01  0.0000000000000E+00
-0.1072499999924E+01 -0.3451684819510E+01  0.0000000000000E+00
-0.1072499999917E+01 -0.3378167379304E+01  0.0000000000000E+00
-0.1072499999910E+01 -0.3304649961005E+01  0.0000000000000E+00
-0.1072499999903E+01 -0.3231132803085E+01  0.0000000000000E+00
-0.1072499999896E+01 -0.3157615389387E+01  0.0000000000000E+00
-0.1072503283195E+01 -0.3084098002567E+01  0.0000000000000E+00
-0.1072659358928E+01 -0.3010580866809E+01  0.0000000000000E+00
-0.1073262520888E+01 -0.2937066271891E+01  0.0000000000000E+00
-0.1074473107003E+01 -0.2863559587695E+01  0.0000000000000E+00
-0.1076331394688E+01 -0.2790067100603E+01  0.0000000000000E+00
-0.1078824033968E+01 -0.2716594812946E+01  0.0000000000000E+00
-0.1081924805472E+01 -0.2643146234865E+01  0.0000000000000E+00
-0.1085612146517E+01 -0.2569726064901E+01  0.0000000000000E+00
-0.1089876191821E+01 -0.2496339061666E+01  0.0000000000000E+00
-0.1094722461453E+01 -0.2422989996067E+01  0.0000000000000E+00
-0.1100175692903E+01 -0.2349685803919E+01  0.0000000000000E+00
-0.1106283999966E+01 -0.2276436016166E+01  0.0000000000000E+00
-0.1113069928383E+01 -0.2203248992725E+01  0.0000000000000E+00
-0.1120525253010E+01 -0.2130130513310E+01  0.0000000000000E+00
-0.1128661123526E+01 -0.2057088440583E+01  0.0000000000000E+00
-0.1137510504591E+01 -0.1984133466366E+01  0.0000000000000E+00
-0.1147130280154E+01 -0.1911281600770E+01  0.0000000000000E+00
-0.1157604644488E+01 -0.1838554023786E+01  0.0000000000000E+00
-0.1169043564191E+01 -0.1765979519674E+01  0.0000000000000E+00
-0.1181553415518E+01 -0.1693591126070E+01  0.0000000000000E+00
-0.1195095613329E+01 -0.1621398208059E+01  0.0000000000000E+00
-0.1209131429078E+01 -0.1549304059582E+01  0.0000000000000E+00
-0.1223098766982E+01 -0.1477195909045E+01  0.0000000000000E+00
-0.1236803402600E+01 -0.1405034780455E+01  0.0000000000000E+00
-0.1250025198245E+01 -0.1332779095968E+01  0.0000000000000E+00
-0.1044999999986E+01 -0.4186859601281E+01  0.0000000000000E+00
-0.1044999999972E+01 -0.4113342086429E+01  0.0000000000000E+00
-0.1044999999958E+01 -0.4039824684257E+01  0.0000000000000E+00
-0.1044999999944E+01 -0.3966307217550E+01  0.0000000000000E+00
-0.1044999999930E+01 -0.3892789747717E+01  0.0000000000000E+00
-0.1044999999917E+01 -0.3819272288129E+01  0.0000000000000E+00
-0.1044999999903E+01 -0.3745754823288E+01  0.0000000000000E+00
-0.1044999999889E+01 -0.3672237366229E+01  0.0000000000000E+00
-0.1044999999875E+01 -0.3598719903615E+01  0.0000000000000E+00
-0.1044999999861E+01 -0.3525202280347E+01  0.0000000000000E+00
-0.1044999999847E+01 -0.3451684819510E+01  0.0000000000000E+00
-0.1044999999833E+01 -0.3378167379304E+01  0.0000000000000E+00
-0.1044999999819E+01 -0.3304649961005E+01  0.0000000000000E+00
-0.1044999999805E+01 -0.3231132803085E+01  0.0000000000000E+00
-0.1044999999791E+01 -0.3157615389387E+01  0.0000000000000E+00
-0.1045003198896E+01 -0.3084098002567E+01  0.0000000000000E+00
-0.1045155272681E+01 -0.3010580866809E+01  0.0000000000000E+00
-0.1045742968942E+01 -0.2937066271891E+01  0.0000000000000E+00
-0.1046922514380E+01 -0.2863559587695E+01  0.0000000000000E+00
-0.1048733153655E+01 -0.2790067100603E+01  0.0000000000000E+00
-0.1051161879100E+01 -0.2716594812946E+01  0.0000000000000E+00
-0.1054183143635E+01 -0.2643146234865E+01  0.0000000000000E+00
-0.1057775937466E+01 -0.2569726064901E+01  0.0000000000000E+00
-0.1061930648268E+01 -0.2496339061666E+01  0.0000000000000E+00
-0.1066652654568E+01 -0.2422989996067E+01  0.0000000000000E+00
-0.1071966059563E+01 -0.2349685803919E+01  0.0000000000000E+00
-0.1077917743359E+01 -0.2276436016166E+01  0.0000000000000E+00
-0.1084529673604E+01 -0.2203248992725E+01  0.0000000000000E+00
-0.1091793836053E+01 -0.2130130513310E+01  0.0000000000000E+00
-0.1099721094497E+01 -0.2057088440583E+01  0.0000000000000E+00
-0.1108343568346E+01 -0.1984133466366E+01  0.0000000000000E+00
-0.1117716682988E+01 -0.1911281600770E+01  0.0000000000000E+00
-0.1127922473870E+01 -0.1838554023786E+01  0.0000000000000E+00
-0.1139068087930E+01 -0.1765979519674E+01  0.0000000000000E+00
-0.1151257173830E+01 -0.1693591126070E+01  0.0000000000000E+00
-0.1164452135791E+01 -0.1621398208059E+01  0.0000000000000E+00
-0.1178128058819E+01 -0.1549304059582E+01  0.0000000000000E+00
-0.1191737259845E+01 -0.1477195909045E+01  0.0000000000000E+00
-0.1205090494541E+01 -0.1405034780455E+01  0.0000000000000E+00
-0.1217973269776E+01 -0.1332779095968E+01  0.0000000000000E+00
-0.1017499999979E+01 -0.4186859601281E+01  0.0000000000000E+00
-0.1017499999958E+01 -0.4113342086429E+01  0.0000000000000E+00
-0.1017499999937E+01 -0.4039824684257E+01  0.0000000000000E+00
-0.1017499999917E+01 -0.3966307217550E+01  0.0000000000000E+00
-0.1017499999896E+01 -0.3892789747717E+01  0.0000000000000E+00
-0.1017499999875E+01 -0.3819272288129E+01  0.0000000000000E+00
-0.1017499999854E+01 -0.3745754823288E+01  0.0000000000000E+00
-0.1017499999833E+01 -0.3672237366229E+01  0.0000000000000E+00
-0.1017499999812E+01 -0.3598719903615E+01  0.0000000000000E+00
-0.1017499999791E+01 -0.3525202280347E+01  0.0000000000000E+00
-0.1017499999771E+01 -0.3451684819510E+01  0.0000000000000E+00
-0.1017499999750E+01 -0.3378167379304E+01  0.0000000000000E+00
-0.1017499999729E+01 -0.3304649961005E+01  0.0000000000000E+00
-0.1017499999708E+01 -0.3231132803085E+01  0.0000000000000E+00
-0.1017499999687E+01 -0.3157615389387E+01  0.0000000000000E+00
-0.1017503114598E+01 -0.3084098002567E+01  0.0000000000000E+00
-0.1017651186433E+01 -0.3010580866809E+01  0.0000000000000E+00
-0.1018223416996E+01 -0.2937066271891E+01  0.0000000000000E+00
-0.1019371921757E+01 -0.2863559587695E+01  0.0000000000000E+00
-0.1021134912623E+01 -0.2790067100603E+01  0.0000000000000E+00
-0.1023499724232E+01 -0.2716594812946E+01  0.0000000000000E+00
-0.1026441481798E+01 -0.2643146234865E+01  0.0000000000000E+00
-0.1029939728415E+01 -0.2569726064901E+01  0.0000000000000E+00
-0.1033985104714E+01 -0.2496339061666E+01  0.0000000000000E+00
-0.1038582847683E+01 -0.2422989996067E+01  0.0000000000000E+00
-0.1043756426222E+01 -0.2349685803919E+01  0.0000000000000E+00
-0.1049551486753E+01 -0.2276436016166E+01  0.0000000000000E+00
-0.1055989418825E+01 -0.2203248992725E+01  0.0000000000000E+00
-0.1063062419096E+01 -0.2130130513310E+01  0.0000000000000E+00
-0.1070781065467E+01 -0.2057088440583E+01  0.0000000000000E+00
-0.1079176632101E+01 -0.1984133466366E+01  0.0000000000000E+00
-0.1088303085823E+01 -0.1911281600770E+01  0.0000000000000E+00
-0.1098240303252E+01 -0.1838554023786E+01  0.0000000000000E+00
-0.1109092611670E+01 -0.1765979519674E+01  0.0000000000000E+00
-0.1120960932142E+01 -0.1693591126070E+01  0.0000000000000E+00
-0.1133808658253E+01 -0.1621398208059E+01  0.0000000000000E+00
-0.1147124688561E+01 -0.1549304059582E+01  0.0000000000000E+00
-0.1160375752708E+01 -0.1477195909045E+01  0.0000000000000E+00
-0.1173377586482E+01 -0.1405034780455E+01  0.0000000000000E+00
-0.1185921341306E+01 -0.1332779095968E+01  0.0000000000000E+00
-0.9899999999722E+00 -0.4186859601281E+01  0.0000000000000E+00
-0.9899999999444E+00 -0.4113342086429E+01  0.0000000000000E+00
-0.9899999999166E+00 -0.4039824684257E+01  0.0000000000000E+00
-0.9899999998888E+00 -0.3966307217550E+01  0.0000000000000E+00
-0.9899999998610E+00 -0.3892789747717E+01  0.0000000000000E+00
-0.9899999998332E+00 -0.3819272288129E+01  0.0000000000000E+00
-0.9899999998054E+00 -0.3745754823288E+01  0.0000000000000E+00
-0.9899999997775E+00 -0.3672237366229E+01  0.0000000000000E+00
-0.9899999997497E+00 -0.3598719903615E+01  0.0000000000000E+00
-0.9899999997219E+00 -0.3525202280347E+01  0.0000000000000E+00
-0.9899999996941E+00 -0.3451684819510E+01  0.0000000000000E+00
-0.9899999996663E+00 -0.3378167379304E+01  0.0000000000000E+00
-0.9899999996385E+00 -0.3304649961005E+01  0.0000000000000E+00
-0.9899999996107E+00 -0.3231132803085E+01  0.0000000000000E+00
-0.9899999995829E+00 -0.3157615389387E+01  0.0000000000000E+00
-0.9900030302991E+00 -0.3084098002567E+01  0.0000000000000E+00
-0.9901471001853E+00 -0.3010580866809E+01  0.0000000000000E+00
-0.9907038650497E+00 -0.2937066271891E+01  0.0000000000000E+00
-0.9918213291341E+00 -0.2863559587695E+01  0.0000000000000E+00
-0.9935366715901E+00 -0.2790067100603E+01  0.0000000000000E+00
-0.9958375693647E+00 -0.2716594812946E+01  0.0000000000000E+00
-0.9986998199612E+00 -0.2643146234865E+01  0.0000000000000E+00
-0.1002103519364E+01 -0.2569726064901E+01  0.0000000000000E+00
-0.1006039561161E+01 -0.2496339061666E+01  0.0000000000000E+00
-0.1010513040798E+01 -0.2422989996067E+01  0.0000000000000E+00
-0.1015546792882E+01 -0.2349685803919E+01  0.0000000000000E+00
-0.1021185230146E+01 -0.2276436016166E+01  0.0000000000000E+00
-0.1027449164046E+01 -0.2203248992725E+01  0.0000000000000E+00
-0.1034331002139E+01 -0.2130130513310E+01  0.0000000000000E+00
-0.1041841036437E+01 -0.2057088440583E+01  0.0000000000000E+00
-0.1050009695856E+01 -0.1984133466366E+01  0.0000000000000E+00
-0.1058889488658E+01 -0.1911281600770E+01  0.0000000000000E+00
-0.1068558132634E+01 -0.1838554023786E+01  0.0000000000000E+00
-0.1079117135410E+01 -0.1765979519674E+01  0.0000000000000E+00
-0.1090664690455E+01 -0.1693591126070E+01  0.0000000000000E+00
-0.1103165180715E+01 -0.1621398208059E+01  0.0000000000000E+00
-0.1116121318302E+01 -0.1549304059582E+01  0.0000000000000E+00
-0.1129014245571E+01 -0.1477195909045E+01  0.0000000000000E+00
-0.1141664678423E+01 -0.1405034780455E+01  0.0000000000000E+00
-0.1153869412837E+01 -0.1332779095968E+01  0.0000000000000E+00
-0.9624999999652E+00 -0.4186859601281E+01  0.0000000000000E+00
-0.9624999999305E+00 -0.4113342086429E+01  0.0000000000000E+00
-0.9624999998957E+00 -0.4039824684257E+01  0.0000000000000E+00
-0.9624999998610E+00 -0.3966307217550E+01  0.0000000000000E+00
-0.9624999998262E+00 -0.3892789747717E+01  0.0000000000000E+00
-0.9624999997914E+00 -0.3819272288129E+01  0.0000000000000E+00
-0.9624999997567E+00 -0.3745754823288E+01  0.0000000000000E+00
-0.9624999997219E+00 -0.3672237366229E+01  0.0000000000000E+00
-0.9624999996872E+00 -0.3598719903615E+01  0.0000000000000E+00
-0.9624999996524E+00 -0.3525202280347E+01  0.0000000000000E+00
-0.9624999996177E+00 -0.3451684819510E+01  0.0000000000000E+00
-0.9624999995829E+00 -0.3378167379304E+01  0.0000000000000E+00
-0.9624999995481E+00 -0.3304649961005E+01  0.0000000000000E+00
-0.9624999995134E+00 -0.3231132803085E+01  0.0000000000000E+00
-0.9624999994786E+00 -0.3157615389387E+01  0.0000000000000E+00
-0.9625029460006E+00 -0.3084098002567E+01  0.0000000000000E+00
-0.9626430139377E+00 -0.3010580866809E+01  0.0000000000000E+00
-0.9631843131036E+00 -0.2937066271891E+01  0.0000000000000E+00
-0.9642707365111E+00 -0.2863559587695E+01  0.0000000000000E+00
-0.9659384305576E+00 -0.2790067100603E+01  0.0000000000000E+00
-0.9681754144969E+00 -0.2716594812946E+01  0.0000000000000E+00
-0.9709581581242E+00 -0.2643146234865E+01  0.0000000000000E+00
-0.9742673103133E+00 -0.2569726064901E+01  0.0000000000000E+00
-0.9780940176073E+00 -0.2496339061666E+01  0.0000000000000E+00
-0.9824432339124E+00 -0.2422989996067E+01  0.0000000000000E+00
-0.9873371595413E+00 -0.2349685803919E+01  0.0000000000000E+00
-0.9928189735396E+00 -0.2276436016166E+01  0.0000000000000E+00
-0.9989089092667E+00 -0.2203248992725E+01  0.0000000000000E+00
-0.1005599585181E+01 -0.2130130513310E+01  0.0000000000000E+00
-0.1012901007407E+01 -0.2057088440583E+01  0.0000000000000E+00
-0.1020842759611E+01 -0.1984133466366E+01  0.0000000000000E+00
-0.1029475891493E+01 -0.1911281600770E+01  0.0000000000000E+00
-0.1038875962015E+01 -0.1838554023786E+01  0.0000000000000E+00
-0.1049141659150E+01 -0.1765979519674E+01  0.0000000000000E+00
-0.1060368448767E+01 -0.1693591126070E+01  0.0000000000000E+00
-0.1072521703177E+01 -0.1621398208059E+01  0.0000000000000E+00
-0.1085117948044E+01 -0.1549304059582E+01  0.0000000000000E+00
-0.1097652738434E+01 -0.1477195909045E+01  0.0000000000000E+00
-0.1109951770363E+01 -0.1405034780455E+01  0.0000000000000E+00
-0.1121817484368E+01 -0.1332779095968E+01  0.0000000000000E+00
-0.9349999999583E+00 -0.4186859601281E+01  0.0000000000000E+00
-0.9349999999166E+00 -0.4113342086429E+01  0.0000000000000E+00
-0.9349999998749E+00 -0.4039824684257E+01  0.0000000000000E+00
-0.9349999998332E+00 -0.3966307217550E+01  0.0000000000000E+00
-0.9349999997914E+00 -0.3892789747717E+01  0.0000000000000E+00
-0.9349999997497E+00 -0.3819272288129E+01  0.0000000000000E+00
-0.9349999997080E+00 -0.3745754823288E+01  0.0000000000000E+00
-0.9349999996663E+00 -0.3672237366229E+01  0.0000000000000E+00
-0.9349999996246E+00 -0.3598719903615E+01  0.0000000000000E+00
-0.9349999995829E+00 -0.3525202280347E+01  0.0000000000000E+00
-0.9349999995412E+00 -0.3451684819510E+01  0.0000000000000E+00
-0.9349999994995E+00 -0.3378167379304E+01  0.0000000000000E+00
-0.9349999994578E+00 -0.3304649961005E+01  0.0000000000000E+00
-0.9349999994161E+00 -0.3231132803085E+01  0.0000000000000E+00
-0.9349999993743E+00 -0.3157615389387E+01  0.0000000000000E+00
-0.9350028617020E+00 -0.3084098002567E+01  0.0000000000000E+00
-0.9351389276901E+00 -0.3010580866809E+01  0.0000000000000E+00
-0.9356647611576E+00 -0.2937066271891E+01  0.0000000000000E+00
-0.9367201438881E+00 -0.2863559587695E+01  0.0000000000000E+00
-0.9383401895250E+00 -0.2790067100603E+01  0.0000000000000E+00
-0.9405132596292E+00 -0.2716594812946E+01  0.0000000000000E+00
-0.9432164962873E+00 -0.2643146234865E+01  0.0000000000000E+00
-0.9464311012625E+00 -0.2569726064901E+01  0.0000000000000E+00
-0.9501484740537E+00 -0.2496339061666E+01  0.0000000000000E+00
-0.9543734270272E+00 -0.2422989996067E+01  0.0000000000000E+00
-0.9591275262008E+00 -0.2349685803919E+01  0.0000000000000E+00
-0.9644527169331E+00 -0.2276436016166E+01  0.0000000000000E+00
-0.9703686544876E+00 -0.2203248992725E+01  0.0000000000000E+00
-0.9768681682243E+00 -0.2130130513310E+01  0.0000000000000E+00
-0.9839609783772E+00 -0.2057088440583E+01  0.0000000000000E+00
-0.9916758233662E+00 -0.1984133466366E+01  0.0000000000000E+00
-0.1000062294328E+01 -0.1911281600770E+01  0.0000000000000E+00
-0.1009193791397E+01 -0.1838554023786E+01  0.0000000000000E+00
-0.1019166182889E+01 -0.1765979519674E+01  0.0000000000000E+00
-0.1030072207079E+01 -0.1693591126070E+01  0.0000000000000E+00
-0.1041878225639E+01 -0.1621398208059E+01  0.0000000000000E+00
-0.1054114577786E+01 -0.1549304059582E+01  0.0000000000000E+00
-0.1066291231298E+01 -0.1477195909045E+01  0.0000000000000E+00
-0.1078238862304E+01 -0.1405034780455E+01  0.0000000000000E+00
-0.1089765555898E+01 -0.1332779095968E+01  0.0000000000000E+00
-0.9074999999513E+00 -0.4186859601281E+01  0.0000000000000E+00
-0.9074999999027E+00 -0.4113342086429E+01  0.0000000000000E+00
-0.9074999998540E+00 -0.4039824684257E+01  0.0000000000000E+00
-0.9074999998054E+00 -0.3966307217550E+01  0.0000000000000E+00
-0.9074999997567E+00 -0.3892789747717E+01  0.0000000000000E+00
-0.9074999997080E+00 -0.3819272288129E+01  0.0000000000000E+00
-0.9074999996594E+00 -0.3745754823288E+01  0.0000000000000E+00
-0.9074999996107E+00 -0.3672237366229E+01  0.0000000000000E+00
-0.9074999995620E+00 -0.3598719903615E+01  0.0000000000000E+00
-0.9074999995134E+00 -0.3525202280347E+01  0.0000000000000E+00
-0.9074999994647E+00 -0.3451684819510E+01  0.0000000000000E+00
-0.9074999994161E+00 -0.3378167379304E+01  0.0000000000000E+00
-0.9074999993674E+00 -0.3304649961005E+01  0.0000000000000E+00
-0.9074999993187E+00 -0.3231132803085E+01  0.0000000000000E+00
-0.9074999992701E+00 -0.3157615389387E+01  0.0000000000000E+00
-0.9075027774034E+00 -0.3084098002567E+01  0.0000000000000E+00
-0.9076348414425E+00 -0.3010580866809E+01  0.0000000000000E+00
-0.9081452092115E+00 -0.2937066271891E+01  0.0000000000000E+00
-0.9091695512650E+00 -0.2863559587695E+01  0.0000000000000E+00
-0.9107419484924E+00 -0.2790067100603E+01  0.0000000000000E+00
-0.9128511047615E+00 -0.2716594812946E+01  0.0000000000000E+00
-0.9154748344504E+00 -0.2643146234865E+01  0.0000000000000E+00
-0.9185948922116E+00 -0.2569726064901E+01  0.0000000000000E+00
-0.9222029305002E+00 -0.2496339061666E+01  0.0000000000000E+00
-0.9263036201420E+00 -0.2422989996067E+01  0.0000000000000E+00
-0.9309178928602E+00 -0.2349685803919E+01  0.0000000000000E+00
-0.9360864603266E+00 -0.2276436016166E+01  0.0000000000000E+00
-0.9418283997085E+00 -0.2203248992725E+01  0.0000000000000E+00
-0.9481367512672E+00 -0.2130130513310E+01  0.0000000000000E+00
-0.9550209493474E+00 -0.2057088440583E+01  0.0000000000000E+00
-0.9625088871213E+00 -0.1984133466366E+01  0.0000000000000E+00
-0.9706486971624E+00 -0.1911281600770E+01  0.0000000000000E+00
-0.9795116207790E+00 -0.1838554023786E+01  0.0000000000000E+00
-0.9891907066292E+00 -0.1765979519674E+01  0.0000000000000E+00
-0.9997759653916E+00 -0.1693591126070E+01  0.0000000000000E+00
-0.1011234748102E+01 -0.1621398208059E+01  0.0000000000000E+00
-0.1023111207527E+01 -0.1549304059582E+01  0.0000000000000E+00
-0.1034929724161E+01 -0.1477195909045E+01  0.0000000000000E+00
-0.1046525954245E+01 -0.1405034780455E+01  0.0000000000000E+00
-0.1057713627429E+01 -0.1332779095968E+01  0.0000000000000E+00
-0.8799999999444E+00 -0.4186859601281E+01  0.0000000000000E+00
-0.8799999998888E+00 -0.4113342086429E+01  0.0000000000000E+00
-0.8799999998332E+00 -0.4039824684257E+01  0.0000000000000E+00
-0.8799999997775E+00 -0.3966307217550E+01  0.0000000000000E+00
-0.8799999997219E+00 -0.3892789747717E+01  0.0000000000000E+00
-0.8799999996663E+00 -0.3819272288129E+01  0.0000000000000E+00
-0.8799999996107E+00 -0.3745754823288E+01  0.0000000000000E+00
-0.8799999995551E+00 -0.3672237366229E+01  0.0000000000000E+00
-0.8799999994995E+00 -0.3598719903615E+01  0.0000000000000E+00
-0.8799999994439E+00 -0.3525202280347E+01  0.0000000000000E+00
-0.8799999993882E+00 -0.3451684819510E+01  0.0000000000000E+00
-0.8799999993326E+00 -0.3378167379304E+01  0.0000000000000E+00
-0.8799999992770E+00 -0.3304649961005E+01  0.0000000000000E+00
-0.8799999992214E+00 -0.3231132803085E+01  0.0000000000000E+00
-0.8799999991658E+00 -0.3157615389387E+01  0.0000000000000E+00
-0.8800026931049E+00 -0.3084098002567E+01  0.0000000000000E+00
-0.8801307551949E+00 -0.3010580866809E+01  0.0000000000000E+00
-0.8806256572654E+00 -0.2937066271891E+01  0.0000000000000E+00
-0.8816189586420E+00 -0.2863559587695E+01  0.0000000000000E+00
-0.8831437074599E+00 -0.2790067100603E+01  0.0000000000000E+00
-0.8851889498937E+00 -0.2716594812946E+01  0.0000000000000E+00
-0.8877331726134E+00 -0.2643146234865E+01  0.0000000000000E+00
-0.8907586831608E+00 -0.2569726064901E+01  0.0000000000000E+00
-0.8942573869466E+00 -0.2496339061666E+01  0.0000000000000E+00
-0.8982338132567E+00 -0.2422989996067E+01  0.0000000000000E+00
-0.9027082595197E+00 -0.2349685803919E+01  0.0000000000000E+00
-0.9077202037202E+00 -0.2276436016166E+01  0.0000000000000E+00
-0.9132881449294E+00 -0.2203248992725E+01  0.0000000000000E+00
-0.9194053343101E+00 -0.2130130513310E+01  0.0000000000000E+00
-0.9260809203175E+00 -0.2057088440583E+01  0.0000000000000E+00
-0.9333419508763E+00 -0.1984133466366E+01  0.0000000000000E+00
-0.9412350999972E+00 -0.1911281600770E+01  0.0000000000000E+00
-0.9498294501608E+00 -0.1838554023786E+01  0.0000000000000E+00
-0.9592152303689E+00 -0.1765979519674E+01  0.0000000000000E+00
-0.9694797237040E+00 -0.1693591126070E+01  0.0000000000000E+00
-0.9805912705636E+00 -0.1621398208059E+01  0.0000000000000E+00
-0.9921078372688E+00 -0.1549304059582E+01  0.0000000000000E+00
-0.1003568217024E+01 -0.1477195909045E+01  0.0000000000000E+00
-0.1014813046186E+01 -0.1405034780455E+01  0.0000000000000E+00
-0.1025661698959E+01 -0.1332779095968E+01  0.0000000000000E+00
-0.8524999999374E+00 -0.4186859601281E+01  0.0000000000000E+00
-0.8524999998749E+00 -0.4113342086429E+01  0.0000000000000E+00
-0.8524999998123E+00 -0.4039824684257E+01  0.0000000000000E+00
-0.8524999997497E+00 -0.3966307217550E+01  0.0000000000000E+00
-0.8524999996872E+00 -0.3892789747717E+01  0.0000000000000E+00
-0.8524999996246E+00 -0.3819272288129E+01  0.0000000000000E+00
-0.8524999995620E+00 -0.3745754823288E+01  0.0000000000000E+00
-0.8524999994995E+00 -0.3672237366229E+01  0.0000000000000E+00
-0.8524999994369E+00 -0.3598719903615E+01  0.0000000000000E+00
-0.8524999993743E+00 -0.3525202280347E+01  0.0000000000000E+00
-0.8524999993118E+00 -0.3451684819510E+01  0.0000000000000E+00
-0.8524999992492E+00 -0.3378167379304E+01  0.0000000000000E+00
-0.8524999991866E+00 -0.3304649961005E+01  0.0000000000000E+00
-0.8524999991241E+00 -0.3231132803085E+01  0.0000000000000E+00
-0.8524999990615E+00 -0.3157615389387E+01  0.0000000000000E+00
-0.8525026088063E+00 -0.3084098002567E+01  0.0000000000000E+00
-0.8526266689474E+00 -0.3010580866809E+01  0.0000000000000E+00
-0.8531061053193E+00 -0.2937066271891E+01  0.0000000000000E+00
-0.8540683660190E+00 -0.2863559587695E+01  0.0000000000000E+00
-0.8555454664273E+00 -0.2790067100603E+01  0.0000000000000E+00
-0.8575267950260E+00 -0.2716594812946E+01  0.0000000000000E+00
-0.8599915107765E+00 -0.2643146234865E+01  0.0000000000000E+00
-0.8629224741099E+00 -0.2569726064901E+01  0.0000000000000E+00
-0.8663118433931E+00 -0.2496339061666E+01  0.0000000000000E+00
-0.8701640063715E+00 -0.2422989996067E+01  0.0000000000000E+00
-0.8744986261792E+00 -0.2349685803919E+01  0.0000000000000E+00
-0.8793539471137E+00 -0.2276436016166E+01  0.0000000000000E+00
-0.8847478901504E+00 -0.2203248992725E+01  0.0000000000000E+00
-0.8906739173530E+00 -0.2130130513310E+01  0.0000000000000E+00
-0.8971408912877E+00 -0.2057088440583E+01  0.0000000000000E+00
-0.9041750146314E+00 -0.1984133466366E+01  0.0000000000000E+00
-0.9118215028320E+00 -0.1911281600770E+01  0.0000000000000E+00
-0.9201472795426E+00 -0.1838554023785E+01  0.0000000000000E+00
-0.9292397541087E+00 -0.1765979519674E+01  0.0000000000000E+00
-0.9391834820163E+00 -0.1693591126070E+01  0.0000000000000E+00
-0.9499477930258E+00 -0.1621398208058E+01  0.0000000000000E+00
-0.9611044670103E+00 -0.1549304059582E+01  0.0000000000000E+00
-0.9722067098871E+00 -0.1477195909045E+01  0.0000000000000E+00
-0.9831001381267E+00 -0.1405034780455E+01  0.0000000000000E+00
-0.9936097704899E+00 -0.1332779095968E+01  0.0000000000000E+00
-0.8249999999305E+00 -0.4186859601281E+01  0.0000000000000E+00
-0.8249999998610E+00 -0.4113342086429E+01  0.0000000000000E+00
-0.8249999997914E+00 -0.4039824684257E+01  0.0000000000000E+00
-0.8249999997219E+00 -0.3966307217550E+01  0.0000000000000E+00
-0.8249999996524E+00 -0.3892789747717E+01  0.0000000000000E+00
-0.8249999995829E+00 -0.3819272288129E+01  0.0000000000000E+00
-0.8249999995134E+00 -0.3745754823288E+01  0.0000000000000E+00
-0.8249999994439E+00 -0.3672237366229E+01  0.0000000000000E+00
-0.8249999993743E+00 -0.3598719903615E+01  0.0000000000000E+00
-0.8249999993048E+00 -0.3525202280347E+01  0.0000000000000E+00
-0.8249999992353E+00 -0.3451684819510E+01  0.0000000000000E+00
-0.8249999991658E+00 -0.3378167379303E+01  0.0000000000000E+00
-0.8249999990963E+00 -0.3304649961005E+01  0.0000000000000E+00
-0.8249999990268E+00 -0.3231132803085E+01  0.0000000000000E+00
-0.8249999989572E+00 -0.3157615389387E+01  0.0000000000000E+00
-0.8250025245077E+00 -0.3084098002567E+01  0.0000000000000E+00
-0.8251225826998E+00 -0.3010580866809E+01  0.0000000000000E+00
-0.8255865533732E+00 -0.2937066271891E+01  0.0000000000000E+00
-0.8265177733960E+00 -0.2863559587695E+01  0.0000000000000E+00
-0.8279472253947E+00 -0.2790067100603E+01  0.0000000000000E+00
-0.8298646401582E+00 -0.2716594812946E+01  0.0000000000000E+00
-0.8322498489395E+00 -0.2643146234865E+01  0.0000000000000E+00
-0.8350862650591E+00 -0.2569726064901E+01  0.0000000000000E+00
-0.8383662998395E+00 -0.2496339061666E+01  0.0000000000000E+00
-0.8420941994863E+00 -0.2422989996067E+01  0.0000000000000E+00
-0.8462889928386E+00 -0.2349685803919E+01  0.0000000000000E+00
-0.8509876905072E+00 -0.2276436016166E+01  0.0000000000000E+00
-0.8562076353713E+00 -0.2203248992725E+01  0.0000000000000E+00
-0.8619425003959E+00 -0.2130130513310E+01  0.0000000000000E+00
-0.8682008622578E+00 -0.2057088440583E+01  0.0000000000000E+00
-0.8750080783865E+00 -0.1984133466366E+01  0.0000000000000E+00
-0.8824079056668E+00 -0.1911281600770E+01  0.0000000000000E+00
-0.8904651089244E+00 -0.1838554023785E+01  0.0000000000000E+00
-0.8992642778485E+00 -0.1765979519674E+01  0.0000000000000E+00
-0.9088872403287E+00 -0.1693591126070E+01  0.0000000000000E+00
-0.9193043154879E+00 -0.1621398208058E+01  0.0000000000000E+00
-0.9301010967519E+00 -0.1549304059582E+01  0.0000000000000E+00
-0.9408452027503E+00 -0.1477195909045E+01  0.0000000000000E+00
-0.9513872300675E+00 -0.1405034780455E+01  0.0000000000000E+00
-0.9615578420205E+00 -0.1332779095968E+01  0.0000000000000E+00
-0.7974999999235E+00 -0.4186859601281E+01  0.0000000000000E+00
-0.7974999998471E+00 -0.4113342086429E+01  0.0000000000000E+00
-0.7974999997706E+00 -0.4039824684257E+01  0.0000000000000E+00
-0.7974999996941E+00 -0.3966307217550E+01  0.0000000000000E+00
-0.7974999996177E+00 -0.3892789747717E+01  0.0000000000000E+00
-0.7974999995412E+00 -0.3819272288129E+01  0.0000000000000E+00
-0.7974999994647E+00 -0.3745754823288E+01  0.0000000000000E+00
-0.7974999993882E+00 -0.3672237366229E+01  0.0000000000000E+00
-0.7974999993118E+00 -0.3598719903615E+01  0.0000000000000E+00
-0.7974999992353E+00 -0.3525202280347E+01  0.0000000000000E+00
-0.7974999991588E+00 -0.3451684819510E+01  0.0000000000000E+00
-0.7974999990824E+00 -0.3378167379303E+01  0.0000000000000E+00
-0.7974999990059E+00 -0.3304649961005E+01  0.0000000000000E+00
-0.7974999989294E+00 -0.3231132803085E+01  0.0000000000000E+00
-0.7974999988530E+00 -0.3157615389387E+01  0.0000000000000E+00
-0.7975024402092E+00 -0.3084098002567E+01  0.0000000000000E+00
-0.7976184964522E+00 -0.3010580866809E+01  0.0000000000000E+00
-0.7980670014271E+00 -0.2937066271891E+01  0.0000000000000E+00
-0.7989671807730E+00 -0.2863559587695E+01  0.0000000000000E+00
-0.8003489843621E+00 -0.2790067100603E+01  0.0000000000000E+00
-0.8022024852905E+00 -0.2716594812946E+01  0.0000000000000E+00
-0.8045081871026E+00 -0.2643146234865E+01  0.0000000000000E+00
-0.8072500560082E+00 -0.2569726064901E+01  0.0000000000000E+00
-0.8104207562860E+00 -0.2496339061666E+01  0.0000000000000E+00
-0.8140243926010E+00 -0.2422989996067E+01  0.0000000000000E+00
-0.8180793594981E+00 -0.2349685803919E+01  0.0000000000000E+00
-0.8226214339007E+00 -0.2276436016166E+01  0.0000000000000E+00
-0.8276673805922E+00 -0.2203248992725E+01  0.0000000000000E+00
-0.8332110834388E+00 -0.2130130513310E+01  0.0000000000000E+00
-0.8392608332280E+00 -0.2057088440583E+01  0.0000000000000E+00
-0.8458411421415E+00 -0.1984133466366E+01  0.0000000000000E+00
-0.8529943085016E+00 -0.1911281600770E+01  0.0000000000000E+00
-0.8607829383062E+00 -0.1838554023785E+01  0.0000000000000E+00
-0.8692888015883E+00 -0.1765979519674E+01  0.0000000000000E+00
-0.8785909986410E+00 -0.1693591126070E+01  0.0000000000000E+00
-0.8886608379500E+00 -0.1621398208058E+01  0.0000000000000E+00
-0.8990977264935E+00 -0.1549304059581E+01  0.0000000000000E+00
-0.9094836956135E+00 -0.1477195909045E+01  0.0000000000000E+00
-0.9196743220083E+00 -0.1405034780455E+01  0.0000000000000E+00
-0.9295059135511E+00 -0.1332779095968E+01  0.0000000000000E+00
-0.7699999999166E+00 -0.4186859601281E+01  0.0000000000000E+00
-0.7699999998332E+00 -0.4113342086429E+01  0.0000000000000E+00
-0.7699999997497E+00 -0.4039824684257E+01  0.0000000000000E+00
-0.7699999996663E+00 -0.3966307217550E+01  0.0000000000000E+00
-0.7699999995829E+00 -0.3892789747717E+01  0.0000000000000E+00
-0.7699999994995E+00 -0.3819272288129E+01  0.0000000000000E+00
-0.7699999994161E+00 -0.3745754823288E+01  0.0000000000000E+00
-0.7699999993326E+00 -0.3672237366229E+01  0.0000000000000E+00
-0.7699999992492E+00 -0.3598719903615E+01  0.0000000000000E+00
-0.7699999991658E+00 -0.3525202280347E+01  0.0000000000000E+00
-0.7699999990824E+00 -0.3451684819510E+01  0.0000000000000E+00
-0.7699999989989E+00 -0.3378167379303E+01  0.0000000000000E+00
-0.7699999989155E+00 -0.3304649961005E+01  0.0000000000000E+00
-0.7699999988321E+00 -0.3231132803085E+01  0.0000000000000E+00
-0.7699999987487E+00 -0.3157615389387E+01  0.0000000000000E+00
-0.7700023559106E+00 -0.3084098002567E+01  0.0000000000000E+00
-0.7701144102046E+00 -0.3010580866809E+01  0.0000000000000E+00
-0.7705474494810E+00 -0.2937066271891E+01  0.0000000000000E+00
-0.7714165881500E+00 -0.2863559587695E+01  0.0000000000000E+00
-0.7727507433296E+00 -0.2790067100603E+01  0.0000000000000E+00
-0.7745403304228E+00 -0.2716594812946E+01  0.0000000000000E+00
-0.7767665252657E+00 -0.2643146234865E+01  0.0000000000000E+00
-0.7794138469574E+00 -0.2569726064901E+01  0.0000000000000E+00
-0.7824752127324E+00 -0.2496339061666E+01  0.0000000000000E+00
-0.7859545857158E+00 -0.2422989996067E+01  0.0000000000000E+00
-0.7898697261576E+00 -0.2349685803919E+01  0.0000000000000E+00
-0.7942551772942E+00 -0.2276436016166E+01  0.0000000000000E+00
-0.7991271258132E+00 -0.2203248992725E+01  0.0000000000000E+00
-0.8044796664817E+00 -0.2130130513310E+01  0.0000000000000E+00
-0.8103208041981E+00 -0.2057088440583E+01  0.0000000000000E+00
-0.8166742058966E+00 -0.1984133466366E+01  0.0000000000000E+00
-0.8235807113364E+00 -0.1911281600770E+01  0.0000000000000E+00
-0.8311007676880E+00 -0.1838554023785E+01  0.0000000000000E+00
-0.8393133253280E+00 -0.1765979519674E+01  0.0000000000000E+00
-0.8482947569534E+00 -0.1693591126070E+01  0.0000000000000E+00
-0.8580173604121E+00 -0.1621398208058E+01  0.0000000000000E+00
-0.8680943562351E+00 -0.1549304059581E+01  0.0000000000000E+00
-0.8781221884767E+00 -0.1477195909045E+01  0.0000000000000E+00
-0.8879614139491E+00 -0.1405034780455E+01  0.0000000000000E+00
-0.8974539850816E+00 -0.1332779095968E+01  0.0000000000000E+00
-0.7424999999096E+00 -0.4186859601281E+01  0.0000000000000E+00
-0.7424999998193E+00 -0.4113342086429E+01  0.0000000000000E+00
-0.7424999997289E+00 -0.4039824684257E+01  0.0000000000000E+00
-0.7424999996385E+00 -0.3966307217550E+01  0.0000000000000E+00
-0.7424999995481E+00 -0.3892789747717E+01  0.0000000000000E+00
-0.7424999994578E+00 -0.3819272288129E+01  0.0000000000000E+00
-0.7424999993674E+00 -0.3745754823288E+01  0.0000000000000E+00
-0.7424999992770E+00 -0.3672237366229E+01  0.0000000000000E+00
-0.7424999991866E+00 -0.3598719903615E+01  0.0000000000000E+00
-0.7424999990963E+00 -0.3525202280347E+01  0.0000000000000E+00
-0.7424999990059E+00 -0.3451684819510E+01  0.0000000000000E+00
-0.7424999989155E+00 -0.3378167379303E+01  0.0000000000000E+00
-0.7424999988252E+00 -0.3304649961005E+01  0.0000000000000E+00
-0.7424999987348E+00 -0.3231132803085E+01  0.0000000000000E+00
-0.7424999986444E+00 -0.3157615389387E+01  0.0000000000000E+00
-0.7425022716120E+00 -0.3084098002567E+01  0.0000000000000E+00
-0.7426103239570E+00 -0.3010580866809E+01  0.0000000000000E+00
-0.7430278975349E+00 -0.2937066271891E+01  0.0000000000000E+00
-0.7438659955270E+00 -0.2863559587695E+01  0.0000000000000E+00
-0.7451525022970E+00 -0.2790067100603E+01  0.0000000000000E+00
-0.7468781755550E+00 -0.2716594812946E+01  0.0000000000000E+00
-0.7490248634287E+00 -0.2643146234865E+01  0.0000000000000E+00
-0.7515776379065E+00 -0.2569726064901E+01  0.0000000000000E+00
-0.7545296691789E+00 -0.2496339061666E+01  0.0000000000000E+00
-0.7578847788306E+00 -0.2422989996067E+01  0.0000000000000E+00
-0.7616600928170E+00 -0.2349685803919E+01  0.0000000000000E+00
-0.7658889206877E+00 -0.2276436016166E+01  0.0000000000000E+00
-0.7705868710341E+00 -0.2203248992725E+01  0.0000000000000E+00
-0.7757482495245E+00 -0.2130130513310E+01  0.0000000000000E+00
-0.7813807751683E+00 -0.2057088440583E+01  0.0000000000000E+00
-0.7875072696517E+00 -0.1984133466366E+01  0.0000000000000E+00
-0.7941671141712E+00 -0.1911281600770E+01  0.0000000000000E+00
-0.8014185970699E+00 -0.1838554023785E+01  0.0000000000000E+00
-0.8093378490678E+00 -0.1765979519674E+01  0.0000000000000E+00
-0.8179985152657E+00 -0.1693591126069E+01  0.0000000000000E+00
-0.8273738828742E+00 -0.1621398208058E+01  0.0000000000000E+00
-0.8370909859766E+00 -0.1549304059581E+01  0.0000000000000E+00
-0.8467606813399E+00 -0.1477195909045E+01  0.0000000000000E+00
-0.8562485058899E+00 -0.1405034780455E+01  0.0000000000000E+00
-0.8654020566122E+00 -0.1332779095967E+01  0.0000000000000E+00
-0.7149999999027E+00 -0.4186859601281E+01  0.0000000000000E+00
-0.7149999998054E+00 -0.4113342086429E+01  0.0000000000000E+00
-0.7149999997080E+00 -0.4039824684257E+01  0.0000000000000E+00
-0.7149999996107E+00 -0.3966307217550E+01  0.0000000000000E+00
-0.7149999995134E+00 -0.3892789747717E+01  0.0000000000000E+00
-0.7149999994161E+00 -0.3819272288129E+01  0.0000000000000E+00
-0.7149999993187E+00 -0.3745754823288E+01  0.0000000000000E+00
-0.7149999992214E+00 -0.3672237366229E+01  0.0000000000000E+00
-0.7149999991241E+00 -0.3598719903615E+01  0.0000000000000E+00
-0.7149999990268E+00 -0.3525202280347E+01  0.0000000000000E+00
-0.7149999989294E+00 -0.3451684819510E+01  0.0000000000000E+00
-0.7149999988321E+00 -0.3378167379303E+01  0.0000000000000E+00
-0.7149999987348E+00 -0.3304649961005E+01  0.0000000000000E+00
-0.7149999986375E+00 -0.3231132803085E+01  0.0000000000000E+00
-0.7149999985401E+00 -0.3157615389387E+01  0.0000000000000E+00
-0.7150021873135E+00 -0.3084098002567E+01  0.0000000000000E+00
-0.7151062377094E+00 -0.3010580866809E+01  0.0000000000000E+00
-0.7155083455888E+00 -0.2937066271891E+01  0.0000000000000E+00
-0.7163154029040E+00 -0.2863559587695E+01  0.0000000000000E+00
-0.7175542612644E+00 -0.2790067100603E+01  0.0000000000000E+00
-0.7192160206873E+00 -0.2716594812946E+01  0.0000000000000E+00
-0.7212832015918E+00 -0.2643146234865E+01  0.0000000000000E+00
-0.7237414288557E+00 -0.2569726064901E+01  0.0000000000000E+00
-0.7265841256253E+00 -0.2496339061666E+01  0.0000000000000E+00
-0.7298149719453E+00 -0.2422989996067E+01  0.0000000000000E+00
-0.7334504594765E+00 -0.2349685803919E+01  0.0000000000000E+00
-0.7375226640812E+00 -0.2276436016166E+01  0.0000000000000E+00
-0.7420466162550E+00 -0.2203248992725E+01  0.0000000000000E+00
-0.7470168325674E+00 -0.2130130513310E+01  0.0000000000000E+00
-0.7524407461384E+00 -0.2057088440583E+01  0.0000000000000E+00
-0.7583403334067E+00 -0.1984133466366E+01  0.0000000000000E+00
-0.7647535170060E+00 -0.1911281600770E+01  0.0000000000000E+00
-0.7717364264517E+00 -0.1838554023785E+01  0.0000000000000E+00
-0.7793623728076E+00 -0.1765979519674E+01  0.0000000000000E+00
-0.7877022735781E+00 -0.1693591126069E+01  0.0000000000000E+00
-0.7967304053363E+00 -0.1621398208058E+01  0.0000000000000E+00
-0.8060876157182E+00 -0.1549304059581E+01  0.0000000000000E+00
-0.8153991742031E+00 -0.1477195909045E+01  0.0000000000000E+00
-0.8245355978307E+00 -0.1405034780454E+01  0.0000000000000E+00
-0.8333501281428E+00 -0.1332779095967E+01  0.0000000000000E+00
-0.6874999998957E+00 -0.4186859601281E+01  0.0000000000000E+00
-0.6874999997914E+00 -0.4113342086429E+01  0.0000000000000E+00
-0.6874999996872E+00 -0.4039824684257E+01  0.0000000000000E+00
-0.6874999995829E+00 -0.3966307217550E+01  0.0000000000000E+00
-0.6874999994786E+00 -0.3892789747717E+01  0.0000000000000E+00
-0.6874999993743E+00 -0.3819272288129E+01  0.0000000000000E+00
-0.6874999992701E+00 -0.3745754823288E+01  0.0000000000000E+00
-0.6874999991658E+00 -0.3672237366229E+01  0.0000000000000E+00
-0.6874999990615E+00 -0.3598719903615E+01  0.0000000000000E+00
-0.6874999989572E+00 -0.3525202280347E+01  0.0000000000000E+00
-0.6874999988530E+00 -0.3451684819510E+01  0.0000000000000E+00
-0.6874999987487E+00 -0.3378167379303E+01  0.0000000000000E+00
-0.6874999986444E+00 -0.3304649961005E+01  0.0000000000000E+00
-0.6874999985401E+00 -0.3231132803085E+01  0.0000000000000E+00
-0.6874999984359E+00 -0.3157615389387E+01  0.0000000000000E+00
-0.6875021030149E+00 -0.3084098002567E+01  0.0000000000000E+00
-0.6876021514618E+00 -0.3010580866809E+01  0.0000000000000E+00
-0.6879887936428E+00 -0.2937066271891E+01  0.0000000000000E+00
-0.6887648102810E+00 -0.2863559587695E+01  0.0000000000000E+00
-0.6899560202319E+00 -0.2790067100603E+01  0.0000000000000E+00
-0.6915538658196E+00 -0.2716594812946E+01  0.0000000000000E+00
-0.6935415397548E+00 -0.2643146234865E+01  0.0000000000000E+00
-0.6959052198048E+00 -0.2569726064901E+01  0.0000000000000E+00
-0.6986385820717E+00 -0.2496339061666E+01  0.0000000000000E+00
-0.7017451650601E+00 -0.2422989996067E+01  0.0000000000000E+00
-0.7052408261360E+00 -0.2349685803919E+01  0.0000000000000E+00
-0.7091564074748E+00 -0.2276436016166E+01  0.0000000000000E+00
-0.7135063614760E+00 -0.2203248992725E+01  0.0000000000000E+00
-0.7182854156103E+00 -0.2130130513310E+01  0.0000000000000E+00
-0.7235007171086E+00 -0.2057088440583E+01  0.0000000000000E+00
-0.7291733971618E+00 -0.1984133466366E+01  0.0000000000000E+00
-0.7353399198408E+00 -0.1911281600770E+01  0.0000000000000E+00
-0.7420542558335E+00 -0.1838554023785E+01  0.0000000000000E+00
-0.7493868965474E+00 -0.1765979519674E+01  0.0000000000000E+00
-0.7574060318904E+00 -0.1693591126069E+01  0.0000000000000E+00
-0.7660869277984E+00 -0.1621398208058E+01  0.0000000000000E+00
-0.7750842454598E+00 -0.1549304059581E+01  0.0000000000000E+00
-0.7840376670663E+00 -0.1477195909044E+01  0.0000000000000E+00
-0.7928226897716E+00 -0.1405034780454E+01  0.0000000000000E+00
-0.8012981996734E+00 -0.1332779095967E+01  0.0000000000000E+00
-0.6599999998888E+00 -0.4186859601281E+01  0.0000000000000E+00
-0.6599999997775E+00 -0.4113342086429E+01  0.0000000000000E+00
-0.6599999996663E+00 -0.4039824684257E+01  0.0000000000000E+00
-0.6599999995551E+00 -0.3966307217550E+01  0.0000000000000E+00
-0.6599999994439E+00 -0.3892789747717E+01  0.0000000000000E+00
-0.6599999993326E+00 -0.3819272288129E+01  0.0000000000000E+00
-0.6599999992214E+00 -0.3745754823288E+01  0.0000000000000E+00
-0.6599999991102E+00 -0.3672237366229E+01  0.0000000000000E+00
-0.6599999989989E+00 -0.3598719903615E+01  0.0000000000000E+00
-0.6599999988877E+00 -0.3525202280347E+01  0.0000000000000E+00
-0.6599999987765E+00 -0.3451684819510E+01  0.0000000000000E+00
-0.6599999986653E+00 -0.3378167379303E+01  0.0000000000000E+00
-0.6599999985540E+00 -0.3304649961005E+01  0.0000000000000E+00
-0.6599999984428E+00 -0.3231132803085E+01  0.0000000000000E+00
-0.6599999983316E+00 -0.3157615389387E+01  0.0000000000000E+00
-0.6600020187164E+00 -0.3084098002567E+01  0.0000000000000E+00
-0.6600980652142E+00 -0.3010580866809E+01  0.0000000000000E+00
-0.6604692416967E+00 -0.2937066271891E+01  0.0000000000000E+00
-0.6612142176580E+00 -0.2863559587695E+01  0.0000000000000E+00
-0.6623577791993E+00 -0.2790067100603E+01  0.0000000000000E+00
-0.6638917109518E+00 -0.2716594812946E+01  0.0000000000000E+00
-0.6657998779179E+00 -0.2643146234865E+01  0.0000000000000E+00
-0.6680690107540E+00 -0.2569726064901E+01  0.0000000000000E+00
-0.6706930385182E+00 -0.2496339061666E+01  0.0000000000000E+00
-0.6736753581749E+00 -0.2422989996067E+01  0.0000000000000E+00
-0.6770311927954E+00 -0.2349685803919E+01  0.0000000000000E+00
-0.6807901508683E+00 -0.2276436016166E+01  0.0000000000000E+00
-0.6849661066969E+00 -0.2203248992725E+01  0.0000000000000E+00
-0.6895539986532E+00 -0.2130130513310E+01  0.0000000000000E+00
-0.6945606880787E+00 -0.2057088440583E+01  0.0000000000000E+00
-0.7000064609169E+00 -0.1984133466366E+01  0.0000000000000E+00
-0.7059263226756E+00 -0.1911281600770E+01  0.0000000000000E+00
-0.7123720852153E+00 -0.1838554023785E+01  0.0000000000000E+00
-0.7194114202871E+00 -0.1765979519674E+01  0.0000000000000E+00
-0.7271097902028E+00 -0.1693591126069E+01  0.0000000000000E+00
-0.7354434502605E+00 -0.1621398208058E+01  0.0000000000000E+00
-0.7440808752013E+00 -0.1549304059581E+01  0.0000000000000E+00
-0.7526761599294E+00 -0.1477195909044E+01  0.0000000000000E+00
-0.7611097817124E+00 -0.1405034780454E+01  0.0000000000000E+00
-0.7692462712040E+00 -0.1332779095967E+01  0.0000000000000E+00
-0.6324999998818E+00 -0.4186859601281E+01  0.0000000000000E+00
-0.6324999997636E+00 -0.4113342086429E+01  0.0000000000000E+00
-0.6324999996455E+00 -0.4039824684257E+01  0.0000000000000E+00
-0.6324999995273E+00 -0.3966307217550E+01  0.0000000000000E+00
-0.6324999994091E+00 -0.3892789747717E+01  0.0000000000000E+00
-0.6324999992909E+00 -0.3819272288129E+01  0.0000000000000E+00
-0.6324999991727E+00 -0.3745754823288E+01  0.0000000000000E+00
-0.6324999990546E+00 -0.3672237366229E+01  0.0000000000000E+00
-0.6324999989364E+00 -0.3598719903615E+01  0.0000000000000E+00
-0.6324999988182E+00 -0.3525202280347E+01  0.0000000000000E+00
-0.6324999987000E+00 -0.3451684819510E+01  0.0000000000000E+00
-0.6324999985818E+00 -0.3378167379303E+01  0.0000000000000E+00
-0.6324999984637E+00 -0.3304649961005E+01  0.0000000000000E+00
-0.6324999983455E+00 -0.3231132803085E+01  0.0000000000000E+00
-0.6324999982273E+00 -0.3157615389387E+01  0.0000000000000E+00
-0.6325019344178E+00 -0.3084098002567E+01  0.0000000000000E+00
-0.6325939789666E+00 -0.3010580866809E+01  0.0000000000000E+00
-0.6329496897506E+00 -0.2937066271891E+01  0.0000000000000E+00
-0.6336636250350E+00 -0.2863559587695E+01  0.0000000000000E+00
-0.6347595381667E+00 -0.2790067100603E+01  0.0000000000000E+00
-0.6362295560841E+00 -0.2716594812946E+01  0.0000000000000E+00
-0.6380582160810E+00 -0.2643146234864E+01  0.0000000000000E+00
-0.6402328017031E+00 -0.2569726064901E+01  0.0000000000000E+00
-0.6427474949646E+00 -0.2496339061666E+01  0.0000000000000E+00
-0.6456055512896E+00 -0.2422989996067E+01  0.0000000000000E+00
-0.6488215594549E+00 -0.2349685803919E+01  0.0000000000000E+00
-0.6524238942618E+00 -0.2276436016166E+01  0.0000000000000E+00
-0.6564258519178E+00 -0.2203248992725E+01  0.0000000000000E+00
-0.6608225816961E+00 -0.2130130513310E+01  0.0000000000000E+00
-0.6656206590488E+00 -0.2057088440583E+01  0.0000000000000E+00
-0.6708395246719E+00 -0.1984133466366E+01  0.0000000000000E+00
-0.6765127255104E+00 -0.1911281600769E+01  0.0000000000000E+00
-0.6826899145971E+00 -0.1838554023785E+01  0.0000000000000E+00
-0.6894359440269E+00 -0.1765979519673E+01  0.0000000000000E+00
-0.6968135485151E+00 -0.1693591126069E+01  0.0000000000000E+00
-0.7047999727226E+00 -0.1621398208058E+01  0.0000000000000E+00
-0.7130775049429E+00 -0.1549304059581E+01  0.0000000000000E+00
-0.7213146527926E+00 -0.1477195909044E+01  0.0000000000000E+00
-0.7293968736532E+00 -0.1405034780454E+01  0.0000000000000E+00
-0.7371943427346E+00 -0.1332779095967E+01  0.0000000000000E+00
-0.6049999998749E+00 -0.4186859601281E+01  0.0000000000000E+00
-0.6049999997497E+00 -0.4113342086429E+01  0.0000000000000E+00
-0.6049999996246E+00 -0.4039824684257E+01  0.0000000000000E+00
-0.6049999994995E+00 -0.3966307217550E+01  0.0000000000000E+00
-0.6049999993743E+00 -0.3892789747717E+01  0.0000000000000E+00
-0.6049999992492E+00 -0.3819272288129E+01  0.0000000000000E+00
-0.6049999991241E+00 -0.3745754823288E+01  0.0000000000000E+00
-0.6049999989989E+00 -0.3672237366228E+01  0.0000000000000E+00
-0.6049999988738E+00 -0.3598719903615E+01  0.0000000000000E+00
-0.6049999987487E+00 -0.3525202280347E+01  0.0000000000000E+00
-0.6049999986236E+00 -0.3451684819510E+01  0.0000000000000E+00
-0.6049999984984E+00 -0.3378167379303E+01  0.0000000000000E+00
-0.6049999983733E+00 -0.3304649961005E+01  0.0000000000000E+00
-0.6049999982482E+00 -0.3231132803085E+01  0.0000000000000E+00
-0.6049999981230E+00 -0.3157615389387E+01  0.0000000000000E+00
-0.6050018501192E+00 -0.3084098002567E+01  0.0000000000000E+00
-0.6050898927190E+00 -0.3010580866809E+01  0.0000000000000E+00
-0.6054301378045E+00 -0.2937066271891E+01  0.0000000000000E+00
-0.6061130324120E+00 -0.2863559587695E+01  0.0000000000000E+00
-0.6071612971342E+00 -0.2790067100603E+01  0.0000000000000E+00
-0.6085674012163E+00 -0.2716594812946E+01  0.0000000000000E+00
-0.6103165542440E+00 -0.2643146234864E+01  0.0000000000000E+00
-0.6123965926523E+00 -0.2569726064901E+01  0.0000000000000E+00
-0.6148019514111E+00 -0.2496339061666E+01  0.0000000000000E+00
-0.6175357444044E+00 -0.2422989996067E+01  0.0000000000000E+00
-0.6206119261143E+00 -0.2349685803919E+01  0.0000000000000E+00
-0.6240576376553E+00 -0.2276436016166E+01  0.0000000000000E+00
-0.6278855971387E+00 -0.2203248992725E+01  0.0000000000000E+00
-0.6320911647390E+00 -0.2130130513310E+01  0.0000000000000E+00
-0.6366806300190E+00 -0.2057088440583E+01  0.0000000000000E+00
-0.6416725884270E+00 -0.1984133466365E+01  0.0000000000000E+00
-0.6470991283452E+00 -0.1911281600769E+01  0.0000000000000E+00
-0.6530077439789E+00 -0.1838554023785E+01  0.0000000000000E+00
-0.6594604677667E+00 -0.1765979519673E+01  0.0000000000000E+00
-0.6665173068275E+00 -0.1693591126069E+01  0.0000000000000E+00
-0.6741564951847E+00 -0.1621398208058E+01  0.0000000000000E+00
-0.6820741346845E+00 -0.1549304059581E+01  0.0000000000000E+00
-0.6899531456558E+00 -0.1477195909044E+01  0.0000000000000E+00
-0.6976839655940E+00 -0.1405034780454E+01  0.0000000000000E+00
-0.7051424142651E+00 -0.1332779095967E+01  0.0000000000000E+00
-0.5774999998679E+00 -0.4186859601281E+01  0.0000000000000E+00
-0.5774999997358E+00 -0.4113342086429E+01  0.0000000000000E+00
-0.5774999996037E+00 -0.4039824684257E+01  0.0000000000000E+00
-0.5774999994717E+00 -0.3966307217550E+01  0.0000000000000E+00
-0.5774999993396E+00 -0.3892789747717E+01  0.0000000000000E+00
-0.5774999992075E+00 -0.3819272288129E+01  0.0000000000000E+00
-0.5774999990754E+00 -0.3745754823288E+01  0.0000000000000E+00
-0.5774999989433E+00 -0.3672237366228E+01  0.0000000000000E+00
-0.5774999988112E+00 -0.3598719903615E+01  0.0000000000000E+00
-0.5774999986792E+00 -0.3525202280347E+01  0.0000000000000E+00
-0.5774999985471E+00 -0.3451684819510E+01  0.0000000000000E+00
-0.5774999984150E+00 -0.3378167379303E+01  0.0000000000000E+00
-0.5774999982829E+00 -0.3304649961005E+01  0.0000000000000E+00
-0.5774999981508E+00 -0.3231132803085E+01  0.0000000000000E+00
-0.5774999980187E+00 -0.3157615389387E+01  0.0000000000000E+00
-0.5775017658207E+00 -0.3084098002567E+01  0.0000000000000E+00
-0.5775858064714E+00 -0.3010580866809E+01  0.0000000000000E+00
-0.5779105858584E+00 -0.2937066271891E+01  0.0000000000000E+00
-0.5785624397890E+00 -0.2863559587695E+01  0.0000000000000E+00
-0.5795630561016E+00 -0.2790067100603E+01  0.0000000000000E+00
-0.5809052463486E+00 -0.2716594812946E+01  0.0000000000000E+00
-0.5825748924071E+00 -0.2643146234864E+01  0.0000000000000E+00
-0.5845603836014E+00 -0.2569726064901E+01  0.0000000000000E+00
-0.5868564078575E+00 -0.2496339061666E+01  0.0000000000000E+00
-0.5894659375192E+00 -0.2422989996067E+01  0.0000000000000E+00
-0.5924022927738E+00 -0.2349685803919E+01  0.0000000000000E+00
-0.5956913810488E+00 -0.2276436016166E+01  0.0000000000000E+00
-0.5993453423597E+00 -0.2203248992725E+01  0.0000000000000E+00
-0.6033597477819E+00 -0.2130130513310E+01  0.0000000000000E+00
-0.6077406009891E+00 -0.2057088440583E+01  0.0000000000000E+00
-0.6125056521821E+00 -0.1984133466365E+01  0.0000000000000E+00
-0.6176855311800E+00 -0.1911281600769E+01  0.0000000000000E+00
-0.6233255733607E+00 -0.1838554023785E+01  0.0000000000000E+00
-0.6294849915065E+00 -0.1765979519673E+01  0.0000000000000E+00
-0.6362210651398E+00 -0.1693591126069E+01  0.0000000000000E+00
-0.6435130176468E+00 -0.1621398208058E+01  0.0000000000000E+00
-0.6510707644261E+00 -0.1549304059581E+01  0.0000000000000E+00
-0.6585916385190E+00 -0.1477195909044E+01  0.0000000000000E+00
-0.6659710575348E+00 -0.1405034780454E+01  0.0000000000000E+00
-0.6730904857957E+00 -0.1332779095967E+01  0.0000000000000E+00
-0.5499999998610E+00 -0.4186859601281E+01  0.0000000000000E+00
-0.5499999997219E+00 -0.4113342086429E+01  0.0000000000000E+00
-0.5499999995829E+00 -0.4039824684257E+01  0.0000000000000E+00
-0.5499999994439E+00 -0.3966307217550E+01  0.0000000000000E+00
-0.5499999993048E+00 -0.3892789747717E+01  0.0000000000000E+00
-0.5499999991658E+00 -0.3819272288129E+01  0.0000000000000E+00
-0.5499999990268E+00 -0.3745754823288E+01  0.0000000000000E+00
-0.5499999988877E+00 -0.3672237366228E+01  0.0000000000000E+00
-0.5499999987487E+00 -0.3598719903615E+01  0.0000000000000E+00
-0.5499999986096E+00 -0.3525202280347E+01  0.0000000000000E+00
-0.5499999984706E+00 -0.3451684819510E+01  0.0000000000000E+00
-0.5499999983316E+00 -0.3378167379303E+01  0.0000000000000E+00
-0.5499999981925E+00 -0.3304649961005E+01  0.0000000000000E+00
-0.5499999980535E+00 -0.3231132803085E+01  0.0000000000000E+00
-0.5499999979145E+00 -0.3157615389387E+01  0.0000000000000E+00
-0.5500016815221E+00 -0.3084098002567E+01  0.0000000000000E+00
-0.5500817202238E+00 -0.3010580866809E+01  0.0000000000000E+00
-0.5503910339123E+00 -0.2937066271891E+01  0.0000000000000E+00
-0.5510118471659E+00 -0.2863559587695E+01  0.0000000000000E+00
-0.5519648150690E+00 -0.2790067100603E+01  0.0000000000000E+00
-0.5532430914809E+00 -0.2716594812946E+01  0.0000000000000E+00
-0.5548332305702E+00 -0.2643146234864E+01  0.0000000000000E+00
-0.5567241745506E+00 -0.2569726064901E+01  0.0000000000000E+00
-0.5589108643040E+00 -0.2496339061666E+01  0.0000000000000E+00
-0.5613961306339E+00 -0.2422989996067E+01  0.0000000000000E+00
-0.5641926594333E+00 -0.2349685803919E+01  0.0000000000000E+00
-0.5673251244423E+00 -0.2276436016166E+01  0.0000000000000E+00
-0.5708050875806E+00 -0.2203248992725E+01  0.0000000000000E+00
-0.5746283308247E+00 -0.2130130513310E+01  0.0000000000000E+00
-0.5788005719593E+00 -0.2057088440583E+01  0.0000000000000E+00
-0.5833387159371E+00 -0.1984133466365E+01  0.0000000000000E+00
-0.5882719340148E+00 -0.1911281600769E+01  0.0000000000000E+00
-0.5936434027425E+00 -0.1838554023785E+01  0.0000000000000E+00
-0.5995095152462E+00 -0.1765979519673E+01  0.0000000000000E+00
-0.6059248234522E+00 -0.1693591126069E+01  0.0000000000000E+00
-0.6128695401089E+00 -0.1621398208058E+01  0.0000000000000E+00
-0.6200673941676E+00 -0.1549304059581E+01  0.0000000000000E+00
-0.6272301313822E+00 -0.1477195909044E+01  0.0000000000000E+00
-0.6342581494756E+00 -0.1405034780454E+01  0.0000000000000E+00
-0.6410385573263E+00 -0.1332779095967E+01  0.0000000000000E+00
-0.5224999998610E+00 -0.4186859601281E+01  0.0000000000000E+00
-0.5224999997219E+00 -0.4113342086429E+01  0.0000000000000E+00
-0.5224999995829E+00 -0.4039824684257E+01  0.0000000000000E+00
-0.5224999994439E+00 -0.3966307217550E+01  0.0000000000000E+00
-0.5224999993048E+00 -0.3892789747717E+01  0.0000000000000E+00
-0.5224999991658E+00 -0.3819272288129E+01  0.0000000000000E+00
-0.5224999990268E+00 -0.3745754823288E+01  0.0000000000000E+00
-0.5224999988877E+00 -0.3672237366228E+01  0.0000000000000E+00
-0.5224999987487E+00 -0.3598719903615E+01  0.0000000000000E+00
-0.5224999986096E+00 -0.3525202280347E+01  0.0000000000000E+00
-0.5224999984706E+00 -0.3451684819510E+01  0.0000000000000E+00
-0.5224999983316E+00 -0.3378167379303E+01  0.0000000000000E+00
-0.5224999981925E+00 -0.3304649961005E+01  0.0000000000000E+00
-0.5224999980535E+00 -0.3231132803085E+01  0.0000000000000E+00
-0.5224999979145E+00 -0.3157615389387E+01  0.0000000000000E+00
-0.5225015973348E+00 -0.3084098002567E+01  0.0000000000000E+00
-0.5225776340944E+00 -0.3010580866809E+01  0.0000000000000E+00
-0.5228714820914E+00 -0.2937066271891E+01  0.0000000000000E+00
-0.5234612546753E+00 -0.2863559587695E+01  0.0000000000000E+00
-0.5243665741760E+00 -0.2790067100603E+01  0.0000000000000E+00
-0.5255809367599E+00 -0.2716594812946E+01  0.0000000000000E+00
-0.5270915688874E+00 -0.2643146234864E+01  0.0000000000000E+00
-0.5288879656614E+00 -0.2569726064901E+01  0.0000000000000E+00
-0.5309653209196E+00 -0.2496339061666E+01  0.0000000000000E+00
-0.5333263239254E+00 -0.2422989996067E+01  0.0000000000000E+00
-0.5359830262772E+00 -0.2349685803919E+01  0.0000000000000E+00
-0.5389588680280E+00 -0.2276436016166E+01  0.0000000000000E+00
-0.5422648330016E+00 -0.2203248992725E+01  0.0000000000000E+00
-0.5458969140756E+00 -0.2130130513310E+01  0.0000000000000E+00
-0.5498605431455E+00 -0.2057088440583E+01  0.0000000000000E+00
-0.5541717799163E+00 -0.1984133466365E+01  0.0000000000000E+00
-0.5588583370819E+00 -0.1911281600769E+01  0.0000000000000E+00
-0.5639612323650E+00 -0.1838554023785E+01  0.0000000000000E+00
-0.5695340392352E+00 -0.1765979519673E+01  0.0000000000000E+00
-0.5756285820223E+00 -0.1693591126069E+01  0.0000000000000E+00
-0.5822260628376E+00 -0.1621398208058E+01  0.0000000000000E+00
-0.5890640241846E+00 -0.1549304059581E+01  0.0000000000000E+00
-0.5958686245296E+00 -0.1477195909044E+01  0.0000000000000E+00
-0.6025452417094E+00 -0.1405034780454E+01  0.0000000000000E+00
-0.6089866291585E+00 -0.1332779095967E+01  0.0000000000000E+00
-0.4949999998610E+00 -0.4186859601281E+01  0.0000000000000E+00
-0.4949999997219E+00 -0.4113342086429E+01  0.0000000000000E+00
-0.4949999995829E+00 -0.4039824684257E+01  0.0000000000000E+00
-0.4949999994439E+00 -0.3966307217550E+01  0.0000000000000E+00
-0.4949999993048E+00 -0.3892789747717E+01  0.0000000000000E+00
-0.4949999991658E+00 -0.3819272288129E+01  0.0000000000000E+00
-0.4949999990268E+00 -0.3745754823288E+01  0.0000000000000E+00
-0.4949999988877E+00 -0.3672237366228E+01  0.0000000000000E+00
-0.4949999987487E+00 -0.3598719903615E+01  0.0000000000000E+00
-0.4949999986096E+00 -0.3525202280347E+01  0.0000000000000E+00
-0.4949999984706E+00 -0.3451684819510E+01  0.0000000000000E+00
-0.4949999983316E+00 -0.3378167379303E+01  0.0000000000000E+00
-0.4949999981925E+00 -0.3304649961005E+01  0.0000000000000E+00
-0.4949999980535E+00 -0.3231132803085E+01  0.0000000000000E+00
-0.4949999979145E+00 -0.3157615389387E+01  0.0000000000000E+00
-0.4950015131474E+00 -0.3084098002567E+01  0.0000000000000E+00
-0.4950735479650E+00 -0.3010580866809E+01  0.0000000000000E+00
-0.4953519302706E+00 -0.2937066271891E+01  0.0000000000000E+00
-0.4959106621846E+00 -0.2863559587695E+01  0.0000000000000E+00
-0.4967683332830E+00 -0.2790067100603E+01  0.0000000000000E+00
-0.4979187820390E+00 -0.2716594812946E+01  0.0000000000000E+00
-0.4993499072047E+00 -0.2643146234864E+01  0.0000000000000E+00
-0.5010517567722E+00 -0.2569726064901E+01  0.0000000000000E+00
-0.5030197775352E+00 -0.2496339061666E+01  0.0000000000000E+00
-0.5052565172169E+00 -0.2422989996067E+01  0.0000000000000E+00
-0.5077733931210E+00 -0.2349685803919E+01  0.0000000000000E+00
-0.5105926116137E+00 -0.2276436016166E+01  0.0000000000000E+00
-0.5137245784225E+00 -0.2203248992725E+01  0.0000000000000E+00
-0.5171654973265E+00 -0.2130130513310E+01  0.0000000000000E+00
-0.5209205143316E+00 -0.2057088440583E+01  0.0000000000000E+00
-0.5250048438955E+00 -0.1984133466365E+01  0.0000000000000E+00
-0.5294447401491E+00 -0.1911281600769E+01  0.0000000000000E+00
-0.5342790619876E+00 -0.1838554023785E+01  0.0000000000000E+00
-0.5395585632242E+00 -0.1765979519673E+01  0.0000000000000E+00
-0.5453323405925E+00 -0.1693591126069E+01  0.0000000000000E+00
-0.5515825855662E+00 -0.1621398208058E+01  0.0000000000000E+00
-0.5580606542015E+00 -0.1549304059581E+01  0.0000000000000E+00
-0.5645071176769E+00 -0.1477195909044E+01  0.0000000000000E+00
-0.5708323339431E+00 -0.1405034780454E+01  0.0000000000000E+00
-0.5769347009908E+00 -0.1332779095967E+01  0.0000000000000E+00
-0.4674999998610E+00 -0.4186859601281E+01  0.0000000000000E+00
-0.4674999997219E+00 -0.4113342086429E+01  0.0000000000000E+00
-0.4674999995829E+00 -0.4039824684257E+01  0.0000000000000E+00
-0.4674999994439E+00 -0.3966307217550E+01  0.0000000000000E+00
-0.4674999993048E+00 -0.3892789747717E+01  0.0000000000000E+00
-0.4674999991658E+00 -0.3819272288129E+01  0.0000000000000E+00
-0.4674999990268E+00 -0.3745754823288E+01  0.0000000000000E+00
-0.4674999988877E+00 -0.3672237366228E+01  0.0000000000000E+00
-0.4674999987487E+00 -0.3598719903615E+01  0.0000000000000E+00
-0.4674999986096E+00 -0.3525202280347E+01  0.0000000000000E+00
-0.4674999984706E+00 -0.3451684819510E+01  0.0000000000000E+00
-0.4674999983316E+00 -0.3378167379303E+01  0.0000000000000E+00
-0.4674999981925E+00 -0.3304649961005E+01  0.0000000000000E+00
-0.4674999980535E+00 -0.3231132803085E+01  0.0000000000000E+00
-0.4674999979145E+00 -0.3157615389387E+01  0.0000000000000E+00
-0.4675014289601E+00 -0.3084098002567E+01  0.0000000000000E+00
-0.4675694618356E+00 -0.3010580866809E+01  0.0000000000000E+00
-0.4678323784497E+00 -0.2937066271891E+01  0.0000000000000E+00
-0.4683600696940E+00 -0.2863559587695E+01  0.0000000000000E+00
-0.4691700923899E+00 -0.2790067100603E+01  0.0000000000000E+00
-0.4702566273181E+00 -0.2716594812946E+01  0.0000000000000E+00
-0.4716082455219E+00 -0.2643146234864E+01  0.0000000000000E+00
-0.4732155478829E+00 -0.2569726064901E+01  0.0000000000000E+00
-0.4750742341508E+00 -0.2496339061666E+01  0.0000000000000E+00
-0.4771867105085E+00 -0.2422989996067E+01  0.0000000000000E+00
-0.4795637599649E+00 -0.2349685803919E+01  0.0000000000000E+00
-0.4822263551994E+00 -0.2276436016165E+01  0.0000000000000E+00
-0.4851843238435E+00 -0.2203248992725E+01  0.0000000000000E+00
-0.4884340805773E+00 -0.2130130513310E+01  0.0000000000000E+00
-0.4919804855178E+00 -0.2057088440583E+01  0.0000000000000E+00
-0.4958379078748E+00 -0.1984133466365E+01  0.0000000000000E+00
-0.5000311432163E+00 -0.1911281600769E+01  0.0000000000000E+00
-0.5045968916101E+00 -0.1838554023785E+01  0.0000000000000E+00
-0.5095830872131E+00 -0.1765979519673E+01  0.0000000000000E+00
-0.5150360991627E+00 -0.1693591126069E+01  0.0000000000000E+00
-0.5209391082949E+00 -0.1621398208058E+01  0.0000000000000E+00
-0.5270572842184E+00 -0.1549304059581E+01  0.0000000000000E+00
-0.5331456108243E+00 -0.1477195909044E+01  0.0000000000000E+00
-0.5391194261769E+00 -0.1405034780454E+01  0.0000000000000E+00
-0.5448827728230E+00 -0.1332779095967E+01  0.0000000000000E+00
-0.4399999998610E+00 -0.4186859601281E+01  0.0000000000000E+00
-0.4399999997219E+00 -0.4113342086429E+01  0.0000000000000E+00
-0.4399999995829E+00 -0.4039824684257E+01  0.0000000000000E+00
-0.4399999994439E+00 -0.3966307217550E+01  0.0000000000000E+00
-0.4399999993048E+00 -0.3892789747717E+01  0.0000000000000E+00
-0.4399999991658E+00 -0.3819272288129E+01  0.0000000000000E+00
-0.4399999990268E+00 -0.3745754823288E+01  0.0000000000000E+00
-0.4399999988877E+00 -0.3672237366228E+01  0.0000000000000E+00
-0.4399999987487E+00 -0.3598719903615E+01  0.0000000000000E+00
-0.4399999986096E+00 -0.3525202280347E+01  0.0000000000000E+00
-0.4399999984706E+00 -0.3451684819510E+01  0.0000000000000E+00
-0.4399999983316E+00 -0.3378167379303E+01  0.0000000000000E+00
-0.4399999981925E+00 -0.3304649961005E+01  0.0000000000000E+00
-0.4399999980535E+00 -0.3231132803085E+01  0.0000000000000E+00
-0.4399999979145E+00 -0.3157615389387E+01  0.0000000000000E+00
-0.4400013447728E+00 -0.3084098002567E+01  0.0000000000000E+00
-0.4400653757062E+00 -0.3010580866809E+01  0.0000000000000E+00
-0.4403128266289E+00 -0.2937066271891E+01  0.0000000000000E+00
-0.4408094772033E+00 -0.2863559587695E+01  0.0000000000000E+00
-0.4415718514969E+00 -0.2790067100603E+01  0.0000000000000E+00
-0.4425944725972E+00 -0.2716594812946E+01  0.0000000000000E+00
-0.4438665838392E+00 -0.2643146234864E+01  0.0000000000000E+00
-0.4453793389937E+00 -0.2569726064901E+01  0.0000000000000E+00
-0.4471286907664E+00 -0.2496339061666E+01  0.0000000000000E+00
-0.4491169038000E+00 -0.2422989996067E+01  0.0000000000000E+00
-0.4513541268088E+00 -0.2349685803919E+01  0.0000000000000E+00
-0.4538600987851E+00 -0.2276436016165E+01  0.0000000000000E+00
-0.4566440692645E+00 -0.2203248992725E+01  0.0000000000000E+00
-0.4597026638282E+00 -0.2130130513310E+01  0.0000000000000E+00
-0.4630404567039E+00 -0.2057088440583E+01  0.0000000000000E+00
-0.4666709718540E+00 -0.1984133466365E+01  0.0000000000000E+00
-0.4706175462834E+00 -0.1911281600769E+01  0.0000000000000E+00
-0.4749147212326E+00 -0.1838554023785E+01  0.0000000000000E+00
-0.4796076112021E+00 -0.1765979519673E+01  0.0000000000000E+00
-0.4847398577328E+00 -0.1693591126069E+01  0.0000000000000E+00
-0.4902956310235E+00 -0.1621398208058E+01  0.0000000000000E+00
-0.4960539142354E+00 -0.1549304059581E+01  0.0000000000000E+00
-0.5017841039716E+00 -0.1477195909044E+01  0.0000000000000E+00
-0.5074065184107E+00 -0.1405034780454E+01  0.0000000000000E+00
-0.5128308446553E+00 -0.1332779095967E+01  0.0000000000000E+00
-0.4124999998610E+00 -0.4186859601281E+01  0.0000000000000E+00
-0.4124999997219E+00 -0.4113342086429E+01  0.0000000000000E+00
-0.4124999995829E+00 -0.4039824684257E+01  0.0000000000000E+00
-0.4124999994439E+00 -0.3966307217550E+01  0.0000000000000E+00
-0.4124999993048E+00 -0.3892789747717E+01  0.0000000000000E+00
-0.4124999991658E+00 -0.3819272288129E+01  0.0000000000000E+00
-0.4124999990268E+00 -0.3745754823288E+01  0.0000000000000E+00
-0.4124999988877E+00 -0.3672237366228E+01  0.0000000000000E+00
-0.4124999987487E+00 -0.3598719903615E+01  0.0000000000000E+00
-0.4124999986096E+00 -0.3525202280347E+01  0.0000000000000E+00
-0.4124999984706E+00 -0.3451684819510E+01  0.0000000000000E+00
-0.4124999983316E+00 -0.3378167379303E+01  0.0000000000000E+00
-0.4124999981925E+00 -0.3304649961005E+01  0.0000000000000E+00
-0.4124999980535E+00 -0.3231132803085E+01  0.0000000000000E+00
-0.4124999979145E+00 -0.3157615389387E+01  0.0000000000000E+00
-0.4125012605854E+00 -0.3084098002567E+01  0.0000000000000E+00
-0.4125612895768E+00 -0.3010580866809E+01  0.0000000000000E+00
-0.4127932748080E+00 -0.2937066271891E+01  0.0000000000000E+00
-0.4132588847126E+00 -0.2863559587695E+01  0.0000000000000E+00
-0.4139736106039E+00 -0.2790067100603E+01  0.0000000000000E+00
-0.4149323178763E+00 -0.2716594812946E+01  0.0000000000000E+00
-0.4161249221564E+00 -0.2643146234864E+01  0.0000000000000E+00
-0.4175431301045E+00 -0.2569726064901E+01  0.0000000000000E+00
-0.4191831473820E+00 -0.2496339061666E+01  0.0000000000000E+00
-0.4210470970915E+00 -0.2422989996067E+01  0.0000000000000E+00
-0.4231444936527E+00 -0.2349685803919E+01  0.0000000000000E+00
-0.4254938423708E+00 -0.2276436016165E+01  0.0000000000000E+00
-0.4281038146855E+00 -0.2203248992725E+01  0.0000000000000E+00
-0.4309712470791E+00 -0.2130130513310E+01  0.0000000000000E+00
-0.4341004278901E+00 -0.2057088440583E+01  0.0000000000000E+00
-0.4375040358332E+00 -0.1984133466365E+01  0.0000000000000E+00
-0.4412039493506E+00 -0.1911281600769E+01  0.0000000000000E+00
-0.4452325508551E+00 -0.1838554023785E+01  0.0000000000000E+00
-0.4496321351910E+00 -0.1765979519673E+01  0.0000000000000E+00
-0.4544436163030E+00 -0.1693591126069E+01  0.0000000000000E+00
-0.4596521537522E+00 -0.1621398208057E+01  0.0000000000000E+00
-0.4650505442523E+00 -0.1549304059581E+01  0.0000000000000E+00
-0.4704225971190E+00 -0.1477195909044E+01  0.0000000000000E+00
-0.4756936106444E+00 -0.1405034780454E+01  0.0000000000000E+00
-0.4807789164875E+00 -0.1332779095967E+01  0.0000000000000E+00
-0.3849999998610E+00 -0.4186859601281E+01  0.0000000000000E+00
-0.3849999997219E+00 -0.4113342086429E+01  0.0000000000000E+00
-0.3849999995829E+00 -0.4039824684257E+01  0.0000000000000E+00
-0.3849999994439E+00 -0.3966307217550E+01  0.0000000000000E+00
-0.3849999993048E+00 -0.3892789747717E+01  0.0000000000000E+00
-0.3849999991658E+00 -0.3819272288129E+01  0.0000000000000E+00
-0.3849999990268E+00 -0.3745754823288E+01  0.0000000000000E+00
-0.3849999988877E+00 -0.3672237366228E+01  0.0000000000000E+00
-0.3849999987487E+00 -0.3598719903615E+01  0.0000000000000E+00
-0.3849999986096E+00 -0.3525202280347E+01  0.0000000000000E+00
-0.3849999984706E+00 -0.3451684819510E+01  0.0000000000000E+00
-0.3849999983316E+00 -0.3378167379303E+01  0.0000000000000E+00
-0.3849999981925E+00 -0.3304649961005E+01  0.0000000000000E+00
-0.3849999980535E+00 -0.3231132803085E+01  0.0000000000000E+00
-0.3849999979145E+00 -0.3157615389387E+01  0.0000000000000E+00
-0.3850011763981E+00 -0.3084098002567E+01  0.0000000000000E+00
-0.3850572034474E+00 -0.3010580866809E+01  0.0000000000000E+00
-0.3852737229872E+00 -0.2937066271891E+01  0.0000000000000E+00
-0.3857082922220E+00 -0.2863559587695E+01  0.0000000000000E+00
-0.3863753697109E+00 -0.2790067100603E+01  0.0000000000000E+00
-0.3872701631554E+00 -0.2716594812946E+01  0.0000000000000E+00
-0.3883832604737E+00 -0.2643146234864E+01  0.0000000000000E+00
-0.3897069212153E+00 -0.2569726064901E+01  0.0000000000000E+00
-0.3912376039976E+00 -0.2496339061666E+01  0.0000000000000E+00
-0.3929772903830E+00 -0.2422989996067E+01  0.0000000000000E+00
-0.3949348604966E+00 -0.2349685803919E+01  0.0000000000000E+00
-0.3971275859565E+00 -0.2276436016165E+01  0.0000000000000E+00
-0.3995635601064E+00 -0.2203248992725E+01  0.0000000000000E+00
-0.4022398303299E+00 -0.2130130513310E+01  0.0000000000000E+00
-0.4051603990763E+00 -0.2057088440583E+01  0.0000000000000E+00
-0.4083370998124E+00 -0.1984133466365E+01  0.0000000000000E+00
-0.4117903524178E+00 -0.1911281600769E+01  0.0000000000000E+00
-0.4155503804777E+00 -0.1838554023785E+01  0.0000000000000E+00
-0.4196566591800E+00 -0.1765979519673E+01  0.0000000000000E+00
-0.4241473748731E+00 -0.1693591126069E+01  0.0000000000000E+00
-0.4290086764809E+00 -0.1621398208057E+01  0.0000000000000E+00
-0.4340471742693E+00 -0.1549304059581E+01  0.0000000000000E+00
-0.4390610902664E+00 -0.1477195909044E+01  0.0000000000000E+00
-0.4439807028782E+00 -0.1405034780454E+01  0.0000000000000E+00
-0.4487269883198E+00 -0.1332779095967E+01  0.0000000000000E+00
-0.3574999998610E+00 -0.4186859601281E+01  0.0000000000000E+00
-0.3574999997219E+00 -0.4113342086429E+01  0.0000000000000E+00
-0.3574999995829E+00 -0.4039824684257E+01  0.0000000000000E+00
-0.3574999994439E+00 -0.3966307217550E+01  0.0000000000000E+00
-0.3574999993048E+00 -0.3892789747717E+01  0.0000000000000E+00
-0.3574999991658E+00 -0.3819272288129E+01  0.0000000000000E+00
-0.3574999990268E+00 -0.3745754823288E+01  0.0000000000000E+00
-0.3574999988877E+00 -0.3672237366228E+01  0.0000000000000E+00
-0.3574999987487E+00 -0.3598719903615E+01  0.0000000000000E+00
-0.3574999986096E+00 -0.3525202280347E+01  0.0000000000000E+00
-0.3574999984706E+00 -0.3451684819510E+01  0.0000000000000E+00
-0.3574999983316E+00 -0.3378167379303E+01  0.0000000000000E+00
-0.3574999981925E+00 -0.3304649961005E+01  0.0000000000000E+00
-0.3574999980535E+00 -0.3231132803085E+01  0.0000000000000E+00
-0.3574999979145E+00 -0.3157615389387E+01  0.0000000000000E+00
-0.3575010922108E+00 -0.3084098002567E+01  0.0000000000000E+00
-0.3575531173181E+00 -0.3010580866809E+01  0.0000000000000E+00
-0.3577541711663E+00 -0.2937066271891E+01  0.0000000000000E+00
-0.3581576997313E+00 -0.2863559587695E+01  0.0000000000000E+00
-0.3587771288178E+00 -0.2790067100603E+01  0.0000000000000E+00
-0.3596080084345E+00 -0.2716594812946E+01  0.0000000000000E+00
-0.3606415987909E+00 -0.2643146234864E+01  0.0000000000000E+00
-0.3618707123261E+00 -0.2569726064901E+01  0.0000000000000E+00
-0.3632920606132E+00 -0.2496339061666E+01  0.0000000000000E+00
-0.3649074836745E+00 -0.2422989996067E+01  0.0000000000000E+00
-0.3667252273405E+00 -0.2349685803919E+01  0.0000000000000E+00
-0.3687613295422E+00 -0.2276436016165E+01  0.0000000000000E+00
-0.3710233055274E+00 -0.2203248992725E+01  0.0000000000000E+00
-0.3735084135808E+00 -0.2130130513310E+01  0.0000000000000E+00
-0.3762203702624E+00 -0.2057088440583E+01  0.0000000000000E+00
-0.3791701637916E+00 -0.1984133466365E+01  0.0000000000000E+00
-0.3823767554850E+00 -0.1911281600769E+01  0.0000000000000E+00
-0.3858682101002E+00 -0.1838554023785E+01  0.0000000000000E+00
-0.3896811831690E+00 -0.1765979519673E+01  0.0000000000000E+00
-0.3938511334433E+00 -0.1693591126069E+01  0.0000000000000E+00
-0.3983651992095E+00 -0.1621398208057E+01  0.0000000000000E+00
-0.4030438042862E+00 -0.1549304059580E+01  0.0000000000000E+00
-0.4076995834137E+00 -0.1477195909044E+01  0.0000000000000E+00
-0.4122677951119E+00 -0.1405034780454E+01  0.0000000000000E+00
-0.4166750601520E+00 -0.1332779095967E+01  0.0000000000000E+00
-0.3299999998610E+00 -0.4186859601281E+01  0.0000000000000E+00
-0.3299999997219E+00 -0.4113342086429E+01  0.0000000000000E+00
-0.3299999995829E+00 -0.4039824684257E+01  0.0000000000000E+00
-0.3299999994439E+00 -0.3966307217550E+01  0.0000000000000E+00
-0.3299999993048E+00 -0.3892789747717E+01  0.0000000000000E+00
-0.3299999991658E+00 -0.3819272288129E+01  0.0000000000000E+00
-0.3299999990268E+00 -0.3745754823288E+01  0.0000000000000E+00
-0.3299999988877E+00 -0.3672237366228E+01  0.0000000000000E+00
-0.3299999987487E+00 -0.3598719903615E+01  0.0000000000000E+00
-0.3299999986096E+00 -0.3525202280347E+01  0.0000000000000E+00
-0.3299999984706E+00 -0.3451684819510E+01  0.0000000000000E+00
-0.3299999983316E+00 -0.3378167379303E+01  0.0000000000000E+00
-0.3299999981925E+00 -0.3304649961005E+01  0.0000000000000E+00
-0.3299999980535E+00 -0.3231132803085E+01  0.0000000000000E+00
-0.3299999979145E+00 -0.3157615389387E+01  0.0000000000000E+00
-0.3300010080234E+00 -0.3084098002567E+01  0.0000000000000E+00
-0.3300490311887E+00 -0.3010580866809E+01  0.0000000000000E+00
-0.3302346193454E+00 -0.2937066271891E+01  0.0000000000000E+00
-0.3306071072407E+00 -0.2863559587695E+01  0.0000000000000E+00
-0.3311788879248E+00 -0.2790067100603E+01  0.0000000000000E+00
-0.3319458537136E+00 -0.2716594812946E+01  0.0000000000000E+00
-0.3328999371082E+00 -0.2643146234864E+01  0.0000000000000E+00
-0.3340345034369E+00 -0.2569726064901E+01  0.0000000000000E+00
-0.3353465172288E+00 -0.2496339061666E+01  0.0000000000000E+00
-0.3368376769660E+00 -0.2422989996067E+01  0.0000000000000E+00
-0.3385155941844E+00 -0.2349685803919E+01  0.0000000000000E+00
-0.3403950731279E+00 -0.2276436016165E+01  0.0000000000000E+00
-0.3424830509484E+00 -0.2203248992725E+01  0.0000000000000E+00
-0.3447769968317E+00 -0.2130130513310E+01  0.0000000000000E+00
-0.3472803414486E+00 -0.2057088440583E+01  0.0000000000000E+00
-0.3500032277708E+00 -0.1984133466365E+01  0.0000000000000E+00
-0.3529631585521E+00 -0.1911281600769E+01  0.0000000000000E+00
-0.3561860397227E+00 -0.1838554023785E+01  0.0000000000000E+00
-0.3597057071579E+00 -0.1765979519673E+01  0.0000000000000E+00
-0.3635548920134E+00 -0.1693591126069E+01  0.0000000000000E+00
-0.3677217219382E+00 -0.1621398208057E+01  0.0000000000000E+00
-0.3720404343031E+00 -0.1549304059580E+01  0.0000000000000E+00
-0.3763380765611E+00 -0.1477195909044E+01  0.0000000000000E+00
-0.3805548873457E+00 -0.1405034780454E+01  0.0000000000000E+00
-0.3846231319842E+00 -0.1332779095967E+01  0.0000000000000E+00
-0.3024999998610E+00 -0.4186859601281E+01  0.0000000000000E+00
-0.3024999997219E+00 -0.4113342086429E+01  0.0000000000000E+00
-0.3024999995829E+00 -0.4039824684257E+01  0.0000000000000E+00
-0.3024999994439E+00 -0.3966307217550E+01  0.0000000000000E+00
-0.3024999993048E+00 -0.3892789747717E+01  0.0000000000000E+00
-0.3024999991658E+00 -0.3819272288129E+01  0.0000000000000E+00
-0.3024999990268E+00 -0.3745754823288E+01  0.0000000000000E+00
-0.3024999988877E+00 -0.3672237366228E+01  0.0000000000000E+00
-0.3024999987487E+00 -0.3598719903615E+01  0.0000000000000E+00
-0.3024999986096E+00 -0.3525202280347E+01  0.0000000000000E+00
-0.3024999984706E+00 -0.3451684819510E+01  0.0000000000000E+00
-0.3024999983316E+00 -0.3378167379303E+01  0.0000000000000E+00
-0.3024999981925E+00 -0.3304649961005E+01  0.0000000000000E+00
-0.3024999980535E+00 -0.3231132803085E+01  0.0000000000000E+00
-0.3024999979145E+00 -0.3157615389387E+01  0.0000000000000E+00
-0.3025009238361E+00 -0.3084098002567E+01  0.0000000000000E+00
-0.3025449450593E+00 -0.3010580866809E+01  0.0000000000000E+00
-0.3027150675246E+00 -0.2937066271891E+01  0.0000000000000E+00
-0.3030565147500E+00 -0.2863559587695E+01  0.0000000000000E+00
-0.3035806470318E+00 -0.2790067100603E+01  0.0000000000000E+00
-0.3042836989927E+00 -0.2716594812946E+01  0.0000000000000E+00
-0.3051582754254E+00 -0.2643146234864E+01  0.0000000000000E+00
-0.3061982945476E+00 -0.2569726064901E+01  0.0000000000000E+00
-0.3074009738444E+00 -0.2496339061666E+01  0.0000000000000E+00
-0.3087678702575E+00 -0.2422989996067E+01  0.0000000000000E+00
-0.3103059610283E+00 -0.2349685803919E+01  0.0000000000000E+00
-0.3120288167136E+00 -0.2276436016165E+01  0.0000000000000E+00
-0.3139427963693E+00 -0.2203248992725E+01  0.0000000000000E+00
-0.3160455800825E+00 -0.2130130513310E+01  0.0000000000000E+00
-0.3183403126348E+00 -0.2057088440583E+01  0.0000000000000E+00
-0.3208362917500E+00 -0.1984133466365E+01  0.0000000000000E+00
-0.3235495616193E+00 -0.1911281600769E+01  0.0000000000000E+00
-0.3265038693452E+00 -0.1838554023785E+01  0.0000000000000E+00
-0.3297302311469E+00 -0.1765979519673E+01  0.0000000000000E+00
-0.3332586505836E+00 -0.1693591126069E+01  0.0000000000000E+00
-0.3370782446668E+00 -0.1621398208057E+01  0.0000000000000E+00
-0.3410370643201E+00 -0.1549304059580E+01  0.0000000000000E+00
-0.3449765697085E+00 -0.1477195909044E+01  0.0000000000000E+00
-0.3488419795795E+00 -0.1405034780454E+01  0.0000000000000E+00
-0.3525712038165E+00 -0.1332779095967E+01  0.0000000000000E+00
-0.2749999998610E+00 -0.4186859601281E+01  0.0000000000000E+00
-0.2749999997219E+00 -0.4113342086429E+01  0.0000000000000E+00
-0.2749999995829E+00 -0.4039824684257E+01  0.0000000000000E+00
-0.2749999994439E+00 -0.3966307217550E+01  0.0000000000000E+00
-0.2749999993048E+00 -0.3892789747717E+01  0.0000000000000E+00
-0.2749999991658E+00 -0.3819272288129E+01  0.0000000000000E+00
-0.2749999990268E+00 -0.3745754823288E+01  0.0000000000000E+00
-0.2749999988877E+00 -0.3672237366228E+01  0.0000000000000E+00
-0.2749999987487E+00 -0.3598719903615E+01  0.0000000000000E+00
-0.2749999986096E+00 -0.3525202280347E+01  0.0000000000000E+00
-0.2749999984706E+00 -0.3451684819510E+01  0.0000000000000E+00
-0.2749999983316E+00 -0.3378167379303E+01  0.0000000000000E+00
-0.2749999981925E+00 -0.3304649961005E+01  0.0000000000000E+00
-0.2749999980535E+00 -0.3231132803085E+01  0.0000000000000E+00
-0.2749999979145E+00 -0.3157615389387E+01  0.0000000000000E+00
-0.2750008396488E+00 -0.3084098002567E+01  0.0000000000000E+00
-0.2750408589299E+00 -0.3010580866809E+01  0.0000000000000E+00
-0.2751955157037E+00 -0.2937066271891E+01  0.0000000000000E+00
-0.2755059222593E+00 -0.2863559587695E+01  0.0000000000000E+00
-0.2759824061388E+00 -0.2790067100603E+01  0.0000000000000E+00
-0.2766215442717E+00 -0.2716594812946E+01  0.0000000000000E+00
-0.2774166137427E+00 -0.2643146234864E+01  0.0000000000000E+00
-0.2783620856584E+00 -0.2569726064901E+01  0.0000000000000E+00
-0.2794554304600E+00 -0.2496339061666E+01  0.0000000000000E+00
-0.2806980635491E+00 -0.2422989996067E+01  0.0000000000000E+00
-0.2820963278721E+00 -0.2349685803919E+01  0.0000000000000E+00
-0.2836625602993E+00 -0.2276436016165E+01  0.0000000000000E+00
-0.2854025417903E+00 -0.2203248992725E+01  0.0000000000000E+00
-0.2873141633334E+00 -0.2130130513310E+01  0.0000000000000E+00
-0.2894002838209E+00 -0.2057088440583E+01  0.0000000000000E+00
-0.2916693557292E+00 -0.1984133466365E+01  0.0000000000000E+00
-0.2941359646865E+00 -0.1911281600769E+01  0.0000000000000E+00
-0.2968216989678E+00 -0.1838554023785E+01  0.0000000000000E+00
-0.2997547551359E+00 -0.1765979519673E+01  0.0000000000000E+00
-0.3029624091537E+00 -0.1693591126069E+01  0.0000000000000E+00
-0.3064347673955E+00 -0.1621398208057E+01  0.0000000000000E+00
-0.3100336943370E+00 -0.1549304059580E+01  0.0000000000000E+00
-0.3136150628558E+00 -0.1477195909044E+01  0.0000000000000E+00
-0.3171290718132E+00 -0.1405034780454E+01  0.0000000000000E+00
-0.3205192756487E+00 -0.1332779095967E+01  0.0000000000000E+00
-0.2474999998610E+00 -0.4186859601281E+01  0.0000000000000E+00
-0.2474999997219E+00 -0.4113342086429E+01  0.0000000000000E+00
-0.2474999995829E+00 -0.4039824684257E+01  0.0000000000000E+00
-0.2474999994439E+00 -0.3966307217550E+01  0.0000000000000E+00
-0.2474999993048E+00 -0.3892789747717E+01  0.0000000000000E+00
-0.2474999991658E+00 -0.3819272288129E+01  0.0000000000000E+00
-0.2474999990268E+00 -0.3745754823288E+01  0.0000000000000E+00
-0.2474999988877E+00 -0.3672237366228E+01  0.0000000000000E+00
-0.2474999987487E+00 -0.3598719903615E+01  0.0000000000000E+00
-0.2474999986096E+00 -0.3525202280347E+01  0.0000000000000E+00
-0.2474999984706E+00 -0.3451684819510E+01  0.0000000000000E+00
-0.2474999983316E+00 -0.3378167379303E+01  0.0000000000000E+00
-0.2474999981925E+00 -0.3304649961005E+01  0.0000000000000E+00
-0.2474999980535E+00 -0.3231132803085E+01  0.0000000000000E+00
-0.2474999979145E+00 -0.3157615389387E+01  0.0000000000000E+00
-0.2475007554614E+00 -0.3084098002567E+01  0.0000000000000E+00
-0.2475367728005E+00 -0.3010580866809E+01  0.0000000000000E+00
-0.2476759638829E+00 -0.2937066271891E+01  0.0000000000000E+00
-0.2479553297687E+00 -0.2863559587695E+01  0.0000000000000E+00
-0.2483841652457E+00 -0.2790067100603E+01  0.0000000000000E+00
-0.2489593895508E+00 -0.2716594812946E+01  0.0000000000000E+00
-0.2496749520599E+00 -0.2643146234864E+01  0.0000000000000E+00
-0.2505258767692E+00 -0.2569726064901E+01  0.0000000000000E+00
-0.2515098870756E+00 -0.2496339061666E+01  0.0000000000000E+00
-0.2526282568406E+00 -0.2422989996067E+01  0.0000000000000E+00
-0.2538866947160E+00 -0.2349685803919E+01  0.0000000000000E+00
-0.2552963038850E+00 -0.2276436016165E+01  0.0000000000000E+00
-0.2568622872113E+00 -0.2203248992725E+01  0.0000000000000E+00
-0.2585827465843E+00 -0.2130130513310E+01  0.0000000000000E+00
-0.2604602550071E+00 -0.2057088440583E+01  0.0000000000000E+00
-0.2625024197084E+00 -0.1984133466365E+01  0.0000000000000E+00
-0.2647223677536E+00 -0.1911281600769E+01  0.0000000000000E+00
-0.2671395285903E+00 -0.1838554023785E+01  0.0000000000000E+00
-0.2697792791248E+00 -0.1765979519673E+01  0.0000000000000E+00
-0.2726661677239E+00 -0.1693591126069E+01  0.0000000000000E+00
-0.2757912901242E+00 -0.1621398208057E+01  0.0000000000000E+00
-0.2790303243540E+00 -0.1549304059580E+01  0.0000000000000E+00
-0.2822535560032E+00 -0.1477195909044E+01  0.0000000000000E+00
-0.2854161640470E+00 -0.1405034780454E+01  0.0000000000000E+00
-0.2884673474810E+00 -0.1332779095967E+01  0.0000000000000E+00
-0.2199999998610E+00 -0.4186859601281E+01  0.0000000000000E+00
-0.2199999997219E+00 -0.4113342086429E+01  0.0000000000000E+00
-0.2199999995829E+00 -0.4039824684257E+01  0.0000000000000E+00
-0.2199999994439E+00 -0.3966307217550E+01  0.0000000000000E+00
-0.2199999993048E+00 -0.3892789747717E+01  0.0000000000000E+00
-0.2199999991658E+00 -0.3819272288129E+01  0.0000000000000E+00
-0.2199999990268E+00 -0.3745754823288E+01  0.0000000000000E+00
-0.2199999988877E+00 -0.3672237366228E+01  0.0000000000000E+00
-0.2199999987487E+00 -0.3598719903615E+01  0.0000000000000E+00
-0.2199999986096E+00 -0.3525202280347E+01  0.0000000000000E+00
-0.2199999984706E+00 -0.3451684819510E+01  0.0000000000000E+00
-0.2199999983316E+00 -0.3378167379303E+01  0.0000000000000E+00
-0.2199999981925E+00 -0.3304649961005E+01  0.0000000000000E+00
-0.2199999980535E+00 -0.3231132803085E+01  0.0000000000000E+00
-0.2199999979145E+00 -0.3157615389387E+01  0.0000000000000E+00
-0.2200006712741E+00 -0.3084098002567E+01  0.0000000000000E+00
-0.2200326866711E+00 -0.3010580866809E+01  0.0000000000000E+00
-0.2201564120620E+00 -0.2937066271891E+01  0.0000000000000E+00
-0.2204047372780E+00 -0.2863559587695E+01  0.0000000000000E+00
-0.2207859243527E+00 -0.2790067100603E+01  0.0000000000000E+00
-0.2212972348299E+00 -0.2716594812946E+01  0.0000000000000E+00
-0.2219332903772E+00 -0.2643146234864E+01  0.0000000000000E+00
-0.2226896678800E+00 -0.2569726064901E+01  0.0000000000000E+00
-0.2235643436911E+00 -0.2496339061666E+01  0.0000000000000E+00
-0.2245584501321E+00 -0.2422989996067E+01  0.0000000000000E+00
-0.2256770615599E+00 -0.2349685803919E+01  0.0000000000000E+00
-0.2269300474707E+00 -0.2276436016165E+01  0.0000000000000E+00
-0.2283220326322E+00 -0.2203248992725E+01  0.0000000000000E+00
-0.2298513298351E+00 -0.2130130513310E+01  0.0000000000000E+00
-0.2315202261932E+00 -0.2057088440583E+01  0.0000000000000E+00
-0.2333354836876E+00 -0.1984133466365E+01  0.0000000000000E+00
-0.2353087708208E+00 -0.1911281600769E+01  0.0000000000000E+00
-0.2374573582128E+00 -0.1838554023785E+01  0.0000000000000E+00
-0.2398038031138E+00 -0.1765979519673E+01  0.0000000000000E+00
-0.2423699262940E+00 -0.1693591126069E+01  0.0000000000000E+00
-0.2451478128528E+00 -0.1621398208057E+01  0.0000000000000E+00
-0.2480269543709E+00 -0.1549304059580E+01  0.0000000000000E+00
-0.2508920491506E+00 -0.1477195909043E+01  0.0000000000000E+00
-0.2537032562807E+00 -0.1405034780454E+01  0.0000000000000E+00
-0.2564154193132E+00 -0.1332779095967E+01  0.0000000000000E+00
-0.1924999998610E+00 -0.4186859601281E+01  0.0000000000000E+00
-0.1924999997219E+00 -0.4113342086429E+01  0.0000000000000E+00
-0.1924999995829E+00 -0.4039824684257E+01  0.0000000000000E+00
-0.1924999994439E+00 -0.3966307217550E+01  0.0000000000000E+00
-0.1924999993048E+00 -0.3892789747717E+01  0.0000000000000E+00
-0.1924999991658E+00 -0.3819272288129E+01  0.0000000000000E+00
-0.1924999990268E+00 -0.3745754823288E+01  0.0000000000000E+00
-0.1924999988877E+00 -0.3672237366228E+01  0.0000000000000E+00
-0.1924999987487E+00 -0.3598719903615E+01  0.0000000000000E+00
-0.1924999986096E+00 -0.3525202280347E+01  0.0000000000000E+00
-0.1924999984706E+00 -0.3451684819510E+01  0.0000000000000E+00
-0.1924999983316E+00 -0.3378167379303E+01  0.0000000000000E+00
-0.1924999981925E+00 -0.3304649961005E+01  0.0000000000000E+00
-0.1924999980535E+00 -0.3231132803085E+01  0.0000000000000E+00
-0.1924999979145E+00 -0.3157615389387E+01  0.0000000000000E+00
-0.1925005870868E+00 -0.3084098002567E+01  0.0000000000000E+00
-0.1925286005417E+00 -0.3010580866809E+01  0.0000000000000E+00
-0.1926368602412E+00 -0.2937066271891E+01  0.0000000000000E+00
-0.1928541447873E+00 -0.2863559587695E+01  0.0000000000000E+00
-0.1931876834597E+00 -0.2790067100603E+01  0.0000000000000E+00
-0.1936350801090E+00 -0.2716594812946E+01  0.0000000000000E+00
-0.1941916286944E+00 -0.2643146234864E+01  0.0000000000000E+00
-0.1948534589908E+00 -0.2569726064901E+01  0.0000000000000E+00
-0.1956188003067E+00 -0.2496339061666E+01  0.0000000000000E+00
-0.1964886434236E+00 -0.2422989996067E+01  0.0000000000000E+00
-0.1974674284038E+00 -0.2349685803919E+01  0.0000000000000E+00
-0.1985637910564E+00 -0.2276436016165E+01  0.0000000000000E+00
-0.1997817780532E+00 -0.2203248992725E+01  0.0000000000000E+00
-0.2011199130860E+00 -0.2130130513310E+01  0.0000000000000E+00
-0.2025801973794E+00 -0.2057088440583E+01  0.0000000000000E+00
-0.2041685476668E+00 -0.1984133466365E+01  0.0000000000000E+00
-0.2058951738880E+00 -0.1911281600769E+01  0.0000000000000E+00
-0.2077751878353E+00 -0.1838554023785E+01  0.0000000000000E+00
-0.2098283271027E+00 -0.1765979519673E+01  0.0000000000000E+00
-0.2120736848642E+00 -0.1693591126068E+01  0.0000000000000E+00
-0.2145043355815E+00 -0.1621398208057E+01  0.0000000000000E+00
-0.2170235843879E+00 -0.1549304059580E+01  0.0000000000000E+00
-0.2195305422979E+00 -0.1477195909043E+01  0.0000000000000E+00
-0.2219903485145E+00 -0.1405034780454E+01  0.0000000000000E+00
-0.2243634911454E+00 -0.1332779095967E+01  0.0000000000000E+00
-0.1649999998610E+00 -0.4186859601281E+01  0.0000000000000E+00
-0.1649999997219E+00 -0.4113342086429E+01  0.0000000000000E+00
-0.1649999995829E+00 -0.4039824684257E+01  0.0000000000000E+00
-0.1649999994439E+00 -0.3966307217550E+01  0.0000000000000E+00
-0.1649999993048E+00 -0.3892789747717E+01  0.0000000000000E+00
-0.1649999991658E+00 -0.3819272288129E+01  0.0000000000000E+00
-0.1649999990268E+00 -0.3745754823288E+01  0.0000000000000E+00
-0.1649999988877E+00 -0.3672237366228E+01  0.0000000000000E+00
-0.1649999987487E+00 -0.3598719903615E+01  0.0000000000000E+00
-0.1649999986096E+00 -0.3525202280347E+01  0.0000000000000E+00
-0.1649999984706E+00 -0.3451684819510E+01  0.0000000000000E+00
-0.1649999983316E+00 -0.3378167379303E+01  0.0000000000000E+00
-0.1649999981925E+00 -0.3304649961005E+01  0.0000000000000E+00
-0.1649999980535E+00 -0.3231132803085E+01  0.0000000000000E+00
-0.1649999979145E+00 -0.3157615389387E+01  0.0000000000000E+00
-0.1650005028994E+00 -0.3084098002567E+01  0.0000000000000E+00
-0.1650245144123E+00 -0.3010580866809E+01  0.0000000000000E+00
-0.1651173084203E+00 -0.2937066271891E+01  0.0000000000000E+00
-0.1653035522967E+00 -0.2863559587695E+01  0.0000000000000E+00
-0.1655894425667E+00 -0.2790067100603E+01  0.0000000000000E+00
-0.1659729253881E+00 -0.2716594812946E+01  0.0000000000000E+00
-0.1664499670117E+00 -0.2643146234864E+01  0.0000000000000E+00
-0.1670172501016E+00 -0.2569726064901E+01  0.0000000000000E+00
-0.1676732569223E+00 -0.2496339061666E+01  0.0000000000000E+00
-0.1684188367151E+00 -0.2422989996067E+01  0.0000000000000E+00
-0.1692577952477E+00 -0.2349685803919E+01  0.0000000000000E+00
-0.1701975346421E+00 -0.2276436016165E+01  0.0000000000000E+00
-0.1712415234742E+00 -0.2203248992725E+01  0.0000000000000E+00
-0.1723884963369E+00 -0.2130130513310E+01  0.0000000000000E+00
-0.1736401685656E+00 -0.2057088440583E+01  0.0000000000000E+00
-0.1750016116460E+00 -0.1984133466365E+01  0.0000000000000E+00
-0.1764815769552E+00 -0.1911281600769E+01  0.0000000000000E+00
-0.1780930174579E+00 -0.1838554023785E+01  0.0000000000000E+00
-0.1798528510917E+00 -0.1765979519673E+01  0.0000000000000E+00
-0.1817774434343E+00 -0.1693591126068E+01  0.0000000000000E+00
-0.1838608583101E+00 -0.1621398208057E+01  0.0000000000000E+00
-0.1860202144048E+00 -0.1549304059580E+01  0.0000000000000E+00
-0.1881690354453E+00 -0.1477195909043E+01  0.0000000000000E+00
-0.1902774407483E+00 -0.1405034780454E+01  0.0000000000000E+00
-0.1923115629777E+00 -0.1332779095967E+01  0.0000000000000E+00
-0.1374999998610E+00 -0.4186859601281E+01  0.0000000000000E+00
-0.1374999997219E+00 -0.4113342086429E+01  0.0000000000000E+00
-0.1374999995829E+00 -0.4039824684257E+01  0.0000000000000E+00
-0.1374999994439E+00 -0.3966307217550E+01  0.0000000000000E+00
-0.1374999993048E+00 -0.3892789747717E+01  0.0000000000000E+00
-0.1374999991658E+00 -0.3819272288129E+01  0.0000000000000E+00
-0.1374999990268E+00 -0.3745754823288E+01  0.0000000000000E+00
-0.1374999988877E+00 -0.3672237366228E+01  0.0000000000000E+00
-0.1374999987487E+00 -0.3598719903615E+01  0.0000000000000E+00
-0.1374999986096E+00 -0.3525202280347E+01  0.0000000000000E+00
-0.1374999984706E+00 -0.3451684819510E+01  0.0000000000000E+00
-0.1374999983316E+00 -0.3378167379303E+01  0.0000000000000E+00
-0.1374999981925E+00 -0.3304649961005E+01  0.0000000000000E+00
-0.1374999980535E+00 -0.3231132803085E+01  0.0000000000000E+00
-0.1374999979145E+00 -0.3157615389387E+01  0.0000000000000E+00
-0.1375004187121E+00 -0.3084098002567E+01  0.0000000000000E+00
-0.1375204282829E+00 -0.3010580866809E+01  0.0000000000000E+00
-0.1375977565995E+00 -0.2937066271891E+01  0.0000000000000E+00
-0.1377529598060E+00 -0.2863559587695E+01  0.0000000000000E+00
-0.1379912016736E+00 -0.2790067100603E+01  0.0000000000000E+00
-0.1383107706672E+00 -0.2716594812946E+01  0.0000000000000E+00
-0.1387083053289E+00 -0.2643146234864E+01  0.0000000000000E+00
-0.1391810412123E+00 -0.2569726064901E+01  0.0000000000000E+00
-0.1397277135379E+00 -0.2496339061666E+01  0.0000000000000E+00
-0.1403490300066E+00 -0.2422989996067E+01  0.0000000000000E+00
-0.1410481620916E+00 -0.2349685803919E+01  0.0000000000000E+00
-0.1418312782278E+00 -0.2276436016165E+01  0.0000000000000E+00
-0.1427012688952E+00 -0.2203248992725E+01  0.0000000000000E+00
-0.1436570795877E+00 -0.2130130513310E+01  0.0000000000000E+00
-0.1447001397517E+00 -0.2057088440583E+01  0.0000000000000E+00
-0.1458346756252E+00 -0.1984133466365E+01  0.0000000000000E+00
-0.1470679800223E+00 -0.1911281600769E+01  0.0000000000000E+00
-0.1484108470804E+00 -0.1838554023785E+01  0.0000000000000E+00
-0.1498773750807E+00 -0.1765979519673E+01  0.0000000000000E+00
-0.1514812020045E+00 -0.1693591126068E+01  0.0000000000000E+00
-0.1532173810388E+00 -0.1621398208057E+01  0.0000000000000E+00
-0.1550168444217E+00 -0.1549304059580E+01  0.0000000000000E+00
-0.1568075285926E+00 -0.1477195909043E+01  0.0000000000000E+00
-0.1585645329820E+00 -0.1405034780454E+01  0.0000000000000E+00
-0.1602596348099E+00 -0.1332779095967E+01  0.0000000000000E+00
-0.1099999998610E+00 -0.4186859601281E+01  0.0000000000000E+00
-0.1099999997219E+00 -0.4113342086429E+01  0.0000000000000E+00
-0.1099999995829E+00 -0.4039824684257E+01  0.0000000000000E+00
-0.1099999994439E+00 -0.3966307217550E+01  0.0000000000000E+00
-0.1099999993048E+00 -0.3892789747717E+01  0.0000000000000E+00
-0.1099999991658E+00 -0.3819272288129E+01  0.0000000000000E+00
-0.1099999990268E+00 -0.3745754823288E+01  0.0000000000000E+00
-0.1099999988877E+00 -0.3672237366228E+01  0.0000000000000E+00
-0.1099999987487E+00 -0.3598719903615E+01  0.0000000000000E+00
-0.1099999986096E+00 -0.3525202280347E+01  0.0000000000000E+00
-0.1099999984706E+00 -0.3451684819510E+01  0.0000000000000E+00
-0.1099999983316E+00 -0.3378167379303E+01  0.0000000000000E+00
-0.1099999981925E+00 -0.3304649961005E+01  0.0000000000000E+00
-0.1099999980535E+00 -0.3231132803085E+01  0.0000000000000E+00
-0.1099999979145E+00 -0.3157615389387E+01  0.0000000000000E+00
-0.1100003345248E+00 -0.3084098002567E+01  0.0000000000000E+00
-0.1100163421535E+00 -0.3010580866809E+01  0.0000000000000E+00
-0.1100782047786E+00 -0.2937066271891E+01  0.0000000000000E+00
-0.1102023673154E+00 -0.2863559587695E+01  0.0000000000000E+00
-0.1103929607806E+00 -0.2790067100603E+01  0.0000000000000E+00
-0.1106486159463E+00 -0.2716594812946E+01  0.0000000000000E+00
-0.1109666436462E+00 -0.2643146234864E+01  0.0000000000000E+00
-0.1113448323231E+00 -0.2569726064901E+01  0.0000000000000E+00
-0.1117821701535E+00 -0.2496339061666E+01  0.0000000000000E+00
-0.1122792232981E+00 -0.2422989996067E+01  0.0000000000000E+00
-0.1128385289355E+00 -0.2349685803919E+01  0.0000000000000E+00
-0.1134650218135E+00 -0.2276436016165E+01  0.0000000000000E+00
-0.1141610143161E+00 -0.2203248992725E+01  0.0000000000000E+00
-0.1149256628386E+00 -0.2130130513310E+01  0.0000000000000E+00
-0.1157601109379E+00 -0.2057088440583E+01  0.0000000000000E+00
-0.1166677396045E+00 -0.1984133466365E+01  0.0000000000000E+00
-0.1176543830895E+00 -0.1911281600769E+01  0.0000000000000E+00
-0.1187286767029E+00 -0.1838554023785E+01  0.0000000000000E+00
-0.1199018990696E+00 -0.1765979519673E+01  0.0000000000000E+00
-0.1211849605746E+00 -0.1693591126068E+01  0.0000000000000E+00
-0.1225739037674E+00 -0.1621398208057E+01  0.0000000000000E+00
-0.1240134744387E+00 -0.1549304059580E+01  0.0000000000000E+00
-0.1254460217400E+00 -0.1477195909043E+01  0.0000000000000E+00
-0.1268516252158E+00 -0.1405034780454E+01  0.0000000000000E+00
-0.1282077066422E+00 -0.1332779095967E+01  0.0000000000000E+00
-0.8249999986096E-01 -0.4186859601281E+01  0.0000000000000E+00
-0.8249999972193E-01 -0.4113342086429E+01  0.0000000000000E+00
-0.8249999958289E-01 -0.4039824684257E+01  0.0000000000000E+00
-0.8249999944386E-01 -0.3966307217550E+01  0.0000000000000E+00
-0.8249999930482E-01 -0.3892789747717E+01  0.0000000000000E+00
-0.8249999916579E-01 -0.3819272288129E+01  0.0000000000000E+00
-0.8249999902675E-01 -0.3745754823288E+01  0.0000000000000E+00
-0.8249999888772E-01 -0.3672237366228E+01  0.0000000000000E+00
-0.8249999874868E-01 -0.3598719903615E+01  0.0000000000000E+00
-0.8249999860965E-01 -0.3525202280347E+01  0.0000000000000E+00
-0.8249999847061E-01 -0.3451684819510E+01  0.0000000000000E+00
-0.8249999833158E-01 -0.3378167379303E+01  0.0000000000000E+00
-0.8249999819254E-01 -0.3304649961005E+01  0.0000000000000E+00
-0.8249999805351E-01 -0.3231132803085E+01  0.0000000000000E+00
-0.8249999791447E-01 -0.3157615389387E+01  0.0000000000000E+00
-0.8250025033743E-01 -0.3084098002567E+01  0.0000000000000E+00
-0.8251225602412E-01 -0.3010580866809E+01  0.0000000000000E+00
-0.8255865295774E-01 -0.2937066271891E+01  0.0000000000000E+00
-0.8265177482469E-01 -0.2863559587695E+01  0.0000000000000E+00
-0.8279471988758E-01 -0.2790067100603E+01  0.0000000000000E+00
-0.8298646122536E-01 -0.2716594812946E+01  0.0000000000000E+00
-0.8322498196343E-01 -0.2643146234864E+01  0.0000000000000E+00
-0.8350862343391E-01 -0.2569726064901E+01  0.0000000000000E+00
-0.8383662676914E-01 -0.2496339061666E+01  0.0000000000000E+00
-0.8420941658965E-01 -0.2422989996067E+01  0.0000000000000E+00
-0.8462889577935E-01 -0.2349685803919E+01  0.0000000000000E+00
-0.8509876539922E-01 -0.2276436016165E+01  0.0000000000000E+00
-0.8562075973709E-01 -0.2203248992725E+01  0.0000000000000E+00
-0.8619424608948E-01 -0.2130130513310E+01  0.0000000000000E+00
-0.8682008212406E-01 -0.2057088440583E+01  0.0000000000000E+00
-0.8750080358367E-01 -0.1984133466365E+01  0.0000000000000E+00
-0.8824078615667E-01 -0.1911281600769E+01  0.0000000000000E+00
-0.8904650632544E-01 -0.1838554023785E+01  0.0000000000000E+00
-0.8992642305859E-01 -0.1765979519673E+01  0.0000000000000E+00
-0.9088871914477E-01 -0.1693591126068E+01  0.0000000000000E+00
-0.9193042649611E-01 -0.1621398208057E+01  0.0000000000000E+00
-0.9301010445562E-01 -0.1549304059580E+01  0.0000000000000E+00
-0.9408451488737E-01 -0.1477195909043E+01  0.0000000000000E+00
-0.9513871744955E-01 -0.1405034780453E+01  0.0000000000000E+00
-0.9615577847440E-01 -0.1332779095967E+01  0.0000000000000E+00
-0.5499999986096E-01 -0.4186859601281E+01  0.0000000000000E+00
-0.5499999972193E-01 -0.4113342086429E+01  0.0000000000000E+00
-0.5499999958289E-01 -0.4039824684257E+01  0.0000000000000E+00
-0.5499999944386E-01 -0.3966307217550E+01  0.0000000000000E+00
-0.5499999930482E-01 -0.3892789747717E+01  0.0000000000000E+00
-0.5499999916579E-01 -0.3819272288129E+01  0.0000000000000E+00
-0.5499999902675E-01 -0.3745754823288E+01  0.0000000000000E+00
-0.5499999888772E-01 -0.3672237366228E+01  0.0000000000000E+00
-0.5499999874868E-01 -0.3598719903615E+01  0.0000000000000E+00
-0.5499999860965E-01 -0.3525202280347E+01  0.0000000000000E+00
-0.5499999847061E-01 -0.3451684819509E+01  0.0000000000000E+00
-0.5499999833158E-01 -0.3378167379303E+01  0.0000000000000E+00
-0.5499999819254E-01 -0.3304649961005E+01  0.0000000000000E+00
-0.5499999805351E-01 -0.3231132803085E+01  0.0000000000000E+00
-0.5499999791447E-01 -0.3157615389387E+01  0.0000000000000E+00
-0.5500016615009E-01 -0.3084098002567E+01  0.0000000000000E+00
-0.5500816989472E-01 -0.3010580866809E+01  0.0000000000000E+00
-0.5503910113688E-01 -0.2937066271891E+01  0.0000000000000E+00
-0.5510118233403E-01 -0.2863559587695E+01  0.0000000000000E+00
-0.5519647899455E-01 -0.2790067100603E+01  0.0000000000000E+00
-0.5532430650444E-01 -0.2716594812945E+01  0.0000000000000E+00
-0.5548332028068E-01 -0.2643146234864E+01  0.0000000000000E+00
-0.5567241454470E-01 -0.2569726064901E+01  0.0000000000000E+00
-0.5589108338473E-01 -0.2496339061666E+01  0.0000000000000E+00
-0.5613960988116E-01 -0.2422989996067E+01  0.0000000000000E+00
-0.5641926262324E-01 -0.2349685803919E+01  0.0000000000000E+00
-0.5673250898492E-01 -0.2276436016165E+01  0.0000000000000E+00
-0.5708050515806E-01 -0.2203248992725E+01  0.0000000000000E+00
-0.5746282934035E-01 -0.2130130513310E+01  0.0000000000000E+00
-0.5788005331022E-01 -0.2057088440583E+01  0.0000000000000E+00
-0.5833386756287E-01 -0.1984133466365E+01  0.0000000000000E+00
-0.5882718922384E-01 -0.1911281600769E+01  0.0000000000000E+00
-0.5936433594797E-01 -0.1838554023785E+01  0.0000000000000E+00
-0.5995094704755E-01 -0.1765979519673E+01  0.0000000000000E+00
-0.6059247771492E-01 -0.1693591126068E+01  0.0000000000000E+00
-0.6128694922477E-01 -0.1621398208057E+01  0.0000000000000E+00
-0.6200673447256E-01 -0.1549304059580E+01  0.0000000000000E+00
-0.6272300803474E-01 -0.1477195909043E+01  0.0000000000000E+00
-0.6342580968331E-01 -0.1405034780453E+01  0.0000000000000E+00
-0.6410385030664E-01 -0.1332779095967E+01  0.0000000000000E+00
-0.2749999986096E-01 -0.4186859601281E+01  0.0000000000000E+00
-0.2749999972193E-01 -0.4113342086429E+01  0.0000000000000E+00
-0.2749999958289E-01 -0.4039824684257E+01  0.0000000000000E+00
-0.2749999944386E-01 -0.3966307217550E+01  0.0000000000000E+00
-0.2749999930482E-01 -0.3892789747717E+01  0.0000000000000E+00
-0.2749999916579E-01 -0.3819272288128E+01  0.0000000000000E+00
-0.2749999902675E-01 -0.3745754823288E+01  0.0000000000000E+00
-0.2749999888772E-01 -0.3672237366228E+01  0.0000000000000E+00
-0.2749999874868E-01 -0.3598719903615E+01  0.0000000000000E+00
-0.2749999860965E-01 -0.3525202280347E+01  0.0000000000000E+00
-0.2749999847061E-01 -0.3451684819509E+01  0.0000000000000E+00
-0.2749999833158E-01 -0.3378167379303E+01  0.0000000000000E+00
-0.2749999819254E-01 -0.3304649961005E+01  0.0000000000000E+00
-0.2749999805351E-01 -0.3231132803085E+01  0.0000000000000E+00
-0.2749999791447E-01 -0.3157615389387E+01  0.0000000000000E+00
-0.2750008196276E-01 -0.3084098002567E+01  0.0000000000000E+00
-0.2750408376533E-01 -0.3010580866809E+01  0.0000000000000E+00
-0.2751954931602E-01 -0.2937066271891E+01  0.0000000000000E+00
-0.2755058984337E-01 -0.2863559587695E+01  0.0000000000000E+00
-0.2759823810152E-01 -0.2790067100603E+01  0.0000000000000E+00
-0.2766215178353E-01 -0.2716594812945E+01  0.0000000000000E+00
-0.2774165859793E-01 -0.2643146234864E+01  0.0000000000000E+00
-0.2783620565548E-01 -0.2569726064901E+01  0.0000000000000E+00
-0.2794554000033E-01 -0.2496339061666E+01  0.0000000000000E+00
-0.2806980317267E-01 -0.2422989996067E+01  0.0000000000000E+00
-0.2820962946712E-01 -0.2349685803919E+01  0.0000000000000E+00
-0.2836625257062E-01 -0.2276436016165E+01  0.0000000000000E+00
-0.2854025057903E-01 -0.2203248992725E+01  0.0000000000000E+00
-0.2873141259122E-01 -0.2130130513310E+01  0.0000000000000E+00
-0.2894002449638E-01 -0.2057088440583E+01  0.0000000000000E+00
-0.2916693154208E-01 -0.1984133466365E+01  0.0000000000000E+00
-0.2941359229101E-01 -0.1911281600769E+01  0.0000000000000E+00
-0.2968216557049E-01 -0.1838554023784E+01  0.0000000000000E+00
-0.2997547103652E-01 -0.1765979519673E+01  0.0000000000000E+00
-0.3029623628508E-01 -0.1693591126068E+01  0.0000000000000E+00
-0.3064347195342E-01 -0.1621398208057E+01  0.0000000000000E+00
-0.3100336448950E-01 -0.1549304059580E+01  0.0000000000000E+00
-0.3136150118210E-01 -0.1477195909043E+01  0.0000000000000E+00
-0.3171290191707E-01 -0.1405034780453E+01  0.0000000000000E+00
-0.3205192213889E-01 -0.1332779095967E+01  0.0000000000000E+00
 0.1390354743131E-09 -0.4186859601281E+01  0.0000000000000E+00
 0.2780705505956E-09 -0.4113342086429E+01  0.0000000000000E+00
 0.4171060575715E-09 -0.4039824684257E+01  0.0000000000000E+00
 0.5561412602524E-09 -0.3966307217550E+01  0.0000000000000E+00
 0.6951766705972E-09 -0.3892789747717E+01  0.0000000000000E+00
 0.8342121431180E-09 -0.3819272288128E+01  0.0000000000000E+00
 0.9732474182843E-09 -0.3745754823288E+01  0.0000000000000E+00
 0.1112282802333E-08 -0.3672237366228E+01  0.0000000000000E+00
 0.1251318294960E-08 -0.3598719903615E+01  0.0000000000000E+00
 0.1390353813009E-08 -0.3525202280347E+01  0.0000000000000E+00
 0.1529389163202E-08 -0.3451684819509E+01  0.0000000000000E+00
 0.1668424554188E-08 -0.3378167379303E+01  0.0000000000000E+00
 0.1807459650274E-08 -0.3304649961005E+01  0.0000000000000E+00
 0.1946494376859E-08 -0.3231132803085E+01  0.0000000000000E+00
 0.2085529741028E-08 -0.3157615389387E+01  0.0000000000000E+00
 0.2224574625698E-08 -0.3084098002567E+01  0.0000000000000E+00
 0.2364064634836E-08 -0.3010580866809E+01  0.0000000000000E+00
 0.2504833556286E-08 -0.2937066271891E+01  0.0000000000000E+00
 0.2647292734782E-08 -0.2863559587695E+01  0.0000000000000E+00
 0.2791501958223E-08 -0.2790067100603E+01  0.0000000000000E+00
 0.2937379100042E-08 -0.2716594812945E+01  0.0000000000000E+00
 0.3084818653443E-08 -0.2643146234864E+01  0.0000000000000E+00
 0.3233734531287E-08 -0.2569726064901E+01  0.0000000000000E+00
 0.3384071636922E-08 -0.2496339061666E+01  0.0000000000000E+00
 0.3535814743461E-08 -0.2422989996067E+01  0.0000000000000E+00
 0.3688988805617E-08 -0.2349685803919E+01  0.0000000000000E+00
 0.3843683676532E-08 -0.2276436016165E+01  0.0000000000000E+00
 0.3999997810813E-08 -0.2203248992725E+01  0.0000000000000E+00
 0.4157914882495E-08 -0.2130130513310E+01  0.0000000000000E+00
 0.4317456570341E-08 -0.2057088440583E+01  0.0000000000000E+00
 0.4478710343982E-08 -0.1984133466365E+01  0.0000000000000E+00
 0.4641815539791E-08 -0.1911281600769E+01  0.0000000000000E+00
 0.4806982281144E-08 -0.1838554023784E+01  0.0000000000000E+00
 0.4974521798449E-08 -0.1765979519673E+01  0.0000000000000E+00
 0.5144772820396E-08 -0.1693591126068E+01  0.0000000000000E+00
 0.5317917718960E-08 -0.1621398208057E+01  0.0000000000000E+00
 0.5493560806702E-08 -0.1549304059580E+01  0.0000000000000E+00
 0.5670536855295E-08 -0.1477195909043E+01  0.0000000000000E+00
 0.5849166081565E-08 -0.1405034780453E+01  0.0000000000000E+00
 0.6028873484876E-08 -0.1332779095967E+01  0.0000000000000E+00
 0.2750000013904E-01 -0.4186859601281E+01  0.0000000000000E+00
 0.2750000027807E-01 -0.4113342086429E+01  0.0000000000000E+00
 0.2750000041711E-01 -0.4039824684257E+01  0.0000000000000E+00
 0.2750000055614E-01 -0.3966307217550E+01  0.0000000000000E+00
 0.2750000069518E-01 -0.3892789747717E+01  0.0000000000000E+00
 0.2750000083421E-01 -0.3819272288128E+01  0.0000000000000E+00
 0.2750000097325E-01 -0.3745754823288E+01  0.0000000000000E+00
 0.2750000111228E-01 -0.3672237366228E+01  0.0000000000000E+00
 0.2750000125132E-01 -0.3598719903615E+01  0.0000000000000E+00
 0.2750000139035E-01 -0.3525202280347E+01  0.0000000000000E+00
 0.2750000152939E-01 -0.3451684819509E+01  0.0000000000000E+00
 0.2750000166842E-01 -0.3378167379303E+01  0.0000000000000E+00
 0.2750000180746E-01 -0.3304649961005E+01  0.0000000000000E+00
 0.2750000194649E-01 -0.3231132803085E+01  0.0000000000000E+00
 0.2750000208553E-01 -0.3157615389387E+01  0.0000000000000E+00
 0.2750008641191E-01 -0.3084098002567E+01  0.0000000000000E+00
 0.2750408849346E-01 -0.3010580866809E+01  0.0000000000000E+00
 0.2751955432569E-01 -0.2937066271891E+01  0.0000000000000E+00
 0.2755059513795E-01 -0.2863559587695E+01  0.0000000000000E+00
 0.2759824368453E-01 -0.2790067100603E+01  0.0000000000000E+00
 0.2766215765829E-01 -0.2716594812945E+01  0.0000000000000E+00
 0.2774166476757E-01 -0.2643146234864E+01  0.0000000000000E+00
 0.2783621212295E-01 -0.2569726064901E+01  0.0000000000000E+00
 0.2794554676847E-01 -0.2496339061666E+01  0.0000000000000E+00
 0.2806981024430E-01 -0.2422989996067E+01  0.0000000000000E+00
 0.2820963684510E-01 -0.2349685803919E+01  0.0000000000000E+00
 0.2836626025798E-01 -0.2276436016165E+01  0.0000000000000E+00
 0.2854025857903E-01 -0.2203248992725E+01  0.0000000000000E+00
 0.2873142090705E-01 -0.2130130513310E+01  0.0000000000000E+00
 0.2894003313129E-01 -0.2057088440583E+01  0.0000000000000E+00
 0.2916694049950E-01 -0.1984133466365E+01  0.0000000000000E+00
 0.2941360157464E-01 -0.1911281600769E+01  0.0000000000000E+00
 0.2968217518446E-01 -0.1838554023784E+01  0.0000000000000E+00
 0.2997548098556E-01 -0.1765979519673E+01  0.0000000000000E+00
 0.3029624657462E-01 -0.1693591126068E+01  0.0000000000000E+00
 0.3064348258926E-01 -0.1621398208057E+01  0.0000000000000E+00
 0.3100337547662E-01 -0.1549304059580E+01  0.0000000000000E+00
 0.3136151252317E-01 -0.1477195909043E+01  0.0000000000000E+00
 0.3171291361540E-01 -0.1405034780453E+01  0.0000000000000E+00
 0.3205193419663E-01 -0.1332779095967E+01  0.0000000000000E+00
 0.5500000013904E-01 -0.4186859601281E+01  0.0000000000000E+00
 0.5500000027807E-01 -0.4113342086429E+01  0.0000000000000E+00
 0.5500000041711E-01 -0.4039824684257E+01  0.0000000000000E+00
 0.5500000055614E-01 -0.3966307217550E+01  0.0000000000000E+00
 0.5500000069518E-01 -0.3892789747717E+01  0.0000000000000E+00
 0.5500000083421E-01 -0.3819272288128E+01  0.0000000000000E+00
 0.5500000097325E-01 -0.3745754823288E+01  0.0000000000000E+00
 0.5500000111228E-01 -0.3672237366228E+01  0.0000000000000E+00
 0.5500000125132E-01 -0.3598719903615E+01  0.0000000000000E+00
 0.5500000139035E-01 -0.3525202280347E+01  0.0000000000000E+00
 0.5500000152939E-01 -0.3451684819509E+01  0.0000000000000E+00
 0.5500000166842E-01 -0.3378167379303E+01  0.0000000000000E+00
 0.5500000180746E-01 -0.3304649961005E+01  0.0000000000000E+00
 0.5500000194649E-01 -0.3231132803085E+01  0.0000000000000E+00
 0.5500000208553E-01 -0.3157615389387E+01  0.0000000000000E+00
 0.5500017059924E-01 -0.3084098002567E+01  0.0000000000000E+00
 0.5500817462285E-01 -0.3010580866809E+01  0.0000000000000E+00
 0.5503910614655E-01 -0.2937066271891E+01  0.0000000000000E+00
 0.5510118762862E-01 -0.2863559587695E+01  0.0000000000000E+00
 0.5519648457755E-01 -0.2790067100603E+01  0.0000000000000E+00
 0.5532431237920E-01 -0.2716594812945E+01  0.0000000000000E+00
 0.5548332645032E-01 -0.2643146234864E+01  0.0000000000000E+00
 0.5567242101217E-01 -0.2569726064901E+01  0.0000000000000E+00
 0.5589109015288E-01 -0.2496339061666E+01  0.0000000000000E+00
 0.5613961695279E-01 -0.2422989996067E+01  0.0000000000000E+00
 0.5641927000122E-01 -0.2349685803919E+01  0.0000000000000E+00
 0.5673251667228E-01 -0.2276436016165E+01  0.0000000000000E+00
 0.5708051315806E-01 -0.2203248992725E+01  0.0000000000000E+00
 0.5746283765618E-01 -0.2130130513310E+01  0.0000000000000E+00
 0.5788006194513E-01 -0.2057088440583E+01  0.0000000000000E+00
 0.5833387652029E-01 -0.1984133466365E+01  0.0000000000000E+00
 0.5882719850747E-01 -0.1911281600769E+01  0.0000000000000E+00
 0.5936434556193E-01 -0.1838554023784E+01  0.0000000000000E+00
 0.5995095699660E-01 -0.1765979519672E+01  0.0000000000000E+00
 0.6059248800447E-01 -0.1693591126068E+01  0.0000000000000E+00
 0.6128695986060E-01 -0.1621398208056E+01  0.0000000000000E+00
 0.6200674545968E-01 -0.1549304059580E+01  0.0000000000000E+00
 0.6272301937581E-01 -0.1477195909043E+01  0.0000000000000E+00
 0.6342582138164E-01 -0.1405034780453E+01  0.0000000000000E+00
 0.6410386236439E-01 -0.1332779095967E+01  0.0000000000000E+00
 0.8250000013904E-01 -0.4186859601281E+01  0.0000000000000E+00
 0.8250000027807E-01 -0.4113342086429E+01  0.0000000000000E+00
 0.8250000041711E-01 -0.4039824684257E+01  0.0000000000000E+00
 0.8250000055614E-01 -0.3966307217550E+01  0.0000000000000E+00
 0.8250000069518E-01 -0.3892789747717E+01  0.0000000000000E+00
 0.8250000083421E-01 -0.3819272288128E+01  0.0000000000000E+00
 0.8250000097325E-01 -0.3745754823288E+01  0.0000000000000E+00
 0.8250000111228E-01 -0.3672237366228E+01  0.0000000000000E+00
 0.8250000125132E-01 -0.3598719903615E+01  0.0000000000000E+00
 0.8250000139035E-01 -0.3525202280347E+01  0.0000000000000E+00
 0.8250000152939E-01 -0.3451684819509E+01  0.0000000000000E+00
 0.8250000166842E-01 -0.3378167379303E+01  0.0000000000000E+00
 0.8250000180746E-01 -0.3304649961005E+01  0.0000000000000E+00
 0.8250000194649E-01 -0.3231132803085E+01  0.0000000000000E+00
 0.8250000208553E-01 -0.3157615389387E+01  0.0000000000000E+00
 0.8250025478658E-01 -0.3084098002567E+01  0.0000000000000E+00
 0.8251226075225E-01 -0.3010580866809E+01  0.0000000000000E+00
 0.8255865796740E-01 -0.2937066271891E+01  0.0000000000000E+00
 0.8265178011928E-01 -0.2863559587695E+01  0.0000000000000E+00
 0.8279472547058E-01 -0.2790067100603E+01  0.0000000000000E+00
 0.8298646710011E-01 -0.2716594812945E+01  0.0000000000000E+00
 0.8322498813306E-01 -0.2643146234864E+01  0.0000000000000E+00
 0.8350862990138E-01 -0.2569726064901E+01  0.0000000000000E+00
 0.8383663353728E-01 -0.2496339061666E+01  0.0000000000000E+00
 0.8420942366128E-01 -0.2422989996067E+01  0.0000000000000E+00
 0.8462890315733E-01 -0.2349685803919E+01  0.0000000000000E+00
 0.8509877308658E-01 -0.2276436016165E+01  0.0000000000000E+00
 0.8562076773709E-01 -0.2203248992725E+01  0.0000000000000E+00
 0.8619425440531E-01 -0.2130130513310E+01  0.0000000000000E+00
 0.8682009075897E-01 -0.2057088440583E+01  0.0000000000000E+00
 0.8750081254109E-01 -0.1984133466365E+01  0.0000000000000E+00
 0.8824079544030E-01 -0.1911281600769E+01  0.0000000000000E+00
 0.8904651593941E-01 -0.1838554023784E+01  0.0000000000000E+00
 0.8992643300764E-01 -0.1765979519672E+01  0.0000000000000E+00
 0.9088872943432E-01 -0.1693591126068E+01  0.0000000000000E+00
 0.9193043713194E-01 -0.1621398208056E+01  0.0000000000000E+00
 0.9301011544274E-01 -0.1549304059579E+01  0.0000000000000E+00
 0.9408452622845E-01 -0.1477195909043E+01  0.0000000000000E+00
 0.9513872914788E-01 -0.1405034780453E+01  0.0000000000000E+00
 0.9615579053215E-01 -0.1332779095967E+01  0.0000000000000E+00
 0.1100000001390E+00 -0.4186859601281E+01  0.0000000000000E+00
 0.1100000002781E+00 -0.4113342086429E+01  0.0000000000000E+00
 0.1100000004171E+00 -0.4039824684257E+01  0.0000000000000E+00
 0.1100000005561E+00 -0.3966307217550E+01  0.0000000000000E+00
 0.1100000006952E+00 -0.3892789747717E+01  0.0000000000000E+00
 0.1100000008342E+00 -0.3819272288128E+01  0.0000000000000E+00
 0.1100000009732E+00 -0.3745754823288E+01  0.0000000000000E+00
 0.1100000011123E+00 -0.3672237366228E+01  0.0000000000000E+00
 0.1100000012513E+00 -0.3598719903615E+01  0.0000000000000E+00
 0.1100000013904E+00 -0.3525202280347E+01  0.0000000000000E+00
 0.1100000015294E+00 -0.3451684819509E+01  0.0000000000000E+00
 0.1100000016684E+00 -0.3378167379303E+01  0.0000000000000E+00
 0.1100000018075E+00 -0.3304649961005E+01  0.0000000000000E+00
 0.1100000019465E+00 -0.3231132803085E+01  0.0000000000000E+00
 0.1100000020855E+00 -0.3157615389387E+01  0.0000000000000E+00
 0.1100003389739E+00 -0.3084098002567E+01  0.0000000000000E+00
 0.1100163468816E+00 -0.3010580866809E+01  0.0000000000000E+00
 0.1100782097883E+00 -0.2937066271891E+01  0.0000000000000E+00
 0.1102023726099E+00 -0.2863559587695E+01  0.0000000000000E+00
 0.1103929663636E+00 -0.2790067100603E+01  0.0000000000000E+00
 0.1106486218210E+00 -0.2716594812945E+01  0.0000000000000E+00
 0.1109666498158E+00 -0.2643146234864E+01  0.0000000000000E+00
 0.1113448387906E+00 -0.2569726064901E+01  0.0000000000000E+00
 0.1117821769217E+00 -0.2496339061666E+01  0.0000000000000E+00
 0.1122792303698E+00 -0.2422989996067E+01  0.0000000000000E+00
 0.1128385363134E+00 -0.2349685803919E+01  0.0000000000000E+00
 0.1134650295009E+00 -0.2276436016165E+01  0.0000000000000E+00
 0.1141610223161E+00 -0.2203248992725E+01  0.0000000000000E+00
 0.1149256711544E+00 -0.2130130513310E+01  0.0000000000000E+00
 0.1157601195728E+00 -0.2057088440583E+01  0.0000000000000E+00
 0.1166677485619E+00 -0.1984133466365E+01  0.0000000000000E+00
 0.1176543923731E+00 -0.1911281600769E+01  0.0000000000000E+00
 0.1187286863169E+00 -0.1838554023784E+01  0.0000000000000E+00
 0.1199019090187E+00 -0.1765979519672E+01  0.0000000000000E+00
 0.1211849708642E+00 -0.1693591126068E+01  0.0000000000000E+00
 0.1225739144033E+00 -0.1621398208056E+01  0.0000000000000E+00
 0.1240134854258E+00 -0.1549304059579E+01  0.0000000000000E+00
 0.1254460330811E+00 -0.1477195909043E+01  0.0000000000000E+00
 0.1268516369141E+00 -0.1405034780453E+01  0.0000000000000E+00
 0.1282077186999E+00 -0.1332779095967E+01  0.0000000000000E+00
 0.1375000001390E+00 -0.4186859601281E+01  0.0000000000000E+00
 0.1375000002781E+00 -0.4113342086429E+01  0.0000000000000E+00
 0.1375000004171E+00 -0.4039824684257E+01  0.0000000000000E+00
 0.1375000005561E+00 -0.3966307217550E+01  0.0000000000000E+00
 0.1375000006952E+00 -0.3892789747717E+01  0.0000000000000E+00
 0.1375000008342E+00 -0.3819272288128E+01  0.0000000000000E+00
 0.1375000009732E+00 -0.3745754823288E+01  0.0000000000000E+00
 0.1375000011123E+00 -0.3672237366228E+01  0.0000000000000E+00
 0.1375000012513E+00 -0.3598719903615E+01  0.0000000000000E+00
 0.1375000013904E+00 -0.3525202280347E+01  0.0000000000000E+00
 0.1375000015294E+00 -0.3451684819509E+01  0.0000000000000E+00
 0.1375000016684E+00 -0.3378167379303E+01  0.0000000000000E+00
 0.1375000018075E+00 -0.3304649961005E+01  0.0000000000000E+00
 0.1375000019465E+00 -0.3231132803085E+01  0.0000000000000E+00
 0.1375000020855E+00 -0.3157615389387E+01  0.0000000000000E+00
 0.1375004231612E+00 -0.3084098002567E+01  0.0000000000000E+00
 0.1375204330110E+00 -0.3010580866809E+01  0.0000000000000E+00
 0.1375977616091E+00 -0.2937066271891E+01  0.0000000000000E+00
 0.1377529651006E+00 -0.2863559587695E+01  0.0000000000000E+00
 0.1379912072566E+00 -0.2790067100603E+01  0.0000000000000E+00
 0.1383107765419E+00 -0.2716594812945E+01  0.0000000000000E+00
 0.1387083114986E+00 -0.2643146234864E+01  0.0000000000000E+00
 0.1391810476798E+00 -0.2569726064901E+01  0.0000000000000E+00
 0.1397277203061E+00 -0.2496339061666E+01  0.0000000000000E+00
 0.1403490370782E+00 -0.2422989996067E+01  0.0000000000000E+00
 0.1410481694696E+00 -0.2349685803919E+01  0.0000000000000E+00
 0.1418312859152E+00 -0.2276436016165E+01  0.0000000000000E+00
 0.1427012768951E+00 -0.2203248992725E+01  0.0000000000000E+00
 0.1436570879036E+00 -0.2130130513310E+01  0.0000000000000E+00
 0.1447001483866E+00 -0.2057088440583E+01  0.0000000000000E+00
 0.1458346845827E+00 -0.1984133466365E+01  0.0000000000000E+00
 0.1470679893060E+00 -0.1911281600769E+01  0.0000000000000E+00
 0.1484108566944E+00 -0.1838554023784E+01  0.0000000000000E+00
 0.1498773850297E+00 -0.1765979519672E+01  0.0000000000000E+00
 0.1514812122940E+00 -0.1693591126068E+01  0.0000000000000E+00
 0.1532173916746E+00 -0.1621398208056E+01  0.0000000000000E+00
 0.1550168554089E+00 -0.1549304059579E+01  0.0000000000000E+00
 0.1568075399337E+00 -0.1477195909043E+01  0.0000000000000E+00
 0.1585645446804E+00 -0.1405034780453E+01  0.0000000000000E+00
 0.1602596468677E+00 -0.1332779095967E+01  0.0000000000000E+00
 0.1650000001390E+00 -0.4186859601281E+01  0.0000000000000E+00
 0.1650000002781E+00 -0.4113342086429E+01  0.0000000000000E+00
 0.1650000004171E+00 -0.4039824684257E+01  0.0000000000000E+00
 0.1650000005561E+00 -0.3966307217550E+01  0.0000000000000E+00
 0.1650000006952E+00 -0.3892789747717E+01  0.0000000000000E+00
 0.1650000008342E+00 -0.3819272288128E+01  0.0000000000000E+00
 0.1650000009732E+00 -0.3745754823288E+01  0.0000000000000E+00
 0.1650000011123E+00 -0.3672237366228E+01  0.0000000000000E+00
 0.1650000012513E+00 -0.3598719903615E+01  0.0000000000000E+00
 0.1650000013904E+00 -0.3525202280347E+01  0.0000000000000E+00
 0.1650000015294E+00 -0.3451684819509E+01  0.0000000000000E+00
 0.1650000016684E+00 -0.3378167379303E+01  0.0000000000000E+00
 0.1650000018075E+00 -0.3304649961005E+01  0.0000000000000E+00
 0.1650000019465E+00 -0.3231132803084E+01  0.0000000000000E+00
 0.1650000020855E+00 -0.3157615389387E+01  0.0000000000000E+00
 0.1650005073486E+00 -0.3084098002567E+01  0.0000000000000E+00
 0.1650245191404E+00 -0.3010580866809E+01  0.0000000000000E+00
 0.1651173134300E+00 -0.2937066271891E+01  0.0000000000000E+00
 0.1653035575913E+00 -0.2863559587695E+01  0.0000000000000E+00
 0.1655894481497E+00 -0.2790067100603E+01  0.0000000000000E+00
 0.1659729312628E+00 -0.2716594812945E+01  0.0000000000000E+00
 0.1664499731813E+00 -0.2643146234864E+01  0.0000000000000E+00
 0.1670172565690E+00 -0.2569726064901E+01  0.0000000000000E+00
 0.1676732636905E+00 -0.2496339061666E+01  0.0000000000000E+00
 0.1684188437867E+00 -0.2422989996067E+01  0.0000000000000E+00
 0.1692578026257E+00 -0.2349685803919E+01  0.0000000000000E+00
 0.1701975423295E+00 -0.2276436016165E+01  0.0000000000000E+00
 0.1712415314742E+00 -0.2203248992725E+01  0.0000000000000E+00
 0.1723885046527E+00 -0.2130130513310E+01  0.0000000000000E+00
 0.1736401772005E+00 -0.2057088440583E+01  0.0000000000000E+00
 0.1750016206035E+00 -0.1984133466365E+01  0.0000000000000E+00
 0.1764815862388E+00 -0.1911281600769E+01  0.0000000000000E+00
 0.1780930270718E+00 -0.1838554023784E+01  0.0000000000000E+00
 0.1798528610408E+00 -0.1765979519672E+01  0.0000000000000E+00
 0.1817774537239E+00 -0.1693591126068E+01  0.0000000000000E+00
 0.1838608689460E+00 -0.1621398208056E+01  0.0000000000000E+00
 0.1860202253919E+00 -0.1549304059579E+01  0.0000000000000E+00
 0.1881690467864E+00 -0.1477195909043E+01  0.0000000000000E+00
 0.1902774524466E+00 -0.1405034780453E+01  0.0000000000000E+00
 0.1923115750354E+00 -0.1332779095967E+01  0.0000000000000E+00
 0.1925000001390E+00 -0.4186859601281E+01  0.0000000000000E+00
 0.1925000002781E+00 -0.4113342086429E+01  0.0000000000000E+00
 0.1925000004171E+00 -0.4039824684257E+01  0.0000000000000E+00
 0.1925000005561E+00 -0.3966307217550E+01  0.0000000000000E+00
 0.1925000006952E+00 -0.3892789747717E+01  0.0000000000000E+00
 0.1925000008342E+00 -0.3819272288128E+01  0.0000000000000E+00
 0.1925000009732E+00 -0.3745754823288E+01  0.0000000000000E+00
 0.1925000011123E+00 -0.3672237366228E+01  0.0000000000000E+00
 0.1925000012513E+00 -0.3598719903615E+01  0.0000000000000E+00
 0.1925000013904E+00 -0.3525202280347E+01  0.0000000000000E+00
 0.1925000015294E+00 -0.3451684819509E+01  0.0000000000000E+00
 0.1925000016684E+00 -0.3378167379303E+01  0.0000000000000E+00
 0.1925000018075E+00 -0.3304649961005E+01  0.0000000000000E+00
 0.1925000019465E+00 -0.3231132803084E+01  0.0000000000000E+00
 0.1925000020855E+00 -0.3157615389387E+01  0.0000000000000E+00
 0.1925005915359E+00 -0.3084098002567E+01  0.0000000000000E+00
 0.1925286052698E+00 -0.3010580866809E+01  0.0000000000000E+00
 0.1926368652508E+00 -0.2937066271891E+01  0.0000000000000E+00
 0.1928541500819E+00 -0.2863559587695E+01  0.0000000000000E+00
 0.1931876890427E+00 -0.2790067100603E+01  0.0000000000000E+00
 0.1936350859838E+00 -0.2716594812945E+01  0.0000000000000E+00
 0.1941916348641E+00 -0.2643146234864E+01  0.0000000000000E+00
 0.1948534654582E+00 -0.2569726064901E+01  0.0000000000000E+00
 0.1956188070749E+00 -0.2496339061666E+01  0.0000000000000E+00
 0.1964886504952E+00 -0.2422989996067E+01  0.0000000000000E+00
 0.1974674357818E+00 -0.2349685803919E+01  0.0000000000000E+00
 0.1985637987438E+00 -0.2276436016165E+01  0.0000000000000E+00
 0.1997817860532E+00 -0.2203248992725E+01  0.0000000000000E+00
 0.2011199214018E+00 -0.2130130513310E+01  0.0000000000000E+00
 0.2025802060143E+00 -0.2057088440583E+01  0.0000000000000E+00
 0.2041685566243E+00 -0.1984133466365E+01  0.0000000000000E+00
 0.2058951831716E+00 -0.1911281600769E+01  0.0000000000000E+00
 0.2077751974493E+00 -0.1838554023784E+01  0.0000000000000E+00
 0.2098283370518E+00 -0.1765979519672E+01  0.0000000000000E+00
 0.2120736951537E+00 -0.1693591126068E+01  0.0000000000000E+00
 0.2145043462173E+00 -0.1621398208056E+01  0.0000000000000E+00
 0.2170235953750E+00 -0.1549304059579E+01  0.0000000000000E+00
 0.2195305536390E+00 -0.1477195909043E+01  0.0000000000000E+00
 0.2219903602128E+00 -0.1405034780453E+01  0.0000000000000E+00
 0.2243635032032E+00 -0.1332779095967E+01  0.0000000000000E+00
 0.2200000001390E+00 -0.4186859601281E+01  0.0000000000000E+00
 0.2200000002781E+00 -0.4113342086429E+01  0.0000000000000E+00
 0.2200000004171E+00 -0.4039824684257E+01  0.0000000000000E+00
 0.2200000005561E+00 -0.3966307217550E+01  0.0000000000000E+00
 0.2200000006952E+00 -0.3892789747717E+01  0.0000000000000E+00
 0.2200000008342E+00 -0.3819272288128E+01  0.0000000000000E+00
 0.2200000009732E+00 -0.3745754823288E+01  0.0000000000000E+00
 0.2200000011123E+00 -0.3672237366228E+01  0.0000000000000E+00
 0.2200000012513E+00 -0.3598719903615E+01  0.0000000000000E+00
 0.2200000013904E+00 -0.3525202280347E+01  0.0000000000000E+00
 0.2200000015294E+00 -0.3451684819509E+01  0.0000000000000E+00
 0.2200000016684E+00 -0.3378167379303E+01  0.0000000000000E+00
 0.2200000018075E+00 -0.3304649961005E+01  0.0000000000000E+00
 0.2200000019465E+00 -0.3231132803084E+01  0.0000000000000E+00
 0.2200000020855E+00 -0.3157615389387E+01  0.0000000000000E+00
 0.2200006757232E+00 -0.3084098002567E+01  0.0000000000000E+00
 0.2200326913992E+00 -0.3010580866809E+01  0.0000000000000E+00
 0.2201564170717E+00 -0.2937066271891E+01  0.0000000000000E+00
 0.2204047425726E+00 -0.2863559587695E+01  0.0000000000000E+00
 0.2207859299357E+00 -0.2790067100603E+01  0.0000000000000E+00
 0.2212972407047E+00 -0.2716594812945E+01  0.0000000000000E+00
 0.2219332965468E+00 -0.2643146234864E+01  0.0000000000000E+00
 0.2226896743475E+00 -0.2569726064901E+01  0.0000000000000E+00
 0.2235643504593E+00 -0.2496339061666E+01  0.0000000000000E+00
 0.2245584572037E+00 -0.2422989996067E+01  0.0000000000000E+00
 0.2256770689379E+00 -0.2349685803918E+01  0.0000000000000E+00
 0.2269300551581E+00 -0.2276436016165E+01  0.0000000000000E+00
 0.2283220406322E+00 -0.2203248992725E+01  0.0000000000000E+00
 0.2298513381510E+00 -0.2130130513310E+01  0.0000000000000E+00
 0.2315202348282E+00 -0.2057088440583E+01  0.0000000000000E+00
 0.2333354926450E+00 -0.1984133466365E+01  0.0000000000000E+00
 0.2353087801044E+00 -0.1911281600769E+01  0.0000000000000E+00
 0.2374573678268E+00 -0.1838554023784E+01  0.0000000000000E+00
 0.2398038130628E+00 -0.1765979519672E+01  0.0000000000000E+00
 0.2423699365836E+00 -0.1693591126068E+01  0.0000000000000E+00
 0.2451478234886E+00 -0.1621398208056E+01  0.0000000000000E+00
 0.2480269653580E+00 -0.1549304059579E+01  0.0000000000000E+00
 0.2508920604916E+00 -0.1477195909043E+01  0.0000000000000E+00
 0.2537032679791E+00 -0.1405034780453E+01  0.0000000000000E+00
 0.2564154313709E+00 -0.1332779095967E+01  0.0000000000000E+00
 0.2475000001390E+00 -0.4186859601281E+01  0.0000000000000E+00
 0.2475000002781E+00 -0.4113342086429E+01  0.0000000000000E+00
 0.2475000004171E+00 -0.4039824684257E+01  0.0000000000000E+00
 0.2475000005561E+00 -0.3966307217550E+01  0.0000000000000E+00
 0.2475000006952E+00 -0.3892789747717E+01  0.0000000000000E+00
 0.2475000008342E+00 -0.3819272288128E+01  0.0000000000000E+00
 0.2475000009732E+00 -0.3745754823288E+01  0.0000000000000E+00
 0.2475000011123E+00 -0.3672237366228E+01  0.0000000000000E+00
 0.2475000012513E+00 -0.3598719903615E+01  0.0000000000000E+00
 0.2475000013904E+00 -0.3525202280347E+01  0.0000000000000E+00
 0.2475000015294E+00 -0.3451684819509E+01  0.0000000000000E+00
 0.2475000016684E+00 -0.3378167379303E+01  0.0000000000000E+00
 0.2475000018075E+00 -0.3304649961005E+01  0.0000000000000E+00
 0.2475000019465E+00 -0.3231132803084E+01  0.0000000000000E+00
 0.2475000020855E+00 -0.3157615389387E+01  0.0000000000000E+00
 0.2475007599106E+00 -0.3084098002567E+01  0.0000000000000E+00
 0.2475367775286E+00 -0.3010580866809E+01  0.0000000000000E+00
 0.2476759688925E+00 -0.2937066271891E+01  0.0000000000000E+00
 0.2479553350633E+00 -0.2863559587695E+01  0.0000000000000E+00
 0.2483841708287E+00 -0.2790067100603E+01  0.0000000000000E+00
 0.2489593954256E+00 -0.2716594812945E+01  0.0000000000000E+00
 0.2496749582296E+00 -0.2643146234864E+01  0.0000000000000E+00
 0.2505258832367E+00 -0.2569726064901E+01  0.0000000000000E+00
 0.2515098938437E+00 -0.2496339061666E+01  0.0000000000000E+00
 0.2526282639122E+00 -0.2422989996067E+01  0.0000000000000E+00
 0.2538867020940E+00 -0.2349685803918E+01  0.0000000000000E+00
 0.2552963115724E+00 -0.2276436016165E+01  0.0000000000000E+00
 0.2568622952113E+00 -0.2203248992725E+01  0.0000000000000E+00
 0.2585827549001E+00 -0.2130130513310E+01  0.0000000000000E+00
 0.2604602636420E+00 -0.2057088440583E+01  0.0000000000000E+00
 0.2625024286658E+00 -0.1984133466365E+01  0.0000000000000E+00
 0.2647223770373E+00 -0.1911281600769E+01  0.0000000000000E+00
 0.2671395382043E+00 -0.1838554023784E+01  0.0000000000000E+00
 0.2697792890739E+00 -0.1765979519672E+01  0.0000000000000E+00
 0.2726661780134E+00 -0.1693591126068E+01  0.0000000000000E+00
 0.2757913007600E+00 -0.1621398208056E+01  0.0000000000000E+00
 0.2790303353411E+00 -0.1549304059579E+01  0.0000000000000E+00
 0.2822535673443E+00 -0.1477195909042E+01  0.0000000000000E+00
 0.2854161757453E+00 -0.1405034780453E+01  0.0000000000000E+00
 0.2884673595387E+00 -0.1332779095967E+01  0.0000000000000E+00
 0.2750000001390E+00 -0.4186859601281E+01  0.0000000000000E+00
 0.2750000002781E+00 -0.4113342086429E+01  0.0000000000000E+00
 0.2750000004171E+00 -0.4039824684257E+01  0.0000000000000E+00
 0.2750000005561E+00 -0.3966307217550E+01  0.0000000000000E+00
 0.2750000006952E+00 -0.3892789747717E+01  0.0000000000000E+00
 0.2750000008342E+00 -0.3819272288128E+01  0.0000000000000E+00
 0.2750000009732E+00 -0.3745754823288E+01  0.0000000000000E+00
 0.2750000011123E+00 -0.3672237366228E+01  0.0000000000000E+00
 0.2750000012513E+00 -0.3598719903615E+01  0.0000000000000E+00
 0.2750000013904E+00 -0.3525202280347E+01  0.0000000000000E+00
 0.2750000015294E+00 -0.3451684819509E+01  0.0000000000000E+00
 0.2750000016684E+00 -0.3378167379303E+01  0.0000000000000E+00
 0.2750000018075E+00 -0.3304649961005E+01  0.0000000000000E+00
 0.2750000019465E+00 -0.3231132803084E+01  0.0000000000000E+00
 0.2750000020855E+00 -0.3157615389387E+01  0.0000000000000E+00
 0.2750008440979E+00 -0.3084098002567E+01  0.0000000000000E+00
 0.2750408636580E+00 -0.3010580866809E+01  0.0000000000000E+00
 0.2751955207134E+00 -0.2937066271891E+01  0.0000000000000E+00
 0.2755059275539E+00 -0.2863559587695E+01  0.0000000000000E+00
 0.2759824117218E+00 -0.2790067100603E+01  0.0000000000000E+00
 0.2766215501465E+00 -0.2716594812945E+01  0.0000000000000E+00
 0.2774166199123E+00 -0.2643146234864E+01  0.0000000000000E+00
 0.2783620921259E+00 -0.2569726064901E+01  0.0000000000000E+00
 0.2794554372281E+00 -0.2496339061666E+01  0.0000000000000E+00
 0.2806980706207E+00 -0.2422989996067E+01  0.0000000000000E+00
 0.2820963352501E+00 -0.2349685803918E+01  0.0000000000000E+00
 0.2836625679867E+00 -0.2276436016165E+01  0.0000000000000E+00
 0.2854025497903E+00 -0.2203248992725E+01  0.0000000000000E+00
 0.2873141716492E+00 -0.2130130513309E+01  0.0000000000000E+00
 0.2894002924558E+00 -0.2057088440583E+01  0.0000000000000E+00
 0.2916693646866E+00 -0.1984133466365E+01  0.0000000000000E+00
 0.2941359739701E+00 -0.1911281600769E+01  0.0000000000000E+00
 0.2968217085817E+00 -0.1838554023784E+01  0.0000000000000E+00
 0.2997547650849E+00 -0.1765979519672E+01  0.0000000000000E+00
 0.3029624194433E+00 -0.1693591126068E+01  0.0000000000000E+00
 0.3064347780313E+00 -0.1621398208056E+01  0.0000000000000E+00
 0.3100337053242E+00 -0.1549304059579E+01  0.0000000000000E+00
 0.3136150741969E+00 -0.1477195909042E+01  0.0000000000000E+00
 0.3171290835116E+00 -0.1405034780453E+01  0.0000000000000E+00
 0.3205192877065E+00 -0.1332779095967E+01  0.0000000000000E+00
 0.3025000001390E+00 -0.4186859601281E+01  0.0000000000000E+00
 0.3025000002781E+00 -0.4113342086429E+01  0.0000000000000E+00
 0.3025000004171E+00 -0.4039824684257E+01  0.0000000000000E+00
 0.3025000005561E+00 -0.3966307217550E+01  0.0000000000000E+00
 0.3025000006952E+00 -0.3892789747717E+01  0.0000000000000E+00
 0.3025000008342E+00 -0.3819272288128E+01  0.0000000000000E+00
 0.3025000009732E+00 -0.3745754823288E+01  0.0000000000000E+00
 0.3025000011123E+00 -0.3672237366228E+01  0.0000000000000E+00
 0.3025000012513E+00 -0.3598719903615E+01  0.0000000000000E+00
 0.3025000013904E+00 -0.3525202280347E+01  0.0000000000000E+00
 0.3025000015294E+00 -0.3451684819509E+01  0.0000000000000E+00
 0.3025000016684E+00 -0.3378167379303E+01  0.0000000000000E+00
 0.3025000018075E+00 -0.3304649961005E+01  0.0000000000000E+00
 0.3025000019465E+00 -0.3231132803084E+01  0.0000000000000E+00
 0.3025000020855E+00 -0.3157615389387E+01  0.0000000000000E+00
 0.3025009282853E+00 -0.3084098002567E+01  0.0000000000000E+00
 0.3025449497874E+00 -0.3010580866809E+01  0.0000000000000E+00
 0.3027150725343E+00 -0.2937066271891E+01  0.0000000000000E+00
 0.3030565200446E+00 -0.2863559587695E+01  0.0000000000000E+00
 0.3035806526148E+00 -0.2790067100603E+01  0.0000000000000E+00
 0.3042837048674E+00 -0.2716594812945E+01  0.0000000000000E+00
 0.3051582815951E+00 -0.2643146234864E+01  0.0000000000000E+00
 0.3061983010151E+00 -0.2569726064901E+01  0.0000000000000E+00
 0.3074009806125E+00 -0.2496339061666E+01  0.0000000000000E+00
 0.3087678773292E+00 -0.2422989996067E+01  0.0000000000000E+00
 0.3103059684062E+00 -0.2349685803918E+01  0.0000000000000E+00
 0.3120288244010E+00 -0.2276436016165E+01  0.0000000000000E+00
 0.3139428043693E+00 -0.2203248992725E+01  0.0000000000000E+00
 0.3160455883984E+00 -0.2130130513309E+01  0.0000000000000E+00
 0.3183403212697E+00 -0.2057088440583E+01  0.0000000000000E+00
 0.3208363007074E+00 -0.1984133466365E+01  0.0000000000000E+00
 0.3235495709029E+00 -0.1911281600769E+01  0.0000000000000E+00
 0.3265038789592E+00 -0.1838554023784E+01  0.0000000000000E+00
 0.3297302410959E+00 -0.1765979519672E+01  0.0000000000000E+00
 0.3332586608731E+00 -0.1693591126068E+01  0.0000000000000E+00
 0.3370782553027E+00 -0.1621398208056E+01  0.0000000000000E+00
 0.3410370753072E+00 -0.1549304059579E+01  0.0000000000000E+00
 0.3449765810495E+00 -0.1477195909042E+01  0.0000000000000E+00
 0.3488419912778E+00 -0.1405034780453E+01  0.0000000000000E+00
 0.3525712158742E+00 -0.1332779095967E+01  0.0000000000000E+00
 0.3300000001390E+00 -0.4186859601281E+01  0.0000000000000E+00
 0.3300000002781E+00 -0.4113342086429E+01  0.0000000000000E+00
 0.3300000004171E+00 -0.4039824684257E+01  0.0000000000000E+00
 0.3300000005561E+00 -0.3966307217550E+01  0.0000000000000E+00
 0.3300000006952E+00 -0.3892789747717E+01  0.0000000000000E+00
 0.3300000008342E+00 -0.3819272288128E+01  0.0000000000000E+00
 0.3300000009732E+00 -0.3745754823288E+01  0.0000000000000E+00
 0.3300000011123E+00 -0.3672237366228E+01  0.0000000000000E+00
 0.3300000012513E+00 -0.3598719903615E+01  0.0000000000000E+00
 0.3300000013904E+00 -0.3525202280347E+01  0.0000000000000E+00
 0.3300000015294E+00 -0.3451684819509E+01  0.0000000000000E+00
 0.3300000016684E+00 -0.3378167379303E+01  0.0000000000000E+00
 0.3300000018075E+00 -0.3304649961005E+01  0.0000000000000E+00
 0.3300000019465E+00 -0.3231132803084E+01  0.0000000000000E+00
 0.3300000020855E+00 -0.3157615389387E+01  0.0000000000000E+00
 0.3300010124726E+00 -0.3084098002567E+01  0.0000000000000E+00
 0.3300490359168E+00 -0.3010580866809E+01  0.0000000000000E+00
 0.3302346243551E+00 -0.2937066271891E+01  0.0000000000000E+00
 0.3306071125352E+00 -0.2863559587695E+01  0.0000000000000E+00
 0.3311788935078E+00 -0.2790067100603E+01  0.0000000000000E+00
 0.3319458595883E+00 -0.2716594812945E+01  0.0000000000000E+00
 0.3328999432778E+00 -0.2643146234864E+01  0.0000000000000E+00
 0.3340345099043E+00 -0.2569726064901E+01  0.0000000000000E+00
 0.3353465239969E+00 -0.2496339061666E+01  0.0000000000000E+00
 0.3368376840377E+00 -0.2422989996067E+01  0.0000000000000E+00
 0.3385156015623E+00 -0.2349685803918E+01  0.0000000000000E+00
 0.3403950808153E+00 -0.2276436016165E+01  0.0000000000000E+00
 0.3424830589484E+00 -0.2203248992725E+01  0.0000000000000E+00
 0.3447770051475E+00 -0.2130130513309E+01  0.0000000000000E+00
 0.3472803500835E+00 -0.2057088440583E+01  0.0000000000000E+00
 0.3500032367282E+00 -0.1984133466365E+01  0.0000000000000E+00
 0.3529631678358E+00 -0.1911281600768E+01  0.0000000000000E+00
 0.3561860493367E+00 -0.1838554023784E+01  0.0000000000000E+00
 0.3597057171070E+00 -0.1765979519672E+01  0.0000000000000E+00
 0.3635549023030E+00 -0.1693591126068E+01  0.0000000000000E+00
 0.3677217325740E+00 -0.1621398208056E+01  0.0000000000000E+00
 0.3720404452903E+00 -0.1549304059579E+01  0.0000000000000E+00
 0.3763380879022E+00 -0.1477195909042E+01  0.0000000000000E+00
 0.3805548990440E+00 -0.1405034780453E+01  0.0000000000000E+00
 0.3846231440420E+00 -0.1332779095967E+01  0.0000000000000E+00
 0.3575000001390E+00 -0.4186859601281E+01  0.0000000000000E+00
 0.3575000002781E+00 -0.4113342086429E+01  0.0000000000000E+00
 0.3575000004171E+00 -0.4039824684257E+01  0.0000000000000E+00
 0.3575000005561E+00 -0.3966307217550E+01  0.0000000000000E+00
 0.3575000006952E+00 -0.3892789747717E+01  0.0000000000000E+00
 0.3575000008342E+00 -0.3819272288128E+01  0.0000000000000E+00
 0.3575000009732E+00 -0.3745754823288E+01  0.0000000000000E+00
 0.3575000011123E+00 -0.3672237366228E+01  0.0000000000000E+00
 0.3575000012513E+00 -0.3598719903615E+01  0.0000000000000E+00
 0.3575000013904E+00 -0.3525202280347E+01  0.0000000000000E+00
 0.3575000015294E+00 -0.3451684819509E+01  0.0000000000000E+00
 0.3575000016684E+00 -0.3378167379303E+01  0.0000000000000E+00
 0.3575000018075E+00 -0.3304649961005E+01  0.0000000000000E+00
 0.3575000019465E+00 -0.3231132803084E+01  0.0000000000000E+00
 0.3575000020855E+00 -0.3157615389387E+01  0.0000000000000E+00
 0.3575010966599E+00 -0.3084098002567E+01  0.0000000000000E+00
 0.3575531220462E+00 -0.3010580866809E+01  0.0000000000000E+00
 0.3577541761760E+00 -0.2937066271891E+01  0.0000000000000E+00
 0.3581577050259E+00 -0.2863559587695E+01  0.0000000000000E+00
 0.3587771344008E+00 -0.2790067100603E+01  0.0000000000000E+00
 0.3596080143092E+00 -0.2716594812945E+01  0.0000000000000E+00
 0.3606416049605E+00 -0.2643146234864E+01  0.0000000000000E+00
 0.3618707187935E+00 -0.2569726064901E+01  0.0000000000000E+00
 0.3632920673813E+00 -0.2496339061666E+01  0.0000000000000E+00
 0.3649074907461E+00 -0.2422989996067E+01  0.0000000000000E+00
 0.3667252347185E+00 -0.2349685803918E+01  0.0000000000000E+00
 0.3687613372296E+00 -0.2276436016165E+01  0.0000000000000E+00
 0.3710233135274E+00 -0.2203248992725E+01  0.0000000000000E+00
 0.3735084218966E+00 -0.2130130513309E+01  0.0000000000000E+00
 0.3762203788973E+00 -0.2057088440583E+01  0.0000000000000E+00
 0.3791701727490E+00 -0.1984133466365E+01  0.0000000000000E+00
 0.3823767647686E+00 -0.1911281600768E+01  0.0000000000000E+00
 0.3858682197142E+00 -0.1838554023784E+01  0.0000000000000E+00
 0.3896811931180E+00 -0.1765979519672E+01  0.0000000000000E+00
 0.3938511437328E+00 -0.1693591126067E+01  0.0000000000000E+00
 0.3983652098454E+00 -0.1621398208056E+01  0.0000000000000E+00
 0.4030438152733E+00 -0.1549304059579E+01  0.0000000000000E+00
 0.4076995947548E+00 -0.1477195909042E+01  0.0000000000000E+00
 0.4122678068103E+00 -0.1405034780453E+01  0.0000000000000E+00
 0.4166750722097E+00 -0.1332779095967E+01  0.0000000000000E+00
 0.3850000001390E+00 -0.4186859601281E+01  0.0000000000000E+00
 0.3850000002781E+00 -0.4113342086429E+01  0.0000000000000E+00
 0.3850000004171E+00 -0.4039824684257E+01  0.0000000000000E+00
 0.3850000005561E+00 -0.3966307217550E+01  0.0000000000000E+00
 0.3850000006952E+00 -0.3892789747717E+01  0.0000000000000E+00
 0.3850000008342E+00 -0.3819272288128E+01  0.0000000000000E+00
 0.3850000009732E+00 -0.3745754823288E+01  0.0000000000000E+00
 0.3850000011123E+00 -0.3672237366228E+01  0.0000000000000E+00
 0.3850000012513E+00 -0.3598719903615E+01  0.0000000000000E+00
 0.3850000013904E+00 -0.3525202280347E+01  0.0000000000000E+00
 0.3850000015294E+00 -0.3451684819509E+01  0.0000000000000E+00
 0.3850000016684E+00 -0.3378167379303E+01  0.0000000000000E+00
 0.3850000018075E+00 -0.3304649961005E+01  0.0000000000000E+00
 0.3850000019465E+00 -0.3231132803084E+01  0.0000000000000E+00
 0.3850000020855E+00 -0.3157615389387E+01  0.0000000000000E+00
 0.3850011808473E+00 -0.3084098002567E+01  0.0000000000000E+00
 0.3850572081756E+00 -0.3010580866809E+01  0.0000000000000E+00
 0.3852737279968E+00 -0.2937066271891E+01  0.0000000000000E+00
 0.3857082975166E+00 -0.2863559587695E+01  0.0000000000000E+00
 0.3863753752939E+00 -0.2790067100603E+01  0.0000000000000E+00
 0.3872701690301E+00 -0.2716594812945E+01  0.0000000000000E+00
 0.3883832666433E+00 -0.2643146234864E+01  0.0000000000000E+00
 0.3897069276828E+00 -0.2569726064901E+01  0.0000000000000E+00
 0.3912376107657E+00 -0.2496339061666E+01  0.0000000000000E+00
 0.3929772974546E+00 -0.2422989996067E+01  0.0000000000000E+00
 0.3949348678746E+00 -0.2349685803918E+01  0.0000000000000E+00
 0.3971275936439E+00 -0.2276436016165E+01  0.0000000000000E+00
 0.3995635681064E+00 -0.2203248992725E+01  0.0000000000000E+00
 0.4022398386458E+00 -0.2130130513309E+01  0.0000000000000E+00
 0.4051604077112E+00 -0.2057088440583E+01  0.0000000000000E+00
 0.4083371087698E+00 -0.1984133466365E+01  0.0000000000000E+00
 0.4117903617014E+00 -0.1911281600768E+01  0.0000000000000E+00
 0.4155503900916E+00 -0.1838554023784E+01  0.0000000000000E+00
 0.4196566691291E+00 -0.1765979519672E+01  0.0000000000000E+00
 0.4241473851627E+00 -0.1693591126067E+01  0.0000000000000E+00
 0.4290086871167E+00 -0.1621398208056E+01  0.0000000000000E+00
 0.4340471852564E+00 -0.1549304059579E+01  0.0000000000000E+00
 0.4390611016074E+00 -0.1477195909042E+01  0.0000000000000E+00
 0.4439807145765E+00 -0.1405034780453E+01  0.0000000000000E+00
 0.4487270003775E+00 -0.1332779095967E+01  0.0000000000000E+00
 0.4125000001390E+00 -0.4186859601281E+01  0.0000000000000E+00
 0.4125000002781E+00 -0.4113342086429E+01  0.0000000000000E+00
 0.4125000004171E+00 -0.4039824684257E+01  0.0000000000000E+00
 0.4125000005561E+00 -0.3966307217550E+01  0.0000000000000E+00
 0.4125000006952E+00 -0.3892789747717E+01  0.0000000000000E+00
 0.4125000008342E+00 -0.3819272288128E+01  0.0000000000000E+00
 0.4125000009732E+00 -0.3745754823288E+01  0.0000000000000E+00
 0.4125000011123E+00 -0.3672237366228E+01  0.0000000000000E+00
 0.4125000012513E+00 -0.3598719903615E+01  0.0000000000000E+00
 0.4125000013904E+00 -0.3525202280347E+01  0.0000000000000E+00
 0.4125000015294E+00 -0.3451684819509E+01  0.0000000000000E+00
 0.4125000016684E+00 -0.3378167379303E+01  0.0000000000000E+00
 0.4125000018075E+00 -0.3304649961005E+01  0.0000000000000E+00
 0.4125000019465E+00 -0.3231132803084E+01  0.0000000000000E+00
 0.4125000020855E+00 -0.3157615389387E+01  0.0000000000000E+00
 0.4125012650346E+00 -0.3084098002567E+01  0.0000000000000E+00
 0.4125612943050E+00 -0.3010580866809E+01  0.0000000000000E+00
 0.4127932798177E+00 -0.2937066271891E+01  0.0000000000000E+00
 0.4132588900072E+00 -0.2863559587694E+01  0.0000000000000E+00
 0.4139736161869E+00 -0.2790067100603E+01  0.0000000000000E+00
 0.4149323237511E+00 -0.2716594812945E+01  0.0000000000000E+00
 0.4161249283260E+00 -0.2643146234864E+01  0.0000000000000E+00
 0.4175431365720E+00 -0.2569726064901E+01  0.0000000000000E+00
 0.4191831541501E+00 -0.2496339061666E+01  0.0000000000000E+00
 0.4210471041631E+00 -0.2422989996067E+01  0.0000000000000E+00
 0.4231445010307E+00 -0.2349685803918E+01  0.0000000000000E+00
 0.4254938500582E+00 -0.2276436016165E+01  0.0000000000000E+00
 0.4281038226855E+00 -0.2203248992725E+01  0.0000000000000E+00
 0.4309712553949E+00 -0.2130130513309E+01  0.0000000000000E+00
 0.4341004365250E+00 -0.2057088440582E+01  0.0000000000000E+00
 0.4375040447906E+00 -0.1984133466365E+01  0.0000000000000E+00
 0.4412039586342E+00 -0.1911281600768E+01  0.0000000000000E+00
 0.4452325604691E+00 -0.1838554023784E+01  0.0000000000000E+00
 0.4496321451401E+00 -0.1765979519672E+01  0.0000000000000E+00
 0.4544436265925E+00 -0.1693591126067E+01  0.0000000000000E+00
 0.4596521643880E+00 -0.1621398208056E+01  0.0000000000000E+00
 0.4650505552394E+00 -0.1549304059579E+01  0.0000000000000E+00
 0.4704226084601E+00 -0.1477195909042E+01  0.0000000000000E+00
 0.4756936223427E+00 -0.1405034780453E+01  0.0000000000000E+00
 0.4807789285453E+00 -0.1332779095967E+01  0.0000000000000E+00
 0.4400000001390E+00 -0.4186859601281E+01  0.0000000000000E+00
 0.4400000002781E+00 -0.4113342086429E+01  0.0000000000000E+00
 0.4400000004171E+00 -0.4039824684257E+01  0.0000000000000E+00
 0.4400000005561E+00 -0.3966307217550E+01  0.0000000000000E+00
 0.4400000006952E+00 -0.3892789747717E+01  0.0000000000000E+00
 0.4400000008342E+00 -0.3819272288128E+01  0.0000000000000E+00
 0.4400000009732E+00 -0.3745754823288E+01  0.0000000000000E+00
 0.4400000011123E+00 -0.3672237366228E+01  0.0000000000000E+00
 0.4400000012513E+00 -0.3598719903615E+01  0.0000000000000E+00
 0.4400000013904E+00 -0.3525202280347E+01  0.0000000000000E+00
 0.4400000015294E+00 -0.3451684819509E+01  0.0000000000000E+00
 0.4400000016684E+00 -0.3378167379303E+01  0.0000000000000E+00
 0.4400000018075E+00 -0.3304649961005E+01  0.0000000000000E+00
 0.4400000019465E+00 -0.3231132803084E+01  0.0000000000000E+00
 0.4400000020855E+00 -0.3157615389387E+01  0.0000000000000E+00
 0.4400013492219E+00 -0.3084098002567E+01  0.0000000000000E+00
 0.4400653804344E+00 -0.3010580866809E+01  0.0000000000000E+00
 0.4403128316385E+00 -0.2937066271891E+01  0.0000000000000E+00
 0.4408094824979E+00 -0.2863559587694E+01  0.0000000000000E+00
 0.4415718570799E+00 -0.2790067100603E+01  0.0000000000000E+00
 0.4425944784720E+00 -0.2716594812945E+01  0.0000000000000E+00
 0.4438665900088E+00 -0.2643146234864E+01  0.0000000000000E+00
 0.4453793454612E+00 -0.2569726064901E+01  0.0000000000000E+00
 0.4471286975345E+00 -0.2496339061666E+01  0.0000000000000E+00
 0.4491169108716E+00 -0.2422989996067E+01  0.0000000000000E+00
 0.4513541341868E+00 -0.2349685803918E+01  0.0000000000000E+00
 0.4538601064725E+00 -0.2276436016165E+01  0.0000000000000E+00
 0.4566440772645E+00 -0.2203248992725E+01  0.0000000000000E+00
 0.4597026721440E+00 -0.2130130513309E+01  0.0000000000000E+00
 0.4630404653389E+00 -0.2057088440582E+01  0.0000000000000E+00
 0.4666709808114E+00 -0.1984133466365E+01  0.0000000000000E+00
 0.4706175555671E+00 -0.1911281600768E+01  0.0000000000000E+00
 0.4749147308466E+00 -0.1838554023784E+01  0.0000000000000E+00
 0.4796076211511E+00 -0.1765979519672E+01  0.0000000000000E+00
 0.4847398680223E+00 -0.1693591126067E+01  0.0000000000000E+00
 0.4902956416594E+00 -0.1621398208056E+01  0.0000000000000E+00
 0.4960539252225E+00 -0.1549304059579E+01  0.0000000000000E+00
 0.5017841153127E+00 -0.1477195909042E+01  0.0000000000000E+00
 0.5074065301090E+00 -0.1405034780453E+01  0.0000000000000E+00
 0.5128308567130E+00 -0.1332779095967E+01  0.0000000000000E+00
 0.4675000001390E+00 -0.4186859601281E+01  0.0000000000000E+00
 0.4675000002781E+00 -0.4113342086429E+01  0.0000000000000E+00
 0.4675000004171E+00 -0.4039824684257E+01  0.0000000000000E+00
 0.4675000005561E+00 -0.3966307217550E+01  0.0000000000000E+00
 0.4675000006952E+00 -0.3892789747717E+01  0.0000000000000E+00
 0.4675000008342E+00 -0.3819272288128E+01  0.0000000000000E+00
 0.4675000009732E+00 -0.3745754823288E+01  0.0000000000000E+00
 0.4675000011123E+00 -0.3672237366228E+01  0.0000000000000E+00
 0.4675000012513E+00 -0.3598719903615E+01  0.0000000000000E+00
 0.4675000013904E+00 -0.3525202280347E+01  0.0000000000000E+00
 0.4675000015294E+00 -0.3451684819509E+01  0.0000000000000E+00
 0.4675000016684E+00 -0.3378167379303E+01  0.0000000000000E+00
 0.4675000018075E+00 -0.3304649961005E+01  0.0000000000000E+00
 0.4675000019465E+00 -0.3231132803084E+01  0.0000000000000E+00
 0.4675000020855E+00 -0.3157615389387E+01  0.0000000000000E+00
 0.4675014334093E+00 -0.3084098002567E+01  0.0000000000000E+00
 0.4675694665638E+00 -0.3010580866809E+01  0.0000000000000E+00
 0.4678323834594E+00 -0.2937066271891E+01  0.0000000000000E+00
 0.4683600749885E+00 -0.2863559587694E+01  0.0000000000000E+00
 0.4691700979729E+00 -0.2790067100603E+01  0.0000000000000E+00
 0.4702566331929E+00 -0.2716594812945E+01  0.0000000000000E+00
 0.4716082516915E+00 -0.2643146234864E+01  0.0000000000000E+00
 0.4732155543504E+00 -0.2569726064901E+01  0.0000000000000E+00
 0.4750742409189E+00 -0.2496339061666E+01  0.0000000000000E+00
 0.4771867175801E+00 -0.2422989996067E+01  0.0000000000000E+00
 0.4795637673429E+00 -0.2349685803918E+01  0.0000000000000E+00
 0.4822263628868E+00 -0.2276436016165E+01  0.0000000000000E+00
 0.4851843318435E+00 -0.2203248992725E+01  0.0000000000000E+00
 0.4884340888932E+00 -0.2130130513309E+01  0.0000000000000E+00
 0.4919804941527E+00 -0.2057088440582E+01  0.0000000000000E+00
 0.4958379168322E+00 -0.1984133466365E+01  0.0000000000000E+00
 0.5000311524999E+00 -0.1911281600768E+01  0.0000000000000E+00
 0.5045969012241E+00 -0.1838554023784E+01  0.0000000000000E+00
 0.5095830971622E+00 -0.1765979519672E+01  0.0000000000000E+00
 0.5150361094522E+00 -0.1693591126067E+01  0.0000000000000E+00
 0.5209391189307E+00 -0.1621398208056E+01  0.0000000000000E+00
 0.5270572952056E+00 -0.1549304059579E+01  0.0000000000000E+00
 0.5331456221654E+00 -0.1477195909042E+01  0.0000000000000E+00
 0.5391194378752E+00 -0.1405034780453E+01  0.0000000000000E+00
 0.5448827848808E+00 -0.1332779095967E+01  0.0000000000000E+00
 0.4950000001390E+00 -0.4186859601281E+01  0.0000000000000E+00
 0.4950000002781E+00 -0.4113342086429E+01  0.0000000000000E+00
 0.4950000004171E+00 -0.4039824684257E+01  0.0000000000000E+00
 0.4950000005561E+00 -0.3966307217550E+01  0.0000000000000E+00
 0.4950000006952E+00 -0.3892789747717E+01  0.0000000000000E+00
 0.4950000008342E+00 -0.3819272288128E+01  0.0000000000000E+00
 0.4950000009732E+00 -0.3745754823288E+01  0.0000000000000E+00
 0.4950000011123E+00 -0.3672237366228E+01  0.0000000000000E+00
 0.4950000012513E+00 -0.3598719903615E+01  0.0000000000000E+00
 0.4950000013904E+00 -0.3525202280347E+01  0.0000000000000E+00
 0.4950000015294E+00 -0.3451684819509E+01  0.0000000000000E+00
 0.4950000016684E+00 -0.3378167379303E+01  0.0000000000000E+00
 0.4950000018075E+00 -0.3304649961005E+01  0.0000000000000E+00
 0.4950000019465E+00 -0.3231132803084E+01  0.0000000000000E+00
 0.4950000020855E+00 -0.3157615389387E+01  0.0000000000000E+00
 0.4950015175966E+00 -0.3084098002567E+01  0.0000000000000E+00
 0.4950735526932E+00 -0.3010580866809E+01  0.0000000000000E+00
 0.4953519352803E+00 -0.2937066271891E+01  0.0000000000000E+00
 0.4959106674792E+00 -0.2863559587694E+01  0.0000000000000E+00
 0.4967683388660E+00 -0.2790067100603E+01  0.0000000000000E+00
 0.4979187879138E+00 -0.2716594812945E+01  0.0000000000000E+00
 0.4993499133743E+00 -0.2643146234864E+01  0.0000000000000E+00
 0.5010517632396E+00 -0.2569726064901E+01  0.0000000000000E+00
 0.5030197843033E+00 -0.2496339061666E+01  0.0000000000000E+00
 0.5052565242886E+00 -0.2422989996067E+01  0.0000000000000E+00
 0.5077734004990E+00 -0.2349685803918E+01  0.0000000000000E+00
 0.5105926193011E+00 -0.2276436016165E+01  0.0000000000000E+00
 0.5137245864225E+00 -0.2203248992725E+01  0.0000000000000E+00
 0.5171655056423E+00 -0.2130130513309E+01  0.0000000000000E+00
 0.5209205229665E+00 -0.2057088440582E+01  0.0000000000000E+00
 0.5250048528530E+00 -0.1984133466365E+01  0.0000000000000E+00
 0.5294447494327E+00 -0.1911281600768E+01  0.0000000000000E+00
 0.5342790716015E+00 -0.1838554023784E+01  0.0000000000000E+00
 0.5395585731732E+00 -0.1765979519672E+01  0.0000000000000E+00
 0.5453323508820E+00 -0.1693591126067E+01  0.0000000000000E+00
 0.5515825962021E+00 -0.1621398208056E+01  0.0000000000000E+00
 0.5580606651886E+00 -0.1549304059579E+01  0.0000000000000E+00
 0.5645071290180E+00 -0.1477195909042E+01  0.0000000000000E+00
 0.5708323456415E+00 -0.1405034780453E+01  0.0000000000000E+00
 0.5769347130485E+00 -0.1332779095967E+01  0.0000000000000E+00
 0.5225000001390E+00 -0.4186859601281E+01  0.0000000000000E+00
 0.5225000002781E+00 -0.4113342086429E+01  0.0000000000000E+00
 0.5225000004171E+00 -0.4039824684257E+01  0.0000000000000E+00
 0.5225000005561E+00 -0.3966307217550E+01  0.0000000000000E+00
 0.5225000006952E+00 -0.3892789747717E+01  0.0000000000000E+00
 0.5225000008342E+00 -0.3819272288128E+01  0.0000000000000E+00
 0.5225000009732E+00 -0.3745754823288E+01  0.0000000000000E+00
 0.5225000011123E+00 -0.3672237366228E+01  0.0000000000000E+00
 0.5225000012513E+00 -0.3598719903615E+01  0.0000000000000E+00
 0.5225000013904E+00 -0.3525202280347E+01  0.0000000000000E+00
 0.5225000015294E+00 -0.3451684819509E+01  0.0000000000000E+00
 0.5225000016684E+00 -0.3378167379303E+01  0.0000000000000E+00
 0.5225000018075E+00 -0.3304649961005E+01  0.0000000000000E+00
 0.5225000019465E+00 -0.3231132803084E+01  0.0000000000000E+00
 0.5225000020855E+00 -0.3157615389387E+01  0.0000000000000E+00
 0.5225016017839E+00 -0.3084098002567E+01  0.0000000000000E+00
 0.5225776388225E+00 -0.3010580866809E+01  0.0000000000000E+00
 0.5228714871011E+00 -0.2937066271891E+01  0.0000000000000E+00
 0.5234612599699E+00 -0.2863559587694E+01  0.0000000000000E+00
 0.5243665797590E+00 -0.2790067100603E+01  0.0000000000000E+00
 0.5255809426347E+00 -0.2716594812945E+01  0.0000000000000E+00
 0.5270915750570E+00 -0.2643146234864E+01  0.0000000000000E+00
 0.5288879721288E+00 -0.2569726064901E+01  0.0000000000000E+00
 0.5309653276877E+00 -0.2496339061666E+01  0.0000000000000E+00
 0.5333263309971E+00 -0.2422989996067E+01  0.0000000000000E+00
 0.5359830336551E+00 -0.2349685803918E+01  0.0000000000000E+00
 0.5389588757154E+00 -0.2276436016165E+01  0.0000000000000E+00
 0.5422648410016E+00 -0.2203248992725E+01  0.0000000000000E+00
 0.5458969223914E+00 -0.2130130513309E+01  0.0000000000000E+00
 0.5498605517804E+00 -0.2057088440582E+01  0.0000000000000E+00
 0.5541717888738E+00 -0.1984133466365E+01  0.0000000000000E+00
 0.5588583463656E+00 -0.1911281600768E+01  0.0000000000000E+00
 0.5639612419790E+00 -0.1838554023784E+01  0.0000000000000E+00
 0.5695340491842E+00 -0.1765979519672E+01  0.0000000000000E+00
 0.5756285923119E+00 -0.1693591126067E+01  0.0000000000000E+00
 0.5822260734734E+00 -0.1621398208055E+01  0.0000000000000E+00
 0.5890640351717E+00 -0.1549304059579E+01  0.0000000000000E+00
 0.5958686358706E+00 -0.1477195909042E+01  0.0000000000000E+00
 0.6025452534077E+00 -0.1405034780453E+01  0.0000000000000E+00
 0.6089866412163E+00 -0.1332779095967E+01  0.0000000000000E+00
 0.5500000001390E+00 -0.4186859601281E+01  0.0000000000000E+00
 0.5500000002781E+00 -0.4113342086429E+01  0.0000000000000E+00
 0.5500000004171E+00 -0.4039824684257E+01  0.0000000000000E+00
 0.5500000005561E+00 -0.3966307217550E+01  0.0000000000000E+00
 0.5500000006952E+00 -0.3892789747717E+01  0.0000000000000E+00
 0.5500000008342E+00 -0.3819272288128E+01  0.0000000000000E+00
 0.5500000009732E+00 -0.3745754823288E+01  0.0000000000000E+00
 0.5500000011123E+00 -0.3672237366228E+01  0.0000000000000E+00
 0.5500000012513E+00 -0.3598719903615E+01  0.0000000000000E+00
 0.5500000013904E+00 -0.3525202280347E+01  0.0000000000000E+00
 0.5500000015294E+00 -0.3451684819509E+01  0.0000000000000E+00
 0.5500000016684E+00 -0.3378167379303E+01  0.0000000000000E+00
 0.5500000018075E+00 -0.3304649961005E+01  0.0000000000000E+00
 0.5500000019465E+00 -0.3231132803084E+01  0.0000000000000E+00
 0.5500000020855E+00 -0.3157615389387E+01  0.0000000000000E+00
 0.5500016859713E+00 -0.3084098002567E+01  0.0000000000000E+00
 0.5500817249519E+00 -0.3010580866809E+01  0.0000000000000E+00
 0.5503910389220E+00 -0.2937066271891E+01  0.0000000000000E+00
 0.5510118524605E+00 -0.2863559587694E+01  0.0000000000000E+00
 0.5519648206520E+00 -0.2790067100603E+01  0.0000000000000E+00
 0.5532430973556E+00 -0.2716594812945E+01  0.0000000000000E+00
 0.5548332367398E+00 -0.2643146234864E+01  0.0000000000000E+00
 0.5567241810181E+00 -0.2569726064901E+01  0.0000000000000E+00
 0.5589108710721E+00 -0.2496339061666E+01  0.0000000000000E+00
 0.5613961377056E+00 -0.2422989996067E+01  0.0000000000000E+00
 0.5641926668113E+00 -0.2349685803918E+01  0.0000000000000E+00
 0.5673251321297E+00 -0.2276436016165E+01  0.0000000000000E+00
 0.5708050955806E+00 -0.2203248992725E+01  0.0000000000000E+00
 0.5746283391406E+00 -0.2130130513309E+01  0.0000000000000E+00
 0.5788005805942E+00 -0.2057088440582E+01  0.0000000000000E+00
 0.5833387248945E+00 -0.1984133466365E+01  0.0000000000000E+00
 0.5882719432984E+00 -0.1911281600768E+01  0.0000000000000E+00
 0.5936434123565E+00 -0.1838554023784E+01  0.0000000000000E+00
 0.5995095251953E+00 -0.1765979519672E+01  0.0000000000000E+00
 0.6059248337417E+00 -0.1693591126067E+01  0.0000000000000E+00
 0.6128695507447E+00 -0.1621398208055E+01  0.0000000000000E+00
 0.6200674051547E+00 -0.1549304059578E+01  0.0000000000000E+00
 0.6272301427233E+00 -0.1477195909042E+01  0.0000000000000E+00
 0.6342581611739E+00 -0.1405034780452E+01  0.0000000000000E+00
 0.6410385693841E+00 -0.1332779095967E+01  0.0000000000000E+00
 0.5775000001321E+00 -0.4186859601281E+01  0.0000000000000E+00
 0.5775000002642E+00 -0.4113342086429E+01  0.0000000000000E+00
 0.5775000003963E+00 -0.4039824684257E+01  0.0000000000000E+00
 0.5775000005283E+00 -0.3966307217550E+01  0.0000000000000E+00
 0.5775000006604E+00 -0.3892789747717E+01  0.0000000000000E+00
 0.5775000007925E+00 -0.3819272288128E+01  0.0000000000000E+00
 0.5775000009246E+00 -0.3745754823288E+01  0.0000000000000E+00
 0.5775000010567E+00 -0.3672237366228E+01  0.0000000000000E+00
 0.5775000011888E+00 -0.3598719903615E+01  0.0000000000000E+00
 0.5775000013208E+00 -0.3525202280347E+01  0.0000000000000E+00
 0.5775000014529E+00 -0.3451684819509E+01  0.0000000000000E+00
 0.5775000015850E+00 -0.3378167379303E+01  0.0000000000000E+00
 0.5775000017171E+00 -0.3304649961005E+01  0.0000000000000E+00
 0.5775000018492E+00 -0.3231132803084E+01  0.0000000000000E+00
 0.5775000019813E+00 -0.3157615389387E+01  0.0000000000000E+00
 0.5775017700474E+00 -0.3084098002567E+01  0.0000000000000E+00
 0.5775858109631E+00 -0.3010580866809E+01  0.0000000000000E+00
 0.5779105906176E+00 -0.2937066271891E+01  0.0000000000000E+00
 0.5785624448188E+00 -0.2863559587694E+01  0.0000000000000E+00
 0.5795630614055E+00 -0.2790067100603E+01  0.0000000000000E+00
 0.5809052519297E+00 -0.2716594812945E+01  0.0000000000000E+00
 0.5825748982683E+00 -0.2643146234864E+01  0.0000000000000E+00
 0.5845603897456E+00 -0.2569726064901E+01  0.0000000000000E+00
 0.5868564142874E+00 -0.2496339061666E+01  0.0000000000000E+00
 0.5894659442373E+00 -0.2422989996067E+01  0.0000000000000E+00
 0.5924022997829E+00 -0.2349685803918E+01  0.0000000000000E+00
 0.5956913883518E+00 -0.2276436016165E+01  0.0000000000000E+00
 0.5993453499596E+00 -0.2203248992725E+01  0.0000000000000E+00
 0.6033597556817E+00 -0.2130130513309E+01  0.0000000000000E+00
 0.6077406091920E+00 -0.2057088440582E+01  0.0000000000000E+00
 0.6125056606912E+00 -0.1984133466365E+01  0.0000000000000E+00
 0.6176855399988E+00 -0.1911281600768E+01  0.0000000000000E+00
 0.6233255824932E+00 -0.1838554023784E+01  0.0000000000000E+00
 0.6294850009571E+00 -0.1765979519672E+01  0.0000000000000E+00
 0.6362210749138E+00 -0.1693591126067E+01  0.0000000000000E+00
 0.6435130277495E+00 -0.1621398208055E+01  0.0000000000000E+00
 0.6510707748624E+00 -0.1549304059578E+01  0.0000000000000E+00
 0.6585916492917E+00 -0.1477195909042E+01  0.0000000000000E+00
 0.6659710686472E+00 -0.1405034780452E+01  0.0000000000000E+00
 0.6730904972502E+00 -0.1332779095967E+01  0.0000000000000E+00
 0.6050000001251E+00 -0.4186859601281E+01  0.0000000000000E+00
 0.6050000002503E+00 -0.4113342086429E+01  0.0000000000000E+00
 0.6050000003754E+00 -0.4039824684257E+01  0.0000000000000E+00
 0.6050000005005E+00 -0.3966307217550E+01  0.0000000000000E+00
 0.6050000006257E+00 -0.3892789747717E+01  0.0000000000000E+00
 0.6050000007508E+00 -0.3819272288128E+01  0.0000000000000E+00
 0.6050000008759E+00 -0.3745754823288E+01  0.0000000000000E+00
 0.6050000010011E+00 -0.3672237366228E+01  0.0000000000000E+00
 0.6050000011262E+00 -0.3598719903615E+01  0.0000000000000E+00
 0.6050000012513E+00 -0.3525202280347E+01  0.0000000000000E+00
 0.6050000013765E+00 -0.3451684819509E+01  0.0000000000000E+00
 0.6050000015016E+00 -0.3378167379303E+01  0.0000000000000E+00
 0.6050000016267E+00 -0.3304649961005E+01  0.0000000000000E+00
 0.6050000017518E+00 -0.3231132803084E+01  0.0000000000000E+00
 0.6050000018770E+00 -0.3157615389387E+01  0.0000000000000E+00
 0.6050018541235E+00 -0.3084098002567E+01  0.0000000000000E+00
 0.6050898969743E+00 -0.3010580866809E+01  0.0000000000000E+00
 0.6054301423132E+00 -0.2937066271891E+01  0.0000000000000E+00
 0.6061130371772E+00 -0.2863559587694E+01  0.0000000000000E+00
 0.6071613021590E+00 -0.2790067100603E+01  0.0000000000000E+00
 0.6085674065038E+00 -0.2716594812945E+01  0.0000000000000E+00
 0.6103165597969E+00 -0.2643146234864E+01  0.0000000000000E+00
 0.6123965984732E+00 -0.2569726064901E+01  0.0000000000000E+00
 0.6148019575026E+00 -0.2496339061666E+01  0.0000000000000E+00
 0.6175357507690E+00 -0.2422989996067E+01  0.0000000000000E+00
 0.6206119327546E+00 -0.2349685803918E+01  0.0000000000000E+00
 0.6240576445739E+00 -0.2276436016165E+01  0.0000000000000E+00
 0.6278856043386E+00 -0.2203248992725E+01  0.0000000000000E+00
 0.6320911722229E+00 -0.2130130513309E+01  0.0000000000000E+00
 0.6366806377898E+00 -0.2057088440582E+01  0.0000000000000E+00
 0.6416725964878E+00 -0.1984133466364E+01  0.0000000000000E+00
 0.6470991366993E+00 -0.1911281600768E+01  0.0000000000000E+00
 0.6530077526300E+00 -0.1838554023784E+01  0.0000000000000E+00
 0.6594604767190E+00 -0.1765979519672E+01  0.0000000000000E+00
 0.6665173160858E+00 -0.1693591126067E+01  0.0000000000000E+00
 0.6741565047543E+00 -0.1621398208055E+01  0.0000000000000E+00
 0.6820741445701E+00 -0.1549304059578E+01  0.0000000000000E+00
 0.6899531558602E+00 -0.1477195909042E+01  0.0000000000000E+00
 0.6976839761205E+00 -0.1405034780452E+01  0.0000000000000E+00
 0.7051424251163E+00 -0.1332779095967E+01  0.0000000000000E+00
 0.6325000001182E+00 -0.4186859601281E+01  0.0000000000000E+00
 0.6325000002364E+00 -0.4113342086429E+01  0.0000000000000E+00
 0.6325000003545E+00 -0.4039824684257E+01  0.0000000000000E+00
 0.6325000004727E+00 -0.3966307217550E+01  0.0000000000000E+00
 0.6325000005909E+00 -0.3892789747717E+01  0.0000000000000E+00
 0.6325000007091E+00 -0.3819272288128E+01  0.0000000000000E+00
 0.6325000008273E+00 -0.3745754823288E+01  0.0000000000000E+00
 0.6325000009454E+00 -0.3672237366228E+01  0.0000000000000E+00
 0.6325000010636E+00 -0.3598719903615E+01  0.0000000000000E+00
 0.6325000011818E+00 -0.3525202280347E+01  0.0000000000000E+00
 0.6325000013000E+00 -0.3451684819509E+01  0.0000000000000E+00
 0.6325000014182E+00 -0.3378167379303E+01  0.0000000000000E+00
 0.6325000015363E+00 -0.3304649961005E+01  0.0000000000000E+00
 0.6325000016545E+00 -0.3231132803084E+01  0.0000000000000E+00
 0.6325000017727E+00 -0.3157615389387E+01  0.0000000000000E+00
 0.6325019381996E+00 -0.3084098002567E+01  0.0000000000000E+00
 0.6325939829855E+00 -0.3010580866809E+01  0.0000000000000E+00
 0.6329496940088E+00 -0.2937066271891E+01  0.0000000000000E+00
 0.6336636295355E+00 -0.2863559587694E+01  0.0000000000000E+00
 0.6347595429125E+00 -0.2790067100603E+01  0.0000000000000E+00
 0.6362295610779E+00 -0.2716594812945E+01  0.0000000000000E+00
 0.6380582213255E+00 -0.2643146234864E+01  0.0000000000000E+00
 0.6402328072008E+00 -0.2569726064901E+01  0.0000000000000E+00
 0.6427475007179E+00 -0.2496339061666E+01  0.0000000000000E+00
 0.6456055573008E+00 -0.2422989996067E+01  0.0000000000000E+00
 0.6488215657263E+00 -0.2349685803918E+01  0.0000000000000E+00
 0.6524239007960E+00 -0.2276436016165E+01  0.0000000000000E+00
 0.6564258587176E+00 -0.2203248992725E+01  0.0000000000000E+00
 0.6608225887640E+00 -0.2130130513309E+01  0.0000000000000E+00
 0.6656206663877E+00 -0.2057088440582E+01  0.0000000000000E+00
 0.6708395322845E+00 -0.1984133466364E+01  0.0000000000000E+00
 0.6765127333998E+00 -0.1911281600768E+01  0.0000000000000E+00
 0.6826899227668E+00 -0.1838554023784E+01  0.0000000000000E+00
 0.6894359524808E+00 -0.1765979519672E+01  0.0000000000000E+00
 0.6968135572579E+00 -0.1693591126067E+01  0.0000000000000E+00
 0.7047999817591E+00 -0.1621398208055E+01  0.0000000000000E+00
 0.7130775142778E+00 -0.1549304059578E+01  0.0000000000000E+00
 0.7213146624286E+00 -0.1477195909042E+01  0.0000000000000E+00
 0.7293968835938E+00 -0.1405034780452E+01  0.0000000000000E+00
 0.7371943529824E+00 -0.1332779095967E+01  0.0000000000000E+00
 0.6600000001112E+00 -0.4186859601281E+01  0.0000000000000E+00
 0.6600000002225E+00 -0.4113342086429E+01  0.0000000000000E+00
 0.6600000003337E+00 -0.4039824684257E+01  0.0000000000000E+00
 0.6600000004449E+00 -0.3966307217550E+01  0.0000000000000E+00
 0.6600000005561E+00 -0.3892789747717E+01  0.0000000000000E+00
 0.6600000006674E+00 -0.3819272288128E+01  0.0000000000000E+00
 0.6600000007786E+00 -0.3745754823288E+01  0.0000000000000E+00
 0.6600000008898E+00 -0.3672237366228E+01  0.0000000000000E+00
 0.6600000010011E+00 -0.3598719903615E+01  0.0000000000000E+00
 0.6600000011123E+00 -0.3525202280347E+01  0.0000000000000E+00
 0.6600000012235E+00 -0.3451684819509E+01  0.0000000000000E+00
 0.6600000013347E+00 -0.3378167379303E+01  0.0000000000000E+00
 0.6600000014460E+00 -0.3304649961005E+01  0.0000000000000E+00
 0.6600000015572E+00 -0.3231132803084E+01  0.0000000000000E+00
 0.6600000016684E+00 -0.3157615389387E+01  0.0000000000000E+00
 0.6600020222757E+00 -0.3084098002567E+01  0.0000000000000E+00
 0.6600980689967E+00 -0.3010580866809E+01  0.0000000000000E+00
 0.6604692457045E+00 -0.2937066271891E+01  0.0000000000000E+00
 0.6612142218938E+00 -0.2863559587694E+01  0.0000000000000E+00
 0.6623577836659E+00 -0.2790067100603E+01  0.0000000000000E+00
 0.6638917156520E+00 -0.2716594812945E+01  0.0000000000000E+00
 0.6657998828540E+00 -0.2643146234864E+01  0.0000000000000E+00
 0.6680690159284E+00 -0.2569726064901E+01  0.0000000000000E+00
 0.6706930439331E+00 -0.2496339061666E+01  0.0000000000000E+00
 0.6736753638325E+00 -0.2422989996067E+01  0.0000000000000E+00
 0.6770311986980E+00 -0.2349685803918E+01  0.0000000000000E+00
 0.6807901570181E+00 -0.2276436016165E+01  0.0000000000000E+00
 0.6849661130966E+00 -0.2203248992725E+01  0.0000000000000E+00
 0.6895540053052E+00 -0.2130130513309E+01  0.0000000000000E+00
 0.6945606949855E+00 -0.2057088440582E+01  0.0000000000000E+00
 0.7000064680811E+00 -0.1984133466364E+01  0.0000000000000E+00
 0.7059263301002E+00 -0.1911281600768E+01  0.0000000000000E+00
 0.7123720929035E+00 -0.1838554023784E+01  0.0000000000000E+00
 0.7194114282427E+00 -0.1765979519672E+01  0.0000000000000E+00
 0.7271097984299E+00 -0.1693591126067E+01  0.0000000000000E+00
 0.7354434587639E+00 -0.1621398208055E+01  0.0000000000000E+00
 0.7440808839855E+00 -0.1549304059578E+01  0.0000000000000E+00
 0.7526761689971E+00 -0.1477195909042E+01  0.0000000000000E+00
 0.7611097910671E+00 -0.1405034780452E+01  0.0000000000000E+00
 0.7692462808485E+00 -0.1332779095967E+01  0.0000000000000E+00
 0.6875000001043E+00 -0.4186859601281E+01  0.0000000000000E+00
 0.6875000002086E+00 -0.4113342086429E+01  0.0000000000000E+00
 0.6875000003128E+00 -0.4039824684257E+01  0.0000000000000E+00
 0.6875000004171E+00 -0.3966307217550E+01  0.0000000000000E+00
 0.6875000005214E+00 -0.3892789747717E+01  0.0000000000000E+00
 0.6875000006257E+00 -0.3819272288128E+01  0.0000000000000E+00
 0.6875000007299E+00 -0.3745754823288E+01  0.0000000000000E+00
 0.6875000008342E+00 -0.3672237366228E+01  0.0000000000000E+00
 0.6875000009385E+00 -0.3598719903615E+01  0.0000000000000E+00
 0.6875000010428E+00 -0.3525202280347E+01  0.0000000000000E+00
 0.6875000011470E+00 -0.3451684819509E+01  0.0000000000000E+00
 0.6875000012513E+00 -0.3378167379303E+01  0.0000000000000E+00
 0.6875000013556E+00 -0.3304649961005E+01  0.0000000000000E+00
 0.6875000014599E+00 -0.3231132803084E+01  0.0000000000000E+00
 0.6875000015641E+00 -0.3157615389387E+01  0.0000000000000E+00
 0.6875021063518E+00 -0.3084098002567E+01  0.0000000000000E+00
 0.6876021550079E+00 -0.3010580866809E+01  0.0000000000000E+00
 0.6879887974001E+00 -0.2937066271891E+01  0.0000000000000E+00
 0.6887648142521E+00 -0.2863559587694E+01  0.0000000000000E+00
 0.6899560244194E+00 -0.2790067100603E+01  0.0000000000000E+00
 0.6915538702260E+00 -0.2716594812945E+01  0.0000000000000E+00
 0.6935415443826E+00 -0.2643146234864E+01  0.0000000000000E+00
 0.6959052246560E+00 -0.2569726064901E+01  0.0000000000000E+00
 0.6986385871484E+00 -0.2496339061666E+01  0.0000000000000E+00
 0.7017451703643E+00 -0.2422989996067E+01  0.0000000000000E+00
 0.7052408316697E+00 -0.2349685803918E+01  0.0000000000000E+00
 0.7091564132403E+00 -0.2276436016165E+01  0.0000000000000E+00
 0.7135063674756E+00 -0.2203248992725E+01  0.0000000000000E+00
 0.7182854218463E+00 -0.2130130513309E+01  0.0000000000000E+00
 0.7235007235833E+00 -0.2057088440582E+01  0.0000000000000E+00
 0.7291734038778E+00 -0.1984133466364E+01  0.0000000000000E+00
 0.7353399268007E+00 -0.1911281600768E+01  0.0000000000000E+00
 0.7420542630403E+00 -0.1838554023784E+01  0.0000000000000E+00
 0.7493869040045E+00 -0.1765979519672E+01  0.0000000000000E+00
 0.7574060396020E+00 -0.1693591126067E+01  0.0000000000000E+00
 0.7660869357687E+00 -0.1621398208055E+01  0.0000000000000E+00
 0.7750842536932E+00 -0.1549304059578E+01  0.0000000000000E+00
 0.7840376755656E+00 -0.1477195909041E+01  0.0000000000000E+00
 0.7928226985404E+00 -0.1405034780452E+01  0.0000000000000E+00
 0.8012982087146E+00 -0.1332779095967E+01  0.0000000000000E+00
 0.7150000000973E+00 -0.4186859601281E+01  0.0000000000000E+00
 0.7150000001946E+00 -0.4113342086429E+01  0.0000000000000E+00
 0.7150000002920E+00 -0.4039824684257E+01  0.0000000000000E+00
 0.7150000003893E+00 -0.3966307217550E+01  0.0000000000000E+00
 0.7150000004866E+00 -0.3892789747717E+01  0.0000000000000E+00
 0.7150000005839E+00 -0.3819272288128E+01  0.0000000000000E+00
 0.7150000006813E+00 -0.3745754823288E+01  0.0000000000000E+00
 0.7150000007786E+00 -0.3672237366228E+01  0.0000000000000E+00
 0.7150000008759E+00 -0.3598719903615E+01  0.0000000000000E+00
 0.7150000009732E+00 -0.3525202280347E+01  0.0000000000000E+00
 0.7150000010706E+00 -0.3451684819509E+01  0.0000000000000E+00
 0.7150000011679E+00 -0.3378167379303E+01  0.0000000000000E+00
 0.7150000012652E+00 -0.3304649961005E+01  0.0000000000000E+00
 0.7150000013625E+00 -0.3231132803084E+01  0.0000000000000E+00
 0.7150000014599E+00 -0.3157615389387E+01  0.0000000000000E+00
 0.7150021904279E+00 -0.3084098002567E+01  0.0000000000000E+00
 0.7151062410191E+00 -0.3010580866809E+01  0.0000000000000E+00
 0.7155083490957E+00 -0.2937066271891E+01  0.0000000000000E+00
 0.7163154066104E+00 -0.2863559587694E+01  0.0000000000000E+00
 0.7175542651729E+00 -0.2790067100603E+01  0.0000000000000E+00
 0.7192160248001E+00 -0.2716594812945E+01  0.0000000000000E+00
 0.7212832059111E+00 -0.2643146234864E+01  0.0000000000000E+00
 0.7237414333836E+00 -0.2569726064901E+01  0.0000000000000E+00
 0.7265841303636E+00 -0.2496339061666E+01  0.0000000000000E+00
 0.7298149768960E+00 -0.2422989996067E+01  0.0000000000000E+00
 0.7334504646414E+00 -0.2349685803918E+01  0.0000000000000E+00
 0.7375226694624E+00 -0.2276436016165E+01  0.0000000000000E+00
 0.7420466218545E+00 -0.2203248992725E+01  0.0000000000000E+00
 0.7470168383875E+00 -0.2130130513309E+01  0.0000000000000E+00
 0.7524407521811E+00 -0.2057088440582E+01  0.0000000000000E+00
 0.7583403396744E+00 -0.1984133466364E+01  0.0000000000000E+00
 0.7647535235011E+00 -0.1911281600768E+01  0.0000000000000E+00
 0.7717364331770E+00 -0.1838554023784E+01  0.0000000000000E+00
 0.7793623797664E+00 -0.1765979519672E+01  0.0000000000000E+00
 0.7877022807740E+00 -0.1693591126067E+01  0.0000000000000E+00
 0.7967304127735E+00 -0.1621398208055E+01  0.0000000000000E+00
 0.8060876234009E+00 -0.1549304059578E+01  0.0000000000000E+00
 0.8153991821340E+00 -0.1477195909041E+01  0.0000000000000E+00
 0.8245356060137E+00 -0.1405034780452E+01  0.0000000000000E+00
 0.8333501365807E+00 -0.1332779095966E+01  0.0000000000000E+00
 0.7425000000904E+00 -0.4186859601281E+01  0.0000000000000E+00
 0.7425000001807E+00 -0.4113342086429E+01  0.0000000000000E+00
 0.7425000002711E+00 -0.4039824684257E+01  0.0000000000000E+00
 0.7425000003615E+00 -0.3966307217550E+01  0.0000000000000E+00
 0.7425000004519E+00 -0.3892789747717E+01  0.0000000000000E+00
 0.7425000005422E+00 -0.3819272288128E+01  0.0000000000000E+00
 0.7425000006326E+00 -0.3745754823288E+01  0.0000000000000E+00
 0.7425000007230E+00 -0.3672237366228E+01  0.0000000000000E+00
 0.7425000008134E+00 -0.3598719903615E+01  0.0000000000000E+00
 0.7425000009037E+00 -0.3525202280347E+01  0.0000000000000E+00
 0.7425000009941E+00 -0.3451684819509E+01  0.0000000000000E+00
 0.7425000010845E+00 -0.3378167379303E+01  0.0000000000000E+00
 0.7425000011748E+00 -0.3304649961005E+01  0.0000000000000E+00
 0.7425000012652E+00 -0.3231132803084E+01  0.0000000000000E+00
 0.7425000013556E+00 -0.3157615389387E+01  0.0000000000000E+00
 0.7425022745040E+00 -0.3084098002567E+01  0.0000000000000E+00
 0.7426103270303E+00 -0.3010580866809E+01  0.0000000000000E+00
 0.7430279007913E+00 -0.2937066271891E+01  0.0000000000000E+00
 0.7438659989687E+00 -0.2863559587694E+01  0.0000000000000E+00
 0.7451525059264E+00 -0.2790067100603E+01  0.0000000000000E+00
 0.7468781793742E+00 -0.2716594812945E+01  0.0000000000000E+00
 0.7490248674397E+00 -0.2643146234864E+01  0.0000000000000E+00
 0.7515776421111E+00 -0.2569726064901E+01  0.0000000000000E+00
 0.7545296735789E+00 -0.2496339061666E+01  0.0000000000000E+00
 0.7578847834277E+00 -0.2422989996067E+01  0.0000000000000E+00
 0.7616600976131E+00 -0.2349685803918E+01  0.0000000000000E+00
 0.7658889256845E+00 -0.2276436016165E+01  0.0000000000000E+00
 0.7705868762335E+00 -0.2203248992725E+01  0.0000000000000E+00
 0.7757482549286E+00 -0.2130130513309E+01  0.0000000000000E+00
 0.7813807807790E+00 -0.2057088440582E+01  0.0000000000000E+00
 0.7875072754711E+00 -0.1984133466364E+01  0.0000000000000E+00
 0.7941671202016E+00 -0.1911281600768E+01  0.0000000000000E+00
 0.8014186033138E+00 -0.1838554023784E+01  0.0000000000000E+00
 0.8093378555282E+00 -0.1765979519671E+01  0.0000000000000E+00
 0.8179985219461E+00 -0.1693591126067E+01  0.0000000000000E+00
 0.8273738897783E+00 -0.1621398208055E+01  0.0000000000000E+00
 0.8370909931086E+00 -0.1549304059578E+01  0.0000000000000E+00
 0.8467606887025E+00 -0.1477195909041E+01  0.0000000000000E+00
 0.8562485134870E+00 -0.1405034780452E+01  0.0000000000000E+00
 0.8654020644468E+00 -0.1332779095966E+01  0.0000000000000E+00
 0.7700000000834E+00 -0.4186859601281E+01  0.0000000000000E+00
 0.7700000001668E+00 -0.4113342086429E+01  0.0000000000000E+00
 0.7700000002503E+00 -0.4039824684257E+01  0.0000000000000E+00
 0.7700000003337E+00 -0.3966307217550E+01  0.0000000000000E+00
 0.7700000004171E+00 -0.3892789747717E+01  0.0000000000000E+00
 0.7700000005005E+00 -0.3819272288128E+01  0.0000000000000E+00
 0.7700000005839E+00 -0.3745754823288E+01  0.0000000000000E+00
 0.7700000006674E+00 -0.3672237366228E+01  0.0000000000000E+00
 0.7700000007508E+00 -0.3598719903615E+01  0.0000000000000E+00
 0.7700000008342E+00 -0.3525202280347E+01  0.0000000000000E+00
 0.7700000009176E+00 -0.3451684819509E+01  0.0000000000000E+00
 0.7700000010011E+00 -0.3378167379303E+01  0.0000000000000E+00
 0.7700000010845E+00 -0.3304649961005E+01  0.0000000000000E+00
 0.7700000011679E+00 -0.3231132803084E+01  0.0000000000000E+00
 0.7700000012513E+00 -0.3157615389387E+01  0.0000000000000E+00
 0.7700023585801E+00 -0.3084098002567E+01  0.0000000000000E+00
 0.7701144130415E+00 -0.3010580866809E+01  0.0000000000000E+00
 0.7705474524870E+00 -0.2937066271891E+01  0.0000000000000E+00
 0.7714165913271E+00 -0.2863559587694E+01  0.0000000000000E+00
 0.7727507466799E+00 -0.2790067100603E+01  0.0000000000000E+00
 0.7745403339483E+00 -0.2716594812945E+01  0.0000000000000E+00
 0.7767665289682E+00 -0.2643146234864E+01  0.0000000000000E+00
 0.7794138508387E+00 -0.2569726064901E+01  0.0000000000000E+00
 0.7824752167941E+00 -0.2496339061666E+01  0.0000000000000E+00
 0.7859545899595E+00 -0.2422989996067E+01  0.0000000000000E+00
 0.7898697305848E+00 -0.2349685803918E+01  0.0000000000000E+00
 0.7942551819066E+00 -0.2276436016165E+01  0.0000000000000E+00
 0.7991271306125E+00 -0.2203248992724E+01  0.0000000000000E+00
 0.8044796714698E+00 -0.2130130513309E+01  0.0000000000000E+00
 0.8103208093768E+00 -0.2057088440582E+01  0.0000000000000E+00
 0.8166742112677E+00 -0.1984133466364E+01  0.0000000000000E+00
 0.8235807169020E+00 -0.1911281600768E+01  0.0000000000000E+00
 0.8311007734505E+00 -0.1838554023784E+01  0.0000000000000E+00
 0.8393133312901E+00 -0.1765979519671E+01  0.0000000000000E+00
 0.8482947631181E+00 -0.1693591126067E+01  0.0000000000000E+00
 0.8580173667831E+00 -0.1621398208055E+01  0.0000000000000E+00
 0.8680943628163E+00 -0.1549304059578E+01  0.0000000000000E+00
 0.8781221952709E+00 -0.1477195909041E+01  0.0000000000000E+00
 0.8879614209602E+00 -0.1405034780452E+01  0.0000000000000E+00
 0.8974539923129E+00 -0.1332779095966E+01  0.0000000000000E+00
 0.7975000000765E+00 -0.4186859601281E+01  0.0000000000000E+00
 0.7975000001529E+00 -0.4113342086429E+01  0.0000000000000E+00
 0.7975000002294E+00 -0.4039824684257E+01  0.0000000000000E+00
 0.7975000003059E+00 -0.3966307217550E+01  0.0000000000000E+00
 0.7975000003823E+00 -0.3892789747717E+01  0.0000000000000E+00
 0.7975000004588E+00 -0.3819272288128E+01  0.0000000000000E+00
 0.7975000005353E+00 -0.3745754823288E+01  0.0000000000000E+00
 0.7975000006118E+00 -0.3672237366228E+01  0.0000000000000E+00
 0.7975000006882E+00 -0.3598719903615E+01  0.0000000000000E+00
 0.7975000007647E+00 -0.3525202280347E+01  0.0000000000000E+00
 0.7975000008412E+00 -0.3451684819509E+01  0.0000000000000E+00
 0.7975000009176E+00 -0.3378167379303E+01  0.0000000000000E+00
 0.7975000009941E+00 -0.3304649961005E+01  0.0000000000000E+00
 0.7975000010706E+00 -0.3231132803084E+01  0.0000000000000E+00
 0.7975000011470E+00 -0.3157615389387E+01  0.0000000000000E+00
 0.7975024426562E+00 -0.3084098002567E+01  0.0000000000000E+00
 0.7976184990527E+00 -0.3010580866809E+01  0.0000000000000E+00
 0.7980670041826E+00 -0.2937066271891E+01  0.0000000000000E+00
 0.7989671836854E+00 -0.2863559587694E+01  0.0000000000000E+00
 0.8003489874333E+00 -0.2790067100603E+01  0.0000000000000E+00
 0.8022024885224E+00 -0.2716594812945E+01  0.0000000000000E+00
 0.8045081904968E+00 -0.2643146234864E+01  0.0000000000000E+00
 0.8072500595663E+00 -0.2569726064901E+01  0.0000000000000E+00
 0.8104207600094E+00 -0.2496339061666E+01  0.0000000000000E+00
 0.8140243964912E+00 -0.2422989996067E+01  0.0000000000000E+00
 0.8180793635565E+00 -0.2349685803918E+01  0.0000000000000E+00
 0.8226214381287E+00 -0.2276436016165E+01  0.0000000000000E+00
 0.8276673849915E+00 -0.2203248992724E+01  0.0000000000000E+00
 0.8332110880109E+00 -0.2130130513309E+01  0.0000000000000E+00
 0.8392608379746E+00 -0.2057088440582E+01  0.0000000000000E+00
 0.8458411470644E+00 -0.1984133466364E+01  0.0000000000000E+00
 0.8529943136025E+00 -0.1911281600768E+01  0.0000000000000E+00
 0.8607829435873E+00 -0.1838554023783E+01  0.0000000000000E+00
 0.8692888070519E+00 -0.1765979519671E+01  0.0000000000000E+00
 0.8785910042902E+00 -0.1693591126067E+01  0.0000000000000E+00
 0.8886608437878E+00 -0.1621398208055E+01  0.0000000000000E+00
 0.8990977325239E+00 -0.1549304059578E+01  0.0000000000000E+00
 0.9094837018394E+00 -0.1477195909041E+01  0.0000000000000E+00
 0.9196743284335E+00 -0.1405034780452E+01  0.0000000000000E+00
 0.9295059201790E+00 -0.1332779095966E+01  0.0000000000000E+00
 0.8250000000695E+00 -0.4186859601281E+01  0.0000000000000E+00
 0.8250000001390E+00 -0.4113342086429E+01  0.0000000000000E+00
 0.8250000002086E+00 -0.4039824684257E+01  0.0000000000000E+00
 0.8250000002781E+00 -0.3966307217550E+01  0.0000000000000E+00
 0.8250000003476E+00 -0.3892789747717E+01  0.0000000000000E+00
 0.8250000004171E+00 -0.3819272288128E+01  0.0000000000000E+00
 0.8250000004866E+00 -0.3745754823288E+01  0.0000000000000E+00
 0.8250000005561E+00 -0.3672237366228E+01  0.0000000000000E+00
 0.8250000006257E+00 -0.3598719903615E+01  0.0000000000000E+00
 0.8250000006952E+00 -0.3525202280347E+01  0.0000000000000E+00
 0.8250000007647E+00 -0.3451684819509E+01  0.0000000000000E+00
 0.8250000008342E+00 -0.3378167379303E+01  0.0000000000000E+00
 0.8250000009037E+00 -0.3304649961005E+01  0.0000000000000E+00
 0.8250000009732E+00 -0.3231132803084E+01  0.0000000000000E+00
 0.8250000010428E+00 -0.3157615389387E+01  0.0000000000000E+00
 0.8250025267323E+00 -0.3084098002567E+01  0.0000000000000E+00
 0.8251225850639E+00 -0.3010580866809E+01  0.0000000000000E+00
 0.8255865558782E+00 -0.2937066271891E+01  0.0000000000000E+00
 0.8265177760437E+00 -0.2863559587694E+01  0.0000000000000E+00
 0.8279472281868E+00 -0.2790067100603E+01  0.0000000000000E+00
 0.8298646430965E+00 -0.2716594812945E+01  0.0000000000000E+00
 0.8322498520254E+00 -0.2643146234864E+01  0.0000000000000E+00
 0.8350862682939E+00 -0.2569726064901E+01  0.0000000000000E+00
 0.8383663032246E+00 -0.2496339061666E+01  0.0000000000000E+00
 0.8420942030230E+00 -0.2422989996067E+01  0.0000000000000E+00
 0.8462889965281E+00 -0.2349685803918E+01  0.0000000000000E+00
 0.8509876943508E+00 -0.2276436016165E+01  0.0000000000000E+00
 0.8562076393705E+00 -0.2203248992724E+01  0.0000000000000E+00
 0.8619425045521E+00 -0.2130130513309E+01  0.0000000000000E+00
 0.8682008665724E+00 -0.2057088440582E+01  0.0000000000000E+00
 0.8750080828610E+00 -0.1984133466364E+01  0.0000000000000E+00
 0.8824079103029E+00 -0.1911281600768E+01  0.0000000000000E+00
 0.8904651137241E+00 -0.1838554023783E+01  0.0000000000000E+00
 0.8992642828138E+00 -0.1765979519671E+01  0.0000000000000E+00
 0.9088872454622E+00 -0.1693591126067E+01  0.0000000000000E+00
 0.9193043207926E+00 -0.1621398208055E+01  0.0000000000000E+00
 0.9301011022316E+00 -0.1549304059578E+01  0.0000000000000E+00
 0.9408452084078E+00 -0.1477195909041E+01  0.0000000000000E+00
 0.9513872359068E+00 -0.1405034780452E+01  0.0000000000000E+00
 0.9615578480451E+00 -0.1332779095966E+01  0.0000000000000E+00
 0.8525000000626E+00 -0.4186859601281E+01  0.0000000000000E+00
 0.8525000001251E+00 -0.4113342086429E+01  0.0000000000000E+00
 0.8525000001877E+00 -0.4039824684257E+01  0.0000000000000E+00
 0.8525000002503E+00 -0.3966307217550E+01  0.0000000000000E+00
 0.8525000003128E+00 -0.3892789747717E+01  0.0000000000000E+00
 0.8525000003754E+00 -0.3819272288128E+01  0.0000000000000E+00
 0.8525000004380E+00 -0.3745754823288E+01  0.0000000000000E+00
 0.8525000005005E+00 -0.3672237366228E+01  0.0000000000000E+00
 0.8525000005631E+00 -0.3598719903615E+01  0.0000000000000E+00
 0.8525000006257E+00 -0.3525202280347E+01  0.0000000000000E+00
 0.8525000006882E+00 -0.3451684819509E+01  0.0000000000000E+00
 0.8525000007508E+00 -0.3378167379303E+01  0.0000000000000E+00
 0.8525000008134E+00 -0.3304649961005E+01  0.0000000000000E+00
 0.8525000008759E+00 -0.3231132803084E+01  0.0000000000000E+00
 0.8525000009385E+00 -0.3157615389387E+01  0.0000000000000E+00
 0.8525026108084E+00 -0.3084098002567E+01  0.0000000000000E+00
 0.8526266710751E+00 -0.3010580866809E+01  0.0000000000000E+00
 0.8531061075738E+00 -0.2937066271891E+01  0.0000000000000E+00
 0.8540683684020E+00 -0.2863559587694E+01  0.0000000000000E+00
 0.8555454689403E+00 -0.2790067100603E+01  0.0000000000000E+00
 0.8575267976705E+00 -0.2716594812945E+01  0.0000000000000E+00
 0.8599915135539E+00 -0.2643146234864E+01  0.0000000000000E+00
 0.8629224770215E+00 -0.2569726064901E+01  0.0000000000000E+00
 0.8663118464399E+00 -0.2496339061666E+01  0.0000000000000E+00
 0.8701640095547E+00 -0.2422989996067E+01  0.0000000000000E+00
 0.8744986294998E+00 -0.2349685803918E+01  0.0000000000000E+00
 0.8793539505729E+00 -0.2276436016165E+01  0.0000000000000E+00
 0.8847478937495E+00 -0.2203248992724E+01  0.0000000000000E+00
 0.8906739210932E+00 -0.2130130513309E+01  0.0000000000000E+00
 0.8971408951702E+00 -0.2057088440582E+01  0.0000000000000E+00
 0.9041750186577E+00 -0.1984133466364E+01  0.0000000000000E+00
 0.9118215070034E+00 -0.1911281600768E+01  0.0000000000000E+00
 0.9201472838608E+00 -0.1838554023783E+01  0.0000000000000E+00
 0.9292397585756E+00 -0.1765979519671E+01  0.0000000000000E+00
 0.9391834866342E+00 -0.1693591126067E+01  0.0000000000000E+00
 0.9499477977974E+00 -0.1621398208055E+01  0.0000000000000E+00
 0.9611044719393E+00 -0.1549304059578E+01  0.0000000000000E+00
 0.9722067149763E+00 -0.1477195909041E+01  0.0000000000000E+00
 0.9831001433801E+00 -0.1405034780452E+01  0.0000000000000E+00
 0.9936097759111E+00 -0.1332779095966E+01  0.0000000000000E+00
 0.8800000000556E+00 -0.4186859601281E+01  0.0000000000000E+00
 0.8800000001112E+00 -0.4113342086429E+01  0.0000000000000E+00
 0.8800000001668E+00 -0.4039824684257E+01  0.0000000000000E+00
 0.8800000002225E+00 -0.3966307217550E+01  0.0000000000000E+00
 0.8800000002781E+00 -0.3892789747717E+01  0.0000000000000E+00
 0.8800000003337E+00 -0.3819272288128E+01  0.0000000000000E+00
 0.8800000003893E+00 -0.3745754823288E+01  0.0000000000000E+00
 0.8800000004449E+00 -0.3672237366228E+01  0.0000000000000E+00
 0.8800000005005E+00 -0.3598719903615E+01  0.0000000000000E+00
 0.8800000005561E+00 -0.3525202280347E+01  0.0000000000000E+00
 0.8800000006118E+00 -0.3451684819509E+01  0.0000000000000E+00
 0.8800000006674E+00 -0.3378167379303E+01  0.0000000000000E+00
 0.8800000007230E+00 -0.3304649961005E+01  0.0000000000000E+00
 0.8800000007786E+00 -0.3231132803084E+01  0.0000000000000E+00
 0.8800000008342E+00 -0.3157615389387E+01  0.0000000000000E+00
 0.8800026948845E+00 -0.3084098002567E+01  0.0000000000000E+00
 0.8801307570862E+00 -0.3010580866809E+01  0.0000000000000E+00
 0.8806256592695E+00 -0.2937066271891E+01  0.0000000000000E+00
 0.8816189607603E+00 -0.2863559587694E+01  0.0000000000000E+00
 0.8831437096938E+00 -0.2790067100603E+01  0.0000000000000E+00
 0.8851889522446E+00 -0.2716594812945E+01  0.0000000000000E+00
 0.8877331750825E+00 -0.2643146234864E+01  0.0000000000000E+00
 0.8907586857491E+00 -0.2569726064901E+01  0.0000000000000E+00
 0.8942573896551E+00 -0.2496339061666E+01  0.0000000000000E+00
 0.8982338160864E+00 -0.2422989996067E+01  0.0000000000000E+00
 0.9027082624715E+00 -0.2349685803918E+01  0.0000000000000E+00
 0.9077202067950E+00 -0.2276436016165E+01  0.0000000000000E+00
 0.9132881481285E+00 -0.2203248992724E+01  0.0000000000000E+00
 0.9194053376344E+00 -0.2130130513309E+01  0.0000000000000E+00
 0.9260809237681E+00 -0.2057088440582E+01  0.0000000000000E+00
 0.9333419544543E+00 -0.1984133466364E+01  0.0000000000000E+00
 0.9412351037039E+00 -0.1911281600768E+01  0.0000000000000E+00
 0.9498294539976E+00 -0.1838554023783E+01  0.0000000000000E+00
 0.9592152343375E+00 -0.1765979519671E+01  0.0000000000000E+00
 0.9694797278063E+00 -0.1693591126067E+01  0.0000000000000E+00
 0.9805912748022E+00 -0.1621398208055E+01  0.0000000000000E+00
 0.9921078416470E+00 -0.1549304059578E+01  0.0000000000000E+00
 0.1003568221545E+01 -0.1477195909041E+01  0.0000000000000E+00
 0.1014813050853E+01 -0.1405034780452E+01  0.0000000000000E+00
 0.1025661703777E+01 -0.1332779095966E+01  0.0000000000000E+00
 0.9075000000487E+00 -0.4186859601281E+01  0.0000000000000E+00
 0.9075000000973E+00 -0.4113342086429E+01  0.0000000000000E+00
 0.9075000001460E+00 -0.4039824684257E+01  0.0000000000000E+00
 0.9075000001946E+00 -0.3966307217550E+01  0.0000000000000E+00
 0.9075000002433E+00 -0.3892789747717E+01  0.0000000000000E+00
 0.9075000002920E+00 -0.3819272288128E+01  0.0000000000000E+00
 0.9075000003406E+00 -0.3745754823288E+01  0.0000000000000E+00
 0.9075000003893E+00 -0.3672237366228E+01  0.0000000000000E+00
 0.9075000004380E+00 -0.3598719903615E+01  0.0000000000000E+00
 0.9075000004866E+00 -0.3525202280347E+01  0.0000000000000E+00
 0.9075000005353E+00 -0.3451684819509E+01  0.0000000000000E+00
 0.9075000005839E+00 -0.3378167379303E+01  0.0000000000000E+00
 0.9075000006326E+00 -0.3304649961005E+01  0.0000000000000E+00
 0.9075000006813E+00 -0.3231132803084E+01  0.0000000000000E+00
 0.9075000007299E+00 -0.3157615389387E+01  0.0000000000000E+00
 0.9075027789606E+00 -0.3084098002567E+01  0.0000000000000E+00
 0.9076348430974E+00 -0.3010580866809E+01  0.0000000000000E+00
 0.9081452109651E+00 -0.2937066271891E+01  0.0000000000000E+00
 0.9091695531186E+00 -0.2863559587694E+01  0.0000000000000E+00
 0.9107419504473E+00 -0.2790067100603E+01  0.0000000000000E+00
 0.9128511068187E+00 -0.2716594812945E+01  0.0000000000000E+00
 0.9154748366110E+00 -0.2643146234864E+01  0.0000000000000E+00
 0.9185948944766E+00 -0.2569726064901E+01  0.0000000000000E+00
 0.9222029328704E+00 -0.2496339061666E+01  0.0000000000000E+00
 0.9263036226182E+00 -0.2422989996067E+01  0.0000000000000E+00
 0.9309178954432E+00 -0.2349685803918E+01  0.0000000000000E+00
 0.9360864630172E+00 -0.2276436016165E+01  0.0000000000000E+00
 0.9418284025075E+00 -0.2203248992724E+01  0.0000000000000E+00
 0.9481367541755E+00 -0.2130130513309E+01  0.0000000000000E+00
 0.9550209523659E+00 -0.2057088440582E+01  0.0000000000000E+00
 0.9625088902510E+00 -0.1984133466364E+01  0.0000000000000E+00
 0.9706487004043E+00 -0.1911281600768E+01  0.0000000000000E+00
 0.9795116241343E+00 -0.1838554023783E+01  0.0000000000000E+00
 0.9891907100993E+00 -0.1765979519671E+01  0.0000000000000E+00
 0.9997759689783E+00 -0.1693591126066E+01  0.0000000000000E+00
 0.1011234751807E+01 -0.1621398208055E+01  0.0000000000000E+00
 0.1023111211355E+01 -0.1549304059578E+01  0.0000000000000E+00
 0.1034929728113E+01 -0.1477195909041E+01  0.0000000000000E+00
 0.1046525958327E+01 -0.1405034780452E+01  0.0000000000000E+00
 0.1057713631643E+01 -0.1332779095966E+01  0.0000000000000E+00
 0.9350000000417E+00 -0.4186859601281E+01  0.0000000000000E+00
 0.9350000000834E+00 -0.4113342086429E+01  0.0000000000000E+00
 0.9350000001251E+00 -0.4039824684257E+01  0.0000000000000E+00
 0.9350000001668E+00 -0.3966307217550E+01  0.0000000000000E+00
 0.9350000002086E+00 -0.3892789747717E+01  0.0000000000000E+00
 0.9350000002503E+00 -0.3819272288128E+01  0.0000000000000E+00
 0.9350000002920E+00 -0.3745754823288E+01  0.0000000000000E+00
 0.9350000003337E+00 -0.3672237366228E+01  0.0000000000000E+00
 0.9350000003754E+00 -0.3598719903615E+01  0.0000000000000E+00
 0.9350000004171E+00 -0.3525202280347E+01  0.0000000000000E+00
 0.9350000004588E+00 -0.3451684819509E+01  0.0000000000000E+00
 0.9350000005005E+00 -0.3378167379303E+01  0.0000000000000E+00
 0.9350000005422E+00 -0.3304649961005E+01  0.0000000000000E+00
 0.9350000005839E+00 -0.3231132803084E+01  0.0000000000000E+00
 0.9350000006257E+00 -0.3157615389387E+01  0.0000000000000E+00
 0.9350028630367E+00 -0.3084098002567E+01  0.0000000000000E+00
 0.9351389291086E+00 -0.3010580866809E+01  0.0000000000000E+00
 0.9356647626607E+00 -0.2937066271891E+01  0.0000000000000E+00
 0.9367201454770E+00 -0.2863559587694E+01  0.0000000000000E+00
 0.9383401912008E+00 -0.2790067100603E+01  0.0000000000000E+00
 0.9405132613928E+00 -0.2716594812945E+01  0.0000000000000E+00
 0.9432164981396E+00 -0.2643146234864E+01  0.0000000000000E+00
 0.9464311032042E+00 -0.2569726064901E+01  0.0000000000000E+00
 0.9501484760856E+00 -0.2496339061666E+01  0.0000000000000E+00
 0.9543734291499E+00 -0.2422989996067E+01  0.0000000000000E+00
 0.9591275284149E+00 -0.2349685803918E+01  0.0000000000000E+00
 0.9644527192393E+00 -0.2276436016165E+01  0.0000000000000E+00
 0.9703686568865E+00 -0.2203248992724E+01  0.0000000000000E+00
 0.9768681707167E+00 -0.2130130513309E+01  0.0000000000000E+00
 0.9839609809637E+00 -0.2057088440582E+01  0.0000000000000E+00
 0.9916758260476E+00 -0.1984133466364E+01  0.0000000000000E+00
 0.1000062297105E+01 -0.1911281600768E+01  0.0000000000000E+00
 0.1009193794271E+01 -0.1838554023783E+01  0.0000000000000E+00
 0.1019166185861E+01 -0.1765979519671E+01  0.0000000000000E+00
 0.1030072210150E+01 -0.1693591126066E+01  0.0000000000000E+00
 0.1041878228812E+01 -0.1621398208055E+01  0.0000000000000E+00
 0.1054114581062E+01 -0.1549304059578E+01  0.0000000000000E+00
 0.1066291234682E+01 -0.1477195909041E+01  0.0000000000000E+00
 0.1078238865800E+01 -0.1405034780452E+01  0.0000000000000E+00
 0.1089765559509E+01 -0.1332779095966E+01  0.0000000000000E+00
 0.9625000000348E+00 -0.4186859601281E+01  0.0000000000000E+00
 0.9625000000695E+00 -0.4113342086429E+01  0.0000000000000E+00
 0.9625000001043E+00 -0.4039824684257E+01  0.0000000000000E+00
 0.9625000001390E+00 -0.3966307217550E+01  0.0000000000000E+00
 0.9625000001738E+00 -0.3892789747717E+01  0.0000000000000E+00
 0.9625000002086E+00 -0.3819272288128E+01  0.0000000000000E+00
 0.9625000002433E+00 -0.3745754823288E+01  0.0000000000000E+00
 0.9625000002781E+00 -0.3672237366228E+01  0.0000000000000E+00
 0.9625000003128E+00 -0.3598719903615E+01  0.0000000000000E+00
 0.9625000003476E+00 -0.3525202280347E+01  0.0000000000000E+00
 0.9625000003823E+00 -0.3451684819509E+01  0.0000000000000E+00
 0.9625000004171E+00 -0.3378167379303E+01  0.0000000000000E+00
 0.9625000004519E+00 -0.3304649961005E+01  0.0000000000000E+00
 0.9625000004866E+00 -0.3231132803084E+01  0.0000000000000E+00
 0.9625000005214E+00 -0.3157615389387E+01  0.0000000000000E+00
 0.9625029471128E+00 -0.3084098002567E+01  0.0000000000000E+00
 0.9626430151198E+00 -0.3010580866809E+01  0.0000000000000E+00
 0.9631843143563E+00 -0.2937066271891E+01  0.0000000000000E+00
 0.9642707378353E+00 -0.2863559587694E+01  0.0000000000000E+00
 0.9659384319542E+00 -0.2790067100603E+01  0.0000000000000E+00
 0.9681754159669E+00 -0.2716594812945E+01  0.0000000000000E+00
 0.9709581596681E+00 -0.2643146234864E+01  0.0000000000000E+00
 0.9742673119318E+00 -0.2569726064901E+01  0.0000000000000E+00
 0.9780940193009E+00 -0.2496339061666E+01  0.0000000000000E+00
 0.9824432356817E+00 -0.2422989996067E+01  0.0000000000000E+00
 0.9873371613866E+00 -0.2349685803918E+01  0.0000000000000E+00
 0.9928189754614E+00 -0.2276436016165E+01  0.0000000000000E+00
 0.9989089112655E+00 -0.2203248992724E+01  0.0000000000000E+00
 0.1005599587258E+01 -0.2130130513309E+01  0.0000000000000E+00
 0.1012901009562E+01 -0.2057088440582E+01  0.0000000000000E+00
 0.1020842761844E+01 -0.1984133466364E+01  0.0000000000000E+00
 0.1029475893805E+01 -0.1911281600768E+01  0.0000000000000E+00
 0.1038875964408E+01 -0.1838554023783E+01  0.0000000000000E+00
 0.1049141661623E+01 -0.1765979519671E+01  0.0000000000000E+00
 0.1060368451322E+01 -0.1693591126066E+01  0.0000000000000E+00
 0.1072521705817E+01 -0.1621398208055E+01  0.0000000000000E+00
 0.1085117950770E+01 -0.1549304059578E+01  0.0000000000000E+00
 0.1097652741250E+01 -0.1477195909041E+01  0.0000000000000E+00
 0.1109951773273E+01 -0.1405034780452E+01  0.0000000000000E+00
 0.1121817487376E+01 -0.1332779095966E+01  0.0000000000000E+00
 0.9900000000278E+00 -0.4186859601281E+01  0.0000000000000E+00
 0.9900000000556E+00 -0.4113342086429E+01  0.0000000000000E+00
 0.9900000000834E+00 -0.4039824684257E+01  0.0000000000000E+00
 0.9900000001112E+00 -0.3966307217550E+01  0.0000000000000E+00
 0.9900000001390E+00 -0.3892789747717E+01  0.0000000000000E+00
 0.9900000001668E+00 -0.3819272288128E+01  0.0000000000000E+00
 0.9900000001946E+00 -0.3745754823288E+01  0.0000000000000E+00
 0.9900000002225E+00 -0.3672237366228E+01  0.0000000000000E+00
 0.9900000002503E+00 -0.3598719903615E+01  0.0000000000000E+00
 0.9900000002781E+00 -0.3525202280347E+01  0.0000000000000E+00
 0.9900000003059E+00 -0.3451684819509E+01  0.0000000000000E+00
 0.9900000003337E+00 -0.3378167379303E+01  0.0000000000000E+00
 0.9900000003615E+00 -0.3304649961005E+01  0.0000000000000E+00
 0.9900000003893E+00 -0.3231132803084E+01  0.0000000000000E+00
 0.9900000004171E+00 -0.3157615389387E+01  0.0000000000000E+00
 0.9900030311889E+00 -0.3084098002567E+01  0.0000000000000E+00
 0.9901471011310E+00 -0.3010580866809E+01  0.0000000000000E+00
 0.9907038660519E+00 -0.2937066271891E+01  0.0000000000000E+00
 0.9918213301936E+00 -0.2863559587694E+01  0.0000000000000E+00
 0.9935366727077E+00 -0.2790067100603E+01  0.0000000000000E+00
 0.9958375705410E+00 -0.2716594812945E+01  0.0000000000000E+00
 0.9986998211967E+00 -0.2643146234864E+01  0.0000000000000E+00
 0.1002103520659E+01 -0.2569726064901E+01  0.0000000000000E+00
 0.1006039562516E+01 -0.2496339061666E+01  0.0000000000000E+00
 0.1010513042213E+01 -0.2422989996067E+01  0.0000000000000E+00
 0.1015546794358E+01 -0.2349685803918E+01  0.0000000000000E+00
 0.1021185231684E+01 -0.2276436016165E+01  0.0000000000000E+00
 0.1027449165644E+01 -0.2203248992724E+01  0.0000000000000E+00
 0.1034331003799E+01 -0.2130130513309E+01  0.0000000000000E+00
 0.1041841038159E+01 -0.2057088440582E+01  0.0000000000000E+00
 0.1050009697641E+01 -0.1984133466364E+01  0.0000000000000E+00
 0.1058889490506E+01 -0.1911281600768E+01  0.0000000000000E+00
 0.1068558134545E+01 -0.1838554023783E+01  0.0000000000000E+00
 0.1079117137385E+01 -0.1765979519671E+01  0.0000000000000E+00
 0.1090664692494E+01 -0.1693591126066E+01  0.0000000000000E+00
 0.1103165182821E+01 -0.1621398208054E+01  0.0000000000000E+00
 0.1116121320478E+01 -0.1549304059577E+01  0.0000000000000E+00
 0.1129014247819E+01 -0.1477195909041E+01  0.0000000000000E+00
 0.1141664680747E+01 -0.1405034780452E+01  0.0000000000000E+00
 0.1153869415242E+01 -0.1332779095966E+01  0.0000000000000E+00
 0.1017500000021E+01 -0.4186859601281E+01  0.0000000000000E+00
 0.1017500000042E+01 -0.4113342086429E+01  0.0000000000000E+00
 0.1017500000063E+01 -0.4039824684257E+01  0.0000000000000E+00
 0.1017500000083E+01 -0.3966307217550E+01  0.0000000000000E+00
 0.1017500000104E+01 -0.3892789747717E+01  0.0000000000000E+00
 0.1017500000125E+01 -0.3819272288128E+01  0.0000000000000E+00
 0.1017500000146E+01 -0.3745754823288E+01  0.0000000000000E+00
 0.1017500000167E+01 -0.3672237366228E+01  0.0000000000000E+00
 0.1017500000188E+01 -0.3598719903615E+01  0.0000000000000E+00
 0.1017500000209E+01 -0.3525202280347E+01  0.0000000000000E+00
 0.1017500000229E+01 -0.3451684819509E+01  0.0000000000000E+00
 0.1017500000250E+01 -0.3378167379303E+01  0.0000000000000E+00
 0.1017500000271E+01 -0.3304649961005E+01  0.0000000000000E+00
 0.1017500000292E+01 -0.3231132803084E+01  0.0000000000000E+00
 0.1017500000313E+01 -0.3157615389387E+01  0.0000000000000E+00
 0.1017503115265E+01 -0.3084098002567E+01  0.0000000000000E+00
 0.1017651187142E+01 -0.3010580866809E+01  0.0000000000000E+00
 0.1018223417748E+01 -0.2937066271891E+01  0.0000000000000E+00
 0.1019371922552E+01 -0.2863559587694E+01  0.0000000000000E+00
 0.1021134913461E+01 -0.2790067100603E+01  0.0000000000000E+00
 0.1023499725115E+01 -0.2716594812945E+01  0.0000000000000E+00
 0.1026441482725E+01 -0.2643146234864E+01  0.0000000000000E+00
 0.1029939729387E+01 -0.2569726064901E+01  0.0000000000000E+00
 0.1033985105731E+01 -0.2496339061666E+01  0.0000000000000E+00
 0.1038582848745E+01 -0.2422989996067E+01  0.0000000000000E+00
 0.1043756427330E+01 -0.2349685803918E+01  0.0000000000000E+00
 0.1049551487906E+01 -0.2276436016165E+01  0.0000000000000E+00
 0.1055989420023E+01 -0.2203248992724E+01  0.0000000000000E+00
 0.1063062420340E+01 -0.2130130513309E+01  0.0000000000000E+00
 0.1070781066757E+01 -0.2057088440582E+01  0.0000000000000E+00
 0.1079176633438E+01 -0.1984133466364E+01  0.0000000000000E+00
 0.1088303087206E+01 -0.1911281600768E+01  0.0000000000000E+00
 0.1098240304681E+01 -0.1838554023783E+01  0.0000000000000E+00
 0.1109092613147E+01 -0.1765979519671E+01  0.0000000000000E+00
 0.1120960933667E+01 -0.1693591126066E+01  0.0000000000000E+00
 0.1133808659826E+01 -0.1621398208054E+01  0.0000000000000E+00
 0.1147124690185E+01 -0.1549304059577E+01  0.0000000000000E+00
 0.1160375754387E+01 -0.1477195909041E+01  0.0000000000000E+00
 0.1173377588220E+01 -0.1405034780452E+01  0.0000000000000E+00
 0.1185921343108E+01 -0.1332779095966E+01  0.0000000000000E+00
 0.1045000000014E+01 -0.4186859601281E+01  0.0000000000000E+00
 0.1045000000028E+01 -0.4113342086429E+01  0.0000000000000E+00
 0.1045000000042E+01 -0.4039824684257E+01  0.0000000000000E+00
 0.1045000000056E+01 -0.3966307217550E+01  0.0000000000000E+00
 0.1045000000070E+01 -0.3892789747717E+01  0.0000000000000E+00
 0.1045000000083E+01 -0.3819272288128E+01  0.0000000000000E+00
 0.1045000000097E+01 -0.3745754823288E+01  0.0000000000000E+00
 0.1045000000111E+01 -0.3672237366228E+01  0.0000000000000E+00
 0.1045000000125E+01 -0.3598719903615E+01  0.0000000000000E+00
 0.1045000000139E+01 -0.3525202280347E+01  0.0000000000000E+00
 0.1045000000153E+01 -0.3451684819509E+01  0.0000000000000E+00
 0.1045000000167E+01 -0.3378167379303E+01  0.0000000000000E+00
 0.1045000000181E+01 -0.3304649961005E+01  0.0000000000000E+00
 0.1045000000195E+01 -0.3231132803084E+01  0.0000000000000E+00
 0.1045000000209E+01 -0.3157615389387E+01  0.0000000000000E+00
 0.1045003199341E+01 -0.3084098002567E+01  0.0000000000000E+00
 0.1045155273153E+01 -0.3010580866809E+01  0.0000000000000E+00
 0.1045742969443E+01 -0.2937066271891E+01  0.0000000000000E+00
 0.1046922514910E+01 -0.2863559587694E+01  0.0000000000000E+00
 0.1048733154215E+01 -0.2790067100603E+01  0.0000000000000E+00
 0.1051161879689E+01 -0.2716594812945E+01  0.0000000000000E+00
 0.1054183144254E+01 -0.2643146234864E+01  0.0000000000000E+00
 0.1057775938115E+01 -0.2569726064901E+01  0.0000000000000E+00
 0.1061930648947E+01 -0.2496339061666E+01  0.0000000000000E+00
 0.1066652655277E+01 -0.2422989996067E+01  0.0000000000000E+00
 0.1071966060302E+01 -0.2349685803918E+01  0.0000000000000E+00
 0.1077917744128E+01 -0.2276436016165E+01  0.0000000000000E+00
 0.1084529674402E+01 -0.2203248992724E+01  0.0000000000000E+00
 0.1091793836881E+01 -0.2130130513309E+01  0.0000000000000E+00
 0.1099721095355E+01 -0.2057088440582E+01  0.0000000000000E+00
 0.1108343569234E+01 -0.1984133466364E+01  0.0000000000000E+00
 0.1117716683907E+01 -0.1911281600768E+01  0.0000000000000E+00
 0.1127922474818E+01 -0.1838554023783E+01  0.0000000000000E+00
 0.1139068088909E+01 -0.1765979519671E+01  0.0000000000000E+00
 0.1151257174839E+01 -0.1693591126066E+01  0.0000000000000E+00
 0.1164452136831E+01 -0.1621398208054E+01  0.0000000000000E+00
 0.1178128059893E+01 -0.1549304059577E+01  0.0000000000000E+00
 0.1191737260956E+01 -0.1477195909041E+01  0.0000000000000E+00
 0.1205090495693E+01 -0.1405034780452E+01  0.0000000000000E+00
 0.1217973270974E+01 -0.1332779095966E+01  0.0000000000000E+00
 0.1072500000007E+01 -0.4186859601281E+01  0.0000000000000E+00
 0.1072500000014E+01 -0.4113342086429E+01  0.0000000000000E+00
 0.1072500000021E+01 -0.4039824684257E+01  0.0000000000000E+00
 0.1072500000028E+01 -0.3966307217550E+01  0.0000000000000E+00
 0.1072500000035E+01 -0.3892789747717E+01  0.0000000000000E+00
 0.1072500000042E+01 -0.3819272288128E+01  0.0000000000000E+00
 0.1072500000049E+01 -0.3745754823288E+01  0.0000000000000E+00
 0.1072500000056E+01 -0.3672237366228E+01  0.0000000000000E+00
 0.1072500000063E+01 -0.3598719903615E+01  0.0000000000000E+00
 0.1072500000070E+01 -0.3525202280347E+01  0.0000000000000E+00
 0.1072500000076E+01 -0.3451684819509E+01  0.0000000000000E+00
 0.1072500000083E+01 -0.3378167379303E+01  0.0000000000000E+00
 0.1072500000090E+01 -0.3304649961005E+01  0.0000000000000E+00
 0.1072500000097E+01 -0.3231132803084E+01  0.0000000000000E+00
 0.1072500000104E+01 -0.3157615389387E+01  0.0000000000000E+00
 0.1072503283417E+01 -0.3084098002567E+01  0.0000000000000E+00
 0.1072659359165E+01 -0.3010580866809E+01  0.0000000000000E+00
 0.1073262521139E+01 -0.2937066271891E+01  0.0000000000000E+00
 0.1074473107269E+01 -0.2863559587694E+01  0.0000000000000E+00
 0.1076331394968E+01 -0.2790067100603E+01  0.0000000000000E+00
 0.1078824034263E+01 -0.2716594812945E+01  0.0000000000000E+00
 0.1081924805782E+01 -0.2643146234864E+01  0.0000000000000E+00
 0.1085612146842E+01 -0.2569726064901E+01  0.0000000000000E+00
 0.1089876192162E+01 -0.2496339061666E+01  0.0000000000000E+00
 0.1094722461809E+01 -0.2422989996067E+01  0.0000000000000E+00
 0.1100175693273E+01 -0.2349685803918E+01  0.0000000000000E+00
 0.1106284000350E+01 -0.2276436016165E+01  0.0000000000000E+00
 0.1113069928781E+01 -0.2203248992724E+01  0.0000000000000E+00
 0.1120525253422E+01 -0.2130130513309E+01  0.0000000000000E+00
 0.1128661123953E+01 -0.2057088440582E+01  0.0000000000000E+00
 0.1137510505031E+01 -0.1984133466364E+01  0.0000000000000E+00
 0.1147130280607E+01 -0.1911281600768E+01  0.0000000000000E+00
 0.1157604644955E+01 -0.1838554023783E+01  0.0000000000000E+00
 0.1169043564670E+01 -0.1765979519671E+01  0.0000000000000E+00
 0.1181553416011E+01 -0.1693591126066E+01  0.0000000000000E+00
 0.1195095613836E+01 -0.1621398208054E+01  0.0000000000000E+00
 0.1209131429601E+01 -0.1549304059577E+01  0.0000000000000E+00
 0.1223098767524E+01 -0.1477195909041E+01  0.0000000000000E+00
 0.1236803403166E+01 -0.1405034780452E+01  0.0000000000000E+00
 0.1250025198840E+01 -0.1332779095966E+01  0.0000000000000E+00
-0.6146632205864E+00 -0.1179245927773E+01  0.0000000000000E+00
-0.6133850625710E+00 -0.1098125561271E+01  0.0000000000000E+00
-0.6110781767176E+00 -0.1017031042899E+01  0.0000000000000E+00
-0.6075938972867E+00 -0.9359840196841E+00  0.0000000000000E+00
-0.6027748704429E+00 -0.8550138763628E+00  0.0000000000000E+00
-0.5964762431763E+00 -0.7741576168479E+00  0.0000000000000E+00
-0.5886096354219E+00 -0.6934549809652E+00  0.0000000000000E+00
-0.5792169622724E+00 -0.6129344720338E+00  0.0000000000000E+00
-0.5685607300787E+00 -0.5325891076342E+00  0.0000000000000E+00
-0.5571736404696E+00 -0.4523550909481E+00  0.0000000000000E+00
-0.5457865507829E+00 -0.3721210742731E+00  0.0000000000000E+00
-0.5351303183650E+00 -0.2917757099033E+00  0.0000000000000E+00
-0.5257376448667E+00 -0.2112552010127E+00  0.0000000000000E+00
-0.5178710366670E+00 -0.1305525651737E+00  0.0000000000000E+00
-0.5115724088858E+00 -0.4969630569897E-01  0.0000000000000E+00
-0.5067533814807E+00  0.3127383758862E-01  0.0000000000000E+00
-0.5032691014587E+00  0.1123208607782E+00  0.0000000000000E+00
-0.5009622149962E+00  0.1934153791321E+00  0.0000000000000E+00
-0.4996840563622E+00  0.2745357456241E+00  0.0000000000000E+00
-0.5823375735839E+00 -0.1178925948017E+01  0.0000000000000E+00
-0.5811517361345E+00 -0.1097485602229E+01  0.0000000000000E+00
-0.5789913143491E+00 -0.1016071105210E+01  0.0000000000000E+00
-0.5757154669679E+00 -0.9347041043687E+00  0.0000000000000E+00
-0.5711751219322E+00 -0.8534139844555E+00  0.0000000000000E+00
-0.5652330500847E+00 -0.7722377492156E+00  0.0000000000000E+00
-0.5578055229899E+00 -0.6912151378461E+00  0.0000000000000E+00
-0.5489322497722E+00 -0.6103746525257E+00  0.0000000000000E+00
-0.5388619207640E+00 -0.5297093095395E+00  0.0000000000000E+00
-0.5280992006759E+00 -0.4491553120599E+00  0.0000000000000E+00
-0.5173364805104E+00 -0.3686013145907E+00  0.0000000000000E+00
-0.5072661512780E+00 -0.2879359716328E+00  0.0000000000000E+00
-0.4983928777114E+00 -0.2070954863511E+00  0.0000000000000E+00
-0.4909653501714E+00 -0.1260728750229E+00  0.0000000000000E+00
-0.4850232778093E+00 -0.4489663982115E-01  0.0000000000000E+00
-0.4804829322123E+00  0.3639348006013E-01  0.0000000000000E+00
-0.4772070842400E+00  0.1177604808772E+00  0.0000000000000E+00
-0.4750466618455E+00  0.1991749778796E+00  0.0000000000000E+00
-0.4738608237776E+00  0.2806153236578E+00  0.0000000000000E+00
-0.5500080394828E+00 -0.1178622037865E+01  0.0000000000000E+00
-0.5489106355602E+00 -0.1096877782373E+01  0.0000000000000E+00
-0.5468927908727E+00 -0.1015159376255E+01  0.0000000000000E+00
-0.5438214886538E+00 -0.9334884672851E+00  0.0000000000000E+00
-0.5395559386310E+00 -0.8518944402257E+00  0.0000000000000E+00
-0.5339665355062E+00 -0.7704142986630E+00  0.0000000000000E+00
-0.5269742024711E+00 -0.6890877811968E+00  0.0000000000000E+00
-0.5186164426654E+00 -0.6079433889229E+00  0.0000000000000E+00
-0.5091281303716E+00 -0.5269741368961E+00  0.0000000000000E+00
-0.4989858933504E+00 -0.4461162282797E+00  0.0000000000000E+00
-0.4888436562517E+00 -0.3652583196731E+00  0.0000000000000E+00
-0.4793553437337E+00 -0.2842890676730E+00  0.0000000000000E+00
-0.4709975835792E+00 -0.2031446754356E+00  0.0000000000000E+00
-0.4640052500988E+00 -0.1218181580084E+00  0.0000000000000E+00
-0.4584158464595E+00 -0.4033801648185E-01  0.0000000000000E+00
-0.4541502958753E+00  0.4125601054745E-01  0.0000000000000E+00
-0.4510789930653E+00  0.1229269194944E+00  0.0000000000000E+00
-0.4490611477687E+00  0.2046453255965E+00  0.0000000000000E+00
-0.4479637432275E+00  0.2863895810799E+00  0.0000000000000E+00
-0.5176747919670E+00 -0.1178334388478E+01  0.0000000000000E+00
-0.5166621081398E+00 -0.1096302484021E+01  0.0000000000000E+00
-0.5147831271008E+00 -0.1014296429512E+01  0.0000000000000E+00
-0.5119126565776E+00 -0.9323378730696E+00  0.0000000000000E+00
-0.5079181880800E+00 -0.8504561994673E+00  0.0000000000000E+00
-0.5026777401640E+00 -0.7686884121413E+00  0.0000000000000E+00
-0.4961168876386E+00 -0.6870742491256E+00  0.0000000000000E+00
-0.4882709276467E+00 -0.6056422104914E+00  0.0000000000000E+00
-0.4793609184126E+00 -0.5243853101288E+00  0.0000000000000E+00
-0.4698354507598E+00 -0.4432397511925E+00  0.0000000000000E+00
-0.4603099830294E+00 -0.3620941922655E+00  0.0000000000000E+00
-0.4513999735711E+00 -0.2808372919280E+00  0.0000000000000E+00
-0.4435540132304E+00 -0.1994052533281E+00  0.0000000000000E+00
-0.4369931602597E+00 -0.1177910903493E+00  0.0000000000000E+00
-0.4317527118292E+00 -0.3602330305715E-01  0.0000000000000E+00
-0.4277582427703E+00  0.4585837051678E-01  0.0000000000000E+00
-0.4248877716559E+00  0.1278169269378E+00  0.0000000000000E+00
-0.4230087900078E+00  0.2098229814316E+00  0.0000000000000E+00
-0.4219961055620E+00  0.2918548858801E+00  0.0000000000000E+00
-0.4853380080548E+00 -0.1178063183023E+01  0.0000000000000E+00
-0.4844065078916E+00 -0.1095760073511E+01  0.0000000000000E+00
-0.4826628540306E+00 -0.1013482814487E+01  0.0000000000000E+00
-0.4799896786910E+00 -0.9312530543955E+00  0.0000000000000E+00
-0.4762627551584E+00 -0.8491001780208E+00  0.0000000000000E+00
-0.4713677258340E+00 -0.7670611886573E+00  0.0000000000000E+00
-0.4652348171335E+00 -0.6851758238060E+00  0.0000000000000E+00
-0.4578971201924E+00 -0.6034725825716E+00  0.0000000000000E+00
-0.4495618771738E+00 -0.5219444777461E+00  0.0000000000000E+00
-0.4406496419882E+00 -0.4405277124764E+00  0.0000000000000E+00
-0.4317374067250E+00 -0.3591109472153E+00  0.0000000000000E+00
-0.4234021634823E+00 -0.2775828424134E+00  0.0000000000000E+00
-0.4160644661923E+00 -0.1958796012112E+00  0.0000000000000E+00
-0.4099315570465E+00 -0.1139942363943E+00  0.0000000000000E+00
-0.4050365272076E+00 -0.3195524706260E-01  0.0000000000000E+00
-0.4013096031137E+00  0.5019762928550E-01  0.0000000000000E+00
-0.3986364271830E+00  0.1324273893569E+00  0.0000000000000E+00
-0.3968927727129E+00  0.2147046483665E+00  0.0000000000000E+00
-0.3959612719311E+00  0.2970077578713E+00  0.0000000000000E+00
-0.4529978651745E+00 -0.1177808595865E+01  0.0000000000000E+00
-0.4521441897514E+00 -0.1095250899568E+01  0.0000000000000E+00
-0.4505325041965E+00 -0.1012719054268E+01  0.0000000000000E+00
-0.4480532652313E+00 -0.9302347087123E+00  0.0000000000000E+00
-0.4445905279238E+00 -0.8478272476968E+00  0.0000000000000E+00
-0.4400375585254E+00 -0.7655336743824E+00  0.0000000000000E+00
-0.4343292350556E+00 -0.6833937257696E+00  0.0000000000000E+00
-0.4274964426286E+00 -0.6014359000561E+00  0.0000000000000E+00
-0.4197326073215E+00 -0.5196532090030E+00  0.0000000000000E+00
-0.4114302461080E+00 -0.4379818557497E+00  0.0000000000000E+00
-0.4031278848169E+00 -0.3563105025045E+00  0.0000000000000E+00
-0.3953640492856E+00 -0.2745278114734E+00  0.0000000000000E+00
-0.3885312565098E+00 -0.1925699857899E+00  0.0000000000000E+00
-0.3828229325947E+00 -0.1104300372093E+00  0.0000000000000E+00
-0.3782699626817E+00 -0.2813646392457E-01  0.0000000000000E+00
-0.3748072248130E+00  0.5427099706610E-01  0.0000000000000E+00
-0.3723279852565E+00  0.1367553426026E+00  0.0000000000000E+00
-0.3707162990926E+00  0.2192871878897E+00  0.0000000000000E+00
-0.3698626230510E+00  0.3018448841793E+00  0.0000000000000E+00
-0.4206545565374E+00 -0.1177570794880E+01  0.0000000000000E+00
-0.4198755400873E+00 -0.1094775297949E+01  0.0000000000000E+00
-0.4183926570604E+00 -0.1012005652488E+01  0.0000000000000E+00
-0.4161041886816E+00 -0.9292835075316E+00  0.0000000000000E+00
-0.4129024717991E+00 -0.8466382478836E+00  0.0000000000000E+00
-0.4086883965102E+00 -0.7641068765812E+00  0.0000000000000E+00
-0.4034014924306E+00 -0.6817291301575E+00  0.0000000000000E+00
-0.3970704386426E+00 -0.5995335059625E+00  0.0000000000000E+00
-0.3898748451289E+00 -0.5175130147949E+00  0.0000000000000E+00
-0.3821791919351E+00 -0.4356038597868E+00  0.0000000000000E+00
-0.3744835386638E+00 -0.3536947047861E+00  0.0000000000000E+00
-0.3672879449259E+00 -0.2716742136390E+00  0.0000000000000E+00
-0.3609568907891E+00 -0.1894785894719E+00  0.0000000000000E+00
-0.3556699862643E+00 -0.1071008430780E+00  0.0000000000000E+00
-0.3514559104608E+00 -0.2456947180318E-01  0.0000000000000E+00
-0.3482541930169E+00  0.5807578782172E-01  0.0000000000000E+00
-0.3459657240469E+00  0.1407979327608E+00  0.0000000000000E+00
-0.3444828404110E+00  0.2235675782092E+00  0.0000000000000E+00
-0.3437038233424E+00  0.3063630751341E+00  0.0000000000000E+00
-0.3883082762411E+00 -0.1177349938204E+01  0.0000000000000E+00
-0.3876009471235E+00 -0.1094333584921E+01  0.0000000000000E+00
-0.3862438950063E+00 -0.1011343083549E+01  0.0000000000000E+00
-0.3841432256237E+00 -0.9284000833865E+00  0.0000000000000E+00
-0.3811995576068E+00 -0.8455339692466E+00  0.0000000000000E+00
-0.3773214048994E+00 -0.7627817440508E+00  0.0000000000000E+00
-0.3724529487092E+00 -0.6801831438981E+00  0.0000000000000E+00
-0.3666206620752E+00 -0.5977666653515E+00  0.0000000000000E+00
-0.3599903388695E+00 -0.5155253183156E+00  0.0000000000000E+00
-0.3528984222012E+00 -0.4333953059157E+00  0.0000000000000E+00
-0.3458065054554E+00 -0.3512652935227E+00  0.0000000000000E+00
-0.3391761820256E+00 -0.2690239465056E+00  0.0000000000000E+00
-0.3333438950428E+00 -0.1866074679848E+00  0.0000000000000E+00
-0.3284754384073E+00 -0.1040088678596E+00  0.0000000000000E+00
-0.3245972851854E+00 -0.2125664268932E-01  0.0000000000000E+00
-0.3216536166071E+00  0.6160947142931E-01  0.0000000000000E+00
-0.3195529466334E+00  0.1445524715757E+00  0.0000000000000E+00
-0.3181958939071E+00  0.2275429729362E+00  0.0000000000000E+00
-0.3174885641708E+00  0.3105593262131E+00  0.0000000000000E+00
-0.3559592285778E+00 -0.1177146175326E+01  0.0000000000000E+00
-0.3553208194146E+00 -0.1093926059465E+01  0.0000000000000E+00
-0.3540868308174E+00 -0.1010731795922E+01  0.0000000000000E+00
-0.3521711930307E+00 -0.9275850342389E+00  0.0000000000000E+00
-0.3494828064657E+00 -0.8445151592370E+00  0.0000000000000E+00
-0.3459378089090E+00 -0.7615591737315E+00  0.0000000000000E+00
-0.3414850331533E+00 -0.6787568134207E+00  0.0000000000000E+00
-0.3361487461853E+00 -0.5961365741418E+00  0.0000000000000E+00
-0.3300809257594E+00 -0.5136914649741E+00  0.0000000000000E+00
-0.3235899780573E+00 -0.4313576890368E+00  0.0000000000000E+00
-0.3170990302776E+00 -0.3490239131059E+00  0.0000000000000E+00
-0.3110312096275E+00 -0.2665788039555E+00  0.0000000000000E+00
-0.3056949223106E+00 -0.1839585647001E+00  0.0000000000000E+00
-0.3012421461097E+00 -0.1011562044146E+00  0.0000000000000E+00
-0.2976971480385E+00 -0.1820021893247E-01  0.0000000000000E+00
-0.2950087609122E+00  0.6486965604994E-01  0.0000000000000E+00
-0.2930931225343E+00  0.1480164177185E+00  0.0000000000000E+00
-0.2918591333281E+00  0.2312106812512E+00  0.0000000000000E+00
-0.2912207235462E+00  0.3144307971066E+00  0.0000000000000E+00
-0.3236076203727E+00 -0.1176959645432E+01  0.0000000000000E+00
-0.3230355706320E+00 -0.1093552999950E+01  0.0000000000000E+00
-0.3219220850352E+00 -0.1010172207159E+01  0.0000000000000E+00
-0.3201889183408E+00 -0.9268389168223E+00  0.0000000000000E+00
-0.3177532527416E+00 -0.8435825137707E+00  0.0000000000000E+00
-0.3145388498667E+00 -0.7604400007212E+00  0.0000000000000E+00
-0.3104991940892E+00 -0.6774511130053E+00  0.0000000000000E+00
-0.3056563463339E+00 -0.5946443457954E+00  0.0000000000000E+00
-0.3001484682258E+00 -0.5120127074157E+00  0.0000000000000E+00
-0.2942559290150E+00 -0.4294924009797E+00  0.0000000000000E+00
-0.2883633897267E+00 -0.3469720945496E+00  0.0000000000000E+00
-0.2828555113944E+00 -0.2643404561856E+00  0.0000000000000E+00
-0.2780126632903E+00 -0.1815336889972E+00  0.0000000000000E+00
-0.2739730070675E+00 -0.9854480130419E-01  0.0000000000000E+00
-0.2707586036781E+00 -0.1540228827586E-01  0.0000000000000E+00
-0.2683229375175E+00  0.6785411475801E-01  0.0000000000000E+00
-0.2665897702320E+00  0.1511874050807E+00  0.0000000000000E+00
-0.2654762840261E+00  0.2345681978628E+00  0.0000000000000E+00
-0.2649042336669E+00  0.3179748433392E+00  0.0000000000000E+00
-0.2912536660710E+00 -0.1176790477710E+01  0.0000000000000E+00
-0.2907456296570E+00 -0.1093214664755E+01  0.0000000000000E+00
-0.2897503009658E+00 -0.1009664704829E+01  0.0000000000000E+00
-0.2881972592727E+00 -0.9261622478972E+00  0.0000000000000E+00
-0.2860119685514E+00 -0.8427366787975E+00  0.0000000000000E+00
-0.2831258142719E+00 -0.7594250001585E+00  0.0000000000000E+00
-0.2794969323826E+00 -0.6762669469790E+00  0.0000000000000E+00
-0.2751451777386E+00 -0.5932910138288E+00  0.0000000000000E+00
-0.2701948958265E+00 -0.5104902083470E+00  0.0000000000000E+00
-0.2648984189668E+00 -0.4278007336419E+00  0.0000000000000E+00
-0.2596019420296E+00 -0.3451112589420E+00  0.0000000000000E+00
-0.2546516598934E+00 -0.2623104534743E+00  0.0000000000000E+00
-0.2502999049005E+00 -0.1793345203434E+00  0.0000000000000E+00
-0.2466710225660E+00 -0.9617646718464E-01  0.0000000000000E+00
-0.2437848677719E+00 -0.1286478856466E-01  0.0000000000000E+00
-0.2415995764893E+00  0.7056078051910E-01  0.0000000000000E+00
-0.2400465342051E+00  0.1540632374383E+00  0.0000000000000E+00
-0.2390512049048E+00  0.2376131973566E+00  0.0000000000000E+00
-0.2385431678721E+00  0.3211890103064E+00  0.0000000000000E+00
-0.2588975848758E+00 -0.1176638790520E+01  0.0000000000000E+00
-0.2584514348923E+00 -0.1092911290598E+01  0.0000000000000E+00
-0.2575721362084E+00 -0.1009209644008E+01  0.0000000000000E+00
-0.2561970926179E+00 -0.9255555008964E+00  0.0000000000000E+00
-0.2542600498742E+00 -0.8419782461075E+00  0.0000000000000E+00
-0.2517000172863E+00 -0.7585148821905E+00  0.0000000000000E+00
-0.2484797823734E+00 -0.6752051438462E+00  0.0000000000000E+00
-0.2446169939132E+00 -0.5920775251035E+00  0.0000000000000E+00
-0.2402221812472E+00 -0.5091250329875E+00  0.0000000000000E+00
-0.2355196397695E+00 -0.4262838706018E+00  0.0000000000000E+00
-0.2308170982141E+00 -0.3434427082208E+00  0.0000000000000E+00
-0.2264222853240E+00 -0.2604902161173E+00  0.0000000000000E+00
-0.2225594965150E+00 -0.1773625973918E+00  0.0000000000000E+00
-0.2193392611568E+00 -0.9405285906584E-01  0.0000000000000E+00
-0.2167792280544E+00 -0.1058949516580E-01  0.0000000000000E+00
-0.2148421847494E+00  0.7298775960893E-01  0.0000000000000E+00
-0.2134671405677E+00  0.1566419027092E+00  0.0000000000000E+00
-0.2125878412748E+00  0.2403435492926E+00  0.0000000000000E+00
-0.2121416906726E+00  0.3240710492098E+00  0.0000000000000E+00
-0.2265396002550E+00 -0.1176504690970E+01  0.0000000000000E+00
-0.2261534332785E+00 -0.1092643091695E+01  0.0000000000000E+00
-0.2253882611815E+00 -0.1008807346019E+01  0.0000000000000E+00
-0.2241893122779E+00 -0.9250191042510E+00  0.0000000000000E+00
-0.2224986141016E+00 -0.8413077512389E+00  0.0000000000000E+00
-0.2202627997988E+00 -0.7577102894623E+00  0.0000000000000E+00
-0.2174493084560E+00 -0.6742664533583E+00  0.0000000000000E+00
-0.2140735827668E+00 -0.5910047364781E+00  0.0000000000000E+00
-0.2102323359199E+00 -0.5079181453036E+00  0.0000000000000E+00
-0.2061218263833E+00 -0.4249428829342E+00  0.0000000000000E+00
-0.2020113167692E+00 -0.3419676205689E+00  0.0000000000000E+00
-0.1981700696982E+00 -0.2588810294053E+00  0.0000000000000E+00
-0.1947943436601E+00 -0.1756193125402E+00  0.0000000000000E+00
-0.1919808518720E+00 -0.9217547645228E-01  0.0000000000000E+00
-0.1897450370548E+00 -0.8578014690528E-02  0.0000000000000E+00
-0.1880543383171E+00  0.7513333830921E-01  0.0000000000000E+00
-0.1868553888224E+00  0.1589215800678E+00  0.0000000000000E+00
-0.1860902161163E+00  0.2427573257374E+00  0.0000000000000E+00
-0.1857040485211E+00  0.3266189250080E+00  0.0000000000000E+00
-0.1941799400497E+00 -0.1176388274585E+01  0.0000000000000E+00
-0.1938520805015E+00 -0.1092410259098E+01  0.0000000000000E+00
-0.1931993594199E+00 -0.1008458097441E+01  0.0000000000000E+00
-0.1921748296420E+00 -0.9245534400649E+00  0.0000000000000E+00
-0.1907288004820E+00 -0.8407256718208E+00  0.0000000000000E+00
-0.1888155289237E+00 -0.7570117951279E+00  0.0000000000000E+00
-0.1864071056176E+00 -0.6734515441946E+00  0.0000000000000E+00
-0.1835167671670E+00 -0.5900734121569E+00  0.0000000000000E+00
-0.1802274106004E+00 -0.5068704050253E+00  0.0000000000000E+00
-0.1767072574573E+00 -0.4237787258958E+00  0.0000000000000E+00
-0.1731871042367E+00 -0.3406870467698E+00  0.0000000000000E+00
-0.1698977474458E+00 -0.2574840396476E+00  0.0000000000000E+00
-0.1670074086464E+00 -0.1741059076228E+00  0.0000000000000E+00
-0.1645989848950E+00 -0.9054565670324E-01  0.0000000000000E+00
-0.1626857128222E+00 -0.6831780023127E-02  0.0000000000000E+00
-0.1612396831009E+00  0.7699598821036E-01  0.0000000000000E+00
-0.1602151527318E+00  0.1609006455788E+00  0.0000000000000E+00
-0.1595624310412E+00  0.2448528072298E+00  0.0000000000000E+00
-0.1592345708744E+00  0.3288308227139E+00  0.0000000000000E+00
-0.1618188366807E+00 -0.1176289624985E+01  0.0000000000000E+00
-0.1615478413963E+00 -0.1092212960043E+01  0.0000000000000E+00
-0.1610061281651E+00 -0.1008162149129E+01  0.0000000000000E+00
-0.1601545743482E+00 -0.9241588428095E+00  0.0000000000000E+00
-0.1589517710402E+00 -0.8402324259419E+00  0.0000000000000E+00
-0.1573595990610E+00 -0.7564199008932E+00  0.0000000000000E+00
-0.1553548006218E+00 -0.6727610016777E+00  0.0000000000000E+00
-0.1529484062311E+00 -0.5892842210799E+00  0.0000000000000E+00
-0.1502094967515E+00 -0.5059825647107E+00  0.0000000000000E+00
-0.1472782567965E+00 -0.4227922356629E+00  0.0000000000000E+00
-0.1443470167639E+00 -0.3396019066179E+00  0.0000000000000E+00
-0.1416081070601E+00 -0.2563002502565E+00  0.0000000000000E+00
-0.1392017123206E+00 -0.1728234696695E+00  0.0000000000000E+00
-0.1371969134361E+00 -0.8916457046546E-01  0.0000000000000E+00
-0.1356047409424E+00 -0.5352045427417E-02  0.0000000000000E+00
-0.1344019370731E+00  0.7857437143128E-01  0.0000000000000E+00
-0.1335503826650E+00  0.1625776777437E+00  0.0000000000000E+00
-0.1330086688247E+00  0.2466284886535E+00  0.0000000000000E+00
-0.1327376729217E+00  0.3307051535930E+00  0.0000000000000E+00
-0.1294565253983E+00 -0.1176208813448E+01  0.0000000000000E+00
-0.1292411864641E+00 -0.1092051337089E+01  0.0000000000000E+00
-0.1288092731701E+00 -0.1007919714918E+01  0.0000000000000E+00
-0.1281294874025E+00 -0.9238355976011E+00  0.0000000000000E+00
-0.1271687020359E+00 -0.8398283699972E+00  0.0000000000000E+00
-0.1258964217254E+00 -0.7559350344316E+00  0.0000000000000E+00
-0.1242940402406E+00 -0.6721953247595E+00  0.0000000000000E+00
-0.1223703819904E+00 -0.5886377334774E+00  0.0000000000000E+00
-0.1201807116679E+00 -0.5052552658689E+00  0.0000000000000E+00
-0.1178371769611E+00 -0.4219841250242E+00  0.0000000000000E+00
-0.1154936421767E+00 -0.3387129841817E+00  0.0000000000000E+00
-0.1133039716300E+00 -0.2553305165795E+00  0.0000000000000E+00
-0.1113803130311E+00 -0.1717729253060E+00  0.0000000000000E+00
-0.1097779311010E+00 -0.8803321564312E-01  0.0000000000000E+00
-0.1085056502760E+00 -0.4139880085961E-02  0.0000000000000E+00
-0.1075448643481E+00  0.7986734751083E-01  0.0000000000000E+00
-0.1068650779893E+00  0.1639514648225E+00  0.0000000000000E+00
-0.1064331640861E+00  0.2480830869894E+00  0.0000000000000E+00
-0.1062178245334E+00  0.3322405633470E+00  0.0000000000000E+00
-0.9709324430840E-01 -0.1176145898689E+01  0.0000000000000E+00
-0.9693259191755E-01 -0.1091925507662E+01  0.0000000000000E+00
-0.9660950875430E-01 -0.1007730970950E+01  0.0000000000000E+00
-0.9610052123146E-01 -0.9235839392927E+00  0.0000000000000E+00
-0.9538078400334E-01 -0.8395137975525E+00  0.0000000000000E+00
-0.9442742555954E-01 -0.7555575480213E+00  0.0000000000000E+00
-0.9322649122599E-01 -0.6717549244308E+00  0.0000000000000E+00
-0.9178459930891E-01 -0.5881344190532E+00  0.0000000000000E+00
-0.9014319832780E-01 -0.5046890369170E+00  0.0000000000000E+00
-0.8838639904588E-01 -0.4213549811103E+00  0.0000000000000E+00
-0.8662959968642E-01 -0.3380209253053E+00  0.0000000000000E+00
-0.8498819848112E-01 -0.2545755431738E+00  0.0000000000000E+00
-0.8354630621523E-01 -0.1709550378026E+00  0.0000000000000E+00
-0.8234537143641E-01 -0.8715241421902E-01  0.0000000000000E+00
-0.8139201247807E-01 -0.3196164694228E-02  0.0000000000000E+00
-0.8067227468865E-01  0.8087397704071E-01  0.0000000000000E+00
-0.8016328657462E-01  0.1650210086939E+00  0.0000000000000E+00
-0.7984020280232E-01  0.2492155454030E+00  0.0000000000000E+00
-0.7967954979286E-01  0.3334359364282E+00  0.0000000000000E+00
-0.6472923382140E-01 -0.1176100926619E+01  0.0000000000000E+00
-0.6462253857726E-01 -0.1091835563588E+01  0.0000000000000E+00
-0.6440755614920E-01 -0.1007596054963E+01  0.0000000000000E+00
-0.6406863747714E-01 -0.9234040515362E+00  0.0000000000000E+00
-0.6358921899517E-01 -0.8392889381722E+00  0.0000000000000E+00
-0.6295405302690E-01 -0.7552877171396E+00  0.0000000000000E+00
-0.6215383645313E-01 -0.6714401220813E+00  0.0000000000000E+00
-0.6119298147473E-01 -0.5877746451094E+00  0.0000000000000E+00
-0.6009912043493E-01 -0.5042842910700E+00  0.0000000000000E+00
-0.5892832717247E-01 -0.4209052630496E+00  0.0000000000000E+00
-0.5775753383247E-01 -0.3375262350304E+00  0.0000000000000E+00
-0.5666367256850E-01 -0.2540358809941E+00  0.0000000000000E+00
-0.5570281724129E-01 -0.1703704040265E+00  0.0000000000000E+00
-0.5490260022224E-01 -0.8652280897287E-01  0.0000000000000E+00
-0.5426743373944E-01 -0.2521587944447E-02  0.0000000000000E+00
-0.5378801469616E-01  0.8159352541603E-01  0.0000000000000E+00
-0.5344909543291E-01  0.1657855288401E+00  0.0000000000000E+00
-0.5323411239580E-01  0.2500250374636E+00  0.0000000000000E+00
-0.5312741653305E-01  0.3342904004928E+00  0.0000000000000E+00
-0.3236473608673E-01 -0.1176073930167E+01  0.0000000000000E+00
-0.3231151074225E-01 -0.1091781570725E+01  0.0000000000000E+00
-0.3220414180319E-01 -0.1007515065743E+01  0.0000000000000E+00
-0.3203480473717E-01 -0.9232960660450E+00  0.0000000000000E+00
-0.3179521775803E-01 -0.8391539564979E+00  0.0000000000000E+00
-0.3147775702315E-01 -0.7551257393558E+00  0.0000000000000E+00
-0.3107777096723E-01 -0.6712511482086E+00  0.0000000000000E+00
-0.3059746568405E-01 -0.5875586750717E+00  0.0000000000000E+00
-0.3005065733864E-01 -0.5040413246819E+00  0.0000000000000E+00
-0.2946538284527E-01 -0.4206353001246E+00  0.0000000000000E+00
-0.2888010827436E-01 -0.3372292755679E+00  0.0000000000000E+00
-0.2833329970477E-01 -0.2537119251797E+00  0.0000000000000E+00
-0.2785299407277E-01 -0.1700194520450E+00  0.0000000000000E+00
-0.2745300757158E-01 -0.8614486090003E-01  0.0000000000000E+00
-0.2713554632216E-01 -0.2116643760018E-02  0.0000000000000E+00
-0.2689595878172E-01  0.8202546578529E-01  0.0000000000000E+00
-0.2672662112451E-01  0.1662444654814E+00  0.0000000000000E+00
-0.2661925157640E-01  0.2505109704632E+00  0.0000000000000E+00
-0.2656602561332E-01  0.3348033299045E+00  0.0000000000000E+00
 0.5582238603101E-08 -0.1176064929145E+01  0.0000000000000E+00
 0.4960748769495E-08 -0.1091763568694E+01  0.0000000000000E+00
 0.4343732432866E-08 -0.1007488062721E+01  0.0000000000000E+00
 0.3735549954647E-08 -0.9232600620628E+00  0.0000000000000E+00
 0.3142548509650E-08 -0.8391089515842E+00  0.0000000000000E+00
 0.2573668596438E-08 -0.7550717335353E+00  0.0000000000000E+00
 0.2040772407577E-08 -0.6711881414885E+00  0.0000000000000E+00
 0.1558046544304E-08 -0.5874866674269E+00  0.0000000000000E+00
 0.1139719687470E-08 -0.5039603160504E+00  0.0000000000000E+00
 0.7961283098685E-09 -0.4205452904441E+00  0.0000000000000E+00
 0.5300797238991E-09 -0.3371302648377E+00  0.0000000000000E+00
 0.3359349566239E-09 -0.2536039134613E+00  0.0000000000000E+00
 0.2020188105716E-09 -0.1699024393997E+00  0.0000000000000E+00
 0.1143966199395E-09 -0.8601884735283E-01  0.0000000000000E+00
 0.6005099690279E-10 -0.1981629303997E-02  0.0000000000000E+00
 0.2835452662725E-10  0.8216948117463E-01  0.0000000000000E+00
 0.1136281835831E-10  0.1663974818332E+00  0.0000000000000E+00
 0.3398426023553E-11  0.2506729878062E+00  0.0000000000000E+00
 0.5133240929992E-12  0.3349743482567E+00  0.0000000000000E+00
 0.3236474725121E-01 -0.1176073930165E+01  0.0000000000000E+00
 0.3231152066375E-01 -0.1091781570722E+01  0.0000000000000E+00
 0.3220415049066E-01 -0.1007515065739E+01  0.0000000000000E+00
 0.3203481220827E-01 -0.9232960660417E+00  0.0000000000000E+00
 0.3179522404313E-01 -0.8391539564960E+00  0.0000000000000E+00
 0.3147776217049E-01 -0.7551257393562E+00  0.0000000000000E+00
 0.3107777504878E-01 -0.6712511482121E+00  0.0000000000000E+00
 0.3059746880014E-01 -0.5875586750789E+00  0.0000000000000E+00
 0.3005065961808E-01 -0.5040413246926E+00  0.0000000000000E+00
 0.2946538443753E-01 -0.4206353001381E+00  0.0000000000000E+00
 0.2888010933452E-01 -0.3372292755830E+00  0.0000000000000E+00
 0.2833330037664E-01 -0.2537119251951E+00  0.0000000000000E+00
 0.2785299447681E-01 -0.1700194520597E+00  0.0000000000000E+00
 0.2745300780037E-01 -0.8614486091335E-01  0.0000000000000E+00
 0.2713554644227E-01 -0.2116643771438E-02  0.0000000000000E+00
 0.2689595883843E-01  0.8202546577601E-01  0.0000000000000E+00
 0.2672662114723E-01  0.1662444654744E+00  0.0000000000000E+00
 0.2661925158320E-01  0.2505109704585E+00  0.0000000000000E+00
 0.2656602561434E-01  0.3348033299022E+00  0.0000000000000E+00
 0.6472924498588E-01 -0.1176100926615E+01  0.0000000000000E+00
 0.6462254849876E-01 -0.1091835563582E+01  0.0000000000000E+00
 0.6440756483667E-01 -0.1007596054955E+01  0.0000000000000E+00
 0.6406864494824E-01 -0.9234040515296E+00  0.0000000000000E+00
 0.6358922528027E-01 -0.8392889381684E+00  0.0000000000000E+00
 0.6295405817423E-01 -0.7552877171404E+00  0.0000000000000E+00
 0.6215384053467E-01 -0.6714401220885E+00  0.0000000000000E+00
 0.6119298459082E-01 -0.5877746451237E+00  0.0000000000000E+00
 0.6009912271437E-01 -0.5042842910913E+00  0.0000000000000E+00
 0.5892832876473E-01 -0.4209052630765E+00  0.0000000000000E+00
 0.5775753489263E-01 -0.3375262350606E+00  0.0000000000000E+00
 0.5666367324036E-01 -0.2540358810250E+00  0.0000000000000E+00
 0.5570281764532E-01 -0.1703704040560E+00  0.0000000000000E+00
 0.5490260045104E-01 -0.8652280899949E-01  0.0000000000000E+00
 0.5426743385954E-01 -0.2521587967286E-02  0.0000000000000E+00
 0.5378801475287E-01  0.8159352539748E-01  0.0000000000000E+00
 0.5344909545563E-01  0.1657855288261E+00  0.0000000000000E+00
 0.5323411240259E-01  0.2500250374542E+00  0.0000000000000E+00
 0.5312741653408E-01  0.3342904004881E+00  0.0000000000000E+00
 0.9709325547288E-01 -0.1176145898683E+01  0.0000000000000E+00
 0.9693260183905E-01 -0.1091925507652E+01  0.0000000000000E+00
 0.9660951744177E-01 -0.1007730970939E+01  0.0000000000000E+00
 0.9610052870256E-01 -0.9235839392827E+00  0.0000000000000E+00
 0.9538079028844E-01 -0.8395137975467E+00  0.0000000000000E+00
 0.9442743070688E-01 -0.7555575480226E+00  0.0000000000000E+00
 0.9322649530754E-01 -0.6717549244415E+00  0.0000000000000E+00
 0.9178460242501E-01 -0.5881344190747E+00  0.0000000000000E+00
 0.9014320060724E-01 -0.5046890369490E+00  0.0000000000000E+00
 0.8838640063814E-01 -0.4213549811507E+00  0.0000000000000E+00
 0.8662960074658E-01 -0.3380209253506E+00  0.0000000000000E+00
 0.8498819915299E-01 -0.2545755432202E+00  0.0000000000000E+00
 0.8354630661927E-01 -0.1709550378469E+00  0.0000000000000E+00
 0.8234537166520E-01 -0.8715241425896E-01  0.0000000000000E+00
 0.8139201259817E-01 -0.3196164728487E-02  0.0000000000000E+00
 0.8067227474536E-01  0.8087397701289E-01  0.0000000000000E+00
 0.8016328659734E-01  0.1650210086728E+00  0.0000000000000E+00
 0.7984020280912E-01  0.2492155453889E+00  0.0000000000000E+00
 0.7967954979389E-01  0.3334359364211E+00  0.0000000000000E+00
 0.1294565365627E+00 -0.1176208813440E+01  0.0000000000000E+00
 0.1292411963856E+00 -0.1092051337076E+01  0.0000000000000E+00
 0.1288092818575E+00 -0.1007919714903E+01  0.0000000000000E+00
 0.1281294948736E+00 -0.9238355975878E+00  0.0000000000000E+00
 0.1271687083210E+00 -0.8398283699895E+00  0.0000000000000E+00
 0.1258964268727E+00 -0.7559350344332E+00  0.0000000000000E+00
 0.1242940443221E+00 -0.6721953247737E+00  0.0000000000000E+00
 0.1223703851065E+00 -0.5886377335061E+00  0.0000000000000E+00
 0.1201807139474E+00 -0.5052552659116E+00  0.0000000000000E+00
 0.1178371785533E+00 -0.4219841250780E+00  0.0000000000000E+00
 0.1154936432368E+00 -0.3387129842421E+00  0.0000000000000E+00
 0.1133039723019E+00 -0.2553305166413E+00  0.0000000000000E+00
 0.1113803134351E+00 -0.1717729253651E+00  0.0000000000000E+00
 0.1097779313298E+00 -0.8803321569638E-01  0.0000000000000E+00
 0.1085056503961E+00 -0.4139880131640E-02  0.0000000000000E+00
 0.1075448644048E+00  0.7986734747374E-01  0.0000000000000E+00
 0.1068650780120E+00  0.1639514647945E+00  0.0000000000000E+00
 0.1064331640929E+00  0.2480830869706E+00  0.0000000000000E+00
 0.1062178245344E+00  0.3322405633376E+00  0.0000000000000E+00
 0.1618188478452E+00 -0.1176289624975E+01  0.0000000000000E+00
 0.1615478513178E+00 -0.1092212960027E+01  0.0000000000000E+00
 0.1610061368526E+00 -0.1008162149110E+01  0.0000000000000E+00
 0.1601545818193E+00 -0.9241588427928E+00  0.0000000000000E+00
 0.1589517773253E+00 -0.8402324259322E+00  0.0000000000000E+00
 0.1573596042083E+00 -0.7564199008953E+00  0.0000000000000E+00
 0.1553548047034E+00 -0.6727610016955E+00  0.0000000000000E+00
 0.1529484093472E+00 -0.5892842211157E+00  0.0000000000000E+00
 0.1502094990309E+00 -0.5059825647640E+00  0.0000000000000E+00
 0.1472782583887E+00 -0.4227922357302E+00  0.0000000000000E+00
 0.1443470178240E+00 -0.3396019066934E+00  0.0000000000000E+00
 0.1416081077320E+00 -0.2563002503338E+00  0.0000000000000E+00
 0.1392017127246E+00 -0.1728234697433E+00  0.0000000000000E+00
 0.1371969136649E+00 -0.8916457053203E-01  0.0000000000000E+00
 0.1356047410625E+00 -0.5352045484516E-02  0.0000000000000E+00
 0.1344019371298E+00  0.7857437138492E-01  0.0000000000000E+00
 0.1335503826877E+00  0.1625776777087E+00  0.0000000000000E+00
 0.1330086688315E+00  0.2466284886301E+00  0.0000000000000E+00
 0.1327376729228E+00  0.3307051535812E+00  0.0000000000000E+00
 0.1941799512142E+00 -0.1176388274573E+01  0.0000000000000E+00
 0.1938520904230E+00 -0.1092410259078E+01  0.0000000000000E+00
 0.1931993681074E+00 -0.1008458097419E+01  0.0000000000000E+00
 0.1921748371131E+00 -0.9245534400449E+00  0.0000000000000E+00
 0.1907288067671E+00 -0.8407256718092E+00  0.0000000000000E+00
 0.1888155340711E+00 -0.7570117951304E+00  0.0000000000000E+00
 0.1864071096991E+00 -0.6734515442159E+00  0.0000000000000E+00
 0.1835167702831E+00 -0.5900734121999E+00  0.0000000000000E+00
 0.1802274128798E+00 -0.5068704050893E+00  0.0000000000000E+00
 0.1767072590495E+00 -0.4237787259765E+00  0.0000000000000E+00
 0.1731871052968E+00 -0.3406870468603E+00  0.0000000000000E+00
 0.1698977481177E+00 -0.2574840397403E+00  0.0000000000000E+00
 0.1670074090505E+00 -0.1741059077114E+00  0.0000000000000E+00
 0.1645989851238E+00 -0.9054565678312E-01  0.0000000000000E+00
 0.1626857129423E+00 -0.6831780091645E-02  0.0000000000000E+00
 0.1612396831576E+00  0.7699598815473E-01  0.0000000000000E+00
 0.1602151527545E+00  0.1609006455368E+00  0.0000000000000E+00
 0.1595624310480E+00  0.2448528072017E+00  0.0000000000000E+00
 0.1592345708754E+00  0.3288308226998E+00  0.0000000000000E+00
 0.2265396114195E+00 -0.1176504690955E+01  0.0000000000000E+00
 0.2261534432000E+00 -0.1092643091672E+01  0.0000000000000E+00
 0.2253882698689E+00 -0.1008807345993E+01  0.0000000000000E+00
 0.2241893197490E+00 -0.9250191042277E+00  0.0000000000000E+00
 0.2224986203867E+00 -0.8413077512254E+00  0.0000000000000E+00
 0.2202628049462E+00 -0.7577102894652E+00  0.0000000000000E+00
 0.2174493125376E+00 -0.6742664533833E+00  0.0000000000000E+00
 0.2140735858829E+00 -0.5910047365283E+00  0.0000000000000E+00
 0.2102323381994E+00 -0.5079181453782E+00  0.0000000000000E+00
 0.2061218279756E+00 -0.4249428830284E+00  0.0000000000000E+00
 0.2020113178294E+00 -0.3419676206746E+00  0.0000000000000E+00
 0.1981700703700E+00 -0.2588810295135E+00  0.0000000000000E+00
 0.1947943440642E+00 -0.1756193126435E+00  0.0000000000000E+00
 0.1919808521008E+00 -0.9217547654548E-01  0.0000000000000E+00
 0.1897450371749E+00 -0.8578014770466E-02  0.0000000000000E+00
 0.1880543383738E+00  0.7513333824430E-01  0.0000000000000E+00
 0.1868553888451E+00  0.1589215800187E+00  0.0000000000000E+00
 0.1860902161231E+00  0.2427573257046E+00  0.0000000000000E+00
 0.1857040485222E+00  0.3266189249916E+00  0.0000000000000E+00
 0.2588975960403E+00 -0.1176638790504E+01  0.0000000000000E+00
 0.2584514448138E+00 -0.1092911290572E+01  0.0000000000000E+00
 0.2575721448959E+00 -0.1009209643977E+01  0.0000000000000E+00
 0.2561971000890E+00 -0.9255555008698E+00  0.0000000000000E+00
 0.2542600561593E+00 -0.8419782460920E+00  0.0000000000000E+00
 0.2517000224336E+00 -0.7585148821938E+00  0.0000000000000E+00
 0.2484797864549E+00 -0.6752051438747E+00  0.0000000000000E+00
 0.2446169970293E+00 -0.5920775251608E+00  0.0000000000000E+00
 0.2402221835267E+00 -0.5091250330728E+00  0.0000000000000E+00
 0.2355196413617E+00 -0.4262838707095E+00  0.0000000000000E+00
 0.2308170992743E+00 -0.3434427083415E+00  0.0000000000000E+00
 0.2264222859959E+00 -0.2604902162409E+00  0.0000000000000E+00
 0.2225594969190E+00 -0.1773625975099E+00  0.0000000000000E+00
 0.2193392613856E+00 -0.9405285917235E-01  0.0000000000000E+00
 0.2167792281745E+00 -0.1058949525716E-01  0.0000000000000E+00
 0.2148421848061E+00  0.7298775953475E-01  0.0000000000000E+00
 0.2134671405904E+00  0.1566419026531E+00  0.0000000000000E+00
 0.2125878412816E+00  0.2403435492551E+00  0.0000000000000E+00
 0.2121416906736E+00  0.3240710491911E+00  0.0000000000000E+00
 0.2912536772355E+00 -0.1176790477692E+01  0.0000000000000E+00
 0.2907456395785E+00 -0.1093214664726E+01  0.0000000000000E+00
 0.2897503096532E+00 -0.1009664704795E+01  0.0000000000000E+00
 0.2881972667438E+00 -0.9261622478673E+00  0.0000000000000E+00
 0.2860119748365E+00 -0.8427366787801E+00  0.0000000000000E+00
 0.2831258194192E+00 -0.7594250001622E+00  0.0000000000000E+00
 0.2794969364642E+00 -0.6762669470111E+00  0.0000000000000E+00
 0.2751451808547E+00 -0.5932910138932E+00  0.0000000000000E+00
 0.2701948981060E+00 -0.5104902084429E+00  0.0000000000000E+00
 0.2648984205591E+00 -0.4278007337630E+00  0.0000000000000E+00
 0.2596019430898E+00 -0.3451112590778E+00  0.0000000000000E+00
 0.2546516605652E+00 -0.2623104536134E+00  0.0000000000000E+00
 0.2502999053046E+00 -0.1793345204763E+00  0.0000000000000E+00
 0.2466710227948E+00 -0.9617646730447E-01  0.0000000000000E+00
 0.2437848678920E+00 -0.1286478866744E-01  0.0000000000000E+00
 0.2415995765460E+00  0.7056078043565E-01  0.0000000000000E+00
 0.2400465342278E+00  0.1540632373752E+00  0.0000000000000E+00
 0.2390512049116E+00  0.2376131973144E+00  0.0000000000000E+00
 0.2385431678732E+00  0.3211890102853E+00  0.0000000000000E+00
 0.3236076315371E+00 -0.1176959645411E+01  0.0000000000000E+00
 0.3230355805535E+00 -0.1093552999917E+01  0.0000000000000E+00
 0.3219220937226E+00 -0.1010172207121E+01  0.0000000000000E+00
 0.3201889258119E+00 -0.9268389167890E+00  0.0000000000000E+00
 0.3177532590267E+00 -0.8435825137514E+00  0.0000000000000E+00
 0.3145388550141E+00 -0.7604400007254E+00  0.0000000000000E+00
 0.3104991981707E+00 -0.6774511130409E+00  0.0000000000000E+00
 0.3056563494499E+00 -0.5946443458670E+00  0.0000000000000E+00
 0.3001484705052E+00 -0.5120127075223E+00  0.0000000000000E+00
 0.2942559306073E+00 -0.4294924011143E+00  0.0000000000000E+00
 0.2883633907869E+00 -0.3469720947005E+00  0.0000000000000E+00
 0.2828555120663E+00 -0.2643404563401E+00  0.0000000000000E+00
 0.2780126636944E+00 -0.1815336891448E+00  0.0000000000000E+00
 0.2739730072963E+00 -0.9854480143733E-01  0.0000000000000E+00
 0.2707586037982E+00 -0.1540228839006E-01  0.0000000000000E+00
 0.2683229375742E+00  0.6785411466528E-01  0.0000000000000E+00
 0.2665897702547E+00  0.1511874050106E+00  0.0000000000000E+00
 0.2654762840329E+00  0.2345681978159E+00  0.0000000000000E+00
 0.2649042336679E+00  0.3179748433157E+00  0.0000000000000E+00
 0.3559592397423E+00 -0.1177146175304E+01  0.0000000000000E+00
 0.3553208293361E+00 -0.1093926059429E+01  0.0000000000000E+00
 0.3540868395049E+00 -0.1010731795881E+01  0.0000000000000E+00
 0.3521712005018E+00 -0.9275850342023E+00  0.0000000000000E+00
 0.3494828127508E+00 -0.8445151592157E+00  0.0000000000000E+00
 0.3459378140564E+00 -0.7615591737361E+00  0.0000000000000E+00
 0.3414850372349E+00 -0.6787568134599E+00  0.0000000000000E+00
 0.3361487493013E+00 -0.5961365742205E+00  0.0000000000000E+00
 0.3300809280388E+00 -0.5136914650914E+00  0.0000000000000E+00
 0.3235899796495E+00 -0.4313576891848E+00  0.0000000000000E+00
 0.3170990313377E+00 -0.3490239132719E+00  0.0000000000000E+00
 0.3110312102994E+00 -0.2665788041255E+00  0.0000000000000E+00
 0.3056949227147E+00 -0.1839585648625E+00  0.0000000000000E+00
 0.3012421463385E+00 -0.1011562045611E+00  0.0000000000000E+00
 0.2976971481586E+00 -0.1820021905809E-01  0.0000000000000E+00
 0.2950087609689E+00  0.6486965594795E-01  0.0000000000000E+00
 0.2930931225570E+00  0.1480164176414E+00  0.0000000000000E+00
 0.2918591333349E+00  0.2312106811997E+00  0.0000000000000E+00
 0.2912207235473E+00  0.3144307970808E+00  0.0000000000000E+00
 0.3883082874056E+00 -0.1177349938180E+01  0.0000000000000E+00
 0.3876009570450E+00 -0.1094333584881E+01  0.0000000000000E+00
 0.3862439036937E+00 -0.1011343083504E+01  0.0000000000000E+00
 0.3841432330948E+00 -0.9284000833465E+00  0.0000000000000E+00
 0.3811995638919E+00 -0.8455339692234E+00  0.0000000000000E+00
 0.3773214100467E+00 -0.7627817440558E+00  0.0000000000000E+00
 0.3724529527907E+00 -0.6801831439408E+00  0.0000000000000E+00
 0.3666206651913E+00 -0.5977666654374E+00  0.0000000000000E+00
 0.3599903411489E+00 -0.5155253184436E+00  0.0000000000000E+00
 0.3528984237935E+00 -0.4333953060771E+00  0.0000000000000E+00
 0.3458065065156E+00 -0.3512652937038E+00  0.0000000000000E+00
 0.3391761826974E+00 -0.2690239466911E+00  0.0000000000000E+00
 0.3333438954468E+00 -0.1866074681620E+00  0.0000000000000E+00
 0.3284754386361E+00 -0.1040088680194E+00  0.0000000000000E+00
 0.3245972853055E+00 -0.2125664282636E-01  0.0000000000000E+00
 0.3216536166638E+00  0.6160947131804E-01  0.0000000000000E+00
 0.3195529466561E+00  0.1445524714917E+00  0.0000000000000E+00
 0.3181958939139E+00  0.2275429728799E+00  0.0000000000000E+00
 0.3174885641719E+00  0.3105593261850E+00  0.0000000000000E+00
 0.4206545677019E+00 -0.1177570794854E+01  0.0000000000000E+00
 0.4198755500088E+00 -0.1094775297906E+01  0.0000000000000E+00
 0.4183926657479E+00 -0.1012005652439E+01  0.0000000000000E+00
 0.4161041961527E+00 -0.9292835074883E+00  0.0000000000000E+00
 0.4129024780842E+00 -0.8466382478585E+00  0.0000000000000E+00
 0.4086884016575E+00 -0.7641068765866E+00  0.0000000000000E+00
 0.4034014965121E+00 -0.6817291302038E+00  0.0000000000000E+00
 0.3970704417587E+00 -0.5995335060555E+00  0.0000000000000E+00
 0.3898748474083E+00 -0.5175130149336E+00  0.0000000000000E+00
 0.3821791935274E+00 -0.4356038599617E+00  0.0000000000000E+00
 0.3744835397240E+00 -0.3536947049823E+00  0.0000000000000E+00
 0.3672879455978E+00 -0.2716742138399E+00  0.0000000000000E+00
 0.3609568911932E+00 -0.1894785896638E+00  0.0000000000000E+00
 0.3556699864930E+00 -0.1071008432511E+00  0.0000000000000E+00
 0.3514559105809E+00 -0.2456947195164E-01  0.0000000000000E+00
 0.3482541930737E+00  0.5807578770118E-01  0.0000000000000E+00
 0.3459657240697E+00  0.1407979326698E+00  0.0000000000000E+00
 0.3444828404178E+00  0.2235675781483E+00  0.0000000000000E+00
 0.3437038233434E+00  0.3063630751036E+00  0.0000000000000E+00
 0.4529978763389E+00 -0.1177808595837E+01  0.0000000000000E+00
 0.4521441996729E+00 -0.1095250899522E+01  0.0000000000000E+00
 0.4505325128840E+00 -0.1012719054215E+01  0.0000000000000E+00
 0.4480532727024E+00 -0.9302347086656E+00  0.0000000000000E+00
 0.4445905342089E+00 -0.8478272476697E+00  0.0000000000000E+00
 0.4400375636727E+00 -0.7655336743882E+00  0.0000000000000E+00
 0.4343292391371E+00 -0.6833937258195E+00  0.0000000000000E+00
 0.4274964457447E+00 -0.6014359001563E+00  0.0000000000000E+00
 0.4197326096009E+00 -0.5196532091523E+00  0.0000000000000E+00
 0.4114302477002E+00 -0.4379818559381E+00  0.0000000000000E+00
 0.4031278858770E+00 -0.3563105027157E+00  0.0000000000000E+00
 0.3953640499575E+00 -0.2745278116898E+00  0.0000000000000E+00
 0.3885312569138E+00 -0.1925699859965E+00  0.0000000000000E+00
 0.3828229328235E+00 -0.1104300373957E+00  0.0000000000000E+00
 0.3782699628018E+00 -0.2813646408445E-01  0.0000000000000E+00
 0.3748072248697E+00  0.5427099693629E-01  0.0000000000000E+00
 0.3723279852793E+00  0.1367553425046E+00  0.0000000000000E+00
 0.3707162990994E+00  0.2192871878241E+00  0.0000000000000E+00
 0.3698626230520E+00  0.3018448841465E+00  0.0000000000000E+00
 0.4853380192193E+00 -0.1178063182993E+01  0.0000000000000E+00
 0.4844065178131E+00 -0.1095760073461E+01  0.0000000000000E+00
 0.4826628627181E+00 -0.1013482814431E+01  0.0000000000000E+00
 0.4799896861621E+00 -0.9312530543456E+00  0.0000000000000E+00
 0.4762627614435E+00 -0.8491001779919E+00  0.0000000000000E+00
 0.4713677309814E+00 -0.7670611886636E+00  0.0000000000000E+00
 0.4652348212151E+00 -0.6851758238594E+00  0.0000000000000E+00
 0.4578971233085E+00 -0.6034725826789E+00  0.0000000000000E+00
 0.4495618794533E+00 -0.5219444779061E+00  0.0000000000000E+00
 0.4406496435805E+00 -0.4405277126782E+00  0.0000000000000E+00
 0.4317374077852E+00 -0.3591109474417E+00  0.0000000000000E+00
 0.4234021641542E+00 -0.2775828426453E+00  0.0000000000000E+00
 0.4160644665964E+00 -0.1958796014326E+00  0.0000000000000E+00
 0.4099315572753E+00 -0.1139942365940E+00  0.0000000000000E+00
 0.4050365273277E+00 -0.3195524723390E-01  0.0000000000000E+00
 0.4013096031704E+00  0.5019762914641E-01  0.0000000000000E+00
 0.3986364272057E+00  0.1324273892518E+00  0.0000000000000E+00
 0.3968927727197E+00  0.2147046482963E+00  0.0000000000000E+00
 0.3959612719321E+00  0.2970077578361E+00  0.0000000000000E+00
 0.5176748031315E+00 -0.1178334388446E+01  0.0000000000000E+00
 0.5166621180613E+00 -0.1096302483968E+01  0.0000000000000E+00
 0.5147831357883E+00 -0.1014296429452E+01  0.0000000000000E+00
 0.5119126640487E+00 -0.9323378730163E+00  0.0000000000000E+00
 0.5079181943651E+00 -0.8504561994364E+00  0.0000000000000E+00
 0.5026777453114E+00 -0.7686884121479E+00  0.0000000000000E+00
 0.4961168917201E+00 -0.6870742491826E+00  0.0000000000000E+00
 0.4882709307628E+00 -0.6056422106060E+00  0.0000000000000E+00
 0.4793609206920E+00 -0.5243853102994E+00  0.0000000000000E+00
 0.4698354523520E+00 -0.4432397514078E+00  0.0000000000000E+00
 0.4603099840896E+00 -0.3620941925070E+00  0.0000000000000E+00
 0.4513999742430E+00 -0.2808372921753E+00  0.0000000000000E+00
 0.4435540136345E+00 -0.1994052535644E+00  0.0000000000000E+00
 0.4369931604885E+00 -0.1177910905623E+00  0.0000000000000E+00
 0.4317527119493E+00 -0.3602330323987E-01  0.0000000000000E+00
 0.4277582428270E+00  0.4585837036842E-01  0.0000000000000E+00
 0.4248877716786E+00  0.1278169268257E+00  0.0000000000000E+00
 0.4230087900146E+00  0.2098229813567E+00  0.0000000000000E+00
 0.4219961055631E+00  0.2918548858427E+00  0.0000000000000E+00
 0.5500080506473E+00 -0.1178622037831E+01  0.0000000000000E+00
 0.5489106454817E+00 -0.1096877782317E+01  0.0000000000000E+00
 0.5468927995602E+00 -0.1015159376191E+01  0.0000000000000E+00
 0.5438214961249E+00 -0.9334884672285E+00  0.0000000000000E+00
 0.5395559449161E+00 -0.8518944401928E+00  0.0000000000000E+00
 0.5339665406536E+00 -0.7704142986701E+00  0.0000000000000E+00
 0.5269742065526E+00 -0.6890877812573E+00  0.0000000000000E+00
 0.5186164457815E+00 -0.6079433890446E+00  0.0000000000000E+00
 0.5091281326510E+00 -0.5269741370774E+00  0.0000000000000E+00
 0.4989858949427E+00 -0.4461162285085E+00  0.0000000000000E+00
 0.4888436573119E+00 -0.3652583199297E+00  0.0000000000000E+00
 0.4793553444056E+00 -0.2842890679358E+00  0.0000000000000E+00
 0.4709975839832E+00 -0.2031446756866E+00  0.0000000000000E+00
 0.4640052503276E+00 -0.1218181582348E+00  0.0000000000000E+00
 0.4584158465796E+00 -0.4033801667599E-01  0.0000000000000E+00
 0.4541502959321E+00  0.4125601038982E-01  0.0000000000000E+00
 0.4510789930880E+00  0.1229269193754E+00  0.0000000000000E+00
 0.4490611477755E+00  0.2046453255169E+00  0.0000000000000E+00
 0.4479637432285E+00  0.2863895810401E+00  0.0000000000000E+00
 0.5823375847483E+00 -0.1178925947981E+01  0.0000000000000E+00
 0.5811517460560E+00 -0.1097485602170E+01  0.0000000000000E+00
 0.5789913230366E+00 -0.1016071105142E+01  0.0000000000000E+00
 0.5757154744390E+00 -0.9347041043087E+00  0.0000000000000E+00
 0.5711751282173E+00 -0.8534139844207E+00  0.0000000000000E+00
 0.5652330552321E+00 -0.7722377492231E+00  0.0000000000000E+00
 0.5578055270715E+00 -0.6912151379102E+00  0.0000000000000E+00
 0.5489322528883E+00 -0.6103746526545E+00  0.0000000000000E+00
 0.5388619230434E+00 -0.5297093097315E+00  0.0000000000000E+00
 0.5280992022682E+00 -0.4491553123021E+00  0.0000000000000E+00
 0.5173364815706E+00 -0.3686013148624E+00  0.0000000000000E+00
 0.5072661519498E+00 -0.2879359719111E+00  0.0000000000000E+00
 0.4983928781155E+00 -0.2070954866168E+00  0.0000000000000E+00
 0.4909653504001E+00 -0.1260728752625E+00  0.0000000000000E+00
 0.4850232779294E+00 -0.4489664002671E-01  0.0000000000000E+00
 0.4804829322690E+00  0.3639347989323E-01  0.0000000000000E+00
 0.4772070842627E+00  0.1177604807511E+00  0.0000000000000E+00
 0.4750466618523E+00  0.1991749777953E+00  0.0000000000000E+00
 0.4738608237786E+00  0.2806153236156E+00  0.0000000000000E+00
 0.6146632317509E+00 -0.1179245927735E+01  0.0000000000000E+00
 0.6133850724925E+00 -0.1098125561208E+01  0.0000000000000E+00
 0.6110781854051E+00 -0.1017031042828E+01  0.0000000000000E+00
 0.6075939047578E+00 -0.9359840196208E+00  0.0000000000000E+00
 0.6027748767280E+00 -0.8550138763261E+00  0.0000000000000E+00
 0.5964762483236E+00 -0.7741576168557E+00  0.0000000000000E+00
 0.5886096395034E+00 -0.6934549810328E+00  0.0000000000000E+00
 0.5792169653885E+00 -0.6129344721698E+00  0.0000000000000E+00
 0.5685607323581E+00 -0.5325891078368E+00  0.0000000000000E+00
 0.5571736420618E+00 -0.4523550912038E+00  0.0000000000000E+00
 0.5457865518431E+00 -0.3721210745598E+00  0.0000000000000E+00
 0.5351303190368E+00 -0.2917757101970E+00  0.0000000000000E+00
 0.5257376452707E+00 -0.2112552012932E+00  0.0000000000000E+00
 0.5178710368958E+00 -0.1305525654266E+00  0.0000000000000E+00
 0.5115724090060E+00 -0.4969630591594E-01  0.0000000000000E+00
 0.5067533815375E+00  0.3127383741244E-01  0.0000000000000E+00
 0.5032691014814E+00  0.1123208606451E+00  0.0000000000000E+00
 0.5009622150030E+00  0.1934153790431E+00  0.0000000000000E+00
 0.4996840563632E+00  0.2745357455796E+00  0.0000000000000E+00
-0.1278896502369E+01 -0.1151672018574E+01  0.0000000000000E+00
-0.1293535989863E+01 -0.1042706098075E+01  0.0000000000000E+00
-0.1306740260238E+01 -0.9335568306302E+00  0.0000000000000E+00
-0.1318644601968E+01 -0.8242604251989E+00  0.0000000000000E+00
-0.1329259354471E+01 -0.7148349793802E+00  0.0000000000000E+00
-0.1338484588244E+01 -0.6052883756386E+00  0.0000000000000E+00
-0.1346107409420E+01 -0.4956230009344E+00  0.0000000000000E+00
-0.1352038793124E+01 -0.3858563250419E+00  0.0000000000000E+00
-0.1356201221531E+01 -0.2760094404429E+00  0.0000000000000E+00
-0.1358419956471E+01 -0.1661003673666E+00  0.0000000000000E+00
-0.1358695454008E+01 -0.5615693613661E-01  0.0000000000000E+00
-0.1357550403351E+01  0.5379250691215E-01  0.0000000000000E+00
-0.1350073384709E+01  0.1634872031569E+00  0.0000000000000E+00
-0.1331799419446E+01  0.2718874909373E+00  0.0000000000000E+00
-0.1302044898758E+01  0.3776416251695E+00  0.0000000000000E+00
-0.1260837701565E+01  0.4793297455530E+00  0.0000000000000E+00
-0.1209962422649E+01  0.5763646246461E+00  0.0000000000000E+00
-0.1151420815372E+01  0.6687610104146E+00  0.0000000000000E+00
-0.1085923484021E+01  0.7560985800172E+00  0.0000000000000E+00
-0.1245637993229E+01 -0.1153140953534E+01  0.0000000000000E+00
-0.1259434638352E+01 -0.1045658265064E+01  0.0000000000000E+00
-0.1271814610865E+01 -0.9380032398803E+00  0.0000000000000E+00
-0.1282897842471E+01 -0.8302113205031E+00  0.0000000000000E+00
-0.1292685410739E+01 -0.7223011985908E+00  0.0000000000000E+00
-0.1301074620519E+01 -0.6142822893251E+00  0.0000000000000E+00
-0.1307858886474E+01 -0.5061589456413E+00  0.0000000000000E+00
-0.1312956191413E+01 -0.3979492180895E+00  0.0000000000000E+00
-0.1316307640679E+01 -0.2896727215968E+00  0.0000000000000E+00
-0.1317777205404E+01 -0.1813431702324E+00  0.0000000000000E+00
-0.1317405808375E+01 -0.7298106903875E-01  0.0000000000000E+00
-0.1315729119569E+01  0.3539258808897E-01  0.0000000000000E+00
-0.1308123727530E+01  0.1435341243932E+00  0.0000000000000E+00
-0.1290374195784E+01  0.2504589646731E+00  0.0000000000000E+00
-0.1261835217099E+01  0.3548850080857E+00  0.0000000000000E+00
-0.1222528306679E+01  0.4554650322152E+00  0.0000000000000E+00
-0.1174136108167E+01  0.5516407687444E+00  0.0000000000000E+00
-0.1118546301820E+01  0.6434246428656E+00  0.0000000000000E+00
-0.1056423855374E+01  0.7304173146964E+00  0.0000000000000E+00
-0.1212379484089E+01 -0.1154609888494E+01  0.0000000000000E+00
-0.1225333286841E+01 -0.1048610432053E+01  0.0000000000000E+00
-0.1236888961493E+01 -0.9424496491304E+00  0.0000000000000E+00
-0.1247151082973E+01 -0.8361622158072E+00  0.0000000000000E+00
-0.1256111467007E+01 -0.7297674178015E+00  0.0000000000000E+00
-0.1263664652793E+01 -0.6232762030117E+00  0.0000000000000E+00
-0.1269610363529E+01 -0.5166948903483E+00  0.0000000000000E+00
-0.1273873589703E+01 -0.4100421111372E+00  0.0000000000000E+00
-0.1276414059827E+01 -0.3033360027507E+00  0.0000000000000E+00
-0.1277134454338E+01 -0.1965859730982E+00  0.0000000000000E+00
-0.1276116162743E+01 -0.8980520194089E-01  0.0000000000000E+00
-0.1273907835787E+01  0.1699266926579E-01  0.0000000000000E+00
-0.1266174070351E+01  0.1235810456296E+00  0.0000000000000E+00
-0.1248948972122E+01  0.2290304384090E+00  0.0000000000000E+00
-0.1221625535439E+01  0.3321283910018E+00  0.0000000000000E+00
-0.1184218911793E+01  0.4316003188775E+00  0.0000000000000E+00
-0.1138309793685E+01  0.5269169128427E+00  0.0000000000000E+00
-0.1085671788268E+01  0.6180882753165E+00  0.0000000000000E+00
-0.1026924226726E+01  0.7047360493755E+00  0.0000000000000E+00
-0.1179120974948E+01 -0.1156078823454E+01  0.0000000000000E+00
-0.1191231935330E+01 -0.1051562599042E+01  0.0000000000000E+00
-0.1201963312121E+01 -0.9468960583805E+00  0.0000000000000E+00
-0.1211404323475E+01 -0.8421131111114E+00  0.0000000000000E+00
-0.1219537523275E+01 -0.7372336370121E+00  0.0000000000000E+00
-0.1226254685067E+01 -0.6322701166982E+00  0.0000000000000E+00
-0.1231361840583E+01 -0.5272308350552E+00  0.0000000000000E+00
-0.1234790987992E+01 -0.4221350041848E+00  0.0000000000000E+00
-0.1236520478975E+01 -0.3169992839045E+00  0.0000000000000E+00
-0.1236491703271E+01 -0.2118287759639E+00  0.0000000000000E+00
-0.1234826517111E+01 -0.1066293348430E+00  0.0000000000000E+00
-0.1232086552004E+01 -0.1407249557388E-02  0.0000000000000E+00
-0.1224224413172E+01  0.1036279668659E+00  0.0000000000000E+00
-0.1207523748460E+01  0.2076019121449E+00  0.0000000000000E+00
-0.1181415853780E+01  0.3093717739179E+00  0.0000000000000E+00
-0.1145909516907E+01  0.4077356055397E+00  0.0000000000000E+00
-0.1102483479202E+01  0.5021930569409E+00  0.0000000000000E+00
-0.1052797274716E+01  0.5927519077675E+00  0.0000000000000E+00
-0.9974245980785E+00  0.6790547840547E+00  0.0000000000000E+00
-0.1145862465808E+01 -0.1157547758415E+01  0.0000000000000E+00
-0.1157130583818E+01 -0.1054514766032E+01  0.0000000000000E+00
-0.1167037662748E+01 -0.9513424676306E+00  0.0000000000000E+00
-0.1175657563978E+01 -0.8480640064155E+00  0.0000000000000E+00
-0.1182963579544E+01 -0.7446998562227E+00  0.0000000000000E+00
-0.1188844717341E+01 -0.6412640303847E+00  0.0000000000000E+00
-0.1193113317638E+01 -0.5377667797621E+00  0.0000000000000E+00
-0.1195708386282E+01 -0.4342278972324E+00  0.0000000000000E+00
-0.1196626898123E+01 -0.3306625650584E+00  0.0000000000000E+00
-0.1195848952204E+01 -0.2270715788297E+00  0.0000000000000E+00
-0.1193536871478E+01 -0.1234534677452E+00  0.0000000000000E+00
-0.1190265268222E+01 -0.1980716838057E-01  0.0000000000000E+00
-0.1182274755993E+01  0.8367488810228E-01  0.0000000000000E+00
-0.1166098524797E+01  0.1861733858807E+00  0.0000000000000E+00
-0.1141206172121E+01  0.2866151568340E+00  0.0000000000000E+00
-0.1107600122020E+01  0.3838708922020E+00  0.0000000000000E+00
-0.1066657164720E+01  0.4774692010392E+00  0.0000000000000E+00
-0.1019922761165E+01  0.5674155402184E+00  0.0000000000000E+00
-0.9679249694309E+00  0.6533735187339E+00  0.0000000000000E+00
-0.1112603956668E+01 -0.1159016693375E+01  0.0000000000000E+00
-0.1123029232307E+01 -0.1057466933021E+01  0.0000000000000E+00
-0.1132112013376E+01 -0.9557888768807E+00  0.0000000000000E+00
-0.1139910804480E+01 -0.8540149017197E+00  0.0000000000000E+00
-0.1146389635812E+01 -0.7521660754333E+00  0.0000000000000E+00
-0.1151434749615E+01 -0.6502579440712E+00  0.0000000000000E+00
-0.1154864794692E+01 -0.5483027244690E+00  0.0000000000000E+00
-0.1156625784571E+01 -0.4463207902801E+00  0.0000000000000E+00
-0.1156733317270E+01 -0.3443258462123E+00  0.0000000000000E+00
-0.1155206201138E+01 -0.2423143816954E+00  0.0000000000000E+00
-0.1152247225846E+01 -0.1402776006473E+00  0.0000000000000E+00
-0.1148443984439E+01 -0.3820708720374E-01  0.0000000000000E+00
-0.1140325098814E+01  0.6372180933864E-01  0.0000000000000E+00
-0.1124673301135E+01  0.1647448596166E+00  0.0000000000000E+00
-0.1100996490462E+01  0.2638585397501E+00  0.0000000000000E+00
-0.1069290727134E+01  0.3600061788643E+00  0.0000000000000E+00
-0.1030830850237E+01  0.4527453451374E+00  0.0000000000000E+00
-0.9870482476130E+00  0.5420791726694E+00  0.0000000000000E+00
-0.9384253407834E+00  0.6276922534130E+00  0.0000000000000E+00
-0.1079345447527E+01 -0.1160485628335E+01  0.0000000000000E+00
-0.1088927880796E+01 -0.1060419100010E+01  0.0000000000000E+00
-0.1097186364004E+01 -0.9602352861308E+00  0.0000000000000E+00
-0.1104164044982E+01 -0.8599657970238E+00  0.0000000000000E+00
-0.1109815692080E+01 -0.7596322946440E+00  0.0000000000000E+00
-0.1114024781889E+01 -0.6592518577578E+00  0.0000000000000E+00
-0.1116616271746E+01 -0.5588386691759E+00  0.0000000000000E+00
-0.1117543182861E+01 -0.4584136833277E+00  0.0000000000000E+00
-0.1116839736418E+01 -0.3579891273662E+00  0.0000000000000E+00
-0.1114563450071E+01 -0.2575571845612E+00  0.0000000000000E+00
-0.1110957580214E+01 -0.1571017335495E+00  0.0000000000000E+00
-0.1106622700657E+01 -0.5660700602692E-01  0.0000000000000E+00
-0.1098375441635E+01  0.4376873057499E-01  0.0000000000000E+00
-0.1083248077473E+01  0.1433163333524E+00  0.0000000000000E+00
-0.1060786808803E+01  0.2411019226662E+00  0.0000000000000E+00
-0.1030981332248E+01  0.3361414655265E+00  0.0000000000000E+00
-0.9950045357551E+00  0.4280214892357E+00  0.0000000000000E+00
-0.9541737340612E+00  0.5167428051204E+00  0.0000000000000E+00
-0.9089257121358E+00  0.6020109880922E+00  0.0000000000000E+00
-0.1046086938387E+01 -0.1161954563296E+01  0.0000000000000E+00
-0.1054826529285E+01 -0.1063371266999E+01  0.0000000000000E+00
-0.1062260714631E+01 -0.9646816953809E+00  0.0000000000000E+00
-0.1068417285485E+01 -0.8659166923280E+00  0.0000000000000E+00
-0.1073241748349E+01 -0.7670985138546E+00  0.0000000000000E+00
-0.1076614814163E+01 -0.6682457714443E+00  0.0000000000000E+00
-0.1078367748801E+01 -0.5693746138828E+00  0.0000000000000E+00
-0.1078460581150E+01 -0.4705065763753E+00  0.0000000000000E+00
-0.1076946155566E+01 -0.3716524085200E+00  0.0000000000000E+00
-0.1073920699005E+01 -0.2727999874270E+00  0.0000000000000E+00
-0.1069667934581E+01 -0.1739258664516E+00  0.0000000000000E+00
-0.1064801416874E+01 -0.7500692485010E-01  0.0000000000000E+00
-0.1056425784456E+01  0.2381565181134E-01  0.0000000000000E+00
-0.1041822853810E+01  0.1218878070883E+00  0.0000000000000E+00
-0.1020577127143E+01  0.2183453055823E+00  0.0000000000000E+00
-0.9926719373617E+00  0.3122767521888E+00  0.0000000000000E+00
-0.9591782212728E+00  0.4032976333339E+00  0.0000000000000E+00
-0.9212992205094E+00  0.4914064375713E+00  0.0000000000000E+00
-0.8794260834883E+00  0.5763297227714E+00  0.0000000000000E+00
-0.1012828429247E+01 -0.1163423498256E+01  0.0000000000000E+00
-0.1020725177774E+01 -0.1066323433989E+01  0.0000000000000E+00
-0.1027335065259E+01 -0.9691281046309E+00  0.0000000000000E+00
-0.1032670525987E+01 -0.8718675876321E+00  0.0000000000000E+00
-0.1036667804617E+01 -0.7745647330652E+00  0.0000000000000E+00
-0.1039204846437E+01 -0.6772396851308E+00  0.0000000000000E+00
-0.1040119225855E+01 -0.5799105585897E+00  0.0000000000000E+00
-0.1039377979440E+01 -0.4825994694230E+00  0.0000000000000E+00
-0.1037052574714E+01 -0.3853156896739E+00  0.0000000000000E+00
-0.1033277947938E+01 -0.2880427902927E+00  0.0000000000000E+00
-0.1028378288949E+01 -0.1907499993537E+00  0.0000000000000E+00
-0.1022980133092E+01 -0.9340684367328E-01  0.0000000000000E+00
-0.1014476127276E+01  0.3862573047696E-02  0.0000000000000E+00
-0.1000397630148E+01  0.1004592808241E+00  0.0000000000000E+00
-0.9803674454841E+00  0.1955886884984E+00  0.0000000000000E+00
-0.9543625424755E+00  0.2884120388510E+00  0.0000000000000E+00
-0.9233519067904E+00  0.3785737774322E+00  0.0000000000000E+00
-0.8884247069577E+00  0.4660700700223E+00  0.0000000000000E+00
-0.8499264548408E+00  0.5506484574506E+00  0.0000000000000E+00
-0.9795699201063E+00 -0.1164892433216E+01  0.0000000000000E+00
-0.9866238262626E+00 -0.1069275600978E+01  0.0000000000000E+00
-0.9924094158868E+00 -0.9735745138810E+00  0.0000000000000E+00
-0.9969237664891E+00 -0.8778184829363E+00  0.0000000000000E+00
-0.1000093860885E+01 -0.7820309522758E+00  0.0000000000000E+00
-0.1001794878711E+01 -0.6862335988173E+00  0.0000000000000E+00
-0.1001870702910E+01 -0.5904465032966E+00  0.0000000000000E+00
-0.1000295377729E+01 -0.4946923624706E+00  0.0000000000000E+00
-0.9971589938620E+00 -0.3989789708278E+00  0.0000000000000E+00
-0.9926351968715E+00 -0.3032855931585E+00  0.0000000000000E+00
-0.9870886433164E+00 -0.2075741322559E+00  0.0000000000000E+00
-0.9811588493097E+00 -0.1118067624965E+00  0.0000000000000E+00
-0.9725264700973E+00 -0.1609050571595E-01  0.0000000000000E+00
-0.9589724064858E+00  0.7903075455998E-01  0.0000000000000E+00
-0.9401577638249E+00  0.1728320714145E+00  0.0000000000000E+00
-0.9160531475893E+00  0.2645473255133E+00  0.0000000000000E+00
-0.8875255923080E+00  0.3538499215304E+00  0.0000000000000E+00
-0.8555501934059E+00  0.4407337024732E+00  0.0000000000000E+00
-0.8204268261932E+00  0.5249671921297E+00  0.0000000000000E+00
-0.9463114109659E+00 -0.1166361368177E+01  0.0000000000000E+00
-0.9525224747514E+00 -0.1072227767967E+01  0.0000000000000E+00
-0.9574837665145E+00 -0.9780209231311E+00  0.0000000000000E+00
-0.9611770069914E+00 -0.8837693782404E+00  0.0000000000000E+00
-0.9635199171535E+00 -0.7894971714864E+00  0.0000000000000E+00
-0.9643849109855E+00 -0.6952275125039E+00  0.0000000000000E+00
-0.9636221799641E+00 -0.6009824480035E+00  0.0000000000000E+00
-0.9612127760186E+00 -0.5067852555182E+00  0.0000000000000E+00
-0.9572654130098E+00 -0.4126422519817E+00  0.0000000000000E+00
-0.9519924458049E+00 -0.3185283960243E+00  0.0000000000000E+00
-0.9457989976841E+00 -0.2243982651580E+00  0.0000000000000E+00
-0.9393375655272E+00 -0.1302066813196E+00  0.0000000000000E+00
-0.9305768129182E+00 -0.3604358447960E-01  0.0000000000000E+00
-0.9175471828235E+00  0.5760222829584E-01  0.0000000000000E+00
-0.8999480821656E+00  0.1500754543306E+00  0.0000000000000E+00
-0.8777437527031E+00  0.2406826121755E+00  0.0000000000000E+00
-0.8516992778257E+00  0.3291260656287E+00  0.0000000000000E+00
-0.8226756798541E+00  0.4153973349242E+00  0.0000000000000E+00
-0.7909271975457E+00  0.4992859268089E+00  0.0000000000000E+00
-0.9130529018256E+00 -0.1167830303137E+01  0.0000000000000E+00
-0.9184211232403E+00 -0.1075179934956E+01  0.0000000000000E+00
-0.9225581171422E+00 -0.9824673323812E+00  0.0000000000000E+00
-0.9254302474937E+00 -0.8897202735446E+00  0.0000000000000E+00
-0.9269459734218E+00 -0.7969633906971E+00  0.0000000000000E+00
-0.9269749432596E+00 -0.7042214261904E+00  0.0000000000000E+00
-0.9253736570186E+00 -0.6115183927104E+00  0.0000000000000E+00
-0.9221301743080E+00 -0.5188781485659E+00  0.0000000000000E+00
-0.9173718321577E+00 -0.4263055331355E+00  0.0000000000000E+00
-0.9113496947383E+00 -0.3337711988900E+00  0.0000000000000E+00
-0.9045093520517E+00 -0.2412223980602E+00  0.0000000000000E+00
-0.8975162817448E+00 -0.1486066001428E+00  0.0000000000000E+00
-0.8886271557392E+00 -0.5599666324325E-01  0.0000000000000E+00
-0.8761219591612E+00  0.3617370203170E-01  0.0000000000000E+00
-0.8597384005064E+00  0.1273188372467E+00  0.0000000000000E+00
-0.8394343578169E+00  0.2168178988378E+00  0.0000000000000E+00
-0.8158729633433E+00  0.3044022097269E+00  0.0000000000000E+00
-0.7898011663024E+00  0.3900609673752E+00  0.0000000000000E+00
-0.7614275688981E+00  0.4736046614881E+00  0.0000000000000E+00
-0.8797943926852E+00 -0.1169299238097E+01  0.0000000000000E+00
-0.8843197717291E+00 -0.1078132101946E+01  0.0000000000000E+00
-0.8876324677699E+00 -0.9869137416313E+00  0.0000000000000E+00
-0.8896834879960E+00 -0.8956711688487E+00  0.0000000000000E+00
-0.8903720296900E+00 -0.8044296099077E+00  0.0000000000000E+00
-0.8895649755337E+00 -0.7132153398769E+00  0.0000000000000E+00
-0.8871251340730E+00 -0.6220543374173E+00  0.0000000000000E+00
-0.8830475725975E+00 -0.5309710416135E+00  0.0000000000000E+00
-0.8774782513056E+00 -0.4399688142894E+00  0.0000000000000E+00
-0.8707069436717E+00 -0.3490140017558E+00  0.0000000000000E+00
-0.8632197064193E+00 -0.2580465309623E+00  0.0000000000000E+00
-0.8556949979624E+00 -0.1670065189660E+00  0.0000000000000E+00
-0.8466774985601E+00 -0.7594974200689E-01  0.0000000000000E+00
-0.8346967354989E+00  0.1474517576755E-01  0.0000000000000E+00
-0.8195287188472E+00  0.1045622201628E+00  0.0000000000000E+00
-0.8011249629307E+00  0.1929531855000E+00  0.0000000000000E+00
-0.7800466488610E+00  0.2796783538252E+00  0.0000000000000E+00
-0.7569266527506E+00  0.3647245998261E+00  0.0000000000000E+00
-0.7319279402506E+00  0.4479233961672E+00  0.0000000000000E+00
-0.8465358835449E+00 -0.1170768173058E+01  0.0000000000000E+00
-0.8502184202179E+00 -0.1081084268935E+01  0.0000000000000E+00
-0.8527068183976E+00 -0.9913601508814E+00  0.0000000000000E+00
-0.8539367284983E+00 -0.9016220641529E+00  0.0000000000000E+00
-0.8537980859583E+00 -0.8118958291183E+00  0.0000000000000E+00
-0.8521550078078E+00 -0.7222092535634E+00  0.0000000000000E+00
-0.8488766111274E+00 -0.6325902821242E+00  0.0000000000000E+00
-0.8439649708870E+00 -0.5430639346611E+00  0.0000000000000E+00
-0.8375846704535E+00 -0.4536320954433E+00  0.0000000000000E+00
-0.8300641926051E+00 -0.3642568046215E+00  0.0000000000000E+00
-0.8219300607870E+00 -0.2748706638644E+00  0.0000000000000E+00
-0.8138737141800E+00 -0.1854064377892E+00  0.0000000000000E+00
-0.8047278413810E+00 -0.9590282077054E-01  0.0000000000000E+00
-0.7932715118366E+00 -0.6683350496594E-02  0.0000000000000E+00
-0.7793190371880E+00  0.8180560307893E-01  0.0000000000000E+00
-0.7628155680445E+00  0.1690884721623E+00  0.0000000000000E+00
-0.7442203343786E+00  0.2549544979234E+00  0.0000000000000E+00
-0.7240521391988E+00  0.3393882322771E+00  0.0000000000000E+00
-0.7024283116030E+00  0.4222421308464E+00  0.0000000000000E+00
-0.8132773744045E+00 -0.1172237108018E+01  0.0000000000000E+00
-0.8161170687067E+00 -0.1084036435924E+01  0.0000000000000E+00
-0.8177811690253E+00 -0.9958065601315E+00  0.0000000000000E+00
-0.8181899690006E+00 -0.9075729594570E+00  0.0000000000000E+00
-0.8172241422266E+00 -0.8193620483289E+00  0.0000000000000E+00
-0.8147450400819E+00 -0.7312031672500E+00  0.0000000000000E+00
-0.8106280881819E+00 -0.6431262268311E+00  0.0000000000000E+00
-0.8048823691764E+00 -0.5551568277088E+00  0.0000000000000E+00
-0.7976910896013E+00 -0.4672953765972E+00  0.0000000000000E+00
-0.7894214415385E+00 -0.3794996074873E+00  0.0000000000000E+00
-0.7806404151546E+00 -0.2916947967666E+00  0.0000000000000E+00
-0.7720524303976E+00 -0.2038063566123E+00  0.0000000000000E+00
-0.7627781842019E+00 -0.1158558995342E+00  0.0000000000000E+00
-0.7518462881743E+00 -0.2811187676074E-01  0.0000000000000E+00
-0.7391093555288E+00  0.5904898599503E-01  0.0000000000000E+00
-0.7245061731583E+00  0.1452237588245E+00  0.0000000000000E+00
-0.7083940198962E+00  0.2302306420217E+00  0.0000000000000E+00
-0.6911776256471E+00  0.3140518647280E+00  0.0000000000000E+00
-0.6729286829555E+00  0.3965608655256E+00  0.0000000000000E+00
-0.7800188652641E+00 -0.1173706042978E+01  0.0000000000000E+00
-0.7820157171956E+00 -0.1086988602913E+01  0.0000000000000E+00
-0.7828555196530E+00 -0.1000252969382E+01  0.0000000000000E+00
-0.7824432095029E+00 -0.9135238547612E+00  0.0000000000000E+00
-0.7806501984949E+00 -0.8268282675395E+00  0.0000000000000E+00
-0.7773350723560E+00 -0.7401970809365E+00  0.0000000000000E+00
-0.7723795652363E+00 -0.6536621715381E+00  0.0000000000000E+00
-0.7657997674659E+00 -0.5672497207564E+00  0.0000000000000E+00
-0.7577975087492E+00 -0.4809586577510E+00  0.0000000000000E+00
-0.7487786904719E+00 -0.3947424103531E+00  0.0000000000000E+00
-0.7393507695222E+00 -0.3085189296687E+00  0.0000000000000E+00
-0.7302311466152E+00 -0.2222062754355E+00  0.0000000000000E+00
-0.7208285270228E+00 -0.1358089782978E+00  0.0000000000000E+00
-0.7104210645120E+00 -0.4954040302488E-01  0.0000000000000E+00
-0.6988996738695E+00  0.3629236891114E-01  0.0000000000000E+00
-0.6861967782721E+00  0.1213590454868E+00  0.0000000000000E+00
-0.6725677054139E+00  0.2055067861199E+00  0.0000000000000E+00
-0.6583031120953E+00  0.2887154971790E+00  0.0000000000000E+00
-0.6434290543080E+00  0.3708796002047E+00  0.0000000000000E+00
-0.7467603561238E+00 -0.1175174977939E+01  0.0000000000000E+00
-0.7479143656844E+00 -0.1089940769903E+01  0.0000000000000E+00
-0.7479298702806E+00 -0.1004699378632E+01  0.0000000000000E+00
-0.7466964500052E+00 -0.9194747500653E+00  0.0000000000000E+00
-0.7440762547632E+00 -0.8342944867502E+00  0.0000000000000E+00
-0.7399251046301E+00 -0.7491909946230E+00  0.0000000000000E+00
-0.7341310422907E+00 -0.6641981162450E+00  0.0000000000000E+00
-0.7267171657554E+00 -0.5793426138040E+00  0.0000000000000E+00
-0.7179039278971E+00 -0.4946219389049E+00  0.0000000000000E+00
-0.7081359394053E+00 -0.4099852132188E+00  0.0000000000000E+00
-0.6980611238899E+00 -0.3253430625709E+00  0.0000000000000E+00
-0.6884098628328E+00 -0.2406061942587E+00  0.0000000000000E+00
-0.6788788698437E+00 -0.1557620570615E+00  0.0000000000000E+00
-0.6689958408497E+00 -0.7096892928903E-01  0.0000000000000E+00
-0.6586899922103E+00  0.1353575182724E-01  0.0000000000000E+00
-0.6478873833859E+00  0.9749433214906E-01  0.0000000000000E+00
-0.6367413909315E+00  0.1807829302182E+00  0.0000000000000E+00
-0.6254285985435E+00  0.2633791296299E+00  0.0000000000000E+00
-0.6139294256604E+00  0.3451983348839E+00  0.0000000000000E+00
-0.7135018469834E+00 -0.1176643912899E+01  0.0000000000000E+00
-0.7138130141732E+00 -0.1092892936892E+01  0.0000000000000E+00
-0.7130042209083E+00 -0.1009145787882E+01  0.0000000000000E+00
-0.7109496905075E+00 -0.9254256453695E+00  0.0000000000000E+00
-0.7075023110315E+00 -0.8417607059608E+00  0.0000000000000E+00
-0.7025151369042E+00 -0.7581849083095E+00  0.0000000000000E+00
-0.6958825193452E+00 -0.6747340609519E+00  0.0000000000000E+00
-0.6876345640448E+00 -0.5914355068517E+00  0.0000000000000E+00
-0.6780103470450E+00 -0.5082852200588E+00  0.0000000000000E+00
-0.6674931883387E+00 -0.4252280160846E+00  0.0000000000000E+00
-0.6567714782575E+00 -0.3421671954730E+00  0.0000000000000E+00
-0.6465885790503E+00 -0.2590061130819E+00  0.0000000000000E+00
-0.6369292126646E+00 -0.1757151358251E+00  0.0000000000000E+00
-0.6275706171874E+00 -0.9239745555317E-01  0.0000000000000E+00
-0.6184803105511E+00 -0.9220865256651E-02  0.0000000000000E+00
-0.6095779884997E+00  0.7362961881131E-01  0.0000000000000E+00
-0.6009150764492E+00  0.1560590743164E+00  0.0000000000000E+00
-0.5925540849918E+00  0.2380427620809E+00  0.0000000000000E+00
-0.5844297970129E+00  0.3195170695631E+00  0.0000000000000E+00
-0.6802433378431E+00 -0.1178112847859E+01  0.0000000000000E+00
-0.6797116626621E+00 -0.1095845103881E+01  0.0000000000000E+00
-0.6780785715360E+00 -0.1013592197132E+01  0.0000000000000E+00
-0.6752029310098E+00 -0.9313765406736E+00  0.0000000000000E+00
-0.6709283672997E+00 -0.8492269251714E+00  0.0000000000000E+00
-0.6651051691783E+00 -0.7671788219961E+00  0.0000000000000E+00
-0.6576339963996E+00 -0.6852700056588E+00  0.0000000000000E+00
-0.6485519623343E+00 -0.6035283998993E+00  0.0000000000000E+00
-0.6381167661928E+00 -0.5219485012127E+00  0.0000000000000E+00
-0.6268504372721E+00 -0.4404708189504E+00  0.0000000000000E+00
-0.6154818326251E+00 -0.3589913283751E+00  0.0000000000000E+00
-0.6047672952679E+00 -0.2774060319051E+00  0.0000000000000E+00
-0.5949795554855E+00 -0.1956682145888E+00  0.0000000000000E+00
-0.5861453935251E+00 -0.1138259818173E+00  0.0000000000000E+00
-0.5782706288919E+00 -0.3197748234054E-01  0.0000000000000E+00
-0.5712685936135E+00  0.4976490547357E-01  0.0000000000000E+00
-0.5650887619668E+00  0.1313352184147E+00  0.0000000000000E+00
-0.5596795714400E+00  0.2127063945319E+00  0.0000000000000E+00
-0.5549301683653E+00  0.2938358042423E+00  0.0000000000000E+00
 0.6802433484435E+00 -0.1178112847849E+01  0.0000000000000E+00
 0.6797116720780E+00 -0.1095845103875E+01  0.0000000000000E+00
 0.6780785797770E+00 -0.1013592197145E+01  0.0000000000000E+00
 0.6752029380933E+00 -0.9313765407239E+00  0.0000000000000E+00
 0.6709283732554E+00 -0.8492269252769E+00  0.0000000000000E+00
 0.6651051740529E+00 -0.7671788221750E+00  0.0000000000000E+00
 0.6576340002627E+00 -0.6852700059262E+00  0.0000000000000E+00
 0.6485519652821E+00 -0.6035284002639E+00  0.0000000000000E+00
 0.6381167683488E+00 -0.5219485016727E+00  0.0000000000000E+00
 0.6268504387797E+00 -0.4404708194920E+00  0.0000000000000E+00
 0.6154818336317E+00 -0.3589913289766E+00  0.0000000000000E+00
 0.6047672959142E+00 -0.2774060325421E+00  0.0000000000000E+00
 0.5949795559123E+00 -0.1956682152389E+00  0.0000000000000E+00
 0.5861453938334E+00 -0.1138259824613E+00  0.0000000000000E+00
 0.5782706291498E+00 -0.3197748296223E-01  0.0000000000000E+00
 0.5712685938666E+00  0.4976490488478E-01  0.0000000000000E+00
 0.5650887622411E+00  0.1313352178655E+00  0.0000000000000E+00
 0.5596795717538E+00  0.2127063940286E+00  0.0000000000000E+00
 0.5549301687313E+00  0.2938358037924E+00  0.0000000000000E+00
 0.7135018570198E+00 -0.1176643912919E+01  0.0000000000000E+00
 0.7138130230836E+00 -0.1092892936945E+01  0.0000000000000E+00
 0.7130042287029E+00 -0.1009145787984E+01  0.0000000000000E+00
 0.7109496972034E+00 -0.9254256455366E+00  0.0000000000000E+00
 0.7075023166577E+00 -0.8417607062105E+00  0.0000000000000E+00
 0.7025151415061E+00 -0.7581849086590E+00  0.0000000000000E+00
 0.6958825229899E+00 -0.6747340614155E+00  0.0000000000000E+00
 0.6876345668242E+00 -0.5914355074377E+00  0.0000000000000E+00
 0.6780103490774E+00 -0.5082852207655E+00  0.0000000000000E+00
 0.6674931897617E+00 -0.4252280168988E+00  0.0000000000000E+00
 0.6567714792105E+00 -0.3421671963741E+00  0.0000000000000E+00
 0.6465885796710E+00 -0.2590061140468E+00  0.0000000000000E+00
 0.6369292131142E+00 -0.1757151368302E+00  0.0000000000000E+00
 0.6275706175752E+00 -0.9239745657483E-01  0.0000000000000E+00
 0.6184803109469E+00 -0.9220866271635E-02  0.0000000000000E+00
 0.6095779889493E+00  0.7362961781919E-01  0.0000000000000E+00
 0.6009150769751E+00  0.1560590733582E+00  0.0000000000000E+00
 0.5925540856125E+00  0.2380427611681E+00  0.0000000000000E+00
 0.5844297977438E+00  0.3195170687102E+00  0.0000000000000E+00
 0.7467603655960E+00 -0.1175174977988E+01  0.0000000000000E+00
 0.7479143740892E+00 -0.1089940770016E+01  0.0000000000000E+00
 0.7479298776287E+00 -0.1004699378822E+01  0.0000000000000E+00
 0.7466964563136E+00 -0.9194747503494E+00  0.0000000000000E+00
 0.7440762600600E+00 -0.8342944871440E+00  0.0000000000000E+00
 0.7399251089593E+00 -0.7491909951431E+00  0.0000000000000E+00
 0.7341310457170E+00 -0.6641981169049E+00  0.0000000000000E+00
 0.7267171683664E+00 -0.5793426146115E+00  0.0000000000000E+00
 0.7179039298061E+00 -0.4946219398584E+00  0.0000000000000E+00
 0.7081359407437E+00 -0.4099852143056E+00  0.0000000000000E+00
 0.6980611247893E+00 -0.3253430637716E+00  0.0000000000000E+00
 0.6884098634278E+00 -0.2406061955515E+00  0.0000000000000E+00
 0.6788788703161E+00 -0.1557620584214E+00  0.0000000000000E+00
 0.6689958413171E+00 -0.7096893068838E-01  0.0000000000000E+00
 0.6586899927439E+00  0.1353575041896E-01  0.0000000000000E+00
 0.6478873840319E+00  0.9749433075359E-01  0.0000000000000E+00
 0.6367413917090E+00  0.1807829288509E+00  0.0000000000000E+00
 0.6254285994712E+00  0.2633791283076E+00  0.0000000000000E+00
 0.6139294267563E+00  0.3451983336280E+00  0.0000000000000E+00
 0.7800188741723E+00 -0.1173706043058E+01  0.0000000000000E+00
 0.7820157250948E+00 -0.1086988603087E+01  0.0000000000000E+00
 0.7828555265545E+00 -0.1000252969661E+01  0.0000000000000E+00
 0.7824432154237E+00 -0.9135238551621E+00  0.0000000000000E+00
 0.7806502034623E+00 -0.8268282680776E+00  0.0000000000000E+00
 0.7773350764125E+00 -0.7401970816272E+00  0.0000000000000E+00
 0.7723795684441E+00 -0.6536621723942E+00  0.0000000000000E+00
 0.7657997699086E+00 -0.5672497217854E+00  0.0000000000000E+00
 0.7577975105347E+00 -0.4809586589513E+00  0.0000000000000E+00
 0.7487786917257E+00 -0.3947424117123E+00  0.0000000000000E+00
 0.7393507703682E+00 -0.3085189311692E+00  0.0000000000000E+00
 0.7302311471845E+00 -0.2222062770562E+00  0.0000000000000E+00
 0.7208285275179E+00 -0.1358089800127E+00  0.0000000000000E+00
 0.7104210650589E+00 -0.4954040480193E-01  0.0000000000000E+00
 0.6988996745410E+00  0.3629236710956E-01  0.0000000000000E+00
 0.6861967791145E+00  0.1213590436880E+00  0.0000000000000E+00
 0.6725677064430E+00  0.2055067843436E+00  0.0000000000000E+00
 0.6583031133299E+00  0.2887154954471E+00  0.0000000000000E+00
 0.6434290557688E+00  0.3708795985458E+00  0.0000000000000E+00
 0.8132773827486E+00 -0.1172237108128E+01  0.0000000000000E+00
 0.8161170761004E+00 -0.1084036436157E+01  0.0000000000000E+00
 0.8177811754804E+00 -0.9958065604997E+00  0.0000000000000E+00
 0.8181899745339E+00 -0.9075729599749E+00  0.0000000000000E+00
 0.8172241468646E+00 -0.8193620490111E+00  0.0000000000000E+00
 0.8147450438657E+00 -0.7312031681112E+00  0.0000000000000E+00
 0.8106280911713E+00 -0.6431262278835E+00  0.0000000000000E+00
 0.8048823714508E+00 -0.5551568289592E+00  0.0000000000000E+00
 0.7976910912633E+00 -0.4672953780442E+00  0.0000000000000E+00
 0.7894214427077E+00 -0.3794996091191E+00  0.0000000000000E+00
 0.7806404159470E+00 -0.2916947985667E+00  0.0000000000000E+00
 0.7720524309413E+00 -0.2038063585610E+00  0.0000000000000E+00
 0.7627781847198E+00 -0.1158559016039E+00  0.0000000000000E+00
 0.7518462888007E+00 -0.2811187891548E-01  0.0000000000000E+00
 0.7391093563381E+00  0.5904898380016E-01  0.0000000000000E+00
 0.7245061741971E+00  0.1452237566224E+00  0.0000000000000E+00
 0.7083940211769E+00  0.2302306398363E+00  0.0000000000000E+00
 0.6911776271886E+00  0.3140518625866E+00  0.0000000000000E+00
 0.6729286847813E+00  0.3965608634636E+00  0.0000000000000E+00
 0.8465358913249E+00 -0.1170768173198E+01  0.0000000000000E+00
 0.8502184271060E+00 -0.1081084269228E+01  0.0000000000000E+00
 0.8527068244062E+00 -0.9913601513384E+00  0.0000000000000E+00
 0.8539367336440E+00 -0.9016220647876E+00  0.0000000000000E+00
 0.8537980902669E+00 -0.8118958299447E+00  0.0000000000000E+00
 0.8521550113189E+00 -0.7222092545953E+00  0.0000000000000E+00
 0.8488766138984E+00 -0.6325902833728E+00  0.0000000000000E+00
 0.8439649729930E+00 -0.5430639361330E+00  0.0000000000000E+00
 0.8375846719920E+00 -0.4536320971370E+00  0.0000000000000E+00
 0.8300641936896E+00 -0.3642568065259E+00  0.0000000000000E+00
 0.8219300615258E+00 -0.2748706659642E+00  0.0000000000000E+00
 0.8138737146981E+00 -0.1854064400657E+00  0.0000000000000E+00
 0.8047278419217E+00 -0.9590282319517E-01  0.0000000000000E+00
 0.7932715125426E+00 -0.6683353029025E-02  0.0000000000000E+00
 0.7793190381351E+00  0.8180560049076E-01  0.0000000000000E+00
 0.7628155692797E+00  0.1690884695568E+00  0.0000000000000E+00
 0.7442203359109E+00  0.2549544953290E+00  0.0000000000000E+00
 0.7240521410473E+00  0.3393882297260E+00  0.0000000000000E+00
 0.7024283137938E+00  0.4222421283815E+00  0.0000000000000E+00
 0.8797943999012E+00 -0.1169299238267E+01  0.0000000000000E+00
 0.8843197781116E+00 -0.1078132102298E+01  0.0000000000000E+00
 0.8876324733320E+00 -0.9869137421770E+00  0.0000000000000E+00
 0.8896834927542E+00 -0.8956711696004E+00  0.0000000000000E+00
 0.8903720336692E+00 -0.8044296108782E+00  0.0000000000000E+00
 0.8895649787720E+00 -0.7132153410794E+00  0.0000000000000E+00
 0.8871251366255E+00 -0.6220543388621E+00  0.0000000000000E+00
 0.8830475745352E+00 -0.5309710433068E+00  0.0000000000000E+00
 0.8774782527206E+00 -0.4399688162299E+00  0.0000000000000E+00
 0.8707069446716E+00 -0.3490140039327E+00  0.0000000000000E+00
 0.8632197071046E+00 -0.2580465333617E+00  0.0000000000000E+00
 0.8556949984549E+00 -0.1670065215704E+00  0.0000000000000E+00
 0.8466774991235E+00 -0.7594974478642E-01  0.0000000000000E+00
 0.8346967362844E+00  0.1474517285743E-01  0.0000000000000E+00
 0.8195287199322E+00  0.1045622171814E+00  0.0000000000000E+00
 0.8011249643623E+00  0.1929531824912E+00  0.0000000000000E+00
 0.7800466506448E+00  0.2796783508217E+00  0.0000000000000E+00
 0.7569266549060E+00  0.3647245968655E+00  0.0000000000000E+00
 0.7319279428062E+00  0.4479233932993E+00  0.0000000000000E+00
 0.9130529084775E+00 -0.1167830303337E+01  0.0000000000000E+00
 0.9184211291173E+00 -0.1075179935369E+01  0.0000000000000E+00
 0.9225581222579E+00 -0.9824673330156E+00  0.0000000000000E+00
 0.9254302518643E+00 -0.8897202744131E+00  0.0000000000000E+00
 0.9269459770715E+00 -0.7969633918117E+00  0.0000000000000E+00
 0.9269749462252E+00 -0.7042214275634E+00  0.0000000000000E+00
 0.9253736593527E+00 -0.6115183943514E+00  0.0000000000000E+00
 0.9221301760774E+00 -0.5188781504806E+00  0.0000000000000E+00
 0.9173718334493E+00 -0.4263055353228E+00  0.0000000000000E+00
 0.9113496956536E+00 -0.3337712013394E+00  0.0000000000000E+00
 0.9045093526834E+00 -0.2412224007593E+00  0.0000000000000E+00
 0.8975162822117E+00 -0.1486066030751E+00  0.0000000000000E+00
 0.8886271563254E+00 -0.5599666637767E-01  0.0000000000000E+00
 0.8761219600262E+00  0.3617369874388E-01  0.0000000000000E+00
 0.8597384017292E+00  0.1273188338720E+00  0.0000000000000E+00
 0.8394343594449E+00  0.2168178954256E+00  0.0000000000000E+00
 0.8158729653788E+00  0.3044022063144E+00  0.0000000000000E+00
 0.7898011687647E+00  0.3900609640050E+00  0.0000000000000E+00
 0.7614275718187E+00  0.4736046582171E+00  0.0000000000000E+00
 0.9463114170538E+00 -0.1166361368407E+01  0.0000000000000E+00
 0.9525224801229E+00 -0.1072227768440E+01  0.0000000000000E+00
 0.9574837711837E+00 -0.9780209238543E+00  0.0000000000000E+00
 0.9611770109745E+00 -0.8837693792259E+00  0.0000000000000E+00
 0.9635199204738E+00 -0.7894971727453E+00  0.0000000000000E+00
 0.9643849136784E+00 -0.6952275140475E+00  0.0000000000000E+00
 0.9636221820798E+00 -0.6009824498407E+00  0.0000000000000E+00
 0.9612127776196E+00 -0.5067852576544E+00  0.0000000000000E+00
 0.9572654141779E+00 -0.4126422544157E+00  0.0000000000000E+00
 0.9519924466356E+00 -0.3185283987462E+00  0.0000000000000E+00
 0.9457989982622E+00 -0.2243982681568E+00  0.0000000000000E+00
 0.9393375659685E+00 -0.1302066845798E+00  0.0000000000000E+00
 0.9305768135273E+00 -0.3604358796892E-01  0.0000000000000E+00
 0.9175471837681E+00  0.5760222463033E-01  0.0000000000000E+00
 0.8999480835263E+00  0.1500754505626E+00  0.0000000000000E+00
 0.8777437545275E+00  0.2406826083600E+00  0.0000000000000E+00
 0.8516992801127E+00  0.3291260618070E+00  0.0000000000000E+00
 0.8226756826234E+00  0.4153973311445E+00  0.0000000000000E+00
 0.7909272008312E+00  0.4992859231349E+00  0.0000000000000E+00
 0.9795699256300E+00 -0.1164892433477E+01  0.0000000000000E+00
 0.9866238311285E+00 -0.1069275601510E+01  0.0000000000000E+00
 0.9924094201095E+00 -0.9735745146929E+00  0.0000000000000E+00
 0.9969237700846E+00 -0.8778184840386E+00  0.0000000000000E+00
 0.1000093863876E+01 -0.7820309536788E+00  0.0000000000000E+00
 0.1001794881132E+01 -0.6862336005316E+00  0.0000000000000E+00
 0.1001870704807E+01 -0.5904465053301E+00  0.0000000000000E+00
 0.1000295379162E+01 -0.4946923648282E+00  0.0000000000000E+00
 0.9971589949066E+00 -0.3989789735085E+00  0.0000000000000E+00
 0.9926351976176E+00 -0.3032855961530E+00  0.0000000000000E+00
 0.9870886438410E+00 -0.2075741355543E+00  0.0000000000000E+00
 0.9811588497253E+00 -0.1118067660845E+00  0.0000000000000E+00
 0.9725264707291E+00 -0.1609050956017E-01  0.0000000000000E+00
 0.9589724075099E+00  0.7903075051678E-01  0.0000000000000E+00
 0.9401577653233E+00  0.1728320672532E+00  0.0000000000000E+00
 0.9160531496101E+00  0.2645473212944E+00  0.0000000000000E+00
 0.8875255948467E+00  0.3538499172997E+00  0.0000000000000E+00
 0.8555501964822E+00  0.4407336982840E+00  0.0000000000000E+00
 0.8204268298437E+00  0.5249671880527E+00  0.0000000000000E+00
 0.1012828434206E+01 -0.1163423498546E+01  0.0000000000000E+00
 0.1020725182134E+01 -0.1066323434581E+01  0.0000000000000E+00
 0.1027335069035E+01 -0.9691281055316E+00  0.0000000000000E+00
 0.1032670529195E+01 -0.8718675888514E+00  0.0000000000000E+00
 0.1036667807278E+01 -0.7745647346124E+00  0.0000000000000E+00
 0.1039204848585E+01 -0.6772396870156E+00  0.0000000000000E+00
 0.1040119227534E+01 -0.5799105608194E+00  0.0000000000000E+00
 0.1039377980704E+01 -0.4825994720020E+00  0.0000000000000E+00
 0.1037052575635E+01 -0.3853156926014E+00  0.0000000000000E+00
 0.1033277948600E+01 -0.2880427935598E+00  0.0000000000000E+00
 0.1028378289420E+01 -0.1907500029518E+00  0.0000000000000E+00
 0.1022980133482E+01 -0.9340684758923E-01  0.0000000000000E+00
 0.1014476127931E+01  0.3862568848579E-02  0.0000000000000E+00
 0.1000397631252E+01  0.1004592764032E+00  0.0000000000000E+00
 0.9803674471204E+00  0.1955886839438E+00  0.0000000000000E+00
 0.9543625446928E+00  0.2884120342288E+00  0.0000000000000E+00
 0.9233519095806E+00  0.3785737727924E+00  0.0000000000000E+00
 0.8884247103409E+00  0.4660700654235E+00  0.0000000000000E+00
 0.8499264588562E+00  0.5506484529706E+00  0.0000000000000E+00
 0.1046086942783E+01 -0.1161954563616E+01  0.0000000000000E+00
 0.1054826533140E+01 -0.1063371267651E+01  0.0000000000000E+00
 0.1062260717961E+01 -0.9646816963702E+00  0.0000000000000E+00
 0.1068417288305E+01 -0.8659166936641E+00  0.0000000000000E+00
 0.1073241750681E+01 -0.7670985155459E+00  0.0000000000000E+00
 0.1076614816038E+01 -0.6682457734997E+00  0.0000000000000E+00
 0.1078367750261E+01 -0.5693746163087E+00  0.0000000000000E+00
 0.1078460582246E+01 -0.4705065791758E+00  0.0000000000000E+00
 0.1076946156364E+01 -0.3716524116943E+00  0.0000000000000E+00
 0.1073920699582E+01 -0.2727999909666E+00  0.0000000000000E+00
 0.1069667934999E+01 -0.1739258703494E+00  0.0000000000000E+00
 0.1064801417239E+01 -0.7500692909395E-01  0.0000000000000E+00
 0.1056425785133E+01  0.2381564725733E-01  0.0000000000000E+00
 0.1041822854994E+01  0.1218878022897E+00  0.0000000000000E+00
 0.1020577128917E+01  0.2183453006344E+00  0.0000000000000E+00
 0.9926719397754E+00  0.3122767471633E+00  0.0000000000000E+00
 0.9591782243146E+00  0.4032976282851E+00  0.0000000000000E+00
 0.9212992241996E+00  0.4914064325630E+00  0.0000000000000E+00
 0.8794260878687E+00  0.5763297178884E+00  0.0000000000000E+00
 0.1079345451359E+01 -0.1160485628686E+01  0.0000000000000E+00
 0.1088927884145E+01 -0.1060419100722E+01  0.0000000000000E+00
 0.1097186366887E+01 -0.9602352872088E+00  0.0000000000000E+00
 0.1104164047415E+01 -0.8599657984769E+00  0.0000000000000E+00
 0.1109815694083E+01 -0.7596322964795E+00  0.0000000000000E+00
 0.1114024783491E+01 -0.6592518599838E+00  0.0000000000000E+00
 0.1116616272988E+01 -0.5588386717980E+00  0.0000000000000E+00
 0.1117543183788E+01 -0.4584136863497E+00  0.0000000000000E+00
 0.1116839737092E+01 -0.3579891307872E+00  0.0000000000000E+00
 0.1114563450564E+01 -0.2575571883733E+00  0.0000000000000E+00
 0.1110957580577E+01 -0.1571017377469E+00  0.0000000000000E+00
 0.1106622700996E+01 -0.5660701059866E-01  0.0000000000000E+00
 0.1098375442335E+01  0.4376872566608E-01  0.0000000000000E+00
 0.1083248078735E+01  0.1433163281761E+00  0.0000000000000E+00
 0.1060786810715E+01  0.2411019173250E+00  0.0000000000000E+00
 0.1030981334858E+01  0.3361414600977E+00  0.0000000000000E+00
 0.9950045390485E+00  0.4280214837778E+00  0.0000000000000E+00
 0.9541737380583E+00  0.5167427997025E+00  0.0000000000000E+00
 0.9089257168812E+00  0.6020109828062E+00  0.0000000000000E+00
 0.1112603959935E+01 -0.1159016693756E+01  0.0000000000000E+00
 0.1123029235151E+01 -0.1057466933793E+01  0.0000000000000E+00
 0.1132112015813E+01 -0.9557888780475E+00  0.0000000000000E+00
 0.1139910806525E+01 -0.8540149032896E+00  0.0000000000000E+00
 0.1146389637485E+01 -0.7521660774130E+00  0.0000000000000E+00
 0.1151434750944E+01 -0.6502579464678E+00  0.0000000000000E+00
 0.1154864795715E+01 -0.5483027272873E+00  0.0000000000000E+00
 0.1156625785331E+01 -0.4463207935235E+00  0.0000000000000E+00
 0.1156733317821E+01 -0.3443258498800E+00  0.0000000000000E+00
 0.1155206201545E+01 -0.2423143857801E+00  0.0000000000000E+00
 0.1152247226156E+01 -0.1402776051444E+00  0.0000000000000E+00
 0.1148443984752E+01 -0.3820709210337E-01  0.0000000000000E+00
 0.1140325099537E+01  0.6372180407483E-01  0.0000000000000E+00
 0.1124673302477E+01  0.1647448540626E+00  0.0000000000000E+00
 0.1100996492512E+01  0.2638585340156E+00  0.0000000000000E+00
 0.1069290729941E+01  0.3600061730321E+00  0.0000000000000E+00
 0.1030830853782E+01  0.4527453392705E+00  0.0000000000000E+00
 0.9870482519170E+00  0.5420791668420E+00  0.0000000000000E+00
 0.9384253458937E+00  0.6276922477240E+00  0.0000000000000E+00
 0.1145862468511E+01 -0.1157547758825E+01  0.0000000000000E+00
 0.1157130586157E+01 -0.1054514766863E+01  0.0000000000000E+00
 0.1167037664739E+01 -0.9513424688861E+00  0.0000000000000E+00
 0.1175657565635E+01 -0.8480640081024E+00  0.0000000000000E+00
 0.1182963580888E+01 -0.7446998583466E+00  0.0000000000000E+00
 0.1188844718398E+01 -0.6412640329519E+00  0.0000000000000E+00
 0.1193113318443E+01 -0.5377667827766E+00  0.0000000000000E+00
 0.1195708386873E+01 -0.4342279006973E+00  0.0000000000000E+00
 0.1196626898550E+01 -0.3306625689729E+00  0.0000000000000E+00
 0.1195848952527E+01 -0.2270715831869E+00  0.0000000000000E+00
 0.1193536871735E+01 -0.1234534725419E+00  0.0000000000000E+00
 0.1190265268509E+01 -0.1980717360809E-01  0.0000000000000E+00
 0.1182274756738E+01  0.8367488248358E-01  0.0000000000000E+00
 0.1166098526219E+01  0.1861733799490E+00  0.0000000000000E+00
 0.1141206174309E+01  0.2866151507062E+00  0.0000000000000E+00
 0.1107600125023E+01  0.3838708859665E+00  0.0000000000000E+00
 0.1066657168516E+01  0.4774691947632E+00  0.0000000000000E+00
 0.1019922765776E+01  0.5674155339815E+00  0.0000000000000E+00
 0.9679249749061E+00  0.6533735126418E+00  0.0000000000000E+00
 0.1179120977088E+01 -0.1156078823895E+01  0.0000000000000E+00
 0.1191231937162E+01 -0.1051562599934E+01  0.0000000000000E+00
 0.1201963313665E+01 -0.9468960597248E+00  0.0000000000000E+00
 0.1211404324746E+01 -0.8421131129151E+00  0.0000000000000E+00
 0.1219537524290E+01 -0.7372336392801E+00  0.0000000000000E+00
 0.1226254685851E+01 -0.6322701194360E+00  0.0000000000000E+00
 0.1231361841170E+01 -0.5272308382660E+00  0.0000000000000E+00
 0.1234790988415E+01 -0.4221350078711E+00  0.0000000000000E+00
 0.1236520479278E+01 -0.3169992880658E+00  0.0000000000000E+00
 0.1236491703509E+01 -0.2118287805937E+00  0.0000000000000E+00
 0.1234826517314E+01 -0.1066293399394E+00  0.0000000000000E+00
 0.1232086552266E+01 -0.1407255112799E-02  0.0000000000000E+00
 0.1224224413940E+01  0.1036279608923E+00  0.0000000000000E+00
 0.1207523749961E+01  0.2076019058355E+00  0.0000000000000E+00
 0.1181415856106E+01  0.3093717673968E+00  0.0000000000000E+00
 0.1145909520106E+01  0.4077355989009E+00  0.0000000000000E+00
 0.1102483483250E+01  0.5021930502559E+00  0.0000000000000E+00
 0.1052797279634E+01  0.5927519011209E+00  0.0000000000000E+00
 0.9974246039186E+00  0.6790547775596E+00  0.0000000000000E+00
 0.1212379485664E+01 -0.1154609888965E+01  0.0000000000000E+00
 0.1225333288168E+01 -0.1048610433004E+01  0.0000000000000E+00
 0.1236888962590E+01 -0.9424496505634E+00  0.0000000000000E+00
 0.1247151083856E+01 -0.8361622177279E+00  0.0000000000000E+00
 0.1256111467692E+01 -0.7297674202137E+00  0.0000000000000E+00
 0.1263664653304E+01 -0.6232762059200E+00  0.0000000000000E+00
 0.1269610363897E+01 -0.5166948937553E+00  0.0000000000000E+00
 0.1273873589957E+01 -0.4100421150449E+00  0.0000000000000E+00
 0.1276414060007E+01 -0.3033360071587E+00  0.0000000000000E+00
 0.1277134454491E+01 -0.1965859780004E+00  0.0000000000000E+00
 0.1276116162893E+01 -0.8980520733696E-01  0.0000000000000E+00
 0.1273907836023E+01  0.1699266338249E-01  0.0000000000000E+00
 0.1266174071142E+01  0.1235810393011E+00  0.0000000000000E+00
 0.1248948973703E+01  0.2290304317219E+00  0.0000000000000E+00
 0.1221625537903E+01  0.3321283840874E+00  0.0000000000000E+00
 0.1184218915188E+01  0.4316003118353E+00  0.0000000000000E+00
 0.1138309797984E+01  0.5269169057486E+00  0.0000000000000E+00
 0.1085671793493E+01  0.6180882682604E+00  0.0000000000000E+00
 0.1026924232931E+01  0.7047360424775E+00  0.0000000000000E+00
 0.1245637994240E+01 -0.1153140954035E+01  0.0000000000000E+00
 0.1259434639173E+01 -0.1045658266075E+01  0.0000000000000E+00
 0.1271814611516E+01 -0.9380032414020E+00  0.0000000000000E+00
 0.1282897842966E+01 -0.8302113225406E+00  0.0000000000000E+00
 0.1292685411094E+01 -0.7223012011472E+00  0.0000000000000E+00
 0.1301074620757E+01 -0.6142822924041E+00  0.0000000000000E+00
 0.1307858886624E+01 -0.5061589492446E+00  0.0000000000000E+00
 0.1312956191499E+01 -0.3979492222187E+00  0.0000000000000E+00
 0.1316307640736E+01 -0.2896727262515E+00  0.0000000000000E+00
 0.1317777205473E+01 -0.1813431754072E+00  0.0000000000000E+00
 0.1317405808471E+01 -0.7298107473448E-01  0.0000000000000E+00
 0.1315729119780E+01  0.3539258187777E-01  0.0000000000000E+00
 0.1308123728344E+01  0.1435341177098E+00  0.0000000000000E+00
 0.1290374197445E+01  0.2504589576084E+00  0.0000000000000E+00
 0.1261835219700E+01  0.3548850007780E+00  0.0000000000000E+00
 0.1222528310271E+01  0.4554650247697E+00  0.0000000000000E+00
 0.1174136112718E+01  0.5516407612413E+00  0.0000000000000E+00
 0.1118546307352E+01  0.6434246353999E+00  0.0000000000000E+00
 0.1056423861944E+01  0.7304173073953E+00  0.0000000000000E+00
 0.1278896502817E+01 -0.1151672019104E+01  0.0000000000000E+00
 0.1293535990179E+01 -0.1042706099146E+01  0.0000000000000E+00
 0.1306740260442E+01 -0.9335568322407E+00  0.0000000000000E+00
 0.1318644602076E+01 -0.8242604273534E+00  0.0000000000000E+00
 0.1329259354497E+01 -0.7148349820807E+00  0.0000000000000E+00
 0.1338484588210E+01 -0.6052883788882E+00  0.0000000000000E+00
 0.1346107409351E+01 -0.4956230047339E+00  0.0000000000000E+00
 0.1352038793042E+01 -0.3858563293925E+00  0.0000000000000E+00
 0.1356201221464E+01 -0.2760094453444E+00  0.0000000000000E+00
 0.1358419956455E+01 -0.1661003728140E+00  0.0000000000000E+00
 0.1358695454050E+01 -0.5615694213201E-01  0.0000000000000E+00
 0.1357550403536E+01  0.5379250037306E-01  0.0000000000000E+00
 0.1350073385546E+01  0.1634871961186E+00  0.0000000000000E+00
 0.1331799421186E+01  0.2718874834949E+00  0.0000000000000E+00
 0.1302044901497E+01  0.3776416174686E+00  0.0000000000000E+00
 0.1260837705354E+01  0.4793297377041E+00  0.0000000000000E+00
 0.1209962427452E+01  0.5763646167340E+00  0.0000000000000E+00
 0.1151420821211E+01  0.6687610025394E+00  0.0000000000000E+00
 0.1085923490956E+01  0.7560985723131E+00  0.0000000000000E+00
-0.5241075387717E+00  0.3828365024885E+00  0.0000000000000E+00
-0.5489124003152E+00  0.4100062281915E+00  0.0000000000000E+00
-0.5737172618587E+00  0.4371759538945E+00  0.0000000000000E+00
-0.5985221234022E+00  0.4643456795974E+00  0.0000000000000E+00
-0.6233269849456E+00  0.4915154053004E+00  0.0000000000000E+00
-0.6481318464891E+00  0.5186851310034E+00  0.0000000000000E+00
-0.6729367080326E+00  0.5458548567064E+00  0.0000000000000E+00
-0.6977415695760E+00  0.5730245824093E+00  0.0000000000000E+00
-0.7225464311195E+00  0.6001943081123E+00  0.0000000000000E+00
-0.7473512926630E+00  0.6273640338153E+00  0.0000000000000E+00
-0.7721561542064E+00  0.6545337595182E+00  0.0000000000000E+00
-0.7969610157499E+00  0.6817034852212E+00  0.0000000000000E+00
-0.8217658772934E+00  0.7088732109242E+00  0.0000000000000E+00
-0.8465707388369E+00  0.7360429366271E+00  0.0000000000000E+00
-0.8713756003803E+00  0.7632126623301E+00  0.0000000000000E+00
-0.8961804619238E+00  0.7903823880331E+00  0.0000000000000E+00
-0.9209853234673E+00  0.8175521137361E+00  0.0000000000000E+00
-0.9457901850107E+00  0.8447218394390E+00  0.0000000000000E+00
-0.9705950465542E+00  0.8718915651420E+00  0.0000000000000E+00
-0.4973724741866E+00  0.3906327015564E+00  0.0000000000000E+00
-0.5212203820320E+00  0.4191990685373E+00  0.0000000000000E+00
-0.5450682898774E+00  0.4477654355183E+00  0.0000000000000E+00
-0.5689161977228E+00  0.4763318024992E+00  0.0000000000000E+00
-0.5927641055682E+00  0.5048981694801E+00  0.0000000000000E+00
-0.6166120134136E+00  0.5334645364611E+00  0.0000000000000E+00
-0.6404599212590E+00  0.5620309034420E+00  0.0000000000000E+00
-0.6643078291044E+00  0.5905972704229E+00  0.0000000000000E+00
-0.6881557369498E+00  0.6191636374039E+00  0.0000000000000E+00
-0.7120036447952E+00  0.6477300043848E+00  0.0000000000000E+00
-0.7358515526406E+00  0.6762963713657E+00  0.0000000000000E+00
-0.7596994604860E+00  0.7048627383467E+00  0.0000000000000E+00
-0.7835473683314E+00  0.7334291053276E+00  0.0000000000000E+00
-0.8073952761768E+00  0.7619954723085E+00  0.0000000000000E+00
-0.8312431840221E+00  0.7905618392895E+00  0.0000000000000E+00
-0.8550910918675E+00  0.8191282062704E+00  0.0000000000000E+00
-0.8789389997129E+00  0.8476945732514E+00  0.0000000000000E+00
-0.9027869075583E+00  0.8762609402323E+00  0.0000000000000E+00
-0.9266348154037E+00  0.9048273072132E+00  0.0000000000000E+00
-0.4704791810931E+00  0.3980072356707E+00  0.0000000000000E+00
-0.4932896417959E+00  0.4278699691922E+00  0.0000000000000E+00
-0.5161001024988E+00  0.4577327027136E+00  0.0000000000000E+00
-0.5389105632016E+00  0.4875954362350E+00  0.0000000000000E+00
-0.5617210239044E+00  0.5174581697564E+00  0.0000000000000E+00
-0.5845314846072E+00  0.5473209032779E+00  0.0000000000000E+00
-0.6073419453101E+00  0.5771836367993E+00  0.0000000000000E+00
-0.6301524060129E+00  0.6070463703207E+00  0.0000000000000E+00
-0.6529628667157E+00  0.6369091038421E+00  0.0000000000000E+00
-0.6757733274185E+00  0.6667718373635E+00  0.0000000000000E+00
-0.6985837881214E+00  0.6966345708850E+00  0.0000000000000E+00
-0.7213942488242E+00  0.7264973044064E+00  0.0000000000000E+00
-0.7442047095270E+00  0.7563600379278E+00  0.0000000000000E+00
-0.7670151702298E+00  0.7862227714492E+00  0.0000000000000E+00
-0.7898256309326E+00  0.8160855049706E+00  0.0000000000000E+00
-0.8126360916355E+00  0.8459482384921E+00  0.0000000000000E+00
-0.8354465523383E+00  0.8758109720135E+00  0.0000000000000E+00
-0.8582570130411E+00  0.9056737055349E+00  0.0000000000000E+00
-0.8810674737439E+00  0.9355364390563E+00  0.0000000000000E+00
-0.4434431133913E+00  0.4049623049046E+00  0.0000000000000E+00
-0.4651476228734E+00  0.4360271534721E+00  0.0000000000000E+00
-0.4868521323554E+00  0.4670920020396E+00  0.0000000000000E+00
-0.5085566418375E+00  0.4981568506071E+00  0.0000000000000E+00
-0.5302611513196E+00  0.5292216991746E+00  0.0000000000000E+00
-0.5519656608017E+00  0.5602865477421E+00  0.0000000000000E+00
-0.5736701702838E+00  0.5913513963096E+00  0.0000000000000E+00
-0.5953746797659E+00  0.6224162448771E+00  0.0000000000000E+00
-0.6170791892479E+00  0.6534810934446E+00  0.0000000000000E+00
-0.6387836987300E+00  0.6845459420121E+00  0.0000000000000E+00
-0.6604882082121E+00  0.7156107905796E+00  0.0000000000000E+00
-0.6821927176942E+00  0.7466756391471E+00  0.0000000000000E+00
-0.7038972271763E+00  0.7777404877146E+00  0.0000000000000E+00
-0.7256017366584E+00  0.8088053362822E+00  0.0000000000000E+00
-0.7473062461404E+00  0.8398701848497E+00  0.0000000000000E+00
-0.7690107556225E+00  0.8709350334172E+00  0.0000000000000E+00
-0.7907152651046E+00  0.9019998819847E+00  0.0000000000000E+00
-0.8124197745867E+00  0.9330647305522E+00  0.0000000000000E+00
-0.8341242840688E+00  0.9641295791197E+00  0.0000000000000E+00
-0.4162795944393E+00  0.4115031806360E+00  0.0000000000000E+00
-0.4368214338124E+00  0.4436848274892E+00  0.0000000000000E+00
-0.4573632731855E+00  0.4758664743423E+00  0.0000000000000E+00
-0.4779051125585E+00  0.5080481211954E+00  0.0000000000000E+00
-0.4984469519316E+00  0.5402297680486E+00  0.0000000000000E+00
-0.5189887913047E+00  0.5724114149017E+00  0.0000000000000E+00
-0.5395306306778E+00  0.6045930617548E+00  0.0000000000000E+00
-0.5600724700509E+00  0.6367747086080E+00  0.0000000000000E+00
-0.5806143094240E+00  0.6689563554611E+00  0.0000000000000E+00
-0.6011561487970E+00  0.7011380023142E+00  0.0000000000000E+00
-0.6216979881701E+00  0.7333196491674E+00  0.0000000000000E+00
-0.6422398275432E+00  0.7655012960205E+00  0.0000000000000E+00
-0.6627816669163E+00  0.7976829428736E+00  0.0000000000000E+00
-0.6833235062894E+00  0.8298645897268E+00  0.0000000000000E+00
-0.7038653456625E+00  0.8620462365799E+00  0.0000000000000E+00
-0.7244071850355E+00  0.8942278834330E+00  0.0000000000000E+00
-0.7449490244086E+00  0.9264095302862E+00  0.0000000000000E+00
-0.7654908637817E+00  0.9585911771393E+00  0.0000000000000E+00
-0.7860327031548E+00  0.9907728239924E+00  0.0000000000000E+00
-0.3890049746149E+00  0.4176409907798E+00  0.0000000000000E+00
-0.4083402172239E+00  0.4508687343098E+00  0.0000000000000E+00
-0.4276754598330E+00  0.4840964778399E+00  0.0000000000000E+00
-0.4470107024420E+00  0.5173242213700E+00  0.0000000000000E+00
-0.4663459450510E+00  0.5505519649000E+00  0.0000000000000E+00
-0.4856811876600E+00  0.5837797084301E+00  0.0000000000000E+00
-0.5050164302691E+00  0.6170074519601E+00  0.0000000000000E+00
-0.5243516728781E+00  0.6502351954902E+00  0.0000000000000E+00
-0.5436869154871E+00  0.6834629390203E+00  0.0000000000000E+00
-0.5630221580962E+00  0.7166906825503E+00  0.0000000000000E+00
-0.5823574007052E+00  0.7499184260804E+00  0.0000000000000E+00
-0.6016926433142E+00  0.7831461696105E+00  0.0000000000000E+00
-0.6210278859232E+00  0.8163739131405E+00  0.0000000000000E+00
-0.6403631285323E+00  0.8496016566706E+00  0.0000000000000E+00
-0.6596983711413E+00  0.8828294002006E+00  0.0000000000000E+00
-0.6790336137503E+00  0.9160571437307E+00  0.0000000000000E+00
-0.6983688563594E+00  0.9492848872608E+00  0.0000000000000E+00
-0.7177040989684E+00  0.9825126307908E+00  0.0000000000000E+00
-0.7370393415774E+00  0.1015740374321E+01  0.0000000000000E+00
-0.3616375814374E+00  0.4233950320155E+00  0.0000000000000E+00
-0.3797367705145E+00  0.4576208248420E+00  0.0000000000000E+00
-0.3978359595916E+00  0.4918466176685E+00  0.0000000000000E+00
-0.4159351486687E+00  0.5260724104950E+00  0.0000000000000E+00
-0.4340343377458E+00  0.5602982033215E+00  0.0000000000000E+00
-0.4521335268229E+00  0.5945239961480E+00  0.0000000000000E+00
-0.4702327159000E+00  0.6287497889745E+00  0.0000000000000E+00
-0.4883319049771E+00  0.6629755818010E+00  0.0000000000000E+00
-0.5064310940542E+00  0.6972013746275E+00  0.0000000000000E+00
-0.5245302831313E+00  0.7314271674540E+00  0.0000000000000E+00
-0.5426294722084E+00  0.7656529602805E+00  0.0000000000000E+00
-0.5607286612855E+00  0.7998787531070E+00  0.0000000000000E+00
-0.5788278503626E+00  0.8341045459335E+00  0.0000000000000E+00
-0.5969270394397E+00  0.8683303387600E+00  0.0000000000000E+00
-0.6150262285168E+00  0.9025561315865E+00  0.0000000000000E+00
-0.6331254175939E+00  0.9367819244129E+00  0.0000000000000E+00
-0.6512246066710E+00  0.9710077172394E+00  0.0000000000000E+00
-0.6693237957481E+00  0.1005233510066E+01  0.0000000000000E+00
-0.6874229848252E+00  0.1039459302892E+01  0.0000000000000E+00
-0.3341971102105E+00  0.4287924375866E+00  0.0000000000000E+00
-0.3510465988283E+00  0.4639985282286E+00  0.0000000000000E+00
-0.3678960874461E+00  0.4992046188705E+00  0.0000000000000E+00
-0.3847455760639E+00  0.5344107095124E+00  0.0000000000000E+00
-0.4015950646816E+00  0.5696168001544E+00  0.0000000000000E+00
-0.4184445532994E+00  0.6048228907963E+00  0.0000000000000E+00
-0.4352940419172E+00  0.6400289814383E+00  0.0000000000000E+00
-0.4521435305350E+00  0.6752350720802E+00  0.0000000000000E+00
-0.4689930191527E+00  0.7104411627221E+00  0.0000000000000E+00
-0.4858425077705E+00  0.7456472533641E+00  0.0000000000000E+00
-0.5026919963883E+00  0.7808533440060E+00  0.0000000000000E+00
-0.5195414850061E+00  0.8160594346480E+00  0.0000000000000E+00
-0.5363909736238E+00  0.8512655252899E+00  0.0000000000000E+00
-0.5532404622416E+00  0.8864716159318E+00  0.0000000000000E+00
-0.5700899508594E+00  0.9216777065738E+00  0.0000000000000E+00
-0.5869394394772E+00  0.9568837972157E+00  0.0000000000000E+00
-0.6037889280950E+00  0.9920898878576E+00  0.0000000000000E+00
-0.6206384167127E+00  0.1027295978500E+01  0.0000000000000E+00
-0.6374879053305E+00  0.1062502069142E+01  0.0000000000000E+00
-0.3066965706001E+00  0.4338489484850E+00  0.0000000000000E+00
-0.3222916391952E+00  0.4700363162541E+00  0.0000000000000E+00
-0.3378867077903E+00  0.5062236840232E+00  0.0000000000000E+00
-0.3534817763854E+00  0.5424110517923E+00  0.0000000000000E+00
-0.3690768449805E+00  0.5785984195614E+00  0.0000000000000E+00
-0.3846719135756E+00  0.6147857873305E+00  0.0000000000000E+00
-0.4002669821708E+00  0.6509731550996E+00  0.0000000000000E+00
-0.4158620507659E+00  0.6871605228687E+00  0.0000000000000E+00
-0.4314571193610E+00  0.7233478906379E+00  0.0000000000000E+00
-0.4470521879561E+00  0.7595352584070E+00  0.0000000000000E+00
-0.4626472565512E+00  0.7957226261761E+00  0.0000000000000E+00
-0.4782423251463E+00  0.8319099939452E+00  0.0000000000000E+00
-0.4938373937414E+00  0.8680973617143E+00  0.0000000000000E+00
-0.5094324623365E+00  0.9042847294834E+00  0.0000000000000E+00
-0.5250275309316E+00  0.9404720972525E+00  0.0000000000000E+00
-0.5406225995268E+00  0.9766594650216E+00  0.0000000000000E+00
-0.5562176681219E+00  0.1012846832791E+01  0.0000000000000E+00
-0.5718127367170E+00  0.1049034200560E+01  0.0000000000000E+00
-0.5874078053121E+00  0.1085221568329E+01  0.0000000000000E+00
-0.2791218293927E+00  0.4385208078592E+00  0.0000000000000E+00
-0.2934394861648E+00  0.4756494588749E+00  0.0000000000000E+00
-0.3077571429369E+00  0.5127781098906E+00  0.0000000000000E+00
-0.3220747997090E+00  0.5499067609063E+00  0.0000000000000E+00
-0.3363924564811E+00  0.5870354119220E+00  0.0000000000000E+00
-0.3507101132532E+00  0.6241640629377E+00  0.0000000000000E+00
-0.3650277700253E+00  0.6612927139534E+00  0.0000000000000E+00
-0.3793454267974E+00  0.6984213649692E+00  0.0000000000000E+00
-0.3936630835695E+00  0.7355500159849E+00  0.0000000000000E+00
-0.4079807403416E+00  0.7726786670006E+00  0.0000000000000E+00
-0.4222983971137E+00  0.8098073180163E+00  0.0000000000000E+00
-0.4366160538858E+00  0.8469359690320E+00  0.0000000000000E+00
-0.4509337106579E+00  0.8840646200477E+00  0.0000000000000E+00
-0.4652513674300E+00  0.9211932710634E+00  0.0000000000000E+00
-0.4795690242021E+00  0.9583219220791E+00  0.0000000000000E+00
-0.4938866809742E+00  0.9954505730948E+00  0.0000000000000E+00
-0.5082043377463E+00  0.1032579224111E+01  0.0000000000000E+00
-0.5225219945184E+00  0.1069707875126E+01  0.0000000000000E+00
-0.5368396512905E+00  0.1106836526142E+01  0.0000000000000E+00
-0.2514639251819E+00  0.4427693913927E+00  0.0000000000000E+00
-0.2644679291393E+00  0.4807632912527E+00  0.0000000000000E+00
-0.2774719330968E+00  0.5187571911127E+00  0.0000000000000E+00
-0.2904759370542E+00  0.5567510909728E+00  0.0000000000000E+00
-0.3034799410116E+00  0.5947449908328E+00  0.0000000000000E+00
-0.3164839449691E+00  0.6327388906929E+00  0.0000000000000E+00
-0.3294879489265E+00  0.6707327905529E+00  0.0000000000000E+00
-0.3424919528839E+00  0.7087266904129E+00  0.0000000000000E+00
-0.3554959568414E+00  0.7467205902730E+00  0.0000000000000E+00
-0.3684999607988E+00  0.7847144901330E+00  0.0000000000000E+00
-0.3815039647562E+00  0.8227083899931E+00  0.0000000000000E+00
-0.3945079687137E+00  0.8607022898531E+00  0.0000000000000E+00
-0.4075119726711E+00  0.8986961897131E+00  0.0000000000000E+00
-0.4205159766285E+00  0.9366900895732E+00  0.0000000000000E+00
-0.4335199805859E+00  0.9746839894332E+00  0.0000000000000E+00
-0.4465239845434E+00  0.1012677889293E+01  0.0000000000000E+00
-0.4595279885008E+00  0.1050671789153E+01  0.0000000000000E+00
-0.4725319924582E+00  0.1088665689013E+01  0.0000000000000E+00
-0.4855359964157E+00  0.1126659588873E+01  0.0000000000000E+00
-0.2237255065535E+00  0.4465773318235E+00  0.0000000000000E+00
-0.2353778815772E+00  0.4853454460208E+00  0.0000000000000E+00
-0.2470302566009E+00  0.5241135602180E+00  0.0000000000000E+00
-0.2586826316245E+00  0.5628816744153E+00  0.0000000000000E+00
-0.2703350066482E+00  0.6016497886126E+00  0.0000000000000E+00
-0.2819873816718E+00  0.6404179028098E+00  0.0000000000000E+00
-0.2936397566955E+00  0.6791860170071E+00  0.0000000000000E+00
-0.3052921317192E+00  0.7179541312043E+00  0.0000000000000E+00
-0.3169445067428E+00  0.7567222454016E+00  0.0000000000000E+00
-0.3285968817665E+00  0.7954903595989E+00  0.0000000000000E+00
-0.3402492567901E+00  0.8342584737961E+00  0.0000000000000E+00
-0.3519016318138E+00  0.8730265879934E+00  0.0000000000000E+00
-0.3635540068375E+00  0.9117947021907E+00  0.0000000000000E+00
-0.3752063818611E+00  0.9505628163879E+00  0.0000000000000E+00
-0.3868587568848E+00  0.9893309305852E+00  0.0000000000000E+00
-0.3985111319084E+00  0.1028099044782E+01  0.0000000000000E+00
-0.4101635069321E+00  0.1066867158980E+01  0.0000000000000E+00
-0.4218158819558E+00  0.1105635273177E+01  0.0000000000000E+00
-0.4334682569794E+00  0.1144403387374E+01  0.0000000000000E+00
-0.1959146411182E+00  0.4499388903646E+00  0.0000000000000E+00
-0.2061810087786E+00  0.4893865877542E+00  0.0000000000000E+00
-0.2164473764389E+00  0.5288342851439E+00  0.0000000000000E+00
-0.2267137440993E+00  0.5682819825336E+00  0.0000000000000E+00
-0.2369801117597E+00  0.6077296799233E+00  0.0000000000000E+00
-0.2472464794201E+00  0.6471773773130E+00  0.0000000000000E+00
-0.2575128470805E+00  0.6866250747027E+00  0.0000000000000E+00
-0.2677792147409E+00  0.7260727720924E+00  0.0000000000000E+00
-0.2780455824013E+00  0.7655204694820E+00  0.0000000000000E+00
-0.2883119500617E+00  0.8049681668717E+00  0.0000000000000E+00
-0.2985783177220E+00  0.8444158642614E+00  0.0000000000000E+00
-0.3088446853824E+00  0.8838635616511E+00  0.0000000000000E+00
-0.3191110530428E+00  0.9233112590408E+00  0.0000000000000E+00
-0.3293774207032E+00  0.9627589564305E+00  0.0000000000000E+00
-0.3396437883636E+00  0.1002206653820E+01  0.0000000000000E+00
-0.3499101560240E+00  0.1041654351210E+01  0.0000000000000E+00
-0.3601765236844E+00  0.1081102048600E+01  0.0000000000000E+00
-0.3704428913448E+00  0.1120549745989E+01  0.0000000000000E+00
-0.3807092590051E+00  0.1159997443379E+01  0.0000000000000E+00
-0.1680410293477E+00  0.4528534155756E+00  0.0000000000000E+00
-0.1768921543896E+00  0.4928873240860E+00  0.0000000000000E+00
-0.1857432794315E+00  0.5329212325965E+00  0.0000000000000E+00
-0.1945944044734E+00  0.5729551411069E+00  0.0000000000000E+00
-0.2034455295152E+00  0.6129890496173E+00  0.0000000000000E+00
-0.2122966545571E+00  0.6530229581278E+00  0.0000000000000E+00
-0.2211477795990E+00  0.6930568666382E+00  0.0000000000000E+00
-0.2299989046409E+00  0.7330907751486E+00  0.0000000000000E+00
-0.2388500296828E+00  0.7731246836591E+00  0.0000000000000E+00
-0.2477011547246E+00  0.8131585921695E+00  0.0000000000000E+00
-0.2565522797665E+00  0.8531925006799E+00  0.0000000000000E+00
-0.2654034048084E+00  0.8932264091904E+00  0.0000000000000E+00
-0.2742545298503E+00  0.9332603177008E+00  0.0000000000000E+00
-0.2831056548921E+00  0.9732942262112E+00  0.0000000000000E+00
-0.2919567799340E+00  0.1013328134722E+01  0.0000000000000E+00
-0.3008079049759E+00  0.1053362043232E+01  0.0000000000000E+00
-0.3096590300178E+00  0.1093395951743E+01  0.0000000000000E+00
-0.3185101550597E+00  0.1133429860253E+01  0.0000000000000E+00
-0.3273612801015E+00  0.1173463768763E+01  0.0000000000000E+00
-0.1401143208464E+00  0.4553218992365E+00  0.0000000000000E+00
-0.1475259700085E+00  0.4958513109285E+00  0.0000000000000E+00
-0.1549376191705E+00  0.5363807226205E+00  0.0000000000000E+00
-0.1623492683326E+00  0.5769101343125E+00  0.0000000000000E+00
-0.1697609174946E+00  0.6174395460045E+00  0.0000000000000E+00
-0.1771725666567E+00  0.6579689576965E+00  0.0000000000000E+00
-0.1845842158187E+00  0.6984983693885E+00  0.0000000000000E+00
-0.1919958649808E+00  0.7390277810805E+00  0.0000000000000E+00
-0.1994075141428E+00  0.7795571927725E+00  0.0000000000000E+00
-0.2068191633048E+00  0.8200866044646E+00  0.0000000000000E+00
-0.2142308124669E+00  0.8606160161566E+00  0.0000000000000E+00
-0.2216424616289E+00  0.9011454278486E+00  0.0000000000000E+00
-0.2290541107910E+00  0.9416748395406E+00  0.0000000000000E+00
-0.2364657599530E+00  0.9822042512326E+00  0.0000000000000E+00
-0.2438774091151E+00  0.1022733662925E+01  0.0000000000000E+00
-0.2512890582771E+00  0.1063263074617E+01  0.0000000000000E+00
-0.2587007074392E+00  0.1103792486309E+01  0.0000000000000E+00
-0.2661123566012E+00  0.1144321898001E+01  0.0000000000000E+00
-0.2735240057633E+00  0.1184851309693E+01  0.0000000000000E+00
-0.1121439916984E+00  0.4573452348171E+00  0.0000000000000E+00
-0.1180967026830E+00  0.4982817607989E+00  0.0000000000000E+00
-0.1240494136676E+00  0.5392182867806E+00  0.0000000000000E+00
-0.1300021246522E+00  0.5801548127624E+00  0.0000000000000E+00
-0.1359548356368E+00  0.6210913387441E+00  0.0000000000000E+00
-0.1419075466214E+00  0.6620278647259E+00  0.0000000000000E+00
-0.1478602576060E+00  0.7029643907077E+00  0.0000000000000E+00
-0.1538129685906E+00  0.7439009166894E+00  0.0000000000000E+00
-0.1597656795751E+00  0.7848374426712E+00  0.0000000000000E+00
-0.1657183905597E+00  0.8257739686529E+00  0.0000000000000E+00
-0.1716711015443E+00  0.8667104946347E+00  0.0000000000000E+00
-0.1776238125289E+00  0.9076470206164E+00  0.0000000000000E+00
-0.1835765235135E+00  0.9485835465982E+00  0.0000000000000E+00
-0.1895292344981E+00  0.9895200725800E+00  0.0000000000000E+00
-0.1954819454827E+00  0.1030456598562E+01  0.0000000000000E+00
-0.2014346564673E+00  0.1071393124543E+01  0.0000000000000E+00
-0.2073873674519E+00  0.1112329650525E+01  0.0000000000000E+00
-0.2133400784365E+00  0.1153266176507E+01  0.0000000000000E+00
-0.2192927894211E+00  0.1194202702489E+01  0.0000000000000E+00
-0.8413885627146E-01  0.4589235298149E+00  0.0000000000000E+00
-0.8861721895939E-01  0.5001800629532E+00  0.0000000000000E+00
-0.9309558164732E-01  0.5414365960915E+00  0.0000000000000E+00
-0.9757394433525E-01  0.5826931292297E+00  0.0000000000000E+00
-0.1020523070232E+00  0.6239496623680E+00  0.0000000000000E+00
-0.1065306697111E+00  0.6652061955063E+00  0.0000000000000E+00
-0.1110090323990E+00  0.7064627286446E+00  0.0000000000000E+00
-0.1154873950870E+00  0.7477192617829E+00  0.0000000000000E+00
-0.1199657577749E+00  0.7889757949212E+00  0.0000000000000E+00
-0.1244441204628E+00  0.8302323280595E+00  0.0000000000000E+00
-0.1289224831508E+00  0.8714888611978E+00  0.0000000000000E+00
-0.1334008458387E+00  0.9127453943361E+00  0.0000000000000E+00
-0.1378792085266E+00  0.9540019274744E+00  0.0000000000000E+00
-0.1423575712146E+00  0.9952584606127E+00  0.0000000000000E+00
-0.1468359339025E+00  0.1036514993751E+01  0.0000000000000E+00
-0.1513142965904E+00  0.1077771526889E+01  0.0000000000000E+00
-0.1557926592784E+00  0.1119028060028E+01  0.0000000000000E+00
-0.1602710219663E+00  0.1160284593166E+01  0.0000000000000E+00
-0.1647493846542E+00  0.1201541126304E+01  0.0000000000000E+00
-0.5610747836923E-01  0.4600556068131E+00  0.0000000000000E+00
-0.5909983820158E-01  0.5015447808148E+00  0.0000000000000E+00
-0.6209219803393E-01  0.5430339548165E+00  0.0000000000000E+00
-0.6508455786628E-01  0.5845231288182E+00  0.0000000000000E+00
-0.6807691769863E-01  0.6260123028200E+00  0.0000000000000E+00
-0.7106927753098E-01  0.6675014768217E+00  0.0000000000000E+00
-0.7406163736334E-01  0.7089906508234E+00  0.0000000000000E+00
-0.7705399719569E-01  0.7504798248252E+00  0.0000000000000E+00
-0.8004635702804E-01  0.7919689988269E+00  0.0000000000000E+00
-0.8303871686039E-01  0.8334581728286E+00  0.0000000000000E+00
-0.8603107669274E-01  0.8749473468303E+00  0.0000000000000E+00
-0.8902343652509E-01  0.9164365208321E+00  0.0000000000000E+00
-0.9201579635744E-01  0.9579256948338E+00  0.0000000000000E+00
-0.9500815618979E-01  0.9994148688355E+00  0.0000000000000E+00
-0.9800051602214E-01  0.1040904042837E+01  0.0000000000000E+00
-0.1009928758545E+00  0.1082393216839E+01  0.0000000000000E+00
-0.1039852356868E+00  0.1123882390841E+01  0.0000000000000E+00
-0.1069775955192E+00  0.1165371564842E+01  0.0000000000000E+00
-0.1099699553515E+00  0.1206860738844E+01  0.0000000000000E+00
-0.2805830974039E-01  0.4607386669267E+00  0.0000000000000E+00
-0.2955662089814E-01  0.5023709751786E+00  0.0000000000000E+00
-0.3105493205590E-01  0.5440032834305E+00  0.0000000000000E+00
-0.3255324321365E-01  0.5856355916824E+00  0.0000000000000E+00
-0.3405155437141E-01  0.6272678999343E+00  0.0000000000000E+00
-0.3554986552916E-01  0.6689002081862E+00  0.0000000000000E+00
-0.3704817668692E-01  0.7105325164381E+00  0.0000000000000E+00
-0.3854648784467E-01  0.7521648246900E+00  0.0000000000000E+00
-0.4004479900242E-01  0.7937971329419E+00  0.0000000000000E+00
-0.4154311016018E-01  0.8354294411938E+00  0.0000000000000E+00
-0.4304142131793E-01  0.8770617494457E+00  0.0000000000000E+00
-0.4453973247569E-01  0.9186940576976E+00  0.0000000000000E+00
-0.4603804363344E-01  0.9603263659495E+00  0.0000000000000E+00
-0.4753635479120E-01  0.1001958674201E+01  0.0000000000000E+00
-0.4903466594895E-01  0.1043590982453E+01  0.0000000000000E+00
-0.5053297710671E-01  0.1085223290705E+01  0.0000000000000E+00
-0.5203128826446E-01  0.1126855598957E+01  0.0000000000000E+00
-0.5352959942222E-01  0.1168487907209E+01  0.0000000000000E+00
-0.5502791057997E-01  0.1210120215461E+01  0.0000000000000E+00
 0.2860756622583E-09  0.4609678550140E+00  0.0000000000000E+00
 0.5721514265632E-09  0.5026493319786E+00  0.0000000000000E+00
 0.8582273643404E-09  0.5443308089433E+00  0.0000000000000E+00
 0.1144303288240E-08  0.5860122859079E+00  0.0000000000000E+00
 0.1430379267650E-08  0.6276937628726E+00  0.0000000000000E+00
 0.1716455108283E-08  0.6693752398372E+00  0.0000000000000E+00
 0.2002531059938E-08  0.7110567168019E+00  0.0000000000000E+00
 0.2288607011593E-08  0.7527381937665E+00  0.0000000000000E+00
 0.2574682879981E-08  0.7944196707312E+00  0.0000000000000E+00
 0.2860758831636E-08  0.8361011476958E+00  0.0000000000000E+00
 0.3146834755536E-08  0.8777826246605E+00  0.0000000000000E+00
 0.3432910790458E-08  0.9194641016251E+00  0.0000000000000E+00
 0.3718986714357E-08  0.9611455785898E+00  0.0000000000000E+00
 0.4005062638256E-08  0.1002827055554E+01  0.0000000000000E+00
 0.4291138673178E-08  0.1044508532519E+01  0.0000000000000E+00
 0.4577214430544E-08  0.1086190009484E+01  0.0000000000000E+00
 0.4863290520977E-08  0.1127871486448E+01  0.0000000000000E+00
 0.5149366278343E-08  0.1169552963413E+01  0.0000000000000E+00
 0.5435442368776E-08  0.1211234440378E+01  0.0000000000000E+00
 0.2805831031206E-01  0.4607386669015E+00  0.0000000000000E+00
 0.2955662204149E-01  0.5023709751282E+00  0.0000000000000E+00
 0.3105493377092E-01  0.5440032833549E+00  0.0000000000000E+00
 0.3255324550035E-01  0.5856355915817E+00  0.0000000000000E+00
 0.3405155722978E-01  0.6272678998084E+00  0.0000000000000E+00
 0.3554986895921E-01  0.6689002080351E+00  0.0000000000000E+00
 0.3704818068864E-01  0.7105325162618E+00  0.0000000000000E+00
 0.3854649241807E-01  0.7521648244885E+00  0.0000000000000E+00
 0.4004480414750E-01  0.7937971327152E+00  0.0000000000000E+00
 0.4154311587693E-01  0.8354294409419E+00  0.0000000000000E+00
 0.4304142760636E-01  0.8770617491687E+00  0.0000000000000E+00
 0.4453973933579E-01  0.9186940573954E+00  0.0000000000000E+00
 0.4603805106522E-01  0.9603263656221E+00  0.0000000000000E+00
 0.4753636279465E-01  0.1001958673849E+01  0.0000000000000E+00
 0.4903467452408E-01  0.1043590982076E+01  0.0000000000000E+00
 0.5053298625351E-01  0.1085223290302E+01  0.0000000000000E+00
 0.5203129798294E-01  0.1126855598529E+01  0.0000000000000E+00
 0.5352960971237E-01  0.1168487906756E+01  0.0000000000000E+00
 0.5502792144180E-01  0.1210120214982E+01  0.0000000000000E+00
 0.5610747893947E-01  0.4600556067638E+00  0.0000000000000E+00
 0.5909983934207E-01  0.5015447807163E+00  0.0000000000000E+00
 0.6209219974467E-01  0.5430339546687E+00  0.0000000000000E+00
 0.6508456014726E-01  0.5845231286212E+00  0.0000000000000E+00
 0.6807692054986E-01  0.6260123025737E+00  0.0000000000000E+00
 0.7106928095246E-01  0.6675014765262E+00  0.0000000000000E+00
 0.7406164135505E-01  0.7089906504786E+00  0.0000000000000E+00
 0.7705400175765E-01  0.7504798244311E+00  0.0000000000000E+00
 0.8004636216024E-01  0.7919689983836E+00  0.0000000000000E+00
 0.8303872256284E-01  0.8334581723360E+00  0.0000000000000E+00
 0.8603108296544E-01  0.8749473462885E+00  0.0000000000000E+00
 0.8902344336803E-01  0.9164365202410E+00  0.0000000000000E+00
 0.9201580377063E-01  0.9579256941934E+00  0.0000000000000E+00
 0.9500816417323E-01  0.9994148681459E+00  0.0000000000000E+00
 0.9800052457582E-01  0.1040904042098E+01  0.0000000000000E+00
 0.1009928849784E+00  0.1082393216051E+01  0.0000000000000E+00
 0.1039852453810E+00  0.1123882390003E+01  0.0000000000000E+00
 0.1069776057836E+00  0.1165371563956E+01  0.0000000000000E+00
 0.1099699661862E+00  0.1206860737908E+01  0.0000000000000E+00
 0.8413885683948E-01  0.4589235297423E+00  0.0000000000000E+00
 0.8861722009544E-01  0.5001800628080E+00  0.0000000000000E+00
 0.9309558335140E-01  0.5414365958738E+00  0.0000000000000E+00
 0.9757394660735E-01  0.5826931289395E+00  0.0000000000000E+00
 0.1020523098633E+00  0.6239496620052E+00  0.0000000000000E+00
 0.1065306731193E+00  0.6652061950710E+00  0.0000000000000E+00
 0.1110090363752E+00  0.7064627281367E+00  0.0000000000000E+00
 0.1154873996312E+00  0.7477192612024E+00  0.0000000000000E+00
 0.1199657628871E+00  0.7889757942682E+00  0.0000000000000E+00
 0.1244441261431E+00  0.8302323273339E+00  0.0000000000000E+00
 0.1289224893991E+00  0.8714888603996E+00  0.0000000000000E+00
 0.1334008526550E+00  0.9127453934654E+00  0.0000000000000E+00
 0.1378792159110E+00  0.9540019265311E+00  0.0000000000000E+00
 0.1423575791669E+00  0.9952584595968E+00  0.0000000000000E+00
 0.1468359424229E+00  0.1036514992663E+01  0.0000000000000E+00
 0.1513143056788E+00  0.1077771525728E+01  0.0000000000000E+00
 0.1557926689348E+00  0.1119028058794E+01  0.0000000000000E+00
 0.1602710321908E+00  0.1160284591860E+01  0.0000000000000E+00
 0.1647493954467E+00  0.1201541124925E+01  0.0000000000000E+00
 0.1121439922631E+00  0.4573452347218E+00  0.0000000000000E+00
 0.1180967038124E+00  0.4982817606082E+00  0.0000000000000E+00
 0.1240494153618E+00  0.5392182864946E+00  0.0000000000000E+00
 0.1300021269111E+00  0.5801548123811E+00  0.0000000000000E+00
 0.1359548384605E+00  0.6210913382675E+00  0.0000000000000E+00
 0.1419075500098E+00  0.6620278641539E+00  0.0000000000000E+00
 0.1478602615592E+00  0.7029643900404E+00  0.0000000000000E+00
 0.1538129731085E+00  0.7439009159268E+00  0.0000000000000E+00
 0.1597656846578E+00  0.7848374418132E+00  0.0000000000000E+00
 0.1657183962072E+00  0.8257739676996E+00  0.0000000000000E+00
 0.1716711077565E+00  0.8667104935861E+00  0.0000000000000E+00
 0.1776238193059E+00  0.9076470194725E+00  0.0000000000000E+00
 0.1835765308552E+00  0.9485835453589E+00  0.0000000000000E+00
 0.1895292424046E+00  0.9895200712454E+00  0.0000000000000E+00
 0.1954819539539E+00  0.1030456597132E+01  0.0000000000000E+00
 0.2014346655032E+00  0.1071393123018E+01  0.0000000000000E+00
 0.2073873770526E+00  0.1112329648905E+01  0.0000000000000E+00
 0.2133400886019E+00  0.1153266174791E+01  0.0000000000000E+00
 0.2192928001513E+00  0.1194202700677E+01  0.0000000000000E+00
 0.1401143214071E+00  0.4553218991187E+00  0.0000000000000E+00
 0.1475259711299E+00  0.4958513106929E+00  0.0000000000000E+00
 0.1549376208526E+00  0.5363807222671E+00  0.0000000000000E+00
 0.1623492705753E+00  0.5769101338413E+00  0.0000000000000E+00
 0.1697609202981E+00  0.6174395454155E+00  0.0000000000000E+00
 0.1771725700208E+00  0.6579689569897E+00  0.0000000000000E+00
 0.1845842197436E+00  0.6984983685639E+00  0.0000000000000E+00
 0.1919958694663E+00  0.7390277801381E+00  0.0000000000000E+00
 0.1994075191891E+00  0.7795571917124E+00  0.0000000000000E+00
 0.2068191689118E+00  0.8200866032866E+00  0.0000000000000E+00
 0.2142308186346E+00  0.8606160148608E+00  0.0000000000000E+00
 0.2216424683573E+00  0.9011454264350E+00  0.0000000000000E+00
 0.2290541180800E+00  0.9416748380092E+00  0.0000000000000E+00
 0.2364657678028E+00  0.9822042495834E+00  0.0000000000000E+00
 0.2438774175255E+00  0.1022733661158E+01  0.0000000000000E+00
 0.2512890672483E+00  0.1063263072732E+01  0.0000000000000E+00
 0.2587007169710E+00  0.1103792484306E+01  0.0000000000000E+00
 0.2661123666938E+00  0.1144321895880E+01  0.0000000000000E+00
 0.2735240164165E+00  0.1184851307454E+01  0.0000000000000E+00
 0.1680410299043E+00  0.4528534154353E+00  0.0000000000000E+00
 0.1768921555027E+00  0.4928873238054E+00  0.0000000000000E+00
 0.1857432811012E+00  0.5329212321756E+00  0.0000000000000E+00
 0.1945944066996E+00  0.5729551405457E+00  0.0000000000000E+00
 0.2034455322981E+00  0.6129890489159E+00  0.0000000000000E+00
 0.2122966578965E+00  0.6530229572860E+00  0.0000000000000E+00
 0.2211477834950E+00  0.6930568656562E+00  0.0000000000000E+00
 0.2299989090934E+00  0.7330907740263E+00  0.0000000000000E+00
 0.2388500346918E+00  0.7731246823965E+00  0.0000000000000E+00
 0.2477011602903E+00  0.8131585907666E+00  0.0000000000000E+00
 0.2565522858887E+00  0.8531924991368E+00  0.0000000000000E+00
 0.2654034114872E+00  0.8932264075069E+00  0.0000000000000E+00
 0.2742545370856E+00  0.9332603158771E+00  0.0000000000000E+00
 0.2831056626841E+00  0.9732942242472E+00  0.0000000000000E+00
 0.2919567882825E+00  0.1013328132617E+01  0.0000000000000E+00
 0.3008079138810E+00  0.1053362040987E+01  0.0000000000000E+00
 0.3096590394794E+00  0.1093395949358E+01  0.0000000000000E+00
 0.3185101650779E+00  0.1133429857728E+01  0.0000000000000E+00
 0.3273612906763E+00  0.1173463766098E+01  0.0000000000000E+00
 0.1959146416683E+00  0.4499388902022E+00  0.0000000000000E+00
 0.2061810098788E+00  0.4893865874296E+00  0.0000000000000E+00
 0.2164473780893E+00  0.5288342846570E+00  0.0000000000000E+00
 0.2267137462998E+00  0.5682819818844E+00  0.0000000000000E+00
 0.2369801145103E+00  0.6077296791117E+00  0.0000000000000E+00
 0.2472464827208E+00  0.6471773763391E+00  0.0000000000000E+00
 0.2575128509313E+00  0.6866250735665E+00  0.0000000000000E+00
 0.2677792191418E+00  0.7260727707939E+00  0.0000000000000E+00
 0.2780455873523E+00  0.7655204680212E+00  0.0000000000000E+00
 0.2883119555628E+00  0.8049681652486E+00  0.0000000000000E+00
 0.2985783237733E+00  0.8444158624760E+00  0.0000000000000E+00
 0.3088446919838E+00  0.8838635597034E+00  0.0000000000000E+00
 0.3191110601943E+00  0.9233112569307E+00  0.0000000000000E+00
 0.3293774284048E+00  0.9627589541581E+00  0.0000000000000E+00
 0.3396437966153E+00  0.1002206651385E+01  0.0000000000000E+00
 0.3499101648258E+00  0.1041654348613E+01  0.0000000000000E+00
 0.3601765330363E+00  0.1081102045840E+01  0.0000000000000E+00
 0.3704429012468E+00  0.1120549743068E+01  0.0000000000000E+00
 0.3807092694573E+00  0.1159997440295E+01  0.0000000000000E+00
 0.2237255070970E+00  0.4465773316393E+00  0.0000000000000E+00
 0.2353778826642E+00  0.4853454456524E+00  0.0000000000000E+00
 0.2470302582313E+00  0.5241135596654E+00  0.0000000000000E+00
 0.2586826337985E+00  0.5628816736785E+00  0.0000000000000E+00
 0.2703350093657E+00  0.6016497876915E+00  0.0000000000000E+00
 0.2819873849328E+00  0.6404179017046E+00  0.0000000000000E+00
 0.2936397605000E+00  0.6791860157177E+00  0.0000000000000E+00
 0.3052921360671E+00  0.7179541297307E+00  0.0000000000000E+00
 0.3169445116343E+00  0.7567222437438E+00  0.0000000000000E+00
 0.3285968872014E+00  0.7954903577569E+00  0.0000000000000E+00
 0.3402492627686E+00  0.8342584717699E+00  0.0000000000000E+00
 0.3519016383358E+00  0.8730265857830E+00  0.0000000000000E+00
 0.3635540139029E+00  0.9117946997960E+00  0.0000000000000E+00
 0.3752063894701E+00  0.9505628138091E+00  0.0000000000000E+00
 0.3868587650372E+00  0.9893309278222E+00  0.0000000000000E+00
 0.3985111406044E+00  0.1028099041835E+01  0.0000000000000E+00
 0.4101635161715E+00  0.1066867155848E+01  0.0000000000000E+00
 0.4218158917387E+00  0.1105635269861E+01  0.0000000000000E+00
 0.4334682673059E+00  0.1144403383874E+01  0.0000000000000E+00
 0.2514639257183E+00  0.4427693911874E+00  0.0000000000000E+00
 0.2644679302121E+00  0.4807632908421E+00  0.0000000000000E+00
 0.2774719347060E+00  0.5187571904969E+00  0.0000000000000E+00
 0.2904759391998E+00  0.5567510901517E+00  0.0000000000000E+00
 0.3034799436937E+00  0.5947449898064E+00  0.0000000000000E+00
 0.3164839481875E+00  0.6327388894612E+00  0.0000000000000E+00
 0.3294879526813E+00  0.6707327891159E+00  0.0000000000000E+00
 0.3424919571752E+00  0.7087266887707E+00  0.0000000000000E+00
 0.3554959616690E+00  0.7467205884254E+00  0.0000000000000E+00
 0.3684999661629E+00  0.7847144880802E+00  0.0000000000000E+00
 0.3815039706567E+00  0.8227083877350E+00  0.0000000000000E+00
 0.3945079751505E+00  0.8607022873897E+00  0.0000000000000E+00
 0.4075119796444E+00  0.8986961870445E+00  0.0000000000000E+00
 0.4205159841382E+00  0.9366900866992E+00  0.0000000000000E+00
 0.4335199886321E+00  0.9746839863540E+00  0.0000000000000E+00
 0.4465239931259E+00  0.1012677886009E+01  0.0000000000000E+00
 0.4595279976197E+00  0.1050671785664E+01  0.0000000000000E+00
 0.4725320021136E+00  0.1088665685318E+01  0.0000000000000E+00
 0.4855360066074E+00  0.1126659584973E+01  0.0000000000000E+00
 0.2791218299219E+00  0.4385208076351E+00  0.0000000000000E+00
 0.2934394872232E+00  0.4756494584267E+00  0.0000000000000E+00
 0.3077571445244E+00  0.5127781092184E+00  0.0000000000000E+00
 0.3220748018257E+00  0.5499067600100E+00  0.0000000000000E+00
 0.3363924591269E+00  0.5870354108016E+00  0.0000000000000E+00
 0.3507101164282E+00  0.6241640615933E+00  0.0000000000000E+00
 0.3650277737294E+00  0.6612927123849E+00  0.0000000000000E+00
 0.3793454310307E+00  0.6984213631766E+00  0.0000000000000E+00
 0.3936630883319E+00  0.7355500139682E+00  0.0000000000000E+00
 0.4079807456332E+00  0.7726786647598E+00  0.0000000000000E+00
 0.4222984029344E+00  0.8098073155515E+00  0.0000000000000E+00
 0.4366160602357E+00  0.8469359663431E+00  0.0000000000000E+00
 0.4509337175369E+00  0.8840646171348E+00  0.0000000000000E+00
 0.4652513748382E+00  0.9211932679264E+00  0.0000000000000E+00
 0.4795690321395E+00  0.9583219187180E+00  0.0000000000000E+00
 0.4938866894407E+00  0.9954505695097E+00  0.0000000000000E+00
 0.5082043467420E+00  0.1032579220301E+01  0.0000000000000E+00
 0.5225220040432E+00  0.1069707871093E+01  0.0000000000000E+00
 0.5368396613445E+00  0.1106836521885E+01  0.0000000000000E+00
 0.3066965711232E+00  0.4338489482471E+00  0.0000000000000E+00
 0.3222916402414E+00  0.4700363157784E+00  0.0000000000000E+00
 0.3378867093596E+00  0.5062236833096E+00  0.0000000000000E+00
 0.3534817784778E+00  0.5424110508409E+00  0.0000000000000E+00
 0.3690768475959E+00  0.5785984183721E+00  0.0000000000000E+00
 0.3846719167141E+00  0.6147857859034E+00  0.0000000000000E+00
 0.4002669858323E+00  0.6509731534347E+00  0.0000000000000E+00
 0.4158620549505E+00  0.6871605209659E+00  0.0000000000000E+00
 0.4314571240687E+00  0.7233478884972E+00  0.0000000000000E+00
 0.4470521931869E+00  0.7595352560285E+00  0.0000000000000E+00
 0.4626472623051E+00  0.7957226235597E+00  0.0000000000000E+00
 0.4782423314233E+00  0.8319099910910E+00  0.0000000000000E+00
 0.4938374005415E+00  0.8680973586222E+00  0.0000000000000E+00
 0.5094324696597E+00  0.9042847261535E+00  0.0000000000000E+00
 0.5250275387779E+00  0.9404720936848E+00  0.0000000000000E+00
 0.5406226078961E+00  0.9766594612160E+00  0.0000000000000E+00
 0.5562176770143E+00  0.1012846828747E+01  0.0000000000000E+00
 0.5718127461325E+00  0.1049034196279E+01  0.0000000000000E+00
 0.5874078152507E+00  0.1085221563810E+01  0.0000000000000E+00
 0.3341971107314E+00  0.4287924373437E+00  0.0000000000000E+00
 0.3510465998701E+00  0.4639985277428E+00  0.0000000000000E+00
 0.3678960890087E+00  0.4992046181418E+00  0.0000000000000E+00
 0.3847455781474E+00  0.5344107085408E+00  0.0000000000000E+00
 0.4015950672860E+00  0.5696167989399E+00  0.0000000000000E+00
 0.4184445564247E+00  0.6048228893389E+00  0.0000000000000E+00
 0.4352940455633E+00  0.6400289797380E+00  0.0000000000000E+00
 0.4521435347020E+00  0.6752350701370E+00  0.0000000000000E+00
 0.4689930238406E+00  0.7104411605360E+00  0.0000000000000E+00
 0.4858425129793E+00  0.7456472509351E+00  0.0000000000000E+00
 0.5026920021179E+00  0.7808533413341E+00  0.0000000000000E+00
 0.5195414912566E+00  0.8160594317332E+00  0.0000000000000E+00
 0.5363909803952E+00  0.8512655221322E+00  0.0000000000000E+00
 0.5532404695339E+00  0.8864716125313E+00  0.0000000000000E+00
 0.5700899586725E+00  0.9216777029303E+00  0.0000000000000E+00
 0.5869394478112E+00  0.9568837933293E+00  0.0000000000000E+00
 0.6037889369498E+00  0.9920898837284E+00  0.0000000000000E+00
 0.6206384260885E+00  0.1027295974127E+01  0.0000000000000E+00
 0.6374879152271E+00  0.1062502064526E+01  0.0000000000000E+00
 0.3616375819568E+00  0.4233950317695E+00  0.0000000000000E+00
 0.3797367715532E+00  0.4576208243499E+00  0.0000000000000E+00
 0.3978359611496E+00  0.4918466169303E+00  0.0000000000000E+00
 0.4159351507460E+00  0.5260724095108E+00  0.0000000000000E+00
 0.4340343403424E+00  0.5602982020912E+00  0.0000000000000E+00
 0.4521335299388E+00  0.5945239946716E+00  0.0000000000000E+00
 0.4702327195353E+00  0.6287497872521E+00  0.0000000000000E+00
 0.4883319091317E+00  0.6629755798325E+00  0.0000000000000E+00
 0.5064310987281E+00  0.6972013724129E+00  0.0000000000000E+00
 0.5245302883245E+00  0.7314271649934E+00  0.0000000000000E+00
 0.5426294779209E+00  0.7656529575738E+00  0.0000000000000E+00
 0.5607286675173E+00  0.7998787501542E+00  0.0000000000000E+00
 0.5788278571138E+00  0.8341045427347E+00  0.0000000000000E+00
 0.5969270467102E+00  0.8683303353151E+00  0.0000000000000E+00
 0.6150262363066E+00  0.9025561278956E+00  0.0000000000000E+00
 0.6331254259030E+00  0.9367819204760E+00  0.0000000000000E+00
 0.6512246154994E+00  0.9710077130564E+00  0.0000000000000E+00
 0.6693238050958E+00  0.1005233505637E+01  0.0000000000000E+00
 0.6874229946923E+00  0.1039459298217E+01  0.0000000000000E+00
 0.3890049751294E+00  0.4176409905240E+00  0.0000000000000E+00
 0.4083402182530E+00  0.4508687337983E+00  0.0000000000000E+00
 0.4276754613766E+00  0.4840964770726E+00  0.0000000000000E+00
 0.4470107045002E+00  0.5173242203469E+00  0.0000000000000E+00
 0.4663459476237E+00  0.5505519636212E+00  0.0000000000000E+00
 0.4856811907473E+00  0.5837797068956E+00  0.0000000000000E+00
 0.5050164338709E+00  0.6170074501699E+00  0.0000000000000E+00
 0.5243516769945E+00  0.6502351934442E+00  0.0000000000000E+00
 0.5436869201180E+00  0.6834629367185E+00  0.0000000000000E+00
 0.5630221632416E+00  0.7166906799928E+00  0.0000000000000E+00
 0.5823574063652E+00  0.7499184232671E+00  0.0000000000000E+00
 0.6016926494888E+00  0.7831461665414E+00  0.0000000000000E+00
 0.6210278926123E+00  0.8163739098157E+00  0.0000000000000E+00
 0.6403631357359E+00  0.8496016530900E+00  0.0000000000000E+00
 0.6596983788595E+00  0.8828293963643E+00  0.0000000000000E+00
 0.6790336219831E+00  0.9160571396386E+00  0.0000000000000E+00
 0.6983688651066E+00  0.9492848829129E+00  0.0000000000000E+00
 0.7177041082302E+00  0.9825126261872E+00  0.0000000000000E+00
 0.7370393513538E+00  0.1015740369462E+01  0.0000000000000E+00
 0.4162795949455E+00  0.4115031803644E+00  0.0000000000000E+00
 0.4368214348248E+00  0.4436848269459E+00  0.0000000000000E+00
 0.4573632747041E+00  0.4758664735274E+00  0.0000000000000E+00
 0.4779051145834E+00  0.5080481201089E+00  0.0000000000000E+00
 0.4984469544626E+00  0.5402297666905E+00  0.0000000000000E+00
 0.5189887943419E+00  0.5724114132720E+00  0.0000000000000E+00
 0.5395306342212E+00  0.6045930598535E+00  0.0000000000000E+00
 0.5600724741005E+00  0.6367747064350E+00  0.0000000000000E+00
 0.5806143139798E+00  0.6689563530165E+00  0.0000000000000E+00
 0.6011561538591E+00  0.7011379995980E+00  0.0000000000000E+00
 0.6216979937384E+00  0.7333196461795E+00  0.0000000000000E+00
 0.6422398336177E+00  0.7655012927610E+00  0.0000000000000E+00
 0.6627816734970E+00  0.7976829393425E+00  0.0000000000000E+00
 0.6833235133763E+00  0.8298645859240E+00  0.0000000000000E+00
 0.7038653532555E+00  0.8620462325056E+00  0.0000000000000E+00
 0.7244071931348E+00  0.8942278790871E+00  0.0000000000000E+00
 0.7449490330141E+00  0.9264095256686E+00  0.0000000000000E+00
 0.7654908728934E+00  0.9585911722501E+00  0.0000000000000E+00
 0.7860327127727E+00  0.9907728188316E+00  0.0000000000000E+00
 0.4434431138861E+00  0.4049623046123E+00  0.0000000000000E+00
 0.4651476238630E+00  0.4360271528875E+00  0.0000000000000E+00
 0.4868521338399E+00  0.4670920011626E+00  0.0000000000000E+00
 0.5085566438169E+00  0.4981568494378E+00  0.0000000000000E+00
 0.5302611537938E+00  0.5292216977130E+00  0.0000000000000E+00
 0.5519656637707E+00  0.5602865459881E+00  0.0000000000000E+00
 0.5736701737476E+00  0.5913513942633E+00  0.0000000000000E+00
 0.5953746837245E+00  0.6224162425385E+00  0.0000000000000E+00
 0.6170791937015E+00  0.6534810908137E+00  0.0000000000000E+00
 0.6387837036784E+00  0.6845459390888E+00  0.0000000000000E+00
 0.6604882136553E+00  0.7156107873640E+00  0.0000000000000E+00
 0.6821927236322E+00  0.7466756356392E+00  0.0000000000000E+00
 0.7038972336091E+00  0.7777404839143E+00  0.0000000000000E+00
 0.7256017435861E+00  0.8088053321895E+00  0.0000000000000E+00
 0.7473062535630E+00  0.8398701804647E+00  0.0000000000000E+00
 0.7690107635399E+00  0.8709350287399E+00  0.0000000000000E+00
 0.7907152735168E+00  0.9019998770150E+00  0.0000000000000E+00
 0.8124197834938E+00  0.9330647252902E+00  0.0000000000000E+00
 0.8341242934707E+00  0.9641295735654E+00  0.0000000000000E+00
 0.4704791815732E+00  0.3980072353552E+00  0.0000000000000E+00
 0.4932896427561E+00  0.4278699685610E+00  0.0000000000000E+00
 0.5161001039390E+00  0.4577327017669E+00  0.0000000000000E+00
 0.5389105651219E+00  0.4875954349727E+00  0.0000000000000E+00
 0.5617210263048E+00  0.5174581681785E+00  0.0000000000000E+00
 0.5845314874877E+00  0.5473209013844E+00  0.0000000000000E+00
 0.6073419486706E+00  0.5771836345902E+00  0.0000000000000E+00
 0.6301524098535E+00  0.6070463677961E+00  0.0000000000000E+00
 0.6529628710365E+00  0.6369091010019E+00  0.0000000000000E+00
 0.6757733322194E+00  0.6667718342078E+00  0.0000000000000E+00
 0.6985837934023E+00  0.6966345674136E+00  0.0000000000000E+00
 0.7213942545852E+00  0.7264973006194E+00  0.0000000000000E+00
 0.7442047157681E+00  0.7563600338253E+00  0.0000000000000E+00
 0.7670151769510E+00  0.7862227670311E+00  0.0000000000000E+00
 0.7898256381339E+00  0.8160855002370E+00  0.0000000000000E+00
 0.8126360993168E+00  0.8459482334428E+00  0.0000000000000E+00
 0.8354465604997E+00  0.8758109666487E+00  0.0000000000000E+00
 0.8582570216826E+00  0.9056736998545E+00  0.0000000000000E+00
 0.8810674828655E+00  0.9355364330604E+00  0.0000000000000E+00
 0.4973724746499E+00  0.3906327012162E+00  0.0000000000000E+00
 0.5212203829587E+00  0.4191990678570E+00  0.0000000000000E+00
 0.5450682912674E+00  0.4477654344978E+00  0.0000000000000E+00
 0.5689161995761E+00  0.4763318011386E+00  0.0000000000000E+00
 0.5927641078849E+00  0.5048981677794E+00  0.0000000000000E+00
 0.6166120161936E+00  0.5334645344202E+00  0.0000000000000E+00
 0.6404599245023E+00  0.5620309010610E+00  0.0000000000000E+00
 0.6643078328111E+00  0.5905972677017E+00  0.0000000000000E+00
 0.6881557411198E+00  0.6191636343425E+00  0.0000000000000E+00
 0.7120036494285E+00  0.6477300009833E+00  0.0000000000000E+00
 0.7358515577373E+00  0.6762963676241E+00  0.0000000000000E+00
 0.7596994660460E+00  0.7048627342649E+00  0.0000000000000E+00
 0.7835473743547E+00  0.7334291009057E+00  0.0000000000000E+00
 0.8073952826635E+00  0.7619954675465E+00  0.0000000000000E+00
 0.8312431909722E+00  0.7905618341873E+00  0.0000000000000E+00
 0.8550910992809E+00  0.8191282008280E+00  0.0000000000000E+00
 0.8789390075897E+00  0.8476945674688E+00  0.0000000000000E+00
 0.9027869158984E+00  0.8762609341096E+00  0.0000000000000E+00
 0.9266348242071E+00  0.9048273007504E+00  0.0000000000000E+00
 0.5241075392167E+00  0.3828365021242E+00  0.0000000000000E+00
 0.5489124012050E+00  0.4100062274629E+00  0.0000000000000E+00
 0.5737172631934E+00  0.4371759528015E+00  0.0000000000000E+00
 0.5985221251818E+00  0.4643456781402E+00  0.0000000000000E+00
 0.6233269871702E+00  0.4915154034788E+00  0.0000000000000E+00
 0.6481318491586E+00  0.5186851288175E+00  0.0000000000000E+00
 0.6729367111470E+00  0.5458548541562E+00  0.0000000000000E+00
 0.6977415731353E+00  0.5730245794948E+00  0.0000000000000E+00
 0.7225464351237E+00  0.6001943048335E+00  0.0000000000000E+00
 0.7473512971121E+00  0.6273640301721E+00  0.0000000000000E+00
 0.7721561591005E+00  0.6545337555108E+00  0.0000000000000E+00
 0.7969610210889E+00  0.6817034808494E+00  0.0000000000000E+00
 0.8217658830773E+00  0.7088732061881E+00  0.0000000000000E+00
 0.8465707450657E+00  0.7360429315268E+00  0.0000000000000E+00
 0.8713756070540E+00  0.7632126568654E+00  0.0000000000000E+00
 0.8961804690424E+00  0.7903823822041E+00  0.0000000000000E+00
 0.9209853310308E+00  0.8175521075427E+00  0.0000000000000E+00
 0.9457901930192E+00  0.8447218328814E+00  0.0000000000000E+00
 0.9705950550076E+00  0.8718915582200E+00  0.0000000000000E+00
</DataArray>
</Points>
<Cells>
<DataArray type="Int64" Name="connectivity" format="ascii">
0 11 438 243
243 438 439 244
244 439 440 245
245 440 441 246
246 441 442 247
247 442 443 248
248 443 444 249
249 444 445 250
250 445 446 251
251 446 447 252
252 447 448 253
253 448 449 254
254 449 450 255
255 450 451 256
256 451 452 257
257 452 453 258
258 453 454 259
259 454 455 260
260 455 456 261
261 456 457 262
262 457 458 263
263 458 459 264
264 459 460 265
265 460 461 266
266 461 462 267
267 462 463 268
268 463 464 269
269 464 465 270
270 465 466 271
271 466 467 272
272 467 468 273
273 468 469 274
274 469 470 275
275 470 471 276
276 471 472 277
277 472 473 278
278 473 474 279
279 474 475 280
280 475 476 281
281 476 477 282
282 477 89 3
11 12 478 438
438 478 479 439
439 479 480 440
440 480 481 441
441 481 482 442
442 482 483 443
443 483 484 444
444 484 485 445
445 485 486 446
446 486 487 447
447 487 488 448
448 488 489 449
449 489 490 450
450 490 491 451
451 491 492 452
452 492 493 453
453 493 494 454
454 494 495 455
455 495 496 456
456 496 497 457
457 497 498 458
458 498 499 459
459 499 500 460
460 500 501 461
461 501 502 462
462 502 503 463
463 503 504 464
464 504 505 465
465 505 506 466
466 506 507 467
467 507 508 468
468 508 509 469
469 509 510 470
470 510 511 471
471 511 512 472
472 512 513 473
473 513 514 474
474 514 515 475
475 515 516 476
476 516 517 477
477 517 90 89
12 13 518 478
478 518 519 479
479 519 520 480
480 520 521 481
481 521 522 482
482 522 523 483
483 523 524 484
484 524 525 485
485 525 526 486
486 526 527 487
487 527 528 488
488 528 529 489
489 529 530 490
490 530 531 491
491 531 532 492
492 532 533 493
493 533 534 494
494 534 535 495
495 535 536 496
496 536 537 497
497 537 538 498
498 538 539 499
499 539 540 500
500 540 541 501
501 541 542 502
502 542 543 503
503 543 544 504
504 544 545 505
505 545 546 506
506 546 547 507
507 547 548 508
508 548 549 509
509 549 550 510
510 550 551 511
511 551 552 512
512 552 553 513
513 553 554 514
514 554 555 515
515 555 556 516
516 556 557 517
517 557 91 90
13 14 558 518
518 558 559 519
519 559 560 520
520 560 561 521
521 561 562 522
522 562 563 523
523 563 564 524
524 564 565 525
525 565 566 526
526 566 567 527
527 567 568 528
528 568 569 529
529 569 570 530
530 570 571 531
531 571 572 532
532 572 573 533
533 573 574 534
534 574 575 535
535 575 576 536
536 576 577 537
537 577 578 538
538 578 579 539
539 579 580 540
540 580 581 541
541 581 582 542
542 582 583 543
543 583 584 544
544 584 585 545
545 585 586 546
546 586 587 547
547 587 588 548
548 588 589 549
549 589 590 550
550 590 591 551
551 591 592 552
552 592 593 553
553 593 594 554
554 594 595 555
555 595 596 556
556 596 597 557
557 597 92 91
14 15 598 558
558 598 599 559
559 599 600 560
560 600 601 561
561 601 602 562
562 602 603 563
563 603 604 564
564 604 605 565
565 605 606 566
566 606 607 567
567 607 608 568
568 608 609 569
569 609 610 570
570 610 611 571
571 611 612 572
572 612 613 573
573 613 614 574
574 614 615 575
575 615 616 576
576 616 617 577
577 617 618 578
578 618 619 579
579 619 620 580
580 620 621 581
581 621 622 582
582 622 623 583
583 623 624 584
584 624 625 585
585 625 626 586
586 626 627 587
587 627 628 588
588 628 629 589
589 629 630 590
590 630 631 591
591 631 632 592
592 632 633 593
593 633 634 594
594 634 635 595
595 635 636 596
596 636 637 597
597 637 93 92
15 16 638 598
598 638 639 599
599 639 640 600
600 640 641 601
601 641 642 602
602 642 643 603
603 643 644 604
604 644 645 605
605 645 646 606
606 646 647 607
607 647 648 608
608 648 649 609
609 649 650 610
610 650 651 611
611 651 652 612
612 652 653 613
613 653 654 614
614 654 655 615
615 655 656 616
616 656 657 617
617 657 658 618
618 658 659 619
619 659 660 620
620 660 661 621
621 661 662 622
622 662 663 623
623 663 664 624
624 664 665 625
625 665 666 626
626 666 667 627
627 667 668 628
628 668 669 629
629 669 670 630
630 670 671 631
631 671 672 632
632 672 673 633
633 673 674 634
634 674 675 635
635 675 676 636
636 676 677 637
637 677 94 93
16 17 678 638
638 678 679 639
639 679 680 640
640 680 681 641
641 681 682 642
642 682 683 643
643 683 684 644
644 684 685 645
645 685 686 646
646 686 687 647
647 687 688 648
648 688 689 649
649 689 690 650
650 690 691 651
651 691 692 652
652 692 693 653
653 693 694 654
654 694 695 655
655 695 696 656
656 696 697 657
657 697 698 658
658 698 699 659
659 699 700 660
660 700 701 661
661 701 702 662
662 702 703 663
663 703 704 664
664 704 705 665
665 705 706 666
666 706 707 667
667 707 708 668
668 708 709 669
669 709 710 670
670 710 711 671
671 711 712 672
672 712 713 673
673 713 714 674
674 714 715 675
675 715 716 676
676 716 717 677
677 717 95 94
17 18 718 678
678 718 719 679
679 719 720 680
680 720 721 681
681 721 722 682
682 722 723 683
683 723 724 684
684 724 725 685
685 725 726 686
686 726 727 687
687 727 728 688
688 728 729 689
689 729 730 690
690 730 731 691
691 731 732 692
692 732 733 693
693 733 734 694
694 734 735 695
695 735 736 696
696 736 737 697
697 737 738 698
698 738 739 699
699 739 740 700
700 740 741 701
701 741 742 702
702 742 743 703
703 743 744 704
704 744 745 705
705 745 746 706
706 746 747 707
707 747 748 708
708 748 749 709
709 749 750 710
710 750 751 711
711 751 752 712
712 752 753 713
713 753 754 714
714 754 755 715
715 755 756 716
716 756 757 717
717 757 96 95
18 19 758 718
718 758 759 719
719 759 760 720
720 760 761 721
721 761 762 722
722 762 763 723
723 763 764 724
724 764 765 725
725 765 766 726
726 766 767 727
727 767 768 728
728 768 769 729
729 769 770 730
730 770 771 731
731 771 772 732
732 772 773 733
733 773 774 734
734 774 775 735
735 775 776 736
736 776 777 737
737 777 778 738
738 778 779 739
739 779 780 740
740 780 781 741
741 781 782 742
742 782 783 743
743 783 784 744
744 784 785 745
745 785 786 746
746 786 787 747
747 787 788 748
748 788 789 749
749 789 790 750
750 790 791 751
751 791 792 752
752 792 793 753
753 793 794 754
754 794 795 755
755 795 796 756
756 796 797 757
757 797 97 96
19 20 798 758
758 798 799 759
759 799 800 760
760 800 801 761
761 801 802 762
762 802 803 763
763 803 804 764
764 804 805 765
765 805 806 766
766 806 807 767
767 807 808 768
768 808 809 769
769 809 810 770
770 810 811 771
771 811 812 772
772 812 813 773
773 813 814 774
774 814 815 775
775 815 816 776
776 816 817 777
777 817 818 778
778 818 819 779
779 819 820 780
780 820 821 781
781 821 822 782
782 822 823 783
783 823 824 784
784 824 825 785
785 825 826 786
786 826 827 787
787 827 828 788
788 828 829 789
789 829 830 790
790 830 831 791
791 831 832 792
792 832 833 793
793 833 834 794
794 834 835 795
795 835 836 796
796 836 837 797
797 837 98 97
20 21 838 798
798 838 839 799
799 839 840 800
800 840 841 801
801 841 842 802
802 842 843 803
803 843 844 804
804 844 845 805
805 845 846 806
806 846 847 807
807 847 848 808
808 848 849 809
809 849 850 810
810 850 851 811
811 851 852 812
812 852 853 813
813 853 854 814
814 854 855 815
815 855 856 816
816 856 857 817
817 857 858 818
818 858 859 819
819 859 860 820
820 860 861 821
821 861 862 822
822 862 863 823
823 863 864 824
824 864 865 825
825 865 866 826
826 866 867 827
827 867 868 828
828 868 869 829
829 869 870 830
830 870 871 831
831 871 872 832
832 872 873 833
833 873 874 834
834 874 875 835
835 875 876 836
836 876 877 837
837 877 99 98
21 22 878 838
838 878 879 839
839 879 880 840
840 880 881 841
841 881 882 842
842 882 883 843
843 883 884 844
844 884 885 845
845 885 886 846
846 886 887 847
847 887 888 848
848 888 889 849
849 889 890 850
850 890 891 851
851 891 892 852
852 892 893 853
853 893 894 854
854 894 895 855
855 895 896 856
856 896 897 857
857 897 898 858
858 898 899 859
859 899 900 860
860 900 901 861
861 901 902 862
862 902 903 863
863 903 904 864
864 904 905 865
865 905 906 866
866 906 907 867
867 907 908 868
868 908 909 869
869 909 910 870
870 910 911 871
871 911 912 872
872 912 913 873
873 913 914 874
874 914 915 875
875 915 916 876
876 916 917 877
877 917 100 99
22 23 918 878
878 918 919 879
879 919 920 880
880 920 921 881
881 921 922 882
882 922 923 883
883 923 924 884
884 924 925 885
885 925 926 886
886 926 927 887
887 927 928 888
888 928 929 889
889 929 930 890
890 930 931 891
891 931 932 892
892 932 933 893
893 933 934 894
894 934 935 895
895 935 936 896
896 936 937 897
897 937 938 898
898 938 939 899
899 939 940 900
900 940 941 901
901 941 942 902
902 942 943 903
903 943 944 904
904 944 945 905
905 945 946 906
906 946 947 907
907 947 948 908
908 948 949 909
909 949 950 910
910 950 951 911
911 951 952 912
912 952 953 913
913 953 954 914
914 954 955 915
915 955 956 916
916 956 957 917
917 957 101 100
23 24 958 918
918 958 959 919
919 959 960 920
920 960 961 921
921 961 962 922
922 962 963 923
923 963 964 924
924 964 965 925
925 965 966 926
926 966 967 927
927 967 968 928
928 968 969 929
929 969 970 930
930 970 971 931
931 971 972 932
932 972 973 933
933 973 974 934
934 974 975 935
935 975 976 936
936 976 977 937
937 977 978 938
938 978 979 939
939 979 980 940
940 980 981 941
941 981 982 942
942 982 983 943
943 983 984 944
944 984 985 945
945 985 986 946
946 986 987 947
947 987 988 948
948 988 989 949
949 989 990 950
950 990 991 951
951 991 992 952
952 992 993 953
953 993 994 954
954 994 995 955
955 995 996 956
956 996 997 957
957 997 102 101
24 25 998 958
958 998 999 959
959 999 1000 960
960 1000 1001 961
961 1001 1002 962
962 1002 1003 963
963 1003 1004 964
964 1004 1005 965
965 1005 1006 966
966 1006 1007 967
967 1007 1008 968
968 1008 1009 969
969 1009 1010 970
970 1010 1011 971
971 1011 1012 972
972 1012 1013 973
973 1013 1014 974
974 1014 1015 975
975 1015 1016 976
976 1016 1017 977
977 1017 1018 978
978 1018 1019 979
979 1019 1020 980
980 1020 1021 981
981 1021 1022 982
982 1022 1023 983
983 1023 1024 984
984 1024 1025 985
985 1025 1026 986
986 1026 1027 987
987 1027 1028 988
988 1028 1029 989
989 1029 1030 990
990 1030 1031 991
991 1031 1032 992
992 1032 1033 993
993 1033 1034 994
994 1034 1035 995
995 1035 1036 996
996 1036 1037 997
997 1037 103 102
25 26 1038 998
998 1038 1039 999
999 1039 1040 1000
1000 1040 1041 1001
1001 1041 1042 1002
1002 1042 1043 1003
1003 1043 1044 1004
1004 1044 1045 1005
1005 1045 1046 1006
1006 1046 1047 1007
1007 1047 1048 1008
1008 1048 1049 1009
1009 1049 1050 1010
1010 1050 1051 1011
1011 1051 1052 1012
1012 1052 1053 1013
1013 1053 1054 1014
1014 1054 1055 1015
1015 1055 1056 1016
1016 1056 1057 1017
1017 1057 1058 1018
1018 1058 1059 1019
1019 1059 1060 1020
1020 1060 1061 1021
1021 1061 1062 1022
1022 1062 1063 1023
1023 1063 1064 1024
1024 1064 1065 1025
1025 1065 1066 1026
1026 1066 1067 1027
1027 1067 1068 1028
1028 1068 1069 1029
1029 1069 1070 1030
1030 1070 1071 1031
1031 1071 1072 1032
1032 1072 1073 1033
1033 1073 1074 1034
1034 1074 1075 1035
1035 1075 1076 1036
1036 1076 1077 1037
1037 1077 104 103
26 27 1078 1038
1038 1078 1079 1039
1039 1079 1080 1040
1040 1080 1081 1041
1041 1081 1082 1042
1042 1082 1083 1043
1043 1083 1084 1044
1044 1084 1085 1045
1045 1085 1086 1046
1046 1086 1087 1047
1047 1087 1088 1048
1048 1088 1089 1049
1049 1089 1090 1050
1050 1090 1091 1051
1051 1091 1092 1052
1052 1092 1093 1053
1053 1093 1094 1054
1054 1094 1095 1055
1055 1095 1096 1056
1056 1096 1097 1057
1057 1097 1098 1058
1058 1098 1099 1059
1059 1099 1100 1060
1060 1100 1101 1061
1061 1101 1102 1062
1062 1102 1103 1063
1063 1103 1104 1064
1064 1104 1105 1065
1065 1105 1106 1066
1066 1106 1107 1067
1067 1107 1108 1068
1068 1108 1109 1069
1069 1109 1110 1070
1070 1110 1111 1071
1071 1111 1112 1072
1072 1112 1113 1073
1073 1113 1114 1074
1074 1114 1115 1075
1075 1115 1116 1076
1076 1116 1117 1077
1077 1117 105 104
27 28 1118 1078
1078 1118 1119 1079
1079 1119 1120 1080
1080 1120 1121 1081
1081 1121 1122 1082
1082 1122 1123 1083
1083 1123 1124 1084
1084 1124 1125 1085
1085 1125 1126 1086
1086 1126 1127 1087
1087 1127 1128 1088
1088 1128 1129 1089
1089 1129 1130 1090
1090 1130 1131 1091
1091 1131 1132 1092
1092 1132 1133 1093
1093 1133 1134 1094
1094 1134 1135 1095
1095 1135 1136 1096
1096 1136 1137 1097
1097 1137 1138 1098
1098 1138 1139 1099
1099 1139 1140 1100
1100 1140 1141 1101
1101 1141 1142 1102
1102 1142 1143 1103
1103 1143 1144 1104
1104 1144 1145 1105
1105 1145 1146 1106
1106 1146 1147 1107
1107 1147 1148 1108
1108 1148 1149 1109
1109 1149 1150 1110
1110 1150 1151 1111
1111 1151 1152 1112
1112 1152 1153 1113
1113 1153 1154 1114
1114 1154 1155 1115
1115 1155 1156 1116
1116 1156 1157 1117
1117 1157 106 105
28 29 1158 1118
1118 1158 1159 1119
1119 1159 1160 1120
1120 1160 1161 1121
1121 1161 1162 1122
1122 1162 1163 1123
1123 1163 1164 1124
1124 1164 1165 1125
1125 1165 1166 1126
1126 1166 1167 1127
1127 1167 1168 1128
1128 1168 1169 1129
1129 1169 1170 1130
1130 1170 1171 1131
1131 1171 1172 1132
1132 1172 1173 1133
1133 1173 1174 1134
1134 1174 1175 1135
1135 1175 1176 1136
1136 1176 1177 1137
1137 1177 1178 1138
1138 1178 1179 1139
1139 1179 1180 1140
1140 1180 1181 1141
1141 1181 1182 1142
1142 1182 1183 1143
1143 1183 1184 1144
1144 1184 1185 1145
1145 1185 1186 1146
1146 1186 1187 1147
1147 1187 1188 1148
1148 1188 1189 1149
1149 1189 1190 1150
1150 1190 1191 1151
1151 1191 1192 1152
1152 1192 1193 1153
1153 1193 1194 1154
1154 1194 1195 1155
1155 1195 1196 1156
1156 1196 1197 1157
1157 1197 107 106
29 30 1198 1158
1158 1198 1199 1159
1159 1199 1200 1160
1160 1200 1201 1161
1161 1201 1202 1162
1162 1202 1203 1163
1163 1203 1204 1164
1164 1204 1205 1165
1165 1205 1206 1166
1166 1206 1207 1167
1167 1207 1208 1168
1168 1208 1209 1169
1169 1209 1210 1170
1170 1210 1211 1171
1171 1211 1212 1172
1172 1212 1213 1173
1173 1213 1214 1174
1174 1214 1215 1175
1175 1215 1216 1176
1176 1216 1217 1177
1177 1217 1218 1178
1178 1218 1219 1179
1179 1219 1220 1180
1180 1220 1221 1181
1181 1221 1222 1182
1182 1222 1223 1183
1183 1223 1224 1184
1184 1224 1225 1185
1185 1225 1226 1186
1186 1226 1227 1187
1187 1227 1228 1188
1188 1228 1229 1189
1189 1229 1230 1190
1190 1230 1231 1191
1191 1231 1232 1192
1192 1232 1233 1193
1193 1233 1234 1194
1194 1234 1235 1195
1195 1235 1236 1196
1196 1236 1237 1197
1197 1237 4 107
30 31 1238 1198
1198 1238 1239 1199
1199 1239 1240 1200
1200 1240 1241 1201
1201 1241 1242 1202
1202 1242 1243 1203
1203 1243 1244 1204
1204 1244 1245 1205
1205 1245 1246 1206
1206 1246 1247 1207
1207 1247 1248 1208
1208 1248 1249 1209
1209 1249 1250 1210
1210 1250 1251 1211
1211 1251 1252 1212
1212 1252 1253 1213
1213 1253 1254 1214
1214 1254 1255 1215
1215 1255 1256 1216
1216 1256 1257 1217
1217 1257 1258 1218
1218 1258 1259 1219
1219 1259 1260 1220
1220 1260 1261 1221
1221 1261 1262 1222
1222 1262 1263 1223
1223 1263 1264 1224
1224 1264 1265 1225
1225 1265 1266 1226
1226 1266 1267 1227
1227 1267 1268 1228
1228 1268 1269 1229
1229 1269 1270 1230
1230 1270 1271 1231
1231 1271 1272 1232
1232 1272 1273 1233
1233 1273 1274 1234
1234 1274 1275 1235
1235 1275 1276 1236
1236 1276 1277 1237
1237 1277 108 4
31 32 1278 1238
1238 1278 1279 1239
1239 1279 1280 1240
1240 1280 1281 1241
1241 1281 1282 1242
1242 1282 1283 1243
1243 1283 1284 1244
1244 1284 1285 1245
1245 1285 1286 1246
1246 1286 1287 1247
1247 1287 1288 1248
1248 1288 1289 1249
1249 1289 1290 1250
1250 1290 1291 1251
1251 1291 1292 1252
1252 1292 1293 1253
1253 1293 1294 1254
1254 1294 1295 1255
1255 1295 1296 1256
1256 1296 1297 1257
1257 1297 1298 1258
1258 1298 1299 1259
1259 1299 1300 1260
1260 1300 1301 1261
1261 1301 1302 1262
1262 1302 1303 1263
1263 1303 1304 1264
1264 1304 1305 1265
1265 1305 1306 1266
1266 1306 1307 1267
1267 1307 1308 1268
1268 1308 1309 1269
1269 1309 1310 1270
1270 1310 1311 1271
1271 1311 1312 1272
1272 1312 1313 1273
1273 1313 1314 1274
1274 1314 1315 1275
1275 1315 1316 1276
1276 1316 1317 1277
1277 1317 109 108
32 33 1318 1278
1278 1318 1319 1279
1279 1319 1320 1280
1280 1320 1321 1281
1281 1321 1322 1282
1282 1322 1323 1283
1283 1323 1324 1284
1284 1324 1325 1285
1285 1325 1326 1286
1286 1326 1327 1287
1287 1327 1328 1288
1288 1328 1329 1289
1289 1329 1330 1290
1290 1330 1331 1291
1291 1331 1332 1292
1292 1332 1333 1293
1293 1333 1334 1294
1294 1334 1335 1295
1295 1335 1336 1296
1296 1336 1337 1297
1297 1337 1338 1298
1298 1338 1339 1299
1299 1339 1340 1300
1300 1340 1341 1301
1301 1341 1342 1302
1302 1342 1343 1303
1303 1343 1344 1304
1304 1344 1345 1305
1305 1345 1346 1306
1306 1346 1347 1307
1307 1347 1348 1308
1308 1348 1349 1309
1309 1349 1350 1310
1310 1350 1351 1311
1311 1351 1352 1312
1312 1352 1353 1313
1313 1353 1354 1314
1314 1354 1355 1315
1315 1355 1356 1316
1316 1356 1357 1317
1317 1357 110 109
33 34 1358 1318
1318 1358 1359 1319
1319 1359 1360 1320
1320 1360 1361 1321
1321 1361 1362 1322
1322 1362 1363 1323
1323 1363 1364 1324
1324 1364 1365 1325
1325 1365 1366 1326
1326 1366 1367 1327
1327 1367 1368 1328
1328 1368 1369 1329
1329 1369 1370 1330
1330 1370 1371 1331
1331 1371 1372 1332
1332 1372 1373 1333
1333 1373 1374 1334
1334 1374 1375 1335
1335 1375 1376 1336
1336 1376 1377 1337
1337 1377 1378 1338
1338 1378 1379 1339
1339 1379 1380 1340
1340 1380 1381 1341
1341 1381 1382 1342
1342 1382 1383 1343
1343 1383 1384 1344
1344 1384 1385 1345
1345 1385 1386 1346
1346 1386 1387 1347
1347 1387 1388 1348
1348 1388 1389 1349
1349 1389 1390 1350
1350 1390 1391 1351
1351 1391 1392 1352
1352 1392 1393 1353
1353 1393 1394 1354
1354 1394 1395 1355
1355 1395 1396 1356
1356 1396 1397 1357
1357 1397 111 110
34 35 1398 1358
1358 1398 1399 1359
1359 1399 1400 1360
1360 1400 1401 1361
1361 1401 1402 1362
1362 1402 1403 1363
1363 1403 1404 1364
1364 1404 1405 1365
1365 1405 1406 1366
1366 1406 1407 1367
1367 1407 1408 1368
1368 1408 1409 1369
1369 1409 1410 1370
1370 1410 1411 1371
1371 1411 1412 1372
1372 1412 1413 1373
1373 1413 1414 1374
1374 1414 1415 1375
1375 1415 1416 1376
1376 1416 1417 1377
1377 1417 1418 1378
1378 1418 1419 1379
1379 1419 1420 1380
1380 1420 1421 1381
1381 1421 1422 1382
1382 1422 1423 1383
1383 1423 1424 1384
1384 1424 1425 1385
1385 1425 1426 1386
1386 1426 1427 1387
1387 1427 1428 1388
1388 1428 1429 1389
1389 1429 1430 1390
1390 1430 1431 1391
1391 1431 1432 1392
1392 1432 1433 1393
1393 1433 1434 1394
1394 1434 1435 1395
1395 1435 1436 1396
1396 1436 1437 1397
1397 1437 112 111
35 36 1438 1398
1398 1438 1439 1399
1399 1439 1440 1400
1400 1440 1441 1401
1401 1441 1442 1402
1402 1442 1443 1403
1403 1443 1444 1404
1404 1444 1445 1405
1405 1445 1446 1406
1406 1446 1447 1407
1407 1447 1448 1408
1408 1448 1449 1409
1409 1449 1450 1410
1410 1450 1451 1411
1411 1451 1452 1412
1412 1452 1453 1413
1413 1453 1454 1414
1414 1454 1455 1415
1415 1455 1456 1416
1416 1456 1457 1417
1417 1457 1458 1418
1418 1458 1459 1419
1419 1459 1460 1420
1420 1460 1461 1421
1421 1461 1462 1422
1422 1462 1463 1423
1423 1463 1464 1424
1424 1464 1465 1425
1425 1465 1466 1426
1426 1466 1467 1427
1427 1467 1468 1428
1428 1468 1469 1429
1429 1469 1470 1430
1430 1470 1471 1431
1431 1471 1472 1432
1432 1472 1473 1433
1433 1473 1474 1434
1434 1474 1475 1435
1435 1475 1476 1436
1436 1476 1477 1437
1437 1477 113 112
36 37 1478 1438
1438 1478 1479 1439
1439 1479 1480 1440
1440 1480 1481 1441
1441 1481 1482 1442
1442 1482 1483 1443
1443 1483 1484 1444
1444 1484 1485 1445
1445 1485 1486 1446
1446 1486 1487 1447
1447 1487 1488 1448
1448 1488 1489 1449
1449 1489 1490 1450
1450 1490 1491 1451
1451 1491 1492 1452
1452 1492 1493 1453
1453 1493 1494 1454
1454 1494 1495 1455
1455 1495 1496 1456
1456 1496 1497 1457
1457 1497 1498 1458
1458 1498 1499 1459
1459 1499 1500 1460
1460 1500 1501 1461
1461 1501 1502 1462
1462 1502 1503 1463
1463 1503 1504 1464
1464 1504 1505 1465
1465 1505 1506 1466
1466 1506 1507 1467
1467 1507 1508 1468
1468 1508 1509 1469
1469 1509 1510 1470
1470 1510 1511 1471
1471 1511 1512 1472
1472 1512 1513 1473
1473 1513 1514 1474
1474 1514 1515 1475
1475 1515 1516 1476
1476 1516 1517 1477
1477 1517 114 113
37 38 1518 1478
1478 1518 1519 1479
1479 1519 1520 1480
1480 1520 1521 1481
1481 1521 1522 1482
1482 1522 1523 1483
1483 1523 1524 1484
1484 1524 1525 1485
1485 1525 1526 1486
1486 1526 1527 1487
1487 1527 1528 1488
1488 1528 1529 1489
1489 1529 1530 1490
1490 1530 1531 1491
1491 1531 1532 1492
1492 1532 1533 1493
1493 1533 1534 1494
1494 1534 1535 1495
1495 1535 1536 1496
1496 1536 1537 1497
1497 1537 1538 1498
1498 1538 1539 1499
1499 1539 1540 1500
1500 1540 1541 1501
1501 1541 1542 1502
1502 1542 1543 1503
1503 1543 1544 1504
1504 1544 1545 1505
1505 1545 1546 1506
1506 1546 1547 1507
1507 1547 1548 1508
1508 1548 1549 1509
1509 1549 1550 1510
1510 1550 1551 1511
1511 1551 1552 1512
1512 1552 1553 1513
1513 1553 1554 1514
1514 1554 1555 1515
1515 1555 1556 1516
1516 1556 1557 1517
1517 1557 115 114
38 39 1558 1518
1518 1558 1559 1519
1519 1559 1560 1520
1520 1560 1561 1521
1521 1561 1562 1522
1522 1562 1563 1523
1523 1563 1564 1524
1524 1564 1565 1525
1525 1565 1566 1526
1526 1566 1567 1527
1527 1567 1568 1528
1528 1568 1569 1529
1529 1569 1570 1530
1530 1570 1571 1531
1531 1571 1572 1532
1532 1572 1573 1533
1533 1573 1574 1534
1534 1574 1575 1535
1535 1575 1576 1536
1536 1576 1577 1537
1537 1577 1578 1538
1538 1578 1579 1539
1539 1579 1580 1540
1540 1580 1581 1541
1541 1581 1582 1542
1542 1582 1583 1543
1543 1583 1584 1544
1544 1584 1585 1545
1545 1585 1586 1546
1546 1586 1587 1547
1547 1587 1588 1548
1548 1588 1589 1549
1549 1589 1590 1550
1550 1590 1591 1551
1551 1591 1592 1552
1552 1592 1593 1553
1553 1593 1594 1554
1554 1594 1595 1555
1555 1595 1596 1556
1556 1596 1597 1557
1557 1597 116 115
39 40 1598 1558
1558 1598 1599 1559
1559 1599 1600 1560
1560 1600 1601 1561
1561 1601 1602 1562
1562 1602 1603 1563
1563 1603 1604 1564
1564 1604 1605 1565
1565 1605 1606 1566
1566 1606 1607 1567
1567 1607 1608 1568
1568 1608 1609 1569
1569 1609 1610 1570
1570 1610 1611 1571
1571 1611 1612 1572
1572 1612 1613 1573
1573 1613 1614 1574
1574 1614 1615 1575
1575 1615 1616 1576
1576 1616 1617 1577
1577 1617 1618 1578
1578 1618 1619 1579
1579 1619 1620 1580
1580 1620 1621 1581
1581 1621 1622 1582
1582 1622 1623 1583
1583 1623 1624 1584
1584 1624 1625 1585
1585 1625 1626 1586
1586 1626 1627 1587
1587 1627 1628 1588
1588 1628 1629 1589
1589 1629 1630 1590
1590 1630 1631 1591
1591 1631 1632 1592
1592 1632 1633 1593
1593 1633 1634 1594
1594 1634 1635 1595
1595 1635 1636 1596
1596 1636 1637 1597
1597 1637 117 116
40 41 1638 1598
1598 1638 1639 1599
1599 1639 1640 1600
1600 1640 1641 1601
1601 1641 1642 1602
1602 1642 1643 1603
1603 1643 1644 1604
1604 1644 1645 1605
1605 1645 1646 1606
1606 1646 1647 1607
1607 1647 1648 1608
1608 1648 1649 1609
1609 1649 1650 1610
1610 1650 1651 1611
1611 1651 1652 1612
1612 1652 1653 1613
1613 1653 1654 1614
1614 1654 1655 1615
1615 1655 1656 1616
1616 1656 1657 1617
1617 1657 1658 1618
1618 1658 1659 1619
1619 1659 1660 1620
1620 1660 1661 1621
1621 1661 1662 1622
1622 1662 1663 1623
1623 1663 1664 1624
1624 1664 1665 1625
1625 1665 1666 1626
1626 1666 1667 1627
1627 1667 1668 1628
1628 1668 1669 1629
1629 1669 1670 1630
1630 1670 1671 1631
1631 1671 1672 1632
1632 1672 1673 1633
1633 1673 1674 1634
1634 1674 1675 1635
1635 1675 1676 1636
1636 1676 1677 1637
1637 1677 118 117
41 42 1678 1638
1638 1678 1679 1639
1639 1679 1680 1640
1640 1680 1681 1641
1641 1681 1682 1642
1642 1682 1683 1643
1643 1683 1684 1644
1644 1684 1685 1645
1645 1685 1686 1646
1646 1686 1687 1647
1647 1687 1688 1648
1648 1688 1689 1649
1649 1689 1690 1650
1650 1690 1691 1651
1651 1691 1692 1652
1652 1692 1693 1653
1653 1693 1694 1654
1654 1694 1695 1655
1655 1695 1696 1656
1656 1696 1697 1657
1657 1697 1698 1658
1658 1698 1699 1659
1659 1699 1700 1660
1660 1700 1701 1661
1661 1701 1702 1662
1662 1702 1703 1663
1663 1703 1704 1664
1664 1704 1705 1665
1665 1705 1706 1666
1666 1706 1707 1667
1667 1707 1708 1668
1668 1708 1709 1669
1669 1709 1710 1670
1670 1710 1711 1671
1671 1711 1712 1672
1672 1712 1713 1673
1673 1713 1714 1674
1674 1714 1715 1675
1675 1715 1716 1676
1676 1716 1717 1677
1677 1717 119 118
42 43 1718 1678
1678 1718 1719 1679
1679 1719 1720 1680
1680 1720 1721 1681
1681 1721 1722 1682
1682 1722 1723 1683
1683 1723 1724 1684
1684 1724 1725 1685
1685 1725 1726 1686
1686 1726 1727 1687
1687 1727 1728 1688
1688 1728 1729 1689
1689 1729 1730 1690
1690 1730 1731 1691
1691 1731 1732 1692
1692 1732 1733 1693
1693 1733 1734 1694
1694 1734 1735 1695
1695 1735 1736 1696
1696 1736 1737 1697
1697 1737 1738 1698
1698 1738 1739 1699
1699 1739 1740 1700
1700 1740 1741 1701
1701 1741 1742 1702
1702 1742 1743 1703
1703 1743 1744 1704
1704 1744 1745 1705
1705 1745 1746 1706
1706 1746 1747 1707
1707 1747 1748 1708
1708 1748 1749 1709
1709 1749 1750 1710
1710 1750 1751 1711
1711 1751 1752 1712
1712 1752 1753 1713
1713 1753 1754 1714
1714 1754 1755 1715
1715 1755 1756 1716
1716 1756 1757 1717
1717 1757 120 119
43 44 1758 1718
1718 1758 1759 1719
1719 1759 1760 1720
1720 1760 1761 1721
1721 1761 1762 1722
1722 1762 1763 1723
1723 1763 1764 1724
1724 1764 1765 1725
1725 1765 1766 1726
1726 1766 1767 1727
1727 1767 1768 1728
1728 1768 1769 1729
1729 1769 1770 1730
1730 1770 1771 1731
1731 1771 1772 1732
1732 1772 1773 1733
1733 1773 1774 1734
1734 1774 1775 1735
1735 1775 1776 1736
1736 1776 1777 1737
1737 1777 1778 1738
1738 1778 1779 1739
1739 1779 1780 1740
1740 1780 1781 1741
1741 1781 1782 1742
1742 1782 1783 1743
1743 1783 1784 1744
1744 1784 1785 1745
1745 1785 1786 1746
1746 1786 1787 1747
1747 1787 1788 1748
1748 1788 1789 1749
1749 1789 1790 1750
1750 1790 1791 1751
1751 1791 1792 1752
1752 1792 1793 1753
1753 1793 1794 1754
1754 1794 1795 1755
1755 1795 1796 1756
1756 1796 1797 1757
1757 1797 121 120
44 45 1798 1758
1758 1798 1799 1759
1759 1799 1800 1760
1760 1800 1801 1761
1761 1801 1802 1762
1762 1802 1803 1763
1763 1803 1804 1764
1764 1804 1805 1765
1765 1805 1806 1766
1766 1806 1807 1767
1767 1807 1808 1768
1768 1808 1809 1769
1769 1809 1810 1770
1770 1810 1811 1771
1771 1811 1812 1772
1772 1812 1813 1773
1773 1813 1814 1774
1774 1814 1815 1775
1775 1815 1816 1776
1776 1816 1817 1777
1777 1817 1818 1778
1778 1818 1819 1779
1779 1819 1820 1780
1780 1820 1821 1781
1781 1821 1822 1782
1782 1822 1823 1783
1783 1823 1824 1784
1784 1824 1825 1785
1785 1825 1826 1786
1786 1826 1827 1787
1787 1827 1828 1788
1788 1828 1829 1789
1789 1829 1830 1790
1790 1830 1831 1791
1791 1831 1832 1792
1792 1832 1833 1793
1793 1833 1834 1794
1794 1834 1835 1795
1795 1835 1836 1796
1796 1836 1837 1797
1797 1837 122 121
45 46 1838 1798
1798 1838 1839 1799
1799 1839 1840 1800
1800 1840 1841 1801
1801 1841 1842 1802
1802 1842 1843 1803
1803 1843 1844 1804
1804 1844 1845 1805
1805 1845 1846 1806
1806 1846 1847 1807
1807 1847 1848 1808
1808 1848 1849 1809
1809 1849 1850 1810
1810 1850 1851 1811
1811 1851 1852 1812
1812 1852 1853 1813
1813 1853 1854 1814
1814 1854 1855 1815
1815 1855 1856 1816
1816 1856 1857 1817
1817 1857 1858 1818
1818 1858 1859 1819
1819 1859 1860 1820
1820 1860 1861 1821
1821 1861 1862 1822
1822 1862 1863 1823
1823 1863 1864 1824
1824 1864 1865 1825
1825 1865 1866 1826
1826 1866 1867 1827
1827 1867 1868 1828
1828 1868 1869 1829
1829 1869 1870 1830
1830 1870 1871 1831
1831 1871 1872 1832
1832 1872 1873 1833
1833 1873 1874 1834
1834 1874 1875 1835
1835 1875 1876 1836
1836 1876 1877 1837
1837 1877 123 122
46 47 1878 1838
1838 1878 1879 1839
1839 1879 1880 1840
1840 1880 1881 1841
1841 1881 1882 1842
1842 1882 1883 1843
1843 1883 1884 1844
1844 1884 1885 1845
1845 1885 1886 1846
1846 1886 1887 1847
1847 1887 1888 1848
1848 1888 1889 1849
1849 1889 1890 1850
1850 1890 1891 1851
1851 1891 1892 1852
1852 1892 1893 1853
1853 1893 1894 1854
1854 1894 1895 1855
1855 1895 1896 1856
1856 1896 1897 1857
1857 1897 1898 1858
1858 1898 1899 1859
1859 1899 1900 1860
1860 1900 1901 1861
1861 1901 1902 1862
1862 1902 1903 1863
1863 1903 1904 1864
1864 1904 1905 1865
1865 1905 1906 1866
1866 1906 1907 1867
1867 1907 1908 1868
1868 1908 1909 1869
1869 1909 1910 1870
1870 1910 1911 1871
1871 1911 1912 1872
1872 1912 1913 1873
1873 1913 1914 1874
1874 1914 1915 1875
1875 1915 1916 1876
1876 1916 1917 1877
1877 1917 124 123
47 48 1918 1878
1878 1918 1919 1879
1879 1919 1920 1880
1880 1920 1921 1881
1881 1921 1922 1882
1882 1922 1923 1883
1883 1923 1924 1884
1884 1924 1925 1885
1885 1925 1926 1886
1886 1926 1927 1887
1887 1927 1928 1888
1888 1928 1929 1889
1889 1929 1930 1890
1890 1930 1931 1891
1891 1931 1932 1892
1892 1932 1933 1893
1893 1933 1934 1894
1894 1934 1935 1895
1895 1935 1936 1896
1896 1936 1937 1897
1897 1937 1938 1898
1898 1938 1939 1899
1899 1939 1940 1900
1900 1940 1941 1901
1901 1941 1942 1902
1902 1942 1943 1903
1903 1943 1944 1904
1904 1944 1945 1905
1905 1945 1946 1906
1906 1946 1947 1907
1907 1947 1948 1908
1908 1948 1949 1909
1909 1949 1950 1910
1910 1950 1951 1911
1911 1951 1952 1912
1912 1952 1953 1913
1913 1953 1954 1914
1914 1954 1955 1915
1915 1955 1956 1916
1916 1956 1957 1917
1917 1957 125 124
48 49 1958 1918
1918 1958 1959 1919
1919 1959 1960 1920
1920 1960 1961 1921
1921 1961 1962 1922
1922 1962 1963 1923
1923 1963 1964 1924
1924 1964 1965 1925
1925 1965 1966 1926
1926 1966 1967 1927
1927 1967 1968 1928
1928 1968 1969 1929
1929 1969 1970 1930
1930 1970 1971 1931
1931 1971 1972 1932
1932 1972 1973 1933
1933 1973 1974 1934
1934 1974 1975 1935
1935 1975 1976 1936
1936 1976 1977 1937
1937 1977 1978 1938
1938 1978 1979 1939
1939 1979 1980 1940
1940 1980 1981 1941
1941 1981 1982 1942
1942 1982 1983 1943
1943 1983 1984 1944
1944 1984 1985 1945
1945 1985 1986 1946
1946 1986 1987 1947
1947 1987 1988 1948
1948 1988 1989 1949
1949 1989 1990 1950
1950 1990 1991 1951
1951 1991 1992 1952
1952 1992 1993 1953
1953 1993 1994 1954
1954 1994 1995 1955
1955 1995 1996 1956
1956 1996 1997 1957
1957 1997 126 125
49 1 1998 1958
1958 1998 1999 1959
1959 1999 2000 1960
1960 2000 2001 1961
1961 2001 2002 1962
1962 2002 2003 1963
1963 2003 2004 1964
1964 2004 2005 1965
1965 2005 2006 1966
1966 2006 2007 1967
1967 2007 2008 1968
1968 2008 2009 1969
1969 2009 2010 1970
1970 2010 2011 1971
1971 2011 2012 1972
1972 2012 2013 1973
1973 2013 2014 1974
1974 2014 2015 1975
1975 2015 2016 1976
1976 2016 2017 1977
1977 2017 2018 1978
1978 2018 2019 1979
1979 2019 2020 1980
1980 2020 2021 1981
1981 2021 2022 1982
1982 2022 2023 1983
1983 2023 2024 1984
1984 2024 2025 1985
1985 2025 2026 1986
1986 2026 2027 1987
1987 2027 2028 1988
1988 2028 2029 1989
1989 2029 2030 1990
1990 2030 2031 1991
1991 2031 2032 1992
1992 2032 2033 1993
1993 2033 2034 1994
1994 2034 2035 1995
1995 2035 2036 1996
1996 2036 2037 1997
1997 2037 127 126
1 50 2038 1998
1998 2038 2039 1999
1999 2039 2040 2000
2000 2040 2041 2001
2001 2041 2042 2002
2002 2042 2043 2003
2003 2043 2044 2004
2004 2044 2045 2005
2005 2045 2046 2006
2006 2046 2047 2007
2007 2047 2048 2008
2008 2048 2049 2009
2009 2049 2050 2010
2010 2050 2051 2011
2011 2051 2052 2012
2012 2052 2053 2013
2013 2053 2054 2014
2014 2054 2055 2015
2015 2055 2056 2016
2016 2056 2057 2017
2017 2057 2058 2018
2018 2058 2059 2019
2019 2059 2060 2020
2020 2060 2061 2021
2021 2061 2062 2022
2022 2062 2063 2023
2023 2063 2064 2024
2024 2064 2065 2025
2025 2065 2066 2026
2026 2066 2067 2027
2027 2067 2068 2028
2028 2068 2069 2029
2029 2069 2070 2030
2030 2070 2071 2031
2031 2071 2072 2032
2032 2072 2073 2033
2033 2073 2074 2034
2034 2074 2075 2035
2035 2075 2076 2036
2036 2076 2077 2037
2037 2077 128 127
50 51 2078 2038
2038 2078 2079 2039
2039 2079 2080 2040
2040 2080 2081 2041
2041 2081 2082 2042
2042 2082 2083 2043
2043 2083 2084 2044
2044 2084 2085 2045
2045 2085 2086 2046
2046 2086 2087 2047
2047 2087 2088 2048
2048 2088 2089 2049
2049 2089 2090 2050
2050 2090 2091 2051
2051 2091 2092 2052
2052 2092 2093 2053
2053 2093 2094 2054
2054 2094 2095 2055
2055 2095 2096 2056
2056 2096 2097 2057
2057 2097 2098 2058
2058 2098 2099 2059
2059 2099 2100 2060
2060 2100 2101 2061
2061 2101 2102 2062
2062 2102 2103 2063
2063 2103 2104 2064
2064 2104 2105 2065
2065 2105 2106 2066
2066 2106 2107 2067
2067 2107 2108 2068
2068 2108 2109 2069
2069 2109 2110 2070
2070 2110 2111 2071
2071 2111 2112 2072
2072 2112 2113 2073
2073 2113 2114 2074
2074 2114 2115 2075
2075 2115 2116 2076
2076 2116 2117 2077
2077 2117 129 128
51 52 2118 2078
2078 2118 2119 2079
2079 2119 2120 2080
2080 2120 2121 2081
2081 2121 2122 2082
2082 2122 2123 2083
2083 2123 2124 2084
2084 2124 2125 2085
2085 2125 2126 2086
2086 2126 2127 2087
2087 2127 2128 2088
2088 2128 2129 2089
2089 2129 2130 2090
2090 2130 2131 2091
2091 2131 2132 2092
2092 2132 2133 2093
2093 2133 2134 2094
2094 2134 2135 2095
2095 2135 2136 2096
2096 2136 2137 2097
2097 2137 2138 2098
2098 2138 2139 2099
2099 2139 2140 2100
2100 2140 2141 2101
2101 2141 2142 2102
2102 2142 2143 2103
2103 2143 2144 2104
2104 2144 2145 2105
2105 2145 2146 2106
2106 2146 2147 2107
2107 2147 2148 2108
2108 2148 2149 2109
2109 2149 2150 2110
2110 2150 2151 2111
2111 2151 2152 2112
2112 2152 2153 2113
2113 2153 2154 2114
2114 2154 2155 2115
2115 2155 2156 2116
2116 2156 2157 2117
2117 2157 130 129
52 53 2158 2118
2118 2158 2159 2119
2119 2159 2160 2120
2120 2160 2161 2121
2121 2161 2162 2122
2122 2162 2163 2123
2123 2163 2164 2124
2124 2164 2165 2125
2125 2165 2166 2126
2126 2166 2167 2127
2127 2167 2168 2128
2128 2168 2169 2129
2129 2169 2170 2130
2130 2170 2171 2131
2131 2171 2172 2132
2132 2172 2173 2133
2133 2173 2174 2134
2134 2174 2175 2135
2135 2175 2176 2136
2136 2176 2177 2137
2137 2177 2178 2138
2138 2178 2179 2139
2139 2179 2180 2140
2140 2180 2181 2141
2141 2181 2182 2142
2142 2182 2183 2143
2143 2183 2184 2144
2144 2184 2185 2145
2145 2185 2186 2146
2146 2186 2187 2147
2147 2187 2188 2148
2148 2188 2189 2149
2149 2189 2190 2150
2150 2190 2191 2151
2151 2191 2192 2152
2152 2192 2193 2153
2153 2193 2194 2154
2154 2194 2195 2155
2155 2195 2196 2156
2156 2196 2197 2157
2157 2197 131 130
53 54 2198 2158
2158 2198 2199 2159
2159 2199 2200 2160
2160 2200 2201 2161
2161 2201 2202 2162
2162 2202 2203 2163
2163 2203 2204 2164
2164 2204 2205 2165
2165 2205 2206 2166
2166 2206 2207 2167
2167 2207 2208 2168
2168 2208 2209 2169
2169 2209 2210 2170
2170 2210 2211 2171
2171 2211 2212 2172
2172 2212 2213 2173
2173 2213 2214 2174
2174 2214 2215 2175
2175 2215 2216 2176
2176 2216 2217 2177
2177 2217 2218 2178
2178 2218 2219 2179
2179 2219 2220 2180
2180 2220 2221 2181
2181 2221 2222 2182
2182 2222 2223 2183
2183 2223 2224 2184
2184 2224 2225 2185
2185 2225 2226 2186
2186 2226 2227 2187
2187 2227 2228 2188
2188 2228 2229 2189
2189 2229 2230 2190
2190 2230 2231 2191
2191 2231 2232 2192
2192 2232 2233 2193
2193 2233 2234 2194
2194 2234 2235 2195
2195 2235 2236 2196
2196 2236 2237 2197
2197 2237 132 131
54 55 2238 2198
2198 2238 2239 2199
2199 2239 2240 2200
2200 2240 2241 2201
2201 2241 2242 2202
2202 2242 2243 2203
2203 2243 2244 2204
2204 2244 2245 2205
2205 2245 2246 2206
2206 2246 2247 2207
2207 2247 2248 2208
2208 2248 2249 2209
2209 2249 2250 2210
2210 2250 2251 2211
2211 2251 2252 2212
2212 2252 2253 2213
2213 2253 2254 2214
2214 2254 2255 2215
2215 2255 2256 2216
2216 2256 2257 2217
2217 2257 2258 2218
2218 2258 2259 2219
2219 2259 2260 2220
2220 2260 2261 2221
2221 2261 2262 2222
2222 2262 2263 2223
2223 2263 2264 2224
2224 2264 2265 2225
2225 2265 2266 2226
2226 2266 2267 2227
2227 2267 2268 2228
2228 2268 2269 2229
2229 2269 2270 2230
2230 2270 2271 2231
2231 2271 2272 2232
2232 2272 2273 2233
2233 2273 2274 2234
2234 2274 2275 2235
2235 2275 2276 2236
2236 2276 2277 2237
2237 2277 133 132
55 56 2278 2238
2238 2278 2279 2239
2239 2279 2280 2240
2240 2280 2281 2241
2241 2281 2282 2242
2242 2282 2283 2243
2243 2283 2284 2244
2244 2284 2285 2245
2245 2285 2286 2246
2246 2286 2287 2247
2247 2287 2288 2248
2248 2288 2289 2249
2249 2289 2290 2250
2250 2290 2291 2251
2251 2291 2292 2252
2252 2292 2293 2253
2253 2293 2294 2254
2254 2294 2295 2255
2255 2295 2296 2256
2256 2296 2297 2257
2257 2297 2298 2258
2258 2298 2299 2259
2259 2299 2300 2260
2260 2300 2301 2261
2261 2301 2302 2262
2262 2302 2303 2263
2263 2303 2304 2264
2264 2304 2305 2265
2265 2305 2306 2266
2266 2306 2307 2267
2267 2307 2308 2268
2268 2308 2309 2269
2269 2309 2310 2270
2270 2310 2311 2271
2271 2311 2312 2272
2272 2312 2313 2273
2273 2313 2314 2274
2274 2314 2315 2275
2275 2315 2316 2276
2276 2316 2317 2277
2277 2317 134 133
56 57 2318 2278
2278 2318 2319 2279
2279 2319 2320 2280
2280 2320 2321 2281
2281 2321 2322 2282
2282 2322 2323 2283
2283 2323 2324 2284
2284 2324 2325 2285
2285 2325 2326 2286
2286 2326 2327 2287
2287 2327 2328 2288
2288 2328 2329 2289
2289 2329 2330 2290
2290 2330 2331 2291
2291 2331 2332 2292
2292 2332 2333 2293
2293 2333 2334 2294
2294 2334 2335 2295
2295 2335 2336 2296
2296 2336 2337 2297
2297 2337 2338 2298
2298 2338 2339 2299
2299 2339 2340 2300
2300 2340 2341 2301
2301 2341 2342 2302
2302 2342 2343 2303
2303 2343 2344 2304
2304 2344 2345 2305
2305 2345 2346 2306
2306 2346 2347 2307
2307 2347 2348 2308
2308 2348 2349 2309
2309 2349 2350 2310
2310 2350 2351 2311
2311 2351 2352 2312
2312 2352 2353 2313
2313 2353 2354 2314
2314 2354 2355 2315
2315 2355 2356 2316
2316 2356 2357 2317
2317 2357 135 134
57 58 2358 2318
2318 2358 2359 2319
2319 2359 2360 2320
2320 2360 2361 2321
2321 2361 2362 2322
2322 2362 2363 2323
2323 2363 2364 2324
2324 2364 2365 2325
2325 2365 2366 2326
2326 2366 2367 2327
2327 2367 2368 2328
2328 2368 2369 2329
2329 2369 2370 2330
2330 2370 2371 2331
2331 2371 2372 2332
2332 2372 2373 2333
2333 2373 2374 2334
2334 2374 2375 2335
2335 2375 2376 2336
2336 2376 2377 2337
2337 2377 2378 2338
2338 2378 2379 2339
2339 2379 2380 2340
2340 2380 2381 2341
2341 2381 2382 2342
2342 2382 2383 2343
2343 2383 2384 2344
2344 2384 2385 2345
2345 2385 2386 2346
2346 2386 2387 2347
2347 2387 2388 2348
2348 2388 2389 2349
2349 2389 2390 2350
2350 2390 2391 2351
2351 2391 2392 2352
2352 2392 2393 2353
2353 2393 2394 2354
2354 2394 2395 2355
2355 2395 2396 2356
2356 2396 2397 2357
2357 2397 136 135
58 59 2398 2358
2358 2398 2399 2359
2359 2399 2400 2360
2360 2400 2401 2361
2361 2401 2402 2362
2362 2402 2403 2363
2363 2403 2404 2364
2364 2404 2405 2365
2365 2405 2406 2366
2366 2406 2407 2367
2367 2407 2408 2368
2368 2408 2409 2369
2369 2409 2410 2370
2370 2410 2411 2371
2371 2411 2412 2372
2372 2412 2413 2373
2373 2413 2414 2374
2374 2414 2415 2375
2375 2415 2416 2376
2376 2416 2417 2377
2377 2417 2418 2378
2378 2418 2419 2379
2379 2419 2420 2380
2380 2420 2421 2381
2381 2421 2422 2382
2382 2422 2423 2383
2383 2423 2424 2384
2384 2424 2425 2385
2385 2425 2426 2386
2386 2426 2427 2387
2387 2427 2428 2388
2388 2428 2429 2389
2389 2429 2430 2390
2390 2430 2431 2391
2391 2431 2432 2392
2392 2432 2433 2393
2393 2433 2434 2394
2394 2434 2435 2395
2395 2435 2436 2396
2396 2436 2437 2397
2397 2437 137 136
59 60 2438 2398
2398 2438 2439 2399
2399 2439 2440 2400
2400 2440 2441 2401
2401 2441 2442 2402
2402 2442 2443 2403
2403 2443 2444 2404
2404 2444 2445 2405
2405 2445 2446 2406
2406 2446 2447 2407
2407 2447 2448 2408
2408 2448 2449 2409
2409 2449 2450 2410
2410 2450 2451 2411
2411 2451 2452 2412
2412 2452 2453 2413
2413 2453 2454 2414
2414 2454 2455 2415
2415 2455 2456 2416
2416 2456 2457 2417
2417 2457 2458 2418
2418 2458 2459 2419
2419 2459 2460 2420
2420 2460 2461 2421
2421 2461 2462 2422
2422 2462 2463 2423
2423 2463 2464 2424
2424 2464 2465 2425
2425 2465 2466 2426
2426 2466 2467 2427
2427 2467 2468 2428
2428 2468 2469 2429
2429 2469 2470 2430
2430 2470 2471 2431
2431 2471 2472 2432
2432 2472 2473 2433
2433 2473 2474 2434
2434 2474 2475 2435
2435 2475 2476 2436
2436 2476 2477 2437
2437 2477 138 137
60 61 2478 2438
2438 2478 2479 2439
2439 2479 2480 2440
2440 2480 2481 2441
2441 2481 2482 2442
2442 2482 2483 2443
2443 2483 2484 2444
2444 2484 2485 2445
2445 2485 2486 2446
2446 2486 2487 2447
2447 2487 2488 2448
2448 2488 2489 2449
2449 2489 2490 2450
2450 2490 2491 2451
2451 2491 2492 2452
2452 2492 2493 2453
2453 2493 2494 2454
2454 2494 2495 2455
2455 2495 2496 2456
2456 2496 2497 2457
2457 2497 2498 2458
2458 2498 2499 2459
2459 2499 2500 2460
2460 2500 2501 2461
2461 2501 2502 2462
2462 2502 2503 2463
2463 2503 2504 2464
2464 2504 2505 2465
2465 2505 2506 2466
2466 2506 2507 2467
2467 2507 2508 2468
2468 2508 2509 2469
2469 2509 2510 2470
2470 2510 2511 2471
2471 2511 2512 2472
2472 2512 2513 2473
2473 2513 2514 2474
2474 2514 2515 2475
2475 2515 2516 2476
2476 2516 2517 2477
2477 2517 139 138
61 62 2518 2478
2478 2518 2519 2479
2479 2519 2520 2480
2480 2520 2521 2481
2481 2521 2522 2482
2482 2522 2523 2483
2483 2523 2524 2484
2484 2524 2525 2485
2485 2525 2526 2486
2486 2526 2527 2487
2487 2527 2528 2488
2488 2528 2529 2489
2489 2529 2530 2490
2490 2530 2531 2491
2491 2531 2532 2492
2492 2532 2533 2493
2493 2533 2534 2494
2494 2534 2535 2495
2495 2535 2536 2496
2496 2536 2537 2497
2497 2537 2538 2498
2498 2538 2539 2499
2499 2539 2540 2500
2500 2540 2541 2501
2501 2541 2542 2502
2502 2542 2543 2503
2503 2543 2544 2504
2504 2544 2545 2505
2505 2545 2546 2506
2506 2546 2547 2507
2507 2547 2548 2508
2508 2548 2549 2509
2509 2549 2550 2510
2510 2550 2551 2511
2511 2551 2552 2512
2512 2552 2553 2513
2513 2553 2554 2514
2514 2554 2555 2515
2515 2555 2556 2516
2516 2556 2557 2517
2517 2557 140 139
62 63 2558 2518
2518 2558 2559 2519
2519 2559 2560 2520
2520 2560 2561 2521
2521 2561 2562 2522
2522 2562 2563 2523
2523 2563 2564 2524
2524 2564 2565 2525
2525 2565 2566 2526
2526 2566 2567 2527
2527 2567 2568 2528
2528 2568 2569 2529
2529 2569 2570 2530
2530 2570 2571 2531
2531 2571 2572 2532
2532 2572 2573 2533
2533 2573 2574 2534
2534 2574 2575 2535
2535 2575 2576 2536
2536 2576 2577 2537
2537 2577 2578 2538
2538 2578 2579 2539
2539 2579 2580 2540
2540 2580 2581 2541
2541 2581 2582 2542
2542 2582 2583 2543
2543 2583 2584 2544
2544 2584 2585 2545
2545 2585 2586 2546
2546 2586 2587 2547
2547 2587 2588 2548
2548 2588 2589 2549
2549 2589 2590 2550
2550 2590 2591 2551
2551 2591 2592 2552
2552 2592 2593 2553
2553 2593 2594 2554
2554 2594 2595 2555
2555 2595 2596 2556
2556 2596 2597 2557
2557 2597 141 140
63 64 2598 2558
2558 2598 2599 2559
2559 2599 2600 2560
2560 2600 2601 2561
2561 2601 2602 2562
2562 2602 2603 2563
2563 2603 2604 2564
2564 2604 2605 2565
2565 2605 2606 2566
2566 2606 2607 2567
2567 2607 2608 2568
2568 2608 2609 2569
2569 2609 2610 2570
2570 2610 2611 2571
2571 2611 2612 2572
2572 2612 2613 2573
2573 2613 2614 2574
2574 2614 2615 2575
2575 2615 2616 2576
2576 2616 2617 2577
2577 2617 2618 2578
2578 2618 2619 2579
2579 2619 2620 2580
2580 2620 2621 2581
2581 2621 2622 2582
2582 2622 2623 2583
2583 2623 2624 2584
2584 2624 2625 2585
2585 2625 2626 2586
2586 2626 2627 2587
2587 2627 2628 2588
2588 2628 2629 2589
2589 2629 2630 2590
2590 2630 2631 2591
2591 2631 2632 2592
2592 2632 2633 2593
2593 2633 2634 2594
2594 2634 2635 2595
2595 2635 2636 2596
2596 2636 2637 2597
2597 2637 142 141
64 65 2638 2598
2598 2638 2639 2599
2599 2639 2640 2600
2600 2640 2641 2601
2601 2641 2642 2602
2602 2642 2643 2603
2603 2643 2644 2604
2604 2644 2645 2605
2605 2645 2646 2606
2606 2646 2647 2607
2607 2647 2648 2608
2608 2648 2649 2609
2609 2649 2650 2610
2610 2650 2651 2611
2611 2651 2652 2612
2612 2652 2653 2613
2613 2653 2654 2614
2614 2654 2655 2615
2615 2655 2656 2616
2616 2656 2657 2617
2617 2657 2658 2618
2618 2658 2659 2619
2619 2659 2660 2620
2620 2660 2661 2621
2621 2661 2662 2622
2622 2662 2663 2623
2623 2663 2664 2624
2624 2664 2665 2625
2625 2665 2666 2626
2626 2666 2667 2627
2627 2667 2668 2628
2628 2668 2669 2629
2629 2669 2670 2630
2630 2670 2671 2631
2631 2671 2672 2632
2632 2672 2673 2633
2633 2673 2674 2634
2634 2674 2675 2635
2635 2675 2676 2636
2636 2676 2677 2637
2637 2677 143 142
65 66 2678 2638
2638 2678 2679 2639
2639 2679 2680 2640
2640 2680 2681 2641
2641 2681 2682 2642
2642 2682 2683 2643
2643 2683 2684 2644
2644 2684 2685 2645
2645 2685 2686 2646
2646 2686 2687 2647
2647 2687 2688 2648
2648 2688 2689 2649
2649 2689 2690 2650
2650 2690 2691 2651
2651 2691 2692 2652
2652 2692 2693 2653
2653 2693 2694 2654
2654 2694 2695 2655
2655 2695 2696 2656
2656 2696 2697 2657
2657 2697 2698 2658
2658 2698 2699 2659
2659 2699 2700 2660
2660 2700 2701 2661
2661 2701 2702 2662
2662 2702 2703 2663
2663 2703 2704 2664
2664 2704 2705 2665
2665 2705 2706 2666
2666 2706 2707 2667
2667 2707 2708 2668
2668 2708 2709 2669
2669 2709 2710 2670
2670 2710 2711 2671
2671 2711 2712 2672
2672 2712 2713 2673
2673 2713 2714 2674
2674 2714 2715 2675
2675 2715 2716 2676
2676 2716 2717 2677
2677 2717 144 143
66 67 2718 2678
2678 2718 2719 2679
2679 2719 2720 2680
2680 2720 2721 2681
2681 2721 2722 2682
2682 2722 2723 2683
2683 2723 2724 2684
2684 2724 2725 2685
2685 2725 2726 2686
2686 2726 2727 2687
2687 2727 2728 2688
2688 2728 2729 2689
2689 2729 2730 2690
2690 2730 2731 2691
2691 2731 2732 2692
2692 2732 2733 2693
2693 2733 2734 2694
2694 2734 2735 2695
2695 2735 2736 2696
2696 2736 2737 2697
2697 2737 2738 2698
2698 2738 2739 2699
2699 2739 2740 2700
2700 2740 2741 2701
2701 2741 2742 2702
2702 2742 2743 2703
2703 2743 2744 2704
2704 2744 2745 2705
2705 2745 2746 2706
2706 2746 2747 2707
2707 2747 2748 2708
2708 2748 2749 2709
2709 2749 2750 2710
2710 2750 2751 2711
2711 2751 2752 2712
2712 2752 2753 2713
2713 2753 2754 2714
2714 2754 2755 2715
2715 2755 2756 2716
2716 2756 2757 2717
2717 2757 145 144
67 68 2758 2718
2718 2758 2759 2719
2719 2759 2760 2720
2720 2760 2761 2721
2721 2761 2762 2722
2722 2762 2763 2723
2723 2763 2764 2724
2724 2764 2765 2725
2725 2765 2766 2726
2726 2766 2767 2727
2727 2767 2768 2728
2728 2768 2769 2729
2729 2769 2770 2730
2730 2770 2771 2731
2731 2771 2772 2732
2732 2772 2773 2733
2733 2773 2774 2734
2734 2774 2775 2735
2735 2775 2776 2736
2736 2776 2777 2737
2737 2777 2778 2738
2738 2778 2779 2739
2739 2779 2780 2740
2740 2780 2781 2741
2741 2781 2782 2742
2742 2782 2783 2743
2743 2783 2784 2744
2744 2784 2785 2745
2745 2785 2786 2746
2746 2786 2787 2747
2747 2787 2788 2748
2748 2788 2789 2749
2749 2789 2790 2750
2750 2790 2791 2751
2751 2791 2792 2752
2752 2792 2793 2753
2753 2793 2794 2754
2754 2794 2795 2755
2755 2795 2796 2756
2756 2796 2797 2757
2757 2797 146 145
68 69 2798 2758
2758 2798 2799 2759
2759 2799 2800 2760
2760 2800 2801 2761
2761 2801 2802 2762
2762 2802 2803 2763
2763 2803 2804 2764
2764 2804 2805 2765
2765 2805 2806 2766
2766 2806 2807 2767
2767 2807 2808 2768
2768 2808 2809 2769
2769 2809 2810 2770
2770 2810 2811 2771
2771 2811 2812 2772
2772 2812 2813 2773
2773 2813 2814 2774
2774 2814 2815 2775
2775 2815 2816 2776
2776 2816 2817 2777
2777 2817 2818 2778
2778 2818 2819 2779
2779 2819 2820 2780
2780 2820 2821 2781
2781 2821 2822 2782
2782 2822 2823 2783
2783 2823 2824 2784
2784 2824 2825 2785
2785 2825 2826 2786
2786 2826 2827 2787
2787 2827 2828 2788
2788 2828 2829 2789
2789 2829 2830 2790
2790 2830 2831 2791
2791 2831 2832 2792
2792 2832 2833 2793
2793 2833 2834 2794
2794 2834 2835 2795
2795 2835 2836 2796
2796 2836 2837 2797
2797 2837 5 146
69 70 2838 2798
2798 2838 2839 2799
2799 2839 2840 2800
2800 2840 2841 2801
2801 2841 2842 2802
2802 2842 2843 2803
2803 2843 2844 2804
2804 2844 2845 2805
2805 2845 2846 2806
2806 2846 2847 2807
2807 2847 2848 2808
2808 2848 2849 2809
2809 2849 2850 2810
2810 2850 2851 2811
2811 2851 2852 2812
2812 2852 2853 2813
2813 2853 2854 2814
2814 2854 2855 2815
2815 2855 2856 2816
2816 2856 2857 2817
2817 2857 2858 2818
2818 2858 2859 2819
2819 2859 2860 2820
2820 2860 2861 2821
2821 2861 2862 2822
2822 2862 2863 2823
2823 2863 2864 2824
2824 2864 2865 2825
2825 2865 2866 2826
2826 2866 2867 2827
2827 2867 2868 2828
2828 2868 2869 2829
2829 2869 2870 2830
2830 2870 2871 2831
2831 2871 2872 2832
2832 2872 2873 2833
2833 2873 2874 2834
2834 2874 2875 2835
2835 2875 2876 2836
2836 2876 2877 2837
2837 2877 147 5
70 71 2878 2838
2838 2878 2879 2839
2839 2879 2880 2840
2840 2880 2881 2841
2841 2881 2882 2842
2842 2882 2883 2843
2843 2883 2884 2844
2844 2884 2885 2845
2845 2885 2886 2846
2846 2886 2887 2847
2847 2887 2888 2848
2848 2888 2889 2849
2849 2889 2890 2850
2850 2890 2891 2851
2851 2891 2892 2852
2852 2892 2893 2853
2853 2893 2894 2854
2854 2894 2895 2855
2855 2895 2896 2856
2856 2896 2897 2857
2857 2897 2898 2858
2858 2898 2899 2859
2859 2899 2900 2860
2860 2900 2901 2861
2861 2901 2902 2862
2862 2902 2903 2863
2863 2903 2904 2864
2864 2904 2905 2865
2865 2905 2906 2866
2866 2906 2907 2867
2867 2907 2908 2868
2868 2908 2909 2869
2869 2909 2910 2870
2870 2910 2911 2871
2871 2911 2912 2872
2872 2912 2913 2873
2873 2913 2914 2874
2874 2914 2915 2875
2875 2915 2916 2876
2876 2916 2917 2877
2877 2917 148 147
71 72 2918 2878
2878 2918 2919 2879
2879 2919 2920 2880
2880 2920 2921 2881
2881 2921 2922 2882
2882 2922 2923 2883
2883 2923 2924 2884
2884 2924 2925 2885
2885 2925 2926 2886
2886 2926 2927 2887
2887 2927 2928 2888
2888 2928 2929 2889
2889 2929 2930 2890
2890 2930 2931 2891
2891 2931 2932 2892
2892 2932 2933 2893
2893 2933 2934 2894
2894 2934 2935 2895
2895 2935 2936 2896
2896 2936 2937 2897
2897 2937 2938 2898
2898 2938 2939 2899
2899 2939 2940 2900
2900 2940 2941 2901
2901 2941 2942 2902
2902 2942 2943 2903
2903 2943 2944 2904
2904 2944 2945 2905
2905 2945 2946 2906
2906 2946 2947 2907
2907 2947 2948 2908
2908 2948 2949 2909
2909 2949 2950 2910
2910 2950 2951 2911
2911 2951 2952 2912
2912 2952 2953 2913
2913 2953 2954 2914
2914 2954 2955 2915
2915 2955 2956 2916
2916 2956 2957 2917
2917 2957 149 148
72 73 2958 2918
2918 2958 2959 2919
2919 2959 2960 2920
2920 2960 2961 2921
2921 2961 2962 2922
2922 2962 2963 2923
2923 2963 2964 2924
2924 2964 2965 2925
2925 2965 2966 2926
2926 2966 2967 2927
2927 2967 2968 2928
2928 2968 2969 2929
2929 2969 2970 2930
2930 2970 2971 2931
2931 2971 2972 2932
2932 2972 2973 2933
2933 2973 2974 2934
2934 2974 2975 2935
2935 2975 2976 2936
2936 2976 2977 2937
2937 2977 2978 2938
2938 2978 2979 2939
2939 2979 2980 2940
2940 2980 2981 2941
2941 2981 2982 2942
2942 2982 2983 2943
2943 2983 2984 2944
2944 2984 2985 2945
2945 2985 2986 2946
2946 2986 2987 2947
2947 2987 2988 2948
2948 2988 2989 2949
2949 2989 2990 2950
2950 2990 2991 2951
2951 2991 2992 2952
2952 2992 2993 2953
2953 2993 2994 2954
2954 2994 2995 2955
2955 2995 2996 2956
2956 2996 2997 2957
2957 2997 150 149
73 74 2998 2958
2958 2998 2999 2959
2959 2999 3000 2960
2960 3000 3001 2961
2961 3001 3002 2962
2962 3002 3003 2963
2963 3003 3004 2964
2964 3004 3005 2965
2965 3005 3006 2966
2966 3006 3007 2967
2967 3007 3008 2968
2968 3008 3009 2969
2969 3009 3010 2970
2970 3010 3011 2971
2971 3011 3012 2972
2972 3012 3013 2973
2973 3013 3014 2974
2974 3014 3015 2975
2975 3015 3016 2976
2976 3016 3017 2977
2977 3017 3018 2978
2978 3018 3019 2979
2979 3019 3020 2980
2980 3020 3021 2981
2981 3021 3022 2982
2982 3022 3023 2983
2983 3023 3024 2984
2984 3024 3025 2985
2985 3025 3026 2986
2986 3026 3027 2987
2987 3027 3028 2988
2988 3028 3029 2989
2989 3029 3030 2990
2990 3030 3031 2991
2991 3031 3032 2992
2992 3032 3033 2993
2993 3033 3034 2994
2994 3034 3035 2995
2995 3035 3036 2996
2996 3036 3037 2997
2997 3037 151 150
74 75 3038 2998
2998 3038 3039 2999
2999 3039 3040 3000
3000 3040 3041 3001
3001 3041 3042 3002
3002 3042 3043 3003
3003 3043 3044 3004
3004 3044 3045 3005
3005 3045 3046 3006
3006 3046 3047 3007
3007 3047 3048 3008
3008 3048 3049 3009
3009 3049 3050 3010
3010 3050 3051 3011
3011 3051 3052 3012
3012 3052 3053 3013
3013 3053 3054 3014
3014 3054 3055 3015
3015 3055 3056 3016
3016 3056 3057 3017
3017 3057 3058 3018
3018 3058 3059 3019
3019 3059 3060 3020
3020 3060 3061 3021
3021 3061 3062 3022
3022 3062 3063 3023
3023 3063 3064 3024
3024 3064 3065 3025
3025 3065 3066 3026
3026 3066 3067 3027
3027 3067 3068 3028
3028 3068 3069 3029
3029 3069 3070 3030
3030 3070 3071 3031
3031 3071 3072 3032
3032 3072 3073 3033
3033 3073 3074 3034
3034 3074 3075 3035
3035 3075 3076 3036
3036 3076 3077 3037
3037 3077 152 151
75 76 3078 3038
3038 3078 3079 3039
3039 3079 3080 3040
3040 3080 3081 3041
3041 3081 3082 3042
3042 3082 3083 3043
3043 3083 3084 3044
3044 3084 3085 3045
3045 3085 3086 3046
3046 3086 3087 3047
3047 3087 3088 3048
3048 3088 3089 3049
3049 3089 3090 3050
3050 3090 3091 3051
3051 3091 3092 3052
3052 3092 3093 3053
3053 3093 3094 3054
3054 3094 3095 3055
3055 3095 3096 3056
3056 3096 3097 3057
3057 3097 3098 3058
3058 3098 3099 3059
3059 3099 3100 3060
3060 3100 3101 3061
3061 3101 3102 3062
3062 3102 3103 3063
3063 3103 3104 3064
3064 3104 3105 3065
3065 3105 3106 3066
3066 3106 3107 3067
3067 3107 3108 3068
3068 3108 3109 3069
3069 3109 3110 3070
3070 3110 3111 3071
3071 3111 3112 3072
3072 3112 3113 3073
3073 3113 3114 3074
3074 3114 3115 3075
3075 3115 3116 3076
3076 3116 3117 3077
3077 3117 153 152
76 77 3118 3078
3078 3118 3119 3079
3079 3119 3120 3080
3080 3120 3121 3081
3081 3121 3122 3082
3082 3122 3123 3083
3083 3123 3124 3084
3084 3124 3125 3085
3085 3125 3126 3086
3086 3126 3127 3087
3087 3127 3128 3088
3088 3128 3129 3089
3089 3129 3130 3090
3090 3130 3131 3091
3091 3131 3132 3092
3092 3132 3133 3093
3093 3133 3134 3094
3094 3134 3135 3095
3095 3135 3136 3096
3096 3136 3137 3097
3097 3137 3138 3098
3098 3138 3139 3099
3099 3139 3140 3100
3100 3140 3141 3101
3101 3141 3142 3102
3102 3142 3143 3103
3103 3143 3144 3104
3104 3144 3145 3105
3105 3145 3146 3106
3106 3146 3147 3107
3107 3147 3148 3108
3108 3148 3149 3109
3109 3149 3150 3110
3110 3150 3151 3111
3111 3151 3152 3112
3112 3152 3153 3113
3113 3153 3154 3114
3114 3154 3155 3115
3115 3155 3156 3116
3116 3156 3157 3117
3117 3157 154 153
77 78 3158 3118
3118 3158 3159 3119
3119 3159 3160 3120
3120 3160 3161 3121
3121 3161 3162 3122
3122 3162 3163 3123
3123 3163 3164 3124
3124 3164 3165 3125
3125 3165 3166 3126
3126 3166 3167 3127
3127 3167 3168 3128
3128 3168 3169 3129
3129 3169 3170 3130
3130 3170 3171 3131
3131 3171 3172 3132
3132 3172 3173 3133
3133 3173 3174 3134
3134 3174 3175 3135
3135 3175 3176 3136
3136 3176 3177 3137
3137 3177 3178 3138
3138 3178 3179 3139
3139 3179 3180 3140
3140 3180 3181 3141
3141 3181 3182 3142
3142 3182 3183 3143
3143 3183 3184 3144
3144 3184 3185 3145
3145 3185 3186 3146
3146 3186 3187 3147
3147 3187 3188 3148
3148 3188 3189 3149
3149 3189 3190 3150
3150 3190 3191 3151
3151 3191 3192 3152
3152 3192 3193 3153
3153 3193 3194 3154
3154 3194 3195 3155
3155 3195 3196 3156
3156 3196 3197 3157
3157 3197 155 154
78 79 3198 3158
3158 3198 3199 3159
3159 3199 3200 3160
3160 3200 3201 3161
3161 3201 3202 3162
3162 3202 3203 3163
3163 3203 3204 3164
3164 3204 3205 3165
3165 3205 3206 3166
3166 3206 3207 3167
3167 3207 3208 3168
3168 3208 3209 3169
3169 3209 3210 3170
3170 3210 3211 3171
3171 3211 3212 3172
3172 3212 3213 3173
3173 3213 3214 3174
3174 3214 3215 3175
3175 3215 3216 3176
3176 3216 3217 3177
3177 3217 3218 3178
3178 3218 3219 3179
3179 3219 3220 3180
3180 3220 3221 3181
3181 3221 3222 3182
3182 3222 3223 3183
3183 3223 3224 3184
3184 3224 3225 3185
3185 3225 3226 3186
3186 3226 3227 3187
3187 3227 3228 3188
3188 3228 3229 3189
3189 3229 3230 3190
3190 3230 3231 3191
3191 3231 3232 3192
3192 3232 3233 3193
3193 3233 3234 3194
3194 3234 3235 3195
3195 3235 3236 3196
3196 3236 3237 3197
3197 3237 156 155
79 80 3238 3198
3198 3238 3239 3199
3199 3239 3240 3200
3200 3240 3241 3201
3201 3241 3242 3202
3202 3242 3243 3203
3203 3243 3244 3204
3204 3244 3245 3205
3205 3245 3246 3206
3206 3246 3247 3207
3207 3247 3248 3208
3208 3248 3249 3209
3209 3249 3250 3210
3210 3250 3251 3211
3211 3251 3252 3212
3212 3252 3253 3213
3213 3253 3254 3214
3214 3254 3255 3215
3215 3255 3256 3216
3216 3256 3257 3217
3217 3257 3258 3218
3218 3258 3259 3219
3219 3259 3260 3220
3220 3260 3261 3221
3221 3261 3262 3222
3222 3262 3263 3223
3223 3263 3264 3224
3224 3264 3265 3225
3225 3265 3266 3226
3226 3266 3267 3227
3227 3267 3268 3228
3228 3268 3269 3229
3229 3269 3270 3230
3230 3270 3271 3231
3231 3271 3272 3232
3232 3272 3273 3233
3233 3273 3274 3234
3234 3274 3275 3235
3235 3275 3276 3236
3236 3276 3277 3237
3237 3277 157 156
80 81 3278 3238
3238 3278 3279 3239
3239 3279 3280 3240
3240 3280 3281 3241
3241 3281 3282 3242
3242 3282 3283 3243
3243 3283 3284 3244
3244 3284 3285 3245
3245 3285 3286 3246
3246 3286 3287 3247
3247 3287 3288 3248
3248 3288 3289 3249
3249 3289 3290 3250
3250 3290 3291 3251
3251 3291 3292 3252
3252 3292 3293 3253
3253 3293 3294 3254
3254 3294 3295 3255
3255 3295 3296 3256
3256 3296 3297 3257
3257 3297 3298 3258
3258 3298 3299 3259
3259 3299 3300 3260
3260 3300 3301 3261
3261 3301 3302 3262
3262 3302 3303 3263
3263 3303 3304 3264
3264 3304 3305 3265
3265 3305 3306 3266
3266 3306 3307 3267
3267 3307 3308 3268
3268 3308 3309 3269
3269 3309 3310 3270
3270 3310 3311 3271
3271 3311 3312 3272
3272 3312 3313 3273
3273 3313 3314 3274
3274 3314 3315 3275
3275 3315 3316 3276
3276 3316 3317 3277
3277 3317 158 157
81 82 3318 3278
3278 3318 3319 3279
3279 3319 3320 3280
3280 3320 3321 3281
3281 3321 3322 3282
3282 3322 3323 3283
3283 3323 3324 3284
3284 3324 3325 3285
3285 3325 3326 3286
3286 3326 3327 3287
3287 3327 3328 3288
3288 3328 3329 3289
3289 3329 3330 3290
3290 3330 3331 3291
3291 3331 3332 3292
3292 3332 3333 3293
3293 3333 3334 3294
3294 3334 3335 3295
3295 3335 3336 3296
3296 3336 3337 3297
3297 3337 3338 3298
3298 3338 3339 3299
3299 3339 3340 3300
3300 3340 3341 3301
3301 3341 3342 3302
3302 3342 3343 3303
3303 3343 3344 3304
3304 3344 3345 3305
3305 3345 3346 3306
3306 3346 3347 3307
3307 3347 3348 3308
3308 3348 3349 3309
3309 3349 3350 3310
3310 3350 3351 3311
3311 3351 3352 3312
3312 3352 3353 3313
3313 3353 3354 3314
3314 3354 3355 3315
3315 3355 3356 3316
3316 3356 3357 3317
3317 3357 159 158
82 83 3358 3318
3318 3358 3359 3319
3319 3359 3360 3320
3320 3360 3361 3321
3321 3361 3362 3322
3322 3362 3363 3323
3323 3363 3364 3324
3324 3364 3365 3325
3325 3365 3366 3326
3326 3366 3367 3327
3327 3367 3368 3328
3328 3368 3369 3329
3329 3369 3370 3330
3330 3370 3371 3331
3331 3371 3372 3332
3332 3372 3373 3333
3333 3373 3374 3334
3334 3374 3375 3335
3335 3375 3376 3336
3336 3376 3377 3337
3337 3377 3378 3338
3338 3378 3379 3339
3339 3379 3380 3340
3340 3380 3381 3341
3341 3381 3382 3342
3342 3382 3383 3343
3343 3383 3384 3344
3344 3384 3385 3345
3345 3385 3386 3346
3346 3386 3387 3347
3347 3387 3388 3348
3348 3388 3389 3349
3349 3389 3390 3350
3350 3390 3391 3351
3351 3391 3392 3352
3352 3392 3393 3353
3353 3393 3394 3354
3354 3394 3395 3355
3355 3395 3396 3356
3356 3396 3397 3357
3357 3397 160 159
83 84 3398 3358
3358 3398 3399 3359
3359 3399 3400 3360
3360 3400 3401 3361
3361 3401 3402 3362
3362 3402 3403 3363
3363 3403 3404 3364
3364 3404 3405 3365
3365 3405 3406 3366
3366 3406 3407 3367
3367 3407 3408 3368
3368 3408 3409 3369
3369 3409 3410 3370
3370 3410 3411 3371
3371 3411 3412 3372
3372 3412 3413 3373
3373 3413 3414 3374
3374 3414 3415 3375
3375 3415 3416 3376
3376 3416 3417 3377
3377 3417 3418 3378
3378 3418 3419 3379
3379 3419 3420 3380
3380 3420 3421 3381
3381 3421 3422 3382
3382 3422 3423 3383
3383 3423 3424 3384
3384 3424 3425 3385
3385 3425 3426 3386
3386 3426 3427 3387
3387 3427 3428 3388
3388 3428 3429 3389
3389 3429 3430 3390
3390 3430 3431 3391
3391 3431 3432 3392
3392 3432 3433 3393
3393 3433 3434 3394
3394 3434 3435 3395
3395 3435 3436 3396
3396 3436 3437 3397
3397 3437 161 160
84 85 3438 3398
3398 3438 3439 3399
3399 3439 3440 3400
3400 3440 3441 3401
3401 3441 3442 3402
3402 3442 3443 3403
3403 3443 3444 3404
3404 3444 3445 3405
3405 3445 3446 3406
3406 3446 3447 3407
3407 3447 3448 3408
3408 3448 3449 3409
3409 3449 3450 3410
3410 3450 3451 3411
3411 3451 3452 3412
3412 3452 3453 3413
3413 3453 3454 3414
3414 3454 3455 3415
3415 3455 3456 3416
3416 3456 3457 3417
3417 3457 3458 3418
3418 3458 3459 3419
3419 3459 3460 3420
3420 3460 3461 3421
3421 3461 3462 3422
3422 3462 3463 3423
3423 3463 3464 3424
3424 3464 3465 3425
3425 3465 3466 3426
3426 3466 3467 3427
3427 3467 3468 3428
3428 3468 3469 3429
3429 3469 3470 3430
3430 3470 3471 3431
3431 3471 3472 3432
3432 3472 3473 3433
3433 3473 3474 3434
3434 3474 3475 3435
3435 3475 3476 3436
3436 3476 3477 3437
3437 3477 162 161
85 86 3478 3438
3438 3478 3479 3439
3439 3479 3480 3440
3440 3480 3481 3441
3441 3481 3482 3442
3442 3482 3483 3443
3443 3483 3484 3444
3444 3484 3485 3445
3445 3485 3486 3446
3446 3486 3487 3447
3447 3487 3488 3448
3448 3488 3489 3449
3449 3489 3490 3450
3450 3490 3491 3451
3451 3491 3492 3452
3452 3492 3493 3453
3453 3493 3494 3454
3454 3494 3495 3455
3455 3495 3496 3456
3456 3496 3497 3457
3457 3497 3498 3458
3458 3498 3499 3459
3459 3499 3500 3460
3460 3500 3501 3461
3461 3501 3502 3462
3462 3502 3503 3463
3463 3503 3504 3464
3464 3504 3505 3465
3465 3505 3506 3466
3466 3506 3507 3467
3467 3507 3508 3468
3468 3508 3509 3469
3469 3509 3510 3470
3470 3510 3511 3471
3471 3511 3512 3472
3472 3512 3513 3473
3473 3513 3514 3474
3474 3514 3515 3475
3475 3515 3516 3476
3476 3516 3517 3477
3477 3517 163 162
86 87 3518 3478
3478 3518 3519 3479
3479 3519 3520 3480
3480 3520 3521 3481
3481 3521 3522 3482
3482 3522 3523 3483
3483 3523 3524 3484
3484 3524 3525 3485
3485 3525 3526 3486
3486 3526 3527 3487
3487 3527 3528 3488
3488 3528 3529 3489
3489 3529 3530 3490
3490 3530 3531 3491
3491 3531 3532 3492
3492 3532 3533 3493
3493 3533 3534 3494
3494 3534 3535 3495
3495 3535 3536 3496
3496 3536 3537 3497
3497 3537 3538 3498
3498 3538 3539 3499
3499 3539 3540 3500
3500 3540 3541 3501
3501 3541 3542 3502
3502 3542 3543 3503
3503 3543 3544 3504
3504 3544 3545 3505
3505 3545 3546 3506
3506 3546 3547 3507
3507 3547 3548 3508
3508 3548 3549 3509
3509 3549 3550 3510
3510 3550 3551 3511
3511 3551 3552 3512
3512 3552 3553 3513
3513 3553 3554 3514
3514 3554 3555 3515
3515 3555 3556 3516
3516 3556 3557 3517
3517 3557 164 163
87 88 3558 3518
3518 3558 3559 3519
3519 3559 3560 3520
3520 3560 3561 3521
3521 3561 3562 3522
3522 3562 3563 3523
3523 3563 3564 3524
3524 3564 3565 3525
3525 3565 3566 3526
3526 3566 3567 3527
3527 3567 3568 3528
3528 3568 3569 3529
3529 3569 3570 3530
3530 3570 3571 3531
3531 3571 3572 3532
3532 3572 3573 3533
3533 3573 3574 3534
3534 3574 3575 3535
3535 3575 3576 3536
3536 3576 3577 3537
3537 3577 3578 3538
3538 3578 3579 3539
3539 3579 3580 3540
3540 3580 3581 3541
3541 3581 3582 3542
3542 3582 3583 3543
3543 3583 3584 3544
3544 3584 3585 3545
3545 3585 3586 3546
3546 3586 3587 3547
3547 3587 3588 3548
3548 3588 3589 3549
3549 3589 3590 3550
3550 3590 3591 3551
3551 3591 3592 3552
3552 3592 3593 3553
3553 3593 3594 3554
3554 3594 3595 3555
3555 3595 3596 3556
3556 3596 3597 3557
3557 3597 165 164
88 2 322 3558
3558 322 321 3559
3559 321 320 3560
3560 320 319 3561
3561 319 318 3562
3562 318 317 3563
3563 317 316 3564
3564 316 315 3565
3565 315 314 3566
3566 314 313 3567
3567 313 312 3568
3568 312 311 3569
3569 311 310 3570
3570 310 309 3571
3571 309 308 3572
3572 308 307 3573
3573 307 306 3574
3574 306 305 3575
3575 305 304 3576
3576 304 303 3577
3577 303 302 3578
3578 302 301 3579
3579 301 300 3580
3580 300 299 3581
3581 299 298 3582
3582 298 297 3583
3583 297 296 3584
3584 296 295 3585
3585 295 294 3586
3586 294 293 3587
3587 293 292 3588
3588 292 291 3589
3589 291 290 3590
3590 290 289 3591
3591 289 288 3592
3592 288 287 3593
3593 287 286 3594
3594 286 285 3595
3595 285 284 3596
3596 284 283 3597
3597 283 6 165
4 108 3598 380
380 3598 3599 379
379 3599 3600 378
378 3600 3601 377
377 3601 3602 376
376 3602 3603 375
375 3603 3604 374
374 3604 3605 373
373 3605 3606 372
372 3606 3607 371
371 3607 3608 370
370 3608 3609 369
369 3609 3610 368
368 3610 3611 367
367 3611 3612 366
366 3612 3613 365
365 3613 3614 364
364 3614 3615 363
363 3615 3616 362
362 3616 323 9
108 109 3617 3598
3598 3617 3618 3599
3599 3618 3619 3600
3600 3619 3620 3601
3601 3620 3621 3602
3602 3621 3622 3603
3603 3622 3623 3604
3604 3623 3624 3605
3605 3624 3625 3606
3606 3625 3626 3607
3607 3626 3627 3608
3608 3627 3628 3609
3609 3628 3629 3610
3610 3629 3630 3611
3611 3630 3631 3612
3612 3631 3632 3613
3613 3632 3633 3614
3614 3633 3634 3615
3615 3634 3635 3616
3616 3635 324 323
109 110 3636 3617
3617 3636 3637 3618
3618 3637 3638 3619
3619 3638 3639 3620
3620 3639 3640 3621
3621 3640 3641 3622
3622 3641 3642 3623
3623 3642 3643 3624
3624 3643 3644 3625
3625 3644 3645 3626
3626 3645 3646 3627
3627 3646 3647 3628
3628 3647 3648 3629
3629 3648 3649 3630
3630 3649 3650 3631
3631 3650 3651 3632
3632 3651 3652 3633
3633 3652 3653 3634
3634 3653 3654 3635
3635 3654 325 324
110 111 3655 3636
3636 3655 3656 3637
3637 3656 3657 3638
3638 3657 3658 3639
3639 3658 3659 3640
3640 3659 3660 3641
3641 3660 3661 3642
3642 3661 3662 3643
3643 3662 3663 3644
3644 3663 3664 3645
3645 3664 3665 3646
3646 3665 3666 3647
3647 3666 3667 3648
3648 3667 3668 3649
3649 3668 3669 3650
3650 3669 3670 3651
3651 3670 3671 3652
3652 3671 3672 3653
3653 3672 3673 3654
3654 3673 326 325
111 112 3674 3655
3655 3674 3675 3656
3656 3675 3676 3657
3657 3676 3677 3658
3658 3677 3678 3659
3659 3678 3679 3660
3660 3679 3680 3661
3661 3680 3681 3662
3662 3681 3682 3663
3663 3682 3683 3664
3664 3683 3684 3665
3665 3684 3685 3666
3666 3685 3686 3667
3667 3686 3687 3668
3668 3687 3688 3669
3669 3688 3689 3670
3670 3689 3690 3671
3671 3690 3691 3672
3672 3691 3692 3673
3673 3692 327 326
112 113 3693 3674
3674 3693 3694 3675
3675 3694 3695 3676
3676 3695 3696 3677
3677 3696 3697 3678
3678 3697 3698 3679
3679 3698 3699 3680
3680 3699 3700 3681
3681 3700 3701 3682
3682 3701 3702 3683
3683 3702 3703 3684
3684 3703 3704 3685
3685 3704 3705 3686
3686 3705 3706 3687
3687 3706 3707 3688
3688 3707 3708 3689
3689 3708 3709 3690
3690 3709 3710 3691
3691 3710 3711 3692
3692 3711 328 327
113 114 3712 3693
3693 3712 3713 3694
3694 3713 3714 3695
3695 3714 3715 3696
3696 3715 3716 3697
3697 3716 3717 3698
3698 3717 3718 3699
3699 3718 3719 3700
3700 3719 3720 3701
3701 3720 3721 3702
3702 3721 3722 3703
3703 3722 3723 3704
3704 3723 3724 3705
3705 3724 3725 3706
3706 3725 3726 3707
3707 3726 3727 3708
3708 3727 3728 3709
3709 3728 3729 3710
3710 3729 3730 3711
3711 3730 329 328
114 115 3731 3712
3712 3731 3732 3713
3713 3732 3733 3714
3714 3733 3734 3715
3715 3734 3735 3716
3716 3735 3736 3717
3717 3736 3737 3718
3718 3737 3738 3719
3719 3738 3739 3720
3720 3739 3740 3721
3721 3740 3741 3722
3722 3741 3742 3723
3723 3742 3743 3724
3724 3743 3744 3725
3725 3744 3745 3726
3726 3745 3746 3727
3727 3746 3747 3728
3728 3747 3748 3729
3729 3748 3749 3730
3730 3749 330 329
115 116 3750 3731
3731 3750 3751 3732
3732 3751 3752 3733
3733 3752 3753 3734
3734 3753 3754 3735
3735 3754 3755 3736
3736 3755 3756 3737
3737 3756 3757 3738
3738 3757 3758 3739
3739 3758 3759 3740
3740 3759 3760 3741
3741 3760 3761 3742
3742 3761 3762 3743
3743 3762 3763 3744
3744 3763 3764 3745
3745 3764 3765 3746
3746 3765 3766 3747
3747 3766 3767 3748
3748 3767 3768 3749
3749 3768 331 330
116 117 3769 3750
3750 3769 3770 3751
3751 3770 3771 3752
3752 3771 3772 3753
3753 3772 3773 3754
3754 3773 3774 3755
3755 3774 3775 3756
3756 3775 3776 3757
3757 3776 3777 3758
3758 3777 3778 3759
3759 3778 3779 3760
3760 3779 3780 3761
3761 3780 3781 3762
3762 3781 3782 3763
3763 3782 3783 3764
3764 3783 3784 3765
3765 3784 3785 3766
3766 3785 3786 3767
3767 3786 3787 3768
3768 3787 332 331
117 118 3788 3769
3769 3788 3789 3770
3770 3789 3790 3771
3771 3790 3791 3772
3772 3791 3792 3773
3773 3792 3793 3774
3774 3793 3794 3775
3775 3794 3795 3776
3776 3795 3796 3777
3777 3796 3797 3778
3778 3797 3798 3779
3779 3798 3799 3780
3780 3799 3800 3781
3781 3800 3801 3782
3782 3801 3802 3783
3783 3802 3803 3784
3784 3803 3804 3785
3785 3804 3805 3786
3786 3805 3806 3787
3787 3806 333 332
118 119 3807 3788
3788 3807 3808 3789
3789 3808 3809 3790
3790 3809 3810 3791
3791 3810 3811 3792
3792 3811 3812 3793
3793 3812 3813 3794
3794 3813 3814 3795
3795 3814 3815 3796
3796 3815 3816 3797
3797 3816 3817 3798
3798 3817 3818 3799
3799 3818 3819 3800
3800 3819 3820 3801
3801 3820 3821 3802
3802 3821 3822 3803
3803 3822 3823 3804
3804 3823 3824 3805
3805 3824 3825 3806
3806 3825 334 333
119 120 3826 3807
3807 3826 3827 3808
3808 3827 3828 3809
3809 3828 3829 3810
3810 3829 3830 3811
3811 3830 3831 3812
3812 3831 3832 3813
3813 3832 3833 3814
3814 3833 3834 3815
3815 3834 3835 3816
3816 3835 3836 3817
3817 3836 3837 3818
3818 3837 3838 3819
3819 3838 3839 3820
3820 3839 3840 3821
3821 3840 3841 3822
3822 3841 3842 3823
3823 3842 3843 3824
3824 3843 3844 3825
3825 3844 335 334
120 121 3845 3826
3826 3845 3846 3827
3827 3846 3847 3828
3828 3847 3848 3829
3829 3848 3849 3830
3830 3849 3850 3831
3831 3850 3851 3832
3832 3851 3852 3833
3833 3852 3853 3834
3834 3853 3854 3835
3835 3854 3855 3836
3836 3855 3856 3837
3837 3856 3857 3838
3838 3857 3858 3839
3839 3858 3859 3840
3840 3859 3860 3841
3841 3860 3861 3842
3842 3861 3862 3843
3843 3862 3863 3844
3844 3863 336 335
121 122 3864 3845
3845 3864 3865 3846
3846 3865 3866 3847
3847 3866 3867 3848
3848 3867 3868 3849
3849 3868 3869 3850
3850 3869 3870 3851
3851 3870 3871 3852
3852 3871 3872 3853
3853 3872 3873 3854
3854 3873 3874 3855
3855 3874 3875 3856
3856 3875 3876 3857
3857 3876 3877 3858
3858 3877 3878 3859
3859 3878 3879 3860
3860 3879 3880 3861
3861 3880 3881 3862
3862 3881 3882 3863
3863 3882 337 336
122 123 3883 3864
3864 3883 3884 3865
3865 3884 3885 3866
3866 3885 3886 3867
3867 3886 3887 3868
3868 3887 3888 3869
3869 3888 3889 3870
3870 3889 3890 3871
3871 3890 3891 3872
3872 3891 3892 3873
3873 3892 3893 3874
3874 3893 3894 3875
3875 3894 3895 3876
3876 3895 3896 3877
3877 3896 3897 3878
3878 3897 3898 3879
3879 3898 3899 3880
3880 3899 3900 3881
3881 3900 3901 3882
3882 3901 338 337
123 124 3902 3883
3883 3902 3903 3884
3884 3903 3904 3885
3885 3904 3905 3886
3886 3905 3906 3887
3887 3906 3907 3888
3888 3907 3908 3889
3889 3908 3909 3890
3890 3909 3910 3891
3891 3910 3911 3892
3892 3911 3912 3893
3893 3912 3913 3894
3894 3913 3914 3895
3895 3914 3915 3896
3896 3915 3916 3897
3897 3916 3917 3898
3898 3917 3918 3899
3899 3918 3919 3900
3900 3919 3920 3901
3901 3920 339 338
124 125 3921 3902
3902 3921 3922 3903
3903 3922 3923 3904
3904 3923 3924 3905
3905 3924 3925 3906
3906 3925 3926 3907
3907 3926 3927 3908
3908 3927 3928 3909
3909 3928 3929 3910
3910 3929 3930 3911
3911 3930 3931 3912
3912 3931 3932 3913
3913 3932 3933 3914
3914 3933 3934 3915
3915 3934 3935 3916
3916 3935 3936 3917
3917 3936 3937 3918
3918 3937 3938 3919
3919 3938 3939 3920
3920 3939 340 339
125 126 3940 3921
3921 3940 3941 3922
3922 3941 3942 3923
3923 3942 3943 3924
3924 3943 3944 3925
3925 3944 3945 3926
3926 3945 3946 3927
3927 3946 3947 3928
3928 3947 3948 3929
3929 3948 3949 3930
3930 3949 3950 3931
3931 3950 3951 3932
3932 3951 3952 3933
3933 3952 3953 3934
3934 3953 3954 3935
3935 3954 3955 3936
3936 3955 3956 3937
3937 3956 3957 3938
3938 3957 3958 3939
3939 3958 341 340
126 127 3959 3940
3940 3959 3960 3941
3941 3960 3961 3942
3942 3961 3962 3943
3943 3962 3963 3944
3944 3963 3964 3945
3945 3964 3965 3946
3946 3965 3966 3947
3947 3966 3967 3948
3948 3967 3968 3949
3949 3968 3969 3950
3950 3969 3970 3951
3951 3970 3971 3952
3952 3971 3972 3953
3953 3972 3973 3954
3954 3973 3974 3955
3955 3974 3975 3956
3956 3975 3976 3957
3957 3976 3977 3958
3958 3977 342 341
127 128 3978 3959
3959 3978 3979 3960
3960 3979 3980 3961
3961 3980 3981 3962
3962 3981 3982 3963
3963 3982 3983 3964
3964 3983 3984 3965
3965 3984 3985 3966
3966 3985 3986 3967
3967 3986 3987 3968
3968 3987 3988 3969
3969 3988 3989 3970
3970 3989 3990 3971
3971 3990 3991 3972
3972 3991 3992 3973
3973 3992 3993 3974
3974 3993 3994 3975
3975 3994 3995 3976
3976 3995 3996 3977
3977 3996 343 342
128 129 3997 3978
3978 3997 3998 3979
3979 3998 3999 3980
3980 3999 4000 3981
3981 4000 4001 3982
3982 4001 4002 3983
3983 4002 4003 3984
3984 4003 4004 3985
3985 4004 4005 3986
3986 4005 4006 3987
3987 4006 4007 3988
3988 4007 4008 3989
3989 4008 4009 3990
3990 4009 4010 3991
3991 4010 4011 3992
3992 4011 4012 3993
3993 4012 4013 3994
3994 4013 4014 3995
3995 4014 4015 3996
3996 4015 344 343
129 130 4016 3997
3997 4016 4017 3998
3998 4017 4018 3999
3999 4018 4019 4000
4000 4019 4020 4001
4001 4020 4021 4002
4002 4021 4022 4003
4003 4022 4023 4004
4004 4023 4024 4005
4005 4024 4025 4006
4006 4025 4026 4007
4007 4026 4027 4008
4008 4027 4028 4009
4009 4028 4029 4010
4010 4029 4030 4011
4011 4030 4031 4012
4012 4031 4032 4013
4013 4032 4033 4014
4014 4033 4034 4015
4015 4034 345 344
130 131 4035 4016
4016 4035 4036 4017
4017 4036 4037 4018
4018 4037 4038 4019
4019 4038 4039 4020
4020 4039 4040 4021
4021 4040 4041 4022
4022 4041 4042 4023
4023 4042 4043 4024
4024 4043 4044 4025
4025 4044 4045 4026
4026 4045 4046 4027
4027 4046 4047 4028
4028 4047 4048 4029
4029 4048 4049 4030
4030 4049 4050 4031
4031 4050 4051 4032
4032 4051 4052 4033
4033 4052 4053 4034
4034 4053 346 345
131 132 4054 4035
4035 4054 4055 4036
4036 4055 4056 4037
4037 4056 4057 4038
4038 4057 4058 4039
4039 4058 4059 4040
4040 4059 4060 4041
4041 4060 4061 4042
4042 4061 4062 4043
4043 4062 4063 4044
4044 4063 4064 4045
4045 4064 4065 4046
4046 4065 4066 4047
4047 4066 4067 4048
4048 4067 4068 4049
4049 4068 4069 4050
4050 4069 4070 4051
4051 4070 4071 4052
4052 4071 4072 4053
4053 4072 347 346
132 133 4073 4054
4054 4073 4074 4055
4055 4074 4075 4056
4056 4075 4076 4057
4057 4076 4077 4058
4058 4077 4078 4059
4059 4078 4079 4060
4060 4079 4080 4061
4061 4080 4081 4062
4062 4081 4082 4063
4063 4082 4083 4064
4064 4083 4084 4065
4065 4084 4085 4066
4066 4085 4086 4067
4067 4086 4087 4068
4068 4087 4088 4069
4069 4088 4089 4070
4070 4089 4090 4071
4071 4090 4091 4072
4072 4091 348 347
133 134 4092 4073
4073 4092 4093 4074
4074 4093 4094 4075
4075 4094 4095 4076
4076 4095 4096 4077
4077 4096 4097 4078
4078 4097 4098 4079
4079 4098 4099 4080
4080 4099 4100 4081
4081 4100 4101 4082
4082 4101 4102 4083
4083 4102 4103 4084
4084 4103 4104 4085
4085 4104 4105 4086
4086 4105 4106 4087
4087 4106 4107 4088
4088 4107 4108 4089
4089 4108 4109 4090
4090 4109 4110 4091
4091 4110 349 348
134 135 4111 4092
4092 4111 4112 4093
4093 4112 4113 4094
4094 4113 4114 4095
4095 4114 4115 4096
4096 4115 4116 4097
4097 4116 4117 4098
4098 4117 4118 4099
4099 4118 4119 4100
4100 4119 4120 4101
4101 4120 4121 4102
4102 4121 4122 4103
4103 4122 4123 4104
4104 4123 4124 4105
4105 4124 4125 4106
4106 4125 4126 4107
4107 4126 4127 4108
4108 4127 4128 4109
4109 4128 4129 4110
4110 4129 350 349
135 136 4130 4111
4111 4130 4131 4112
4112 4131 4132 4113
4113 4132 4133 4114
4114 4133 4134 4115
4115 4134 4135 4116
4116 4135 4136 4117
4117 4136 4137 4118
4118 4137 4138 4119
4119 4138 4139 4120
4120 4139 4140 4121
4121 4140 4141 4122
4122 4141 4142 4123
4123 4142 4143 4124
4124 4143 4144 4125
4125 4144 4145 4126
4126 4145 4146 4127
4127 4146 4147 4128
4128 4147 4148 4129
4129 4148 351 350
136 137 4149 4130
4130 4149 4150 4131
4131 4150 4151 4132
4132 4151 4152 4133
4133 4152 4153 4134
4134 4153 4154 4135
4135 4154 4155 4136
4136 4155 4156 4137
4137 4156 4157 4138
4138 4157 4158 4139
4139 4158 4159 4140
4140 4159 4160 4141
4141 4160 4161 4142
4142 4161 4162 4143
4143 4162 4163 4144
4144 4163 4164 4145
4145 4164 4165 4146
4146 4165 4166 4147
4147 4166 4167 4148
4148 4167 352 351
137 138 4168 4149
4149 4168 4169 4150
4150 4169 4170 4151
4151 4170 4171 4152
4152 4171 4172 4153
4153 4172 4173 4154
4154 4173 4174 4155
4155 4174 4175 4156
4156 4175 4176 4157
4157 4176 4177 4158
4158 4177 4178 4159
4159 4178 4179 4160
4160 4179 4180 4161
4161 4180 4181 4162
4162 4181 4182 4163
4163 4182 4183 4164
4164 4183 4184 4165
4165 4184 4185 4166
4166 4185 4186 4167
4167 4186 353 352
138 139 4187 4168
4168 4187 4188 4169
4169 4188 4189 4170
4170 4189 4190 4171
4171 4190 4191 4172
4172 4191 4192 4173
4173 4192 4193 4174
4174 4193 4194 4175
4175 4194 4195 4176
4176 4195 4196 4177
4177 4196 4197 4178
4178 4197 4198 4179
4179 4198 4199 4180
4180 4199 4200 4181
4181 4200 4201 4182
4182 4201 4202 4183
4183 4202 4203 4184
4184 4203 4204 4185
4185 4204 4205 4186
4186 4205 354 353
139 140 4206 4187
4187 4206 4207 4188
4188 4207 4208 4189
4189 4208 4209 4190
4190 4209 4210 4191
4191 4210 4211 4192
4192 4211 4212 4193
4193 4212 4213 4194
4194 4213 4214 4195
4195 4214 4215 4196
4196 4215 4216 4197
4197 4216 4217 4198
4198 4217 4218 4199
4199 4218 4219 4200
4200 4219 4220 4201
4201 4220 4221 4202
4202 4221 4222 4203
4203 4222 4223 4204
4204 4223 4224 4205
4205 4224 355 354
140 141 4225 4206
4206 4225 4226 4207
4207 4226 4227 4208
4208 4227 4228 4209
4209 4228 4229 4210
4210 4229 4230 4211
4211 4230 4231 4212
4212 4231 4232 4213
4213 4232 4233 4214
4214 4233 4234 4215
4215 4234 4235 4216
4216 4235 4236 4217
4217 4236 4237 4218
4218 4237 4238 4219
4219 4238 4239 4220
4220 4239 4240 4221
4221 4240 4241 4222
4222 4241 4242 4223
4223 4242 4243 4224
4224 4243 356 355
141 142 4244 4225
4225 4244 4245 4226
4226 4245 4246 4227
4227 4246 4247 4228
4228 4247 4248 4229
4229 4248 4249 4230
4230 4249 4250 4231
4231 4250 4251 4232
4232 4251 4252 4233
4233 4252 4253 4234
4234 4253 4254 4235
4235 4254 4255 4236
4236 4255 4256 4237
4237 4256 4257 4238
4238 4257 4258 4239
4239 4258 4259 4240
4240 4259 4260 4241
4241 4260 4261 4242
4242 4261 4262 4243
4243 4262 357 356
142 143 4263 4244
4244 4263 4264 4245
4245 4264 4265 4246
4246 4265 4266 4247
4247 4266 4267 4248
4248 4267 4268 4249
4249 4268 4269 4250
4250 4269 4270 4251
4251 4270 4271 4252
4252 4271 4272 4253
4253 4272 4273 4254
4254 4273 4274 4255
4255 4274 4275 4256
4256 4275 4276 4257
4257 4276 4277 4258
4258 4277 4278 4259
4259 4278 4279 4260
4260 4279 4280 4261
4261 4280 4281 4262
4262 4281 358 357
143 144 4282 4263
4263 4282 4283 4264
4264 4283 4284 4265
4265 4284 4285 4266
4266 4285 4286 4267
4267 4286 4287 4268
4268 4287 4288 4269
4269 4288 4289 4270
4270 4289 4290 4271
4271 4290 4291 4272
4272 4291 4292 4273
4273 4292 4293 4274
4274 4293 4294 4275
4275 4294 4295 4276
4276 4295 4296 4277
4277 4296 4297 4278
4278 4297 4298 4279
4279 4298 4299 4280
4280 4299 4300 4281
4281 4300 359 358
144 145 4301 4282
4282 4301 4302 4283
4283 4302 4303 4284
4284 4303 4304 4285
4285 4304 4305 4286
4286 4305 4306 4287
4287 4306 4307 4288
4288 4307 4308 4289
4289 4308 4309 4290
4290 4309 4310 4291
4291 4310 4311 4292
4292 4311 4312 4293
4293 4312 4313 4294
4294 4313 4314 4295
4295 4314 4315 4296
4296 4315 4316 4297
4297 4316 4317 4298
4298 4317 4318 4299
4299 4318 4319 4300
4300 4319 360 359
145 146 4320 4301
4301 4320 4321 4302
4302 4321 4322 4303
4303 4322 4323 4304
4304 4323 4324 4305
4305 4324 4325 4306
4306 4325 4326 4307
4307 4326 4327 4308
4308 4327 4328 4309
4309 4328 4329 4310
4310 4329 4330 4311
4311 4330 4331 4312
4312 4331 4332 4313
4313 4332 4333 4314
4314 4333 4334 4315
4315 4334 4335 4316
4316 4335 4336 4317
4317 4336 4337 4318
4318 4337 4338 4319
4319 4338 361 360
146 5 399 4320
4320 399 398 4321
4321 398 397 4322
4322 397 396 4323
4323 396 395 4324
4324 395 394 4325
4325 394 393 4326
4326 393 392 4327
4327 392 391 4328
4328 391 390 4329
4329 390 389 4330
4330 389 388 4331
4331 388 387 4332
4332 387 386 4333
4333 386 385 4334
4334 385 384 4335
4335 384 383 4336
4336 383 382 4337
4337 382 381 4338
4338 381 10 361
3 89 4339 166
166 4339 4340 167
167 4340 4341 168
168 4341 4342 169
169 4342 4343 170
170 4343 4344 171
171 4344 4345 172
172 4345 4346 173
173 4346 4347 174
174 4347 4348 175
175 4348 4349 176
176 4349 4350 177
177 4350 4351 178
178 4351 4352 179
179 4352 4353 180
180 4353 4354 181
181 4354 4355 182
182 4355 4356 183
183 4356 4357 184
184 4357 418 7
89 90 4358 4339
4339 4358 4359 4340
4340 4359 4360 4341
4341 4360 4361 4342
4342 4361 4362 4343
4343 4362 4363 4344
4344 4363 4364 4345
4345 4364 4365 4346
4346 4365 4366 4347
4347 4366 4367 4348
4348 4367 4368 4349
4349 4368 4369 4350
4350 4369 4370 4351
4351 4370 4371 4352
4352 4371 4372 4353
4353 4372 4373 4354
4354 4373 4374 4355
4355 4374 4375 4356
4356 4375 4376 4357
4357 4376 417 418
90 91 4377 4358
4358 4377 4378 4359
4359 4378 4379 4360
4360 4379 4380 4361
4361 4380 4381 4362
4362 4381 4382 4363
4363 4382 4383 4364
4364 4383 4384 4365
4365 4384 4385 4366
4366 4385 4386 4367
4367 4386 4387 4368
4368 4387 4388 4369
4369 4388 4389 4370
4370 4389 4390 4371
4371 4390 4391 4372
4372 4391 4392 4373
4373 4392 4393 4374
4374 4393 4394 4375
4375 4394 4395 4376
4376 4395 416 417
91 92 4396 4377
4377 4396 4397 4378
4378 4397 4398 4379
4379 4398 4399 4380
4380 4399 4400 4381
4381 4400 4401 4382
4382 4401 4402 4383
4383 4402 4403 4384
4384 4403 4404 4385
4385 4404 4405 4386
4386 4405 4406 4387
4387 4406 4407 4388
4388 4407 4408 4389
4389 4408 4409 4390
4390 4409 4410 4391
4391 4410 4411 4392
4392 4411 4412 4393
4393 4412 4413 4394
4394 4413 4414 4395
4395 4414 415 416
92 93 4415 4396
4396 4415 4416 4397
4397 4416 4417 4398
4398 4417 4418 4399
4399 4418 4419 4400
4400 4419 4420 4401
4401 4420 4421 4402
4402 4421 4422 4403
4403 4422 4423 4404
4404 4423 4424 4405
4405 4424 4425 4406
4406 4425 4426 4407
4407 4426 4427 4408
4408 4427 4428 4409
4409 4428 4429 4410
4410 4429 4430 4411
4411 4430 4431 4412
4412 4431 4432 4413
4413 4432 4433 4414
4414 4433 414 415
93 94 4434 4415
4415 4434 4435 4416
4416 4435 4436 4417
4417 4436 4437 4418
4418 4437 4438 4419
4419 4438 4439 4420
4420 4439 4440 4421
4421 4440 4441 4422
4422 4441 4442 4423
4423 4442 4443 4424
4424 4443 4444 4425
4425 4444 4445 4426
4426 4445 4446 4427
4427 4446 4447 4428
4428 4447 4448 4429
4429 4448 4449 4430
4430 4449 4450 4431
4431 4450 4451 4432
4432 4451 4452 4433
4433 4452 413 414
94 95 4453 4434
4434 4453 4454 4435
4435 4454 4455 4436
4436 4455 4456 4437
4437 4456 4457 4438
4438 4457 4458 4439
4439 4458 4459 4440
4440 4459 4460 4441
4441 4460 4461 4442
4442 4461 4462 4443
4443 4462 4463 4444
4444 4463 4464 4445
4445 4464 4465 4446
4446 4465 4466 4447
4447 4466 4467 4448
4448 4467 4468 4449
4449 4468 4469 4450
4450 4469 4470 4451
4451 4470 4471 4452
4452 4471 412 413
95 96 4472 4453
4453 4472 4473 4454
4454 4473 4474 4455
4455 4474 4475 4456
4456 4475 4476 4457
4457 4476 4477 4458
4458 4477 4478 4459
4459 4478 4479 4460
4460 4479 4480 4461
4461 4480 4481 4462
4462 4481 4482 4463
4463 4482 4483 4464
4464 4483 4484 4465
4465 4484 4485 4466
4466 4485 4486 4467
4467 4486 4487 4468
4468 4487 4488 4469
4469 4488 4489 4470
4470 4489 4490 4471
4471 4490 411 412
96 97 4491 4472
4472 4491 4492 4473
4473 4492 4493 4474
4474 4493 4494 4475
4475 4494 4495 4476
4476 4495 4496 4477
4477 4496 4497 4478
4478 4497 4498 4479
4479 4498 4499 4480
4480 4499 4500 4481
4481 4500 4501 4482
4482 4501 4502 4483
4483 4502 4503 4484
4484 4503 4504 4485
4485 4504 4505 4486
4486 4505 4506 4487
4487 4506 4507 4488
4488 4507 4508 4489
4489 4508 4509 4490
4490 4509 410 411
97 98 4510 4491
4491 4510 4511 4492
4492 4511 4512 4493
4493 4512 4513 4494
4494 4513 4514 4495
4495 4514 4515 4496
4496 4515 4516 4497
4497 4516 4517 4498
4498 4517 4518 4499
4499 4518 4519 4500
4500 4519 4520 4501
4501 4520 4521 4502
4502 4521 4522 4503
4503 4522 4523 4504
4504 4523 4524 4505
4505 4524 4525 4506
4506 4525 4526 4507
4507 4526 4527 4508
4508 4527 4528 4509
4509 4528 409 410
98 99 4529 4510
4510 4529 4530 4511
4511 4530 4531 4512
4512 4531 4532 4513
4513 4532 4533 4514
4514 4533 4534 4515
4515 4534 4535 4516
4516 4535 4536 4517
4517 4536 4537 4518
4518 4537 4538 4519
4519 4538 4539 4520
4520 4539 4540 4521
4521 4540 4541 4522
4522 4541 4542 4523
4523 4542 4543 4524
4524 4543 4544 4525
4525 4544 4545 4526
4526 4545 4546 4527
4527 4546 4547 4528
4528 4547 408 409
99 100 4548 4529
4529 4548 4549 4530
4530 4549 4550 4531
4531 4550 4551 4532
4532 4551 4552 4533
4533 4552 4553 4534
4534 4553 4554 4535
4535 4554 4555 4536
4536 4555 4556 4537
4537 4556 4557 4538
4538 4557 4558 4539
4539 4558 4559 4540
4540 4559 4560 4541
4541 4560 4561 4542
4542 4561 4562 4543
4543 4562 4563 4544
4544 4563 4564 4545
4545 4564 4565 4546
4546 4565 4566 4547
4547 4566 407 408
100 101 4567 4548
4548 4567 4568 4549
4549 4568 4569 4550
4550 4569 4570 4551
4551 4570 4571 4552
4552 4571 4572 4553
4553 4572 4573 4554
4554 4573 4574 4555
4555 4574 4575 4556
4556 4575 4576 4557
4557 4576 4577 4558
4558 4577 4578 4559
4559 4578 4579 4560
4560 4579 4580 4561
4561 4580 4581 4562
4562 4581 4582 4563
4563 4582 4583 4564
4564 4583 4584 4565
4565 4584 4585 4566
4566 4585 406 407
101 102 4586 4567
4567 4586 4587 4568
4568 4587 4588 4569
4569 4588 4589 4570
4570 4589 4590 4571
4571 4590 4591 4572
4572 4591 4592 4573
4573 4592 4593 4574
4574 4593 4594 4575
4575 4594 4595 4576
4576 4595 4596 4577
4577 4596 4597 4578
4578 4597 4598 4579
4579 4598 4599 4580
4580 4599 4600 4581
4581 4600 4601 4582
4582 4601 4602 4583
4583 4602 4603 4584
4584 4603 4604 4585
4585 4604 405 406
102 103 4605 4586
4586 4605 4606 4587
4587 4606 4607 4588
4588 4607 4608 4589
4589 4608 4609 4590
4590 4609 4610 4591
4591 4610 4611 4592
4592 4611 4612 4593
4593 4612 4613 4594
4594 4613 4614 4595
4595 4614 4615 4596
4596 4615 4616 4597
4597 4616 4617 4598
4598 4617 4618 4599
4599 4618 4619 4600
4600 4619 4620 4601
4601 4620 4621 4602
4602 4621 4622 4603
4603 4622 4623 4604
4604 4623 404 405
103 104 4624 4605
4605 4624 4625 4606
4606 4625 4626 4607
4607 4626 4627 4608
4608 4627 4628 4609
4609 4628 4629 4610
4610 4629 4630 4611
4611 4630 4631 4612
4612 4631 4632 4613
4613 4632 4633 4614
4614 4633 4634 4615
4615 4634 4635 4616
4616 4635 4636 4617
4617 4636 4637 4618
4618 4637 4638 4619
4619 4638 4639 4620
4620 4639 4640 4621
4621 4640 4641 4622
4622 4641 4642 4623
4623 4642 403 404
104 105 4643 4624
4624 4643 4644 4625
4625 4644 4645 4626
4626 4645 4646 4627
4627 4646 4647 4628
4628 4647 4648 4629
4629 4648 4649 4630
4630 4649 4650 4631
4631 4650 4651 4632
4632 4651 4652 4633
4633 4652 4653 4634
4634 4653 4654 4635
4635 4654 4655 4636
4636 4655 4656 4637
4637 4656 4657 4638
4638 4657 4658 4639
4639 4658 4659 4640
4640 4659 4660 4641
4641 4660 4661 4642
4642 4661 402 403
105 106 4662 4643
4643 4662 4663 4644
4644 4663 4664 4645
4645 4664 4665 4646
4646 4665 4666 4647
4647 4666 4667 4648
4648 4667 4668 4649
4649 4668 4669 4650
4650 4669 4670 4651
4651 4670 4671 4652
4652 4671 4672 4653
4653 4672 4673 4654
4654 4673 4674 4655
4655 4674 4675 4656
4656 4675 4676 4657
4657 4676 4677 4658
4658 4677 4678 4659
4659 4678 4679 4660
4660 4679 4680 4661
4661 4680 401 402
106 107 4681 4662
4662 4681 4682 4663
4663 4682 4683 4664
4664 4683 4684 4665
4665 4684 4685 4666
4666 4685 4686 4667
4667 4686 4687 4668
4668 4687 4688 4669
4669 4688 4689 4670
4670 4689 4690 4671
4671 4690 4691 4672
4672 4691 4692 4673
4673 4692 4693 4674
4674 4693 4694 4675
4675 4694 4695 4676
4676 4695 4696 4677
4677 4696 4697 4678
4678 4697 4698 4679
4679 4698 4699 4680
4680 4699 400 401
107 4 380 4681
4681 380 379 4682
4682 379 378 4683
4683 378 377 4684
4684 377 376 4685
4685 376 375 4686
4686 375 374 4687
4687 374 373 4688
4688 373 372 4689
4689 372 371 4690
4690 371 370 4691
4691 370 369 4692
4692 369 368 4693
4693 368 367 4694
4694 367 366 4695
4695 366 365 4696
4696 365 364 4697
4697 364 363 4698
4698 363 362 4699
4699 362 9 400
5 147 4700 399
399 4700 4701 398
398 4701 4702 397
397 4702 4703 396
396 4703 4704 395
395 4704 4705 394
394 4705 4706 393
393 4706 4707 392
392 4707 4708 391
391 4708 4709 390
390 4709 4710 389
389 4710 4711 388
388 4711 4712 387
387 4712 4713 386
386 4713 4714 385
385 4714 4715 384
384 4715 4716 383
383 4716 4717 382
382 4717 4718 381
381 4718 419 10
147 148 4719 4700
4700 4719 4720 4701
4701 4720 4721 4702
4702 4721 4722 4703
4703 4722 4723 4704
4704 4723 4724 4705
4705 4724 4725 4706
4706 4725 4726 4707
4707 4726 4727 4708
4708 4727 4728 4709
4709 4728 4729 4710
4710 4729 4730 4711
4711 4730 4731 4712
4712 4731 4732 4713
4713 4732 4733 4714
4714 4733 4734 4715
4715 4734 4735 4716
4716 4735 4736 4717
4717 4736 4737 4718
4718 4737 420 419
148 149 4738 4719
4719 4738 4739 4720
4720 4739 4740 4721
4721 4740 4741 4722
4722 4741 4742 4723
4723 4742 4743 4724
4724 4743 4744 4725
4725 4744 4745 4726
4726 4745 4746 4727
4727 4746 4747 4728
4728 4747 4748 4729
4729 4748 4749 4730
4730 4749 4750 4731
4731 4750 4751 4732
4732 4751 4752 4733
4733 4752 4753 4734
4734 4753 4754 4735
4735 4754 4755 4736
4736 4755 4756 4737
4737 4756 421 420
149 150 4757 4738
4738 4757 4758 4739
4739 4758 4759 4740
4740 4759 4760 4741
4741 4760 4761 4742
4742 4761 4762 4743
4743 4762 4763 4744
4744 4763 4764 4745
4745 4764 4765 4746
4746 4765 4766 4747
4747 4766 4767 4748
4748 4767 4768 4749
4749 4768 4769 4750
4750 4769 4770 4751
4751 4770 4771 4752
4752 4771 4772 4753
4753 4772 4773 4754
4754 4773 4774 4755
4755 4774 4775 4756
4756 4775 422 421
150 151 4776 4757
4757 4776 4777 4758
4758 4777 4778 4759
4759 4778 4779 4760
4760 4779 4780 4761
4761 4780 4781 4762
4762 4781 4782 4763
4763 4782 4783 4764
4764 4783 4784 4765
4765 4784 4785 4766
4766 4785 4786 4767
4767 4786 4787 4768
4768 4787 4788 4769
4769 4788 4789 4770
4770 4789 4790 4771
4771 4790 4791 4772
4772 4791 4792 4773
4773 4792 4793 4774
4774 4793 4794 4775
4775 4794 423 422
151 152 4795 4776
4776 4795 4796 4777
4777 4796 4797 4778
4778 4797 4798 4779
4779 4798 4799 4780
4780 4799 4800 4781
4781 4800 4801 4782
4782 4801 4802 4783
4783 4802 4803 4784
4784 4803 4804 4785
4785 4804 4805 4786
4786 4805 4806 4787
4787 4806 4807 4788
4788 4807 4808 4789
4789 4808 4809 4790
4790 4809 4810 4791
4791 4810 4811 4792
4792 4811 4812 4793
4793 4812 4813 4794
4794 4813 424 423
152 153 4814 4795
4795 4814 4815 4796
4796 4815 4816 4797
4797 4816 4817 4798
4798 4817 4818 4799
4799 4818 4819 4800
4800 4819 4820 4801
4801 4820 4821 4802
4802 4821 4822 4803
4803 4822 4823 4804
4804 4823 4824 4805
4805 4824 4825 4806
4806 4825 4826 4807
4807 4826 4827 4808
4808 4827 4828 4809
4809 4828 4829 4810
4810 4829 4830 4811
4811 4830 4831 4812
4812 4831 4832 4813
4813 4832 425 424
153 154 4833 4814
4814 4833 4834 4815
4815 4834 4835 4816
4816 4835 4836 4817
4817 4836 4837 4818
4818 4837 4838 4819
4819 4838 4839 4820
4820 4839 4840 4821
4821 4840 4841 4822
4822 4841 4842 4823
4823 4842 4843 4824
4824 4843 4844 4825
4825 4844 4845 4826
4826 4845 4846 4827
4827 4846 4847 4828
4828 4847 4848 4829
4829 4848 4849 4830
4830 4849 4850 4831
4831 4850 4851 4832
4832 4851 426 425
154 155 4852 4833
4833 4852 4853 4834
4834 4853 4854 4835
4835 4854 4855 4836
4836 4855 4856 4837
4837 4856 4857 4838
4838 4857 4858 4839
4839 4858 4859 4840
4840 4859 4860 4841
4841 4860 4861 4842
4842 4861 4862 4843
4843 4862 4863 4844
4844 4863 4864 4845
4845 4864 4865 4846
4846 4865 4866 4847
4847 4866 4867 4848
4848 4867 4868 4849
4849 4868 4869 4850
4850 4869 4870 4851
4851 4870 427 426
155 156 4871 4852
4852 4871 4872 4853
4853 4872 4873 4854
4854 4873 4874 4855
4855 4874 4875 4856
4856 4875 4876 4857
4857 4876 4877 4858
4858 4877 4878 4859
4859 4878 4879 4860
4860 4879 4880 4861
4861 4880 4881 4862
4862 4881 4882 4863
4863 4882 4883 4864
4864 4883 4884 4865
4865 4884 4885 4866
4866 4885 4886 4867
4867 4886 4887 4868
4868 4887 4888 4869
4869 4888 4889 4870
4870 4889 428 427
156 157 4890 4871
4871 4890 4891 4872
4872 4891 4892 4873
4873 4892 4893 4874
4874 4893 4894 4875
4875 4894 4895 4876
4876 4895 4896 4877
4877 4896 4897 4878
4878 4897 4898 4879
4879 4898 4899 4880
4880 4899 4900 4881
4881 4900 4901 4882
4882 4901 4902 4883
4883 4902 4903 4884
4884 4903 4904 4885
4885 4904 4905 4886
4886 4905 4906 4887
4887 4906 4907 4888
4888 4907 4908 4889
4889 4908 429 428
157 158 4909 4890
4890 4909 4910 4891
4891 4910 4911 4892
4892 4911 4912 4893
4893 4912 4913 4894
4894 4913 4914 4895
4895 4914 4915 4896
4896 4915 4916 4897
4897 4916 4917 4898
4898 4917 4918 4899
4899 4918 4919 4900
4900 4919 4920 4901
4901 4920 4921 4902
4902 4921 4922 4903
4903 4922 4923 4904
4904 4923 4924 4905
4905 4924 4925 4906
4906 4925 4926 4907
4907 4926 4927 4908
4908 4927 430 429
158 159 4928 4909
4909 4928 4929 4910
4910 4929 4930 4911
4911 4930 4931 4912
4912 4931 4932 4913
4913 4932 4933 4914
4914 4933 4934 4915
4915 4934 4935 4916
4916 4935 4936 4917
4917 4936 4937 4918
4918 4937 4938 4919
4919 4938 4939 4920
4920 4939 4940 4921
4921 4940 4941 4922
4922 4941 4942 4923
4923 4942 4943 4924
4924 4943 4944 4925
4925 4944 4945 4926
4926 4945 4946 4927
4927 4946 431 430
159 160 4947 4928
4928 4947 4948 4929
4929 4948 4949 4930
4930 4949 4950 4931
4931 4950 4951 4932
4932 4951 4952 4933
4933 4952 4953 4934
4934 4953 4954 4935
4935 4954 4955 4936
4936 4955 4956 4937
4937 4956 4957 4938
4938 4957 4958 4939
4939 4958 4959 4940
4940 4959 4960 4941
4941 4960 4961 4942
4942 4961 4962 4943
4943 4962 4963 4944
4944 4963 4964 4945
4945 4964 4965 4946
4946 4965 432 431
160 161 4966 4947
4947 4966 4967 4948
4948 4967 4968 4949
4949 4968 4969 4950
4950 4969 4970 4951
4951 4970 4971 4952
4952 4971 4972 4953
4953 4972 4973 4954
4954 4973 4974 4955
4955 4974 4975 4956
4956 4975 4976 4957
4957 4976 4977 4958
4958 4977 4978 4959
4959 4978 4979 4960
4960 4979 4980 4961
4961 4980 4981 4962
4962 4981 4982 4963
4963 4982 4983 4964
4964 4983 4984 4965
4965 4984 433 432
161 162 4985 4966
4966 4985 4986 4967
4967 4986 4987 4968
4968 4987 4988 4969
4969 4988 4989 4970
4970 4989 4990 4971
4971 4990 4991 4972
4972 4991 4992 4973
4973 4992 4993 4974
4974 4993 4994 4975
4975 4994 4995 4976
4976 4995 4996 4977
4977 4996 4997 4978
4978 4997 4998 4979
4979 4998 4999 4980
4980 4999 5000 4981
4981 5000 5001 4982
4982 5001 5002 4983
4983 5002 5003 4984
4984 5003 434 433
162 163 5004 4985
4985 5004 5005 4986
4986 5005 5006 4987
4987 5006 5007 4988
4988 5007 5008 4989
4989 5008 5009 4990
4990 5009 5010 4991
4991 5010 5011 4992
4992 5011 5012 4993
4993 5012 5013 4994
4994 5013 5014 4995
4995 5014 5015 4996
4996 5015 5016 4997
4997 5016 5017 4998
4998 5017 5018 4999
4999 5018 5019 5000
5000 5019 5020 5001
5001 5020 5021 5002
5002 5021 5022 5003
5003 5022 435 434
163 164 5023 5004
5004 5023 5024 5005
5005 5024 5025 5006
5006 5025 5026 5007
5007 5026 5027 5008
5008 5027 5028 5009
5009 5028 5029 5010
5010 5029 5030 5011
5011 5030 5031 5012
5012 5031 5032 5013
5013 5032 5033 5014
5014 5033 5034 5015
5015 5034 5035 5016
5016 5035 5036 5017
5017 5036 5037 5018
5018 5037 5038 5019
5019 5038 5039 5020
5020 5039 5040 5021
5021 5040 5041 5022
5022 5041 436 435
164 165 5042 5023
5023 5042 5043 5024
5024 5043 5044 5025
5025 5044 5045 5026
5026 5045 5046 5027
5027 5046 5047 5028
5028 5047 5048 5029
5029 5048 5049 5030
5030 5049 5050 5031
5031 5050 5051 5032
5032 5051 5052 5033
5033 5052 5053 5034
5034 5053 5054 5035
5035 5054 5055 5036
5036 5055 5056 5037
5037 5056 5057 5038
5038 5057 5058 5039
5039 5058 5059 5040
5040 5059 5060 5041
5041 5060 437 436
165 6 242 5042
5042 242 241 5043
5043 241 240 5044
5044 240 239 5045
5045 239 238 5046
5046 238 237 5047
5047 237 236 5048
5048 236 235 5049
5049 235 234 5050
5050 234 233 5051
5051 233 232 5052
5052 232 231 5053
5053 231 230 5054
5054 230 229 5055
5055 229 228 5056
5056 228 227 5057
5057 227 226 5058
5058 226 225 5059
5059 225 224 5060
5060 224 8 437
9 323 5061 400
400 5061 5062 401
401 5062 5063 402
402 5063 5064 403
403 5064 5065 404
404 5065 5066 405
405 5066 5067 406
406 5067 5068 407
407 5068 5069 408
408 5069 5070 409
409 5070 5071 410
410 5071 5072 411
411 5072 5073 412
412 5073 5074 413
413 5074 5075 414
414 5075 5076 415
415 5076 5077 416
416 5077 5078 417
417 5078 5079 418
418 5079 185 7
323 324 5080 5061
5061 5080 5081 5062
5062 5081 5082 5063
5063 5082 5083 5064
5064 5083 5084 5065
5065 5084 5085 5066
5066 5085 5086 5067
5067 5086 5087 5068
5068 5087 5088 5069
5069 5088 5089 5070
5070 5089 5090 5071
5071 5090 5091 5072
5072 5091 5092 5073
5073 5092 5093 5074
5074 5093 5094 5075
5075 5094 5095 5076
5076 5095 5096 5077
5077 5096 5097 5078
5078 5097 5098 5079
5079 5098 186 185
324 325 5099 5080
5080 5099 5100 5081
5081 5100 5101 5082
5082 5101 5102 5083
5083 5102 5103 5084
5084 5103 5104 5085
5085 5104 5105 5086
5086 5105 5106 5087
5087 5106 5107 5088
5088 5107 5108 5089
5089 5108 5109 5090
5090 5109 5110 5091
5091 5110 5111 5092
5092 5111 5112 5093
5093 5112 5113 5094
5094 5113 5114 5095
5095 5114 5115 5096
5096 5115 5116 5097
5097 5116 5117 5098
5098 5117 187 186
325 326 5118 5099
5099 5118 5119 5100
5100 5119 5120 5101
5101 5120 5121 5102
5102 5121 5122 5103
5103 5122 5123 5104
5104 5123 5124 5105
5105 5124 5125 5106
5106 5125 5126 5107
5107 5126 5127 5108
5108 5127 5128 5109
5109 5128 5129 5110
5110 5129 5130 5111
5111 5130 5131 5112
5112 5131 5132 5113
5113 5132 5133 5114
5114 5133 5134 5115
5115 5134 5135 5116
5116 5135 5136 5117
5117 5136 188 187
326 327 5137 5118
5118 5137 5138 5119
5119 5138 5139 5120
5120 5139 5140 5121
5121 5140 5141 5122
5122 5141 5142 5123
5123 5142 5143 5124
5124 5143 5144 5125
5125 5144 5145 5126
5126 5145 5146 5127
5127 5146 5147 5128
5128 5147 5148 5129
5129 5148 5149 5130
5130 5149 5150 5131
5131 5150 5151 5132
5132 5151 5152 5133
5133 5152 5153 5134
5134 5153 5154 5135
5135 5154 5155 5136
5136 5155 189 188
327 328 5156 5137
5137 5156 5157 5138
5138 5157 5158 5139
5139 5158 5159 5140
5140 5159 5160 5141
5141 5160 5161 5142
5142 5161 5162 5143
5143 5162 5163 5144
5144 5163 5164 5145
5145 5164 5165 5146
5146 5165 5166 5147
5147 5166 5167 5148
5148 5167 5168 5149
5149 5168 5169 5150
5150 5169 5170 5151
5151 5170 5171 5152
5152 5171 5172 5153
5153 5172 5173 5154
5154 5173 5174 5155
5155 5174 190 189
328 329 5175 5156
5156 5175 5176 5157
5157 5176 5177 5158
5158 5177 5178 5159
5159 5178 5179 5160
5160 5179 5180 5161
5161 5180 5181 5162
5162 5181 5182 5163
5163 5182 5183 5164
5164 5183 5184 5165
5165 5184 5185 5166
5166 5185 5186 5167
5167 5186 5187 5168
5168 5187 5188 5169
5169 5188 5189 5170
5170 5189 5190 5171
5171 5190 5191 5172
5172 5191 5192 5173
5173 5192 5193 5174
5174 5193 191 190
329 330 5194 5175
5175 5194 5195 5176
5176 5195 5196 5177
5177 5196 5197 5178
5178 5197 5198 5179
5179 5198 5199 5180
5180 5199 5200 5181
5181 5200 5201 5182
5182 5201 5202 5183
5183 5202 5203 5184
5184 5203 5204 5185
5185 5204 5205 5186
5186 5205 5206 5187
5187 5206 5207 5188
5188 5207 5208 5189
5189 5208 5209 5190
5190 5209 5210 5191
5191 5210 5211 5192
5192 5211 5212 5193
5193 5212 192 191
330 331 5213 5194
5194 5213 5214 5195
5195 5214 5215 5196
5196 5215 5216 5197
5197 5216 5217 5198
5198 5217 5218 5199
5199 5218 5219 5200
5200 5219 5220 5201
5201 5220 5221 5202
5202 5221 5222 5203
5203 5222 5223 5204
5204 5223 5224 5205
5205 5224 5225 5206
5206 5225 5226 5207
5207 5226 5227 5208
5208 5227 5228 5209
5209 5228 5229 5210
5210 5229 5230 5211
5211 5230 5231 5212
5212 5231 193 192
331 332 5232 5213
5213 5232 5233 5214
5214 5233 5234 5215
5215 5234 5235 5216
5216 5235 5236 5217
5217 5236 5237 5218
5218 5237 5238 5219
5219 5238 5239 5220
5220 5239 5240 5221
5221 5240 5241 5222
5222 5241 5242 5223
5223 5242 5243 5224
5224 5243 5244 5225
5225 5244 5245 5226
5226 5245 5246 5227
5227 5246 5247 5228
5228 5247 5248 5229
5229 5248 5249 5230
5230 5249 5250 5231
5231 5250 194 193
332 333 5251 5232
5232 5251 5252 5233
5233 5252 5253 5234
5234 5253 5254 5235
5235 5254 5255 5236
5236 5255 5256 5237
5237 5256 5257 5238
5238 5257 5258 5239
5239 5258 5259 5240
5240 5259 5260 5241
5241 5260 5261 5242
5242 5261 5262 5243
5243 5262 5263 5244
5244 5263 5264 5245
5245 5264 5265 5246
5246 5265 5266 5247
5247 5266 5267 5248
5248 5267 5268 5249
5249 5268 5269 5250
5250 5269 195 194
333 334 5270 5251
5251 5270 5271 5252
5252 5271 5272 5253
5253 5272 5273 5254
5254 5273 5274 5255
5255 5274 5275 5256
5256 5275 5276 5257
5257 5276 5277 5258
5258 5277 5278 5259
5259 5278 5279 5260
5260 5279 5280 5261
5261 5280 5281 5262
5262 5281 5282 5263
5263 5282 5283 5264
5264 5283 5284 5265
5265 5284 5285 5266
5266 5285 5286 5267
5267 5286 5287 5268
5268 5287 5288 5269
5269 5288 196 195
334 335 5289 5270
5270 5289 5290 5271
5271 5290 5291 5272
5272 5291 5292 5273
5273 5292 5293 5274
5274 5293 5294 5275
5275 5294 5295 5276
5276 5295 5296 5277
5277 5296 5297 5278
5278 5297 5298 5279
5279 5298 5299 5280
5280 5299 5300 5281
5281 5300 5301 5282
5282 5301 5302 5283
5283 5302 5303 5284
5284 5303 5304 5285
5285 5304 5305 5286
5286 5305 5306 5287
5287 5306 5307 5288
5288 5307 197 196
335 336 5308 5289
5289 5308 5309 5290
5290 5309 5310 5291
5291 5310 5311 5292
5292 5311 5312 5293
5293 5312 5313 5294
5294 5313 5314 5295
5295 5314 5315 5296
5296 5315 5316 5297
5297 5316 5317 5298
5298 5317 5318 5299
5299 5318 5319 5300
5300 5319 5320 5301
5301 5320 5321 5302
5302 5321 5322 5303
5303 5322 5323 5304
5304 5323 5324 5305
5305 5324 5325 5306
5306 5325 5326 5307
5307 5326 198 197
336 337 5327 5308
5308 5327 5328 5309
5309 5328 5329 5310
5310 5329 5330 5311
5311 5330 5331 5312
5312 5331 5332 5313
5313 5332 5333 5314
5314 5333 5334 5315
5315 5334 5335 5316
5316 5335 5336 5317
5317 5336 5337 5318
5318 5337 5338 5319
5319 5338 5339 5320
5320 5339 5340 5321
5321 5340 5341 5322
5322 5341 5342 5323
5323 5342 5343 5324
5324 5343 5344 5325
5325 5344 5345 5326
5326 5345 199 198
337 338 5346 5327
5327 5346 5347 5328
5328 5347 5348 5329
5329 5348 5349 5330
5330 5349 5350 5331
5331 5350 5351 5332
5332 5351 5352 5333
5333 5352 5353 5334
5334 5353 5354 5335
5335 5354 5355 5336
5336 5355 5356 5337
5337 5356 5357 5338
5338 5357 5358 5339
5339 5358 5359 5340
5340 5359 5360 5341
5341 5360 5361 5342
5342 5361 5362 5343
5343 5362 5363 5344
5344 5363 5364 5345
5345 5364 200 199
338 339 5365 5346
5346 5365 5366 5347
5347 5366 5367 5348
5348 5367 5368 5349
5349 5368 5369 5350
5350 5369 5370 5351
5351 5370 5371 5352
5352 5371 5372 5353
5353 5372 5373 5354
5354 5373 5374 5355
5355 5374 5375 5356
5356 5375 5376 5357
5357 5376 5377 5358
5358 5377 5378 5359
5359 5378 5379 5360
5360 5379 5380 5361
5361 5380 5381 5362
5362 5381 5382 5363
5363 5382 5383 5364
5364 5383 201 200
339 340 5384 5365
5365 5384 5385 5366
5366 5385 5386 5367
5367 5386 5387 5368
5368 5387 5388 5369
5369 5388 5389 5370
5370 5389 5390 5371
5371 5390 5391 5372
5372 5391 5392 5373
5373 5392 5393 5374
5374 5393 5394 5375
5375 5394 5395 5376
5376 5395 5396 5377
5377 5396 5397 5378
5378 5397 5398 5379
5379 5398 5399 5380
5380 5399 5400 5381
5381 5400 5401 5382
5382 5401 5402 5383
5383 5402 202 201
340 341 5403 5384
5384 5403 5404 5385
5385 5404 5405 5386
5386 5405 5406 5387
5387 5406 5407 5388
5388 5407 5408 5389
5389 5408 5409 5390
5390 5409 5410 5391
5391 5410 5411 5392
5392 5411 5412 5393
5393 5412 5413 5394
5394 5413 5414 5395
5395 5414 5415 5396
5396 5415 5416 5397
5397 5416 5417 5398
5398 5417 5418 5399
5399 5418 5419 5400
5400 5419 5420 5401
5401 5420 5421 5402
5402 5421 203 202
341 342 5422 5403
5403 5422 5423 5404
5404 5423 5424 5405
5405 5424 5425 5406
5406 5425 5426 5407
5407 5426 5427 5408
5408 5427 5428 5409
5409 5428 5429 5410
5410 5429 5430 5411
5411 5430 5431 5412
5412 5431 5432 5413
5413 5432 5433 5414
5414 5433 5434 5415
5415 5434 5435 5416
5416 5435 5436 5417
5417 5436 5437 5418
5418 5437 5438 5419
5419 5438 5439 5420
5420 5439 5440 5421
5421 5440 204 203
342 343 5441 5422
5422 5441 5442 5423
5423 5442 5443 5424
5424 5443 5444 5425
5425 5444 5445 5426
5426 5445 5446 5427
5427 5446 5447 5428
5428 5447 5448 5429
5429 5448 5449 5430
5430 5449 5450 5431
5431 5450 5451 5432
5432 5451 5452 5433
5433 5452 5453 5434
5434 5453 5454 5435
5435 5454 5455 5436
5436 5455 5456 5437
5437 5456 5457 5438
5438 5457 5458 5439
5439 5458 5459 5440
5440 5459 205 204
343 344 5460 5441
5441 5460 5461 5442
5442 5461 5462 5443
5443 5462 5463 5444
5444 5463 5464 5445
5445 5464 5465 5446
5446 5465 5466 5447
5447 5466 5467 5448
5448 5467 5468 5449
5449 5468 5469 5450
5450 5469 5470 5451
5451 5470 5471 5452
5452 5471 5472 5453
5453 5472 5473 5454
5454 5473 5474 5455
5455 5474 5475 5456
5456 5475 5476 5457
5457 5476 5477 5458
5458 5477 5478 5459
5459 5478 206 205
344 345 5479 5460
5460 5479 5480 5461
5461 5480 5481 5462
5462 5481 5482 5463
5463 5482 5483 5464
5464 5483 5484 5465
5465 5484 5485 5466
5466 5485 5486 5467
5467 5486 5487 5468
5468 5487 5488 5469
5469 5488 5489 5470
5470 5489 5490 5471
5471 5490 5491 5472
5472 5491 5492 5473
5473 5492 5493 5474
5474 5493 5494 5475
5475 5494 5495 5476
5476 5495 5496 5477
5477 5496 5497 5478
5478 5497 207 206
345 346 5498 5479
5479 5498 5499 5480
5480 5499 5500 5481
5481 5500 5501 5482
5482 5501 5502 5483
5483 5502 5503 5484
5484 5503 5504 5485
5485 5504 5505 5486
5486 5505 5506 5487
5487 5506 5507 5488
5488 5507 5508 5489
5489 5508 5509 5490
5490 5509 5510 5491
5491 5510 5511 5492
5492 5511 5512 5493
5493 5512 5513 5494
5494 5513 5514 5495
5495 5514 5515 5496
5496 5515 5516 5497
5497 5516 208 207
346 347 5517 5498
5498 5517 5518 5499
5499 5518 5519 5500
5500 5519 5520 5501
5501 5520 5521 5502
5502 5521 5522 5503
5503 5522 5523 5504
5504 5523 5524 5505
5505 5524 5525 5506
5506 5525 5526 5507
5507 5526 5527 5508
5508 5527 5528 5509
5509 5528 5529 5510
5510 5529 5530 5511
5511 5530 5531 5512
5512 5531 5532 5513
5513 5532 5533 5514
5514 5533 5534 5515
5515 5534 5535 5516
5516 5535 209 208
347 348 5536 5517
5517 5536 5537 5518
5518 5537 5538 5519
5519 5538 5539 5520
5520 5539 5540 5521
5521 5540 5541 5522
5522 5541 5542 5523
5523 5542 5543 5524
5524 5543 5544 5525
5525 5544 5545 5526
5526 5545 5546 5527
5527 5546 5547 5528
5528 5547 5548 5529
5529 5548 5549 5530
5530 5549 5550 5531
5531 5550 5551 5532
5532 5551 5552 5533
5533 5552 5553 5534
5534 5553 5554 5535
5535 5554 210 209
348 349 5555 5536
5536 5555 5556 5537
5537 5556 5557 5538
5538 5557 5558 5539
5539 5558 5559 5540
5540 5559 5560 5541
5541 5560 5561 5542
5542 5561 5562 5543
5543 5562 5563 5544
5544 5563 5564 5545
5545 5564 5565 5546
5546 5565 5566 5547
5547 5566 5567 5548
5548 5567 5568 5549
5549 5568 5569 5550
5550 5569 5570 5551
5551 5570 5571 5552
5552 5571 5572 5553
5553 5572 5573 5554
5554 5573 211 210
349 350 5574 5555
5555 5574 5575 5556
5556 5575 5576 5557
5557 5576 5577 5558
5558 5577 5578 5559
5559 5578 5579 5560
5560 5579 5580 5561
5561 5580 5581 5562
5562 5581 5582 5563
5563 5582 5583 5564
5564 5583 5584 5565
5565 5584 5585 5566
5566 5585 5586 5567
5567 5586 5587 5568
5568 5587 5588 5569
5569 5588 5589 5570
5570 5589 5590 5571
5571 5590 5591 5572
5572 5591 5592 5573
5573 5592 212 211
350 351 5593 5574
5574 5593 5594 5575
5575 5594 5595 5576
5576 5595 5596 5577
5577 5596 5597 5578
5578 5597 5598 5579
5579 5598 5599 5580
5580 5599 5600 5581
5581 5600 5601 5582
5582 5601 5602 5583
5583 5602 5603 5584
5584 5603 5604 5585
5585 5604 5605 5586
5586 5605 5606 5587
5587 5606 5607 5588
5588 5607 5608 5589
5589 5608 5609 5590
5590 5609 5610 5591
5591 5610 5611 5592
5592 5611 213 212
351 352 5612 5593
5593 5612 5613 5594
5594 5613 5614 5595
5595 5614 5615 5596
5596 5615 5616 5597
5597 5616 5617 5598
5598 5617 5618 5599
5599 5618 5619 5600
5600 5619 5620 5601
5601 5620 5621 5602
5602 5621 5622 5603
5603 5622 5623 5604
5604 5623 5624 5605
5605 5624 5625 5606
5606 5625 5626 5607
5607 5626 5627 5608
5608 5627 5628 5609
5609 5628 5629 5610
5610 5629 5630 5611
5611 5630 214 213
352 353 5631 5612
5612 5631 5632 5613
5613 5632 5633 5614
5614 5633 5634 5615
5615 5634 5635 5616
5616 5635 5636 5617
5617 5636 5637 5618
5618 5637 5638 5619
5619 5638 5639 5620
5620 5639 5640 5621
5621 5640 5641 5622
5622 5641 5642 5623
5623 5642 5643 5624
5624 5643 5644 5625
5625 5644 5645 5626
5626 5645 5646 5627
5627 5646 5647 5628
5628 5647 5648 5629
5629 5648 5649 5630
5630 5649 215 214
353 354 5650 5631
5631 5650 5651 5632
5632 5651 5652 5633
5633 5652 5653 5634
5634 5653 5654 5635
5635 5654 5655 5636
5636 5655 5656 5637
5637 5656 5657 5638
5638 5657 5658 5639
5639 5658 5659 5640
5640 5659 5660 5641
5641 5660 5661 5642
5642 5661 5662 5643
5643 5662 5663 5644
5644 5663 5664 5645
5645 5664 5665 5646
5646 5665 5666 5647
5647 5666 5667 5648
5648 5667 5668 5649
5649 5668 216 215
354 355 5669 5650
5650 5669 5670 5651
5651 5670 5671 5652
5652 5671 5672 5653
5653 5672 5673 5654
5654 5673 5674 5655
5655 5674 5675 5656
5656 5675 5676 5657
5657 5676 5677 5658
5658 5677 5678 5659
5659 5678 5679 5660
5660 5679 5680 5661
5661 5680 5681 5662
5662 5681 5682 5663
5663 5682 5683 5664
5664 5683 5684 5665
5665 5684 5685 5666
5666 5685 5686 5667
5667 5686 5687 5668
5668 5687 217 216
355 356 5688 5669
5669 5688 5689 5670
5670 5689 5690 5671
5671 5690 5691 5672
5672 5691 5692 5673
5673 5692 5693 5674
5674 5693 5694 5675
5675 5694 5695 5676
5676 5695 5696 5677
5677 5696 5697 5678
5678 5697 5698 5679
5679 5698 5699 5680
5680 5699 5700 5681
5681 5700 5701 5682
5682 5701 5702 5683
5683 5702 5703 5684
5684 5703 5704 5685
5685 5704 5705 5686
5686 5705 5706 5687
5687 5706 218 217
356 357 5707 5688
5688 5707 5708 5689
5689 5708 5709 5690
5690 5709 5710 5691
5691 5710 5711 5692
5692 5711 5712 5693
5693 5712 5713 5694
5694 5713 5714 5695
5695 5714 5715 5696
5696 5715 5716 5697
5697 5716 5717 5698
5698 5717 5718 5699
5699 5718 5719 5700
5700 5719 5720 5701
5701 5720 5721 5702
5702 5721 5722 5703
5703 5722 5723 5704
5704 5723 5724 5705
5705 5724 5725 5706
5706 5725 219 218
357 358 5726 5707
5707 5726 5727 5708
5708 5727 5728 5709
5709 5728 5729 5710
5710 5729 5730 5711
5711 5730 5731 5712
5712 5731 5732 5713
5713 5732 5733 5714
5714 5733 5734 5715
5715 5734 5735 5716
5716 5735 5736 5717
5717 5736 5737 5718
5718 5737 5738 5719
5719 5738 5739 5720
5720 5739 5740 5721
5721 5740 5741 5722
5722 5741 5742 5723
5723 5742 5743 5724
5724 5743 5744 5725
5725 5744 220 219
358 359 5745 5726
5726 5745 5746 5727
5727 5746 5747 5728
5728 5747 5748 5729
5729 5748 5749 5730
5730 5749 5750 5731
5731 5750 5751 5732
5732 5751 5752 5733
5733 5752 5753 5734
5734 5753 5754 5735
5735 5754 5755 5736
5736 5755 5756 5737
5737 5756 5757 5738
5738 5757 5758 5739
5739 5758 5759 5740
5740 5759 5760 5741
5741 5760 5761 5742
5742 5761 5762 5743
5743 5762 5763 5744
5744 5763 221 220
359 360 5764 5745
5745 5764 5765 5746
5746 5765 5766 5747
5747 5766 5767 5748
5748 5767 5768 5749
5749 5768 5769 5750
5750 5769 5770 5751
5751 5770 5771 5752
5752 5771 5772 5753
5753 5772 5773 5754
5754 5773 5774 5755
5755 5774 5775 5756
5756 5775 5776 5757
5757 5776 5777 5758
5758 5777 5778 5759
5759 5778 5779 5760
5760 5779 5780 5761
5761 5780 5781 5762
5762 5781 5782 5763
5763 5782 222 221
360 361 5783 5764
5764 5783 5784 5765
5765 5784 5785 5766
5766 5785 5786 5767
5767 5786 5787 5768
5768 5787 5788 5769
5769 5788 5789 5770
5770 5789 5790 5771
5771 5790 5791 5772
5772 5791 5792 5773
5773 5792 5793 5774
5774 5793 5794 5775
5775 5794 5795 5776
5776 5795 5796 5777
5777 5796 5797 5778
5778 5797 5798 5779
5779 5798 5799 5780
5780 5799 5800 5781
5781 5800 5801 5782
5782 5801 223 222
361 10 419 5783
5783 419 420 5784
5784 420 421 5785
5785 421 422 5786
5786 422 423 5787
5787 423 424 5788
5788 424 425 5789
5789 425 426 5790
5790 426 427 5791
5791 427 428 5792
5792 428 429 5793
5793 429 430 5794
5794 430 431 5795
5795 431 432 5796
5796 432 433 5797
5797 433 434 5798
5798 434 435 5799
5799 435 436 5800
5800 436 437 5801
5801 437 8 223
</DataArray>
<DataArray type="Int64" Name="offsets" format="ascii">
4
8
12
16
20
24
28
32
36
40
44
48
52
56
60
64
68
72
76
80
84
88
92
96
100
104
108
112
116
120
124
128
132
136
140
144
148
152
156
160
164
168
172
176
180
184
188
192
196
200
204
208
212
216
220
224
228
232
236
240
244
248
252
256
260
264
268
272
276
280
284
288
292
296
300
304
308
312
316
320
324
328
332
336
340
344
348
352
356
360
364
368
372
376
380
384
388
392
396
400
404
408
412
416
420
424
428
432
436
440
444
448
452
456
460
464
468
472
476
480
484
488
492
496
500
504
508
512
516
520
524
528
532
536
540
544
548
552
556
560
564
568
572
576
580
584
588
592
596
600
604
608
612
616
620
624
628
632
636
640
644
648
652
656
660
664
668
672
676
680
684
688
692
696
700
704
708
712
716
720
724
728
732
736
740
744
748
752
756
760
764
768
772
776
780
784
788
792
796
800
804
808
812
816
820
824
828
832
836
840
844
848
852
856
860
864
868
872
876
880
884
888
892
896
900
904
908
912
916
920
924
928
932
936
940
944
948
952
956
960
964
968
972
976
980
984
988
992
996
1000
1004
1008
1012
1016
1020
1024
1028
1032
1036
1040
1044
1048
1052
1056
1060
1064
1068
1072
1076
1080
1084
1088
1092
1096
1100
1104
1108
1112
1116
1120
1124
1128
1132
1136
1140
1144
1148
1152
1156
1160
1164
1168
1172
1176
1180
1184
1188
1192
1196
1200
1204
1208
1212
1216
1220
1224
1228
1232
1236
1240
1244
1248
1252
1256
1260
1264
1268
1272
1276
1280
1284
1288
1292
1296
1300
1304
1308
1312
1316
1320
1324
1328
1332
1336
1340
1344
1348
1352
1356
1360
1364
1368
1372
1376
1380
1384
1388
1392
1396
1400
1404
1408
1412
1416
1420
1424
1428
1432
1436
1440
1444
1448
1452
1456
1460
1464
1468
1472
1476
1480
1484
1488
1492
1496
1500
1504
1508
1512
1516
1520
1524
1528
1532
1536
1540
1544
1548
1552
1556
1560
1564
1568
1572
1576
1580
1584
1588
1592
1596
1600
1604
1608
1612
1616
1620
1624
1628
1632
1636
1640
1644
1648
1652
1656
1660
1664
1668
1672
1676
1680
1684
1688
1692
1696
1700
1704
1708
1712
1716
1720
1724
1728
1732
1736
1740
1744
1748
1752
1756
1760
1764
1768
1772
1776
1780
1784
1788
1792
1796
1800
1804
1808
1812
1816
1820
1824
1828
1832
1836
1840
1844
1848
1852
1856
1860
1864
1868
1872
1876
1880
1884
1888
1892
1896
1900
1904
1908
1912
1916
1920
1924
1928
1932
1936
1940
1944
1948
1952
1956
1960
1964
1968
1972
1976
1980
1984
1988
1992
1996
2000
2004
2008
2012
2016
2020
2024
2028
2032
2036
2040
2044
2048
2052
2056
2060
2064
2068
2072
2076
2080
2084
2088
2092
2096
2100
2104
2108
2112
2116
2120
2124
2128
2132
2136
2140
2144
2148
2152
2156
2160
2164
2168
2172
2176
2180
2184
2188
2192
2196
2200
2204
2208
2212
2216
2220
2224
2228
2232
2236
2240
2244
2248
2252
2256
2260
2264
2268
2272
2276
2280
2284
2288
2292
2296
2300
2304
2308
2312
2316
2320
2324
2328
2332
2336
2340
2344
2348
2352
2356
2360
2364
2368
2372
2376
2380
2384
2388
2392
2396
2400
2404
2408
2412
2416
2420
2424
2428
2432
2436
2440
2444
2448
2452
2456
2460
2464
2468
2472
2476
2480
2484
2488
2492
2496
2500
2504
2508
2512
2516
2520
2524
2528
2532
2536
2540
2544
2548
2552
2556
2560
2564
2568
2572
2576
2580
2584
2588
2592
2596
2600
2604
2608
2612
2616
2620
2624
2628
2632
2636
2640
2644
2648
2652
2656
2660
2664
2668
2672
2676
2680
2684
2688
2692
2696
2700
2704
2708
2712
2716
2720
2724
2728
2732
2736
2740
2744
2748
2752
2756
2760
2764
2768
2772
2776
2780
2784
2788
2792
2796
2800
2804
2808
2812
2816
2820
2824
2828
2832
2836
2840
2844
2848
2852
2856
2860
2864
2868
2872
2876
2880
2884
2888
2892
2896
2900
2904
2908
2912
2916
2920
2924
2928
2932
2936
2940
2944
2948
2952
2956
2960
2964
2968
2972
2976
2980
2984
2988
2992
2996
3000
3004
3008
3012
3016
3020
3024
3028
3032
3036
3040
3044
3048
3052
3056
3060
3064
3068
3072
3076
3080
3084
3088
3092
3096
3100
3104
3108
3112
3116
3120
3124
3128
3132
3136
3140
3144
3148
3152
3156
3160
3164
3168
3172
3176
3180
3184
3188
3192
3196
3200
3204
3208
3212
3216
3220
3224
3228
3232
3236
3240
3244
3248
3252
3256
3260
3264
3268
3272
3276
3280
3284
3288
3292
3296
3300
3304
3308
3312
3316
3320
3324
3328
3332
3336
3340
3344
3348
3352
3356
3360
3364
3368
3372
3376
3380
3384
3388
3392
3396
3400
3404
3408
3412
3416
3420
3424
3428
3432
3436
3440
3444
3448
3452
3456
3460
3464
3468
3472
3476
3480
3484
3488
3492
3496
3500
3504
3508
3512
3516
3520
3524
3528
3532
3536
3540
3544
3548
3552
3556
3560
3564
3568
3572
3576
3580
3584
3588
3592
3596
3600
3604
3608
3612
3616
3620
3624
3628
3632
3636
3640
3644
3648
3652
3656
3660
3664
3668
3672
3676
3680
3684
3688
3692
3696
3700
3704
3708
3712
3716
3720
3724
3728
3732
3736
3740
3744
3748
3752
3756
3760
3764
3768
3772
3776
3780
3784
3788
3792
3796
3800
3804
3808
3812
3816
3820
3824
3828
3832
3836
3840
3844
3848
3852
3856
3860
3864
3868
3872
3876
3880
3884
3888
3892
3896
3900
3904
3908
3912
3916
3920
3924
3928
3932
3936
3940
3944
3948
3952
3956
3960
3964
3968
3972
3976
3980
3984
3988
3992
3996
4000
4004
4008
4012
4016
4020
4024
4028
4032
4036
4040
4044
4048
4052
4056
4060
4064
4068
4072
4076
4080
4084
4088
4092
4096
4100
4104
4108
4112
4116
4120
4124
4128
4132
4136
4140
4144
4148
4152
4156
4160
4164
4168
4172
4176
4180
4184
4188
4192
4196
4200
4204
4208
4212
4216
4220
4224
4228
4232
4236
4240
4244
4248
4252
4256
4260
4264
4268
4272
4276
4280
4284
4288
4292
4296
4300
4304
4308
4312
4316
4320
4324
4328
4332
4336
4340
4344
4348
4352
4356
4360
4364
4368
4372
4376
4380
4384
4388
4392
4396
4400
4404
4408
4412
4416
4420
4424
4428
4432
4436
4440
4444
4448
4452
4456
4460
4464
4468
4472
4476
4480
4484
4488
4492
4496
4500
4504
4508
4512
4516
4520
4524
4528
4532
4536
4540
4544
4548
4552
4556
4560
4564
4568
4572
4576
4580
4584
4588
4592
4596
4600
4604
4608
4612
4616
4620
4624
4628
4632
4636
4640
4644
4648
4652
4656
4660
4664
4668
4672
4676
4680
4684
4688
4692
4696
4700
4704
4708
4712
4716
4720
4724
4728
4732
4736
4740
4744
4748
4752
4756
4760
4764
4768
4772
4776
4780
4784
4788
4792
4796
4800
4804
4808
4812
4816
4820
4824
4828
4832
4836
4840
4844
4848
4852
4856
4860
4864
4868
4872
4876
4880
4884
4888
4892
4896
4900
4904
4908
4912
4916
4920
4924
4928
4932
4936
4940
4944
4948
4952
4956
4960
4964
4968
4972
4976
4980
4984
4988
4992
4996
5000
5004
5008
5012
5016
5020
5024
5028
5032
5036
5040
5044
5048
5052
5056
5060
5064
5068
5072
5076
5080
5084
5088
5092
5096
5100
5104
5108
5112
5116
5120
5124
5128
5132
5136
5140
5144
5148
5152
5156
5160
5164
5168
5172
5176
5180
5184
5188
5192
5196
5200
5204
5208
5212
5216
5220
5224
5228
5232
5236
5240
5244
5248
5252
5256
5260
5264
5268
5272
5276
5280
5284
5288
5292
5296
5300
5304
5308
5312
5316
5320
5324
5328
5332
5336
5340
5344
5348
5352
5356
5360
5364
5368
5372
5376
5380
5384
5388
5392
5396
5400
5404
5408
5412
5416
5420
5424
5428
5432
5436
5440
5444
5448
5452
5456
5460
5464
5468
5472
5476
5480
5484
5488
5492
5496
5500
5504
5508
5512
5516
5520
5524
5528
5532
5536
5540
5544
5548
5552
5556
5560
5564
5568
5572
5576
5580
5584
5588
5592
5596
5600
5604
5608
5612
5616
5620
5624
5628
5632
5636
5640
5644
5648
5652
5656
5660
5664
5668
5672
5676
5680
5684
5688
5692
5696
5700
5704
5708
5712
5716
5720
5724
5728
5732
5736
5740
5744
5748
5752
5756
5760
5764
5768
5772
5776
5780
5784
5788
5792
5796
5800
5804
5808
5812
5816
5820
5824
5828
5832
5836
5840
5844
5848
5852
5856
5860
5864
5868
5872
5876
5880
5884
5888
5892
5896
5900
5904
5908
5912
5916
5920
5924
5928
5932
5936
5940
5944
5948
5952
5956
5960
5964
5968
5972
5976
5980
5984
5988
5992
5996
6000
6004
6008
6012
6016
6020
6024
6028
6032
6036
6040
6044
6048
6052
6056
6060
6064
6068
6072
6076
6080
6084
6088
6092
6096
6100
6104
6108
6112
6116
6120
6124
6128
6132
6136
6140
6144
6148
6152
6156
6160
6164
6168
6172
6176
6180
6184
6188
6192
6196
6200
6204
6208
6212
6216
6220
6224
6228
6232
6236
6240
6244
6248
6252
6256
6260
6264
6268
6272
6276
6280
6284
6288
6292
6296
6300
6304
6308
6312
6316
6320
6324
6328
6332
6336
6340
6344
6348
6352
6356
6360
6364
6368
6372
6376
6380
6384
6388
6392
6396
6400
6404
6408
6412
6416
6420
6424
6428
6432
6436
6440
6444
6448
6452
6456
6460
6464
6468
6472
6476
6480
6484
6488
6492
6496
6500
6504
6508
6512
6516
6520
6524
6528
6532
6536
6540
6544
6548
6552
6556
6560
6564
6568
6572
6576
6580
6584
6588
6592
6596
6600
6604
6608
6612
6616
6620
6624
6628
6632
6636
6640
6644
6648
6652
6656
6660
6664
6668
6672
6676
6680
6684
6688
6692
6696
6700
6704
6708
6712
6716
6720
6724
6728
6732
6736
6740
6744
6748
6752
6756
6760
6764
6768
6772
6776
6780
6784
6788
6792
6796
6800
6804
6808
6812
6816
6820
6824
6828
6832
6836
6840
6844
6848
6852
6856
6860
6864
6868
6872
6876
6880
6884
6888
6892
6896
6900
6904
6908
6912
6916
6920
6924
6928
6932
6936
6940
6944
6948
6952
6956
6960
6964
6968
6972
6976
6980
6984
6988
6992
6996
7000
7004
7008
7012
7016
7020
7024
7028
7032
7036
7040
7044
7048
7052
7056
7060
7064
7068
7072
7076
7080
7084
7088
7092
7096
7100
7104
7108
7112
7116
7120
7124
7128
7132
7136
7140
7144
7148
7152
7156
7160
7164
7168
7172
7176
7180
7184
7188
7192
7196
7200
7204
7208
7212
7216
7220
7224
7228
7232
7236
7240
7244
7248
7252
7256
7260
7264
7268
7272
7276
7280
7284
7288
7292
7296
7300
7304
7308
7312
7316
7320
7324
7328
7332
7336
7340
7344
7348
7352
7356
7360
7364
7368
7372
7376
7380
7384
7388
7392
7396
7400
7404
7408
7412
7416
7420
7424
7428
7432
7436
7440
7444
7448
7452
7456
7460
7464
7468
7472
7476
7480
7484
7488
7492
7496
7500
7504
7508
7512
7516
7520
7524
7528
7532
7536
7540
7544
7548
7552
7556
7560
7564
7568
7572
7576
7580
7584
7588
7592
7596
7600
7604
7608
7612
7616
7620
7624
7628
7632
7636
7640
7644
7648
7652
7656
7660
7664
7668
7672
7676
7680
7684
7688
7692
7696
7700
7704
7708
7712
7716
7720
7724
7728
7732
7736
7740
7744
7748
7752
7756
7760
7764
7768
7772
7776
7780
7784
7788
7792
7796
7800
7804
7808
7812
7816
7820
7824
7828
7832
7836
7840
7844
7848
7852
7856
7860
7864
7868
7872
7876
7880
7884
7888
7892
7896
7900
7904
7908
7912
7916
7920
7924
7928
7932
7936
7940
7944
7948
7952
7956
7960
7964
7968
7972
7976
7980
7984
7988
7992
7996
8000
8004
8008
8012
8016
8020
8024
8028
8032
8036
8040
8044
8048
8052
8056
8060
8064
8068
8072
8076
8080
8084
8088
8092
8096
8100
8104
8108
8112
8116
8120
8124
8128
8132
8136
8140
8144
8148
8152
8156
8160
8164
8168
8172
8176
8180
8184
8188
8192
8196
8200
8204
8208
8212
8216
8220
8224
8228
8232
8236
8240
8244
8248
8252
8256
8260
8264
8268
8272
8276
8280
8284
8288
8292
8296
8300
8304
8308
8312
8316
8320
8324
8328
8332
8336
8340
8344
8348
8352
8356
8360
8364
8368
8372
8376
8380
8384
8388
8392
8396
8400
8404
8408
8412
8416
8420
8424
8428
8432
8436
8440
8444
8448
8452
8456
8460
8464
8468
8472
8476
8480
8484
8488
8492
8496
8500
8504
8508
8512
8516
8520
8524
8528
8532
8536
8540
8544
8548
8552
8556
8560
8564
8568
8572
8576
8580
8584
8588
8592
8596
8600
8604
8608
8612
8616
8620
8624
8628
8632
8636
8640
8644
8648
8652
8656
8660
8664
8668
8672
8676
8680
8684
8688
8692
8696
8700
8704
8708
8712
8716
8720
8724
8728
8732
8736
8740
8744
8748
8752
8756
8760
8764
8768
8772
8776
8780
8784
8788
8792
8796
8800
8804
8808
8812
8816
8820
8824
8828
8832
8836
8840
8844
8848
8852
8856
8860
8864
8868
8872
8876
8880
8884
8888
8892
8896
8900
8904
8908
8912
8916
8920
8924
8928
8932
8936
8940
8944
8948
8952
8956
8960
8964
8968
8972
8976
8980
8984
8988
8992
8996
9000
9004
9008
9012
9016
9020
9024
9028
9032
9036
9040
9044
9048
9052
9056
9060
9064
9068
9072
9076
9080
9084
9088
9092
9096
9100
9104
9108
9112
9116
9120
9124
9128
9132
9136
9140
9144
9148
9152
9156
9160
9164
9168
9172
9176
9180
9184
9188
9192
9196
9200
9204
9208
9212
9216
9220
9224
9228
9232
9236
9240
9244
9248
9252
9256
9260
9264
9268
9272
9276
9280
9284
9288
9292
9296
9300
9304
9308
9312
9316
9320
9324
9328
9332
9336
9340
9344
9348
9352
9356
9360
9364
9368
9372
9376
9380
9384
9388
9392
9396
9400
9404
9408
9412
9416
9420
9424
9428
9432
9436
9440
9444
9448
9452
9456
9460
9464
9468
9472
9476
9480
9484
9488
9492
9496
9500
9504
9508
9512
9516
9520
9524
9528
9532
9536
9540
9544
9548
9552
9556
9560
9564
9568
9572
9576
9580
9584
9588
9592
9596
9600
9604
9608
9612
9616
9620
9624
9628
9632
9636
9640
9644
9648
9652
9656
9660
9664
9668
9672
9676
9680
9684
9688
9692
9696
9700
9704
9708
9712
9716
9720
9724
9728
9732
9736
9740
9744
9748
9752
9756
9760
9764
9768
9772
9776
9780
9784
9788
9792
9796
9800
9804
9808
9812
9816
9820
9824
9828
9832
9836
9840
9844
9848
9852
9856
9860
9864
9868
9872
9876
9880
9884
9888
9892
9896
9900
9904
9908
9912
9916
9920
9924
9928
9932
9936
9940
9944
9948
9952
9956
9960
9964
9968
9972
9976
9980
9984
9988
9992
9996
10000
10004
10008
10012
10016
10020
10024
10028
10032
10036
10040
10044
10048
10052
10056
10060
10064
10068
10072
10076
10080
10084
10088
10092
10096
10100
10104
10108
10112
10116
10120
10124
10128
10132
10136
10140
10144
10148
10152
10156
10160
10164
10168
10172
10176
10180
10184
10188
10192
10196
10200
10204
10208
10212
10216
10220
10224
10228
10232
10236
10240
10244
10248
10252
10256
10260
10264
10268
10272
10276
10280
10284
10288
10292
10296
10300
10304
10308
10312
10316
10320
10324
10328
10332
10336
10340
10344
10348
10352
10356
10360
10364
10368
10372
10376
10380
10384
10388
10392
10396
10400
10404
10408
10412
10416
10420
10424
10428
10432
10436
10440
10444
10448
10452
10456
10460
10464
10468
10472
10476
10480
10484
10488
10492
10496
10500
10504
10508
10512
10516
10520
10524
10528
10532
10536
10540
10544
10548
10552
10556
10560
10564
10568
10572
10576
10580
10584
10588
10592
10596
10600
10604
10608
10612
10616
10620
10624
10628
10632
10636
10640
10644
10648
10652
10656
10660
10664
10668
10672
10676
10680
10684
10688
10692
10696
10700
10704
10708
10712
10716
10720
10724
10728
10732
10736
10740
10744
10748
10752
10756
10760
10764
10768
10772
10776
10780
10784
10788
10792
10796
10800
10804
10808
10812
10816
10820
10824
10828
10832
10836
10840
10844
10848
10852
10856
10860
10864
10868
10872
10876
10880
10884
10888
10892
10896
10900
10904
10908
10912
10916
10920
10924
10928
10932
10936
10940
10944
10948
10952
10956
10960
10964
10968
10972
10976
10980
10984
10988
10992
10996
11000
11004
11008
11012
11016
11020
11024
11028
11032
11036
11040
11044
11048
11052
11056
11060
11064
11068
11072
11076
11080
11084
11088
11092
11096
11100
11104
11108
11112
11116
11120
11124
11128
11132
11136
11140
11144
11148
11152
11156
11160
11164
11168
11172
11176
11180
11184
11188
11192
11196
11200
11204
11208
11212
11216
11220
11224
11228
11232
11236
11240
11244
11248
11252
11256
11260
11264
11268
11272
11276
11280
11284
11288
11292
11296
11300
11304
11308
11312
11316
11320
11324
11328
11332
11336
11340
11344
11348
11352
11356
11360
11364
11368
11372
11376
11380
11384
11388
11392
11396
11400
11404
11408
11412
11416
11420
11424
11428
11432
11436
11440
11444
11448
11452
11456
11460
11464
11468
11472
11476
11480
11484
11488
11492
11496
11500
11504
11508
11512
11516
11520
11524
11528
11532
11536
11540
11544
11548
11552
11556
11560
11564
11568
11572
11576
11580
11584
11588
11592
11596
11600
11604
11608
11612
11616
11620
11624
11628
11632
11636
11640
11644
11648
11652
11656
11660
11664
11668
11672
11676
11680
11684
11688
11692
11696
11700
11704
11708
11712
11716
11720
11724
11728
11732
11736
11740
11744
11748
11752
11756
11760
11764
11768
11772
11776
11780
11784
11788
11792
11796
11800
11804
11808
11812
11816
11820
11824
11828
11832
11836
11840
11844
11848
11852
11856
11860
11864
11868
11872
11876
11880
11884
11888
11892
11896
11900
11904
11908
11912
11916
11920
11924
11928
11932
11936
11940
11944
11948
11952
11956
11960
11964
11968
11972
11976
11980
11984
11988
11992
11996
12000
12004
12008
12012
12016
12020
12024
12028
12032
12036
12040
12044
12048
12052
12056
12060
12064
12068
12072
12076
12080
12084
12088
12092
12096
12100
12104
12108
12112
12116
12120
12124
12128
12132
12136
12140
12144
12148
12152
12156
12160
12164
12168
12172
12176
12180
12184
12188
12192
12196
12200
12204
12208
12212
12216
12220
12224
12228
12232
12236
12240
12244
12248
12252
12256
12260
12264
12268
12272
12276
12280
12284
12288
12292
12296
12300
12304
12308
12312
12316
12320
12324
12328
12332
12336
12340
12344
12348
12352
12356
12360
12364
12368
12372
12376
12380
12384
12388
12392
12396
12400
12404
12408
12412
12416
12420
12424
12428
12432
12436
12440
12444
12448
12452
12456
12460
12464
12468
12472
12476
12480
12484
12488
12492
12496
12500
12504
12508
12512
12516
12520
12524
12528
12532
12536
12540
12544
12548
12552
12556
12560
12564
12568
12572
12576
12580
12584
12588
12592
12596
12600
12604
12608
12612
12616
12620
12624
12628
12632
12636
12640
12644
12648
12652
12656
12660
12664
12668
12672
12676
12680
12684
12688
12692
12696
12700
12704
12708
12712
12716
12720
12724
12728
12732
12736
12740
12744
12748
12752
12756
12760
12764
12768
12772
12776
12780
12784
12788
12792
12796
12800
12804
12808
12812
12816
12820
12824
12828
12832
12836
12840
12844
12848
12852
12856
12860
12864
12868
12872
12876
12880
12884
12888
12892
12896
12900
12904
12908
12912
12916
12920
12924
12928
12932
12936
12940
12944
12948
12952
12956
12960
12964
12968
12972
12976
12980
12984
12988
12992
12996
13000
13004
13008
13012
13016
13020
13024
13028
13032
13036
13040
13044
13048
13052
13056
13060
13064
13068
13072
13076
13080
13084
13088
13092
13096
13100
13104
13108
13112
13116
13120
13124
13128
13132
13136
13140
13144
13148
13152
13156
13160
13164
13168
13172
13176
13180
13184
13188
13192
13196
13200
13204
13208
13212
13216
13220
13224
13228
13232
13236
13240
13244
13248
13252
13256
13260
13264
13268
13272
13276
13280
13284
13288
13292
13296
13300
13304
13308
13312
13316
13320
13324
13328
13332
13336
13340
13344
13348
13352
13356
13360
13364
13368
13372
13376
13380
13384
13388
13392
13396
13400
13404
13408
13412
13416
13420
13424
13428
13432
13436
13440
13444
13448
13452
13456
13460
13464
13468
13472
13476
13480
13484
13488
13492
13496
13500
13504
13508
13512
13516
13520
13524
13528
13532
13536
13540
13544
13548
13552
13556
13560
13564
13568
13572
13576
13580
13584
13588
13592
13596
13600
13604
13608
13612
13616
13620
13624
13628
13632
13636
13640
13644
13648
13652
13656
13660
13664
13668
13672
13676
13680
13684
13688
13692
13696
13700
13704
13708
13712
13716
13720
13724
13728
13732
13736
13740
13744
13748
13752
13756
13760
13764
13768
13772
13776
13780
13784
13788
13792
13796
13800
13804
13808
13812
13816
13820
13824
13828
13832
13836
13840
13844
13848
13852
13856
13860
13864
13868
13872
13876
13880
13884
13888
13892
13896
13900
13904
13908
13912
13916
13920
13924
13928
13932
13936
13940
13944
13948
13952
13956
13960
13964
13968
13972
13976
13980
13984
13988
13992
13996
14000
14004
14008
14012
14016
14020
14024
14028
14032
14036
14040
14044
14048
14052
14056
14060
14064
14068
14072
14076
14080
14084
14088
14092
14096
14100
14104
14108
14112
14116
14120
14124
14128
14132
14136
14140
14144
14148
14152
14156
14160
14164
14168
14172
14176
14180
14184
14188
14192
14196
14200
14204
14208
14212
14216
14220
14224
14228
14232
14236
14240
14244
14248
14252
14256
14260
14264
14268
14272
14276
14280
14284
14288
14292
14296
14300
14304
14308
14312
14316
14320
14324
14328
14332
14336
14340
14344
14348
14352
14356
14360
14364
14368
14372
14376
14380
14384
14388
14392
14396
14400
14404
14408
14412
14416
14420
14424
14428
14432
14436
14440
14444
14448
14452
14456
14460
14464
14468
14472
14476
14480
14484
14488
14492
14496
14500
14504
14508
14512
14516
14520
14524
14528
14532
14536
14540
14544
14548
14552
14556
14560
14564
14568
14572
14576
14580
14584
14588
14592
14596
14600
14604
14608
14612
14616
14620
14624
14628
14632
14636
14640
14644
14648
14652
14656
14660
14664
14668
14672
14676
14680
14684
14688
14692
14696
14700
14704
14708
14712
14716
14720
14724
14728
14732
14736
14740
14744
14748
14752
14756
14760
14764
14768
14772
14776
14780
14784
14788
14792
14796
14800
14804
14808
14812
14816
14820
14824
14828
14832
14836
14840
14844
14848
14852
14856
14860
14864
14868
14872
14876
14880
14884
14888
14892
14896
14900
14904
14908
14912
14916
14920
14924
14928
14932
14936
14940
14944
14948
14952
14956
14960
14964
14968
14972
14976
14980
14984
14988
14992
14996
15000
15004
15008
15012
15016
15020
15024
15028
15032
15036
15040
15044
15048
15052
15056
15060
15064
15068
15072
15076
15080
15084
15088
15092
15096
15100
15104
15108
15112
15116
15120
15124
15128
15132
15136
15140
15144
15148
15152
15156
15160
15164
15168
15172
15176
15180
15184
15188
15192
15196
15200
15204
15208
15212
15216
15220
15224
15228
15232
15236
15240
15244
15248
15252
15256
15260
15264
15268
15272
15276
15280
15284
15288
15292
15296
15300
15304
15308
15312
15316
15320
15324
15328
15332
15336
15340
15344
15348
15352
15356
15360
15364
15368
15372
15376
15380
15384
15388
15392
15396
15400
15404
15408
15412
15416
15420
15424
15428
15432
15436
15440
15444
15448
15452
15456
15460
15464
15468
15472
15476
15480
15484
15488
15492
15496
15500
15504
15508
15512
15516
15520
15524
15528
15532
15536
15540
15544
15548
15552
15556
15560
15564
15568
15572
15576
15580
15584
15588
15592
15596
15600
15604
15608
15612
15616
15620
15624
15628
15632
15636
15640
15644
15648
15652
15656
15660
15664
15668
15672
15676
15680
15684
15688
15692
15696
15700
15704
15708
15712
15716
15720
15724
15728
15732
15736
15740
15744
15748
15752
15756
15760
15764
15768
15772
15776
15780
15784
15788
15792
15796
15800
15804
15808
15812
15816
15820
15824
15828
15832
15836
15840
15844
15848
15852
15856
15860
15864
15868
15872
15876
15880
15884
15888
15892
15896
15900
15904
15908
15912
15916
15920
15924
15928
15932
15936
15940
15944
15948
15952
15956
15960
15964
15968
15972
15976
15980
15984
15988
15992
15996
16000
16004
16008
16012
16016
16020
16024
16028
16032
16036
16040
16044
16048
16052
16056
16060
16064
16068
16072
16076
16080
16084
16088
16092
16096
16100
16104
16108
16112
16116
16120
16124
16128
16132
16136
16140
16144
16148
16152
16156
16160
16164
16168
16172
16176
16180
16184
16188
16192
16196
16200
16204
16208
16212
16216
16220
16224
16228
16232
16236
16240
16244
16248
16252
16256
16260
16264
16268
16272
16276
16280
16284
16288
16292
16296
16300
16304
16308
16312
16316
16320
16324
16328
16332
16336
16340
16344
16348
16352
16356
16360
16364
16368
16372
16376
16380
16384
16388
16392
16396
16400
16404
16408
16412
16416
16420
16424
16428
16432
16436
16440
16444
16448
16452
16456
16460
16464
16468
16472
16476
16480
16484
16488
16492
16496
16500
16504
16508
16512
16516
16520
16524
16528
16532
16536
16540
16544
16548
16552
16556
16560
16564
16568
16572
16576
16580
16584
16588
16592
16596
16600
16604
16608
16612
16616
16620
16624
16628
16632
16636
16640
16644
16648
16652
16656
16660
16664
16668
16672
16676
16680
16684
16688
16692
16696
16700
16704
16708
16712
16716
16720
16724
16728
16732
16736
16740
16744
16748
16752
16756
16760
16764
16768
16772
16776
16780
16784
16788
16792
16796
16800
16804
16808
16812
16816
16820
16824
16828
16832
16836
16840
16844
16848
16852
16856
16860
16864
16868
16872
16876
16880
16884
16888
16892
16896
16900
16904
16908
16912
16916
16920
16924
16928
16932
16936
16940
16944
16948
16952
16956
16960
16964
16968
16972
16976
16980
16984
16988
16992
16996
17000
17004
17008
17012
17016
17020
17024
17028
17032
17036
17040
17044
17048
17052
17056
17060
17064
17068
17072
17076
17080
17084
17088
17092
17096
17100
17104
17108
17112
17116
17120
17124
17128
17132
17136
17140
17144
17148
17152
17156
17160
17164
17168
17172
17176
17180
17184
17188
17192
17196
17200
17204
17208
17212
17216
17220
17224
17228
17232
17236
17240
17244
17248
17252
17256
17260
17264
17268
17272
17276
17280
17284
17288
17292
17296
17300
17304
17308
17312
17316
17320
17324
17328
17332
17336
17340
17344
17348
17352
17356
17360
17364
17368
17372
17376
17380
17384
17388
17392
17396
17400
17404
17408
17412
17416
17420
17424
17428
17432
17436
17440
17444
17448
17452
17456
17460
17464
17468
17472
17476
17480
17484
17488
17492
17496
17500
17504
17508
17512
17516
17520
17524
17528
17532
17536
17540
17544
17548
17552
17556
17560
17564
17568
17572
17576
17580
17584
17588
17592
17596
17600
17604
17608
17612
17616
17620
17624
17628
17632
17636
17640
17644
17648
17652
17656
17660
17664
17668
17672
17676
17680
17684
17688
17692
17696
17700
17704
17708
17712
17716
17720
17724
17728
17732
17736
17740
17744
17748
17752
17756
17760
17764
17768
17772
17776
17780
17784
17788
17792
17796
17800
17804
17808
17812
17816
17820
17824
17828
17832
17836
17840
17844
17848
17852
17856
17860
17864
17868
17872
17876
17880
17884
17888
17892
17896
17900
17904
17908
17912
17916
17920
17924
17928
17932
17936
17940
17944
17948
17952
17956
17960
17964
17968
17972
17976
17980
17984
17988
17992
17996
18000
18004
18008
18012
18016
18020
18024
18028
18032
18036
18040
18044
18048
18052
18056
18060
18064
18068
18072
18076
18080
18084
18088
18092
18096
18100
18104
18108
18112
18116
18120
18124
18128
18132
18136
18140
18144
18148
18152
18156
18160
18164
18168
18172
18176
18180
18184
18188
18192
18196
18200
18204
18208
18212
18216
18220
18224
18228
18232
18236
18240
18244
18248
18252
18256
18260
18264
18268
18272
18276
18280
18284
18288
18292
18296
18300
18304
18308
18312
18316
18320
18324
18328
18332
18336
18340
18344
18348
18352
18356
18360
18364
18368
18372
18376
18380
18384
18388
18392
18396
18400
18404
18408
18412
18416
18420
18424
18428
18432
18436
18440
18444
18448
18452
18456
18460
18464
18468
18472
18476
18480
18484
18488
18492
18496
18500
18504
18508
18512
18516
18520
18524
18528
18532
18536
18540
18544
18548
18552
18556
18560
18564
18568
18572
18576
18580
18584
18588
18592
18596
18600
18604
18608
18612
18616
18620
18624
18628
18632
18636
18640
18644
18648
18652
18656
18660
18664
18668
18672
18676
18680
18684
18688
18692
18696
18700
18704
18708
18712
18716
18720
18724
18728
18732
18736
18740
18744
18748
18752
18756
18760
18764
18768
18772
18776
18780
18784
18788
18792
18796
18800
18804
18808
18812
18816
18820
18824
18828
18832
18836
18840
18844
18848
18852
18856
18860
18864
18868
18872
18876
18880
18884
18888
18892
18896
18900
18904
18908
18912
18916
18920
18924
18928
18932
18936
18940
18944
18948
18952
18956
18960
18964
18968
18972
18976
18980
18984
18988
18992
18996
19000
19004
19008
19012
19016
19020
19024
19028
19032
19036
19040
19044
19048
19052
19056
19060
19064
19068
19072
19076
19080
19084
19088
19092
19096
19100
19104
19108
19112
19116
19120
19124
19128
19132
19136
19140
19144
19148
19152
19156
19160
19164
19168
19172
19176
19180
19184
19188
19192
19196
19200
19204
19208
19212
19216
19220
19224
19228
19232
19236
19240
19244
19248
19252
19256
19260
19264
19268
19272
19276
19280
19284
19288
19292
19296
19300
19304
19308
19312
19316
19320
19324
19328
19332
19336
19340
19344
19348
19352
19356
19360
19364
19368
19372
19376
19380
19384
19388
19392
19396
19400
19404
19408
19412
19416
19420
19424
19428
19432
19436
19440
19444
19448
19452
19456
19460
19464
19468
19472
19476
19480
19484
19488
19492
19496
19500
19504
19508
19512
19516
19520
19524
19528
19532
19536
19540
19544
19548
19552
19556
19560
19564
19568
19572
19576
19580
19584
19588
19592
19596
19600
19604
19608
19612
19616
19620
19624
19628
19632
19636
19640
19644
19648
19652
19656
19660
19664
19668
19672
19676
19680
19684
19688
19692
19696
19700
19704
19708
19712
19716
19720
19724
19728
19732
19736
19740
19744
19748
19752
19756
19760
19764
19768
19772
19776
19780
19784
19788
19792
19796
19800
19804
19808
19812
19816
19820
19824
19828
19832
19836
19840
19844
19848
19852
19856
19860
19864
19868
19872
19876
19880
19884
19888
19892
19896
19900
19904
19908
19912
19916
19920
19924
19928
19932
19936
19940
19944
19948
19952
19956
19960
19964
19968
19972
19976
19980
19984
19988
19992
19996
20000
20004
20008
20012
20016
20020
20024
20028
20032
20036
20040
20044
20048
20052
20056
20060
20064
20068
20072
20076
20080
20084
20088
20092
20096
20100
20104
20108
20112
20116
20120
20124
20128
20132
20136
20140
20144
20148
20152
20156
20160
20164
20168
20172
20176
20180
20184
20188
20192
20196
20200
20204
20208
20212
20216
20220
20224
20228
20232
20236
20240
20244
20248
20252
20256
20260
20264
20268
20272
20276
20280
20284
20288
20292
20296
20300
20304
20308
20312
20316
20320
20324
20328
20332
20336
20340
20344
20348
20352
20356
20360
20364
20368
20372
20376
20380
20384
20388
20392
20396
20400
20404
20408
20412
20416
20420
20424
20428
20432
20436
20440
20444
20448
20452
20456
20460
20464
20468
20472
20476
20480
20484
20488
20492
20496
20500
20504
20508
20512
20516
20520
20524
20528
20532
20536
20540
20544
20548
20552
20556
20560
20564
20568
20572
20576
20580
20584
20588
20592
20596
20600
20604
20608
20612
20616
20620
20624
20628
20632
20636
20640
20644
20648
20652
20656
20660
20664
20668
20672
20676
20680
20684
20688
20692
20696
20700
20704
20708
20712
20716
20720
20724
20728
20732
20736
20740
20744
20748
20752
20756
20760
20764
20768
20772
20776
20780
20784
20788
20792
20796
20800
20804
20808
20812
20816
20820
20824
20828
20832
20836
20840
20844
20848
20852
20856
20860
20864
20868
20872
20876
20880
20884
20888
20892
20896
20900
20904
20908
20912
20916
20920
20924
20928
20932
20936
20940
20944
20948
20952
20956
20960
20964
20968
20972
20976
20980
20984
20988
20992
20996
21000
21004
21008
21012
21016
21020
21024
21028
21032
21036
21040
21044
21048
21052
21056
21060
21064
21068
21072
21076
21080
21084
21088
21092
21096
21100
21104
21108
21112
21116
21120
21124
21128
21132
21136
21140
21144
21148
21152
21156
21160
21164
21168
21172
21176
21180
21184
21188
21192
21196
21200
21204
21208
21212
21216
21220
21224
21228
21232
21236
21240
21244
21248
21252
21256
21260
21264
21268
21272
21276
21280
21284
21288
21292
21296
21300
21304
21308
21312
21316
21320
21324
21328
21332
21336
21340
21344
21348
21352
21356
21360
21364
21368
21372
21376
21380
21384
21388
21392
21396
21400
21404
21408
21412
21416
21420
21424
21428
21432
21436
21440
21444
21448
21452
21456
21460
21464
21468
21472
21476
21480
21484
21488
21492
21496
21500
21504
21508
21512
21516
21520
21524
21528
21532
21536
21540
21544
21548
21552
21556
21560
21564
21568
21572
21576
21580
21584
21588
21592
21596
21600
21604
21608
21612
21616
21620
21624
21628
21632
21636
21640
21644
21648
21652
21656
21660
21664
21668
21672
21676
21680
21684
21688
21692
21696
21700
21704
21708
21712
21716
21720
21724
21728
21732
21736
21740
21744
21748
21752
21756
21760
21764
21768
21772
21776
21780
21784
21788
21792
21796
21800
21804
21808
21812
21816
21820
21824
21828
21832
21836
21840
21844
21848
21852
21856
21860
21864
21868
21872
21876
21880
21884
21888
21892
21896
21900
21904
21908
21912
21916
21920
21924
21928
21932
21936
21940
21944
21948
21952
21956
21960
21964
21968
21972
21976
21980
21984
21988
21992
21996
22000
22004
22008
22012
22016
22020
22024
22028
22032
22036
22040
22044
22048
22052
22056
22060
22064
22068
22072
22076
22080
22084
22088
22092
22096
22100
22104
22108
22112
22116
22120
22124
22128
22132
22136
22140
22144
22148
22152
22156
22160
22164
22168
22172
22176
22180
22184
22188
22192
22196
22200
22204
22208
22212
22216
22220
22224
22228
22232
22236
22240
22244
22248
22252
22256
22260
22264
22268
22272
22276
22280
22284
22288
22292
22296
22300
22304
22308
22312
22316
22320
22324
22328
22332
22336
22340
22344
22348
22352
22356
22360
22364
22368
22372
22376
22380
22384
22388
22392
22396
22400
22404
22408
22412
22416
22420
22424
22428
22432
22436
22440
22444
22448
22452
22456
22460
22464
22468
22472
22476
22480
22484
22488
22492
22496
22500
22504
22508
22512
22516
22520
22524
22528
22532
22536
22540
22544
22548
22552
22556
22560
22564
22568
22572
22576
22580
22584
22588
22592
22596
22600
22604
22608
22612
22616
22620
22624
22628
22632
22636
22640
22644
22648
22652
22656
22660
22664
22668
22672
22676
22680
22684
22688
22692
22696
22700
22704
22708
22712
22716
22720
</DataArray>
<DataArray type="Int64" Name="types" format="ascii">
9
9
9
9
9
9
9
9
9
9
9
9
9
9
9
9
9
9
9
9
9
9
9
9
9
9
9
9
9
9
9
9
9
9
9
9
9
9
9
9
9
9
9
9
9
9
9
9
9
9
9
9
9
9
9
9
9
9
9
9
9
9
9
9
9
9
9
9
9
9
9
9
9
9
9
9
9
9
9
9
9
9
9
9
9
9
9
9
9
9
9
9
9
9
9
9
9
9
9
9
9
9
9
9
9
9
9
9
9
9
9
9
9
9
9
9
9
9
9
9
9
9
9
9
9
9
9
9
9
9
9
9
9
9
9
9
9
9
9
9
9
9
9
9
9
9
9
9
9
9
9
9
9
9
9
9
9
9
9
9
9
9
9
9
9
9
9
9
9
9
9
9
9
9
9
9
9
9
9
9
9
9
9
9
9
9
9
9
9
9
9
9
9
9
9
9
9
9
9
9
9
9
9
9
9
9
9
9
9
9
9
9
9
9
9
9
9
9
9
9
9
9
9
9
9
9
9
9
9
9
9
9
9
9
9
9
9
9
9
9
9
9
9
9
9
9
9
9
9
9
9
9
9
9
9
9
9
9
9
9
9
9
9
9
9
9
9
9
9
9
9
9
9
9
9
9
9
9
9
9
9
9
9
9
9
9
9
9
9
9
9
9
9
9
9
9
9
9
9
9
9
9
9
9
9
9
9
9
9
9
9
9
9
9
9
9
9
9
9
9
9
9
9
9
9
9
9
9
9
9
9
9
9
9
9
9
9
9
9
9
9
9
9
9
9
9
9
9
9
9
9
9
9
9
9
9
9
9
9
9
9
9
9
9
9
9
9
9
9
9
9
9
9
9
9
9
9
9
9
9
9
9
9
9
9
9
9
9
9
9
9
9
9
9
9
9
9
9
9
9
9
9
9
9
9
9
9
9
9
9
9
9
9
9
9
9
9
9
9
9
9
9
9
9
9
9
9
9
9
9
9
9
9
9
9
9
9
9
9
9
9
9
9
9
9
9
9
9
9
9
9
9
9
9
9
9
9
9
9
9
9
9
9
9
9
9
9
9
9
9
9
9
9
9
9
9
9
9
9
9
9
9
9
9
9
9
9
9
9
9
9
9
9
9
9
9
9
9
9
9
9
9
9
9
9
9
9
9
9
9
9
9
9
9
9
9
9
9
9
9
9
9
9
9
9
9
9
9
9
9
9
9
9
9
9
9
9
9
9
9
9
9
9
9
9
9
9
9
9
9
9
9
9
9
9
9
9
9
9
9
9
9
9
9
9
9
9
9
9
9
9
9
9
9
9
9
9
9
9
9
9
9
9
9
9
9
9
9
9
9
9
9
9
9
9
9
9
9
9
9
9
9
9
9
9
9
9
9
9
9
9
9
9
9
9
9
9
9
9
9
9
9
9
9
9
9
9
9
9
9
9
9
9
9
9
9
9
9
9
9
9
9
9
9
9
9
9
9
9
9
9
9
9
9
9
9
9
9
9
9
9
9
9
9
9
9
9
9
9
9
9
9
9
9
9
9
9
9
9
9
9
9
9
9
9
9
9
9
9
9
9
9
9
9
9
9
9
9
9
9
9
9
9
9
9
9
9
9
9
9
9
9
9
9
9
9
9
9
9
9
9
9
9
9
9
9
9
9
9
9
9
9
9
9
9
9
9
9
9
9
9
9
9
9
9
9
9
9
9
9
9
9
9
9
9
9
9
9
9
9
9
9
9
9
9
9
9
9
9
9
9
9
9
9
9
9
9
9
9
9
9
9
9
9
9
9
9
9
9
9
9
9
9
9
9
9
9
9
9
9
9
9
9
9
9
9
9
9
9
9
9
9
9
9
9
9
9
9
9
9
9
9
9
9
9
9
9
9
9
9
9
9
9
9
9
9
9
9
9
9
9
9
9
9
9
9
9
9
9
9
9
9
9
9
9
9
9
9
9
9
9
9
9
9
9
9
9
9
9
9
9
9
9
9
9
9
9
9
9
9
9
9
9
9
9
9
9
9
9
9
9
9
9
9
9
9
9
9
9
9
9
9
9
9
9
9
9
9
9
9
9
9
9
9
9
9
9
9
9
9
9
9
9
9
9
9
9
9
9
9
9
9
9
9
9
9
9
9
9
9
9
9
9
9
9
9
9
9
9
9
9
9
9
9
9
9
9
9
9
9
9
9
9
9
9
9
9
9
9
9
9
9
9
9
9
9
9
9
9
9
9
9
9
9
9
9
9
9
9
9
9
9
9
9
9
9
9
9
9
9
9
9
9
9
9
9
9
9
9
9
9
9
9
9
9
9
9
9
9
9
9
9
9
9
9
9
9
9
9
9
9
9
9
9
9
9
9
9
9
9
9
9
9
9
9
9
9
9
9
9
9
9
9
9
9
9
9
9
9
9
9
9
9
9
9
9
9
9
9
9
9
9
9
9
9
9
9
9
9
9
9
9
9
9
9
9
9
9
9
9
9
9
9
9
9
9
9
9
9
9
9
9
9
9
9
9
9
9
9
9
9
9
9
9
9
9
9
9
9
9
9
9
9
9
9
9
9
9
9
9
9
9
9
9
9
9
9
9
9
9
9
9
9
9
9
9
9
9
9
9
9
9
9
9
9
9
9
9
9
9
9
9
9
9
9
9
9
9
9
9
9
9
9
9
9
9
9
9
9
9
9
9
9
9
9
9
9
9
9
9
9
9
9
9
9
9
9
9
9
9
9
9
9
9
9
9
9
9
9
9
9
9
9
9
9
9
9
9
9
9
9
9
9
9
9
9
9
9
9
9
9
9
9
9
9
9
9
9
9
9
9
9
9
9
9
9
9
9
9
9
9
9
9
9
9
9
9
9
9
9
9
9
9
9
9
9
9
9
9
9
9
9
9
9
9
9
9
9
9
9
9
9
9
9
9
9
9
9
9
9
9
9
9
9
9
9
9
9
9
9
9
9
9
9
9
9
9
9
9
9
9
9
9
9
9
9
9
9
9
9
9
9
9
9
9
9
9
9
9
9
9
9
9
9
9
9
9
9
9
9
9
9
9
9
9
9
9
9
9
9
9
9
9
9
9
9
9
9
9
9
9
9
9
9
9
9
9
9
9
9
9
9
9
9
9
9
9
9
9
9
9
9
9
9
9
9
9
9
9
9
9
9
9
9
9
9
9
9
9
9
9
9
9
9
9
9
9
9
9
9
9
9
9
9
9
9
9
9
9
9
9
9
9
9
9
9
9
9
9
9
9
9
9
9
9
9
9
9
9
9
9
9
9
9
9
9
9
9
9
9
9
9
9
9
9
9
9
9
9
9
9
9
9
9
9
9
9
9
9
9
9
9
9
9
9
9
9
9
9
9
9
9
9
9
9
9
9
9
9
9
9
9
9
9
9
9
9
9
9
9
9
9
9
9
9
9
9
9
9
9
9
9
9
9
9
9
9
9
9
9
9
9
9
9
9
9
9
9
9
9
9
9
9
9
9
9
9
9
9
9
9
9
9
9
9
9
9
9
9
9
9
9
9
9
9
9
9
9
9
9
9
9
9
9
9
9
9
9
9
9
9
9
9
9
9
9
9
9
9
9
9
9
9
9
9
9
9
9
9
9
9
9
9
9
9
9
9
9
9
9
9
9
9
9
9
9
9
9
9
9
9
9
9
9
9
9
9
9
9
9
9
9
9
9
9
9
9
9
9
9
9
9
9
9
9
9
9
9
9
9
9
9
9
9
9
9
9
9
9
9
9
9
9
9
9
9
9
9
9
9
9
9
9
9
9
9
9
9
9
9
9
9
9
9
9
9
9
9
9
9
9
9
9
9
9
9
9
9
9
9
9
9
9
9
9
9
9
9
9
9
9
9
9
9
9
9
9
9
9
9
9
9
9
9
9
9
9
9
9
9
9
9
9
9
9
9
9
9
9
9
9
9
9
9
9
9
9
9
9
9
9
9
9
9
9
9
9
9
9
9
9
9
9
9
9
9
9
9
9
9
9
9
9
9
9
9
9
9
9
9
9
9
9
9
9
9
9
9
9
9
9
9
9
9
9
9
9
9
9
9
9
9
9
9
9
9
9
9
9
9
9
9
9
9
9
9
9
9
9
9
9
9
9
9
9
9
9
9
9
9
9
9
9
9
9
9
9
9
9
9
9
9
9
9
9
9
9
9
9
9
9
9
9
9
9
9
9
9
9
9
9
9
9
9
9
9
9
9
9
9
9
9
9
9
9
9
9
9
9
9
9
9
9
9
9
9
9
9
9
9
9
9
9
9
9
9
9
9
9
9
9
9
9
9
9
9
9
9
9
9
9
9
9
9
9
9
9
9
9
9
9
9
9
9
9
9
9
9
9
9
9
9
9
9
9
9
9
9
9
9
9
9
9
9
9
9
9
9
9
9
9
9
9
9
9
9
9
9
9
9
9
9
9
9
9
9
9
9
9
9
9
9
9
9
9
9
9
9
9
9
9
9
9
9
9
9
9
9
9
9
9
9
9
9
9
9
9
9
9
9
9
9
9
9
9
9
9
9
9
9
9
9
9
9
9
9
9
9
9
9
9
9
9
9
9
9
9
9
9
9
9
9
9
9
9
9
9
9
9
9
9
9
9
9
9
9
9
9
9
9
9
9
9
9
9
9
9
9
9
9
9
9
9
9
9
9
9
9
9
9
9
9
9
9
9
9
9
9
9
9
9
9
9
9
9
9
9
9
9
9
9
9
9
9
9
9
9
9
9
9
9
9
9
9
9
9
9
9
9
9
9
9
9
9
9
9
9
9
9
9
9
9
9
9
9
9
9
9
9
9
9
9
9
9
9
9
9
9
9
9
9
9
9
9
9
9
9
9
9
9
9
9
9
9
9
9
9
9
9
9
9
9
9
9
9
9
9
9
9
9
9
9
9
9
9
9
9
9
9
9
9
9
9
9
9
9
9
9
9
9
9
9
9
9
9
9
9
9
9
9
9
9
9
9
9
9
9
9
9
9
9
9
9
9
9
9
9
9
9
9
9
9
9
9
9
9
9
9
9
9
9
9
9
9
9
9
9
9
9
9
9
9
9
9
9
9
9
9
9
9
9
9
9
9
9
9
9
9
9
9
9
9
9
9
9
9
9
9
9
9
9
9
9
9
9
9
9
9
9
9
9
9
9
9
9
9
9
9
9
9
9
9
9
9
9
9
9
9
9
9
9
9
9
9
9
9
9
9
9
9
9
9
9
9
9
9
9
9
9
9
9
9
9
9
9
9
9
9
9
9
9
9
9
9
9
9
9
9
9
9
9
9
9
9
9
9
9
9
9
9
9
9
9
9
9
9
9
9
9
9
9
9
9
9
9
9
9
9
9
9
9
9
9
9
9
9
9
9
9
9
9
9
9
9
9
9
9
9
9
9
9
9
9
9
9
9
9
9
9
9
9
9
9
9
9
9
9
9
9
9
9
9
9
9
9
9
9
9
9
9
9
9
9
9
9
9
9
9
9
9
9
9
9
9
9
9
9
9
9
9
9
9
9
9
9
9
9
9
9
9
9
9
9
9
9
9
9
9
9
9
9
9
9
9
9
9
9
9
9
9
9
9
9
9
9
9
9
9
9
9
9
9
9
9
9
9
9
9
9
9
9
9
9
9
9
9
9
9
9
9
9
9
9
9
9
9
9
9
9
9
9
9
9
9
9
9
9
9
9
9
9
9
9
9
9
9
9
9
9
9
9
9
9
9
9
9
9
9
9
9
9
9
9
9
9
9
9
9
9
9
9
9
9
9
9
9
9
9
9
9
9
9
9
9
9
9
9
9
9
9
9
9
9
9
9
9
9
9
9
9
9
9
9
9
9
9
9
9
9
9
9
9
9
9
9
9
9
9
9
9
9
9
9
9
9
9
9
9
9
9
9
9
9
9
9
9
9
9
9
9
9
9
9
9
9
9
9
9
9
9
9
9
9
9
9
9
9
9
9
9
9
9
9
9
9
9
9
9
9
9
9
9
9
9
9
9
9
9
9
9
9
9
9
9
9
9
9
9
9
9
9
9
9
9
9
9
9
9
9
9
9
9
9
9
9
9
9
9
9
9
9
9
9
9
9
9
9
9
9
9
9
9
9
9
9
9
9
9
9
9
9
9
9
9
9
9
9
9
9
9
9
9
9
9
9
9
9
9
9
9
9
9
9
9
9
9
9
9
9
9
9
9
9
9
9
9
9
9
9
9
9
9
9
9
9
9
9
9
9
9
9
9
9
9
9
9
9
9
9
9
9
9
9
9
9
9
9
9
9
9
9
9
9
9
9
9
9
9
9
9
9
9
9
9
9
9
9
9
9
9
9
9
9
9
9
9
9
9
9
9
9
9
9
9
9
9
9
9
9
9
9
9
9
9
9
9
9
9
9
9
9
9
9
9
9
9
9
9
9
9
9
9
9
9
9
9
9
9
9
9
9
9
9
9
9
9
9
9
9
9
9
9
9
9
9
9
9
9
9
9
9
9
9
9
9
9
9
9
9
9
9
9
9
9
9
9
9
9
9
9
9
9
9
9
9
9
9
9
9
9
9
9
9
9
9
9
9
9
9
9
9
9
9
9
9
9
9
9
9
9
9
9
9
9
9
9
9
9
9
9
9
9
9
9
9
9
9
9
9
9
9
9
9
9
9
9
9
9
9
9
9
9
9
9
9
9
9
9
9
9
9
9
9
9
9
9
9
9
9
9
9
9
9
9
9
9
9
9
9
9
9
9
9
9
9
9
9
9
9
9
9
9
9
9
9
9
9
9
9
9
9
9
9
9
9
9
9
9
9
9
9
9
9
9
9
9
9
9
9
9
9
9
9
9
9
9
9
9
9
9
9
9
9
9
9
9
9
9
9
9
9
9
9
9
9
9
9
9
9
9
9
9
9
9
9
9
9
9
9
9
9
9
9
9
9
9
9
9
9
9
9
9
9
9
9
9
9
9
9
9
9
9
9
9
9
9
9
9
9
9
9
9
9
9
9
9
9
9
9
9
9
9
9
9
9
9
9
9
9
9
9
9
9
9
9
9
9
9
9
9
9
9
9
9
9
9
9
9
9
9
9
9
9
9
9
9
9
9
9
9
9
9
9
9
9
9
9
9
9
9
9
9
9
9
9
9
9
9
9
9
9
9
9
9
9
9
9
9
9
9
9
9
9
9
9
9
9
9
9
9
9
9
9
9
9
9
9
9
9
9
9
9
9
9
9
9
9
9
9
9
9
9
9
9
9
9
9
9
9
9
9
9
9
9
9
9
9
9
9
9
9
9
9
9
9
9
9
9
9
9
9
9
9
9
9
9
9
9
9
9
9
9
9
9
9
9
9
9
9
9
9
9
9
9
9
9
9
9
9
9
9
9
9
9
9
9
9
9
9
9
9
9
9
9
9
9
9
9
9
9
9
9
9
9
9
9
9
9
9
9
9
9
9
9
9
9
9
9
9
9
9
9
9
9
9
9
9
9
9
9
9
9
9
9
9
9
9
9
9
9
9
9
9
9
9
9
9
9
9
9
9
9
9
9
9
9
9
9
9
9
9
9
9
9
9
9
9
9
9
9
9
9
9
9
9
9
9
9
9
9
9
9
9
9
9
9
9
9
9
9
9
9
9
9
9
9
9
9
9
9
9
9
9
9
9
9
9
9
9
9
9
9
9
9
9
9
9
9
9
9
9
9
9
9
9
9
9
9
9
9
9
9
9
9
9
9
9
9
9
9
9
9
9
9
9
9
9
9
9
9
9
9
9
9
9
9
9
9
9
9
9
9
9
9
9
9
9
9
9
9
9
9
9
9
9
9
9
9
9
9
9
9
9
9
9
9
9
9
9
9
9
9
9
9
9
9
9
9
9
9
9
9
9
9
9
9
9
9
9
9
9
9
9
9
9
9
9
9
9
9
9
9
9
9
9
9
9
9
9
9
9
9
9
9
9
9
9
9
9
9
9
9
9
9
9
9
9
9
9
9
9
9
9
9
9
9
9
9
9
9
9
9
9
9
9
9
9
9
9
9
9
9
9
9
9
9
9
9
9
9
9
9
9
9
9
9
9
9
9
9
9
9
9
9
9
9
9
9
9
9
9
9
9
9
9
9
9
9
9
9
9
9
9
9
9
9
9
9
9
9
9
9
9
9
9
9
9
9
9
9
9
9
9
9
9
9
9
9
9
9
9
9
9
9
9
9
9
9
9
9
9
9
9
9
9
9
9
9
9
9
9
9
9
9
9
9
9
9
9
9
9
9
9
9
9
9
9
9
9
9
9
9
9
9
9
9
9
9
9
9
9
9
9
9
9
9
9
9
9
9
9
9
9
9
9
9
9
9
9
9
9
9
9
9
9
9
9
9
9
9
9
9
9
9
9
9
9
9
9
9
9
9
9
9
9
9
9
9
9
9
9
9
9
9
9
9
9
9
9
9
9
9
9
9
9
9
9
9
9
9
9
9
9
9
9
9
9
9
9
9
9
9
9
9
9
9
9
9
9
9
9
9
9
9
9
9
9
9
9
9
9
9
9
9
9
9
9
9
9
9
9
9
9
9
9
9
9
9
9
9
9
9
9
9
9
9
9
9
9
9
9
9
9
9
9
9
9
9
9
9
9
9
9
9
9
9
9
9
9
9
9
9
9
9
9
9
9
9
9
9
9
9
9
9
9
9
9
9
9
9
9
9
9
9
9
9
9
9
9
9
9
9
9
9
9
9
9
9
9
9
9
9
9
9
9
9
9
9
9
9
9
9
9
9
9
9
9
9
9
9
9
9
9
9
9
9
9
9
9
9
9
9
9
9
9
9
9
9
9
9
9
9
9
9
9
9
9
9
9
9
9
9
9
9
9
9
9
9
9
9
9
9
9
9
9
9
9
9
9
9
9
9
9
9
9
9
9
9
9
9
9
9
9
9
9
9
9
9
9
9
9
9
9
9
9
9
9
9
9
9
9
9
9
9
9
9
9
9
9
9
9
9
9
9
9
9
9
9
9
9
9
9
9
9
9
9
9
9
9
9
9
9
9
9
9
9
9
9
9
9
9
9
9
9
9
9
9
9
9
9
9
9
9
9
9
9
9
9
9
9
9
9
9
9
9
9
9
9
9
9
9
9
9
9
9
9
9
9
9
9
9
9
9
9
9
9
9
9
9
9
9
9
9
9
9
9
9
9
9
9
9
9
9
9
9
9
9
9
9
9
9
9
9
9
9
9
9
9
9
9
9
9
9
9
9
9
9
9
9
9
9
9
9
9
9
9
9
9
9
9
9
9
9
9
9
9
9
9
9
9
9
9
9
9
9
9
9
9
9
9
9
9
9
9
9
9
9
9
9
9
9
9
9
9
9
9
9
9
9
9
9
9
9
9
9
9
9
9
9
9
9
9
9
9
9
9
9
9
9
9
9
9
9
9
9
9
9
9
9
9
9
9
9
9
9
9
9
9
9
9
9
9
9
9
9
9
9
9
9
9
9
9
9
9
9
9
9
9
9
9
9
9
9
9
9
9
9
9
9
9
9
9
9
9
9
9
9
9
9
9
9
9
9
9
9
9
9
9
9
9
9
9
9
9
9
9
9
9
9
9
9
9
9
9
9
9
9
9
9
9
9
9
9
9
9
9
9
9
9
9
9
9
9
9
9
9
9
9
9
9
9
9
9
9
9
9
9
9
9
9
9
9
9
9
9
9
9
9
9
9
9
9
9
9
9
9
9
9
9
9
9
9
9
9
9
9
9
9
9
9
9
9
9
9
9
9
9
9
9
9
9
9
9
9
9
9
9
9
9
9
9
9
9
9
9
9
9
9
9
9
9
9
9
9
9
9
9
9
9
9
9
9
9
9
9
9
9
9
9
9
9
9
9
9
9
9
9
9
9
9
9
9
9
9
9
9
9
9
9
9
9
9
9
9
9
9
9
9
9
9
9
9
9
9
9
9
9
9
9
9
9
9
9
9
9
9
9
9
9
9
9
9
9
9
9
9
9
9
9
9
9
9
9
9
9
9
9
9
9
9
9
9
9
9
9
9
9
9
9
9
9
9
9
9
9
9
9
9
9
9
9
9
9
9
9
9
9
9
9
9
9
9
9
9
9
9
9
9
9
9
9
9
9
9
9
9
9
9
9
9
9
9
9
9
9
9
9
9
9
9
9
9
9
9
9
9
9
9
9
9
9
9
9
9
9
9
9
9
9
9
9
9
9
9
9
9
9
9
9
9
9
9
9
9
9
9
9
9
9
9
9
9
9
9
9
9
9
9
9
9
9
9
9
9
9
9
9
9
9
9
9
9
9
9
9
9
9
9
9
9
9
9
9
9
9
9
9
9
9
9
9
9
9
9
9
9
9
9
9
9
9
9
9
9
9
9
9
9
9
9
9
9
9
9
9
9
9
9
9
9
9
9
9
9
9
9
9
9
9
9
9
9
9
9
9
9
9
9
9
9
9
9
9
9
9
9
9
9
9
9
9
9
9
9
9
9
9
9
9
9
9
9
9
9
9
9
9
9
9
9
9
9
9
9
9
9
9
9
9
9
9
9
9
9
9
9
9
9
9
9
9
9
9
9
9
9
9
9
9
9
9
9
9
9
9
9
9
9
9
9
9
9
9
9
9
9
9
9
9
9
9
9
9
9
9
9
9
9
9
9
9
9
9
9
9
9
9
9
9
9
9
9
9
9
9
9
9
9
9
9
9
9
9
9
9
9
9
9
9
9
9
9
9
9
9
9
9
9
9
9
9
9
9
9
9
9
9
9
9
9
9
9
9
9
9
9
9
9
9
9
9
9
9
9
9
9
9
9
9
9
9
9
9
9
9
9
9
9
9
9
9
9
9
9
9
9
9
9
9
9
9
9
9
9
9
9
9
9
9
9
9
9
9
9
9
9
9
9
9
9
9
9
9
9
9
9
9
9
9
9
9
9
9
9
9
9
9
9
9
9
9
9
9
9
9
9
9
9
9
9
9
9
9
9
9
9
9
9
9
9
9
9
9
9
9
9
9
9
9
9
9
9
9
9
9
9
9
9
9
9
9
9
9
9
9
9
9
9
9
9
9
9
9
9
9
9
9
9
9
9
9
9
9
9
9
9
9
9
9
9
9
9
9
9
9
9
9
9
9
9
9
9
9
9
9
9
9
9
9
9
9
9
9
9
9
9
9
9
9
9
9
9
9
9
9
9
9
9
9
9
9
9
9
9
9
9
9
9
9
9
9
9
9
9
9
9
9
9
9
9
9
9
9
9
9
9
9
9
9
9
9
9
9
9
9
9
9
9
9
9
9
9
9
9
9
9
9
9
9
9
9
9
9
9
9
9
9
9
9
9
9
9
9
9
9
9
9
9
9
9
9
9
9
9
9
9
9
9
9
9
9
9
9
9
9
9
9
9
9
9
9
9
9
9
9
9
9
9
9
9
9
9
9
9
9
9
9
9
9
9
9
9
9
9
9
9
9
9
9
9
9
9
9
9
9
9
9
9
9
9
9
9
9
9
9
9
9
9
9
9
9
9
9
9
9
9
9
9
9
9
9
9
9
9
9
9
9
9
9
9
9
9
9
9
9
9
9
9
9
9
9
9
9
9
9
9
9
9
9
9
9
9
9
9
9
9
9
9
9
9
9
9
9
9
9
9
9
9
9
9
9
9
9
9
9
9
9
9
9
9
9
9
9
9
9
9
9
9
9
9
9
9
9
9
9
9
9
9
9
9
9
9
9
9
9
9
9
9
9
9
9
9
9
9
9
9
9
9
9
9
9
9
9
9
9
9
9
9
9
9
9
9
9
9
9
9
9
9
9
9
9
9
9
9
9
9
9
9
9
9
9
9
9
9
9
9
9
9
9
9
9
9
9
9
9
9
9
9
9
9
9
9
9
9
9
9
9
9
9
9
9
9
9
9
9
9
9
9
9
9
9
9
9
9
9
9
9
9
9
9
9
9
9
9
9
9
9
9
9
9
9
9
9
9
9
9
9
9
9
9
9
9
9
9
9
9
9
9
9
9
9
9
9
9
9
9
9
9
9
9
9
9
9
9
9
9
9
9
9
9
9
9
9
9
9
9
9
9
9
9
9
9
9
9
9
9
9
9
9
9
9
9
9
9
9
9
9
9
9
9
9
9
9
9
9
9
9
9
9
9
9
9
9
9
9
9
9
9
9
9
9
9
9
9
9
9
9
9
9
9
9
9
9
9
9
9
9
9
9
9
9
9
9
9
9
9
9
9
9
9
9
9
9
9
9
9
9
9
9
9
9
9
9
9
9
9
9
9
9
9
9
9
9
9
9
9
9
9
9
9
9
9
9
9
9
9
9
9
9
9
9
9
9
9
9
9
9
9
9
9
9
9
9
9
9
9
9
9
9
9
9
9
9
9
9
9
9
9
9
9
9
9
9
9
9
9
9
9
9
9
9
9
9
9
9
9
9
9
9
9
9
9
9
9
9
9
9
9
9
9
9
9
9
9
9
9
9
9
9
9
9
9
9
9
9
9
9
9
9
9
9
9
9
9
9
9
9
9
9
9
9
9
9
9
9
9
9
9
9
9
9
9
9
9
9
9
9
9
9
9
9
9
9
9
9
9
9
9
9
9
9
9
9
9
9
9
9
9
9
9
9
9
9
9
9
9
9
9
9
9
9
9
9
9
9
9
9
9
9
9
9
9
9
9
9
9
9
9
9
9
9
9
9
9
9
9
9
9
9
9
9
9
9
9
9
9
9
9
9
9
9
9
9
9
9
9
9
9
9
9
9
9
9
9
9
9
9
9
9
9
9
9
9
9
9
9
9
9
9
9
9
9
9
9
9
9
9
9
9
9
9
9
9
9
9
9
9
9
9
9
9
9
9
9
9
9
9
9
9
9
</DataArray>
</Cells>
<PointData Vectors="'U'">
<DataArray type="Float64" Name="U" NumberOfComponents="2" ComponentName0="U1" ComponentName1="U2" format="ascii">
-0.1790024915569E-37 -0.4489639959441E-37
-0.3164317646871E-37 -0.2280076904198E-37
-0.4789715385212E-37  0.1189974940577E-36
-0.1245798676398E+00 -0.8331947707732E-01
-0.1110133727147E+00 -0.3275461386248E-01
-0.1076745925920E+00  0.2271865556907E-01
-0.1155533608448E+00  0.6489278059064E-01
-0.1455183594588E+01 -0.2900377837360E+00
-0.1630347647865E+01  0.7855792672864E-01
-0.1219144744821E+01 -0.1225977742267E+00
-0.1310946449850E+01  0.6216799326498E-03
-0.1503176197322E-36 -0.3852155277871E-36
-0.1465396644359E-36 -0.3490795348102E-36
-0.1414335671953E-36 -0.3224653287630E-36
-0.1361725481634E-36 -0.3012448510146E-36
-0.1310793241484E-36 -0.2834789956245E-36
-0.1262439704977E-36 -0.2680936216356E-36
-0.1216787343660E-36 -0.2544353393786E-36
-0.1173684295892E-36 -0.2420807933983E-36
-0.1132892622594E-36 -0.2307422095278E-36
-0.1094162124179E-36 -0.2202162387315E-36
-0.1057258473359E-36 -0.2103544467414E-36
-0.1021972332642E-36 -0.2010454389622E-36
-0.9881205688915E-37 -0.1922035900918E-36
-0.9555443672235E-37 -0.1837616911584E-36
-0.9241063387516E-37 -0.1756660076637E-36
-0.8936875162656E-37 -0.1678728701203E-36
-0.8641845923720E-37 -0.1603462664990E-36
-0.8355075133691E-37 -0.1530561065192E-36
-0.8075774377443E-37 -0.1459769468126E-36
-0.7803250267706E-37 -0.1390870388001E-36
-0.7536890218320E-37 -0.1323676068105E-36
-0.7276150625964E-37 -0.1258022931533E-36
-0.7020547050528E-37 -0.1193767264326E-36
-0.6769646037784E-37 -0.1130781817684E-36
-0.6523058292255E-37 -0.1068953107067E-36
-0.6280432958812E-37 -0.1008179245114E-36
-0.6041452816743E-37 -0.9483681880828E-37
-0.5805830227155E-37 -0.8894363059198E-37
-0.5573303704720E-37 -0.8313072079151E-37
-0.5343635009228E-37 -0.7739107719817E-37
-0.5116606672086E-37 -0.7171823374088E-37
-0.4892019888737E-37 -0.6610620298103E-37
-0.4669692720816E-37 -0.6054941936738E-37
-0.4449458562192E-37 -0.5504269130033E-37
-0.4231164831512E-37 -0.4958116044645E-37
-0.4014671860768E-37 -0.4416026704641E-37
-0.3799851955134E-37 -0.3877572019584E-37
-0.3586588604083E-37 -0.3342347226306E-37
-0.3374775827863E-37 -0.2809969675305E-37
-0.2955127664530E-37 -0.1752324949657E-37
-0.2747128757097E-37 -0.1226386856337E-37
-0.2540252866358E-37 -0.7019513467901E-38
-0.2334440893729E-37 -0.1787216204542E-38
-0.2129642696820E-37  0.3435857472660E-38
-0.1925817192154E-37  0.8652418329678E-38
-0.1722932570699E-37  0.1386506346648E-37
-0.1520966636139E-37  0.1907628593248E-37
-0.1319907279719E-37  0.2428848442624E-37
-0.1119753110102E-37  0.2950397339273E-37
-0.9205142624248E-38  0.3472499387958E-37
-0.7222134178531E-38  0.3995372558588E-37
-0.5248870740308E-38  0.4519230064026E-37
-0.3285871185384E-38  0.5044281979118E-37
-0.1333827728229E-38  0.5570737189867E-37
 0.6063700561166E-39  0.6098805790777E-37
 0.2533605476488E-38  0.6628702089806E-37
 0.4446497713888E-38  0.7160648439699E-37
 0.6343355518806E-38  0.7694880200453E-37
 0.8222118866025E-38  0.8231652263934E-37
 0.1008028479804E-37  0.8771247760843E-37
 0.1191481223653E-37  0.9313989848017E-37
 0.1372199836078E-37  0.9860257928778E-37
 0.1549731602337E-37  0.1041051032746E-36
 0.1723519682077E-37  0.1096531656252E-36
 0.1892873709773E-37  0.1152540418269E-36
 0.2056929277096E-37  0.1209172822670E-36
 0.2214591115003E-37  0.1266557678239E-36
 0.2364452063540E-37  0.1324873594900E-36
 0.2504675863761E-37  0.1384375611179E-36
 0.2632826445283E-37  0.1445439844307E-36
 0.2745621947161E-37  0.1508641856874E-36
 0.2838599988588E-37  0.1574902072997E-36
 0.2905752455747E-37  0.1645774958215E-36
 0.2939537249032E-37  0.1724076966436E-36
 0.2933254599004E-37  0.1815415025397E-36
 0.2895333173644E-37  0.1932514712386E-36
 0.2926257421477E-37  0.2110222884381E-36
 0.3678506990507E-37  0.2473041353739E-36
-0.1228944125278E+00 -0.7709378394232E-01
-0.1215928057053E+00 -0.7260344508762E-01
-0.1204909735903E+00 -0.6895407699583E-01
-0.1195446004447E+00 -0.6577827378893E-01
-0.1187121677719E+00 -0.6290903535153E-01
-0.1179637237081E+00 -0.6025682014386E-01
-0.1172784297183E+00 -0.5776899675344E-01
-0.1166420898620E+00 -0.5541215157425E-01
-0.1160450056717E+00 -0.5316367841328E-01
-0.1154804660251E+00 -0.5100743992156E-01
-0.1149437433380E+00 -0.4893139069245E-01
-0.1144314429595E+00 -0.4692620127120E-01
-0.1139410826151E+00 -0.4498442097028E-01
-0.1134708182133E+00 -0.4309994500737E-01
-0.1130192624457E+00 -0.4126766156424E-01
-0.1125853630680E+00 -0.3948320993402E-01
-0.1121683209705E+00 -0.3774280994968E-01
-0.1117675394875E+00 -0.3604314000678E-01
-0.1113825977564E+00 -0.3438124140272E-01
-0.1106586111486E+00 -0.3116057625030E-01
-0.1103187350954E+00 -0.2959635556566E-01
-0.1099934125477E+00 -0.2806023981392E-01
-0.1096825211163E+00 -0.2655032154441E-01
-0.1093859792883E+00 -0.2506477129162E-01
-0.1091037286415E+00 -0.2360183583875E-01
-0.1088357240607E+00 -0.2215983408416E-01
-0.1085819294166E+00 -0.2073714938458E-01
-0.1083423146035E+00 -0.1933222183917E-01
-0.1081168532332E+00 -0.1794354109655E-01
-0.1079055206919E+00 -0.1656963993276E-01
-0.1077082924736E+00 -0.1520908861532E-01
-0.1075251427525E+00 -0.1386048999366E-01
-0.1073560431685E+00 -0.1252247523050E-01
-0.1072009618066E+00 -0.1119370008638E-01
-0.1070598623513E+00 -0.9872841676428E-02
-0.1069327033960E+00 -0.8558595627617E-02
-0.1068194378953E+00 -0.7249673574429E-02
-0.1067200127434E+00 -0.5944800939208E-02
-0.1066343684696E+00 -0.4642714950817E-02
-0.1065624390408E+00 -0.3342162860951E-02
-0.1065041517661E+00 -0.2041900321977E-02
-0.1064594272982E+00 -0.7406898934325E-03
-0.1064281797310E+00  0.5627003535559E-03
-0.1064103167947E+00  0.1869498163589E-02
-0.1064057401510E+00  0.3180928385601E-02
-0.1064143457977E+00  0.4498214253125E-02
-0.1064360245903E+00  0.5822578688549E-02
-0.1064706629002E+00  0.7155245665552E-02
-0.1065181434278E+00  0.8497441667013E-02
-0.1065783462064E+00  0.9850397278566E-02
-0.1066511498458E+00  0.1121534895836E-01
-0.1067364331029E+00  0.1259354101911E-01
-0.1068340769313E+00  0.1398622785042E-01
-0.1069439673252E+00  0.1539467638452E-01
-0.1070659996465E+00  0.1682016873974E-01
-0.1072000858315E+00  0.1826400511135E-01
-0.1073461698300E+00  0.1972750518760E-01
-0.1075042540820E+00  0.2121201634125E-01
-0.1078560427174E+00  0.2424921393509E-01
-0.1080492575446E+00  0.2580566809137E-01
-0.1082542428617E+00  0.2738945189206E-01
-0.1084711602965E+00  0.2900231914156E-01
-0.1087002693269E+00  0.3064620818143E-01
-0.1089419558960E+00  0.3232328458662E-01
-0.1091967722785E+00  0.3403600653014E-01
-0.1094654959076E+00  0.3578722177369E-01
-0.1097492139350E+00  0.3758030859609E-01
-0.1100494475083E+00  0.3941938465565E-01
-0.1103683384705E+00  0.4130962607962E-01
-0.1107089351004E+00  0.4325777379399E-01
-0.1110756344713E+00  0.4527297295578E-01
-0.1114748675014E+00  0.4736823409420E-01
-0.1119161381314E+00  0.4956311781010E-01
-0.1124135226349E+00  0.5188896763133E-01
-0.1129874762696E+00  0.5439995671752E-01
-0.1136667330041E+00  0.5719845083640E-01
-0.1144833660340E+00  0.6051136171883E-01
-0.2822370183971E+00 -0.1629820939511E+00
-0.3820594940570E+00 -0.2320419701803E+00
-0.4695260014826E+00 -0.2805577639114E+00
-0.5501080849803E+00 -0.3185859524356E+00
-0.6264302379093E+00 -0.3492239883237E+00
-0.6995825884296E+00 -0.3741449317560E+00
-0.7701026026810E+00 -0.3942273619875E+00
-0.8382728628386E+00 -0.4101394009266E+00
-0.9042435306069E+00 -0.4223661334314E+00
-0.9680835302357E+00 -0.4312318401971E+00
-0.1029838707448E+01 -0.4371030018068E+00
-0.1089620709557E+01 -0.4405502842218E+00
-0.1147101632025E+01 -0.4392498430993E+00
-0.1201713250286E+01 -0.4315601410769E+00
-0.1253034079781E+01 -0.4178936875109E+00
-0.1300655381774E+01 -0.3988539222296E+00
-0.1344610235394E+01 -0.3757033220217E+00
-0.1385146011684E+01 -0.3496208925560E+00
-0.1422222326821E+01 -0.3211091510312E+00
-0.1469712314014E+01 -0.2732608128969E+00
-0.1483131367835E+01 -0.2559977247307E+00
-0.1495495133067E+01 -0.2383953899268E+00
-0.1506868214344E+01 -0.2205648126217E+00
-0.1517339491879E+01 -0.2026169319219E+00
-0.1527036948171E+01 -0.1846662682788E+00
-0.1536137705636E+01 -0.1668318330533E+00
-0.1544856422877E+01 -0.1492304211999E+00
-0.1553307674930E+01 -0.1319240158814E+00
-0.1561193503068E+01 -0.1148140389876E+00
-0.1568280229219E+01 -0.9784758397201E-01
-0.1574496689454E+01 -0.8105024627456E-01
-0.1579854242465E+01 -0.6448232001563E-01
-0.1584396714612E+01 -0.4821368620038E-01
-0.1588176233437E+01 -0.3231412617678E-01
-0.1591242629766E+01 -0.1685395818377E-01
-0.1593640788919E+01 -0.1902719868235E-02
-0.1595410022551E+01  0.1246676063674E-01
-0.1596585524147E+01  0.2617567250904E-01
-0.1597200821120E+01  0.3913494072598E-01
-0.1597303667905E+01  0.5124144856416E-01
-0.1596991666818E+01  0.6238219095115E-01
-0.1596371484880E+01  0.7242451559109E-01
-0.1595557220507E+01  0.8120292963534E-01
-0.1594688940814E+01  0.8849970909334E-01
-0.1593966425075E+01  0.9400849066169E-01
-0.1593725852635E+01  0.9725144386969E-01
-0.1594545012161E+01  0.9718188502325E-01
-0.1596893093065E+01  0.9315271936339E-01
-0.1600573074922E+01  0.8652402190804E-01
-0.1605113214996E+01  0.7918392212753E-01
-0.1610146574726E+01  0.7215065161046E-01
-0.1615291913219E+01  0.6605869289550E-01
-0.1620284154998E+01  0.6141599342379E-01
-0.1624853252790E+01  0.5861941008103E-01
-0.1628695538116E+01  0.5794796989018E-01
-0.1631482677320E+01  0.5957552090691E-01
-0.1632880610397E+01  0.6358391137595E-01
-0.1632582882228E+01  0.6998629131718E-01
-0.1615552719058E+01  0.1026888043137E+00
-0.1588156918519E+01  0.1330470877824E+00
-0.1547269699489E+01  0.1682226569193E+00
-0.1491895063488E+01  0.2059278268531E+00
-0.1421148774004E+01  0.2424742677366E+00
-0.1335325007036E+01  0.2735319121717E+00
-0.1236699675515E+01  0.2960094956418E+00
-0.1128850927902E+01  0.3081203723904E+00
-0.1016644448486E+01  0.3128591575035E+00
-0.9062932375400E+00  0.3143195203279E+00
-0.8055979111980E+00  0.3108472272976E+00
-0.7158673165074E+00  0.3026094200758E+00
-0.6330628250708E+00  0.2906589368683E+00
-0.5552622185673E+00  0.2750111258928E+00
-0.4814906206495E+00  0.2553299598752E+00
-0.4111613961212E+00  0.2311845896403E+00
-0.3437336314895E+00  0.2017067959874E+00
-0.2780396555129E+00  0.1653370994629E+00
-0.2113225106573E+00  0.1168405335048E+00
-0.1716083274170E-02 -0.3103372729985E-02
-0.2947204404085E-02 -0.5414048979601E-02
-0.4133384804053E-02 -0.7596222868380E-02
-0.5338709877409E-02 -0.9687565906047E-02
-0.6603090962437E-02 -0.1171685242912E-01
-0.7943984736839E-02 -0.1369702754014E-01
-0.9372550848587E-02 -0.1563492974023E-01
-0.1089513502461E-01 -0.1753451558134E-01
-0.1251551700017E-01 -0.1939812450961E-01
-0.1423569183932E-01 -0.2122723501742E-01
-0.1605643030969E-01 -0.2302285663923E-01
-0.1797763077242E-01 -0.2478583108988E-01
-0.1999852936519E-01 -0.2651704025815E-01
-0.2211785254236E-01 -0.2821765231735E-01
-0.2433389466733E-01 -0.2988958391108E-01
-0.2664518472177E-01 -0.3153744236272E-01
-0.2905271732615E-01 -0.3317167035166E-01
-0.3155910755528E-01 -0.3480178670858E-01
-0.3416451418219E-01 -0.3642761118914E-01
-0.3686627836116E-01 -0.3804571372125E-01
-0.3966045794304E-01 -0.3965332084305E-01
-0.4254291573925E-01 -0.4124943619929E-01
-0.4550965481533E-01 -0.4283480439963E-01
-0.4855708158116E-01 -0.4441181514269E-01
-0.5168216455080E-01 -0.4598447509248E-01
-0.5488254187625E-01 -0.4755843775670E-01
-0.5815661523380E-01 -0.4914068397110E-01
-0.6150340726407E-01 -0.5073749613477E-01
-0.6492281881461E-01 -0.5235571412222E-01
-0.6841640764948E-01 -0.5400570174207E-01
-0.7198821052895E-01 -0.5570135962686E-01
-0.7564554511976E-01 -0.5746069870058E-01
-0.7940046017280E-01 -0.5930675861469E-01
-0.8327176062764E-01 -0.6126820110605E-01
-0.8728839238320E-01 -0.6337775222011E-01
-0.9149346389480E-01 -0.6566365542797E-01
-0.9595671548566E-01 -0.6813933757611E-01
-0.1007797729757E+00 -0.7086091396082E-01
-0.1062149592648E+00 -0.7395577783422E-01
-0.1125199579109E+00 -0.7799827994373E-01
-0.1068963553182E+00  0.6138488862939E-01
-0.1018425223272E+00  0.5867918298390E-01
-0.9731174340784E-01  0.5656991987000E-01
-0.9314928073939E-01  0.5469445170609E-01
-0.8919806770504E-01  0.5297349427420E-01
-0.8539370051235E-01  0.5137776459240E-01
-0.8169209957109E-01  0.4990369321095E-01
-0.7806838445090E-01  0.4853017116125E-01
-0.7450752405077E-01  0.4723149609902E-01
-0.7100115459519E-01  0.4598505804656E-01
-0.6754527210480E-01  0.4477271874091E-01
-0.6413891280684E-01  0.4358039626437E-01
-0.6078316958689E-01  0.4239737519039E-01
-0.5748067798052E-01  0.4121586871575E-01
-0.5423505562334E-01  0.4003098030967E-01
-0.5105039460401E-01  0.3883799358681E-01
-0.4793101939412E-01  0.3763154556973E-01
-0.4488153731586E-01  0.3640760596441E-01
-0.4190680551391E-01  0.3516359500310E-01
-0.3901190751365E-01  0.3389830156916E-01
-0.3620206018910E-01  0.3261187230741E-01
-0.3348242214230E-01  0.3130584928749E-01
-0.3085786692266E-01  0.2998311479619E-01
-0.2833207427592E-01  0.2864679005073E-01
-0.2590622189201E-01  0.2729672960407E-01
-0.2357922412204E-01  0.2592418222078E-01
-0.2135113376146E-01  0.2452052801746E-01
-0.1922396625800E-01  0.2308266219616E-01
-0.1719990228878E-01  0.2160961216108E-01
-0.1528074742855E-01  0.2010095696491E-01
-0.1346786723999E-01  0.1855646737833E-01
-0.1176206403821E-01  0.1697591880015E-01
-0.1016340419093E-01  0.1535893306711E-01
-0.8670917726802E-02  0.1370473969000E-01
-0.7282121136071E-02  0.1201186173779E-01
-0.5992345910943E-02  0.1027749487338E-01
-0.4792788074998E-02  0.8496463955153E-02
-0.3669220723226E-02  0.6658525798577E-02
-0.2587848045578E-02  0.4740102618711E-02
-0.1493918119719E-02  0.2711106052712E-02
-0.1223457128466E+01 -0.1162993929503E+00
-0.1227723417108E+01 -0.1101855382512E+00
-0.1231918304940E+01 -0.1042254537787E+00
-0.1236037542082E+01 -0.9840955089842E-01
-0.1240080896576E+01 -0.9273584194891E-01
-0.1244049230429E+01 -0.8720550760724E-01
-0.1247943504432E+01 -0.8182131450890E-01
-0.1251764473723E+01 -0.7658679536164E-01
-0.1255512551324E+01 -0.7150588316428E-01
-0.1259187850654E+01 -0.6658257934442E-01
-0.1262790192839E+01 -0.6182127020499E-01
-0.1266319019977E+01 -0.5722659436522E-01
-0.1269773304911E+01 -0.5280324420630E-01
-0.1273151490726E+01 -0.4855585380577E-01
-0.1276451440699E+01 -0.4448892220490E-01
-0.1279670391635E+01 -0.4060673907896E-01
-0.1282804899240E+01 -0.3691330401366E-01
-0.1285850780157E+01 -0.3341223945777E-01
-0.1288803050099E+01 -0.3010668888587E-01
-0.1291655860521E+01 -0.2699920032022E-01
-0.1294402442403E+01 -0.2409159089529E-01
-0.1297035074730E+01 -0.2138482690333E-01
-0.1299545045784E+01 -0.1887892478616E-01
-0.1301922629412E+01 -0.1657280488005E-01
-0.1304157077406E+01 -0.1446414081444E-01
-0.1306236629702E+01 -0.1254921080995E-01
-0.1308148545865E+01 -0.1082275043465E-01
-0.1309879159118E+01 -0.9277806416949E-02
-0.1311413960596E+01 -0.7905588797236E-02
-0.1312737712257E+01 -0.6695327701715E-02
-0.1313834597387E+01 -0.5634130469878E-02
-0.1314688413285E+01 -0.4706846629061E-02
-0.1315282769668E+01 -0.3896063173137E-02
-0.1315601197192E+01 -0.3182307608595E-02
-0.1315627271367E+01 -0.2543659753046E-02
-0.1315345012084E+01 -0.1955252783250E-02
-0.1314739728047E+01 -0.1388313865489E-02
-0.1313799960437E+01 -0.8078897854922E-03
-0.1312523058717E+01 -0.1658408980993E-03
-0.1173658199451E+01 -0.1228157457303E+00
-0.1126065256794E+01 -0.1225829195057E+00
-0.1076517248014E+01 -0.1217412375564E+00
-0.1025214247329E+01 -0.1202320348038E+00
-0.9723651508374E+00 -0.1180350506393E+00
-0.9181871044536E+00 -0.1151519547885E+00
-0.8628978253101E+00 -0.1115996284396E+00
-0.8066989127259E+00 -0.1073971236065E+00
-0.7497427342912E+00 -0.1025477262500E+00
-0.6921033140068E+00 -0.9703150047850E-01
-0.6337771673244E+00 -0.9082831896434E-01
-0.5747442130712E+00 -0.8396738034622E-01
-0.5150527180172E+00 -0.7657429271510E-01
-0.4548731335639E+00 -0.6888160878900E-01
-0.3945151978627E+00 -0.6120256790158E-01
-0.3344318267861E+00 -0.5388480073553E-01
-0.2752236254489E+00 -0.4725334127192E-01
-0.2176431166946E+00 -0.4154028351489E-01
-0.1625851004138E+00 -0.3679296597184E-01
-0.1253207492804E+01 -0.6253572443471E-02
-0.1192040160048E+01 -0.1173286009232E-01
-0.1128101759209E+01 -0.1586234126748E-01
-0.1062049804650E+01 -0.1861495483681E-01
-0.9944882610225E+00 -0.1998554654202E-01
-0.9259926155120E+00 -0.2001303030932E-01
-0.8571158555868E+00 -0.1878346428346E-01
-0.7883781966068E+00 -0.1643838766648E-01
-0.7202407691946E+00 -0.1318044866894E-01
-0.6530859484245E+00 -0.9270394174177E-02
-0.5872263218227E+00 -0.5003074298086E-02
-0.5229357553021E+00 -0.6562804035401E-03
-0.4604935727458E+00  0.3560006864873E-02
-0.4002124254595E+00  0.7524153613688E-02
-0.3424460485326E+00  0.1118913921375E-01
-0.2875993499884E+00  0.1454512967631E-01
-0.2361403473327E+00  0.1756777220510E-01
-0.1886061241296E+00  0.2015431652053E-01
-0.1455905380882E+00  0.2204381661288E-01
-0.1232859854755E+01 -0.1288364098947E+00
-0.1246356730162E+01 -0.1352891434136E+00
-0.1259607351333E+01 -0.1419940225055E+00
-0.1272615190070E+01 -0.1489570624169E+00
-0.1285388506323E+01 -0.1561769809420E+00
-0.1297936970701E+01 -0.1636492492723E+00
-0.1310270450694E+01 -0.1713675780247E+00
-0.1322398672065E+01 -0.1793245184341E+00
-0.1334331122216E+01 -0.1875117660206E+00
-0.1346077043186E+01 -0.1959203478646E+00
-0.1357645454709E+01 -0.2045407671158E+00
-0.1369045187659E+01 -0.2133631360061E+00
-0.1380284919921E+01 -0.2223773131219E+00
-0.1391373209269E+01 -0.2315730558387E+00
-0.1402318511791E+01 -0.2409401945517E+00
-0.1413129176733E+01 -0.2504688527368E+00
-0.1423813340805E+01 -0.2601496755531E+00
-0.1434378907457E+01 -0.2699744464486E+00
-0.1444832189656E+01 -0.2799357606281E+00
-0.1332206342407E+01  0.4361597146206E-02
-0.1353352788821E+01  0.8111494784113E-02
-0.1374281939590E+01  0.1192088279173E-01
-0.1394936892745E+01  0.1578691695746E-01
-0.1415262327431E+01  0.1969912450201E-01
-0.1435199797351E+01  0.2364471560158E-01
-0.1454685900565E+01  0.2761045891668E-01
-0.1473651764586E+01  0.3158344112067E-01
-0.1492022972616E+01  0.3555162912755E-01
-0.1509719804060E+01  0.3950444904498E-01
-0.1526657771382E+01  0.4343346159016E-01
-0.1542748481925E+01  0.4733315241626E-01
-0.1557900851440E+01  0.5120182355430E-01
-0.1572022671965E+01  0.5504254790504E-01
-0.1585022473242E+01  0.5886409856339E-01
-0.1596811645578E+01  0.6268186631927E-01
-0.1607306365146E+01  0.6651832814407E-01
-0.1616431052350E+01  0.7040559925881E-01
-0.1624114364941E+01  0.7438041248392E-01
-0.1436982739280E-02 -0.2591920543845E-02
-0.2747604040865E-02 -0.4999536277550E-02
-0.3933502596319E-02 -0.7165171080875E-02
-0.5148052704926E-02 -0.9237001422337E-02
-0.6417184193438E-02 -0.1123827030583E-01
-0.7762515864177E-02 -0.1318626243792E-01
-0.9194862813492E-02 -0.1508934901024E-01
-0.1072095277003E-01 -0.1695253992014E-01
-0.1234464155559E-01 -0.1877886072626E-01
-0.1406799859923E-01 -0.2057026485206E-01
-0.1589182476352E-01 -0.2232810246167E-01
-0.1781602855623E-01 -0.2405346347445E-01
-0.1983983537597E-01 -0.2574740733868E-01
-0.2196193435788E-01 -0.2741121289523E-01
-0.2418053699777E-01 -0.2904682953250E-01
-0.2649411955942E-01 -0.3065718094219E-01
-0.2890385637644E-01 -0.3224933591057E-01
-0.3141272764596E-01 -0.3383273654611E-01
-0.3402107929250E-01 -0.3541030178860E-01
-0.3672617682196E-01 -0.3698070716373E-01
-0.3952391190280E-01 -0.3854196337553E-01
-0.4240999456398E-01 -0.4009310264048E-01
-0.4538031286490E-01 -0.4163454819558E-01
-0.4843119249290E-01 -0.4316819207309E-01
-0.5155954967857E-01 -0.4469740703090E-01
-0.5476300671727E-01 -0.4622705919690E-01
-0.5803993617601E-01 -0.4776363676867E-01
-0.6138924788161E-01 -0.4931327400506E-01
-0.6481071138767E-01 -0.5088200515233E-01
-0.6830579397792E-01 -0.5247855190660E-01
-0.7187846982245E-01 -0.5411466246128E-01
-0.7553603516984E-01 -0.5580545883603E-01
-0.7929056038191E-01 -0.5757006663786E-01
-0.8316096233127E-01 -0.5943202726404E-01
-0.8717591793112E-01 -0.6141846890618E-01
-0.9137805747802E-01 -0.6355356926153E-01
-0.9583116017016E-01 -0.6584136607216E-01
-0.1006535364594E+00 -0.6829048393048E-01
-0.1060103726502E+00 -0.7100032714457E-01
-0.1126190479216E+00 -0.7384501077035E-01
-0.1243041571095E-02 -0.2312089576693E-02
-0.2536398190040E-02 -0.4616449671007E-02
-0.3741198611801E-02 -0.6767485401783E-02
-0.4960024927978E-02 -0.8807012811498E-02
-0.6234911391135E-02 -0.1077625970337E-01
-0.7584503846996E-02 -0.1268943693963E-01
-0.9020733755545E-02 -0.1455623632534E-01
-0.1055035104956E-01 -0.1638211684676E-01
-0.1217736495842E-01 -0.1817056077342E-01
-0.1390390312851E-01 -0.1992384647858E-01
-0.1573080507223E-01 -0.2164357009687E-01
-0.1765799375333E-01 -0.2333099580968E-01
-0.1968469451761E-01 -0.2498728576052E-01
-0.2180957043238E-01 -0.2661373038758E-01
-0.2403088573346E-01 -0.2821193547091E-01
-0.2634732913715E-01 -0.2978359696167E-01
-0.2876009308520E-01 -0.3133417687397E-01
-0.3127195280362E-01 -0.3287293004892E-01
-0.3388327389954E-01 -0.3440426419655E-01
-0.3659145932019E-01 -0.3592837714901E-01
-0.3939242122022E-01 -0.3744405408380E-01
-0.4228182242866E-01 -0.3895049382200E-01
-0.4525548765813E-01 -0.4044792775308E-01
-0.4830968852567E-01 -0.4193784658027E-01
-0.5144130891609E-01 -0.4342307224087E-01
-0.5464793057690E-01 -0.4490784552463E-01
-0.5792784295966E-01 -0.4639809649821E-01
-0.6127990147325E-01 -0.4789944987331E-01
-0.6470387813584E-01 -0.4941709198046E-01
-0.6820123788373E-01 -0.5095828931821E-01
-0.7177596791061E-01 -0.5253276008955E-01
-0.7543542845289E-01 -0.5415294197210E-01
-0.7919179977052E-01 -0.5583443223025E-01
-0.8306400831535E-01 -0.5759633309350E-01
-0.8708046540005E-01 -0.5946051542354E-01
-0.9128247220096E-01 -0.6144506562990E-01
-0.9573701005687E-01 -0.6353872932920E-01
-0.1005539602155E+00 -0.6572937887614E-01
-0.1059445073922E+00 -0.6799220199061E-01
-0.1126059262999E+00 -0.7017973016308E-01
-0.1103016961316E-02 -0.2125357730524E-02
-0.2343495863122E-02 -0.4300579585780E-02
-0.3553680881198E-02 -0.6398628905932E-02
-0.4777671001365E-02 -0.8400331512426E-02
-0.6056794720273E-02 -0.1033154241992E-01
-0.7410530759574E-02 -0.1220721271039E-01
-0.8850451222760E-02 -0.1403596435309E-01
-0.1038352930941E-01 -0.1582346198484E-01
-0.1201381773945E-01 -0.1757331727388E-01
-0.1374350333731E-01 -0.1928798414174E-01
-0.1557345534553E-01 -0.2096919909076E-01
-0.1750361504081E-01 -0.2261832341675E-01
-0.1953321590131E-01 -0.2423655281497E-01
-0.2166093838116E-01 -0.2582508012304E-01
-0.2388518689374E-01 -0.2738510016925E-01
-0.2620488334636E-01 -0.2891751543133E-01
-0.2862113060300E-01 -0.3042694076958E-01
-0.3113632239393E-01 -0.3192241990475E-01
-0.3375071955123E-01 -0.3340908506253E-01
-0.3646189179675E-01 -0.3488812162520E-01
-0.3926588418769E-01 -0.3635897424304E-01
-0.4215839986689E-01 -0.3782106268600E-01
-0.4513525414954E-01 -0.3927451565855E-01
-0.4819269625010E-01 -0.4072050421400E-01
-0.5132758894861E-01 -0.4216138390617E-01
-0.5453746711078E-01 -0.4360084551633E-01
-0.5782054323392E-01 -0.4504421858455E-01
-0.6117565672445E-01 -0.4649647606118E-01
-0.6460264477397E-01 -0.4796192525324E-01
-0.6810304141919E-01 -0.4944649839866E-01
-0.7168090743886E-01 -0.5095806285439E-01
-0.7534371448943E-01 -0.5250662945820E-01
-0.7910375262388E-01 -0.5410469416336E-01
-0.8297994267078E-01 -0.5576747385768E-01
-0.8700024628668E-01 -0.5751207596320E-01
-0.9120604651429E-01 -0.5934944711370E-01
-0.9566507891998E-01 -0.6125822723675E-01
-0.1004903655696E+00 -0.6320073577002E-01
-0.1059129884883E+00 -0.6511385532409E-01
-0.1124674446960E+00 -0.6693305472748E-01
-0.9972716258852E-03 -0.1985456681332E-02
-0.2175206495467E-02 -0.4038434179598E-02
-0.3375775193408E-02 -0.6062941384044E-02
-0.4601852968472E-02 -0.8016358732781E-02
-0.5883962144431E-02 -0.9904918512334E-02
-0.7241082510711E-02 -0.1173991324675E-01
-0.8684370657528E-02 -0.1352879601810E-01
-0.1022070567602E-01 -0.1527671032263E-01
-0.1185415284909E-01 -0.1698718035072E-01
-0.1358691182237E-01 -0.1866265987586E-01
-0.1541987040029E-01 -0.2030492292989E-01
-0.1735298517822E-01 -0.2191535136866E-01
-0.1938550893436E-01 -0.2349510789811E-01
-0.2151617855531E-01 -0.2504522647357E-01
-0.2374356700456E-01 -0.2656653801827E-01
-0.2606678065401E-01 -0.2805945040596E-01
-0.2848677297779E-01 -0.2952809105049E-01
-0.3100552088498E-01 -0.3098127692141E-01
-0.3362311553547E-01 -0.3242446913418E-01
-0.3633726340296E-01 -0.3385946162562E-01
-0.3914418928913E-01 -0.3528620328467E-01
-0.4203969989559E-01 -0.3670433417438E-01
-0.4501964958868E-01 -0.3811393422783E-01
-0.4808029578916E-01 -0.3951592112071E-01
-0.5121849293439E-01 -0.4091225132085E-01
-0.5443173760614E-01 -0.4230611129284E-01
-0.5771818841700E-01 -0.4370221786429E-01
-0.6107669757031E-01 -0.4510484498781E-01
-0.6450719888646E-01 -0.4651742785411E-01
-0.6801133858447E-01 -0.4794467261211E-01
-0.7159328876209E-01 -0.4939279077243E-01
-0.7526064045222E-01 -0.5086965906590E-01
-0.7902576795543E-01 -0.5238509614564E-01
-0.8290749752093E-01 -0.5395101563495E-01
-0.8693347640308E-01 -0.5558024321118E-01
-0.9114506773246E-01 -0.5727797014486E-01
-0.9561065578801E-01 -0.5901511612826E-01
-0.1004457026370E+00 -0.6074140332078E-01
-0.1058665846400E+00 -0.6240172516663E-01
-0.1122330122901E+00 -0.6400115277711E-01
-0.9142820041013E-03 -0.1872583353897E-02
-0.2030300607201E-02 -0.3815463314831E-02
-0.3210764835348E-02 -0.5758814597616E-02
-0.4433962957320E-02 -0.7655113536201E-02
-0.5717237910944E-02 -0.9496334861391E-02
-0.7076729001925E-02 -0.1128772357599E-01
-0.8522838097087E-02 -0.1303483039814E-01
-0.1006211870618E-01 -0.1474191962296E-01
-0.1169853449520E-01 -0.1641215032570E-01
-0.1343425148421E-01 -0.1804782966059E-01
-0.1527015094599E-01 -0.1965066522349E-01
-0.1720619808626E-01 -0.2122198800319E-01
-0.1924167337965E-01 -0.2276287230204E-01
-0.2137539195413E-01 -0.2427417039282E-01
-0.2360608744645E-01 -0.2575642156350E-01
-0.2593299081095E-01 -0.2720972951743E-01
-0.2835687747769E-01 -0.2863791247503E-01
-0.3087932422456E-01 -0.3004954385353E-01
-0.3350022736862E-01 -0.3145019389939E-01
-0.3621738941471E-01 -0.3284201139283E-01
-0.3902722247012E-01 -0.3422530296202E-01
-0.4192567508888E-01 -0.3559989638981E-01
-0.4490867945780E-01 -0.3696585010102E-01
-0.4797252876223E-01 -0.3832387778632E-01
-0.5111408485140E-01 -0.3967558890727E-01
-0.5433082238054E-01 -0.4102370224752E-01
-0.5762087181965E-01 -0.4237233263441E-01
-0.6098311961595E-01 -0.4372505755601E-01
-0.6441761042401E-01 -0.4508447927453E-01
-0.6792612116847E-01 -0.4645419129547E-01
-0.7151294584038E-01 -0.4783895087117E-01
-0.7518577530238E-01 -0.4924480199396E-01
-0.7895700267118E-01 -0.5067931701867E-01
-0.8284527904403E-01 -0.5215166456290E-01
-0.8687787053557E-01 -0.5367121964322E-01
-0.9109577461001E-01 -0.5523898488675E-01
-0.9556708728400E-01 -0.5682182262325E-01
-0.1004036096944E+00 -0.5836912689473E-01
-0.1057873915629E+00 -0.5984794890620E-01
-0.1119379284002E+00 -0.6130133746633E-01
-0.8471097085769E-03 -0.1776804292286E-02
-0.1905604070868E-02 -0.3620990788631E-02
-0.3059853281738E-02 -0.5482179786312E-02
-0.4275249514382E-02 -0.7315762075522E-02
-0.5557353605619E-02 -0.9105456643165E-02
-0.6917985582185E-02 -0.1085054407793E-01
-0.8366200812238E-02 -0.1255404165931E-01
-0.9908006320445E-02 -0.1421905813808E-01
-0.1154713279530E-01 -0.1584817693032E-01
-0.1328564953212E-01 -0.1744341974777E-01
-0.1512439979162E-01 -0.1900633592613E-01
-0.1706334491052E-01 -0.2053814071922E-01
-0.1910179510674E-01 -0.2203977840723E-01
-0.2123864830631E-01 -0.2351191746694E-01
-0.2347277333686E-01 -0.2495487116925E-01
-0.2580347265199E-01 -0.2636855625010E-01
-0.2823133353832E-01 -0.2775657087601E-01
-0.3075756684543E-01 -0.2912722764739E-01
-0.3338187144901E-01 -0.3048607663822E-01
-0.3610211044032E-01 -0.3183545348844E-01
-0.3891487144536E-01 -0.3317590163718E-01
-0.4181626310485E-01 -0.3450739126809E-01
-0.4480232317428E-01 -0.3582996786999E-01
-0.4786940407717E-01 -0.3714417570449E-01
-0.5101439225039E-01 -0.3845131824538E-01
-0.5423475932263E-01 -0.3975368122107E-01
-0.5752863081095E-01 -0.4105480406535E-01
-0.6089494200978E-01 -0.4235759919448E-01
-0.6433385090157E-01 -0.4366389818179E-01
-0.6784726372021E-01 -0.4497630387106E-01
-0.7143958298396E-01 -0.4629832148670E-01
-0.7511855363938E-01 -0.4763446177216E-01
-0.7889649833361E-01 -0.4899046768813E-01
-0.8279176813956E-01 -0.5037334120421E-01
-0.8683103379440E-01 -0.5178991769598E-01
-0.9105436253831E-01 -0.5323864589786E-01
-0.9552774118442E-01 -0.5468600225501E-01
-0.1003533873439E+00 -0.5608797481975E-01
-0.1056733910253E+00 -0.5743277066873E-01
-0.1116072454807E+00 -0.5877858749085E-01
-0.7913998203222E-03 -0.1692579866530E-02
-0.1797824428577E-02 -0.3447610155208E-02
-0.2922904501182E-02 -0.5228642174648E-02
-0.4126472706782E-02 -0.6996687925073E-02
-0.5404919482241E-02 -0.8731643808764E-02
-0.6765294950067E-02 -0.1042806218949E-01
-0.8214780306771E-02 -0.1208626681064E-01
-0.9758597799342E-02 -0.1370801155208E-01
-0.1140011522296E-01 -0.1529515672246E-01
-0.1314123273330E-01 -0.1684932497435E-01
-0.1498271802441E-01 -0.1837182817559E-01
-0.1692451092410E-01 -0.1986371127537E-01
-0.1896594561905E-01 -0.2132575859105E-01
-0.2110599442924E-01 -0.2275846128354E-01
-0.2334362935256E-01 -0.2416195711114E-01
-0.2567818197288E-01 -0.2553604585274E-01
-0.2811005176605E-01 -0.2688414889538E-01
-0.3064012149347E-01 -0.2821430177081E-01
-0.3326790160283E-01 -0.2953195467980E-01
-0.3599128914123E-01 -0.3083951855370E-01
-0.3880702787972E-01 -0.3213767995271E-01
-0.4171139086484E-01 -0.3342650513360E-01
-0.4470053893783E-01 -0.3470602381701E-01
-0.4777090248905E-01 -0.3597663400702E-01
-0.5091940913488E-01 -0.3723936655434E-01
-0.5414354563720E-01 -0.3849610883942E-01
-0.5744145119757E-01 -0.3974986207585E-01
-0.6081211798973E-01 -0.4100292232607E-01
-0.6425581059942E-01 -0.4225642774116E-01
-0.6777454762579E-01 -0.4351211837337E-01
-0.7137280666394E-01 -0.4477244622337E-01
-0.7505832025352E-01 -0.4604067592871E-01
-0.7884322881848E-01 -0.4732111845097E-01
-0.8274541161481E-01 -0.4861917295425E-01
-0.8679063222666E-01 -0.4994000787375E-01
-0.9101728970261E-01 -0.5128101721288E-01
-0.9548728973810E-01 -0.5261095973561E-01
-0.1002896033035E+00 -0.5389481643804E-01
-0.1055286471140E+00 -0.5513640449930E-01
-0.1112570649029E+00 -0.5639613420848E-01
-0.7443011131598E-03 -0.1616576009215E-02
-0.1704081851162E-02 -0.3290181422327E-02
-0.2799087288205E-02 -0.4994261985871E-02
-0.3987896189066E-02 -0.6695896285480E-02
-0.5260361556363E-02 -0.8373972614483E-02
-0.6619015275650E-02 -0.1001979142935E-01
-0.8068855698499E-02 -0.1163122008159E-01
-0.9614103599140E-02 -0.1320858604923E-01
-0.1125764011245E-01 -0.1475293467938E-01
-0.1300112264550E-01 -0.1626540759869E-01
-0.1484520172841E-01 -0.1774701597688E-01
-0.1678977346272E-01 -0.1919859117207E-01
-0.1883418318442E-01 -0.2062073683880E-01
-0.2097746074465E-01 -0.2201377541599E-01
-0.2321864856368E-01 -0.2337770475201E-01
-0.2555707497291E-01 -0.2471224783638E-01
-0.2799295742656E-01 -0.2602066840562E-01
-0.3052688656462E-01 -0.2731071062760E-01
-0.3315819863028E-01 -0.2858767392305E-01
-0.3588480611016E-01 -0.2985396993283E-01
-0.3870358806200E-01 -0.3111035825322E-01
-0.4161097758062E-01 -0.3235695972644E-01
-0.4460326767917E-01 -0.3359377980718E-01
-0.4767698047382E-01 -0.3482108560610E-01
-0.5082909917857E-01 -0.3603966351757E-01
-0.5405714118629E-01 -0.3725103767944E-01
-0.5735927279144E-01 -0.3845771487445E-01
-0.6073454486174E-01 -0.3966143366424E-01
-0.6418331421910E-01 -0.4086272459217E-01
-0.6770768288394E-01 -0.4206259460542E-01
-0.7131215458521E-01 -0.4326263341374E-01
-0.7500436709941E-01 -0.4446512785427E-01
-0.7879614834730E-01 -0.4567332441615E-01
-0.8270470134397E-01 -0.4689153456113E-01
-0.8675451752680E-01 -0.4812402399206E-01
-0.9098155415738E-01 -0.4936830802254E-01
-0.9544206524656E-01 -0.5059689470498E-01
-0.1002103838539E+00 -0.5178355503596E-01
-0.1053588685938E+00 -0.5294204019831E-01
-0.1108973919008E+00 -0.5412871599756E-01
-0.7038723135597E-03 -0.1546665046647E-02
-0.1622001251761E-02 -0.3145082416816E-02
-0.2687277550612E-02 -0.4775743055492E-02
-0.3859401077395E-02 -0.6411324787256E-02
-0.5123901433569E-02 -0.8031327148158E-02
-0.6479406693527E-02 -0.9625102783837E-02
-0.7928654019885E-02 -0.1118851235163E-01
-0.9474706858252E-02 -0.1272051529505E-01
-0.1111985097782E-01 -0.1422130687963E-01
-0.1286543154118E-01 -0.1569149748425E-01
-0.1471193920665E-01 -0.1713175249773E-01
-0.1665920070451E-01 -0.1854265790474E-01
-0.1870655435453E-01 -0.1992462317454E-01
-0.2085306588343E-01 -0.2127781003500E-01
-0.2309781737922E-01 -0.2260209999921E-01
-0.2544010958490E-01 -0.2389716085614E-01
-0.2787998621109E-01 -0.2516610514156E-01
-0.3041777789485E-01 -0.2641637376843E-01
-0.3305266254082E-01 -0.2765308208544E-01
-0.3578255586686E-01 -0.2887859234811E-01
-0.3860445266940E-01 -0.3009368597314E-01
-0.4151493685056E-01 -0.3129850399589E-01
-0.4451043624715E-01 -0.3249301739801E-01
-0.4758757366877E-01 -0.3367737300038E-01
-0.5074339918086E-01 -0.3485213744322E-01
-0.5397547263309E-01 -0.3601850684929E-01
-0.5728199553297E-01 -0.3717854103954E-01
-0.6066207355845E-01 -0.3833348517676E-01
-0.6411613506464E-01 -0.3948335150683E-01
-0.6764632759836E-01 -0.4062854124808E-01
-0.7125712102372E-01 -0.4176996094257E-01
-0.7495596510587E-01 -0.4290916398414E-01
-0.7875423365400E-01 -0.4404865974726E-01
-0.8266823481855E-01 -0.4519211516163E-01
-0.8672081748106E-01 -0.4634350410520E-01
-0.9094482376081E-01 -0.4750124607297E-01
-0.9538988812630E-01 -0.4864210829942E-01
-0.1001159390810E+00 -0.4974731056088E-01
-0.1051696160186E+00 -0.5083609407561E-01
-0.1105344346264E+00 -0.5195833044591E-01
-0.6687443817201E-03 -0.1481423632224E-02
-0.1549665848177E-02 -0.3009710272060E-02
-0.2586281040757E-02 -0.4570404688021E-02
-0.3740613667278E-02 -0.6141018575590E-02
-0.4995573642241E-02 -0.7702500439838E-02
-0.6346625361104E-02 -0.9243262807612E-02
-0.7794344229690E-02 -0.1075767087873E-01
-0.9340557533334E-02 -0.1224347014255E-01
-0.1098687187046E-01 -0.1370002453222E-01
-0.1273425905881E-01 -0.1512739324651E-01
-0.1458300878965E-01 -0.1652586915188E-01
-0.1653285098245E-01 -0.1789577233443E-01
-0.1858309536536E-01 -0.1923731035101E-01
-0.2073281976940E-01 -0.2055049097931E-01
-0.2298111826845E-01 -0.2183509422215E-01
-0.2532724577104E-01 -0.2309074295350E-01
-0.2777108129057E-01 -0.2432039855887E-01
-0.3031272327165E-01 -0.2553118934448E-01
-0.3295120688713E-01 -0.2672802461768E-01
-0.3568444338345E-01 -0.2791318362488E-01
-0.3850952608492E-01 -0.2908743292947E-01
-0.4142317806899E-01 -0.3025090680603E-01
-0.4442195999329E-01 -0.3140353227324E-01
-0.4750259999177E-01 -0.3254534399588E-01
-0.5066222261973E-01 -0.3367671130081E-01
-0.5389843793731E-01 -0.3479853721832E-01
-0.5720948577121E-01 -0.3591248355902E-01
-0.6059451769494E-01 -0.3701936795508E-01
-0.6405400782255E-01 -0.3811877327433E-01
-0.6759010507433E-01 -0.3921061652587E-01
-0.7120717847302E-01 -0.4029528517284E-01
-0.7491239084601E-01 -0.4137381559910E-01
-0.7871651748346E-01 -0.4244826005333E-01
-0.8263475749721E-01 -0.4352199942302E-01
-0.8668798476923E-01 -0.4459915689556E-01
-0.9090543312156E-01 -0.4567947822346E-01
-0.9532972457882E-01 -0.4674388462594E-01
-0.1000075637647E+00 -0.4777941042107E-01
-0.1049657097984E+00 -0.4880770879615E-01
-0.1101721036422E+00 -0.4987166650467E-01
-0.6379213304968E-03 -0.1419861565947E-02
-0.1485537681665E-02 -0.2882156359084E-02
-0.2494946338476E-02 -0.4376089311603E-02
-0.3631010325461E-02 -0.5883209664178E-02
-0.4875261043700E-02 -0.7386274916467E-02
-0.6220727399839E-02 -0.8873474232422E-02
-0.7666034854041E-02 -0.1033815961161E-01
-0.9211768884970E-02 -0.1177706947365E-01
-0.1085880402319E-01 -0.1318879916733E-01
-0.1260768961460E-01 -0.1457286421437E-01
-0.1445847720825E-01 -0.1592917547411E-01
-0.1641077242327E-01 -0.1725777717037E-01
-0.1846383325524E-01 -0.1855867218308E-01
-0.2061672560359E-01 -0.1983172012727E-01
-0.2286853118990E-01 -0.2107660846045E-01
-0.2521844531901E-01 -0.2229291883178E-01
-0.2766619116781E-01 -0.2348345865655E-01
-0.3021165866679E-01 -0.2465503678344E-01
-0.3285375465894E-01 -0.2581234213646E-01
-0.3559038125068E-01 -0.2695754861972E-01
-0.3841871557256E-01 -0.2809138229283E-01
-0.4133560737301E-01 -0.2921395059552E-01
-0.4433774489704E-01 -0.3032512910885E-01
-0.4742196249134E-01 -0.3142484756010E-01
-0.5058546318031E-01 -0.3251329894144E-01
-0.5382591092369E-01 -0.3359112738487E-01
-0.5714158243302E-01 -0.3465964547859E-01
-0.6053166200842E-01 -0.3571930842401E-01
-0.6399663994751E-01 -0.3676935531426E-01
-0.6753861853883E-01 -0.3780933184315E-01
-0.7116179570395E-01 -0.3883925305353E-01
-0.7487294785008E-01 -0.3985982430635E-01
-0.7868211291442E-01 -0.4087286991994E-01
-0.8260318755469E-01 -0.4188175536825E-01
-0.8665480617522E-01 -0.4289103368338E-01
-0.9086230392245E-01 -0.4390191987781E-01
-0.9526134633406E-01 -0.4489905659774E-01
-0.9988703127924E-01 -0.4587377014494E-01
-0.1047511336140E+00 -0.4684815825276E-01
-0.1098129273537E+00 -0.4785853874981E-01
-0.6106585380268E-03 -0.1361266711084E-02
-0.1428380487762E-02 -0.2760993293073E-02
-0.2412215755030E-02 -0.4191062991859E-02
-0.3529993303038E-02 -0.5636340655361E-02
-0.4762734115773E-02 -0.7081476298116E-02
-0.6101680213634E-02 -0.8514912628921E-02
-0.7543775322978E-02 -0.9929399371779E-02
-0.9088416057745E-02 -0.1132089140055E-01
-0.1073572379348E-01 -0.1268730853869E-01
-0.1248579060224E-01 -0.1402765307158E-01
-0.1433839847800E-01 -0.1534145971983E-01
-0.1629300279546E-01 -0.1662849641709E-01
-0.1834878669764E-01 -0.1788856303229E-01
-0.2050478109396E-01 -0.1912137644524E-01
-0.2276003426900E-01 -0.2032653696697E-01
-0.2511367141571E-01 -0.2150358516725E-01
-0.2756526806361E-01 -0.2265517081153E-01
-0.3011452559632E-01 -0.2378777881397E-01
-0.3276023531764E-01 -0.2490586874179E-01
-0.3550028745847E-01 -0.2601149472120E-01
-0.3833193048746E-01 -0.2710532496135E-01
-0.4125212830514E-01 -0.2818742596254E-01
-0.4425768934892E-01 -0.2925761695141E-01
-0.4734555195584E-01 -0.3031572996840E-01
-0.5051299816787E-01 -0.3136180167684E-01
-0.5375774574365E-01 -0.3239625040088E-01
-0.5707810289991E-01 -0.3342008690616E-01
-0.6047327008315E-01 -0.3443346645369E-01
-0.6394372165531E-01 -0.3543536452364E-01
-0.6749146356470E-01 -0.3642505778642E-01
-0.7112045236241E-01 -0.3740231660354E-01
-0.7483698264356E-01 -0.3836766991948E-01
-0.7865022896043E-01 -0.3932289264955E-01
-0.8257262483054E-01 -0.4027152249042E-01
-0.8662038283376E-01 -0.4121868766333E-01
-0.9081483577925E-01 -0.4216702627743E-01
-0.9518505341221E-01 -0.4310433986695E-01
-0.9975625175456E-01 -0.4402498679684E-01
-0.1045291177687E+00 -0.4495033916908E-01
-0.1094585965407E+00 -0.4591091213222E-01
-0.5863858953865E-03 -0.1305112043087E-02
-0.1377194877889E-02 -0.2645133472585E-02
-0.2337142842317E-02 -0.4013927692499E-02
-0.3436941521488E-02 -0.5399059634540E-02
-0.4657686705782E-02 -0.6787004945751E-02
-0.5989377620405E-02 -0.8166755640444E-02
-0.7427560402183E-02 -0.9530786522385E-02
-0.8970536531547E-02 -0.1087448427917E-01
-0.1061768180943E-01 -0.1219520283698E-01
-0.1236861135745E-01 -0.1349147899541E-01
-0.1422281324390E-01 -0.1476249007771E-01
-0.1617956950875E-01 -0.1600773559491E-01
-0.1823796660684E-01 -0.1722681807879E-01
-0.2039697918906E-01 -0.1841931737405E-01
-0.2265560404754E-01 -0.1958475018926E-01
-0.2501288814660E-01 -0.2072261458499E-01
-0.2746826668419E-01 -0.2183539928152E-01
-0.3002126924409E-01 -0.2292926298610E-01
-0.3267058266315E-01 -0.2400843086748E-01
-0.3541408371183E-01 -0.2507482847736E-01
-0.3824908161130E-01 -0.2612905507606E-01
-0.4117264231991E-01 -0.2717112710528E-01
-0.4418168568249E-01 -0.2820080515207E-01
-0.4727324930059E-01 -0.2921783134639E-01
-0.5044469174149E-01 -0.3022210531217E-01
-0.5369378111160E-01 -0.3121385123367E-01
-0.5701884847211E-01 -0.3219382316951E-01
-0.6041909129178E-01 -0.3316193501511E-01
-0.6389493454167E-01 -0.3411697189883E-01
-0.6744823831205E-01 -0.3505803192043E-01
-0.7108265030312E-01 -0.3598474899308E-01
-0.7480389587833E-01 -0.3689759943089E-01
-0.7862017843674E-01 -0.3779843967494E-01
-0.8254234722803E-01 -0.3869109472687E-01
-0.8658409366096E-01 -0.3958130990264E-01
-0.9076279617205E-01 -0.4047298813322E-01
-0.9510146898533E-01 -0.4135651541910E-01
-0.9961709240726E-01 -0.4222830875590E-01
-0.1043022695739E+00 -0.4310837807171E-01
-0.1091102865863E+00 -0.4402227719904E-01
-0.5646577530983E-03 -0.1250997683341E-02
-0.1331166850652E-02 -0.2533733560232E-02
-0.2268892863053E-02 -0.3843549526318E-02
-0.3351242577122E-02 -0.5170201933316E-02
-0.4559765419963E-02 -0.6501850910959E-02
-0.5883655905981E-02 -0.7828204102998E-02
-0.7317336722140E-02 -0.9141709002259E-02
-0.8858132135340E-02 -0.1043737702105E-01
-0.1050470317674E-01 -0.1171211089238E-01
-0.1225618282274E-01 -0.1296404109689E-01
-0.1411174853666E-01 -0.1419201635570E-01
-0.1607048974200E-01 -0.1539528254485E-01
-0.1813137658925E-01 -0.1657325411977E-01
-0.2029330850211E-01 -0.1772538036734E-01
-0.2255521550202E-01 -0.1885109729677E-01
-0.2491606000111E-01 -0.1994985870832E-01
-0.2737514327492E-01 -0.2102398980020E-01
-0.2993183711925E-01 -0.2207932281735E-01
-0.3258473331118E-01 -0.2311984646883E-01
-0.3533169419173E-01 -0.2414735304128E-01
-0.3817008064858E-01 -0.2516236645507E-01
-0.4109704921802E-01 -0.2616484803029E-01
-0.4410962152172E-01 -0.2715449986667E-01
-0.4720492774777E-01 -0.2813098266563E-01
-0.5038039792660E-01 -0.2909407767579E-01
-0.5363384424018E-01 -0.3004384492251E-01
-0.5696360934431E-01 -0.3098082395262E-01
-0.6036886691664E-01 -0.3190474107450E-01
-0.6384995886875E-01 -0.3281425652062E-01
-0.6740855173062E-01 -0.3370836785138E-01
-0.7104792193681E-01 -0.3458666149300E-01
-0.7477314911890E-01 -0.3544965590937E-01
-0.7859137945161E-01 -0.3629937757915E-01
-0.8251179839035E-01 -0.3713999461468E-01
-0.8654555181575E-01 -0.3797783894284E-01
-0.9070622319212E-01 -0.3881786544795E-01
-0.9501139622722E-01 -0.3965251985341E-01
-0.9947129196138E-01 -0.4047956027146E-01
-0.1040726997862E+00 -0.4131733818318E-01
-0.1087688492654E+00 -0.4218723760013E-01
-0.5451193872250E-03 -0.1198613491182E-02
-0.1289627863877E-02 -0.2426128856719E-02
-0.2206735248903E-02 -0.3679002031216E-02
-0.3272311610588E-02 -0.4948767293655E-02
-0.4468592274021E-02 -0.6225098273164E-02
-0.5784308960193E-02 -0.7498495917724E-02
-0.7213010384383E-02 -0.8761559190655E-02
-0.8751172230404E-02 -0.1000908828364E-01
-0.1039678857246E-01 -0.1123764610206E-01
-0.1214851782359E-01 -0.1244502198004E-01
-0.1400521789158E-01 -0.1362977199308E-01
-0.1596577069265E-01 -0.1479090864912E-01
-0.1802901330713E-01 -0.1592767070750E-01
-0.2019375355635E-01 -0.1703938447854E-01
-0.2245884195287E-01 -0.1812540834708E-01
-0.2482315142718E-01 -0.1918515055523E-01
-0.2728585489841E-01 -0.2022077154554E-01
-0.2984617809825E-01 -0.2123777866892E-01
-0.3250262562169E-01 -0.2223992443648E-01
-0.3525304467576E-01 -0.2322886622245E-01
-0.3809483988794E-01 -0.2420504976688E-01
-0.4102524755843E-01 -0.2516837943781E-01
-0.4404138099008E-01 -0.2611850110719E-01
-0.4714045481198E-01 -0.2705500321482E-01
-0.5031996338156E-01 -0.2797756665408E-01
-0.5357775442857E-01 -0.2888611537299E-01
-0.5691216905120E-01 -0.2978101325451E-01
-0.6032233544447E-01 -0.3066184746386E-01
-0.6380847958425E-01 -0.3152721053989E-01
-0.6737202989528E-01 -0.3237606508553E-01
-0.7101583592996E-01 -0.3320802064762E-01
-0.7474426796358E-01 -0.3402370636081E-01
-0.7856335204607E-01 -0.3482537123366E-01
-0.8248057021429E-01 -0.3561753684026E-01
-0.8650456079280E-01 -0.3640704541958E-01
-0.9064534576054E-01 -0.3719967515120E-01
-0.9491572260482E-01 -0.3798948210618E-01
-0.9932042728775E-01 -0.3877505625387E-01
-0.1038421289850E+00 -0.3957300288754E-01
-0.1084349282532E+00 -0.4040122953815E-01
-0.5274839466055E-03 -0.1147714188605E-02
-0.1252024153281E-02 -0.2321787431452E-02
-0.2150032884369E-02 -0.3519522003482E-02
-0.3199601400721E-02 -0.4733896772653E-02
-0.4383781333837E-02 -0.5955922961426E-02
-0.5691101545411E-02 -0.7176914122558E-02
-0.7114454813210E-02 -0.8389743583762E-02
-0.8649597647911E-02 -0.9589134277990E-02
-0.1029391602987E-01 -0.1077141187482E-01
-0.1204561185489E-01 -0.1193409126095E-01
-0.1390322177988E-01 -0.1307547625977E-01
-0.1586540994512E-01 -0.1419437032363E-01
-0.1793086680830E-01 -0.1528985149312E-01
-0.2009829494175E-01 -0.1636113193758E-01
-0.2236645493993E-01 -0.1740749616623E-01
-0.2473412645721E-01 -0.1842830646741E-01
-0.2720035889354E-01 -0.1942555867112E-01
-0.2976424175130E-01 -0.2040443843201E-01
-0.3242419896410E-01 -0.2136846417322E-01
-0.3517806194523E-01 -0.2231915899716E-01
-0.3802327201601E-01 -0.2325689030100E-01
-0.4095713507482E-01 -0.2418150619709E-01
-0.4397684581203E-01 -0.2509260031357E-01
-0.4707969410236E-01 -0.2598969854261E-01
-0.5026322990595E-01 -0.2687239871604E-01
-0.5352532628044E-01 -0.2774051472418E-01
-0.5686430836733E-01 -0.2859427002919E-01
-0.6027923705268E-01 -0.2943315549945E-01
-0.6377019115914E-01 -0.3025574484929E-01
-0.6733832067007E-01 -0.3106101927464E-01
-0.7098600063309E-01 -0.3184866513448E-01
-0.7471684222907E-01 -0.3261946782686E-01
-0.7853571146441E-01 -0.3337592217281E-01
-0.8244838305019E-01 -0.3412288091062E-01
-0.8646107392635E-01 -0.3486759524493E-01
-0.9058052120805E-01 -0.3561644605969E-01
-0.9481535829757E-01 -0.3636473067041E-01
-0.9916590776934E-01 -0.3711152198876E-01
-0.1036119716411E+00 -0.3787171501870E-01
-0.1081090295034E+00 -0.3866032554470E-01
-0.5115162306140E-03 -0.1098102374648E-02
-0.1217893189385E-02 -0.2220277525067E-02
-0.2098230713095E-02 -0.3364475305656E-02
-0.3132606806918E-02 -0.4524851397714E-02
-0.4304950440827E-02 -0.5693586950088E-02
-0.5603780357426E-02 -0.6862790648460E-02
-0.7021518271969E-02 -0.8025689589500E-02
-0.8553325003093E-02 -0.9177035099950E-02
-0.1019604321349E-01 -0.1031300644902E-01
-0.1194744427070E-01 -0.1143090891620E-01
-0.1380574830174E-01 -0.1252883652158E-01
-0.1576939595398E-01 -0.1360541066403E-01
-0.1783692086089E-01 -0.1465956567849E-01
-0.2000690944344E-01 -0.1569040968311E-01
-0.2227802411033E-01 -0.1669715800136E-01
-0.2464894841536E-01 -0.1767912770068E-01
-0.2711861248394E-01 -0.1863815153043E-01
-0.2968597788422E-01 -0.1957909808442E-01
-0.3234939323594E-01 -0.2050525529673E-01
-0.3510667341748E-01 -0.2141801437562E-01
-0.3795529006319E-01 -0.2231766622529E-01
-0.4089260910692E-01 -0.2320400533297E-01
-0.4391589632568E-01 -0.2407657840481E-01
-0.4702250695089E-01 -0.2493485885081E-01
-0.5021003668758E-01 -0.2577837789651E-01
-0.5347637254453E-01 -0.2660686321897E-01
-0.5681980866578E-01 -0.2742042937795E-01
-0.6023931732521E-01 -0.2821850815056E-01
-0.6373480134676E-01 -0.2899969517258E-01
-0.6730709691077E-01 -0.2976303250819E-01
-0.7095806562573E-01 -0.3050832189050E-01
-0.7469052391211E-01 -0.3123653123986E-01
-0.7850815934947E-01 -0.3195040185218E-01
-0.8241506562056E-01 -0.3265507366585E-01
-0.8641515907709E-01 -0.3335809546565E-01
-0.9051218799826E-01 -0.3406625152508E-01
-0.9471119819897E-01 -0.3477578578896E-01
-0.9900898373111E-01 -0.3548602300092E-01
-0.1033834004984E+00 -0.3621025559293E-01
-0.1077915639253E+00 -0.3696109368051E-01
-0.4970210299076E-03 -0.1049616649935E-02
-0.1186845560278E-02 -0.2121244013736E-02
-0.2050844878382E-02 -0.3213330408282E-02
-0.3070865704283E-02 -0.4320993339679E-02
-0.4231729124167E-02 -0.5437430706098E-02
-0.5522082902015E-02 -0.6555507046387E-02
-0.6934030693620E-02 -0.7668849899617E-02
-0.8462251079919E-02 -0.8772319625377E-02
-0.1010310999588E-01 -0.9862027005272E-02
-0.1185397977199E-01 -0.1093512836208E-01
-0.1371277408967E-01 -0.1198955047139E-01
-0.1567770863381E-01 -0.1302376115070E-01
-0.1774715331841E-01 -0.1403656950489E-01
-0.1991957018034E-01 -0.1502699082963E-01
-0.2219351714587E-01 -0.1599417698948E-01
-0.2456757970856E-01 -0.1693740176645E-01
-0.2704057251166E-01 -0.1785833768469E-01
-0.2961133624626E-01 -0.1876154216149E-01
-0.3227814857404E-01 -0.1965007744572E-01
-0.3503880695369E-01 -0.2052520655291E-01
-0.3789080745852E-01 -0.2138714724385E-01
-0.4083156704786E-01 -0.2223564445339E-01
-0.4385841241781E-01 -0.2307020426365E-01
-0.4696875387565E-01 -0.2389025780523E-01
-0.5016022229188E-01 -0.2469528519728E-01
-0.5343070658321E-01 -0.2548494950721E-01
-0.5677845475503E-01 -0.2625928417800E-01
-0.6020233025047E-01 -0.2701769358867E-01
-0.6370203397710E-01 -0.2775882834791E-01
-0.6727805842075E-01 -0.2848182337988E-01
-0.7093172175806E-01 -0.2918662120258E-01
-0.7466502357501E-01 -0.2987438276753E-01
-0.7848047391233E-01 -0.3054807986794E-01
-0.8238053593534E-01 -0.3121308279727E-01
-0.8636696904294E-01 -0.3187712684303E-01
-0.9044083075521E-01 -0.3254722692659E-01
-0.9460409953640E-01 -0.3322034522625E-01
-0.9885076175304E-01 -0.3389590666938E-01
-0.1031573957886E+00 -0.3458574949554E-01
-0.1074828702655E+00 -0.3530049283949E-01
-0.4838345855983E-03 -0.1002123136306E-02
-0.1158550956766E-02 -0.2024391159217E-02
-0.2007452918838E-02 -0.3065637861798E-02
-0.3013957840509E-02 -0.4121769740036E-02
-0.4163763662118E-02 -0.5186865050823E-02
-0.5445744398438E-02 -0.6254493203092E-02
-0.6851809654488E-02 -0.7318704931988E-02
-0.8376257062101E-02 -0.8374529098714E-02
-0.1001504117281E-01 -0.9418073053056E-02
-0.1176517009328E-01 -0.1044639919854E-01
-0.1362426537218E-01 -0.1145730824918E-01
-0.1559032004319E-01 -0.1244914333922E-01
-0.1766153652939E-01 -0.1342060772606E-01
-0.1983624677739E-01 -0.1437063605653E-01
-0.2211289974434E-01 -0.1529832347494E-01
-0.2448998169935E-01 -0.1620290358727E-01
-0.2696619527663E-01 -0.1708589275704E-01
-0.2954026636802E-01 -0.1795154417357E-01
-0.3221040521228E-01 -0.1880270017520E-01
-0.3497439080183E-01 -0.1964050029102E-01
-0.3782973817087E-01 -0.2046509358731E-01
-0.4077390680318E-01 -0.2127618055668E-01
-0.4380427438691E-01 -0.2207323360782E-01
-0.4691829588706E-01 -0.2285565172486E-01
-0.5011362640221E-01 -0.2362287835962E-01
-0.5338814448325E-01 -0.2437453131245E-01
-0.5674003722441E-01 -0.2511058704343E-01
-0.6016804056447E-01 -0.2583044897288E-01
-0.6367163090619E-01 -0.2653284862301E-01
-0.6725093287174E-01 -0.2721703662215E-01
-0.7090670003961E-01 -0.2788311056516E-01
-0.7464010571674E-01 -0.2853242257400E-01
-0.7845249983240E-01 -0.2916814744601E-01
-0.8234478400761E-01 -0.2979582285922E-01
-0.8631671724101E-01 -0.3042326610569E-01
-0.9036695551157E-01 -0.3105757849058E-01
-0.9449486835298E-01 -0.3169626436397E-01
-0.9869222358838E-01 -0.3233876288398E-01
-0.1029347853162E+00 -0.3299558174207E-01
-0.1071832201416E+00 -0.3367579657609E-01
-0.4718182246092E-03 -0.9555093042411E-03
-0.1132727260249E-02 -0.1929469785633E-02
-0.1967685179374E-02 -0.2921014297204E-02
-0.2961502544412E-02 -0.3926699030594E-02
-0.4100720072979E-02 -0.4941363119805E-02
-0.5374502997772E-02 -0.5959224806715E-02
-0.6774665444932E-02 -0.6974763802549E-02
-0.8295212462502E-02 -0.7983219590791E-02
-0.9931749185463E-02 -0.8980749115574E-02
-0.1168095580044E-01 -0.9964369581465E-02
-0.1354017914977E-01 -0.1093179439481E-01
-0.1550719514710E-01 -0.1188127048120E-01
-0.1758003779680E-01 -0.1281141502751E-01
-0.1975690558307E-01 -0.1372109491078E-01
-0.2203613566086E-01 -0.1460935619969E-01
-0.2441611465568E-01 -0.1547539651105E-01
-0.2689543646590E-01 -0.1632058117727E-01
-0.2947271750212E-01 -0.1714886699263E-01
-0.3214610345158E-01 -0.1796288293079E-01
-0.3491335364258E-01 -0.1876365049230E-01
-0.3777199691566E-01 -0.1955125528144E-01
-0.4071952725412E-01 -0.2032535916474E-01
-0.4375336373708E-01 -0.2108540820175E-01
-0.4687099564494E-01 -0.2183077910717E-01
-0.5007009132329E-01 -0.2256089196001E-01
-0.5334850682933E-01 -0.2327533639647E-01
-0.5670435433603E-01 -0.2397405252697E-01
-0.6013622550818E-01 -0.2465646435137E-01
-0.6364335324125E-01 -0.2532140381927E-01
-0.6722547588868E-01 -0.2596825216131E-01
-0.7088276969033E-01 -0.2659726720343E-01
-0.7461558357190E-01 -0.2720998104892E-01
-0.7842413846174E-01 -0.2780973671619E-01
-0.8230785656587E-01 -0.2840217501467E-01
-0.8626465857370E-01 -0.2899510105907E-01
-0.9029107110055E-01 -0.2959558483233E-01
-0.9438425690442E-01 -0.3020154135062E-01
-0.9853422996544E-01 -0.3081237252730E-01
-0.1027163129842E+00 -0.3143740161724E-01
-0.1068927513715E+00 -0.3208438508534E-01
-0.4608535430378E-03 -0.9096794017382E-03
-0.1109131985727E-02 -0.1836267619226E-02
-0.1931217418447E-02 -0.2779129885839E-02
-0.2913155877660E-02 -0.3735359463681E-02
-0.4042285641190E-02 -0.4700452794486E-02
-0.5308103616252E-02 -0.5669220107685E-02
-0.6702405269514E-02 -0.6636564222332E-02
-0.8218978666502E-02 -0.7597963517391E-02
-0.9853136751118E-02 -0.8549666769011E-02
-0.1160126812577E-01 -0.9488688213798E-02
-0.1346046443997E-01 -0.1041268959915E-01
-0.1542829263990E-01 -0.1131984903787E-01
-0.1750261988636E-01 -0.1220871736699E-01
-0.1968150993685E-01 -0.1307810702035E-01
-0.2196318680998E-01 -0.1392702338633E-01
-0.2434593777123E-01 -0.1475463321846E-01
-0.2682825115903E-01 -0.1556215685132E-01
-0.2940863864565E-01 -0.1635326322751E-01
-0.3208518371561E-01 -0.1713037509802E-01
-0.3485562471240E-01 -0.1789440193851E-01
-0.3771749940885E-01 -0.1864537165503E-01
-0.4066832871797E-01 -0.1938291374093E-01
-0.4370556390417E-01 -0.2010645537031E-01
-0.4682671847461E-01 -0.2081536045289E-01
-0.5002946326249E-01 -0.2150903778732E-01
-0.5331162016555E-01 -0.2218706376744E-01
-0.5667121350603E-01 -0.2284935949056E-01
-0.6010667607078E-01 -0.2349538658904E-01
-0.6361698195879E-01 -0.2412409126502E-01
-0.6720147048244E-01 -0.2473499350796E-01
-0.7085973561835E-01 -0.2532850924240E-01
-0.7459131369915E-01 -0.2590633267462E-01
-0.7839533862622E-01 -0.2647193630197E-01
-0.8226984403386E-01 -0.2703100188230E-01
-0.8621107394951E-01 -0.2759124007308E-01
-0.9021367806444E-01 -0.2815959598540E-01
-0.9427295685842E-01 -0.2873429800526E-01
-0.9837755608195E-01 -0.2931468647376E-01
-0.1025025680546E+00 -0.2990903528702E-01
-0.1066118666541E+00 -0.3052394095831E-01
-0.4508387101492E-03 -0.8645510154446E-03
-0.1087555522273E-02 -0.1744601918987E-02
-0.1897764510953E-02 -0.2639698447600E-02
-0.2868607595984E-02 -0.3547379539707E-02
-0.3988169433918E-02 -0.4463709784360E-02
-0.5246300661887E-02 -0.5384036349194E-02
-0.6634836652869E-02 -0.6303671638376E-02
-0.8147412052048E-02 -0.7218350399503E-02
-0.9779099333469E-02 -0.8124446104129E-02
-0.1152603078006E-01 -0.9019005958322E-02
-0.1338506355159E-01 -0.9899672226450E-02
-0.1535356580877E-01 -0.1076458005193E-01
-0.1742924157652E-01 -0.1161223320780E-01
-0.1961002048390E-01 -0.1244140320421E-01
-0.2189401342375E-01 -0.1325106371409E-01
-0.2427940924736E-01 -0.1404035653115E-01
-0.2676459389625E-01 -0.1481036376075E-01
-0.2934797862614E-01 -0.1556447558038E-01
-0.3202758666992E-01 -0.1630491610015E-01
-0.3480113398156E-01 -0.1703248914902E-01
-0.3766616265126E-01 -0.1774717102685E-01
-0.4062021339604E-01 -0.1844856532555E-01
-0.4366076091359E-01 -0.1913608774542E-01
-0.4678533324872E-01 -0.1980909831794E-01
-0.4999159340405E-01 -0.2046700542222E-01
-0.5327731817116E-01 -0.2110938504061E-01
-0.5664043241866E-01 -0.2173615353872E-01
-0.6007919778954E-01 -0.2234682320258E-01
-0.6359231802510E-01 -0.2294046337739E-01
-0.6717872599083E-01 -0.2351673538559E-01
-0.7083743554788E-01 -0.2407620550297E-01
-0.7456719059836E-01 -0.2462070768510E-01
-0.7836608828144E-01 -0.2515380374091E-01
-0.8223086941224E-01 -0.2568115840301E-01
-0.8615625886280E-01 -0.2621031780101E-01
-0.9013525894876E-01 -0.2674802975473E-01
-0.9416160633659E-01 -0.2729276442134E-01
-0.9822287555343E-01 -0.2784379921739E-01
-0.1022941279672E+00 -0.2840845517664E-01
-0.1063406390544E+00 -0.2899242506379E-01
-0.4416855967943E-03 -0.8200524462002E-03
-0.1067815754696E-02 -0.1654313788685E-02
-0.1867075117047E-02 -0.2502469596733E-02
-0.2827578139776E-02 -0.3362430035235E-02
-0.3938102144220E-02 -0.4230751425357E-02
-0.5188859898224E-02 -0.5103266122220E-02
-0.6571770149941E-02 -0.5975677876471E-02
-0.8080366685534E-02 -0.6843987040096E-02
-0.9709527411951E-02 -0.7704716700366E-02
-0.1145516169882E-01 -0.8554977107144E-02
-0.1331391335782E-01 -0.9392419616541E-02
-0.1528296342171E-01 -0.1021516037949E-01
-0.1735985824436E-01 -0.1102167465337E-01
-0.1954239553484E-01 -0.1181070650033E-01
-0.2182857426288E-01 -0.1258120722333E-01
-0.2421648643112E-01 -0.1333230016595E-01
-0.2670441880127E-01 -0.1406493653971E-01
-0.2929068624007E-01 -0.1478223722727E-01
-0.3197325339093E-01 -0.1548623557819E-01
-0.3474981237332E-01 -0.1617763638267E-01
-0.3761790523265E-01 -0.1685637058980E-01
-0.4057508580564E-01 -0.1752202240603E-01
-0.4361884397318E-01 -0.1817400326481E-01
-0.4674671314617E-01 -0.1881167761498E-01
-0.4995633879593E-01 -0.1943446304227E-01
-0.5324544258196E-01 -0.2004194597329E-01
-0.5661183982122E-01 -0.2063404953478E-01
-0.6005361117707E-01 -0.2121034612474E-01
-0.6356918212190E-01 -0.2177003292865E-01
-0.6715707667053E-01 -0.2231291067363E-01
-0.7081573697002E-01 -0.2283968409146E-01
-0.7454314155388E-01 -0.2335230185819E-01
-0.7833640703839E-01 -0.2385437535673E-01
-0.8219107919031E-01 -0.2435149973010E-01
-0.8610051408959E-01 -0.2485099834739E-01
-0.9005627443522E-01 -0.2535936667095E-01
-0.9405078579285E-01 -0.2587526709700E-01
-0.9807079806076E-01 -0.2639791726427E-01
-0.1020914496976E+00 -0.2693380381107E-01
-0.1060793372000E+00 -0.2748779537134E-01
-0.4333175193315E-03 -0.7761206793987E-03
-0.1049753754017E-02 -0.1565263737366E-02
-0.1838927183305E-02 -0.2367222461575E-02
-0.2789815778137E-02 -0.3180217362464E-02
-0.3891835502354E-02 -0.4001231186260E-02
-0.5135559647193E-02 -0.4826533800397E-02
-0.6513021461866E-02 -0.5652199470828E-02
-0.8017696611823E-02 -0.6474497253471E-02
-0.9644308526649E-02 -0.7290118182871E-02
-0.1138857468869E-01 -0.8096260327515E-02
-0.1324694653935E-01 -0.8890609156495E-02
-0.1521643062018E-01 -0.9671283758604E-02
-0.1729442247454E-01 -0.1043674845740E-01
-0.1947859146089E-01 -0.1118573308967E-01
-0.2176682687087E-01 -0.1191717613000E-01
-0.2415712599822E-01 -0.1263018941716E-01
-0.2664767974619E-01 -0.1332560100681E-01
-0.2923671042936E-01 -0.1400627219036E-01
-0.3192212556844E-01 -0.1467405360704E-01
-0.3470159200765E-01 -0.1532955772206E-01
-0.3757264764204E-01 -0.1597267641824E-01
-0.4053285318755E-01 -0.1660298093784E-01
-0.4357970599950E-01 -0.1721988533176E-01
-0.4671073629398E-01 -0.1782276606627E-01
-0.4992356306462E-01 -0.1841105834647E-01
-0.5321584388392E-01 -0.1898436805935E-01
-0.5658527604151E-01 -0.1954263407660E-01
-0.6002975183866E-01 -0.2008549527164E-01
-0.6354741406566E-01 -0.2061227788033E-01
-0.6713638005454E-01 -0.2112291658324E-01
-0.7079453405367E-01 -0.2161823977800E-01
-0.7451912179916E-01 -0.2210028458223E-01
-0.7830633964193E-01 -0.2257267392382E-01
-0.8215063575637E-01 -0.2304088679498E-01
-0.8604413923299E-01 -0.2351197631521E-01
-0.8997715894962E-01 -0.2399214545209E-01
-0.9394102580621E-01 -0.2448021362911E-01
-0.9792185842469E-01 -0.2497535461966E-01
-0.1018949576095E+00 -0.2548330835965E-01
-0.1058281241816E+00 -0.2600825046732E-01
-0.4256674493980E-03 -0.7326997960983E-03
-0.1033230301504E-02 -0.1477328177998E-02
-0.1813124152117E-02 -0.2233760628119E-02
-0.2755093971188E-02 -0.3000478031119E-02
-0.3849141427932E-02 -0.3774833842725E-02
-0.5086191496560E-02 -0.4553492152749E-02
-0.6458413056905E-02 -0.5332875824591E-02
-0.7959257772433E-02 -0.6109521270764E-02
-0.9583329093550E-02 -0.6880300442957E-02
-0.1132618095472E-01 -0.7642519326511E-02
-0.1318409277822E-01 -0.8393919140607E-02
-0.1515390980253E-01 -0.9132641723177E-02
-0.1723288468227E-01 -0.9857156917913E-02
-0.1941856311746E-01 -0.1056619312913E-01
-0.2170872786465E-01 -0.1125868556926E-01
-0.2410128417377E-01 -0.1193374178963E-01
-0.2659433055103E-01 -0.1259207467517E-01
-0.2918600048756E-01 -0.1323629572208E-01
-0.3187414573229E-01 -0.1386808096214E-01
-0.3465640646030E-01 -0.1448795724824E-01
-0.3753031257700E-01 -0.1509578360078E-01
-0.4049342588600E-01 -0.1569112451535E-01
-0.4354324408082E-01 -0.1627340313381E-01
-0.4667728630270E-01 -0.1684201480631E-01
-0.4989313697685E-01 -0.1739641959807E-01
-0.5318838180896E-01 -0.1793625018209E-01
-0.5656059327173E-01 -0.1846146793380E-01
-0.6000747034013E-01 -0.1897178192386E-01
-0.6352687200007E-01 -0.1946664581750E-01
-0.6711651517342E-01 -0.1994612014233E-01
-0.7077374461336E-01 -0.2041114032302E-01
-0.7449511008564E-01 -0.2086380547836E-01
-0.7827595030281E-01 -0.2130771460562E-01
-0.8210971134676E-01 -0.2174819005895E-01
-0.8598742754976E-01 -0.2219197689987E-01
-0.8989831969077E-01 -0.2264495713964E-01
-0.9383280760518E-01 -0.2310608448241E-01
-0.9777653428170E-01 -0.2357450688507E-01
-0.1017050188424E+00 -0.2405530145740E-01
-0.1055871483974E+00 -0.2455206107122E-01
-0.4186765807156E-03 -0.6897397149494E-03
-0.1018123067753E-02 -0.1390396638457E-02
-0.1789491769123E-02 -0.2101908040306E-02
-0.2723208977846E-02 -0.2822974018828E-02
-0.3809811043344E-02 -0.3551271258824E-02
-0.5040560643127E-02 -0.4283819185834E-02
-0.6407775386248E-02 -0.5017367301498E-02
-0.7904909591606E-02 -0.5748714917399E-02
-0.9526475994927E-02 -0.6474923588895E-02
-0.1126789049673E-01 -0.7193423271131E-02
-0.1312527988705E-01 -0.7902029433671E-02
-0.1509534148478E-01 -0.8598924365839E-02
-0.1717519373967E-01 -0.9282598655365E-02
-0.1936226428727E-01 -0.9951791494382E-02
-0.2165423325306E-01 -0.1060544427059E-01
-0.2404891698260E-01 -0.1124266758585E-01
-0.2654432520937E-01 -0.1186406724185E-01
-0.2913850628709E-01 -0.1247201469773E-01
-0.3182925749401E-01 -0.1306801942693E-01
-0.3461419102827E-01 -0.1365252928867E-01
-0.3749082524470E-01 -0.1422537647471E-01
-0.4045671769799E-01 -0.1478612466343E-01
-0.4350935987876E-01 -0.1533421208766E-01
-0.4664625270432E-01 -0.1586905909839E-01
-0.4986493886566E-01 -0.1639015674782E-01
-0.5316292566026E-01 -0.1689717028764E-01
-0.5653765565786E-01 -0.1739008841050E-01
-0.5998663187953E-01 -0.1786869189372E-01
-0.6350743142942E-01 -0.1833255797644E-01
-0.6709738071576E-01 -0.1878186302438E-01
-0.7075330720693E-01 -0.1921763185392E-01
-0.7447110467392E-01 -0.1964199979178E-01
-0.7824531786752E-01 -0.2005850946891E-01
-0.8206848312180E-01 -0.2047229200205E-01
-0.8593066243626E-01 -0.2088975492861E-01
-0.8982013563969E-01 -0.2131644038370E-01
-0.9372656751702E-01 -0.2175142219754E-01
-0.9763525018787E-01 -0.2219384285971E-01
-0.1015219553182E+00 -0.2264819239794E-01
-0.1053565478443E+00 -0.2311756841282E-01
-0.4122931727635E-03 -0.6471951853929E-03
-0.1004324310539E-02 -0.1304369518802E-02
-0.1767875393688E-02 -0.1971505652757E-02
-0.2693977713862E-02 -0.2647488889002E-02
-0.3773653631297E-02 -0.3330278710015E-02
-0.4998485974441E-02 -0.4017215237860E-02
-0.6360947773705E-02 -0.4705353318652E-02
-0.7854516272294E-02 -0.5391748638583E-02
-0.9473637957142E-02 -0.6073657686156E-02
-0.1121361337067E-01 -0.6748647000685E-02
-0.1307043486351E-01 -0.7414621956708E-02
-0.1504066512811E-01 -0.8069820958524E-02
-0.1712129759616E-01 -0.8712769279215E-02
-0.1930964813456E-01 -0.9342228436455E-02
-0.2160329877521E-01 -0.9957155169193E-02
-0.2399998052114E-01 -0.1055667045147E-01
-0.2649761813282E-01 -0.1114128105942E-01
-0.2909417852011E-01 -0.1171312801619E-01
-0.3178740579609E-01 -0.1227356213547E-01
-0.3457488299460E-01 -0.1282295872722E-01
-0.3745411364956E-01 -0.1336112894538E-01
-0.4042264618993E-01 -0.1388764122865E-01
-0.4347795997178E-01 -0.1440195438611E-01
-0.4661753130194E-01 -0.1490351913955E-01
-0.4983885493762E-01 -0.1539186261157E-01
-0.5313935449289E-01 -0.1586668705327E-01
-0.5651633923088E-01 -0.1632801161280E-01
-0.5996711580973E-01 -0.1677568846916E-01
-0.6348898414909E-01 -0.1720941287789E-01
-0.6707889318838E-01 -0.1762946577180E-01
-0.7073317840807E-01 -0.1803694340623E-01
-0.7444711975980E-01 -0.1843399274182E-01
-0.7821453171705E-01 -0.1882407088323E-01
-0.8202712928412E-01 -0.1921208859299E-01
-0.8587411484554E-01 -0.1960409354182E-01
-0.8974295769448E-01 -0.2000527650223E-01
-0.9362270022002E-01 -0.2041482362974E-01
-0.9749838354525E-01 -0.2083189306338E-01
-0.1013460513456E+00 -0.2126045382945E-01
-0.1051364503966E+00 -0.2170317745782E-01
-0.4064716115135E-03 -0.6050249737795E-03
-0.9917389866980E-03 -0.1219156271403E-02
-0.1748137731977E-02 -0.1842408678666E-02
-0.2667235851967E-02 -0.2473824523419E-02
-0.3740495592158E-02 -0.3111611681610E-02
-0.4959799968394E-02 -0.3753400328308E-02
-0.6317779046970E-02 -0.4396530487014E-02
-0.7807947843276E-02 -0.5038306431351E-02
-0.9424706732650E-02 -0.5676182337196E-02
-0.1116326081609E-01 -0.6307871065933E-02
-0.1301948486385E-01 -0.6931381015468E-02
-0.1498981992490E-01 -0.7545020441752E-02
-0.1707114388441E-01 -0.8147361949370E-02
-0.1926066766206E-01 -0.8737200156905E-02
-0.2155588025084E-01 -0.9313515957698E-02
-0.2395443124379E-01 -0.9875447882735E-02
-0.2645416440751E-01 -0.1042341159170E-01
-0.2905296894680E-01 -0.1095932700735E-01
-0.3174853716284E-01 -0.1148439394520E-01
-0.3453842188701E-01 -0.1199892136634E-01
-0.3742010886350E-01 -0.1250270487599E-01
-0.4039113298056E-01 -0.1299532285196E-01
-0.4344895614374E-01 -0.1347625962609E-01
-0.4659102444042E-01 -0.1394500093129E-01
-0.4981477947739E-01 -0.1440111407974E-01
-0.5311755717399E-01 -0.1484434153083E-01
-0.5649653171253E-01 -0.1527473460678E-01
-0.5994881505289E-01 -0.1569221513199E-01
-0.6347143712003E-01 -0.1609658958581E-01
-0.6706098512052E-01 -0.1648823146994E-01
-0.7071333028291E-01 -0.1686829073556E-01
-0.7442318231843E-01 -0.1723890300730E-01
-0.7818368832580E-01 -0.1760341402453E-01
-0.8198582601341E-01 -0.1796649006033E-01
-0.8581804154817E-01 -0.1833380252900E-01
-0.8966710920738E-01 -0.1871018507537E-01
-0.9352156192661E-01 -0.1909493296310E-01
-0.9736626995769E-01 -0.1948724055544E-01
-0.1011775587801E+00 -0.1989061263850E-01
-0.1049269728909E+00 -0.2030735027787E-01
-0.4011716421193E-03 -0.5631911990619E-03
-0.9802831970083E-03 -0.1134673911078E-02
-0.1730156925232E-02 -0.1714484311067E-02
-0.2642836149060E-02 -0.2301798360474E-02
-0.3710179437566E-02 -0.2895043080540E-02
-0.4924348471323E-02 -0.3492111754606E-02
-0.6278127967272E-02 -0.4090610828863E-02
-0.7765080995986E-02 -0.4688084727153E-02
-0.9379578105287E-02 -0.5282186142214E-02
-0.1111674625474E-01 -0.5870781626127E-02
-0.1297235809277E-01 -0.6451993491990E-02
-0.1494274553700E-01 -0.7024211794879E-02
-0.1702468050458E-01 -0.7586067840105E-02
-0.1921527616352E-01 -0.8136399306844E-02
-0.2151193393546E-01 -0.8674219582596E-02
-0.2391222625682E-01 -0.9198691698912E-02
-0.2641392005650E-01 -0.9710147854430E-02
-0.2901483064541E-01 -0.1021029584493E-01
-0.3171259994761E-01 -0.1070019183468E-01
-0.3450474972614E-01 -0.1118008433246E-01
-0.3738874527592E-01 -0.1164975853519E-01
-0.4036210399019E-01 -0.1210880750672E-01
-0.4342226562158E-01 -0.1255674549963E-01
-0.4656664120711E-01 -0.1299309719709E-01
-0.4979261496487E-01 -0.1341747334017E-01
-0.5309743234439E-01 -0.1382965874952E-01
-0.5647813222449E-01 -0.1422973745814E-01
-0.5993163544187E-01 -0.1461769805402E-01
-0.6345471132466E-01 -0.1499345061585E-01
-0.6704360334521E-01 -0.1535744892753E-01
-0.7069374808474E-01 -0.1571087950092E-01
-0.7439932934433E-01 -0.1605584549460E-01
-0.7815288839247E-01 -0.1639555868147E-01
-0.8194474508105E-01 -0.1673442114186E-01
-0.8576268400374E-01 -0.1707771653563E-01
-0.8959288681048E-01 -0.1742991993461E-01
-0.9342347339424E-01 -0.1779043568174E-01
-0.9723920773203E-01 -0.1815851362997E-01
-0.1010167006181E+00 -0.1853724287843E-01
-0.1047282205084E+00 -0.1892859945798E-01
-0.3963577391833E-03 -0.5216587854658E-03
-0.9698829009551E-03 -0.1050845784805E-02
-0.1713824937151E-02 -0.1587609822488E-02
-0.2620646982229E-02 -0.2131241049650E-02
-0.3682562843210E-02 -0.2680360803598E-02
-0.4891990400404E-02 -0.3233101920345E-02
-0.6241863504447E-02 -0.3787320088793E-02
-0.7725799746055E-02 -0.4340791257137E-02
-0.9338152738604E-02 -0.4891366074537E-02
-0.1107398616770E-01 -0.5437070231398E-02
-0.1292898460930E-01 -0.5976148918627E-02
-0.1489938278205E-01 -0.6507084300058E-02
-0.1698185618107E-01 -0.7028576514806E-02
-0.1917342766511E-01 -0.7539515415618E-02
-0.2147141687376E-01 -0.8038954689216E-02
-0.2387332361391E-01 -0.8526088482059E-02
-0.2637684230281E-01 -0.9001172841833E-02
-0.2897971825946E-01 -0.9465711962719E-02
-0.3167954457240E-01 -0.9920625321654E-02
-0.3447381125991E-01 -0.1036610651668E-01
-0.3735996082158E-01 -0.1080193509115E-01
-0.4033548965656E-01 -0.1122772308838E-01
-0.4339781126609E-01 -0.1164301853210E-01
-0.4654429757119E-01 -0.1204738833043E-01
-0.4977227211887E-01 -0.1244048909942E-01
-0.5307888830161E-01 -0.1282214926690E-01
-0.5646105092653E-01 -0.1319248514926E-01
-0.5991549501776E-01 -0.1355154837917E-01
-0.6343874063386E-01 -0.1389934452117E-01
-0.6702670738002E-01 -0.1423639541930E-01
-0.7067442817074E-01 -0.1456390790957E-01
-0.7437560545703E-01 -0.1488393351719E-01
-0.7812223446595E-01 -0.1519953051661E-01
-0.8190405201452E-01 -0.1551482096815E-01
-0.8570826768639E-01 -0.1583469323411E-01
-0.8952056141491E-01 -0.1616326554393E-01
-0.9332872267452E-01 -0.1650005343438E-01
-0.9711746158049E-01 -0.1684437987658E-01
-0.1008636736888E+00 -0.1719895985227E-01
-0.1045402864635E+00 -0.1756548198711E-01
-0.3919985881691E-03 -0.4803950073484E-03
-0.9604728519770E-03 -0.9676005468961E-03
-0.1699046193932E-02 -0.1461670968441E-02
-0.2600551074546E-02 -0.1961994448827E-02
-0.3657517774314E-02 -0.2467365611302E-02
-0.4862597404621E-02 -0.2976136375703E-02
-0.6208864995866E-02 -0.3486396145832E-02
-0.7689995950569E-02 -0.3996143922889E-02
-0.9300336886691E-02 -0.4503426797314E-02
-0.1103490086005E-01 -0.5006433514144E-02
-0.1288929705041E-01 -0.5503539452573E-02
-0.1485967426534E-01 -0.5993327712591E-02
-0.1694262098675E-01 -0.6474576220207E-02
-0.1913507735003E-01 -0.6946235255102E-02
-0.2143428724532E-01 -0.7407406019412E-02
-0.2383768260760E-01 -0.7857319986512E-02
-0.2634288982791E-01 -0.8296163939301E-02
-0.2894758823777E-01 -0.8725246472630E-02
-0.3164932375620E-01 -0.9145356897221E-02
-0.3444555418136E-01 -0.9556639043737E-02
-0.3733369718509E-01 -0.9958871142554E-02
-0.4031122511855E-01 -0.1035168804363E-01
-0.4337552171994E-01 -0.1073467485432E-01
-0.4652391646998E-01 -0.1110744335999E-01
-0.4975366988030E-01 -0.1146969779065E-01
-0.5306184282201E-01 -0.1182131065994E-01
-0.5644520860552E-01 -0.1216242937301E-01
-0.5990032330824E-01 -0.1249316430276E-01
-0.6342347070798E-01 -0.1281360818436E-01
-0.6701026792237E-01 -0.1312433904324E-01
-0.7065537613759E-01 -0.1342656890476E-01
-0.7435206083916E-01 -0.1372228049465E-01
-0.7809182899443E-01 -0.1401436190638E-01
-0.8186390470349E-01 -0.1430664269399E-01
-0.8565500174505E-01 -0.1460361152142E-01
-0.8945037929051E-01 -0.1490903376224E-01
-0.9323756756762E-01 -0.1522253965709E-01
-0.9700126567577E-01 -0.1554354122651E-01
-0.1007186507843E+00 -0.1587441502266E-01
-0.1043632519098E+00 -0.1621659375768E-01
-0.3880666574728E-03 -0.4393691071758E-03
-0.9519957142799E-03 -0.8848712977880E-03
-0.1685736438646E-02 -0.1336560635779E-02
-0.2582444392125E-02 -0.1793909904132E-02
-0.3634929691003E-02 -0.2255869262447E-02
-0.4836053509653E-02 -0.2720992049103E-02
-0.6179022220305E-02 -0.3187587527851E-02
-0.7657569707998E-02 -0.3653869688025E-02
-0.9266042985828E-02 -0.4118079942331E-02
-0.1099941512274E-01 -0.4578572809419E-02
-0.1285323127529E-01 -0.5033859767189E-02
-0.1482356495584E-01 -0.5482632349835E-02
-0.1690692683115E-01 -0.5923754108822E-02
-0.1910018196134E-01 -0.6356243145663E-02
-0.2140050469756E-01 -0.6779254765897E-02
-0.2380526405194E-01 -0.7192063520250E-02
-0.2631202302180E-01 -0.7594793322581E-02
-0.2891839906380E-01 -0.7988564582788E-02
-0.3162189272933E-01 -0.8374042472091E-02
-0.3441992932814E-01 -0.8751325762948E-02
-0.3730989998146E-01 -0.9120195277863E-02
-0.4028925036896E-01 -0.9480312028979E-02
-0.4335533151735E-01 -0.9831300997499E-02
-0.4650542784989E-01 -0.1017282092092E-01
-0.4973673534652E-01 -0.1050462475893E-01
-0.5304622293754E-01 -0.1082662895137E-01
-0.5643053623396E-01 -0.1113901020562E-01
-0.5988606060618E-01 -0.1144193296132E-01
-0.6340885794906E-01 -0.1173556884461E-01
-0.6699426546757E-01 -0.1202054074173E-01
-0.7063660516751E-01 -0.1229805196774E-01
-0.7432874947333E-01 -0.1257000126199E-01
-0.7806177273392E-01 -0.1283909245835E-01
-0.8182445235815E-01 -0.1310885296143E-01
-0.8560307890464E-01 -0.1338336978434E-01
-0.8938256315927E-01 -0.1366606095950E-01
-0.9315023778903E-01 -0.1395667581746E-01
-0.9689082619607E-01 -0.1425472974243E-01
-0.1005817824099E+00 -0.1456229158495E-01
-0.1041971859678E+00 -0.1488056469669E-01
-0.3845378451655E-03 -0.3985519717865E-03
-0.9444013304567E-03 -0.8025948536265E-03
-0.1673821768341E-02 -0.1212177688934E-02
-0.2566235195154E-02 -0.1626846762560E-02
-0.3614696836446E-02 -0.2045692869927E-02
-0.4812254765274E-02 -0.2467455648764E-02
-0.6152235411714E-02 -0.2890652025125E-02
-0.7628429663917E-02 -0.3313703500316E-02
-0.9235190143815E-02 -0.3735043366733E-02
-0.1096745880141E-01 -0.4153193720930E-02
-0.1282072693428E-01 -0.4566806874663E-02
-0.1479100270619E-01 -0.4974689110102E-02
-0.1687472790989E-01 -0.5375796398066E-02
-0.1906870017925E-01 -0.5769221209831E-02
-0.2137003066145E-01 -0.6154178887226E-02
-0.2377603055205E-01 -0.6529992300228E-02
-0.2628420422059E-01 -0.6896728343778E-02
-0.2889211147128E-01 -0.7255326014140E-02
-0.3159720943137E-01 -0.7606331831499E-02
-0.3439689086220E-01 -0.7949803755647E-02
-0.3728851891245E-01 -0.8285528655656E-02
-0.4026951037826E-01 -0.8613196589960E-02
-0.4333718115934E-01 -0.8932474701400E-02
-0.4648876866922E-01 -0.9243070223488E-02
-0.4972140366733E-01 -0.9544785417489E-02
-0.5303196468085E-01 -0.9837579968923E-02
-0.5641697451390E-01 -0.1012165766307E-01
-0.5987265726475E-01 -0.1039723214788E-01
-0.6339486851668E-01 -0.1066454588865E-01
-0.6697868905365E-01 -0.1092425603189E-01
-0.7061813457355E-01 -0.1117754459667E-01
-0.7430572764532E-01 -0.1142621306517E-01
-0.7803216345986E-01 -0.1167276928360E-01
-0.8178583474672E-01 -0.1192043125585E-01
-0.8555267553619E-01 -0.1217288425590E-01
-0.8931731326008E-01 -0.1243320544942E-01
-0.9306693687233E-01 -0.1270126816604E-01
-0.9678632346636E-01 -0.1297670399428E-01
-0.1004531982550E+00 -0.1326130060197E-01
-0.1040421458141E+00 -0.1355605449187E-01
-0.3813911878746E-03 -0.3579158552755E-03
-0.9376461155111E-03 -0.7207111207424E-03
-0.1663237827969E-02 -0.1088425976249E-02
-0.2551843227341E-02 -0.1460671076140E-02
-0.3596729607981E-02 -0.1836665443379E-02
-0.4791108908711E-02 -0.2215322213366E-02
-0.6128415232728E-02 -0.2595355396980E-02
-0.7602493242027E-02 -0.2975387249680E-02
-0.9207704542134E-02 -0.3354040399336E-02
-0.1093896728161E-01 -0.3730005646222E-02
-0.1279172796665E-01 -0.4102079892646E-02
-0.1476193871721E-01 -0.4469189432089E-02
-0.1684598111326E-01 -0.4830388474206E-02
-0.1904059296936E-01 -0.5184849579583E-02
-0.2134282864623E-01 -0.5531853387320E-02
-0.2374994675684E-01 -0.5870775783799E-02
-0.2625939792866E-01 -0.6201631904503E-02
-0.2886868864365E-01 -0.6525185414180E-02
-0.3157523469102E-01 -0.6841869095607E-02
-0.3437639642858E-01 -0.7151703854319E-02
-0.3726950789913E-01 -0.7454485599648E-02
-0.4025195519086E-01 -0.7749935853515E-02
-0.4332101715864E-01 -0.8037765728347E-02
-0.4647388286926E-01 -0.8317732012204E-02
-0.4970761791191E-01 -0.8589686370152E-02
-0.5301901281028E-01 -0.8853630637024E-02
-0.5640447341928E-01 -0.9109793147383E-02
-0.5986007302129E-01 -0.9358431867936E-02
-0.6338147741628E-01 -0.9599852432998E-02
-0.6696353513334E-01 -0.9834736486280E-02
-0.7059998853101E-01 -0.1006423351664E-01
-0.7428305268280E-01 -0.1029003630540E-01
-0.7800309493325E-01 -0.1051444708561E-01
-0.8174818165230E-01 -0.1074036920016E-01
-0.8550395184108E-01 -0.1097108747386E-01
-0.8925480835873E-01 -0.1120934520098E-01
-0.9298784383560E-01 -0.1145514490584E-01
-0.9668791377414E-01 -0.1170824591225E-01
-0.1003330084443E+00 -0.1197017762246E-01
-0.1038981767986E+00 -0.1224174885290E-01
-0.3786086219394E-03 -0.3174341392126E-03
-0.9316925578992E-03 -0.6391625542774E-03
-0.1653929139884E-02 -0.9652134657709E-03
-0.2539199029970E-02 -0.1295254463270E-02
-0.3580950009752E-02 -0.1628622588570E-02
-0.4772535053548E-02 -0.1964393791923E-02
-0.6107482723576E-02 -0.2301470163611E-02
-0.7579686816831E-02 -0.2638668764104E-02
-0.9183519764245E-02 -0.2974799084814E-02
-0.1091388189928E-01 -0.3308721271945E-02
-0.1276618303189E-01 -0.3639379765815E-02
-0.1473632794800E-01 -0.3965825204395E-02
-0.1682064639289E-01 -0.4287214948814E-02
-0.1901582389939E-01 -0.4602806562970E-02
-0.2131886450997E-01 -0.4911950563400E-02
-0.2372697959192E-01 -0.5214079978298E-02
-0.2623757102253E-01 -0.5509162816612E-02
-0.2884809639491E-01 -0.5797792766639E-02
-0.3155593238615E-01 -0.6080293182701E-02
-0.3435840729285E-01 -0.6356651169224E-02
-0.3725282519074E-01 -0.6626674203026E-02
-0.4023653999597E-01 -0.6890117227495E-02
-0.4330679205799E-01 -0.7146736676630E-02
-0.4646072131971E-01 -0.7396339510209E-02
-0.4969532891466E-01 -0.7638826497277E-02
-0.5300732052479E-01 -0.7874240202313E-02
-0.5639299174734E-01 -0.8102830790139E-02
-0.5984827635970E-01 -0.8324895752267E-02
-0.6336866766545E-01 -0.8540796723451E-02
-0.6694880657112E-01 -0.8751231000960E-02
-0.7058219498132E-01 -0.8957305667795E-02
-0.7426078190150E-01 -0.9160595084323E-02
-0.7797465607978E-01 -0.9363188113591E-02
-0.8171161250115E-01 -0.9567669818740E-02
-0.8545705210837E-01 -0.9776926844424E-02
-0.8919520668830E-01 -0.9993375793082E-02
-0.9291311463780E-01 -0.1021715370976E-01
-0.9659573091720E-01 -0.1044815803688E-01
-0.1002213046087E+00 -0.1068767971757E-01
-0.1037653125726E+00 -0.1093635624204E-01
-0.3761747890753E-03 -0.2770811227107E-03
-0.9265088121999E-03 -0.5578936841902E-03
-0.1645848551648E-02 -0.8424514853822E-03
-0.2528243368645E-02 -0.1130473098324E-02
-0.3567291184473E-02 -0.1421405337176E-02
-0.4756463410930E-02 -0.1714478234195E-02
-0.6089369238656E-02 -0.2008774474004E-02
-0.7559945841425E-02 -0.2303300843088E-02
-0.9162577061558E-02 -0.2597051431356E-02
-0.1089215028454E-01 -0.2889056047826E-02
-0.1274404587881E-01 -0.3178408951680E-02
-0.1471412947303E-01 -0.3464288633745E-02
-0.1679868708574E-01 -0.3745959674911E-02
-0.1899435942241E-01 -0.4022768775561E-02
-0.2129810670356E-01 -0.4294140226100E-02
-0.2370709847011E-01 -0.4559567730930E-02
-0.2621869293429E-01 -0.4818976151082E-02
-0.2883030333053E-01 -0.5072793796188E-02
-0.3153926958329E-01 -0.5321238272820E-02
-0.3434288845673E-01 -0.5564265618944E-02
-0.3723843345092E-01 -0.5801696937500E-02
-0.4022322517497E-01 -0.6033322102095E-02
-0.4329446442528E-01 -0.6258943788476E-02
-0.4644924174354E-01 -0.6478419345123E-02
-0.4968449510717E-01 -0.6691698003774E-02
-0.5299684917701E-01 -0.6898861395598E-02
-0.5638249668786E-01 -0.7100178701649E-02
-0.5983724391845E-01 -0.7295982342045E-02
-0.6335642954162E-01 -0.7486683376274E-02
-0.6693451176170E-01 -0.7672986884277E-02
-0.7056478469477E-01 -0.7855949011653E-02
-0.7423897173380E-01 -0.8037017592556E-02
-0.7794693034682E-01 -0.8218062017799E-02
-0.8167623612343E-01 -0.8401346793880E-02
-0.8541210501475E-01 -0.8589363308866E-02
-0.8913864681201E-01 -0.8784208580937E-02
-0.9284288344790E-01 -0.8986159530646E-02
-0.9650988752589E-01 -0.9195261103943E-02
-0.1001181608039E+00 -0.9412582877753E-02
-0.1036435752197E+00 -0.9638605010381E-02
-0.3740768804511E-03 -0.2368318362235E-03
-0.9220683712425E-03 -0.4768506948809E-03
-0.1638956788154E-02 -0.7200540464227E-03
-0.2518926762567E-02 -0.9662068050099E-03
-0.3555697021547E-02 -0.1214859083760E-02
-0.4742835047710E-02 -0.1465388074104E-02
-0.6074016380264E-02 -0.1717051040271E-02
-0.7543214941401E-02 -0.1969040326408E-02
-0.9144825566840E-02 -0.2220532665191E-02
-0.1087372664593E-01 -0.2470727646019E-02
-0.1272527565672E-01 -0.2718871078544E-02
-0.1469530678787E-01 -0.2964272079597E-02
-0.1678007019507E-01 -0.3206305729452E-02
-0.1897616912509E-01 -0.3444411241968E-02
-0.2128052648591E-01 -0.3678089895448E-02
-0.2369027547738E-01 -0.3906899001066E-02
-0.2620273581277E-01 -0.4130723575651E-02
-0.2881528098677E-01 -0.4349830367403E-02
-0.3152521665544E-01 -0.4564334269844E-02
-0.3432980875188E-01 -0.4774162461762E-02
-0.3722629982163E-01 -0.4979151263217E-02
-0.4021197632687E-01 -0.5179126549047E-02
-0.4328399882858E-01 -0.5373937748699E-02
-0.4643940862590E-01 -0.5563492453794E-02
-0.4967508234195E-01 -0.5747787429062E-02
-0.5298756799132E-01 -0.5926941533878E-02
-0.5637296341683E-01 -0.6101240134568E-02
-0.5982695994955E-01 -0.6271046261775E-02
-0.6334475991256E-01 -0.6436814483794E-02
-0.6692066386533E-01 -0.6599250796005E-02
-0.7054779047908E-01 -0.6759353190445E-02
-0.7421767701756E-01 -0.6918436377079E-02
-0.7791999520893E-01 -0.7078145636131E-02
-0.8164215061600E-01 -0.7240423730057E-02
-0.8536922394462E-01 -0.7407370108072E-02
-0.8908524840447E-01 -0.7580769046206E-02
-0.9277726374611E-01 -0.7761042658871E-02
-0.9643047619205E-01 -0.7948391913216E-02
-0.1000236342987E+00 -0.8143679719450E-02
-0.1035329753881E+00 -0.8347240881720E-02
-0.3723045144281E-03 -0.1966618739867E-03
-0.9183498081545E-03 -0.3959810469653E-03
-0.1633222096915E-02 -0.5979372332375E-03
-0.2511209107911E-02 -0.8023382323933E-03
-0.3546121838738E-02 -0.1008832609385E-02
-0.4731601684673E-02 -0.1216939489841E-02
-0.6061375936732E-02 -0.1426086128399E-02
-0.7529447983641E-02 -0.1635647194715E-02
-0.9130222463196E-02 -0.1844980493739E-02
-0.1085857200121E-01 -0.2053455410933E-02
-0.1270983717235E-01 -0.2260470582261E-02
-0.1467982806510E-01 -0.2465467862007E-02
-0.1676476662844E-01 -0.2667935368334E-02
-0.1896122593990E-01 -0.2867407472433E-02
-0.2126609810905E-01 -0.3063464976319E-02
-0.2367648553275E-01 -0.3255731117128E-02
-0.2618967466101E-01 -0.3444053682003E-02
-0.2880300394750E-01 -0.3628540877484E-02
-0.3151374737796E-01 -0.3809207260337E-02
-0.3431914091180E-01 -0.3985952825261E-02
-0.3721639596582E-01 -0.4158630236278E-02
-0.4020276427391E-01 -0.4327102015134E-02
-0.4327536579402E-01 -0.4491264471079E-02
-0.4643119311109E-01 -0.4651074964328E-02
-0.4966706371317E-01 -0.4806576619786E-02
-0.5297945379237E-01 -0.4957923566823E-02
-0.5636437471989E-01 -0.5105414571185E-02
-0.5981741583189E-01 -0.5249439294942E-02
-0.6333366164994E-01 -0.5390490605421E-02
-0.6690728015471E-01 -0.5529269563379E-02
-0.7053124652197E-01 -0.5666710069141E-02
-0.7419695042599E-01 -0.5803988516330E-02
-0.7789392179781E-01 -0.5942522734648E-02
-0.8160944328291E-01 -0.6083933436361E-02
-0.8532850731370E-01 -0.6229931638228E-02
-0.8903511295003E-01 -0.6381995306417E-02
-0.9271634927285E-01 -0.6540696990067E-02
-0.9635757042933E-01 -0.6706401438607E-02
-0.9993776625087E-01 -0.6879777456701E-02
-0.1034335124226E+00 -0.7061024732668E-02
-0.3708496443210E-03 -0.1565472407928E-03
-0.9153365809787E-03 -0.3152331314623E-03
-0.1628619977790E-02 -0.4760186436090E-03
-0.2505059388453E-02 -0.6387520952286E-03
-0.3538530134769E-02 -0.8031771733907E-03
-0.4722725536857E-02 -0.9689513253381E-03
-0.6051409830420E-02 -0.1135668595304E-02
-0.7518608126898E-02 -0.1302883697530E-02
-0.9118733115156E-02 -0.1470134377800E-02
-0.1084665435992E-01 -0.1636959803348E-02
-0.1269770109598E-01 -0.1802912327433E-02
-0.1466766636209E-01 -0.1967568048885E-02
-0.1675275139289E-01 -0.2130529959669E-02
-0.1894950632059E-01 -0.2291429519264E-02
-0.2125479897176E-01 -0.2449928916873E-02
-0.2366570652082E-01 -0.2605719020217E-02
-0.2617948744905E-01 -0.2758612303332E-02
-0.2879344993793E-01 -0.2908560642352E-02
-0.3150483900204E-01 -0.3055479967781E-02
-0.3431086162218E-01 -0.3199244231927E-02
-0.3720869808970E-01 -0.3339723111131E-02
-0.4019556504863E-01 -0.3476816007257E-02
-0.4326854174877E-01 -0.3610465870293E-02
-0.4642457289075E-01 -0.3740679054595E-02
-0.4966041937809E-01 -0.3867543666813E-02
-0.5297249074848E-01 -0.3991247072653E-02
-0.5635672064934E-01 -0.4112098743652E-02
-0.5980860964129E-01 -0.4230511376732E-02
-0.6332314312525E-01 -0.4347011663613E-02
-0.6689438146840E-01 -0.4462290897785E-02
-0.7051518785661E-01 -0.4577214185986E-02
-0.7417684202240E-01 -0.4692815727246E-02
-0.7786877463682E-01 -0.4810283719872E-02
-0.8157819063472E-01 -0.4930917233758E-02
-0.8529003888403E-01 -0.5056042389989E-02
-0.8898832435796E-01 -0.5186836761883E-02
-0.9266021483840E-01 -0.5324028471082E-02
-0.9629122548389E-01 -0.5468153143018E-02
-0.9986058228249E-01 -0.5619696098346E-02
-0.1033451744993E+00 -0.5778730623664E-02
-0.3697064934698E-03 -0.1164642093660E-03
-0.9130168943640E-03 -0.2345559479385E-03
-0.1625132990522E-02 -0.3542168669022E-03
-0.2500455468127E-02 -0.4753344622451E-03
-0.3532896410623E-02 -0.5977456565620E-03
-0.4716179197248E-02 -0.7212441586860E-03
-0.6044090079494E-02 -0.8455889621268E-03
-0.7510667859344E-02 -0.9705135035856E-03
-0.9110331166991E-02 -0.1095734812260E-02
-0.1083794886171E-01 -0.1220961841627E-02
-0.1268884411925E-01 -0.1345901217833E-02
-0.1465879978187E-01 -0.1470264228180E-02
-0.1674400374768E-01 -0.1593769900665E-02
-0.1894099038061E-01 -0.1716148017674E-02
-0.2124660974122E-01 -0.1837143353435E-02
-0.2365791939614E-01 -0.1956515496684E-02
-0.2617215520124E-01 -0.2074042823267E-02
-0.2878659989452E-01 -0.2189522275972E-02
-0.3149847230584E-01 -0.2302772201030E-02
-0.3430495155011E-01 -0.2413641118877E-02
-0.3720318694530E-01 -0.2522015935567E-02
-0.4019035986391E-01 -0.2627832766822E-02
-0.4326350895137E-01 -0.2731080617785E-02
-0.4641953208602E-01 -0.2831813787049E-02
-0.4965513638265E-01 -0.2930163808634E-02
-0.5296667013294E-01 -0.3026349208710E-02
-0.5634999821730E-01 -0.3120687596451E-02
-0.5980054577848E-01 -0.3213611517568E-02
-0.6331321778644E-01 -0.3305677762881E-02
-0.6688199176539E-01 -0.3397564033454E-02
-0.7049964994085E-01 -0.3490063134019E-02
-0.7415739892638E-01 -0.3584064424465E-02
-0.7784461146437E-01 -0.3680525336846E-02
-0.8154845843220E-01 -0.3780424291194E-02
-0.8525388806146E-01 -0.3884705963028E-02
-0.8894494949511E-01 -0.3994252860478E-02
-0.9260891700328E-01 -0.4109953696414E-02
-0.9623147901030E-01 -0.4232521465988E-02
-0.9979209296827E-01 -0.4362266835930E-02
-0.1032679387621E+00 -0.4499144041396E-02
-0.3688715157217E-03 -0.7638918501140E-04
-0.9113836144502E-03 -0.1538987990710E-03
-0.1622750635362E-02 -0.2324509881079E-03
-0.2497383961601E-02 -0.3119720775616E-03
-0.3529205057757E-02 -0.3923917401191E-03
-0.4711945564561E-02 -0.4736394037932E-03
-0.6039398776179E-02 -0.5556385137554E-03
-0.7505609026785E-02 -0.6383008680179E-03
-0.9104998611947E-02 -0.7215226140916E-03
-0.1083243787353E-01 -0.8051825421366E-03
-0.1268324906707E-01 -0.8891418002173E-03
-0.1465321158832E-01 -0.9732472700726E-03
-0.1673850731492E-01 -0.1057334523184E-02
-0.1893566199416E-01 -0.1141232215439E-02
-0.2124151444200E-01 -0.1224768245192E-02
-0.2365310825898E-01 -0.1307771401865E-02
-0.2616766205794E-01 -0.1389986477167E-02
-0.2878243801133E-01 -0.1471056062841E-02
-0.3149463162328E-01 -0.1550701296055E-02
-0.3430139535232E-01 -0.1628745350099E-02
-0.3719984781422E-01 -0.1705092136366E-02
-0.4018713506729E-01 -0.1779713931591E-02
-0.4326025541088E-01 -0.1852644880460E-02
-0.4641606112583E-01 -0.1923985920103E-02
-0.4965120849320E-01 -0.1993910303632E-02
-0.5296199010562E-01 -0.2062665622215E-02
-0.5634421112672E-01 -0.2130575200277E-02
-0.5979323465518E-01 -0.2198088670639E-02
-0.6330390381363E-01 -0.2265789948659E-02
-0.6687013777633E-01 -0.2334340307587E-02
-0.7048466834199E-01 -0.2404457893384E-02
-0.7413866508033E-01 -0.2476885748936E-02
-0.7782148313412E-01 -0.2552350364163E-02
-0.8152030176343E-01 -0.2631510992723E-02
-0.8522011016951E-01 -0.2714934147665E-02
-0.8890503863681E-01 -0.2803211962349E-02
-0.9256249463702E-01 -0.2897398630398E-02
-0.9617835162333E-01 -0.2998390455707E-02
-0.9973229424345E-01 -0.3106330591282E-02
-0.1032017714637E+00 -0.3221060317660E-02
-0.3683433801364E-03 -0.3629857448610E-04
-0.9104342345155E-03 -0.7321099469865E-04
-0.1621469303788E-02 -0.1106401068724E-03
-0.2495840180347E-02 -0.1485517014035E-03
-0.3527450311985E-02 -0.1869691058720E-03
-0.4710017815415E-02 -0.2259584320646E-03
-0.6037328083094E-02 -0.2656084146891E-03
-0.7503422853831E-02 -0.3060098107075E-03
-0.9102725834812E-02 -0.3472382159910E-03
-0.1083011104779E-01 -0.3893423604386E-03
-0.1268090496477E-01 -0.4323378652580E-03
-0.1465089027670E-01 -0.4762070839135E-03
-0.1673625014844E-01 -0.5209019928154E-03
-0.1893350886019E-01 -0.5663499956676E-03
-0.2123950051257E-01 -0.6124620020784E-03
-0.2365126040238E-01 -0.6591358772140E-03
-0.2616599531121E-01 -0.7060826469257E-03
-0.2878095176247E-01 -0.7527903237337E-03
-0.3149330485088E-01 -0.7988825501957E-03
-0.3430018166330E-01 -0.8441567198133E-03
-0.3719867047344E-01 -0.8885330939051E-03
-0.4018588208052E-01 -0.9320191834982E-03
-0.4325877479633E-01 -0.9746930413699E-03
-0.4641415662265E-01 -0.1016700696655E-02
-0.4964863603623E-01 -0.1058255273940E-02
-0.5295845551607E-01 -0.1099631326778E-02
-0.5633936954093E-01 -0.1141155626298E-02
-0.5978669243789E-01 -0.1183292555988E-02
-0.6329522385173E-01 -0.1226650921885E-02
-0.6685884874694E-01 -0.1271873699756E-02
-0.7047027852055E-01 -0.1319603132304E-02
-0.7412068110813E-01 -0.1370435580991E-02
-0.7779943358270E-01 -0.1424867315197E-02
-0.8149376514663E-01 -0.1483240336628E-02
-0.8518874669518E-01 -0.1545746065250E-02
-0.8886862583673E-01 -0.1612690287871E-02
-0.9252096936102E-01 -0.1685297432614E-02
-0.9613184733387E-01 -0.1764652519653E-02
-0.9968116773833E-01 -0.1850736695746E-02
-0.1031466281126E+00 -0.1943283193436E-02
-0.3681229793991E-03  0.3831343811794E-05
-0.9101708903030E-03  0.7558441234555E-05
-0.1621292297916E-02  0.1129713889977E-04
-0.2495828152966E-02  0.1504054313023E-04
-0.3527636272346E-02  0.1866935665261E-04
-0.4710399420932E-02  0.2197829877996E-04
-0.6037880248304E-02  0.2471116857584E-04
-0.7504109959061E-02  0.2659670008058E-04
-0.9103511628942E-02  0.2737903623303E-04
-0.1083096534246E-01  0.2683936539190E-04
-0.1268180706168E-01  0.2480795092391E-04
-0.1465182959982E-01  0.2116762552568E-04
-0.1673722476146E-01  0.1585079380829E-04
-0.1893452252928E-01  0.8832103090009E-05
-0.2124055882918E-01  0.1183908267940E-06
-0.2365236633048E-01 -0.1025656309774E-04
-0.2616714541505E-01 -0.2196915042916E-04
-0.2878213190138E-01 -0.3435177486120E-04
-0.3149448343311E-01 -0.4692964824267E-04
-0.3430130306374E-01 -0.5947344569257E-04
-0.3719964914378E-01 -0.7191870422422E-04
-0.4018659732528E-01 -0.8430688106213E-04
-0.4325906633740E-01 -0.9675840176582E-04
-0.4641382124680E-01 -0.1094626104940E-03
-0.4964742574674E-01 -0.1226705236797E-03
-0.5295607772878E-01 -0.1366815501932E-03
-0.5633548989159E-01 -0.1518237895515E-03
-0.5978094084845E-01 -0.1685744532539E-03
-0.6328720481758E-01 -0.1875657242401E-03
-0.6684815626999E-01 -0.2094213472739E-03
-0.7045651570792E-01 -0.2347074931088E-03
-0.7410348425969E-01 -0.2638745514280E-03
-0.7777849985887E-01 -0.2971901535239E-03
-0.8146888265366E-01 -0.3346813667688E-03
-0.8515982550428E-01 -0.3761673590380E-03
-0.8883572921642E-01 -0.4216709330547E-03
-0.9248434587891E-01 -0.4725913655074E-03
-0.9609195387344E-01 -0.5302072699981E-03
-0.9963868104362E-01 -0.5943416753319E-03
-0.1031024536259E+00 -0.6646234996692E-03
-0.3682134620669E-03  0.4402455120245E-04
-0.9106004252465E-03  0.8846106735704E-04
-0.1622229918843E-02  0.1334430551540E-03
-0.2497360719855E-02  0.1789198303536E-03
-0.3529776984845E-02  0.2246723501386E-03
-0.4713104207490E-02  0.2703521215190E-03
-0.6041067638788E-02  0.3155319483775E-03
-0.7507680363917E-02  0.3597575645622E-03
-0.9107363187641E-02  0.4025915844358E-03
-0.1083500500320E-01  0.4436449680513E-03
-0.1268595681099E-01  0.4825945611842E-03
-0.1465602855043E-01  0.5191895979797E-03
-0.1674142811314E-01  0.5532483087612E-03
-0.1893869839409E-01  0.5846488651637E-03
-0.2124468369788E-01  0.6133172490254E-03
-0.2365641974892E-01  0.6392201904529E-03
-0.2617110597054E-01  0.6627174731034E-03
-0.2878597243722E-01  0.6846341193208E-03
-0.3149816232678E-01  0.7055449202222E-03
-0.3430475602988E-01  0.7257073492176E-03
-0.3720278242179E-01  0.7451720728768E-03
-0.4018928213570E-01  0.7638653248571E-03
-0.4326113471683E-01  0.7816261360388E-03
-0.4641506359980E-01  0.7982238486624E-03
-0.4964759062545E-01  0.8133716656612E-03
-0.5295487447012E-01  0.8267474411188E-03
-0.5633259472425E-01  0.8380237300796E-03
-0.5977600701967E-01  0.8467120253004E-03
-0.6327987777940E-01  0.8521575915941E-03
-0.6683809420268E-01  0.8537559475789E-03
-0.7044341487431E-01  0.8510161211123E-03
-0.7408710843760E-01  0.8436319366588E-03
-0.7775871221064E-01  0.8315619701555E-03
-0.8144567805172E-01  0.8150913638930E-03
-0.8513336102510E-01  0.7947705726127E-03
-0.8880635117479E-01  0.7708570629218E-03
-0.9245261219585E-01  0.7417722359893E-03
-0.9605864290984E-01  0.7060395589322E-03
-0.9960478790847E-01  0.6639918824466E-03
-0.1030691824906E+00  0.6161020718093E-03
-0.3686202894290E-03  0.8430542457193E-04
-0.9117345071313E-03  0.1695493318478E-03
-0.1624299625676E-02  0.2558813900347E-03
-0.2500459703561E-02  0.3432033126931E-03
-0.3533896591523E-02  0.4311909906892E-03
-0.4718156461117E-02  0.5193470547284E-03
-0.6046912791079E-02  0.6070684096362E-03
-0.7514153493857E-02  0.6937143744860E-03
-0.9114296068543E-02  0.7786643588065E-03
-0.1084224150649E-01  0.8613589994371E-03
-0.1269336180566E-01  0.9413228141727E-03
-0.1466349129962E-01  0.1018173249180E-02
-0.1674886155462E-01  0.1091616484881E-02
-0.1894603564372E-01  0.1161436370257E-02
-0.2125187281509E-01  0.1227480061073E-02
-0.2366341752777E-01  0.1289649112703E-02
-0.2617787368670E-01  0.1348341680651E-02
-0.2879247058935E-01  0.1404542799402E-02
-0.3150433994534E-01  0.1458929452803E-02
-0.3431054086477E-01  0.1511789167031E-02
-0.3720807319571E-01  0.1563160681135E-02
-0.4019394265826E-01  0.1612939893232E-02
-0.4326498995499E-01  0.1660927405630E-02
-0.4641789808646E-01  0.1706853470848E-02
-0.4964914980438E-01  0.1750397760141E-02
-0.5295486969616E-01  0.1791217535868E-02
-0.5633071257982E-01  0.1828987881171E-02
-0.5977192340402E-01  0.1863210170250E-02
-0.6327327790588E-01  0.1893207292744E-02
-0.6682869866679E-01  0.1918393202981E-02
-0.7043101078434E-01  0.1938350244059E-02
-0.7407158430405E-01  0.1952913662801E-02
-0.7774009422944E-01  0.1962264952314E-02
-0.8142416496306E-01  0.1966998297573E-02
-0.8510935440067E-01  0.1968031308683E-02
-0.8878047851775E-01  0.1965899613155E-02
-0.9242573972652E-01  0.1958840952798E-02
-0.9603187015282E-01  0.1945177143413E-02
-0.9957942837153E-01  0.1925396403484E-02
-0.1030467389340E+00  0.1900072132810E-02
-0.3693513184477E-03  0.1246988798376E-03
-0.9135897991108E-03  0.2508768968223E-03
-0.1627526268726E-02  0.3786978596307E-03
-0.2505156157520E-02  0.5080108358446E-03
-0.3540029545821E-02  0.6383796650938E-03
-0.4725591074605E-02  0.7691507296883E-03
-0.6055448476838E-02  0.8995387261854E-03
-0.7523558168939E-02  0.1028712247785E-02
-0.9124334128375E-02  0.1155865479790E-02
-0.1085269346195E-01  0.1280268772384E-02
-0.1270403566917E-01  0.1401295869645E-02
-0.1467422709104E-01  0.1518434889058E-02
-0.1675953073471E-01  0.1631282795212E-02
-0.1895653718290E-01  0.1739531955745E-02
-0.2126212719796E-01  0.1842953354347E-02
-0.2367335963830E-01  0.1941385798531E-02
-0.2618744831824E-01  0.2035268644527E-02
-0.2880162672089E-01  0.2125750270131E-02
-0.3151301808410E-01  0.2213612636146E-02
-0.3431866161197E-01  0.2299175679192E-02
-0.3721552854615E-01  0.2382468452009E-02
-0.4020058973928E-01  0.2463358814388E-02
-0.4327064728636E-01  0.2541611334074E-02
-0.4642234478537E-01  0.2616919621831E-02
-0.4965212841958E-01  0.2688932216270E-02
-0.5295609347932E-01  0.2757287985073E-02
-0.5632987790976E-01  0.2821666340566E-02
-0.5976872773261E-01  0.2881559408028E-02
-0.6326744448256E-01  0.2936267284328E-02
-0.6682000812964E-01  0.2985220720236E-02
-0.7041933813968E-01  0.3028072512602E-02
-0.7405693946856E-01  0.3064795507940E-02
-0.7772266305306E-01  0.3095789934297E-02
-0.8140434704524E-01  0.3121955343181E-02
-0.8508779361171E-01  0.3144574111322E-02
-0.8875808250786E-01  0.3164458456755E-02
-0.9240368328896E-01  0.3179658248489E-02
-0.9601157534634E-01  0.3188290575973E-02
-0.9956252882277E-01  0.3191000367111E-02
-0.1030350371046E+00  0.3188461724014E-02
-0.3704169130066E-03  0.1652305264790E-03
-0.9161881895101E-03  0.3324989879461E-03
-0.1631942402051E-02  0.5019807133215E-03
-0.2511490697188E-02  0.6734657035694E-03
-0.3548220895702E-02  0.8463969398394E-03
-0.4735453736002E-02  0.1019955362483E-02
-0.6066717779945E-02  0.1193165709315E-02
-0.7535932579637E-02  0.1365000679826E-02
-0.9137509424194E-02  0.1534466962012E-02
-0.1086638647076E-01  0.1700664893253E-02
-0.1271799789940E-01  0.1862819557863E-02
-0.1468825009023E-01  0.2020292921442E-02
-0.1677344546557E-01  0.2172576314686E-02
-0.1897020951688E-01  0.2319274164267E-02
-0.2127545108564E-01  0.2460084550596E-02
-0.2368624906495E-01  0.2594786489690E-02
-0.2619983258151E-01  0.2723863971834E-02
-0.2881344425263E-01  0.2848632765102E-02
-0.3152420182733E-01  0.2969983158307E-02
-0.3432912595282E-01  0.3088270285561E-02
-0.3722515963210E-01  0.3203516107399E-02
-0.4020923880033E-01  0.3315563052492E-02
-0.4327812702772E-01  0.3424142321222E-02
-0.4642842931666E-01  0.3528913559366E-02
-0.4965655748918E-01  0.3629496740056E-02
-0.5295858191153E-01  0.3725514618294E-02
-0.5633013102184E-01  0.3816652712304E-02
-0.5976646302148E-01  0.3902394520869E-02
-0.6326242099254E-01  0.3982016401383E-02
-0.6681206356416E-01  0.4054963507982E-02
-0.7040843180862E-01  0.4120955285969E-02
-0.7404319875872E-01  0.4180097323173E-02
-0.7770642963159E-01  0.4233003454449E-02
-0.8138621819681E-01  0.4280874313568E-02
-0.8506865357353E-01  0.4325354612414E-02
-0.8873911883398E-01  0.4367532026696E-02
-0.9238638097994E-01  0.4405264436241E-02
-0.9599768214008E-01  0.4436461867904E-02
-0.9955400199150E-01  0.4461929335342E-02
-0.1030339812661E+00  0.4482443426634E-02
-0.3718300865563E-03  0.2059268370478E-03
-0.9195570865634E-03  0.4144727781435E-03
-0.1637588682545E-02  0.6258213524526E-03
-0.2519513919004E-02  0.8396955089535E-03
-0.3558526636325E-02  0.1055406538854E-02
-0.4747801156438E-02  0.1271958785513E-02
-0.6080774180374E-02  0.1488177798072E-02
-0.7551324242130E-02  0.1702834415632E-02
-0.9153862075808E-02  0.1914745420092E-02
-0.1088335293639E-01  0.2122841782066E-02
-0.1273527366342E-01  0.2326202717970E-02
-0.1470557918854E-01  0.2524068019521E-02
-0.1679061954892E-01  0.2715827758547E-02
-0.1898706260319E-01  0.2901002671930E-02
-0.2129185181318E-01  0.3079221807635E-02
-0.2370209169418E-01  0.3250207848588E-02
-0.2621503205037E-01  0.3414493422965E-02
-0.2882792955885E-01  0.3573566416809E-02
-0.3153789943874E-01  0.3728429332331E-02
-0.3434194508826E-01  0.3879475689870E-02
-0.3723698156278E-01  0.4026723282802E-02
-0.4021990970156E-01  0.4169992010971E-02
-0.4328745443727E-01  0.4308982642257E-02
-0.4643618270540E-01  0.4443323770163E-02
-0.4966247379436E-01  0.4572609560861E-02
-0.5296237702054E-01  0.4696449065131E-02
-0.5633151805260E-01  0.4814535718763E-02
-0.5976517762098E-01  0.4926344843289E-02
-0.6325825525837E-01  0.5031127660753E-02
-0.6680490868677E-01  0.5128340651617E-02
-0.7039832714403E-01  0.5217765200553E-02
-0.7403038457858E-01  0.5299633732888E-02
-0.7769139906369E-01  0.5374767543843E-02
-0.8136976279651E-01  0.5444663325415E-02
-0.8505189621307E-01  0.5511325487642E-02
-0.8872352750142E-01  0.5576116328431E-02
-0.9237375392489E-01  0.5636697669863E-02
-0.9599009782926E-01  0.5690770975050E-02
-0.9955374685294E-01  0.5739306997021E-02
-0.1030434660070E+00  0.5783188487183E-02
-0.3736066802629E-03  0.2468153362205E-03
-0.9237297862183E-03  0.4968578157145E-03
-0.1644514364923E-02  0.7503150181639E-03
-0.2529286914112E-02  0.1006833051178E-02
-0.3571014134318E-02  0.1265578408681E-02
-0.4762701334281E-02  0.1525365553414E-02
-0.6097681638476E-02  0.1784810100691E-02
-0.7569789925570E-02  0.2042474346619E-02
-0.9173440082654E-02  0.2296982775102E-02
-0.1090363182267E-01  0.2547098175765E-02
-0.1275589354043E-01  0.2791757509355E-02
-0.1472623776060E-01  0.3030083270741E-02
-0.1681107056324E-01  0.3261369491680E-02
-0.1900710967192E-01  0.3485058192199E-02
-0.2131133965996E-01  0.3700713843469E-02
-0.2372089618237E-01  0.3908006722083E-02
-0.2623305503412E-01  0.4107522627877E-02
-0.2884509184688E-01  0.4300926931911E-02
-0.3155412223676E-01  0.4489338731901E-02
-0.3435713360627E-01  0.4673193493182E-02
-0.3725101325626E-01  0.4852508073104E-02
-0.4023262659294E-01  0.5027083023248E-02
-0.4329865956388E-01  0.5196591875543E-02
-0.4644564123884E-01  0.5360635328674E-02
-0.4966991976012E-01  0.5518784719464E-02
-0.5296752669505E-01  0.5670637978830E-02
-0.5633409096166E-01  0.5815898377618E-02
-0.5976492530381E-01  0.5954033424941E-02
-0.6325499964174E-01  0.6084267458966E-02
-0.6679859027178E-01  0.6206064610704E-02
-0.7038906039213E-01  0.6319262641410E-02
-0.7401851736122E-01  0.6424213854375E-02
-0.7767757101305E-01  0.6521939752130E-02
-0.8135495598720E-01  0.6614227156462E-02
-0.8503747053435E-01  0.6703437123819E-02
-0.8871123264354E-01  0.6791205847057E-02
-0.9236570589367E-01  0.6874994986045E-02
-0.9598871294678E-01  0.6952296877299E-02
-0.9956164844147E-01  0.7024256255209E-02
-0.1030633764691E+00  0.7091867983616E-02
-0.3757655819906E-03  0.2879248148296E-03
-0.9287459235174E-03  0.5797165091193E-03
-0.1652777904537E-02  0.8755615669814E-03
-0.2540881885287E-02  0.1175017359751E-02
-0.3585762625697E-02  0.1477089891938E-02
-0.4780233851349E-02  0.1780388139289E-02
-0.6117514671338E-02  0.2083305496167E-02
-0.7591395541902E-02  0.2384188434165E-02
-0.9196299086914E-02  0.2681466958899E-02
-0.1092726835343E-01  0.2973737608791E-02
-0.1277989320960E-01  0.3259799688923E-02
-0.1475025337445E-01  0.3538664284068E-02
-0.1683481961285E-01  0.3809535502521E-02
-0.1903036701610E-01  0.4071782350336E-02
-0.2133392767501E-01  0.4324909738992E-02
-0.2374267380526E-01  0.4568539892784E-02
-0.2625391243958E-01  0.4803316798880E-02
-0.2886494302254E-01  0.5031089271643E-02
-0.3157288445644E-01  0.5253097840049E-02
-0.3437470933637E-01  0.5469823807290E-02
-0.3726727728531E-01  0.5681286603596E-02
-0.4024741775336E-01  0.5887270871715E-02
-0.4331177708526E-01  0.6087426358503E-02
-0.4645684631495E-01  0.6281329279565E-02
-0.4967894333193E-01  0.6468531370531E-02
-0.5297408461403E-01  0.6648622259703E-02
-0.5633790754233E-01  0.6821317158896E-02
-0.5976576538579E-01  0.6986076149968E-02
-0.6325271129633E-01  0.7142094701689E-02
-0.6679315854091E-01  0.7288840425876E-02
-0.7038066919499E-01  0.7426201109314E-02
-0.7400761612379E-01  0.7554640912830E-02
-0.7766494021840E-01  0.7675373086488E-02
-0.8134176401985E-01  0.7790467551593E-02
-0.8502531268485E-01  0.7902638283686E-02
-0.8870214225812E-01  0.8013794502064E-02
-0.9236212277124E-01  0.8121193429688E-02
-0.9599340068592E-01  0.8222118748476E-02
-0.9957757755295E-01  0.8317900390321E-02
-0.1030935886009E+00  0.8409654062719E-02
-0.3783289929544E-03  0.3292855754758E-03
-0.9346520209494E-03  0.6631146832688E-03
-0.1662447682882E-02  0.1001666356431E-02
-0.2554382877164E-02  0.1344394851854E-02
-0.3602863789161E-02  0.1690127032574E-02
-0.4800490195035E-02  0.2037248238101E-02
-0.6140358410445E-02  0.2383915804365E-02
-0.7616215986560E-02  0.2728252660739E-02
-0.9222502073055E-02  0.3068492611687E-02
-0.1095431364699E-01  0.3403068863480E-02
-0.1280731307946E-01  0.3730648845953E-02
-0.1477765745371E-01  0.4050139251748E-02
-0.1686189103975E-01  0.4360661334815E-02
-0.1905685375469E-01  0.4661517522998E-02
-0.2135963148210E-01  0.4952158715294E-02
-0.2376743829178E-01  0.5232163815278E-02
-0.2627761762036E-01  0.5502240438710E-02
-0.2888749754371E-01  0.5764427337392E-02
-0.3159420309997E-01  0.6020091712111E-02
-0.3439469319270E-01  0.6269764890275E-02
-0.3728579971147E-01  0.6513472629306E-02
-0.4026431541747E-01  0.6750987338482E-02
-0.4332684613369E-01  0.6981938675051E-02
-0.4646984427943E-01  0.7205882046666E-02
-0.4968959784414E-01  0.7422353100710E-02
-0.5298211017388E-01  0.7630936276984E-02
-0.5634303144128E-01  0.7831361117150E-02
-0.5976776287264E-01  0.8023080803321E-02
-0.6325145246865E-01  0.8205259850029E-02
-0.6678866762618E-01  0.8377364815250E-02
-0.7037319319059E-01  0.8539326459414E-02
-0.7399769913576E-01  0.8691711726695E-02
-0.7765349711389E-01  0.8835915841955E-02
-0.8133014467741E-01  0.8974283464991E-02
-0.8501534603955E-01  0.9109876769774E-02
-0.8869614787416E-01  0.9244876669754E-02
-0.9236287187107E-01  0.9376331300398E-02
-0.9600401612434E-01  0.9501317263013E-02
-0.9960139030939E-01  0.9621364338217E-02
-0.1031339694428E+00  0.9737721279888E-02
-0.3813227507649E-03  0.3709297178652E-03
-0.9415021507206E-03  0.7471222255587E-03
-0.1673602874176E-02  0.1128741267673E-02
-0.2569886631479E-02  0.1515120653164E-02
-0.3622422395723E-02  0.1904886039582E-02
-0.4823574097745E-02  0.2296178195012E-02
-0.6166308626898E-02  0.2686903031999E-02
-0.7644334915865E-02  0.3074952007150E-02
-0.9252118992353E-02  0.3458361765754E-02
-0.1098482427815E-01  0.3835406380762E-02
-0.1283819785521E-01  0.4204628584822E-02
-0.1480848489100E-01  0.4564838956855E-02
-0.1689231210008E-01  0.4915083969980E-02
-0.1908659157066E-01  0.5254606637351E-02
-0.2138846906769E-01  0.5582809881489E-02
-0.2379520564563E-01  0.5899234334660E-02
-0.2630418621621E-01  0.6204657042647E-02
-0.2891277226502E-01  0.6501313661543E-02
-0.3161809777818E-01  0.6790703654348E-02
-0.3441710900740E-01  0.7073412806843E-02
-0.3730660990845E-01  0.7349477166253E-02
-0.4028335559023E-01  0.7618660792239E-02
-0.4334391010796E-01  0.7880577179031E-02
-0.4648468624811E-01  0.8134764872285E-02
-0.4970194187452E-01  0.8380747264745E-02
-0.5299166840682E-01  0.8618107088959E-02
-0.5634953217938E-01  0.8846590994778E-02
-0.5977098862435E-01  0.9065646074967E-02
-0.6325129084007E-01  0.9274403868461E-02
-0.6678517610320E-01  0.9472325138681E-02
-0.7036667471402E-01  0.9659375984191E-02
-0.7398878471230E-01  0.9836216033258E-02
-0.7764322858013E-01  0.1000441129550E-01
-0.8132004780387E-01  0.1016657121988E-01
-0.8500748132570E-01  0.1032610008504E-01
-0.8869312416026E-01  0.1048544829368E-01
-0.9236780107943E-01  0.1064144956610E-01
-0.9602039521123E-01  0.1079097610066E-01
-0.9963292754493E-01  0.1093577613384E-01
-0.1031843774526E+00  0.1107724807260E-01
-0.3847767199811E-03  0.4128914740675E-03
-0.9493587323452E-03  0.8318138443713E-03
-0.1686334475543E-02  0.1256905898312E-02
-0.2587503580698E-02  0.1687360118382E-02
-0.3644557034233E-02  0.2121574939537E-02
-0.4849601881718E-02  0.2557422577176E-02
-0.6195471706786E-02  0.2992540700131E-02
-0.7675844444124E-02  0.3424581451553E-02
-0.9285226299339E-02  0.3851384505380E-02
-0.1101886175953E-01  0.4271070619333E-02
-0.1287259604040E-01  0.4682066644321E-02
-0.1484277361264E-01  0.5083096717019E-02
-0.1692611260689E-01  0.5473141652432E-02
-0.1911960442768E-01  0.5851392923882E-02
-0.2142046055573E-01  0.6217211948884E-02
-0.2382599395842E-01  0.6570106384701E-02
-0.2633363598607E-01  0.6910928793460E-02
-0.2894078627656E-01  0.7242119103800E-02
-0.3164459054556E-01  0.7565314919840E-02
-0.3444198335644E-01  0.7881161116454E-02
-0.3732974037592E-01  0.8189708158888E-02
-0.4030457784930E-01  0.8490715816356E-02
-0.4336301646978E-01  0.8783785559187E-02
-0.4650142791081E-01  0.9068443292006E-02
-0.4971603907958E-01  0.9344204343366E-02
-0.5300282988230E-01  0.9610653662528E-02
-0.5635748516395E-01  0.9867558293649E-02
-0.5977551952707E-01  0.1011436049360E-01
-0.6325229990168E-01  0.1035015705891E-01
-0.6678274759094E-01  0.1057439820627E-01
-0.7036115960354E-01  0.1078707730949E-01
-0.7398089214684E-01  0.1098893561840E-01
-0.7763411885076E-01  0.1118169722864E-01
-0.8131141597004E-01  0.1136822455989E-01
-0.8500161681860E-01  0.1155225608217E-01
-0.8869292849223E-01  0.1173650810167E-01
-0.9237673782173E-01  0.1191759349839E-01
-0.9604235346999E-01  0.1209218373354E-01
-0.9967201394838E-01  0.1226226859159E-01
-0.1032446628776E+00  0.1242941839766E-01
-0.3887252643656E-03  0.4552076066146E-03
-0.9582934925788E-03  0.9172699686934E-03
-0.1700746528294E-02  0.1386288966470E-02
-0.2607358994823E-02  0.1861290595012E-02
-0.3669400909960E-02  0.2340415452574E-02
-0.4878702792797E-02  0.2821239907894E-02
-0.6227964554875E-02  0.3301115256294E-02
-0.7710844740298E-02  0.3777446982077E-02
-0.9321906385581E-02  0.4247879589314E-02
-0.1105649193393E-01  0.4710388348774E-02
-0.1291055936991E-01  0.5163294940695E-02
-0.1488056409506E-01  0.5605248253961E-02
-0.1696332454220E-01  0.6035173649860E-02
-0.1915591826914E-01  0.6452219616928E-02
-0.2145562797353E-01  0.6855712907190E-02
-0.2385982321862E-01  0.7245133662891E-02
-0.2636598663871E-01  0.7621416247916E-02
-0.2897156074029E-01  0.7987212553255E-02
-0.3167370573205E-01  0.8344304423547E-02
-0.3446934538031E-01  0.8693400592739E-02
-0.3735522654542E-01  0.9034570188710E-02
-0.4032802513533E-01  0.9367572884396E-02
-0.4338421652314E-01  0.9692002452404E-02
-0.4652012931302E-01  0.1000737665153E-01
-0.4973195800363E-01  0.1031320732827E-01
-0.5301567058240E-01  0.1060908609501E-01
-0.5636697168119E-01  0.1089480431370E-01
-0.5978143866058E-01  0.1116980128240E-01
-0.6325455935096E-01  0.1143313776534E-01
-0.6678145141169E-01  0.1168424890567E-01
-0.7035669811370E-01  0.1192314706797E-01
-0.7397404279759E-01  0.1215064320710E-01
-0.7762615060317E-01  0.1236860523386E-01
-0.8130418531510E-01  0.1258013455655E-01
-0.8499763864756E-01  0.1278929358585E-01
-0.8869540050751E-01  0.1299905894288E-01
-0.9238948785065E-01  0.1320581459057E-01
-0.9606968436226E-01  0.1340603561430E-01
-0.9971845685906E-01  0.1360198133458E-01
-0.1033146681635E+00  0.1379542355724E-01
-0.3932078190550E-03  0.4979178860182E-03
-0.9683886219010E-03  0.1003577825374E-02
-0.1716957563749E-02  0.1517029977603E-02
-0.2629594297351E-02  0.2037103483086E-02
-0.3697102709736E-02  0.2561645131131E-02
-0.4911019300875E-02  0.3087904581662E-02
-0.6263914399398E-02  0.3612927570479E-02
-0.7749443500716E-02  0.4133866609929E-02
-0.9362246894820E-02  0.4648175017853E-02
-0.1109778426954E-01  0.5153692859162E-02
-0.1295214217163E-01  0.5648649519898E-02
-0.1492189883423E-01  0.6131631477717E-02
-0.1700398164172E-01  0.6601519940228E-02
-0.1919556070415E-01  0.7057429596828E-02
-0.2149399501366E-01  0.7498659658418E-02
-0.2389671512115E-01  0.7924668279495E-02
-0.2640125966536E-01  0.8336478013505E-02
-0.2900511872796E-01  0.8736960636512E-02
-0.3170546977485E-01  0.9128048478628E-02
-0.3449922660250E-01  0.9510518978192E-02
-0.3738310658033E-01  0.9884464229837E-02
-0.4035374353084E-01  0.1024964809026E-01
-0.4340756517490E-01  0.1060566111334E-01
-0.4654085461090E-01  0.1095201767372E-01
-0.4974977185464E-01  0.1128823114130E-01
-0.5303027174073E-01  0.1161390484289E-01
-0.5637807885593E-01  0.1192885915893E-01
-0.5978883544685E-01  0.1223253313072E-01
-0.6325815549711E-01  0.1252395093348E-01
-0.6678136330228E-01  0.1280252862079E-01
-0.7035334593648E-01  0.1306828930943E-01
-0.7396826134366E-01  0.1332210106272E-01
-0.7761930626710E-01  0.1356595974816E-01
-0.8129828661203E-01  0.1380318932476E-01
-0.8499542126150E-01  0.1403816296330E-01
-0.8870036168423E-01  0.1427410924833E-01
-0.9240583387340E-01  0.1450717281566E-01
-0.9610215726457E-01  0.1473363693140E-01
-0.9977204455201E-01  0.1495606337064E-01
-0.1033942283380E+00  0.1517646423221E-01
-0.3982695861413E-03  0.5410656692215E-03
-0.9797381710041E-03  0.1090832741078E-02
-0.1735102314127E-02  0.1649281218969E-02
-0.2654368566764E-02  0.2215006654736E-02
-0.3727827521629E-02  0.2785519805829E-02
-0.4946707336970E-02  0.3357708977173E-02
-0.6303458464395E-02  0.3928294508754E-02
-0.7791755270794E-02  0.4494171363477E-02
-0.9406339902557E-02  0.5052608521428E-02
-0.1114281104997E-01  0.5601324066513E-02
-0.1299740065565E-01  0.6138470403081E-02
-0.1496682177055E-01  0.6662586173993E-02
-0.1704811895665E-01  0.7172520817212E-02
-0.1923856068585E-01  0.7667364967677E-02
-0.2153558679741E-01  0.8146397603999E-02
-0.2393669288292E-01  0.8609060377608E-02
-0.2643947817935E-01  0.9056470413906E-02
-0.2904148506499E-01  0.9491727432162E-02
-0.3173991105440E-01  0.9916920556400E-02
-0.3453166074916E-01  0.1033290077873E-01
-0.3741342117228E-01  0.1073978745826E-01
-0.4038178202836E-01  0.1113735294150E-01
-0.4343312067516E-01  0.1152518915008E-01
-0.4656367179521E-01  0.1190281208568E-01
-0.4976955823862E-01  0.1226974209698E-01
-0.5304671963331E-01  0.1262559996429E-01
-0.5639089956359E-01  0.1297024071341E-01
-0.5979780576256E-01  0.1330310687730E-01
-0.6326318165780E-01  0.1362318651079E-01
-0.6678256616396E-01  0.1392987341310E-01
-0.7035116532779E-01  0.1422319360216E-01
-0.7396357722564E-01  0.1450405923334E-01
-0.7761356958831E-01  0.1477457674261E-01
-0.8129364661623E-01  0.1503827348015E-01
-0.8499482811753E-01  0.1529981660878E-01
-0.8870761498928E-01  0.1556267461008E-01
-0.9242553406151E-01  0.1582273924648E-01
-0.9613951504940E-01  0.1607610615050E-01
-0.9983254376823E-01  0.1632567659211E-01
-0.1034831711329E+00  0.1657375276035E-01
-0.4039623842216E-03  0.5846986072356E-03
-0.9924497427661E-03  0.1179139730199E-02
-0.1755333737443E-02  0.1783210164346E-02
-0.2681860239219E-02  0.2395227311385E-02
-0.3761757788928E-02  0.3012316387983E-02
-0.4985936426899E-02  0.3630965781946E-02
-0.6346743468545E-02  0.4247550570358E-02
-0.7837900585206E-02  0.4858706235613E-02
-0.9454280942759E-02  0.5461527941602E-02
-0.1119164645268E-01  0.6053628490079E-02
-0.1304639213099E-01  0.6633101308027E-02
-0.1501537767288E-01  0.7198453582944E-02
-0.1709577239797E-01  0.7748516406029E-02
-0.1928494818796E-01  0.8282366564743E-02
-0.2158042964587E-01  0.8799270180593E-02
-0.2397978107004E-01  0.9298657720922E-02
-0.2648066676780E-01  0.9781747141445E-02
-0.2908068618533E-01  0.1025187419182E-01
-0.3177705973902E-01  0.1071129107248E-01
-0.3456668357404E-01  0.1116092710329E-01
-0.3744621333708E-01  0.1160093312253E-01
-0.4041219228913E-01  0.1203109422562E-01
-0.4346094433607E-01  0.1245100833713E-01
-0.4658865237928E-01  0.1286019831797E-01
-0.4979139884413E-01  0.1325819741971E-01
-0.5306510530849E-01  0.1364465038467E-01
-0.5640553227761E-01  0.1401945359258E-01
-0.5980845199552E-01  0.1438205810322E-01
-0.6326973852646E-01  0.1473141767350E-01
-0.6678515083342E-01  0.1506690193550E-01
-0.7035022633270E-01  0.1538853277462E-01
-0.7396002628451E-01  0.1569725337099E-01
-0.7760892748786E-01  0.1599526198141E-01
-0.8129018976888E-01  0.1628626724603E-01
-0.8499571267956E-01  0.1657520929075E-01
-0.8871694463657E-01  0.1686577949175E-01
-0.9244832049541E-01  0.1715359897743E-01
-0.9618147141449E-01  0.1743457950587E-01
-0.9989969614020E-01  0.1771200107773E-01
-0.1035813161950E+00  0.1798851562209E-01
-0.4103456919927E-03  0.6288695194950E-03
-0.1006646550923E-02  0.1268615449293E-02
-0.1777825415205E-02  0.1919002394745E-02
-0.2712269025346E-02  0.2578015373218E-02
-0.3799094266523E-02  0.3242336082759E-02
-0.5028889668675E-02  0.3908010536126E-02
-0.6393924900970E-02  0.4571049563219E-02
-0.7888004892817E-02  0.5227831046531E-02
-0.9506167864963E-02  0.5875291468609E-02
-0.1124436551138E-01  0.6510959074306E-02
-0.1309917415228E-01  0.7132889228492E-02
-0.1506761148728E-01  0.7739575858008E-02
-0.1714697826959E-01  0.8329846082147E-02
-0.1933475388628E-01  0.8902773385905E-02
-0.2162855086534E-01  0.9457618339931E-02
-0.2402600544316E-01  0.9993805245554E-02
-0.2652485136155E-01  0.1051265889437E-01
-0.2912275000267E-01  0.1101775906775E-01
-0.3181694764355E-01  0.1151152720193E-01
-0.3460433269350E-01  0.1199497555441E-01
-0.3748152821407E-01  0.1246829048479E-01
-0.4044502839425E-01  0.1293127396091E-01
-0.4349110022787E-01  0.1338353451901E-01
-0.4661587104631E-01  0.1382460728969E-01
-0.4981537906729E-01  0.1425404482937E-01
-0.5308552424177E-01  0.1467152319778E-01
-0.5642208083301E-01  0.1507698807824E-01
-0.5982088302154E-01  0.1546990563561E-01
-0.6327793448436E-01  0.1584919886941E-01
-0.6678921685140E-01  0.1621421304878E-01
-0.7035060809681E-01  0.1656496024077E-01
-0.7395765260603E-01  0.1690240204062E-01
-0.7760537226759E-01  0.1722880873122E-01
-0.8128784032121E-01  0.1754804512329E-01
-0.8499791987580E-01  0.1786529819553E-01
-0.8872811598383E-01  0.1818445925134E-01
-0.9247389751037E-01  0.1850085412717E-01
-0.9622770839162E-01  0.1881021622676E-01
-0.9997321353052E-01  0.1911624385495E-01
-0.1036884707155E+00  0.1942199723241E-01
-0.4174879389834E-03  0.6736374854103E-03
-0.1022469937413E-02  0.1359390625116E-02
-0.1802774393059E-02  0.2056865171530E-02
-0.2745818047998E-02  0.2763647516029E-02
-0.3840056930979E-02  0.3475908070171E-02
-0.5075763484487E-02  0.4189204392563E-02
-0.6445166015084E-02  0.4899166277815E-02
-0.7942197230408E-02  0.5601921171473E-02
-0.9562099506937E-02  0.6294267692132E-02
-0.1130104296097E-01  0.6973674825368E-02
-0.1315580360167E-01  0.7638183853262E-02
-0.1512356765732E-01  0.8286295394437E-02
-0.1720177279780E-01  0.8916847786336E-02
-0.1938800885247E-01  0.9528921941870E-02
-0.2167997855400E-01  0.1012177996782E-01
-0.2407539282753E-01  0.1069484457169E-01
-0.2657205912955E-01  0.1124955299618E-01
-0.2916770580430E-01  0.1178973684661E-01
-0.3185960810805E-01  0.1231799272631E-01
-0.3464464743753E-01  0.1283542017640E-01
-0.3751941287335E-01  0.1334224484248E-01
-0.4048034659068E-01  0.1383828944496E-01
-0.4352365485141E-01  0.1432317761953E-01
-0.4664540525094E-01  0.1479646229594E-01
-0.4984158756774E-01  0.1525772221192E-01
-0.5310807590011E-01  0.1570667301724E-01
-0.5644065408496E-01  0.1614331904928E-01
-0.5983521407461E-01  0.1656714996744E-01
-0.6328788582629E-01  0.1697706366896E-01
-0.6679487319835E-01  0.1737238311161E-01
-0.7035240024082E-01  0.1775310684993E-01
-0.7395651057835E-01  0.1812020341465E-01
-0.7760290418803E-01  0.1847599480314E-01
-0.8128652504009E-01  0.1882447390110E-01
-0.8500128795378E-01  0.1917104279900E-01
-0.8874087627783E-01  0.1951976158287E-01
-0.9250193853016E-01  0.1986562964556E-01
-0.9627787618963E-01  0.2020419806163E-01
-0.1000527721844E+00  0.2053966076019E-01
-0.1038044175802E+00  0.2087546035582E-01
-0.4254681145355E-03  0.7190692218891E-03
-0.1040082467951E-02  0.1451613100158E-02
-0.1830404547088E-02  0.2197031838927E-02
-0.2782756196517E-02  0.2952431994774E-02
-0.3884885772129E-02  0.3713393711071E-02
-0.5126767057918E-02  0.4474937073774E-02
-0.6500636471739E-02  0.5232298099097E-02
-0.8000608608430E-02  0.5981368067901E-02
-0.9622174171852E-02  0.6718835414214E-02
-0.1136175196842E-01  0.7442140230076E-02
-0.1321633571430E-01  0.8149336807702E-02
-0.1518328942541E-01  0.8838954018973E-02
-0.1726019166520E-01  0.9509857230997E-02
-0.1944474426760E-01  0.1016114552051E-01
-0.2173474143734E-01  0.1079208923711E-01
-0.2412797101513E-01  0.1140211346990E-01
-0.2662231840466E-01  0.1199277299320E-01
-0.2921558417457E-01  0.1256815868865E-01
-0.3190507590382E-01  0.1313104791579E-01
-0.3468766872352E-01  0.1368263146891E-01
-0.3755991613683E-01  0.1422317764263E-01
-0.4051820503537E-01  0.1475253341606E-01
-0.4355867678685E-01  0.1527034177429E-01
-0.4667733477013E-01  0.1577617901623E-01
-0.4987011574502E-01  0.1626965739399E-01
-0.5313286319932E-01  0.1675054139760E-01
-0.5646136543889E-01  0.1721890492463E-01
-0.5985156647983E-01  0.1767427160364E-01
-0.6329971686264E-01  0.1811552242182E-01
-0.6680223895657E-01  0.1854196291829E-01
-0.7035570426807E-01  0.1895357719695E-01
-0.7395666714554E-01  0.1935133124735E-01
-0.7760153449683E-01  0.1973757873355E-01
-0.8128617647024E-01  0.2011640992452E-01
-0.8500565141883E-01  0.2049340392660E-01
-0.8875495459972E-01  0.2087274916727E-01
-0.9253208762129E-01  0.2124907490786E-01
-0.9633157619657E-01  0.2161774891440E-01
-0.1001380531877E+00  0.2198351129974E-01
-0.1039288083712E+00  0.2235036746847E-01
-0.4343777914464E-03  0.7652408417869E-03
-0.1059671762241E-02  0.1545451691079E-02
-0.1860970571613E-02  0.2339767286861E-02
-0.2823360673429E-02  0.3144714421045E-02
-0.3933841361251E-02  0.3955191329384E-02
-0.5182121342314E-02  0.4765629980493E-02
-0.6560510553406E-02  0.5570866468980E-02
-0.8063370073764E-02  0.6366579518119E-02
-0.9686487905059E-02  0.7149383164696E-02
-0.1142656275879E-01  0.7916724422970E-02
-0.1328082305995E-01  0.8666700701394E-02
-0.1524681812576E-01  0.9397892033337E-02
-0.1732226955797E-01  0.1010920699280E-01
-0.1950499116308E-01  0.1079977335912E-01
-0.2179286873943E-01  0.1146887588642E-01
-0.2418376870585E-01  0.1211594527288E-01
-0.2667565864821E-01  0.1274265822213E-01
-0.2926641695548E-01  0.1335337186670E-01
-0.3195338717466E-01  0.1395104944557E-01
-0.3473343896104E-01  0.1453697647019E-01
-0.3760308841977E-01  0.1511146669773E-01
-0.4055866354141E-01  0.1567439433991E-01
-0.4359623631818E-01  0.1622542560052E-01
-0.4671174119829E-01  0.1676416565900E-01
-0.4990105712468E-01  0.1729026803728E-01
-0.5315999183692E-01  0.1780355634028E-01
-0.5648433222673E-01  0.1830418663236E-01
-0.5987006721440E-01  0.1879172934199E-01
-0.6331355985378E-01  0.1926505971491E-01
-0.6681144384948E-01  0.1972347425469E-01
-0.7036063495425E-01  0.2016694532192E-01
-0.7395820424733E-01  0.2059642998627E-01
-0.7760128888445E-01  0.2101429492400E-01
-0.8128673710364E-01  0.2142469521611E-01
-0.8501084437401E-01  0.2183334232754E-01
-0.8877006486383E-01  0.2224450084170E-01
-0.9256395177420E-01  0.2265237226605E-01
-0.9638838059633E-01  0.2305212856184E-01
-0.1002286332087E+00  0.2344913193349E-01
-0.1040616085784E+00  0.2384810132828E-01
-0.4443236967388E-03  0.8122401264185E-03
-0.1081455264881E-02  0.1641101128999E-02
-0.1894762696489E-02  0.2485374777846E-02
-0.2867939677310E-02  0.3340884693885E-02
-0.3987205046477E-02  0.4201741608045E-02
-0.5242057497692E-02  0.5061739371286E-02
-0.6624964864196E-02  0.5915318081045E-02
-0.8130610420936E-02  0.6757979488316E-02
-0.9755132575901E-02  0.7586308358943E-02
-0.1149554115427E-01  0.8397800075753E-02
-0.1334931449903E-01  0.9190627978163E-02
-0.1531419248324E-01  0.9963447118475E-02
-0.1738803973645E-01  0.1071522550126E-01
-0.1956878019721E-01  0.1144512973274E-01
-0.2185439009853E-01  0.1215246443066E-01
-0.2424281549676E-01  0.1283666823864E-01
-0.2673211046263E-01  0.1349954335651E-01
-0.2932023725476E-01  0.1414571952022E-01
-0.3200457942481E-01  0.1477835036967E-01
-0.3478200199876E-01  0.1539881894203E-01
-0.3764898160227E-01  0.1600748654299E-01
-0.4060178333229E-01  0.1660425686723E-01
-0.4363640503532E-01  0.1718882265421E-01
-0.4674870738287E-01  0.1776082329569E-01
-0.4993450664417E-01  0.1831996170971E-01
-0.5318956948351E-01  0.1886613194539E-01
-0.5650967490306E-01  0.1939958666852E-01
-0.5989084825927E-01  0.1991995855193E-01
-0.6332955472696E-01  0.2042613168641E-01
-0.6682262859523E-01  0.2091740610489E-01
-0.7036732165871E-01  0.2139374978575E-01
-0.7396122138227E-01  0.2185610894009E-01
-0.7760221145553E-01  0.2230684753118E-01
-0.8128816428851E-01  0.2275015228305E-01
-0.8501670579063E-01  0.2319181597185E-01
-0.8878590696382E-01  0.2363611342605E-01
-0.9259710633033E-01  0.2407674227235E-01
-0.9644779450121E-01  0.2450864833351E-01
-0.1003241214632E+00  0.2493792266734E-01
-0.1042024280828E+00  0.2537006516865E-01
-0.4554310141837E-03  0.8601695014880E-03
-0.1105686229822E-02  0.1738788455097E-02
-0.1932112249233E-02  0.2634204536365E-02
-0.2916835112773E-02  0.3541385312115E-02
-0.4045278564584E-02  0.4453533599490E-02
-0.5306814579525E-02  0.5363759470966E-02
-0.6694175425724E-02  0.6266125637021E-02
-0.8202453532801E-02  0.7156007472600E-02
-0.9828193781087E-02  0.8030016018986E-02
-0.1156874705140E-01  0.8885741969310E-02
-0.1342185413330E-01  0.9721469549558E-02
-0.1538544793059E-01  0.1053595308680E-01
-0.1745753363574E-01  0.1132823590700E-01
-0.1963614147178E-01  0.1209753293411E-01
-0.2191933553130E-01  0.1284317327005E-01
-0.2430514192484E-01  0.1356460482544E-01
-0.2679170565881E-01  0.1426375789019E-01
-0.2937707950949E-01  0.1494554038391E-01
-0.3205869156305E-01  0.1561330011631E-01
-0.3483340312345E-01  0.1626851962546E-01
-0.3769764893871E-01  0.1691160890709E-01
-0.4064762680814E-01  0.1754250243424E-01
-0.4367925541224E-01  0.1816092204406E-01
-0.4678831679365E-01  0.1876654635064E-01
-0.4997055982593E-01  0.1935913609693E-01
-0.5322170481257E-01  0.1993866817102E-01
-0.5653751603182E-01  0.2050550820544E-01
-0.5991404569939E-01  0.2105936940573E-01
-0.6334784851688E-01  0.2159916313731E-01
-0.6683594499985E-01  0.2212421042109E-01
-0.7037590946585E-01  0.2263448797917E-01
-0.7396583823831E-01  0.2313093526230E-01
-0.7760436912350E-01  0.2361590273917E-01
-0.8129043634195E-01  0.2409357703885E-01
-0.8502308561830E-01  0.2456977566167E-01
-0.8880217267517E-01  0.2504870282012E-01
-0.9263108734984E-01  0.2552344966194E-01
-0.9650927744017E-01  0.2598869152946E-01
-0.1004240207104E+00  0.2645132180341E-01
-0.1043510825185E+00  0.2691788812103E-01
-0.4678476800635E-03  0.9091499908396E-03
-0.1132661282018E-02  0.1838781398995E-02
-0.1973398174459E-02  0.2786664629806E-02
-0.2970425136996E-02  0.3746721326852E-02
-0.4108382779199E-02  0.4711111298591E-02
-0.5376636270211E-02  0.5672225295884E-02
-0.6768314085435E-02  0.6623787954189E-02
-0.8279015353409E-02  0.7561117186353E-02
-0.9905748606650E-02  0.8480916998744E-02
-0.1164623287583E-01  0.9380925239974E-02
-0.1349848028069E-01  0.1025957323011E-01
-0.1546061596138E-01  0.1111573851057E-01
-0.1753078050574E-01  0.1194855485709E-01
-0.1970710439503E-01  0.1275729416643E-01
-0.2198773545327E-01  0.1354131371304E-01
-0.2437077957290E-01  0.1430007089228E-01
-0.2685447739027E-01  0.1503562557596E-01
-0.2943697962001E-01  0.1575316851982E-01
-0.3211576401994E-01  0.1645624454795E-01
-0.3488768912807E-01  0.1714643662502E-01
-0.3774914501902E-01  0.1782420336593E-01
-0.4069625733259E-01  0.1848951008356E-01
-0.4372486036440E-01  0.1914210928467E-01
-0.4683065282322E-01  0.1978172333401E-01
-0.5000931182906E-01  0.2040817944800E-01
-0.5325650635255E-01  0.2102155080290E-01
-0.5656797903649E-01  0.2162233436213E-01
-0.5993979853008E-01  0.2221034518268E-01
-0.6336859446720E-01  0.2278454456166E-01
-0.6685155570070E-01  0.2334429756205E-01
-0.7038656004975E-01  0.2388960972409E-01
-0.7397219725825E-01  0.2442142570976E-01
-0.7760785644857E-01  0.2494207921869E-01
-0.8129355964666E-01  0.2545572938089E-01
-0.8502985350351E-01  0.2596815858588E-01
-0.8881855111066E-01  0.2648340296030E-01
-0.9266539681442E-01  0.2699381500346E-01
-0.9657221472726E-01  0.2749371492371E-01
-0.1005277882832E+00  0.2799089343764E-01
-0.1045073236373E+00  0.2849318922524E-01
-0.4817500488406E-03  0.9593265525962E-03
-0.1162730042332E-02  0.1941399492536E-02
-0.2019054596625E-02  0.2943234838704E-02
-0.3029126224157E-02  0.3957472200679E-02
-0.4176855150820E-02  0.4975080619902E-02
-0.5451766412118E-02  0.5987714869282E-02
-0.6847544170447E-02  0.6988829144327E-02
-0.8360400523240E-02  0.7973774446756E-02
-0.9987863305504E-02  0.8939425646116E-02
-0.1172804206372E-01  0.9883723286043E-02
-0.1357922450533E-01  0.1080528198287E-01
-0.1553972353378E-01  0.1170312523853E-01
-0.1760780709453E-01  0.1257649118127E-01
-0.1978169759161E-01  0.1342471633827E-01
-0.2205962075788E-01  0.1424718888752E-01
-0.2443976124493E-01  0.1504337479006E-01
-0.2692046036398E-01  0.1581546378407E-01
-0.2949997516788E-01  0.1656893302500E-01
-0.3217583895530E-01  0.1730752607088E-01
-0.3494490846590E-01  0.1803292591865E-01
-0.3780352579453E-01  0.1874563818381E-01
-0.4074773904668E-01  0.1944565751070E-01
-0.4377329278508E-01  0.2013276739138E-01
-0.4687579801297E-01  0.2080673781740E-01
-0.5005085636868E-01  0.2146747125530E-01
-0.5329408114351E-01  0.2211515163828E-01
-0.5660118668536E-01  0.2275042764713E-01
-0.5996824712454E-01  0.2337324066184E-01
-0.6339195072294E-01  0.2398262910962E-01
-0.6686963345835E-01  0.2457803139689E-01
-0.7039945211854E-01  0.2515951011160E-01
-0.7398046599481E-01  0.2572803701301E-01
-0.7761280072794E-01  0.2628593636881E-01
-0.8129757706457E-01  0.2683732084525E-01
-0.8503690940620E-01  0.2738787831535E-01
-0.8883473931086E-01  0.2794136405532E-01
-0.9269950248124E-01  0.2848922061539E-01
-0.9663591617158E-01  0.2902528268501E-01
-0.1006347939767E+00  0.2955831232283E-01
-0.1046708805769E+00  0.3009773535410E-01
-0.4973504815681E-03  0.1010875406680E-02
-0.1196307466478E-02  0.2047029009680E-02
-0.2069579440873E-02  0.3104484437463E-02
-0.3093394234565E-02  0.4174305813758E-02
-0.4251045415452E-02  0.5246116455252E-02
-0.5532443083662E-02  0.6310850357433E-02
-0.6932015358951E-02  0.7361796525845E-02
-0.8446698749140E-02  0.8394454078282E-02
-0.1007459097437E-01  0.9405956856052E-02
-0.1181420763239E-01  0.1039450534465E-01
-0.1366411073978E-01  0.1135893200640E-01
-0.1562279253978E-01  0.1229842683402E-01
-0.1768863737627E-01  0.1321234451154E-01
-0.1985994885648E-01  0.1410009276462E-01
-0.2213502295468E-01  0.1496109252591E-01
-0.2451212121741E-01  0.1579481631838E-01
-0.2698969114047E-01  0.1660358275699E-01
-0.2956610573675E-01  0.1739315770466E-01
-0.3223896057902E-01  0.1816748380395E-01
-0.3500511151312E-01  0.1892834202140E-01
-0.3786084868452E-01  0.1967628138075E-01
-0.4080213671696E-01  0.2041132237646E-01
-0.4382462506099E-01  0.2113327825409E-01
-0.4692383320016E-01  0.2184196968776E-01
-0.5009528449450E-01  0.2253738320747E-01
-0.5333453318336E-01  0.2321982893225E-01
-0.5663725928595E-01  0.2389012963511E-01
-0.5999953131793E-01  0.2454838067844E-01
-0.6341807854048E-01  0.2519372956671E-01
-0.6689035988073E-01  0.2582572415012E-01
-0.7041478127309E-01  0.2644452161396E-01
-0.7399083902308E-01  0.2705115477526E-01
-0.7761936717494E-01  0.2764796005541E-01
-0.8130257742001E-01  0.2823899845625E-01
-0.8504419734839E-01  0.2882981064108E-01
-0.8885045607476E-01  0.2942374594779E-01
-0.9273284509464E-01  0.3001112163181E-01
-0.9669960385697E-01  0.3058508768218E-01
-0.1007442979182E+00  0.3115541449402E-01
-0.1048414555230E+00  0.3173348016843E-01
-0.5149076849724E-03  0.1064014290874E-02
-0.1233889766761E-02  0.2156143335818E-02
-0.2125543970212E-02  0.3271095090582E-02
-0.3163723682704E-02  0.4397994751144E-02
-0.4331308798286E-02  0.5524969219945E-02
-0.5618890971048E-02  0.6642297471464E-02
-0.7021857809252E-02  0.7743256875508E-02
-0.8537981035490E-02  0.8823635693550E-02
-0.1016596934180E-01  0.9880922494505E-02
-0.1190475091414E-01  0.1091363376982E-01
-0.1375315453878E-01  0.1192085070962E-01
-0.1570983935288E-01  0.1290194697913E-01
-0.1777329231919E-01  0.1385640386451E-01
-0.1994188514330E-01  0.1478370577794E-01
-0.2221397436252E-01  0.1568330760108E-01
-0.2458789557173E-01  0.1655468550853E-01
-0.2706220853796E-01  0.1740028472229E-01
-0.2963541335991E-01  0.1822616069102E-01
-0.3230517561467E-01  0.1903645381435E-01
-0.3506835096684E-01  0.1983303883459E-01
-0.3792117278071E-01  0.2061650206842E-01
-0.4085951562419E-01  0.2138688392609E-01
-0.4387892856546E-01  0.2214402432367E-01
-0.4697483658095E-01  0.2288779670875E-01
-0.5014268322109E-01  0.2361828044786E-01
-0.5337796165165E-01  0.2433592815052E-01
-0.5667631256610E-01  0.2504176093913E-01
-0.6003378806599E-01  0.2573605892539E-01
-0.6344713993975E-01  0.2641811544665E-01
-0.6691392345447E-01  0.2708763108953E-01
-0.7043275908058E-01  0.2774490554290E-01
-0.7400353913629E-01  0.2839108088048E-01
-0.7762776381724E-01  0.2902854552233E-01
-0.8130870597500E-01  0.2966132406884E-01
-0.8505172220916E-01  0.3029477309494E-01
-0.8886546194977E-01  0.3093170652531E-01
-0.9276485067951E-01  0.3156105328864E-01
-0.9676240218532E-01  0.3217498527040E-01
-0.1008554214052E+00  0.3278425079398E-01
-0.1050187106430E+00  0.3340262073930E-01
-0.5347410685071E-03  0.1119017123292E-02
-0.1276075064771E-02  0.2269331159416E-02
-0.2187602783317E-02  0.3443890413115E-02
-0.3240643967488E-02  0.4629434746117E-02
-0.4417995933418E-02  0.5812469882353E-02
-0.5711311855336E-02  0.6982762259507E-02
-0.7117175694236E-02  0.8133790598527E-02
-0.8634295968623E-02  0.9261798240779E-02
-0.1026201880591E-01  0.1036472721226E-01
-0.1199968053601E-01  0.1144146106845E-01
-0.1384636250591E-01  0.1249135463934E-01
-0.1580087446363E-01  0.1351397790523E-01
-0.1786178968113E-01  0.1450894622762E-01
-0.2002753256805E-01  0.1547582525650E-01
-0.2229650834651E-01  0.1641410478276E-01
-0.2466712261089E-01  0.1732326117778E-01
-0.2713805415790E-01  0.1820586281045E-01
-0.2970794312554E-01  0.1906825398170E-01
-0.3237453394446E-01  0.1991476943256E-01
-0.3513468241227E-01  0.2074737072331E-01
-0.3798455916847E-01  0.2156667210864E-01
-0.4091994149603E-01  0.2237272496213E-01
-0.4393627312495E-01  0.2316539064458E-01
-0.4702888268377E-01  0.2394459641540E-01
-0.5019313400499E-01  0.2471052316835E-01
-0.5342445890324E-01  0.2546378307422E-01
-0.5671845522424E-01  0.2620562154811E-01
-0.6007114863991E-01  0.2693653709710E-01
-0.6347929472408E-01  0.2765601032053E-01
-0.6694051674987E-01  0.2836394519539E-01
-0.7045361114265E-01  0.2906084298748E-01
-0.7401881747131E-01  0.2974801946232E-01
-0.7763824565003E-01  0.3042797729866E-01
-0.8131617538492E-01  0.3110474825725E-01
-0.8505956989485E-01  0.3178349643580E-01
-0.8887958658531E-01  0.3246638095687E-01
-0.9279495215438E-01  0.3314063452314E-01
-0.9682333153662E-01  0.3379703396018E-01
-0.1009671074468E+00  0.3444715617526E-01
-0.1052022445601E+00  0.3510767661753E-01
-0.5572511054639E-03  0.1176235465869E-02
-0.1323590257472E-02  0.2387336113055E-02
-0.2256503217308E-02  0.3623874115405E-02
-0.3324710711393E-02  0.4869664606404E-02
-0.4511438542140E-02  0.6109531855952E-02
-0.5809873197792E-02  0.7332984185058E-02
-0.7218040443469E-02  0.8533983426738E-02
-0.8735666316471E-02  0.9709413286166E-02
-0.1036274088184E-01  0.1085776371765E-01
-0.1209899173417E-01  0.1197832677871E-01
-0.1394373193479E-01  0.1307074744470E-01
-0.1589590220833E-01  0.1413479892739E-01
-0.1795414381064E-01  0.1517023520546E-01
-0.2011691639602E-01  0.1617670708262E-01
-0.2238265957762E-01  0.1715374067323E-01
-0.2474984336021E-01  0.1810080917761E-01
-0.2721727305421E-01  0.1902059970177E-01
-0.2978374398213E-01  0.1991974286155E-01
-0.3244708948671E-01  0.2080276166610E-01
-0.3520416509956E-01  0.2167169388229E-01
-0.3805107138286E-01  0.2252716816345E-01
-0.4098348048262E-01  0.2336923422456E-01
-0.4399672644966E-01  0.2419776726620E-01
-0.4708604124630E-01  0.2501274836304E-01
-0.5024671106677E-01  0.2581446856415E-01
-0.5347410823041E-01  0.2660371730292E-01
-0.5676378613918E-01  0.2738199160700E-01
-0.6011173532672E-01  0.2815004448953E-01
-0.6351469679713E-01  0.2890758953182E-01
-0.6697033266425E-01  0.2965479199212E-01
-0.7047757391785E-01  0.3039242543006E-01
-0.7403695215840E-01  0.3112206160869E-01
-0.7765111738977E-01  0.3184640605330E-01
-0.8132527635120E-01  0.3256957803656E-01
-0.8506793055933E-01  0.3329658557660E-01
-0.8889276521892E-01  0.3402884738747E-01
-0.9282262507742E-01  0.3475156258316E-01
-0.9688130969077E-01  0.3545354243230E-01
-0.1010780683456E+00  0.3614684329489E-01
-0.1053915531001E+00  0.3685160288942E-01
-0.5829488905007E-03  0.1236130788253E-02
-0.1377325917250E-02  0.2511113447391E-02
-0.2333091985988E-02  0.3812278938084E-02
-0.3416489511876E-02  0.5119885874778E-02
-0.4611929932706E-02  0.6417147263188E-02
-0.5914695121056E-02  0.7693724219596E-02
-0.7324484193356E-02  0.8944415387932E-02
-0.8842086266447E-02  0.1016693711585E-01
-0.1046811722878E-01  0.1136040763350E-01
-0.1220266609116E-01  0.1252455430322E-01
-0.1404525070569E-01  0.1365931798091E-01
-0.1599492059223E-01  0.1476467518057E-01
-0.1805036541967E-01  0.1584051980375E-01
-0.2021006096172E-01  0.1688659155385E-01
-0.2247246427791E-01  0.1790245576842E-01
-0.2483610214624E-01  0.1888758022538E-01
-0.2729991457490E-01  0.1984476589405E-01
-0.2986286980324E-01  0.2078092516052E-01
-0.3252290137531E-01  0.2170075974507E-01
-0.3527686298019E-01  0.2260636807512E-01
-0.3812077601505E-01  0.2349837422528E-01
-0.4105019916511E-01  0.2437680923846E-01
-0.4406035351260E-01  0.2524155206059E-01
-0.4714637598843E-01  0.2609263674153E-01
-0.5030347956105E-01  0.2693047316707E-01
-0.5352698140063E-01  0.2775604620055E-01
-0.5681239124003E-01  0.2857113272577E-01
-0.6015565761412E-01  0.2937677818877E-01
-0.6355348971367E-01  0.3017297847595E-01
-0.6700355957087E-01  0.3096022476675E-01
-0.7050489005224E-01  0.3173964531421E-01
-0.7405824504568E-01  0.3251316910888E-01
-0.7766673402205E-01  0.3328382261544E-01
-0.8133638671714E-01  0.3405593795782E-01
-0.8507712379878E-01  0.3483446738836E-01
-0.8890508569423E-01  0.3562007268719E-01
-0.9284744399490E-01  0.3639558986533E-01
-0.9693516928539E-01  0.3714712024649E-01
-0.1011867183972E+00  0.3788653099245E-01
-0.1055859631698E+00  0.3863795472125E-01
-0.6125001656564E-03  0.1299324444358E-02
-0.1438381215439E-02  0.2641912461642E-02
-0.2418314857657E-02  0.4010628469693E-02
-0.3516528348389E-02  0.5381478462463E-02
-0.4719699705062E-02  0.6736373958923E-02
-0.6025836610056E-02  0.8065746716637E-02
-0.7436494160538E-02  0.9365647071905E-02
-0.8953519655635E-02  0.1063480188598E-01
-0.1057810942163E-01  0.1187301211825E-01
-0.1231067178015E-01  0.1308044783398E-01
-0.1415089747672E-01  0.1425733867047E-01
-0.1609792120640E-01  0.1540385667640E-01
-0.1815046128045E-01  0.1652003345836E-01
-0.2030698944643E-01  0.1760570178837E-01
-0.2256596039064E-01  0.1866047207422E-01
-0.2492594723923E-01  0.1968380716038E-01
-0.2738603341591E-01  0.2067861743396E-01
-0.2994538079695E-01  0.2165209028500E-01
-0.3260203553571E-01  0.2260909185609E-01
-0.3535284606152E-01  0.2355175886913E-01
-0.3819374347713E-01  0.2448068474139E-01
-0.4112016457409E-01  0.2539585969472E-01
-0.4412721585166E-01  0.2629715396579E-01
-0.4720994327214E-01  0.2718465335184E-01
-0.5036349360412E-01  0.2805889556312E-01
-0.5358313598889E-01  0.2892107932612E-01
-0.5686434005059E-01  0.2977328991170E-01
-0.6020300785192E-01  0.3061690400103E-01
-0.6359580141172E-01  0.3145225165325E-01
-0.6704037524981E-01  0.3228022044289E-01
-0.7053580197831E-01  0.3310238691246E-01
-0.7408301603654E-01  0.3392115770283E-01
-0.7768549821672E-01  0.3474002970368E-01
-0.8134997724486E-01  0.3556372472067E-01
-0.8508762350798E-01  0.3639732314171E-01
-0.8891684614135E-01  0.3724082987259E-01
-0.9286916769175E-01  0.3807446831639E-01
-0.9698370632131E-01  0.3888072381870E-01
-0.1012910923773E+00  0.3967012112506E-01
-0.1057845200194E+00  0.4047113272805E-01
-0.6467927755922E-03  0.1366677786167E-02
-0.1508120371077E-02  0.2781398493877E-02
-0.2513201555829E-02  0.4220812620293E-02
-0.3625313789339E-02  0.5656004876577E-02
-0.4834883003771E-02  0.7068308516286E-02
-0.6143282523487E-02  0.8449794342690E-02
-0.7554008813735E-02  0.9798203664092E-02
-0.9069899527016E-02  0.1111340618569E-01
-0.1069265961337E-01  0.1239590248000E-01
-0.1242296438832E-01  0.1364628952684E-01
-0.1426064220725E-01  0.1486506424741E-01
-0.1620488923947E-01  0.1605257782135E-01
-0.1825443378750E-01  0.1720899345984E-01
-0.2040772340312E-01  0.1833424220149E-01
-0.2266318757642E-01  0.1942799028985E-01
-0.2501943152802E-01  0.2048970139146E-01
-0.2747569094420E-01  0.2152239288029E-01
-0.3003134538715E-01  0.2253351794309E-01
-0.3268456678893E-01  0.2352808616308E-01
-0.3543219214640E-01  0.2450824054348E-01
-0.3827004891791E-01  0.2547450847667E-01
-0.4119344417454E-01  0.2642681143111E-01
-0.4419737075659E-01  0.2736499665893E-01
-0.4727679063803E-01  0.2828920092142E-01
-0.5042679417822E-01  0.2920009948247E-01
-0.5364261253939E-01  0.3009912338544E-01
-0.5691968194036E-01  0.3098869423077E-01
-0.6025385639847E-01  0.3187055830034E-01
-0.6364173808691E-01  0.3274543273540E-01
-0.6708093949108E-01  0.3361467641962E-01
-0.7057054356375E-01  0.3448041791214E-01
-0.7411159460419E-01  0.3534568044288E-01
-0.7770785365072E-01  0.3621461228083E-01
-0.8136661186462E-01  0.3709255637286E-01
-0.8510007833858E-01  0.3798500463304E-01
-0.8892862054574E-01  0.3889157744896E-01
-0.9288786256383E-01  0.3978983756137E-01
-0.9702578558847E-01  0.4065767652671E-01
-0.1013887586293E+00  0.4150243940219E-01
-0.1059857933308E+00  0.4235675913609E-01
-0.6870432512985E-03  0.1439425795556E-02
-0.1588239686675E-02  0.2931836469827E-02
-0.2618821740591E-02  0.4445172995275E-02
-0.3743205649130E-02  0.5945189493090E-02
-0.4957486789827E-02  0.7414039827646E-02
-0.6266933908073E-02  0.8846556687543E-02
-0.7676916695636E-02  0.1024255772225E-01
-0.9191129271709E-02  0.1160310545662E-01
-0.1081169220610E-01  0.1292937106111E-01
-0.1253948837094E-01  0.1422233709444E-01
-0.1437444705027E-01  0.1548273100496E-01
-0.1631580359816E-01  0.1671105755415E-01
-0.1836228031821E-01  0.1790760098596E-01
-0.2051228187141E-01  0.1907239719528E-01
-0.2276418687454E-01  0.2020518645393E-01
-0.2511661316849E-01  0.2130544818757E-01
-0.2756895687681E-01  0.2237630915074E-01
-0.3012084276123E-01  0.2342547646767E-01
-0.3277058166542E-01  0.2445807228801E-01
-0.3551498902675E-01  0.2547619992824E-01
-0.3834977325470E-01  0.2648027329310E-01
-0.4127010574562E-01  0.2747011107568E-01
-0.4427087028697E-01  0.2844552264104E-01
-0.4734695520744E-01  0.2940669670625E-01
-0.5049340694464E-01  0.3035445722484E-01
-0.5370543161303E-01  0.3129048573143E-01
-0.5697844213757E-01  0.3221756631794E-01
-0.6030824627963E-01  0.3313785099894E-01
-0.6369137718442E-01  0.3405249591707E-01
-0.6712538527886E-01  0.3496340872027E-01
-0.7060932962941E-01  0.3587338219498E-01
-0.7414430811527E-01  0.3678621191271E-01
-0.7773427337088E-01  0.3770690781016E-01
-0.8138694001208E-01  0.3864171832223E-01
-0.8511532168078E-01  0.3959693584080E-01
-0.8894132383451E-01  0.4057229191327E-01
-0.9290407079178E-01  0.4154302016215E-01
-0.9706054543833E-01  0.4248161532647E-01
-0.1014767567247E+00  0.4338955196936E-01
-0.1061875428699E+00  0.4430227131484E-01
-0.7349709092033E-03  0.1519410717439E-02
-0.1680836452999E-02  0.3096370835784E-02
-0.2736187303618E-02  0.4686581726439E-02
-0.3870346677979E-02  0.6250849771868E-02
-0.5087359548470E-02  0.7774579945642E-02
-0.6396604676721E-02  0.9256635591359E-02
-0.7805058398788E-02  0.1069911189084E-01
-0.9317085543152E-02  0.1210420274004E-01
-0.1093511660971E-01  0.1347367273850E-01
-0.1266017915230E-01  0.1480882197657E-01
-0.1449226765177E-01  0.1611055664448E-01
-0.1643063717711E-01  0.1737950026520E-01
-0.1847399233520E-01  0.1861604204002E-01
-0.2062067986260E-01  0.1982033032704E-01
-0.2286899976475E-01  0.2099220794516E-01
-0.2521755609354E-01  0.2213120027600E-01
-0.2766591145537E-01  0.2324055571360E-01
-0.3021396639143E-01  0.2432822063389E-01
-0.3286018218013E-01  0.2539938355791E-01
-0.3560133718704E-01  0.2645604154636E-01
-0.3843300423823E-01  0.2749843205302E-01
-0.4135021704715E-01  0.2852623139556E-01
-0.4434776004901E-01  0.2953919768568E-01
-0.4742046193788E-01  0.3053757629114E-01
-0.5056334001563E-01  0.3152235334630E-01
-0.5377159080779E-01  0.3249547842724E-01
-0.5704061758938E-01  0.3346012087872E-01
-0.6036618740775E-01  0.3441886988315E-01
-0.6374475949763E-01  0.3537336885410E-01
-0.6717380848547E-01  0.3632615182403E-01
-0.7065234320642E-01  0.3728079432217E-01
-0.7418146670868E-01  0.3824203414871E-01
-0.7776524254152E-01  0.3921597798747E-01
-0.8141167901195E-01  0.4021010945037E-01
-0.8513436364965E-01  0.4123200645081E-01
-0.8895625892224E-01  0.4228225159121E-01
-0.9291901833277E-01  0.4333467364406E-01
-0.9708776614655E-01  0.4435626332627E-01
-0.1015516401908E+00  0.4533914377721E-01
-0.1063861463908E+00  0.4631788408121E-01
-0.7930924557103E-03  0.1609514595353E-02
-0.1788448930738E-02  0.3279454524090E-02
-0.2866059883264E-02  0.4948464306492E-02
-0.4006552823113E-02  0.6574744937067E-02
-0.5224176702627E-02  0.8150777398227E-02
-0.6532026777278E-02  0.9680512778916E-02
-0.7938231622121E-02  0.1116818216009E-01
-0.9447623157616E-02  0.1261694041786E-01
-0.1106283107352E-01  0.1402902142614E-01
-0.1278496584625E-01  0.1540594820448E-01
-0.1461405489660E-01  0.1674874078815E-01
-0.1654935736762E-01  0.1805809762593E-01
-0.1858955422029E-01  0.1933448970284E-01
-0.2073292591919E-01  0.2057818445470E-01
-0.2297766618374E-01  0.2178916876664E-01
-0.2532233017197E-01  0.2296706889543E-01
-0.2776664835445E-01  0.2411528626659E-01
-0.3031082902962E-01  0.2524198889713E-01
-0.3295349090816E-01  0.2635236056563E-01
-0.3569135302514E-01  0.2744819458240E-01
-0.3851983739310E-01  0.2852946986092E-01
-0.4143384512221E-01  0.2959567735572E-01
-0.4442807763969E-01  0.3064651556843E-01
-0.4749732171596E-01  0.3168229745455E-01
-0.5063658175810E-01  0.3270418847716E-01
-0.5384106188390E-01  0.3371442286477E-01
-0.5710617279483E-01  0.3471657236418E-01
-0.6042765042517E-01  0.3571368661208E-01
-0.6380188037175E-01  0.3670793750933E-01
-0.6722625602677E-01  0.3770256057036E-01
-0.7069972045208E-01  0.3870203625992E-01
-0.7422334464846E-01  0.3971222511534E-01
-0.7780123522362E-01  0.4074058379268E-01
-0.8144158533759E-01  0.4179619217794E-01
-0.8515835849966E-01  0.4288846844709E-01
-0.8897511650591E-01  0.4401978824227E-01
-0.9293482569368E-01  0.4516424629706E-01
-0.9710848405919E-01  0.4628482798165E-01
-0.1016098186790E+00  0.4736085215158E-01
-0.1065756465948E+00  0.4841818245015E-01
-0.8652389580899E-03  0.1714520180111E-02
-0.1913975878462E-02  0.3487492495195E-02
-0.3008603569299E-02  0.5234634489594E-02
-0.4151215935301E-02  0.6918307976913E-02
-0.5367458445963E-02  0.8543239261815E-02
-0.6672861789332E-02  0.1011852339856E-01
-0.8076199368084E-02  0.1164998140991E-01
-0.9582582217303E-02  0.1314149431740E-01
-0.1119472737311E-01  0.1459558773595E-01
-0.1291377456606E-01  0.1601389208945E-01
-0.1473975711483E-01  0.1739746615915E-01
-0.1667192696765E-01  0.1874703134316E-01
-0.1870894195861E-01  0.2006310821487E-01
-0.2084901838096E-01  0.2134608379749E-01
-0.2309022072518E-01  0.2259614420158E-01
-0.2543101060023E-01  0.2381311088002E-01
-0.2787127876238E-01  0.2500060648291E-01
-0.3041157001361E-01  0.2616700011944E-01
-0.3305065779104E-01  0.2731735702581E-01
-0.3578517247634E-01  0.2845312237671E-01
-0.3861037656726E-01  0.2957391281208E-01
-0.4152105504700E-01  0.3067899282778E-01
-0.4451185064951E-01  0.3176800296379E-01
-0.4757752926014E-01  0.3284134391518E-01
-0.5071309872994E-01  0.3390038304810E-01
-0.5391378819675E-01  0.3494765489207E-01
-0.5717503579286E-01  0.3598714207919E-01
-0.6049256023984E-01  0.3702236476298E-01
-0.6386268000361E-01  0.3805605322134E-01
-0.6728271247405E-01  0.3909221450762E-01
-0.7075153316642E-01  0.4013635695942E-01
-0.7427015825870E-01  0.4119565040131E-01
-0.7784268538676E-01  0.4227916581550E-01
-0.8147741424615E-01  0.4339795093434E-01
-0.8518854627638E-01  0.4456384766330E-01
-0.8899989253811E-01  0.4578205492085E-01
-0.9295461477066E-01  0.4702922927666E-01
-0.9712590739946E-01  0.4826866063161E-01
-0.1016486396587E+00  0.4946615719413E-01
-0.1067462613529E+00  0.5062478015163E-01
-0.9574943951295E-03  0.1842997077994E-02
-0.2060215540698E-02  0.3729702350230E-02
-0.3162829547599E-02  0.5548616816425E-02
-0.4303312380943E-02  0.7282298420716E-02
-0.5516624285770E-02  0.8952314217620E-02
-0.6818710953829E-02  0.1057082295033E-01
-0.8218704054935E-02  0.1214460735562E-01
-0.9721796634872E-02  0.1367797119135E-01
-0.1133069615878E-01  0.1517349756896E-01
-0.1304653229258E-01  0.1663280306912E-01
-0.1486932267518E-01  0.1805690028505E-01
-0.1679830574662E-01  0.1944647664911E-01
-0.1883212207132E-01  0.2080205937280E-01
-0.2096894000141E-01  0.2212413968978E-01
-0.2320668563781E-01  0.2341316543427E-01
-0.2554367567803E-01  0.2466930924142E-01
-0.2797993750902E-01  0.2589655536559E-01
-0.3051636632830E-01  0.2710345032965E-01
-0.3315186913230E-01  0.2829474967280E-01
-0.3588295466847E-01  0.2947133526259E-01
-0.3870473369169E-01  0.3063233827154E-01
-0.4161190792157E-01  0.3177676779782E-01
-0.4459909410467E-01  0.3290422438424E-01
-0.4766106077029E-01  0.3401522874265E-01
-0.5079283387416E-01  0.3511138053743E-01
-0.5398968276592E-01  0.3619553031881E-01
-0.5724709456996E-01  0.3727206715756E-01
-0.6056078928875E-01  0.3834497043912E-01
-0.6392703278119E-01  0.3941754226604E-01
-0.6734308521011E-01  0.4049462492432E-01
-0.7080776890524E-01  0.4158287562763E-01
-0.7432204040578E-01  0.4269095869102E-01
-0.7788995376267E-01  0.4382983044187E-01
-0.8151986717883E-01  0.4501286672428E-01
-0.8522617351084E-01  0.4625487551980E-01
-0.8903271477743E-01  0.4756487909990E-01
-0.9298228830211E-01  0.4892438222653E-01
-0.9714649030723E-01  0.5030463318234E-01
-0.1016691204071E+00  0.5166659164592E-01
-0.1068824649432E+00  0.5297058804335E-01
-0.1079932917524E-02  0.2012024677674E-02
-0.2228283043322E-02  0.4018623601850E-02
-0.3325960757957E-02  0.5891800563938E-02
-0.4461703245448E-02  0.7666746811648E-02
-0.5671017308705E-02  0.9378114370740E-02
-0.6969130498052E-02  0.1103732594948E-01
-0.8365490515715E-02  0.1265205356398E-01
-0.9865100704439E-02  0.1422640279752E-01
-0.1147063404716E-01  0.1576283431428E-01
-0.1318317068700E-01  0.1726280499646E-01
-0.1500270300071E-01  0.1872719793409E-01
-0.1692845281765E-01  0.2015660588391E-01
-0.1895905178195E-01  0.2155151118728E-01
-0.2109265090925E-01  0.2291246333835E-01
-0.2332705802647E-01  0.2424021631178E-01
-0.2566040112274E-01  0.2553554231231E-01
-0.2809279316621E-01  0.2680307572138E-01
-0.3062544995299E-01  0.2805151156224E-01
-0.3325735898249E-01  0.2928495516582E-01
-0.3598488477207E-01  0.3050340738501E-01
-0.3880302724001E-01  0.3170538646879E-01
-0.4170645791159E-01  0.3288964579946E-01
-0.4468980724712E-01  0.3405578705531E-01
-0.4774787117075E-01  0.3520449726602E-01
-0.5087570508658E-01  0.3633764952876E-01
-0.5406862755702E-01  0.3745843045835E-01
-0.5732219429768E-01  0.3857161225058E-01
-0.6063215038776E-01  0.3968158621096E-01
-0.6399473560399E-01  0.4079221782913E-01
-0.6740718815001E-01  0.4190924497104E-01
-0.7086830937002E-01  0.4304058880990E-01
-0.7437901000698E-01  0.4419658425832E-01
-0.7794329431356E-01  0.4539033540925E-01
-0.8156953042538E-01  0.4663792165140E-01
-0.8527238513652E-01  0.4795745265814E-01
-0.8907565527473E-01  0.4936269356457E-01
-0.9302172541534E-01  0.5084148207039E-01
-0.9718020852765E-01  0.5238107916103E-01
-0.1016820665213E+00  0.5396646881343E-01
-0.1069618857365E+00  0.5550587979780E-01
-0.1249677154906E-02  0.2261520207001E-02
-0.2412768403194E-02  0.4365823945849E-02
-0.3493908310055E-02  0.6260434619805E-02
-0.4625716617286E-02  0.8072234939521E-02
-0.5829720369176E-02  0.9820020478853E-02
-0.7123751304218E-02  0.1151783388259E-01
-0.8516296185366E-02  0.1317217586342E-01
-0.1001234697179E-01  0.1478675665888E-01
-0.1161444788433E-01  0.1636363945252E-01
-0.1332363094800E-01  0.1790399915044E-01
-0.1513985551640E-01  0.1940850408325E-01
-0.1706232966720E-01  0.2087759169320E-01
-0.1908968221132E-01  0.2231164638998E-01
-0.2122008156639E-01  0.2371119123937E-01
-0.2345128613439E-01  0.2507723973073E-01
-0.2578124652727E-01  0.2641153042884E-01
-0.2821006691691E-01  0.2771996509792E-01
-0.3073913585748E-01  0.2901133965552E-01
-0.3336742189292E-01  0.3028845809077E-01
-0.3609117463887E-01  0.3154999726553E-01
-0.3890537886587E-01  0.3279377305971E-01
-0.4180474817296E-01  0.3401833106170E-01
-0.4478396967949E-01  0.3522334563580E-01
-0.4783789058613E-01  0.3640972970976E-01
-0.5096160409421E-01  0.3757968320048E-01
-0.5415047514433E-01  0.3873676669269E-01
-0.5740013603883E-01  0.3988608599414E-01
-0.6070638856955E-01  0.4103232940030E-01
-0.6406549489053E-01  0.4217989366467E-01
-0.6747472499330E-01  0.4333548265219E-01
-0.7093290571849E-01  0.4450838400436E-01
-0.7444094195736E-01  0.4571075180031E-01
-0.7800280135774E-01  0.4695809600481E-01
-0.8162686934929E-01  0.4826955115342E-01
-0.8532797429191E-01  0.4966689172724E-01
-0.8913074256520E-01  0.5116806733967E-01
-0.9307555045934E-01  0.5277058138686E-01
-0.9723744577135E-01  0.5447436547849E-01
-0.1017179530689E+00  0.5634258607834E-01
-0.1069646759818E+00  0.5829510970069E-01
-0.1622287996703E+00 -0.3503687736206E-01
-0.2171218629477E+00 -0.3955050239906E-01
-0.2744982545175E+00 -0.4495181253283E-01
-0.3335487875804E+00 -0.5122280258459E-01
-0.3935677099494E+00 -0.5816715301319E-01
-0.4539747077417E+00 -0.6549263211124E-01
-0.5143185177909E+00 -0.7287603878303E-01
-0.5742784000576E+00 -0.8001748031302E-01
-0.6336649083567E+00 -0.8668539017626E-01
-0.6924067658208E+00 -0.9274345324375E-01
-0.7505008161405E+00 -0.9814387381839E-01
-0.8079303105287E+00 -0.1028866241103E+00
-0.8646052996840E+00 -0.1069736143533E+00
-0.9203606712355E+00 -0.1103900391690E+00
-0.9749841175768E+00 -0.1131113826732E+00
-0.1028248253172E+01 -0.1151196674746E+00
-0.1079926399114E+01 -0.1164162075123E+00
-0.1129802701828E+01 -0.1170315901118E+00
-0.1177656931544E+01 -0.1170198064264E+00
-0.1619076242117E+00 -0.3333291436287E-01
-0.2166608439822E+00 -0.3763834235346E-01
-0.2738545412244E+00 -0.4276336366514E-01
-0.3327579630320E+00 -0.4871035257323E-01
-0.3927123404583E+00 -0.5531377925381E-01
-0.4531595219266E+00 -0.6231078475176E-01
-0.5136526199632E+00 -0.6940108665452E-01
-0.5738625841274E+00 -0.7629818495797E-01
-0.6335832730608E+00 -0.8277274272466E-01
-0.6927221345319E+00 -0.8867973268944E-01
-0.7512538641650E+00 -0.9395483263177E-01
-0.8091421695001E+00 -0.9857901900355E-01
-0.8662814505179E+00 -0.1025382817746E+00
-0.9224934612244E+00 -0.1058072940725E+00
-0.9775546946685E+00 -0.1083563067786E+00
-0.1031227158471E+01 -0.1101660486233E+00
-0.1083274948368E+01 -0.1112390610880E+00
-0.1133471608119E+01 -0.1116022532090E+00
-0.1181624529480E+01 -0.1112516670621E+00
-0.1616133561179E+00 -0.3167047775328E-01
-0.2162482322556E+00 -0.3579426462086E-01
-0.2732772356250E+00 -0.4067518476881E-01
-0.3320434323789E+00 -0.4633258233887E-01
-0.3919338851509E+00 -0.5262641957663E-01
-0.4524140103054E+00 -0.5931996777879E-01
-0.5130434574436E+00 -0.6613417363626E-01
-0.5734872051322E+00 -0.7279571114765E-01
-0.6335245045287E+00 -0.7907841481670E-01
-0.6930431760232E+00 -0.8483023462986E-01
-0.7519969607965E+00 -0.8997215307196E-01
-0.8103306852527E+00 -0.9446797175788E-01
-0.8679231888952E+00 -0.9828915804439E-01
-0.9245829360942E+00 -0.1014007428733E+00
-0.9800747499167E+00 -0.1037678950337E+00
-0.1034149939069E+01 -0.1053690991615E+00
-0.1086563067650E+01 -0.1062041546524E+00
-0.1137087719084E+01 -0.1062833179401E+00
-0.1185546831941E+01 -0.1056085337963E+00
-0.1613396382780E+00 -0.3004520548288E-01
-0.2158728708768E+00 -0.3400976343095E-01
-0.2727525430974E+00 -0.3867656174643E-01
-0.3313903540136E+00 -0.4407648455105E-01
-0.3912179855002E+00 -0.5009079528307E-01
-0.4517251525097E+00 -0.5650558669691E-01
-0.5124797661841E+00 -0.6306125995137E-01
-0.5731428230825E+00 -0.6949721270093E-01
-0.6334808473562E+00 -0.7559112422981E-01
-0.6933636044839E+00 -0.8118536068820E-01
-0.7527250507822E+00 -0.8618802535060E-01
-0.8114917626402E+00 -0.9054747315555E-01
-0.8695271531978E+00 -0.9422193019469E-01
-0.9266263036445E+00 -0.9716745389179E-01
-0.9825422307599E+00 -0.9934400703765E-01
-0.1037015593372E+01 -0.1007265506595E+00
-0.1089793933407E+01 -0.1013085751559E+00
-0.1140650768943E+01 -0.1010960612985E+00
-0.1189413253506E+01 -0.1001043256329E+00
-0.1610812922807E+00 -0.2845352316173E-01
-0.2155249423724E+00 -0.3227843606342E-01
-0.2722678112822E+00 -0.3675823140685E-01
-0.3307849852064E+00 -0.4193069461119E-01
-0.3905511042876E+00 -0.4769413190094E-01
-0.4510804979226E+00 -0.5385436877858E-01
-0.5119506208430E+00 -0.6016938417897E-01
-0.5728201606139E+00 -0.6639067225717E-01
-0.6334445898641E+00 -0.7230020200839E-01
-0.6936770854554E+00 -0.7773601693275E-01
-0.7534329350042E+00 -0.8259502709107E-01
-0.8126210973219E+00 -0.8681176754904E-01
-0.8710897519077E+00 -0.9033238072678E-01
-0.9286206419887E+00 -0.9310446204382E-01
-0.9849550179377E+00 -0.9508255594839E-01
-0.1039823580435E+01 -0.9623707034961E-01
-0.1092967432592E+01 -0.9655741468862E-01
-0.1144157521180E+01 -0.9605044484995E-01
-0.1193218139372E+01 -0.9474502523414E-01
-0.1608339146083E+00 -0.2689243709021E-01
-0.2151957774013E+00 -0.3059497247887E-01
-0.2718115453529E+00 -0.3491233106193E-01
-0.3302145866887E+00 -0.3988518812783E-01
-0.3899205122218E+00 -0.4542496521534E-01
-0.4504681646352E+00 -0.5135419493786E-01
-0.5114454523447E+00 -0.5744653812354E-01
-0.5725101238305E+00 -0.6346481242785E-01
-0.6334080722182E+00 -0.6919554070925E-01
-0.6939772308909E+00 -0.7447352943954E-01
-0.7541152774880E+00 -0.7918603498948E-01
-0.8137141941642E+00 -0.8325527497822E-01
-0.8726072019282E+00 -0.8661635760605E-01
-0.9305628640704E+00 -0.8920886569296E-01
-0.9873109176801E+00 -0.9098181752563E-01
-0.1042572472143E+01 -0.9190147526561E-01
-0.1096081729298E+01 -0.9195509574372E-01
-0.1147604541226E+01 -0.9115258220699E-01
-0.1196958029839E+01 -0.8953406896380E-01
-0.1605936696417E+00 -0.2535929442490E-01
-0.2148776620629E+00 -0.2895483779912E-01
-0.2713732981012E+00 -0.3313205129056E-01
-0.3296673692843E+00 -0.3793109929387E-01
-0.3893142460147E+00 -0.4327294860313E-01
-0.4498768289338E+00 -0.4899395545823E-01
-0.5109540484139E+00 -0.5488155594570E-01
-0.5722038047244E+00 -0.6070901938355E-01
-0.6333636819747E+00 -0.6626753253227E-01
-0.6942575902367E+00 -0.7138958567117E-01
-0.7547665974067E+00 -0.7595416833521E-01
-0.8147663644100E+00 -0.7987255789923E-01
-0.8740755047773E+00 -0.8306980243338E-01
-0.9324496628186E+00 -0.8547793760264E-01
-0.9896073019079E+00 -0.8704073502370E-01
-0.1045259969739E+01 -0.8772101719841E-01
-0.1099134149069E+01 -0.8750516480168E-01
-0.1150988556411E+01 -0.8640663739376E-01
-0.1200630511186E+01 -0.8447442330714E-01
-0.1603571583397E+00 -0.2385168490358E-01
-0.2145636843687E+00 -0.2735404798721E-01
-0.2709435612982E+00 -0.3141139976315E-01
-0.3291324340809E+00 -0.3606050691979E-01
-0.3887210841365E+00 -0.4122868295615E-01
-0.4492957229472E+00 -0.4676340035015E-01
-0.5104665670345E+00 -0.5246399351308E-01
-0.5718924998446E+00 -0.5811324231818E-01
-0.6333038735709E+00 -0.6350697997049E-01
-0.6945116707620E+00 -0.6847614846822E-01
-0.7553812926002E+00 -0.7289270918303E-01
-0.8157727462217E+00 -0.7665826267785E-01
-0.8754904525651E+00 -0.7968872498637E-01
-0.9342774380369E+00 -0.8190914330967E-01
-0.9918410584706E+00 -0.8325850078322E-01
-0.1047883137872E+01 -0.8369684364447E-01
-0.1102121597737E+01 -0.8321034992449E-01
-0.1154306477237E+01 -0.8181581623015E-01
-0.1204233666859E+01 -0.7956898319892E-01
-0.1601213283617E+00 -0.2236737774234E-01
-0.2142476086781E+00 -0.2578902977072E-01
-0.2705136582632E+00 -0.2974501960942E-01
-0.3285997021668E+00 -0.3426625904298E-01
-0.3881305088442E+00 -0.3928356278246E-01
-0.4487146191134E+00 -0.4465301184975E-01
-0.5099735336387E+00 -0.5018402371175E-01
-0.5715677128946E+00 -0.5566790904837E-01
-0.6332211712813E+00 -0.6090502547547E-01
-0.6947329392152E+00 -0.6572539671368E-01
-0.7559536373384E+00 -0.6999505710299E-01
-0.8167282923338E+00 -0.7360709376677E-01
-0.8768475868944E+00 -0.7646919687996E-01
-0.9360422372334E+00 -0.7850004149570E-01
-0.9940085990195E+00 -0.7963432560307E-01
-0.1050438541637E+01 -0.7982982658760E-01
-0.1105040688718E+01 -0.7907279648370E-01
-0.1157555271525E+01 -0.7738284880756E-01
-0.1207765735342E+01 -0.7482073078553E-01
-0.1598834122478E+00 -0.2090427933690E-01
-0.2139237802060E+00 -0.2425652051276E-01
-0.2700756550683E+00 -0.2812804895294E-01
-0.3280598534167E+00 -0.3254182112795E-01
-0.3875326742693E+00 -0.3742963398028E-01
-0.4481238205165E+00 -0.4265387891386E-01
-0.5094658455019E+00 -0.4803232856706E-01
-0.5712211663835E+00 -0.5336383300786E-01
-0.6331081837378E+00 -0.5845307010950E-01
-0.6949148363515E+00 -0.6312965379795E-01
-0.7564777935302E+00 -0.6725466763642E-01
-0.8176277712615E+00 -0.7071376052517E-01
-0.8781421888574E+00 -0.7340727697548E-01
-0.9377397581534E+00 -0.7524815008302E-01
-0.9961059158656E+00 -0.7616726847299E-01
-0.1052922351747E+01 -0.7612049386330E-01
-0.1107887798683E+01 -0.7509418965519E-01
-0.1160731869144E+01 -0.7311017120000E-01
-0.1211224946996E+01 -0.7023274071974E-01
-0.1596408821188E+00 -0.1946040313278E-01
-0.2135870487474E+00 -0.2275349572215E-01
-0.2696222835797E+00 -0.2655601233215E-01
-0.3275042684062E+00 -0.3088115128798E-01
-0.3869183720594E+00 -0.3565947065192E-01
-0.4475141462889E+00 -0.4075758559948E-01
-0.5089347701429E+00 -0.4600000225531E-01
-0.5708448067595E+00 -0.5119213044252E-01
-0.6329576110353E+00 -0.5614270323904E-01
-0.6950507823594E+00 -0.6068132835818E-01
-0.7569478105306E+00 -0.6466500210393E-01
-0.8184657587763E+00 -0.6797292661345E-01
-0.8793692677137E+00 -0.7049894235596E-01
-0.9393653522606E+00 -0.7215085117936E-01
-0.9981286137870E+00 -0.7285615340202E-01
-0.1055330382402E+01 -0.7256902577239E-01
-0.1110659051980E+01 -0.7127584622688E-01
-0.1163833052644E+01 -0.6900001145432E-01
-0.1214609369810E+01 -0.6580817841389E-01
-0.1593914173191E+00 -0.1803384660101E-01
-0.2132327106489E+00 -0.2127711314881E-01
-0.2691468802057E+00 -0.2502473299797E-01
-0.3269249807953E+00 -0.2927859373536E-01
-0.3862790033841E+00 -0.3396606420895E-01
-0.4468769213981E+00 -0.3895610573051E-01
-0.5083719477276E+00 -0.4407845591164E-01
-0.5704308139602E+00 -0.4914413628282E-01
-0.6327622569238E+00 -0.5396562862607E-01
-0.6951341881318E+00 -0.5837284875452E-01
-0.7573576328353E+00 -0.6221946614231E-01
-0.8192366423018E+00 -0.6537914409620E-01
-0.8805235682857E+00 -0.6774000943920E-01
-0.9409140446912E+00 -0.6920530454140E-01
-0.1000071942922E+01 -0.6969950304785E-01
-0.1057658115775E+01 -0.6917523939422E-01
-0.1113350302412E+01 -0.6761873958562E-01
-0.1166855381044E+01 -0.6505439559086E-01
-0.1217916796488E+01 -0.6155022785438E-01
-0.1591328807900E+00 -0.1662277327714E-01
-0.2128564639648E+00 -0.1982466897314E-01
-0.2686433365004E+00 -0.2353026168811E-01
-0.3263146374977E+00 -0.2772878862788E-01
-0.3856065548234E+00 -0.3234272578276E-01
-0.4462039677775E+00 -0.3724170713698E-01
-0.5077693935428E+00 -0.4225932903439E-01
-0.5699716104820E+00 -0.4721132471833E-01
-0.6325150402553E+00 -0.5191359395537E-01
-0.6951584659048E+00 -0.5619659950373E-01
-0.7577011082645E+00 -0.5991134878934E-01
-0.8199346278505E+00 -0.6292678947789E-01
-0.8815995810970E+00 -0.6512606459269E-01
-0.9423805512326E+00 -0.6640838042704E-01
-0.1001930817931E+01 -0.6669549101521E-01
-0.1059900706649E+01 -0.6593857155586E-01
-0.1115957103572E+01 -0.6412349967467E-01
-0.1169795119583E+01 -0.6127512763435E-01
-0.1221144659606E+01 -0.5746200547652E-01
-0.1588633021799E+00 -0.1522539831070E-01
-0.2124543746572E+00 -0.1839356249181E-01
-0.2681060607364E+00 -0.2206881758001E-01
-0.3256664671728E+00 -0.2622659474510E-01
-0.3848935795296E+00 -0.3078299963669E-01
-0.4454875984647E+00 -0.3560686407135E-01
-0.5071195021928E+00 -0.4053440643424E-01
-0.5694598716148E+00 -0.4538523330264E-01
-0.6322090075319E+00 -0.4997832232573E-01
-0.6951170414534E+00 -0.5414485839272E-01
-0.7579719987654E+00 -0.5773376189798E-01
-0.8205537505122E+00 -0.6061000219066E-01
-0.8825915549481E+00 -0.6265240194545E-01
-0.9437592932524E+00 -0.6375660299530E-01
-0.1003699829427E+01 -0.6384190000071E-01
-0.1062052978145E+01 -0.6285805400055E-01
-0.1118474676840E+01 -0.6079039242319E-01
-0.1172648179690E+01 -0.5766374776585E-01
-0.1224289964884E+01 -0.5354648317765E-01
-0.1585808662596E+00 -0.1383997655712E-01
-0.2120228520271E+00 -0.1698126698903E-01
-0.2675299493005E+00 -0.2063673847319E-01
-0.3249742568353E+00 -0.2476702238577E-01
-0.3841331841329E+00 -0.2928058582190E-01
-0.4447206154899E+00 -0.3404417684565E-01
-0.5064150542877E+00 -0.3889554024185E-01
-0.5688885375874E+00 -0.4365739028087E-01
-0.6318373473208E+00 -0.4815144555564E-01
-0.6950033685672E+00 -0.5220973456725E-01
-0.7581639941345E+00 -0.5567958077266E-01
-0.8210878879995E+00 -0.5842262610148E-01
-0.8834935111382E+00 -0.6031396668223E-01
-0.9450444112422E+00 -0.6124609938070E-01
-0.1005373251349E+01 -0.6113608060937E-01
-0.1064109414073E+01 -0.5993228010372E-01
-0.1120897881406E+01 -0.5761928312477E-01
-0.1175410067728E+01 -0.5422147770563E-01
-0.1227349232607E+01 -0.4980641554508E-01
-0.1582839056583E+00 -0.1246479249274E-01
-0.2115586319950E+00 -0.1558530507274E-01
-0.2669103668809E+00 -0.1923043786086E-01
-0.3242323361951E+00 -0.2334517417922E-01
-0.3833190215206E+00 -0.2782927023544E-01
-0.4438963119097E+00 -0.3254629737724E-01
-0.5056492260945E+00 -0.3733457602079E-01
-0.5682508281107E+00 -0.4201924436581E-01
-0.6313934070377E+00 -0.4642443867141E-01
-0.6948109462436E+00 -0.5038310714585E-01
-0.7582707288901E+00 -0.5374138553225E-01
-0.8215307773202E+00 -0.5635815271113E-01
-0.8842992598866E+00 -0.5810530072868E-01
-0.9462297790998E+00 -0.5887254976639E-01
-0.1006945048485E+01 -0.5857490655193E-01
-0.1066064153378E+01 -0.5715936140238E-01
-0.1123221190825E+01 -0.5460958532297E-01
-0.1178075843970E+01 -0.5094915347553E-01
-0.1230318447277E+01 -0.4624425936059E-01
-0.1579708970293E+00 -0.1109815165498E-01
-0.2110587668375E+00 -0.1420322768045E-01
-0.2662431341550E+00 -0.1784636780670E-01
-0.3234355688349E+00 -0.2195619289193E-01
-0.3824452889785E+00 -0.2642286170097E-01
-0.4430084776764E+00 -0.3110586095277E-01
-0.5048156018493E+00 -0.3584328396648E-01
-0.5675402588609E+00 -0.4046209856244E-01
-0.6308707113261E+00 -0.4478855778792E-01
-0.6945333373306E+00 -0.4865656715218E-01
-0.7582858003640E+00 -0.5191140636536E-01
-0.8218760320261E+00 -0.5440966917634E-01
-0.8850024161505E+00 -0.5602049371301E-01
-0.9473090165338E+00 -0.5663114166650E-01
-0.1008408881721E+01 -0.5615473113900E-01
-0.1067910983580E+01 -0.5453688194120E-01
-0.1125438670974E+01 -0.5176020582462E-01
-0.1180640084240E+01 -0.4784715537411E-01
-0.1233193006978E+01 -0.4286209141095E-01
-0.1576404602226E+00 -0.9738373191447E-02
-0.2105206207198E+00 -0.1283259576320E-01
-0.2655245224750E+00 -0.1648098616148E-01
-0.3225793500935E+00 -0.2059521458870E-01
-0.3815067319361E+00 -0.2505513452440E-01
-0.4420514098503E+00 -0.2971542287430E-01
-0.5039081893928E+00 -0.3441329404648E-01
-0.5667506606487E+00 -0.3897704699994E-01
-0.6302629828250E+00 -0.4323478033448E-01
-0.6941641894477E+00 -0.4702136154609E-01
-0.7582027889493E+00 -0.5018147102079E-01
-0.8221171613112E+00 -0.5256980876884E-01
-0.8855964168310E+00 -0.5405313602662E-01
-0.9482755026455E+00 -0.5451652485267E-01
-0.1009758115100E+01 -0.5387134186336E-01
-0.1069643337823E+01 -0.5206184803419E-01
-0.1127543964050E+01 -0.4906948348561E-01
-0.1183096849013E+01 -0.4491533072427E-01
-0.1235967678112E+01 -0.3966151724423E-01
-0.1572913600466E+00 -0.8383783300531E-02
-0.2099418703071E+00 -0.1147096409888E-01
-0.2647512548454E+00 -0.1513072728952E-01
-0.3216596111609E+00 -0.1925732625662E-01
-0.3804986530663E+00 -0.2371977580195E-01
-0.4410199270827E+00 -0.2836739957416E-01
-0.5029214391277E+00 -0.3303603501042E-01
-0.5658762012441E+00 -0.3755491500121E-01
-0.6295641651851E+00 -0.4175374807142E-01
-0.6936972578938E+00 -0.4546833988863E-01
-0.7580152800822E+00 -0.4854295500642E-01
-0.8222475905326E+00 -0.5083070409206E-01
-0.8860745391361E+00 -0.5219627426899E-01
-0.9491223907619E+00 -0.5252276756389E-01
-0.1010985824951E+01 -0.5171991454874E-01
-0.1071254295595E+01 -0.4973063583739E-01
-0.1129530278290E+01 -0.4653512484140E-01
-0.1185439659727E+01 -0.4215291251546E-01
-0.1238636555200E+01 -0.3664357271534E-01
-0.1569225103302E+00 -0.7032709379015E-02
-0.2093205099472E+00 -0.1011586677662E-01
-0.2639205126891E+00 -0.1379197559258E-01
-0.3206728290354E+00 -0.1793752708356E-01
-0.3794169265805E+00 -0.2241033676094E-01
-0.4399093883585E+00 -0.2705401369108E-01
-0.5018502663674E+00 -0.3170267701095E-01
-0.5649114099353E+00 -0.3618620233998E-01
-0.6287684483692E+00 -0.4033571296610E-01
-0.6931264305114E+00 -0.4398790371212E-01
-0.7577168879041E+00 -0.4698673446933E-01
-0.8222606831796E+00 -0.4918394291406E-01
-0.8864299203301E+00 -0.5044236896122E-01
-0.9498426250174E+00 -0.5064331419881E-01
-0.1012084811761E+01 -0.4969496782120E-01
-0.1072736587847E+01 -0.4753893803846E-01
-0.1131390383869E+01 -0.4415413785333E-01
-0.1187661482967E+01 -0.3955843660569E-01
-0.1241193028294E+01 -0.3380862039835E-01
-0.1565329800819E+00 -0.5683474730768E-02
-0.2086548610469E+00 -0.8764803990756E-02
-0.2630299480067E+00 -0.1246104125531E-01
-0.3196160420478E+00 -0.1663069272134E-01
-0.3782580175647E+00 -0.2112018752347E-01
-0.4387157159686E+00 -0.2576724267059E-01
-0.5006900771171E+00 -0.3040407760826E-01
-0.5638512048831E+00 -0.3486102963371E-01
-0.6278702962763E+00 -0.3897048596925E-01
-0.6924457545199E+00 -0.4256995863449E-01
-0.7573012806097E+00 -0.4550314173448E-01
-0.8221497643498E+00 -0.4762052656025E-01
-0.8866555790518E+00 -0.4878325458548E-01
-0.9504289590175E+00 -0.4887094487835E-01
-0.1013047615265E+01 -0.4779031878924E-01
-0.1074082606977E+01 -0.4548171092171E-01
-0.1133116615561E+01 -0.4192276523402E-01
-0.1189754722236E+01 -0.3712965757949E-01
-0.1243629760206E+01 -0.3115624950292E-01
-0.1561220015970E+00 -0.4334393708525E-02
-0.2079435853631E+00 -0.7415229829660E-02
-0.2620777006177E+00 -0.1113413770496E-01
-0.3184868706940E+00 -0.1533154193102E-01
-0.3770190061863E+00 -0.1984247472818E-01
-0.4374354226197E+00 -0.2449877046508E-01
-0.4994367972568E+00 -0.2913073091067E-01
-0.5626909232730E+00 -0.3356908776978E-01
-0.6268644767056E+00 -0.3764738865749E-01
-0.6916494653314E+00 -0.4120386916921E-01
-0.7567622075016E+00 -0.4408192339932E-01
-0.8219081457880E+00 -0.4613083075499E-01
-0.8867444383266E+00 -0.4721010197065E-01
-0.9508739768118E+00 -0.4719773721537E-01
-0.1013866533085E+01 -0.4599904069479E-01
-0.1075284422225E+01 -0.4355312298630E-01
-0.1134700882698E+01 -0.3983641840730E-01
-0.1191711218736E+01 -0.3486346407482E-01
-0.1245938670285E+01 -0.2868517314418E-01
-0.1556889804213E+00 -0.2983767182053E-02
-0.2071857020258E+00 -0.6064540794641E-02
-0.2610624202675E+00 -0.9807360352042E-02
-0.3172835435771E+00 -0.1403460509287E-01
-0.3756976166202E+00 -0.1857008153101E-01
-0.4360656425937E+00 -0.2323994199041E-01
-0.4980869050921E+00 -0.2787271968224E-01
-0.5614263542750E+00 -0.3229959034194E-01
-0.6257460936955E+00 -0.3635520779153E-01
-0.6907320173945E+00 -0.3987841627522E-01
-0.7560935277901E+00 -0.4271220099031E-01
-0.8215291524998E+00 -0.4470456893161E-01
-0.8866893502615E+00 -0.4571338320078E-01
-0.9511701161518E+00 -0.4561503080586E-01
-0.1014533642936E+01 -0.4431342351615E-01
-0.1076333800556E+01 -0.4174650652153E-01
-0.1136134687055E+01 -0.3788961379731E-01
-0.1193522261259E+01 -0.3275579426545E-01
-0.1248110929234E+01 -0.2639312196995E-01
-0.1552335071282E+00 -0.1629878231807E-02
-0.2063806082017E+00 -0.4710064796820E-02
-0.2599832934768E+00 -0.8476666198505E-02
-0.3160049283287E+00 -0.1273419408765E-01
-0.3742922505787E+00 -0.1729558952969E-01
-0.4346041668752E+00 -0.2198172001950E-01
-0.4966374672457E+00 -0.2661967027259E-01
-0.5600537748445E+00 -0.3104122910060E-01
-0.6245106223296E+00 -0.3508215286597E-01
-0.6896881171965E+00 -0.3858175770739E-01
-0.7552892412615E+00 -0.4138243417866E-01
-0.8210061510096E+00 -0.4333075798672E-01
-0.8864831223924E+00 -0.4428283914663E-01
-0.9513096939202E+00 -0.4411339487082E-01
-0.1015040828269E+01 -0.4272493844074E-01
-0.1077222233142E+01 -0.4005431353162E-01
-0.1137409148896E+01 -0.3607591317111E-01
-0.1195178607333E+01 -0.3080155321548E-01
-0.1250136962899E+01 -0.2427673674909E-01
-0.1547553709128E+00 -0.2709879567756E-03
-0.2055281033855E+00 -0.3349050356234E-02
-0.2588400750681E+00 -0.7137853866892E-02
-0.3146505673861E+00 -0.1142437301774E-01
-0.3728020252876E+00 -0.1601124211881E-01
-0.4330494820853E+00 -0.2071464415935E-01
-0.4950861777579E+00 -0.2536071020008E-01
-0.5585699883032E+00 -0.2978213240868E-01
-0.6231539460348E+00 -0.3381581672000E-01
-0.6885127585193E+00 -0.3730139120341E-01
-0.7543435209298E+00 -0.4008038647607E-01
-0.8203325793034E+00 -0.4199768629749E-01
-0.8861185455812E+00 -0.4290744948571E-01
-0.9512849334726E+00 -0.4268259921294E-01
-0.1015379807085E+01 -0.4122420689056E-01
-0.1077940967279E+01 -0.3846807729284E-01
-0.1138515041783E+01 -0.3438786953407E-01
-0.1196670516144E+01 -0.2899453453510E-01
-0.1252006472302E+01 -0.2233145575797E-01
-0.1542545750572E+00  0.1094668720105E-02
-0.2046284173943E+00 -0.1978655709474E-02
-0.2576331243958E+00 -0.5786543580134E-02
-0.3132207185672E+00 -0.1009892922054E-01
-0.3712268157716E+00 -0.1470890878487E-01
-0.4314008130531E+00 -0.1942879158752E-01
-0.4934314002577E+00 -0.2408442828408E-01
-0.5569723656358E+00 -0.2850982680280E-01
-0.6216723964218E+00 -0.3254313942670E-01
-0.6872012601132E+00 -0.3602412070449E-01
-0.7532507478747E+00 -0.3879309344939E-01
-0.8195019785584E+00 -0.4069288384266E-01
-0.8855884233068E+00 -0.4157540500151E-01
-0.9510879934350E+00 -0.4131158855586E-01
-0.1015542163251E+01 -0.3980097481601E-01
-0.1078481043319E+01 -0.3697838099984E-01
-0.1139442836134E+01 -0.3281698079871E-01
-0.1197987794894E+01 -0.2732734716603E-01
-0.1253708471248E+01 -0.2055140527840E-01
-0.1537313543872E+00  0.2468887389612E-02
-0.2036822422427E+00 -0.5959374729801E-03
-0.2563634463907E+00 -0.4418156539635E-02
-0.3117164004182E+00 -0.8751343945643E-02
-0.3695673013023E+00 -0.1338004978735E-01
-0.4296581688093E+00 -0.1811373918739E-01
-0.4916722129858E+00 -0.2277883722137E-01
-0.5552588893714E+00 -0.2721120180906E-01
-0.6200627956855E+00 -0.3125037578541E-01
-0.6857493059777E+00 -0.3473602593856E-01
-0.7520055485615E+00 -0.3750683356511E-01
-0.8185080268714E+00 -0.3940309417849E-01
-0.8848856022351E+00 -0.4027408166388E-01
-0.9507109973634E+00 -0.3998845995318E-01
-0.1015519379416E+01 -0.3844409268508E-01
-0.1078833335762E+01 -0.3557483504156E-01
-0.1140182751467E+01 -0.3135365335985E-01
-0.1199119859581E+01 -0.2579135075296E-01
-0.1255231342423E+01 -0.1892929560128E-01
-0.1531861949559E+00  0.3853498784582E-02
-0.2026907682912E+00  0.8021615293411E-03
-0.2550327377813E+00 -0.3027893107977E-02
-0.3101394425802E+00 -0.7374762059360E-02
-0.3678250161464E+00 -0.1201568071970E-01
-0.4278223920956E+00 -0.1675852682757E-01
-0.4898084568078E+00 -0.2143133866987E-01
-0.5534282003042E+00 -0.2587247841625E-01
-0.6183225020281E+00 -0.2992306710920E-01
-0.6841529889866E+00 -0.3342243616289E-01
-0.7506028356024E+00 -0.3620710223385E-01
-0.8173445759062E+00 -0.3811424829032E-01
-0.8840030045308E+00 -0.3899001596377E-01
-0.9501460639428E+00 -0.3870044273694E-01
-0.1015302870466E+01 -0.3714150154874E-01
-0.1078988597299E+01 -0.3424606479371E-01
-0.1140724816783E+01 -0.2998717900254E-01
-0.1200055810585E+01 -0.2437660350461E-01
-0.1256562913745E+01 -0.1745632499691E-01
-0.1526198561094E+00  0.5250374042079E-02
-0.2016557247284E+00  0.2218826074712E-02
-0.2536434381570E+00 -0.1610708619707E-02
-0.3084925402984E+00 -0.5961959447893E-02
-0.3660024032164E+00 -0.1060633567303E-01
-0.4258952105778E+00 -0.1535162067610E-01
-0.4878407841103E+00 -0.2002868995711E-01
-0.5514796448057E+00 -0.2447918060410E-01
-0.6164494559022E+00 -0.2854601701187E-01
-0.6824088559264E+00 -0.3206790793768E-01
-0.7490378504522E+00 -0.3487858865052E-01
-0.8160056892436E+00 -0.3681143902117E-01
-0.8829336605080E+00 -0.3770887902551E-01
-0.9493853356410E+00 -0.3743387796123E-01
-0.1014884014795E+01 -0.3588022296690E-01
-0.1078937503363E+01 -0.3297970877683E-01
-0.1141058938215E+01 -0.2870572696995E-01
-0.1200784524913E+01 -0.2307182456923E-01
-0.1257690559131E+01 -0.1612209202271E-01
-0.1520333956107E+00  0.6661430761518E-02
-0.2005794255626E+00  0.3657384451322E-02
-0.2521987872326E+00 -0.1612862122548E-03
-0.3067793144967E+00 -0.4505307675767E-02
-0.3641028721683E+00 -0.9142028947879E-02
-0.4238792915191E+00 -0.1388087695676E-01
-0.4857707106020E+00 -0.1855697328992E-01
-0.5494133250110E+00 -0.2301611133819E-01
-0.6144422296572E+00 -0.2710327328395E-01
-0.6805139569822E+00 -0.3065620970769E-01
-0.7473062116513E+00 -0.3350515841793E-01
-0.8144856863497E+00 -0.3547889824310E-01
-0.8816707448750E+00 -0.3641544997346E-01
-0.9484210071051E+00 -0.3617419666957E-01
-0.1014254182115E+01 -0.3464635323745E-01
-0.1078670694138E+01 -0.3176243111472E-01
-0.1141174970929E+01 -0.2749635884183E-01
-0.1201294763479E+01 -0.2186437990198E-01
-0.1258601323460E+01 -0.1491452332616E-01
-0.1514281984083E+00  0.8088640411493E-02
-0.1994648217441E+00  0.5121327776002E-02
-0.2507028884304E+00  0.1325995062593E-02
-0.3050043768708E+00 -0.2996734196569E-02
-0.3621308608525E+00 -0.7612213913033E-02
-0.4217782984708E+00 -0.1233350505045E-01
-0.4836006683434E+00 -0.1700156658120E-01
-0.5472301500312E+00 -0.2146733239960E-01
-0.6123000786894E+00 -0.2557811576580E-01
-0.6784658981128E+00 -0.2917031397442E-01
-0.7454039680388E+00 -0.3206984330933E-01
-0.8127791928829E+00 -0.3409997717082E-01
-0.8802076177728E+00 -0.3509358590855E-01
-0.9472453530690E+00 -0.3490589105002E-01
-0.1013404754870E+01 -0.3342505609401E-01
-0.1078178809706E+01 -0.3057994703701E-01
-0.1141062792832E+01 -0.2634507041344E-01
-0.1201575295617E+01 -0.2074029737408E-01
-0.1259282078008E+01 -0.1381981963805E-01
-0.1508060100079E+00  0.9534037833695E-02
-0.1983155604526E+00  0.6614334451019E-02
-0.2491607791787E+00  0.2857098964476E-02
-0.3031733996428E+00 -0.1427676314772E-02
-0.3600918992653E+00 -0.6005737793591E-02
-0.4195969488946E+00 -0.1069602915872E-01
-0.4813340587845E+00 -0.1534711528764E-01
-0.5449318867597E+00 -0.1981614756067E-01
-0.6100229923848E+00 -0.2395305024435E-01
-0.6762628946143E+00 -0.2759239842898E-01
-0.7433276562047E+00 -0.3055484133924E-01
-0.8108811986382E+00 -0.3265713308983E-01
-0.8785378733971E+00 -0.3372618786369E-01
-0.9458507568867E+00 -0.3361247138432E-01
-0.1012327139242E+01 -0.3220054463893E-01
-0.1077452510273E+01 -0.2941705979317E-01
-0.1140712373741E+01 -0.2523686916798E-01
-0.1201615040555E+01 -0.1968432275107E-01
-0.1259719711647E+01 -0.1282242770503E-01
-0.1501689757964E+00  0.1099973412475E-01
-0.1971360526276E+00  0.8140302560062E-02
-0.2475785077516E+00  0.4438380813295E-02
-0.3012931885479E+00  0.2109736297904E-03
-0.3579926738014E+00 -0.4310790737605E-02
-0.4173410701434E+00 -0.8954247282841E-02
-0.4789753029349E+00 -0.1357750394338E-01
-0.5425212069414E+00 -0.1804508754806E-01
-0.6076117407784E+00 -0.2220980682619E-01
-0.6739038210692E+00 -0.2590385584133E-01
-0.7410743577938E+00 -0.2894153013829E-01
-0.8087871216113E+00 -0.3113192836859E-01
-0.8766553986689E+00 -0.3229516483930E-01
-0.9442297419702E+00 -0.3227639912924E-01
-0.1011012760234E+01 -0.3095603388940E-01
-0.1076482466583E+01 -0.2825769986777E-01
-0.1140113827193E+01 -0.2415590241983E-01
-0.1201403224811E+01 -0.1868003443296E-01
-0.1259901361751E+01 -0.1190504912102E-01
-0.1495196897369E+00  0.1248793439850E-01
-0.1959315532729E+00  0.9703393278014E-02
-0.2459632212203E+00  0.6076648742344E-02
-0.2993717641612E+00  0.1928931915016E-02
-0.3558410984149E+00 -0.2514851265513E-02
-0.4150176623752E+00 -0.7093190907100E-02
-0.4765298990914E+00 -0.1167583115439E-01
-0.5400017422688E+00 -0.1613590069729E-01
-0.6050679294010E+00 -0.2032934686627E-01
-0.6713882698712E+00 -0.2408531730875E-01
-0.7386417685642E+00 -0.2721050287765E-01
-0.8064928930042E+00 -0.2950505875677E-01
-0.8745544643127E+00 -0.3078141469697E-01
-0.9423750322566E+00 -0.3087899556673E-01
-0.1009453054623E+01 -0.2967363873158E-01
-0.1075259311399E+01 -0.2708494636957E-01
-0.1139257427174E+01 -0.2308566262655E-01
-0.1200929562486E+01 -0.1771008028578E-01
-0.1259814692513E+01 -0.1104869186703E-01
-0.1488612545221E+00  0.1400096503749E-01
-0.1947082524817E+00  0.1130809488942E-01
-0.2443232563592E+00  0.7779246603680E-02
-0.2974184383998E+00  0.3736603303123E-02
-0.3536463760759E+00 -0.6046222462884E-03
-0.4126349490844E+00 -0.5097078238785E-02
-0.4740044659084E+00 -0.9624379259695E-02
-0.5373781223523E+00 -0.1406953854788E-01
-0.6023940340632E+00 -0.1829186611304E-01
-0.6687165871631E+00 -0.2211667532405E-01
-0.7360282437796E+00 -0.2534161197328E-01
-0.8039950270646E+00 -0.2775641204994E-01
-0.8722298249102E+00 -0.2916483720020E-01
-0.9402796384613E+00 -0.2940032595675E-01
-0.1007639454531E+01 -0.2833415149935E-01
-0.1073773507131E+01 -0.2588095116561E-01
-0.1138133525923E+01 -0.2200926857476E-01
-0.1200184436156E+01 -0.1675663696820E-01
-0.1259448287424E+01 -0.1023283360684E-01
-0.1481973629311E+00  0.1554131794695E-01
-0.1934733877926E+00  0.1295931599129E-01
-0.2426682438626E+00  0.9554163760022E-02
-0.2954439001080E+00  0.5645170223340E-02
-0.3514190713430E+00  0.1434033349989E-02
-0.4102024423091E+00 -0.2949273458266E-02
-0.4714068036282E+00 -0.7404590718879E-02
-0.5346560325602E+00 -0.1182614978176E-01
-0.5995934560814E+00 -0.1607680809398E-01
-0.6658899282093E+00 -0.1997712051324E-01
-0.7332328623630E+00 -0.2331403409014E-01
-0.8012907077213E+00 -0.2586516385437E-01
-0.8696768651571E+00 -0.2742445722256E-01
-0.9379370477106E+00 -0.2781913099375E-01
-0.1005563455260E+01 -0.2691667670640E-01
-0.1072015140485E+01 -0.2462659250572E-01
-0.1136732287460E+01 -0.2090982377751E-01
-0.1199159042466E+01 -0.1580229822714E-01
-0.1258792253884E+01 -0.9435879442868E-02
-0.1475324104065E+00  0.1711172390370E-01
-0.1922353701154E+00  0.1466254905320E-01
-0.2410092011164E+00  0.1141018003768E-01
-0.2934602797024E+00  0.7666706057787E-02
-0.3491711582236E+00  0.3616160802746E-02
-0.4077309826078E+00 -0.6322327309126E-03
-0.4687459248785E+00 -0.4997033694240E-02
-0.5318422376596E+00 -0.9385058634054E-02
-0.5966705365010E+00 -0.1366286014216E-01
-0.6629102655319E+00 -0.1764516435285E-01
-0.7302554370607E+00 -0.2110632248813E-01
-0.7983778186558E+00 -0.2380987192678E-01
-0.8668916719917E+00 -0.2553857639893E-01
-0.9353414660082E+00 -0.2611307195760E-01
-0.1003216852233E+01 -0.2539804312383E-01
-0.1069973638521E+01 -0.2330054007904E-01
-0.1135042972843E+01 -0.1977044422099E-01
-0.1197845295262E+01 -0.1483192683040E-01
-0.1257839229323E+01 -0.8636256427463E-02
-0.1468716666957E+00  0.1871536481812E-01
-0.1910039333066E+00  0.1642409449150E-01
-0.2393586226845E+00  0.1335709919351E-01
-0.2914812130111E+00  0.9814231866832E-02
-0.3469160986361E+00  0.5957795660237E-02
-0.4052328037639E+00  0.1872531044639E-02
-0.4660321235181E+00 -0.2381385832883E-02
-0.5289446492800E+00 -0.6724756768170E-02
-0.5936306148294E+00 -0.1102796023868E-01
-0.6597804383058E+00 -0.1509867987307E-01
-0.7270965684736E+00 -0.1869648981112E-01
-0.7952550072865E+00 -0.2156858543290E-01
-0.8638711438174E+00 -0.2348496240222E-01
-0.9324879829509E+00 -0.2425907164412E-01
-0.1000592511693E+01 -0.2375355872481E-01
-0.1067637900337E+01 -0.2187611037686E-01
-0.1133052361420E+01 -0.1857353468160E-01
-0.1196234925823E+01 -0.1383573094092E-01
-0.1256586177296E+01 -0.7816437230418E-02
-0.1462216219564E+00  0.2035599642965E-01
-0.1897902575744E+00  0.1825198063938E-01
-0.2377304320047E+00  0.1540560004516E-01
-0.2895219534949E+00  0.1210190466336E-01
-0.3446688799657E+00  0.8476034199343E-02
-0.4027215778163E+00  0.4584494004694E-02
-0.4632770189187E+00  0.4635757304859E-03
-0.5259723776369E+00 -0.3822890006321E-02
-0.5904800627114E+00 -0.8149262714235E-02
-0.6565041568025E+00 -0.1231492436627E-01
-0.7237576496121E+00 -0.1606209589470E-01
-0.7919217179827E+00 -0.1911895897496E-01
-0.8606130106118E+00 -0.2124095410355E-01
-0.9293727093724E+00 -0.2223364991482E-01
-0.9976844662538E+00 -0.2195784988859E-01
-0.1064999068424E+01 -0.2032399205745E-01
-0.1130742204939E+01 -0.1728439718517E-01
-0.1194314188307E+01 -0.1282208620513E-01
-0.1255038793134E+01 -0.6972812744280E-02
-0.2627065970303E+00 -0.1283109908762E+00
-0.3675086316368E+00 -0.1979306221752E+00
-0.4569556572427E+00 -0.2500057861584E+00
-0.5385583161912E+00 -0.2899102673326E+00
-0.6153639507213E+00 -0.3218153716862E+00
-0.6887469585008E+00 -0.3476772655029E+00
-0.7593550485859E+00 -0.3685466919904E+00
-0.8275330285362E+00 -0.3851546583219E+00
-0.8934670593229E+00 -0.3980340645370E+00
-0.9572489492885E+00 -0.4075459737766E+00
-0.1018943078816E+01 -0.4140717786308E+00
-0.1078653178278E+01 -0.4182144721790E+00
-0.1136052971967E+01 -0.4178605456142E+00
-0.1190580948178E+01 -0.4113839022209E+00
-0.1241828815085E+01 -0.3991092217013E+00
-0.1289429441681E+01 -0.3816172075097E+00
-0.1333438023667E+01 -0.3601255514408E+00
-0.1374117213846E+01 -0.3357788023283E+00
-0.1411449838975E+01 -0.3090799228169E+00
-0.2462311115114E+00 -0.1114891282686E+00
-0.3513933483529E+00 -0.1693860825967E+00
-0.4432279056116E+00 -0.2213694755652E+00
-0.5260843876921E+00 -0.2625079228193E+00
-0.6035498584535E+00 -0.2953828133409E+00
-0.6772582422694E+00 -0.3220150028675E+00
-0.7480152948885E+00 -0.3435433079042E+00
-0.8162420522774E+00 -0.3607517740507E+00
-0.8821693485166E+00 -0.3742049267317E+00
-0.9459189094458E+00 -0.3842941393039E+00
-0.1007572569419E+01 -0.3914257413297E+00
-0.1067226079327E+01 -0.3962090825781E+00
-0.1124565428476E+01 -0.3966990498252E+00
-0.1179052169662E+01 -0.3913581846769E+00
-0.1230288401857E+01 -0.3804508965670E+00
-0.1277932478427E+01 -0.3645063580864E+00
-0.1322057062555E+01 -0.3446849535141E+00
-0.1362932978461E+01 -0.3220858184419E+00
-0.1400561108220E+01 -0.2972055515754E+00
-0.2330405833492E+00 -0.9985986037056E-01
-0.3359400022435E+00 -0.1480626563163E+00
-0.4287291615192E+00 -0.1958918699402E+00
-0.5128382513257E+00 -0.2367791129030E+00
-0.5910432492263E+00 -0.2701255999434E+00
-0.6651529306215E+00 -0.2972816231689E+00
-0.7361081613979E+00 -0.3193128296982E+00
-0.8044183417046E+00 -0.3370074536031E+00
-0.8703650470802E+00 -0.3509447264196E+00
-0.9341035432922E+00 -0.3615382213039E+00
-0.9957347013267E+00 -0.3692120416578E+00
-0.1055353200729E+01 -0.3745686046963E+00
-0.1112658650735E+01 -0.3758292551613E+00
-0.1167139219289E+01 -0.3715578386637E+00
-0.1218412985959E+01 -0.3619773075256E+00
-0.1266157795529E+01 -0.3475654284166E+00
-0.1310455088695E+01 -0.3294113009246E+00
-0.1351577707367E+01 -0.3085590929956E+00
-0.1389538903788E+01 -0.2854903492785E+00
-0.2222985932162E+00 -0.9108575268634E-01
-0.3218308267754E+00 -0.1313700236923E+00
-0.4142622476973E+00 -0.1742163018471E+00
-0.4990778165033E+00 -0.2132218734028E+00
-0.5779604051302E+00 -0.2462895706441E+00
-0.6524891515852E+00 -0.2736208176588E+00
-0.7236716403364E+00 -0.2959563570113E+00
-0.7920888297952E+00 -0.3140024507855E+00
-0.8580742478879E+00 -0.3283224409871E+00
-0.9218182183248E+00 -0.3393384270372E+00
-0.9834429321928E+00 -0.3474825885962E+00
-0.1043047392392E+01 -0.3533431847964E+00
-0.1100345374646E+01 -0.3553064445615E+00
-0.1154852603139E+01 -0.3520437143332E+00
-0.1206206224540E+01 -0.3437440563709E+00
-0.1254101485518E+01 -0.3308370725000E+00
-0.1298622782350E+01 -0.3143342409260E+00
-0.1340038676616E+01 -0.2952161326598E+00
-0.1378370631894E+01 -0.2739420575635E+00
-0.2134393797486E+00 -0.8405743416768E-01
-0.3091495568094E+00 -0.1179414512081E+00
-0.4003077200341E+00 -0.1558316277222E+00
-0.4851774124100E+00 -0.1921266563401E+00
-0.5644739562179E+00 -0.2241231430628E+00
-0.6393584305218E+00 -0.2511908403428E+00
-0.7107600350864E+00 -0.2735822840437E+00
-0.7792906348205E+00 -0.2918206123647E+00
-0.8453240390481E+00 -0.3064084204487E+00
-0.9090838464397E+00 -0.3177561420533E+00
-0.9707144564836E+00 -0.3262928503017E+00
-0.1030322751551E+01 -0.3325862933539E+00
-0.1087637357169E+01 -0.3351851612760E+00
-0.1142201434677E+01 -0.3328705271006E+00
-0.1193672551100E+01 -0.3258016138096E+00
-0.1241762050677E+01 -0.3143622207226E+00
-0.1286553365307E+01 -0.2994831396531E+00
-0.1328305996884E+01 -0.2820757175322E+00
-0.1367046243226E+01 -0.2625723904906E+00
-0.2060458577772E+00 -0.7820902788773E-01
-0.2978182808286E+00 -0.1068893984457E+00
-0.3871007344115E+00 -0.1401887960873E+00
-0.4714409342913E+00 -0.1734224206871E+00
-0.5507984845099E+00 -0.2037842853000E+00
-0.6258831037568E+00 -0.2301380305330E+00
-0.6974476714580E+00 -0.2523006543311E+00
-0.7660728205557E+00 -0.2705473095484E+00
-0.8321496050190E+00 -0.2852737119602E+00
-0.8959271066322E+00 -0.2968536351817E+00
-0.9575703623805E+00 -0.3056997668927E+00
-0.1017195617836E+01 -0.3123526708607E+00
-0.1074547133667E+01 -0.3155191186999E+00
-0.1129194913570E+01 -0.3140899534199E+00
-0.1180816943197E+01 -0.3081969141056E+00
-0.1229139514079E+01 -0.2981797174452E+00
-0.1274242174060E+01 -0.2848870723685E+00
-0.1316371820739E+01 -0.2691579187426E+00
-0.1355556768536E+01 -0.2513947572028E+00
-0.1998083728246E+00 -0.7320397676913E-01
-0.2877071975483E+00 -0.9762590354277E-01
-0.3747388975853E+00 -0.1268013739911E+00
-0.4580780181160E+00 -0.1569103103354E+00
-0.5371336178933E+00 -0.1852935236784E+00
-0.6122051674621E+00 -0.2105622344373E+00
-0.6838268017585E+00 -0.2322091189809E+00
-0.7524973859639E+00 -0.2502648490744E+00
-0.8185949472876E+00 -0.2649882813268E+00
-0.8823808824117E+00 -0.2766928197651E+00
-0.9440360100637E+00 -0.2857603876699E+00
-0.1003685223714E+01 -0.2926969990788E+00
-0.1061088967615E+01 -0.2963610648348E+00
-0.1115843160443E+01 -0.2957515740889E+00
-0.1167645209409E+01 -0.2909744278066E+00
-0.1216235097755E+01 -0.2823266635408E+00
-0.1261686077057E+01 -0.2705746666312E+00
-0.1304229679456E+01 -0.2564834214112E+00
-0.1343893962975E+01 -0.2404235868118E+00
-0.1944917556527E+00 -0.6882700267838E-01
-0.2786768534999E+00 -0.8974126451337E-01
-0.3632425249706E+00 -0.1152701571047E+00
-0.4452207666757E+00 -0.1423510344176E+00
-0.5236420119315E+00 -0.1685844861776E+00
-0.5984646867132E+00 -0.1924993704913E+00
-0.6700008014396E+00 -0.2133778846888E+00
-0.7386375056386E+00 -0.2310448067578E+00
-0.8047128495708E+00 -0.2456175843520E+00
-0.8684844791520E+00 -0.2573333602948E+00
-0.9301413534399E+00 -0.2665304497182E+00
-0.9898141278743E+00 -0.2736728684212E+00
-0.1047279408743E+01 -0.2777623803096E+00
-0.1102157761106E+01 -0.2779031688479E+00
-0.1154164263394E+01 -0.2741766885110E+00
-0.1203051126425E+01 -0.2668386968583E+00
-0.1248883101862E+01 -0.2565739259748E+00
-0.1291874075348E+01 -0.2440730538343E+00
-0.1332050051576E+01 -0.2296737713251E+00
-0.1899145485525E+00 -0.6493227228270E-01
-0.2705935912124E+00 -0.8294008351036E-01
-0.3525892104587E+00 -0.1052724975212E+00
-0.4329441009813E+00 -0.1295068099126E+00
-0.5104460032171E+00 -0.1535425108431E+00
-0.5847864064592E+00 -0.1759322953159E+00
-0.6560741414357E+00 -0.1958417712405E+00
-0.7245733654731E+00 -0.2129405511824E+00
-0.7905634321418E+00 -0.2272179985296E+00
-0.8542832838641E+00 -0.2388300508341E+00
-0.9159209896601E+00 -0.2480627008221E+00
-0.9756084282567E+00 -0.2553316719830E+00
-0.1033137606913E+01 -0.2597725130562E+00
-0.1088152101083E+01 -0.2605906419070E+00
-0.1140382334190E+01 -0.2578444787990E+00
-0.1189591024149E+01 -0.2517501005909E+00
-0.1235832251079E+01 -0.2429120850287E+00
-0.1279300242343E+01 -0.2319474142565E+00
-0.1320017576112E+01 -0.2191602783199E+00
-0.1859349305906E+00 -0.6141682145613E-01
-0.2633352108274E+00 -0.7700329628247E-01
-0.3427335180887E+00 -0.9654808705501E-01
-0.4212826272369E+00 -0.1181577526893E+00
-0.4976316758209E+00 -0.1400309932388E+00
-0.5712739158782E+00 -0.1608060466331E+00
-0.6421444786872E+00 -0.1796020788004E+00
-0.7103867051427E+00 -0.1959829735165E+00
-0.7762114598868E+00 -0.2098326125913E+00
-0.8398276245187E+00 -0.2212298378857E+00
-0.9014137728810E+00 -0.2304049295973E+00
-0.9610976938875E+00 -0.2377213192804E+00
-0.1018685402634E+01 -0.2424382280418E+00
-0.1073841527751E+01 -0.2438577091551E+00
-0.1126309097941E+01 -0.2420167810332E+00
-0.1175859350824E+01 -0.2370937862397E+00
-0.1222533441370E+01 -0.2296154612497E+00
-0.1266504042662E+01 -0.2201265797333E+00
-0.1307789306727E+01 -0.2088978397200E+00
-0.1824409352644E+00 -0.5820555692736E-01
-0.2567925276438E+00 -0.7176478977092E-01
-0.3336184640852E+00 -0.8888606285790E-01
-0.4102431821944E+00 -0.1081073027102E+00
-0.4852550805447E+00 -0.1279071572652E+00
-0.5580085594275E+00 -0.1470416553884E+00
-0.6282978220278E+00 -0.1646325392481E+00
-0.6961559409023E+00 -0.1801802881494E+00
-0.7617230132252E+00 -0.1934886248984E+00
-0.8251709360946E+00 -0.2045691832871E+00
-0.8866619200410E+00 -0.2135979173576E+00
-0.9463145587564E+00 -0.2208847899500E+00
-0.1003947175124E+01 -0.2258026818774E+00
-0.1059243338558E+01 -0.2277454003799E+00
-0.1111955717828E+01 -0.2267305684379E+00
-0.1161861841509E+01 -0.2229011904496E+00
-0.1208987524003E+01 -0.2167093077880E+00
-0.1253481969979E+01 -0.2086298618350E+00
-0.1295358218768E+01 -0.1989006869724E+00
-0.1793434455774E+00 -0.5524227721580E-01
-0.2508692019239E+00 -0.6709630237968E-01
-0.3251823058745E+00 -0.8211462464979E-01
-0.3998138527442E+00 -0.9918272151094E-01
-0.4733484354665E+00 -0.1170310288880E+00
-0.5450508281013E+00 -0.1345466878448E+00
-0.6146062875163E+00 -0.1508862642230E+00
-0.6819526071799E+00 -0.1655203809032E+00
-0.7471623121277E+00 -0.1781967225719E+00
-0.8103675626265E+00 -0.1888723273707E+00
-0.8717096944509E+00 -0.1976736520333E+00
-0.9312939722739E+00 -0.2048586657882E+00
-0.9889494308347E+00 -0.2099043746600E+00
-0.1044376578608E+01 -0.2122914193605E+00
-0.1097334768566E+01 -0.2120204845790E+00
-0.1147605416139E+01 -0.2092021258822E+00
-0.1195196355877E+01 -0.2042176827159E+00
-0.1240231247041E+01 -0.1974755997963E+00
-0.1282717541156E+01 -0.1891823053112E+00
-0.1765710638666E+00 -0.5248401705406E-01
-0.2454808556924E+00 -0.6289731045503E-01
-0.3173625830732E+00 -0.7609293195309E-01
-0.3899703838701E+00 -0.9123354517032E-01
-0.4619255546985E+00 -0.1072702190937E+00
-0.5324428354653E+00 -0.1232227173177E+00
-0.6011276372786E+00 -0.1383021236346E+00
-0.6678391808062E+00 -0.1519743401222E+00
-0.7325891456498E+00 -0.1639519923967E+00
-0.7954705851494E+00 -0.1741506427744E+00
-0.8566018603823E+00 -0.1826540779970E+00
-0.9160721768403E+00 -0.1896718262667E+00
-0.9737201451952E+00 -0.1947760693149E+00
-0.1029261633369E+01 -0.1975294069223E+00
-0.1082460013575E+01 -0.1979184479341E+00
-0.1133098121094E+01 -0.1960246254418E+00
-0.1181162892762E+01 -0.1921633684446E+00
-0.1226750016514E+01 -0.1866810026067E+00
-0.1269860896923E+01 -0.1797551891489E+00
-0.1740662853185E+00 -0.4989733519968E-01
-0.2405539361379E+00 -0.5908803126097E-01
-0.3100985060607E+00 -0.7070482977934E-01
-0.3806807161448E+00 -0.8412930181461E-01
-0.4509863382322E+00 -0.9850221421860E-01
-0.5202111107220E+00 -0.1129703695149E+00
-0.5879059092557E+00 -0.1268100175863E+00
-0.6538680537692E+00 -0.1395002412024E+00
-0.7180570594153E+00 -0.1507357678159E+00
-0.7805299506177E+00 -0.1604029383065E+00
-0.8413821307886E+00 -0.1685504940935E+00
-0.9006855392202E+00 -0.1753444554238E+00
-0.9582879129150E+00 -0.1804437728948E+00
-0.1013919617787E+01 -0.1834881428148E+00
-0.1067345996751E+01 -0.1844532035540E+00
-0.1118348947624E+01 -0.1833948177285E+00
-0.1166891266691E+01 -0.1805679018592E+00
-0.1213037630657E+01 -0.1762620839878E+00
-0.1256782577799E+01 -0.1706305893891E+00
-0.1717826037073E+00 -0.4745578863264E-01
-0.2360245364669E+00 -0.5560444166913E-01
-0.3033323282425E+00 -0.6585397339417E-01
-0.3719081937825E+00 -0.7775708930077E-01
-0.4405203795156E+00 -0.9061521269150E-01
-0.5083693207073E+00 -0.1036925956639E+00
-0.5749726417944E+00 -0.1163349805496E+00
-0.6400813519872E+00 -0.1280466809342E+00
-0.7036122681457E+00 -0.1385179050642E+00
-0.7655910392606E+00 -0.1476164472664E+00
-0.8260917866499E+00 -0.1553635657348E+00
-0.8851693861940E+00 -0.1618874396442E+00
-0.9426810028005E+00 -0.1669258408983E+00
-0.9983715935309E+00 -0.1701906914268E+00
-0.1052007402647E+01 -0.1716497878802E+00
-0.1103367439259E+01 -0.1713368621158E+00
-0.1152386774921E+01 -0.1694518065873E+00
-0.1199095043942E+01 -0.1662338028262E+00
-0.1243478030872E+01 -0.1618182588008E+00
-0.1696823015984E+00 -0.4513815331717E-01
-0.2318372696680E+00 -0.5239463592813E-01
-0.2970100796534E+00 -0.6146000558057E-01
-0.3636138239287E+00 -0.7201927359419E-01
-0.4305098169826E+00 -0.8350813477366E-01
-0.4969207450772E+00 -0.9529670242740E-01
-0.5623483692312E+00 -0.1068002521156E+00
-0.6265113265178E+00 -0.1175558400053E+00
-0.6892931767822E+00 -0.1272591385102E+00
-0.7506936994137E+00 -0.1357682285863E+00
-0.8107685774795E+00 -0.1430838418161E+00
-0.8695569780140E+00 -0.1493021812781E+00
-0.9269264637692E+00 -0.1542322675388E+00
-0.9826376953775E+00 -0.1576534084797E+00
-0.1036458158088E+01 -0.1595287860406E+00
-0.1088162921193E+01 -0.1598728339496E+00
-0.1137655625082E+01 -0.1588352056859E+00
-0.1184925281757E+01 -0.1566106301989E+00
-0.1229944700171E+01 -0.1533262758387E+00
-0.1677347607035E+00 -0.4292712688533E-01
-0.2279442333173E+00 -0.4941607048458E-01
-0.2910818868249E+00 -0.5745553531071E-01
-0.3557578521006E+00 -0.6683140476833E-01
-0.4209315636966E+00 -0.7709018894253E-01
-0.4858604427159E+00 -0.8769552596192E-01
-0.5500441887529E+00 -0.9812950733959E-01
-0.6131811030537E+00 -0.1079660164000E+00
-0.6751303729033E+00 -0.1169133053063E+00
-0.7358717131712E+00 -0.1248267537041E+00
-0.7954459395099E+00 -0.1316926371807E+00
-0.8538787102495E+00 -0.1375808299035E+00
-0.9110494217298E+00 -0.1423642729746E+00
-0.9667364448001E+00 -0.1458848714939E+00
-0.1020710293839E+01 -0.1481048117212E+00
-0.1072743131850E+01 -0.1490223369005E+00
-0.1122704005072E+01 -0.1487387232418E+00
-0.1170533849176E+01 -0.1474082878962E+00
-0.1216183497796E+01 -0.1451611311830E+00
-0.1659151842661E+00 -0.4080824157505E-01
-0.2243040667957E+00 -0.4663344287301E-01
-0.2855020068513E+00 -0.5378367038956E-01
-0.3483008332801E+00 -0.6212045009322E-01
-0.4117590479694E+00 -0.7128018872532E-01
-0.4751770974949E+00 -0.8080803300303E-01
-0.5380632820373E+00 -0.9024843403684E-01
-0.6001056351047E+00 -0.9921366411215E-01
-0.6611469663758E+00 -0.1074293316467E+00
-0.7211526278062E+00 -0.1147535092868E+00
-0.7801525145637E+00 -0.1211631237566E+00
-0.8381615465934E+00 -0.1267068885363E+00
-0.8950726630008E+00 -0.1313143771578E+00
-0.9506844783911E+00 -0.1348851130349E+00
-0.1004773502440E+01 -0.1373843677416E+00
-0.1057111747739E+01 -0.1387990573794E+00
-0.1107535596551E+01 -0.1391853941568E+00
-0.1155928387877E+01 -0.1386470827205E+00
-0.1202201362384E+01 -0.1373297453521E+00
-0.1642037551530E+00 -0.3876914435105E-01
-0.2208810350814E+00 -0.4401638134722E-01
-0.2802285614486E+00 -0.5039648578246E-01
-0.3412044220764E+00 -0.5782317262291E-01
-0.4029635415756E+00 -0.6600577637175E-01
-0.4648545655542E+00 -0.7455952898787E-01
-0.5264023211036E+00 -0.8308582238737E-01
-0.5872927511643E+00 -0.9123501527486E-01
-0.6473591875445E+00 -0.9875296650385E-01
-0.7065578907766E+00 -0.1055044769429E+00
-0.7649119227503E+00 -0.1114614759715E+00
-0.8224286259538E+00 -0.1166560488495E+00
-0.8790163661848E+00 -0.1210670400351E+00
-0.9344968360990E+00 -0.1246458741077E+00
-0.9886557608554E+00 -0.1273645922785E+00
-0.1041268923195E+01 -0.1292053956384E+00
-0.1092143584285E+01 -0.1301894014419E+00
-0.1141114592797E+01 -0.1303676569725E+00
-0.1188016457888E+01 -0.1298446488946E+00
-0.1458598975646E+00  0.2380333770713E-01
-0.1894545512131E+00  0.2217510605121E-01
-0.2378906833670E+00  0.1991499852812E-01
-0.2904618332640E+00  0.1726624323007E-01
-0.3465591106431E+00  0.1429503820114E-01
-0.4056769273811E+00  0.1098466503072E-01
-0.4673986390388E+00  0.7309101242209E-02
-0.5313754150489E+00  0.3292562522277E-02
-0.5973071245104E+00 -0.9493821573916E-03
-0.6649242006760E+00 -0.5195878143074E-02
-0.7339444459198E+00 -0.9141285798474E-02
-0.8040216158885E+00 -0.1245206717715E-01
-0.8747080791076E+00 -0.1486540952036E-01
-0.9454144203235E+00 -0.1617762603106E-01
-0.1015464520692E+01 -0.1623342754869E-01
-0.1084151070665E+01 -0.1494369158634E-01
-0.1150799455641E+01 -0.1226924649328E-01
-0.1214762221255E+01 -0.8216109314107E-02
-0.1275356937683E+01 -0.2752640055630E-02
-0.1461606278852E+00  0.2561918808381E-01
-0.1903797542261E+00  0.2432270917129E-01
-0.2397674001602E+00  0.2248048872335E-01
-0.2934877474545E+00  0.2030896253611E-01
-0.3508555591317E+00  0.1782545949311E-01
-0.4113286458865E+00  0.1496192553555E-01
-0.4744832805536E+00  0.1164872328591E-01
-0.5399821730271E+00  0.7882549760759E-02
-0.6075449318145E+00  0.3771000218518E-02
-0.6769184456199E+00 -0.4529564828576E-03
-0.7478150150104E+00 -0.4451637796123E-02
-0.8198508581969E+00 -0.7846886728445E-02
-0.8925038743667E+00 -0.1037543196513E-01
-0.9650449210817E+00 -0.1183304111165E-01
-0.1036631825950E+01 -0.1204600163122E-01
-0.1106397248225E+01 -0.1091373012963E-01
-0.1173574637078E+01 -0.8378985192625E-02
-0.1237490861463E+01 -0.4405128363005E-02
-0.1297543225981E+01  0.1103815968337E-02
-0.1465068480341E+00  0.2750336867135E-01
-0.1914101032794E+00  0.2661734745510E-01
-0.2418053343933E+00  0.2530081150346E-01
-0.2967130072685E+00  0.2372557811562E-01
-0.3553672674655E+00  0.2184609221073E-01
-0.4171919441060E+00  0.1953157697285E-01
-0.4817623868058E+00  0.1666088324956E-01
-0.5487609598479E+00  0.1319883153071E-01
-0.6179357885001E+00  0.9243873878268E-02
-0.6890584564956E+00  0.5042735974314E-02
-0.7618388597775E+00  0.9703230389716E-03
-0.8358509499242E+00 -0.2542442602873E-02
-0.9104875738203E+00 -0.5234779471872E-02
-0.9848671798391E+00 -0.6903374691327E-02
-0.1057971869333E+01 -0.7349394311526E-02
-0.1128773418945E+01 -0.6450584514674E-02
-0.1196422650815E+01 -0.4115755159511E-02
-0.1260251910298E+01 -0.2704177106838E-03
-0.1319687332591E+01  0.5127839197269E-02
-0.1469161864754E+00  0.2946528360190E-01
-0.1925777417132E+00  0.2908404011302E-01
-0.2440437012153E+00  0.2841811841077E-01
-0.3001763956298E+00  0.2757526801282E-01
-0.3601272238081E+00  0.2642980869571E-01
-0.4232905288396E+00  0.2477611072576E-01
-0.4892487717309E+00  0.2243372760324E-01
-0.5577137489345E+00  0.1933195411232E-01
-0.6284724918644E+00  0.1555969540767E-01
-0.7013311793126E+00  0.1137988309550E-01
-0.7760008773583E+00  0.7211164966685E-02
-0.8520070581912E+00  0.3546856729618E-02
-0.9286450023739E+00  0.6412712740134E-03
-0.1004867007737E+01 -0.1306155767690E-02
-0.1079470788444E+01 -0.2065804908098E-02
-0.1151267267118E+01 -0.1487428636781E-02
-0.1219334169314E+01  0.5563937115260E-03
-0.1283004534811E+01  0.4152741738260E-02
-0.1341712548938E+01  0.9302882446692E-02
-0.1474103056141E+00  0.3151595492498E-01
-0.1939198433523E+00  0.3175160527377E-01
-0.2465259800276E+00  0.3188135908841E-01
-0.3039193355214E+00  0.3192492952315E-01
-0.3651689336128E+00  0.3165720638702E-01
-0.4296467455223E+00  0.3078491633873E-01
-0.4969525205976E+00  0.2906116467911E-01
-0.5668390505518E+00  0.2637715043169E-01
-0.6391443324068E+00  0.2281287504591E-01
-0.7137209110676E+00  0.1865087556848E-01
-0.7902849082303E+00  0.1436139357296E-01
-0.8683049812088E+00  0.1051122164210E-01
-0.9469637579388E+00  0.7342524584944E-02
-0.1025032219227E+01  0.5044961257875E-02
-0.1101114670588E+01  0.3881441472042E-02
-0.1173860759580E+01  0.4031786816841E-02
-0.1242276711912E+01  0.5658591163567E-02
-0.1305694349402E+01  0.8864260398276E-02
-0.1363549895565E+01  0.1362549755777E-01
-0.1480155504243E+00  0.3366836471287E-01
-0.1954792617758E+00  0.3465405465266E-01
-0.2493001042482E+00  0.3574716411502E-01
-0.3079854106128E+00  0.3685019233835E-01
-0.3705256411768E+00  0.3761704620848E-01
-0.4362806988464E+00  0.3765411464826E-01
-0.5048802432298E+00  0.3664218188396E-01
-0.5761314337296E+00  0.3443341244708E-01
-0.6499369639035E+00  0.3110085235384E-01
-0.7262095392548E+00  0.2695100600584E-01
-0.8046742634806E+00  0.2251486902384E-01
-0.8847316303036E+00  0.1844502494390E-01
-0.9654331028474E+00  0.1496328530892E-01
-0.1045351035635E+01  0.1223953078291E-01
-0.1122886541588E+01  0.1056920430313E-01
-0.1196526186367E+01  0.1016179450236E-01
-0.1265206899667E+01  0.1122121626562E-01
-0.1328261375985E+01  0.1387581233454E-01
-0.1385131724108E+01  0.1809780261132E-01
-0.1487638584131E+00  0.3593811424174E-01
-0.1973051939120E+00  0.3783188106431E-01
-0.2524184651955E+00  0.4008134905908E-01
-0.3124197093186E+00  0.4243645231313E-01
-0.3762292816314E+00  0.4440658377337E-01
-0.4432091909217E+00  0.4548607068446E-01
-0.5130342718415E+00  0.4527979158474E-01
-0.5855811297863E+00  0.4360223968123E-01
-0.6608324277511E+00  0.4052297719722E-01
-0.7387769711300E+00  0.3637768000589E-01
-0.8191524074753E+00  0.3176841638325E-01
-0.9012755683403E+00  0.2744681667059E-01
-0.9840438455882E+00  0.2360283526833E-01
-0.1065811245505E+01  0.2037186304459E-01
-0.1144765395887E+01  0.1807859146644E-01
-0.1219229015599E+01  0.1696351812383E-01
-0.1288074386665E+01  0.1728277627081E-01
-0.1350641599517E+01  0.1920694579733E-01
-0.1406388763041E+01  0.2272395055900E-01
-0.1496939236538E+00  0.3834422898703E-01
-0.1994538901251E+00  0.4133377491942E-01
-0.2559377241641E+00  0.4496075988706E-01
-0.3172678384460E+00  0.4878007312885E-01
-0.3823091172257E+00  0.5213167567095E-01
-0.4504444628381E+00  0.5438846650820E-01
-0.5214118547039E+00  0.5507948307992E-01
-0.5951737960759E+00  0.5398602110221E-01
-0.6718094288158E+00  0.5117925897819E-01
-0.7514018368961E+00  0.4702975133934E-01
-0.8337038847540E+00  0.4222182112952E-01
-0.9179277358704E+00  0.3762001896407E-01
-0.1002788571144E+01  0.3336691278313E-01
-0.1086400114113E+01  0.2954345434128E-01
-0.1166726900658E+01  0.2649832606333E-01
-0.1241929450990E+01  0.2450576432078E-01
-0.1310823475935E+01  0.2388946431478E-01
-0.1372766981340E+01  0.2488263646786E-01
-0.1427248392882E+01  0.2750975341640E-01
-0.1508526898082E+00  0.4091027735547E-01
-0.2019894064847E+00  0.4521891173012E-01
-0.2599183422907E+00  0.5047562048189E-01
-0.3225744844216E+00  0.5598968999346E-01
-0.3887899680579E+00  0.6090653775316E-01
-0.4579927477533E+00  0.6447273712960E-01
-0.5300044280277E+00  0.6614704620819E-01
-0.6048905630107E+00  0.6568603004882E-01
-0.6828439792991E+00  0.6316907526533E-01
-0.7640625608491E+00  0.5900714834897E-01
-0.8483155611129E+00  0.5397838151638E-01
-0.9346824311427E+00  0.4907435261230E-01
-0.1021662135605E+01  0.4436981202236E-01
-0.1107104697070E+01  0.3986537489373E-01
-0.1188743895625E+01  0.3592655814645E-01
-0.1264583176586E+01  0.3286586533864E-01
-0.1333393590225E+01  0.3109437168510E-01
-0.1394565153247E+01  0.3093228962737E-01
-0.1447633729438E+01  0.3246275336041E-01
-0.1522972794856E+00  0.4366596562535E-01
-0.2049843734191E+00  0.4956009299595E-01
-0.2644236801661E+00  0.5673254027690E-01
-0.3283813458579E+00  0.6418755782343E-01
-0.3956899438171E+00  0.7085290650273E-01
-0.4658526723048E+00  0.7585160445721E-01
-0.5387971055176E+00  0.7858561713669E-01
-0.6147085326380E+00  0.7880005527639E-01
-0.6939105464657E+00  0.7658999676452E-01
-0.7767388804796E+00  0.7241099843100E-01
-0.8629782003917E+00  0.6714617817835E-01
-0.9515384627212E+00  0.6192798136071E-01
-0.1040662203556E+01  0.5673685650957E-01
-0.1127911980837E+01  0.5146031722454E-01
-0.1210786459168E+01  0.4647194885804E-01
-0.1287141437046E+01  0.4212963068807E-01
-0.1355719245081E+01  0.3895675408225E-01
-0.1415959124175E+01  0.3738913433887E-01
-0.1467463269777E+01  0.3759247829829E-01
-0.1540975190212E+00  0.4664948389790E-01
-0.2085207198884E+00  0.5444816487185E-01
-0.2695184251491E+00  0.6385840545154E-01
-0.3347241875336E+00  0.7351078764675E-01
-0.4030175830742E+00  0.8209820402968E-01
-0.4740136106314E+00  0.8863534533209E-01
-0.5477686057371E+00  0.9249181465259E-01
-0.6246019465948E+00  0.9341977796063E-01
-0.7049838419657E+00  0.9153697270756E-01
-0.7894138585188E+00  0.8734450507269E-01
-0.8776883260278E+00  0.8184022932827E-01
-0.9685003124771E+00  0.7631040365599E-01
-0.1059789535148E+01  0.7060715560973E-01
-0.1148808582856E+01  0.6446437300741E-01
-0.1232821419271E+01  0.5825413565804E-01
-0.1309550617490E+01  0.5239079247172E-01
-0.1377729776771E+01  0.4754112369672E-01
-0.1436867148450E+01  0.4428971537064E-01
-0.1486651010935E+01  0.4291073103537E-01
-0.1563392946250E+00  0.4991107464668E-01
-0.2126902217290E+00  0.5999840311511E-01
-0.2752659452808E+00  0.7200543388208E-01
-0.3416286633690E+00  0.8411211657975E-01
-0.4107683416784E+00  0.9477205360929E-01
-0.4824542200295E+00  0.1029263370574E+00
-0.5568919481512E+00  0.1079509267121E+00
-0.6345442776012E+00  0.1096281549772E+00
-0.7160413627804E+00  0.1081022236943E+00
-0.8020763762123E+00  0.1039148718254E+00
-0.8924502542243E+00  0.9818572636249E-01
-0.9855790876299E+00  0.9236616810688E-01
-0.1079047756080E+01  0.8613662919781E-01
-0.1169779789825E+01  0.7902846014242E-01
-0.1254811235960E+01  0.7140351452537E-01
-0.1331751397323E+01  0.6374982541035E-01
-0.1399348972570E+01  0.5691601413476E-01
-0.1457202844085E+01  0.5167330595293E-01
-0.1505107018436E+01  0.4843187623493E-01
-0.1591290989195E+00  0.5351867865783E-01
-0.2175945913098E+00  0.6636002468777E-01
-0.2817238876951E+00  0.8135769495925E-01
-0.3491044280181E+00  0.9615943238748E-01
-0.4189204964095E+00  0.1090000926985E+00
-0.4911416090193E+00  0.1188114081855E+00
-0.5661363744970E+00  0.1250313538777E+00
-0.6445114854174E+00  0.1274972931510E+00
-0.7270667194700E+00  0.1263762575688E+00
-0.8147240340016E+00  0.1222365727823E+00
-0.9072781369031E+00  0.1163225706738E+00
-0.1002792999159E+01  0.1102595314578E+00
-0.1098442313625E+01  0.1035012339041E+00
-0.1190807706396E+01  0.9531918400165E-01
-0.1276712167489E+01  0.8606008324758E-01
-0.1353677532703E+01  0.7631194667212E-01
-0.1420494722206E+01  0.6715228734260E-01
-0.1476875642652E+01  0.5958116897242E-01
-0.1522738450880E+01  0.5417311393179E-01
-0.1626003289474E+00  0.5756731680374E-01
-0.2233444882842E+00  0.7373085408297E-01
-0.2889368235683E+00  0.9213926881754E-01
-0.3571369447008E+00  0.1098323341586E+00
-0.4274308685763E+00  0.1248934865135E+00
-0.5000319523454E+00  0.1363517656234E+00
-0.5754710260339E+00  0.1437790745932E+00
-0.6544865410461E+00  0.1470875027076E+00
-0.7380536712265E+00  0.1464503574287E+00
-0.8273663554183E+00  0.1424362063107E+00
-0.9221978341327E+00  0.1364115148200E+00
-0.1020167032555E+01  0.1301802318564E+00
-0.1117978240774E+01  0.1229002203085E+00
-0.1211868237466E+01  0.1135186997404E+00
-0.1298471635410E+01  0.1023709264445E+00
-0.1375254354673E+01  0.9018406775371E-01
-0.1441078836935E+01  0.7832092090890E-01
-0.1495791659980E+01  0.6805567073719E-01
-0.1539451045077E+01  0.6015473994868E-01
-0.1669222651394E+00  0.6219560663970E-01
-0.2300560058674E+00  0.8238098875058E-01
-0.2969237921184E+00  0.1046233654021E+00
-0.3656764626919E+00  0.1253121216646E+00
-0.4362316076388E+00  0.1425318577141E+00
-0.5090738632992E+00  0.1555714774913E+00
-0.5848707115502E+00  0.1642137170909E+00
-0.6644649809534E+00  0.1684481970562E+00
-0.7490106993449E+00  0.1684204168922E+00
-0.8400282962336E+00  0.1646591891941E+00
-0.9372484239981E+00  0.1586424697932E+00
-0.1037731323378E+01  0.1523506526372E+00
-0.1137656183577E+01  0.1445590061449E+00
-0.1232926564018E+01  0.1338227896684E+00
-0.1320024764451E+01  0.1204857494712E+00
-0.1396397181105E+01  0.1054705169151E+00
-0.1461007249999E+01  0.9049034185580E-01
-0.1513855074379E+01  0.7713931611114E-01
-0.1555151041635E+01  0.6640040893956E-01
-0.1723131914864E+00  0.6761772126293E-01
-0.2378411868048E+00  0.9269237389302E-01
-0.3056566990071E+00  0.1191394956009E+00
-0.3746246224413E+00  0.1427564763366E+00
-0.4452311152703E+00  0.1619386483740E+00
-0.5182161048463E+00  0.1764479005785E+00
-0.5943231976836E+00  0.1863292631084E+00
-0.6744606670735E+00  0.1916196118156E+00
-0.7599662779284E+00  0.1923914671382E+00
-0.8527543285393E+00  0.1890789204161E+00
-0.9524830799126E+00  0.1832461889567E+00
-0.1055517387473E+01  0.1770347201433E+00
-0.1157465851348E+01  0.1687306617426E+00
-0.1253930746461E+01  0.1564357424739E+00
-0.1341290296609E+01  0.1405497554592E+00
-0.1417010065496E+01  0.1222675963894E+00
-0.1480180871414E+01  0.1037235269852E+00
-0.1530970077565E+01  0.8687386311505E-01
-0.1569747457639E+01  0.7293735373493E-01
-0.1790609355541E+00  0.7418951537643E-01
-0.2467823100193E+00  0.1052331644750E+00
-0.3150230267350E+00  0.1360596560986E+00
-0.3838229348977E+00  0.1622468438305E+00
-0.4543258049274E+00  0.1830492420247E+00
-0.5274198241962E+00  0.1989184701699E+00
-0.6038346874881E+00  0.2100971632569E+00
-0.6845115086198E+00  0.2166324175563E+00
-0.7709757378485E+00  0.2184819120411E+00
-0.8656138563331E+00  0.2159103040185E+00
-0.9679686794650E+00  0.2105117669806E+00
-0.1073550540522E+01  0.2045487683961E+00
-0.1177375561052E+01  0.1956933760278E+00
-0.1274803346928E+01  0.1815596798614E+00
-0.1362166651701E+01  0.1626934380709E+00
-0.1436985649895E+01  0.1406575967459E+00
-0.1498497328143E+01  0.1180753931779E+00
-0.1547043247743E+01  0.9729933215704E-01
-0.1583154801511E+01  0.7979688271519E-01
-0.1875484907969E+00  0.8259876176289E-01
-0.2568654226502E+00  0.1208676342652E+00
-0.3247596345795E+00  0.1557390186890E+00
-0.3930652883023E+00  0.1836479237578E+00
-0.4634325020321E+00  0.2057375035122E+00
-0.5366638063696E+00  0.2228979809418E+00
-0.6134319628897E+00  0.2354663365112E+00
-0.6946855150977E+00  0.2435003533096E+00
-0.7821321970696E+00  0.2468266036556E+00
-0.8787094832097E+00  0.2454320373116E+00
-0.9837823362193E+00  0.2408155575749E+00
-0.1091834953081E+01  0.2352725912841E+00
-0.1197316098861E+01  0.2257379103268E+00
-0.1295431987700E+01  0.2093743569198E+00
-0.1382530516025E+01  0.1870208919380E+00
-0.1456206956557E+01  0.1607043907270E+00
-0.1515853038335E+01  0.1335898548342E+00
-0.1561986569010E+01  0.1084535658093E+00
-0.1595295711176E+01  0.8701402257230E-01
-0.1983277783734E+00  0.9427852820941E-01
-0.2677177922454E+00  0.1412039801942E+00
-0.3344043630995E+00  0.1778495376678E+00
-0.4022077418538E+00  0.2066972653890E+00
-0.4724959349242E+00  0.2298697129309E+00
-0.5459434316765E+00  0.2482941892052E+00
-0.6231584241015E+00  0.2623559398428E+00
-0.7050885352859E+00  0.2721984785564E+00
-0.7935872210533E+00  0.2775744210170E+00
-0.8921914082927E+00  0.2780314026502E+00
-0.9999994056709E+00  0.2746721017554E+00
-0.1110323095741E+01  0.2696544074921E+00
-0.1217157520451E+01  0.2591248290280E+00
-0.1315665445985E+01  0.2400096722529E+00
-0.1402241035009E+01  0.2136022287907E+00
-0.1474551318889E+01  0.1824523601698E+00
-0.1532144448811E+01  0.1502985113555E+00
-0.1575718175802E+01  0.1203649345100E+00
-0.1606109837855E+01  0.9463526281490E-01
-0.1237958252667E+01 -0.1220335828488E+00
-0.1252143907627E+01 -0.1280216118059E+00
-0.1266043068409E+01 -0.1342490529584E+00
-0.1279669181180E+01 -0.1407187111186E+00
-0.1293033770263E+01 -0.1474317914723E+00
-0.1306148433840E+01 -0.1543868340527E+00
-0.1319024829895E+01 -0.1615800931101E+00
-0.1331674593969E+01 -0.1690061305403E+00
-0.1344109254413E+01 -0.1766582476298E+00
-0.1356340180615E+01 -0.1845287884276E+00
-0.1368378547964E+01 -0.1926093640884E+00
-0.1380235309172E+01 -0.2008910378347E+00
-0.1391921161519E+01 -0.2093644947897E+00
-0.1403446496886E+01 -0.2180202105592E+00
-0.1414821317171E+01 -0.2268486274565E+00
-0.1426055071016E+01 -0.2358403296251E+00
-0.1437156404337E+01 -0.2449862520634E+00
-0.1448132348636E+01 -0.2542776519901E+00
-0.1458988115786E+01 -0.2637069622929E+00
-0.1242893615196E+01 -0.1153701614071E+00
-0.1257729728086E+01 -0.1208331348026E+00
-0.1272240708925E+01 -0.1265397118810E+00
-0.1286443755049E+01 -0.1324809298833E+00
-0.1300354338993E+01 -0.1386552372349E+00
-0.1313987161533E+01 -0.1450617163916E+00
-0.1327356489874E+01 -0.1516982607139E+00
-0.1340476355958E+01 -0.1585612614883E+00
-0.1353360612886E+01 -0.1656457506558E+00
-0.1366022923870E+01 -0.1729456281280E+00
-0.1378476717881E+01 -0.1804538800670E+00
-0.1390735125305E+01 -0.1881627727405E+00
-0.1402810893889E+01 -0.1960640263364E+00
-0.1414716276989E+01 -0.2041489737475E+00
-0.1426462874191E+01 -0.2124087009341E+00
-0.1438061410045E+01 -0.2208341630708E+00
-0.1449521336025E+01 -0.2294161989569E+00
-0.1460850470277E+01 -0.2381454768591E+00
-0.1472052701272E+01 -0.2470111734135E+00
-0.1247698837281E+01 -0.1088559224495E+00
-0.1263132857152E+01 -0.1137588499584E+00
-0.1278213547656E+01 -0.1189075679266E+00
-0.1292953113145E+01 -0.1242875735972E+00
-0.1307368202221E+01 -0.1298936177783E+00
-0.1321475899499E+01 -0.1357238156150E+00
-0.1335293074009E+01 -0.1417766790008E+00
-0.1348836317013E+01 -0.1480499415712E+00
-0.1362121975827E+01 -0.1545402174178E+00
-0.1375166150121E+01 -0.1612429967067E+00
-0.1387984643219E+01 -0.1681527578210E+00
-0.1400592877736E+01 -0.1752631103301E+00
-0.1413005781443E+01 -0.1825669366206E+00
-0.1425237641111E+01 -0.1900565174797E+00
-0.1437301919098E+01 -0.1977236300441E+00
-0.1449211010176E+01 -0.2055595938121E+00
-0.1460975989565E+01 -0.2135552449527E+00
-0.1472606156121E+01 -0.2217006861480E+00
-0.1484109704163E+01 -0.2299847382932E+00
-0.1252390708565E+01 -0.1024839918866E+00
-0.1268376236969E+01 -0.1068130591183E+00
-0.1283983139407E+01 -0.1113804875108E+00
-0.1299218986458E+01 -0.1161739961647E+00
-0.1314099187561E+01 -0.1211872505434E+00
-0.1328641842271E+01 -0.1264177350217E+00
-0.1342865758662E+01 -0.1318643035951E+00
-0.1356789833777E+01 -0.1375257416909E+00
-0.1370432848016E+01 -0.1434000883386E+00
-0.1383813367303E+01 -0.1494843892987E+00
-0.1396949649459E+01 -0.1557746597296E+00
-0.1409859530722E+01 -0.1622659371407E+00
-0.1422560289037E+01 -0.1689523642826E+00
-0.1435068484940E+01 -0.1758272694662E+00
-0.1447399777725E+01 -0.1828832215282E+00
-0.1459568729533E+01 -0.1901120421611E+00
-0.1471588584889E+01 -0.1975047545520E+00
-0.1483471267167E+01 -0.2050514929236E+00
-0.1495227627098E+01 -0.2127417013173E+00
-0.1256978012375E+01 -0.9625412884315E-01
-0.1273479239458E+01 -0.1000036342314E+00
-0.1289574933543E+01 -0.1039775549622E+00
-0.1305270573601E+01 -0.1081681935052E+00
-0.1320580198788E+01 -0.1125708624490E+00
-0.1335522024343E+01 -0.1171836811227E+00
-0.1350116088265E+01 -0.1220062744599E+00
-0.1364383151318E+01 -0.1270385695113E+00
-0.1378344199824E+01 -0.1322800379638E+00
-0.1392020183163E+01 -0.1377293014978E+00
-0.1405431829998E+01 -0.1433839660468E+00
-0.1418599482671E+01 -0.1492405809567E+00
-0.1431542931299E+01 -0.1552946567684E+00
-0.1444281243951E+01 -0.1615407001320E+00
-0.1456832596847E+01 -0.1679722382483E+00
-0.1469214105718E+01 -0.1745818136870E+00
-0.1481441692044E+01 -0.1813609462187E+00
-0.1493529958933E+01 -0.1883001269755E+00
-0.1505492058789E+01 -0.1953889804608E+00
-0.1261470434109E+01 -0.9016928439213E-01
-0.1278462710756E+01 -0.9333867097918E-01
-0.1295019829792E+01 -0.9671425235864E-01
-0.1311146982708E+01 -0.1002935430352E+00
-0.1326857445885E+01 -0.1040748851169E+00
-0.1342169353671E+01 -0.1080582610966E+00
-0.1357103526826E+01 -0.1122447794813E+00
-0.1371682199545E+01 -0.1166358767383E+00
-0.1385928303578E+01 -0.1212326508358E+00
-0.1399865041550E+01 -0.1260354256731E+00
-0.1413515591992E+01 -0.1310435075165E+00
-0.1426902871722E+01 -0.1362550710702E+00
-0.1440049325758E+01 -0.1416671218631E+00
-0.1452976737392E+01 -0.1472754957986E+00
-0.1465706059630E+01 -0.1530748674334E+00
-0.1478257275106E+01 -0.1590587460175E+00
-0.1490649272385E+01 -0.1652194491959E+00
-0.1502899691519E+01 -0.1715480418245E+00
-0.1515024507498E+01 -0.1780342129240E+00
-0.1265881017002E+01 -0.8423446507490E-01
-0.1283353401710E+01 -0.8682685459185E-01
-0.1300357966878E+01 -0.8960470722322E-01
-0.1316900575133E+01 -0.9257050064470E-01
-0.1332994316655E+01 -0.9572623253892E-01
-0.1348657349815E+01 -0.9907455674488E-01
-0.1363911110278E+01 -0.1026187475007E+00
-0.1378779068201E+01 -0.1063622228966E+00
-0.1393285911872E+01 -0.1103080237036E+00
-0.1407456998480E+01 -0.1144583996578E+00
-0.1421317954063E+01 -0.1188145322580E+00
-0.1434894354326E+01 -0.1233763728605E+00
-0.1448211455168E+01 -0.1281425642857E+00
-0.1461293963697E+01 -0.1331104167739E+00
-0.1474165852608E+01 -0.1382759140374E+00
-0.1486850222616E+01 -0.1436337284060E+00
-0.1499369211547E+01 -0.1491772176477E+00
-0.1511743912834E+01 -0.1548983491232E+00
-0.1523994203774E+01 -0.1607873948697E+00
-0.1270226440940E+01 -0.7845538993917E-01
-0.1288184443234E+01 -0.8047670876504E-01
-0.1305638648794E+01 -0.8266137737173E-01
-0.1322595876865E+01 -0.8501637071341E-01
-0.1339069385114E+01 -0.8754752549298E-01
-0.1355077519060E+01 -0.9026065844818E-01
-0.1370642322244E+01 -0.9316174662044E-01
-0.1385788420399E+01 -0.9625665815467E-01
-0.1400542190084E+01 -0.9955074964488E-01
-0.1414931137544E+01 -0.1030484900381E+00
-0.1428983412969E+01 -0.1067531704310E+00
-0.1442727409715E+01 -0.1106667089655E+00
-0.1456191423180E+01 -0.1147895398607E+00
-0.1469403362803E+01 -0.1191205705173E+00
-0.1482390522536E+01 -0.1236571907073E+00
-0.1495179422621E+01 -0.1283953170218E+00
-0.1507795741078E+01 -0.1333294494075E+00
-0.1520264369928E+01 -0.1384526898819E+00
-0.1532609681924E+01 -0.1437566096597E+00
-0.1274517128157E+01 -0.7283683140885E-01
-0.1292976422879E+01 -0.7429399145163E-01
-0.1310892551652E+01 -0.7589156986745E-01
-0.1328273142122E+01 -0.7764059505859E-01
-0.1345131712307E+01 -0.7955074599702E-01
-0.1361486882209E+01 -0.8163129244023E-01
-0.1377361331161E+01 -0.8389132715235E-01
-0.1392780839106E+01 -0.8633959619076E-01
-0.1407773489484E+01 -0.8898416590051E-01
-0.1422369015336E+01 -0.9183206906478E-01
-0.1436598249205E+01 -0.9488900044088E-01
-0.1450492645415E+01 -0.9815908862185E-01
-0.1464083858940E+01 -0.1016447497142E+00
-0.1477403379699E+01 -0.1053466194002E+00
-0.1490482232683E+01 -0.1092635569829E+00
-0.1503350764635E+01 -0.1133927143769E+00
-0.1516038553417E+01 -0.1177296626981E+00
-0.1528574517810E+01 -0.1222685761429E+00
-0.1540987418709E+01 -0.1270024870806E+00
-0.1278732606750E+01 -0.6738093265561E-01
-0.1297689969431E+01 -0.6827860940403E-01
-0.1316062990436E+01 -0.6929276016703E-01
-0.1333859643070E+01 -0.7043806389187E-01
-0.1351093486352E+01 -0.7172794570189E-01
-0.1367783261501E+01 -0.7317527729677E-01
-0.1383952135405E+01 -0.7479256297373E-01
-0.1399626903638E+01 -0.7659179099472E-01
-0.1414837256849E+01 -0.7858412137419E-01
-0.1429615124417E+01 -0.8077952874803E-01
-0.1443994080540E+01 -0.8318647022040E-01
-0.1458008796910E+01 -0.8581161497914E-01
-0.1471694535440E+01 -0.8865965338879E-01
-0.1485086685677E+01 -0.9173319365153E-01
-0.1498220361687E+01 -0.9503275010728E-01
-0.1511130082404E+01 -0.9855682718413E-01
-0.1523849572139E+01 -0.1023021099475E+00
-0.1536411737135E+01 -0.1062637951473E+00
-0.1548848948057E+01 -0.1104361950085E+00
-0.1282854892482E+01 -0.6209245035442E-01
-0.1302290939194E+01 -0.6243537365701E-01
-0.1321101248977E+01 -0.6286964121853E-01
-0.1339293463716E+01 -0.6341319406018E-01
-0.1356880710989E+01 -0.6408303228367E-01
-0.1373881463361E+01 -0.6489566318761E-01
-0.1390319018176E+01 -0.6586718947514E-01
-0.1406220860614E+01 -0.6701312917978E-01
-0.1421618015053E+01 -0.6834808485501E-01
-0.1436544413215E+01 -0.6988535642244E-01
-0.1451036278301E+01 -0.7163656240638E-01
-0.1465131519302E+01 -0.7361131122663E-01
-0.1478869135314E+01 -0.7581694947189E-01
-0.1492288638698E+01 -0.7825840557207E-01
-0.1505429514255E+01 -0.8093814285463E-01
-0.1518330737426E+01 -0.8385623509936E-01
-0.1531030374549E+01 -0.8701058245975E-01
-0.1543565280083E+01 -0.9039730411486E-01
-0.1555970815627E+01 -0.9401138539773E-01
-0.1286876550264E+01 -0.5697858673297E-01
-0.1306766031363E+01 -0.5677394270595E-01
-0.1325989201976E+01 -0.5663433080046E-01
-0.1344552573429E+01 -0.5658058282638E-01
-0.1362468196759E+01 -0.5663304651003E-01
-0.1379753705472E+01 -0.5681180577442E-01
-0.1396431996001E+01 -0.5713665185045E-01
-0.1412530750296E+01 -0.5762684170027E-01
-0.1428081892188E+01 -0.5830072063653E-01
-0.1443121007829E+01 -0.5917528183951E-01
-0.1457686734123E+01 -0.6026572020430E-01
-0.1471820112895E+01 -0.6158502406260E-01
-0.1485563912688E+01 -0.6314363864019E-01
-0.1498961928337E+01 -0.6494922880784E-01
-0.1512058276543E+01 -0.6700656414804E-01
-0.1524896709218E+01 -0.6931754551352E-01
-0.1537519960474E+01 -0.7188138882686E-01
-0.1549969111598E+01 -0.7469497706681E-01
-0.1562282882803E+01 -0.7775335694076E-01
-0.1290795562800E+01 -0.5204737139470E-01
-0.1311112855743E+01 -0.5130573087105E-01
-0.1330724782026E+01 -0.5060172108887E-01
-0.1349635874154E+01 -0.4995870270324E-01
-0.1367856350678E+01 -0.4940009932822E-01
-0.1385402300076E+01 -0.4894943440153E-01
-0.1402295540794E+01 -0.4863018966463E-01
-0.1418563307583E+01 -0.4846549087123E-01
-0.1434237835311E+01 -0.4847766824144E-01
-0.1449355863784E+01 -0.4868774574214E-01
-0.1463958064448E+01 -0.4911490839976E-01
-0.1478088383705E+01 -0.4977599084194E-01
-0.1491793301381E+01 -0.5068502601342E-01
-0.1505121011975E+01 -0.5185288997883E-01
-0.1518120546614E+01 -0.5328707505110E-01
-0.1530840860570E+01 -0.5499161695717E-01
-0.1543329908469E+01 -0.5696718983159E-01
-0.1555633711867E+01 -0.5921135890232E-01
-0.1567795402766E+01 -0.6171893562361E-01
-0.1294611852525E+01 -0.4730685372213E-01
-0.1315333250356E+01 -0.4604235089134E-01
-0.1335312270438E+01 -0.4478713629288E-01
-0.1354550615976E+01 -0.4356672792502E-01
-0.1373055853284E+01 -0.4240730991167E-01
-0.1390841719763E+01 -0.4133563555756E-01
-0.1407928155171E+01 -0.4037879325126E-01
-0.1424341161529E+01 -0.3956382394588E-01
-0.1440112540968E+01 -0.3891721654152E-01
-0.1455279523379E+01 -0.3846431906306E-01
-0.1469884275803E+01 -0.3822870564633E-01
-0.1483973279037E+01 -0.3823153990593E-01
-0.1497596560342E+01 -0.3849097671708E-01
-0.1510806781679E+01 -0.3902164615046E-01
-0.1523658197980E+01 -0.3983426282030E-01
-0.1536205515529E+01 -0.4093539784460E-01
-0.1548502692171E+01 -0.4232743507083E-01
-0.1560601727140E+01 -0.4400870545807E-01
-0.1572551496434E+01 -0.4597375684397E-01
-0.1298325416932E+01 -0.4276479882783E-01
-0.1319429729744E+01 -0.4099505327071E-01
-0.1339757174680E+01 -0.3920550707474E-01
-0.1359305802409E+01 -0.3742343775260E-01
-0.1378079679362E+01 -0.3567742480456E-01
-0.1396089315955E+01 -0.3399716727523E-01
-0.1413351868702E+01 -0.3241318636668E-01
-0.1429891187450E+01 -0.3095639190579E-01
-0.1445737737468E+01 -0.2965752253747E-01
-0.1460928394869E+01 -0.2854648243953E-01
-0.1475506094748E+01 -0.2765160364497E-01
-0.1489519302904E+01 -0.2699886878024E-01
-0.1503021283319E+01 -0.2661113632161E-01
-0.1516069144393E+01 -0.2650741868308E-01
-0.1528722666984E+01 -0.2670226972430E-01
-0.1541042944973E+01 -0.2720533803418E-01
-0.1553090900251E+01 -0.2802113054164E-01
-0.1564925763122E+01 -0.2914900575310E-01
-0.1576603631265E+01 -0.3058338277361E-01
-0.1301935292481E+01 -0.3842867633326E-01
-0.1323403528603E+01 -0.3617477352086E-01
-0.1344063422204E+01 -0.3387148887852E-01
-0.1363908599129E+01 -0.3154742537460E-01
-0.1382938782082E+01 -0.2923313612575E-01
-0.1401160338888E+01 -0.2696090122085E-01
-0.1418586657063E+01 -0.2476440161473E-01
-0.1435238392302E+01 -0.2267826197859E-01
-0.1451143605597E+01 -0.2073745824336E-01
-0.1466337775550E+01 -0.1897659729553E-01
-0.1480863651742E+01 -0.1742908416009E-01
-0.1494770901990E+01 -0.1612620108622E-01
-0.1508115502096E+01 -0.1509613556014E-01
-0.1520958823699E+01 -0.1436301038574E-01
-0.1533366397413E+01 -0.1394598599956E-01
-0.1545406366793E+01 -0.1385851766027E-01
-0.1557147701899E+01 -0.1410785046458E-01
-0.1568658298579E+01 -0.1469481581297E-01
-0.1580003130906E+01 -0.1561395557312E-01
-0.1305439127878E+01 -0.3430555195847E-01
-0.1327253831503E+01 -0.3159199048753E-01
-0.1348232280829E+01 -0.2879929123839E-01
-0.1368362978277E+01 -0.2595690992939E-01
-0.1387640493748E+01 -0.2309689150833E-01
-0.1406066129471E+01 -0.2025364634070E-01
-0.1423648464878E+01 -0.1746363227177E-01
-0.1440403815174E+01 -0.1476490895244E-01
-0.1456356609719E+01 -0.1219654726017E-01
-0.1471539669242E+01 -0.9797884959152E-02
-0.1485994336883E+01 -0.7607626518831E-02
-0.1499770397826E+01 -0.5662794811297E-02
-0.1512925707947E+01 -0.3997558406202E-02
-0.1525525448057E+01 -0.2641982005378E-02
-0.1537640934466E+01 -0.1620778360788E-02
-0.1549347957673E+01 -0.9521726807326E-03
-0.1560724693749E+01 -0.6470142363814E-03
-0.1571849331597E+01 -0.7082689520844E-03
-0.1582797648408E+01 -0.1130981735848E-02
-0.1308832771201E+01 -0.3040211871262E-01
-0.1330977021159E+01 -0.2725688537259E-01
-0.1352261291332E+01 -0.2400298283907E-01
-0.1372668362609E+01 -0.2067021359661E-01
-0.1392186912968E+01 -0.1729157504347E-01
-0.1410812287974E+01 -0.1390306928042E-01
-0.1428547204920E+01 -0.1054342930922E-01
-0.1445402419278E+01 -0.7253724575284E-02
-0.1461397358881E+01 -0.4076816957552E-02
-0.1476560704606E+01 -0.1056641384512E-02
-0.1490930868627E+01  0.1762712026309E-02
-0.1504556292314E+01  0.4338130602377E-02
-0.1517495457210E+01  0.6628827569376E-02
-0.1529816478798E+01  0.8597879258243E-02
-0.1541596144998E+01  0.1021387987998E-01
-0.1552918286663E+01  0.1145258382742E-01
-0.1563871446001E+01  0.1229834311666E-01
-0.1574545949615E+01  0.1274510637429E-01
-0.1585030686533E+01  0.1279676307298E-01
-0.1312109950839E+01 -0.2672465007771E-01
-0.1334566107182E+01 -0.2317935730477E-01
-0.1356143456423E+01 -0.1949658195580E-01
-0.1376818591262E+01 -0.1570594685681E-01
-0.1396573669301E+01 -0.1184081593328E-01
-0.1415397268846E+01 -0.7938162554832E-02
-0.1433285228052E+01 -0.4038371303974E-02
-0.1450241500241E+01 -0.1849347222245E-03
-0.1466279038474E+01  0.3575993079225E-02
-0.1481420697636E+01  0.7196227832406E-02
-0.1495700112507E+01  0.1062641760610E-01
-0.1509162473877E+01  0.1381718317816E-01
-0.1521865080316E+01  0.1672057516828E-01
-0.1533877492310E+01  0.1929186273482E-01
-0.1545281067744E+01  0.2149161864052E-01
-0.1556167636595E+01  0.2328798152088E-01
-0.1566637118957E+01  0.2465886028562E-01
-0.1576794051371E+01  0.2559372624380E-01
-0.1586743277662E+01  0.2609457014377E-01
-0.1315261862635E+01 -0.2327896312933E-01
-0.1338009969455E+01 -0.1936907373369E-01
-0.1359866149590E+01 -0.1529420399292E-01
-0.1380800506954E+01 -0.1108327427816E-01
-0.1400788209321E+01 -0.6769403642495E-02
-0.1419810397333E+01 -0.2389851250549E-02
-0.1437855119368E+01  0.2014084239292E-02
-0.1454918335159E+01  0.6397242492176E-02
-0.1471005017362E+01  0.1071089947917E-01
-0.1486130359357E+01  0.1490323977795E-01
-0.1500321069897E+01  0.1892007036708E-01
-0.1513616696571E+01  0.2270585563483E-01
-0.1526070864612E+01  0.2620516077051E-01
-0.1537752239623E+01  0.2936458397307E-01
-0.1548744921820E+01  0.3213522077160E-01
-0.1559147873389E+01  0.3447561135719E-01
-0.1569072923974E+01  0.3635495323652E-01
-0.1578640995722E+01  0.3775612117643E-01
-0.1587976543228E+01  0.3867780607727E-01
-0.1318278332086E+01 -0.2007008013765E-01
-0.1341295618572E+01 -0.1583489394648E-01
-0.1363414340644E+01 -0.1140923859047E-01
-0.1384598014534E+01 -0.6820850926949E-02
-0.1404814556784E+01 -0.2102009905107E-02
-0.1424037208136E+01  0.2710448557638E-02
-0.1442245509900E+01  0.7575127134027E-02
-0.1459426392539E+01  0.1244609891321E-01
-0.1475575427618E+01  0.1727301669034E-01
-0.1490698280621E+01  0.2200135869683E-01
-0.1504812382224E+01  0.2657289148491E-01
-0.1517948804066E+01  0.3092645696595E-01
-0.1530154271633E+01  0.3499921986733E-01
-0.1541493156415E+01  0.3872853755280E-01
-0.1552049143082E+01  0.4205461900764E-01
-0.1561926050274E+01  0.4492408556109E-01
-0.1571247033132E+01  0.4729436215699E-01
-0.1580151249805E+01  0.4913846178389E-01
-0.1588787320418E+01  0.5044919727199E-01
-0.1321152653881E+01 -0.1710106721144E-01
-0.1344417488964E+01 -0.1258258504842E-01
-0.1366783911078E+01 -0.7850858974615E-02
-0.1388208949874E+01 -0.2932067990290E-02
-0.1408653240337E+01  0.2142847870230E-02
-0.1428081919060E+01  0.7338116531678E-02
-0.1446465579132E+01  0.1261303669608E-01
-0.1463781362168E+01  0.1792186534733E-01
-0.1480014263429E+01  0.2321372179304E-01
-0.1495158721071E+01  0.2843256177937E-01
-0.1509220554108E+01  0.3351730235063E-01
-0.1522219300239E+01  0.3840221539781E-01
-0.1534190972823E+01  0.4301775912799E-01
-0.1545191184660E+01  0.4729208348334E-01
-0.1555298436864E+01  0.5115352104809E-01
-0.1564617083045E+01  0.5453442865588E-01
-0.1573278969643E+01  0.5737667899553E-01
-0.1581442122524E+01  0.5963868803151E-01
-0.1589284497423E+01  0.6130298916936E-01
-0.1323876776253E+01 -0.1437352132268E-01
-0.1347368213966E+01 -0.9615916028542E-02
-0.1369968355713E+01 -0.4625717931866E-02
-0.1391628041012E+01  0.5726747659150E-03
-0.1412300833628E+01  0.5950001153388E-02
-0.1431943851952E+01  0.1147204485816E-01
-0.1450518637321E+01  0.1709947755177E-01
-0.1467992159081E+01  0.2278763033190E-01
-0.1484338054759E+01  0.2848620954338E-01
-0.1499538207032E+01  0.3413899465553E-01
-0.1513584768741E+01  0.3968358183770E-01
-0.1526482760310E+01  0.4505127646529E-01
-0.1538253372839E+01  0.5016730100090E-01
-0.1548938096828E+01  0.5495158437746E-01
-0.1558603720414E+01  0.5932055061228E-01
-0.1567348010210E+01  0.6319053608365E-01
-0.1575305303491E+01  0.6648370270608E-01
-0.1582649891457E+01  0.6913729787055E-01
-0.1589593368955E+01  0.7111597408474E-01
-0.1326439863559E+01 -0.1188767084535E-01
-0.1350135851299E+01 -0.6936974340513E-02
-0.1372954756260E+01 -0.1738462415194E-02
-0.1394841703331E+01  0.3685284562087E-02
-0.1415743634531E+01  0.9306811419662E-02
-0.1435610042338E+01  0.1509372229873E-01
-0.1454393693266E+01  0.2100851493471E-01
-0.1472051459389E+01  0.2700828832980E-01
-0.1488545371894E+01  0.3304432335132E-01
-0.1503844017748E+01  0.3906155150118E-01
-0.1517924423331E+01  0.4499794384167E-01
-0.1530774609027E+01  0.5078388100814E-01
-0.1542397056800E+01  0.5634162018438E-01
-0.1552813405348E+01  0.6158507751045E-01
-0.1562070758896E+01  0.6642033203440E-01
-0.1570250004793E+01  0.7074759639297E-01
-0.1577476290066E+01  0.7446598921481E-01
-0.1583930631605E+01  0.7748340445110E-01
-0.1589857379663E+01  0.7973415166479E-01
-0.1328828454845E+01 -0.9642170788045E-02
-0.1352704164151E+01 -0.4545870379500E-02
-0.1375724134014E+01  0.8087032518200E-03
-0.1397828401103E+01  0.6400609587439E-02
-0.1418957953501E+01  0.1220406564431E-01
-0.1439055347337E+01  0.1818846005056E-01
-0.1458065242158E+01  0.2431823441200E-01
-0.1475934990750E+01  0.3055259213115E-01
-0.1492615403812E+01  0.3684502242125E-01
-0.1508061812408E+01  0.4314263425503E-01
-0.1522235578073E+01  0.4938529591266E-01
-0.1535106257128E+01  0.5550458190879E-01
-0.1546654721361E+01  0.6142255290975E-01
-0.1556877688787E+01  0.6705045667488E-01
-0.1565794352438E+01  0.7228758172684E-01
-0.1573456150350E+01  0.7702081462314E-01
-0.1579961193951E+01  0.8112616864373E-01
-0.1585475331647E+01  0.8447519858656E-01
-0.1590259825638E+01  0.8695332617541E-01
-0.1331026611244E+01 -0.7633859823251E-02
-0.1355052871721E+01 -0.2440352775372E-02
-0.1378251756277E+01  0.3016605948239E-02
-0.1400558948560E+01  0.8717311929788E-02
-0.1421910326721E+01  0.1463723585969E-01
-0.1442242455476E+01  0.2074716492748E-01
-0.1461492908910E+01  0.2701317721032E-01
-0.1479600580386E+01  0.3339640696292E-01
-0.1496506097857E+01  0.3985258912711E-01
-0.1512152450592E+01  0.4633136931579E-01
-0.1526485951682E+01  0.5277534908810E-01
-0.1539457714418E+01  0.5911881516554E-01
-0.1551025923067E+01  0.6528608159138E-01
-0.1561159359006E+01  0.7118936445853E-01
-0.1569842963912E+01  0.7672613111716E-01
-0.1577086808429E+01  0.8177597827850E-01
-0.1582940987580E+01  0.8619747377313E-01
-0.1587521248915E+01  0.8982658663126E-01
-0.1591056102135E+01  0.9248277182612E-01
-0.1333016161162E+01 -0.5857498351555E-02
-0.1357158064355E+01 -0.6153743035130E-03
-0.1380507667408E+01  0.4889784619102E-02
-0.1402997090147E+01  0.1063889609321E-01
-0.1424558059108E+01  0.1660799465068E-01
-0.1445122271862E+01  0.2276853229565E-01
-0.1464621498865E+01  0.2908746321503E-01
-0.1482987607721E+01  0.3552708299862E-01
-0.1500152621900E+01  0.4204462750210E-01
-0.1516048889788E+01  0.4859162673205E-01
-0.1530609438062E+01  0.5511297909028E-01
-0.1543768614718E+01  0.6154566947774E-01
-0.1555463199441E+01  0.6781699997247E-01
-0.1565634297719E+01  0.7384212610358E-01
-0.1574230598454E+01  0.7952058026343E-01
-0.1581214102940E+01  0.8473129373817E-01
-0.1586570560781E+01  0.8932536094972E-01
-0.1590329639865E+01  0.9311545403222E-01
-0.1592607529165E+01  0.9586019135420E-01
-0.1334777227431E+01 -0.4305398506278E-02
-0.1358993171205E+01  0.9375686358590E-03
-0.1382458053899E+01  0.6437525817544E-02
-0.1405101212245E+01  0.1217523712631E-01
-0.1426851217349E+01  0.1812640760423E-01
-0.1447636097954E+01  0.2426215530234E-01
-0.1467383215791E+01  0.3054918288593E-01
-0.1486019018812E+01  0.3694964792590E-01
-0.1503468778487E+01  0.4342076633034E-01
-0.1519656352121E+01  0.4991416278372E-01
-0.1534503984493E+01  0.5637493891934E-01
-0.1547932162425E+01  0.6274037304196E-01
-0.1559859556378E+01  0.6893808800298E-01
-0.1570203129070E+01  0.7488340539263E-01
-0.1578878581854E+01  0.8047540072700E-01
-0.1585801488869E+01  0.8559079032902E-01
-0.1590889855537E+01  0.9007399141702E-01
-0.1594069732892E+01  0.9371983003103E-01
-0.1595287576520E+01  0.9624042083719E-01
-0.1336289418829E+01 -0.2966969618461E-02
-0.1360531186895E+01  0.2231269000954E-02
-0.1384068428928E+01  0.7675158763050E-02
-0.1406828409006E+01  0.1334445344528E-01
-0.1428737499555E+01  0.1921356086630E-01
-0.1449721218189E+01  0.2525218737982E-01
-0.1469703853375E+01  0.3142554287402E-01
-0.1488607956510E+01  0.3769415571272E-01
-0.1506353799698E+01  0.4401337086312E-01
-0.1522858803312E+01  0.5033256294688E-01
-0.1538036888325E+01  0.5659403353339E-01
-0.1551797678337E+01  0.6273148835438E-01
-0.1564045444642E+01  0.6866789576993E-01
-0.1574677634824E+01  0.7431238689924E-01
-0.1583582718150E+01  0.7955561902645E-01
-0.1590636851458E+01  0.8426258179200E-01
-0.1595698313467E+01  0.8826093855294E-01
-0.1598597101895E+01  0.9132101398672E-01
-0.1599112396197E+01  0.9311864070319E-01
-0.1337534396206E+01 -0.1827988900890E-02
-0.1361749596949E+01  0.3284192816902E-02
-0.1385310813560E+01  0.8626159342219E-02
-0.1408143822852E+01  0.1417581087519E-01
-0.1430173650633E+01  0.1990538226240E-01
-0.1451324322900E+01  0.2578226638573E-01
-0.1471518185132E+01  0.3176919942001E-01
-0.1490675119760E+01  0.3782394656134E-01
-0.1508711743609E+01  0.4389862020042E-01
-0.1525540544559E+01  0.4993868919217E-01
-0.1541068852169E+01  0.5588165465596E-01
-0.1555197486886E+01  0.6165528557248E-01
-0.1567818864002E+01  0.6717521695601E-01
-0.1578814205168E+01  0.7234159434225E-01
-0.1588049273390E+01  0.7703426901272E-01
-0.1595367567269E+01  0.8110575825610E-01
-0.1600578905519E+01  0.8437070946870E-01
-0.1603438969966E+01  0.8658993349377E-01
-0.1603609113639E+01  0.8744626469572E-01
-0.1338500861983E+01 -0.8694892195011E-03
-0.1362640064946E+01  0.4122610962230E-02
-0.1386177957688E+01  0.9325315494537E-02
-0.1409039239648E+01  0.1471390422532E-01
-0.1431148286688E+01  0.2025778728543E-01
-0.1452428446436E+01  0.2592151994757E-01
-0.1472800963533E+01  0.3166492368892E-01
-0.1492183897026E+01  0.3744260609864E-01
-0.1510491069984E+01  0.4320310179006E-01
-0.1527630953473E+01  0.4888773835007E-01
-0.1543505321501E+01  0.5442923130236E-01
-0.1558007461599E+01  0.5974993712800E-01
-0.1571019648890E+01  0.6475963655965E-01
-0.1582409453942E+01  0.6935267236021E-01
-0.1592024204323E+01  0.7340422582493E-01
-0.1599682474881E+01  0.7676551185473E-01
-0.1605160663670E+01  0.7925780937051E-01
-0.1608171478146E+01  0.8066593622153E-01
-0.1608329279293E+01  0.8073495704014E-01
-0.1339192204392E+01 -0.6635709870062E-04
-0.1363223373053E+01  0.4783271197757E-02
-0.1386705372930E+01  0.9822591946639E-02
-0.1409562007617E+01  0.1502355592940E-01
-0.1431717489377E+01  0.2035235906232E-01
-0.1453095020676E+01  0.2577062841915E-01
-0.1473615224812E+01  0.3123541327204E-01
-0.1493194754295E+01  0.3669851471411E-01
-0.1511745034442E+01  0.4210549289519E-01
-0.1529170972536E+01  0.4739451100820E-01
-0.1545369422044E+01  0.5249505584571E-01
-0.1560227163951E+01  0.5732651837460E-01
-0.1573618117814E+01  0.6179660683040E-01
-0.1585399403807E+01  0.6579959770940E-01
-0.1595405726939E+01  0.6921452791306E-01
-0.1603441333968E+01  0.7190365226020E-01
-0.1609268589991E+01  0.7371200301266E-01
-0.1612592169952E+01  0.7446997549139E-01
-0.1613040849993E+01  0.7400334591365E-01
-0.1339616763323E+01  0.6101567126517E-03
-0.1363530297930E+01  0.5308074118198E-02
-0.1386943538985E+01  0.1017457122187E-01
-0.1409779489545E+01  0.1517759681240E-01
-0.1431962566828E+01  0.2028005265525E-01
-0.1453416129209E+01  0.2544101616859E-01
-0.1474060329189E+01  0.3061546867700E-01
-0.1493810454284E+01  0.3575338866899E-01
-0.1512575557384E+01  0.4079868131837E-01
-0.1530257116298E+01  0.4568813237954E-01
-0.1546747480959E+01  0.5035044578096E-01
-0.1561927888286E+01  0.5470538787486E-01
-0.1575665828191E+01  0.5866309411266E-01
-0.1587811530590E+01  0.6212368125941E-01
-0.1598193339246E+01  0.6497746999566E-01
-0.1606611788520E+01  0.6710641841273E-01
-0.1612832417682E+01  0.6838783187018E-01
-0.1616578244788E+01  0.6870219558314E-01
-0.1617523431149E+01  0.6794668792971E-01
-0.1339742791418E+01  0.1183478092944E-02
-0.1363512782318E+01  0.5725603740545E-02
-0.1386827444367E+01  0.1041575507109E-01
-0.1409609688070E+01  0.1521746143086E-01
-0.1431784930513E+01  0.2009088424744E-01
-0.1453277215403E+01  0.2499370546210E-01
-0.1474006522025E+01  0.2988032636243E-01
-0.1493886985494E+01  0.3470066795482E-01
-0.1512825579296E+01  0.3939908425413E-01
-0.1530720896373E+01  0.4391355407419E-01
-0.1547461781270E+01  0.4817516986263E-01
-0.1562925652433E+01  0.5210795320023E-01
-0.1576976405722E+01  0.5562908964539E-01
-0.1589461849896E+01  0.5864977703880E-01
-0.1600210725264E+01  0.6107702990077E-01
-0.1609029595255E+01  0.6281699071189E-01
-0.1615700287476E+01  0.6378061602691E-01
-0.1619979123712E+01  0.6389265780582E-01
-0.1621599889142E+01  0.6310520944538E-01
-0.1339530006638E+01  0.1679454141944E-02
-0.1363105017458E+01  0.6066370841859E-02
-0.1386265392070E+01  0.1058154483456E-01
-0.1408935804339E+01  0.1518422093632E-01
-0.1431044036671E+01  0.1983333863970E-01
-0.1452515623288E+01  0.2448719913004E-01
-0.1473270895990E+01  0.2910181364523E-01
-0.1493223386638E+01  0.3362935024862E-01
-0.1512278783336E+01  0.3801715735358E-01
-0.1530333997916E+01  0.4220730296089E-01
-0.1547276158496E+01  0.4613656792635E-01
-0.1562981449691E+01  0.4973689760165E-01
-0.1577313800967E+01  0.5293640031199E-01
-0.1590123507728E+01  0.5566106203282E-01
-0.1601246023773E+01  0.5783742979309E-01
-0.1610501365065E+01  0.5939659364310E-01
-0.1617695098883E+01  0.6027982544266E-01
-0.1622622007439E+01  0.6044645451862E-01
-0.1625074062539E+01  0.5988395655206E-01
-0.1338942975607E+01  0.2129726116185E-02
-0.1362248905060E+01  0.6368538730055E-02
-0.1385176412992E+01  0.1071595044818E-01
-0.1407655169498E+01  0.1512845434700E-01
-0.1429617020918E+01  0.1956649547937E-01
-0.1450989742202E+01  0.2399184179645E-01
-0.1471694608728E+01  0.2836457603739E-01
-0.1491645417254E+01  0.3264148191134E-01
-0.1510747853063E+01  0.3677537811584E-01
-0.1528898934087E+01  0.4071509323256E-01
-0.1545986448587E+01  0.4440592883754E-01
-0.1561888403503E+01  0.4779059858399E-01
-0.1576472555233E+01  0.5081071035257E-01
-0.1589596170932E+01  0.5340890073953E-01
-0.1601106259145E+01  0.5553173257722E-01
-0.1610840740173E+01  0.5713343232314E-01
-0.1618630945332E+01  0.5818035932089E-01
-0.1624307404612E+01  0.5865590940276E-01
-0.1627708949546E+01  0.5856659763349E-01
-0.1337951411224E+01  0.2572991105982E-02
-0.1360894304124E+01  0.6677578755971E-02
-0.1383491449297E+01  0.1086971867068E-01
-0.1405682057395E+01  0.1510697159498E-01
-0.1427402886613E+01  0.1935606153938E-01
-0.1448584049708E+01  0.2358505451712E-01
-0.1469148400549E+01  0.2776018506212E-01
-0.1489011189130E+01  0.3184475453888E-01
-0.1508079810369E+01  0.3579902974443E-01
-0.1526253577386E+01  0.3958066413290E-01
-0.1543423581655E+01  0.4314550862195E-01
-0.1559472712154E+01  0.4644881903874E-01
-0.1574275928723E+01  0.4944691395132E-01
-0.1587700912127E+01  0.5209932888067E-01
-0.1599609277605E+01  0.5437147029283E-01
-0.1609858470818E+01  0.5623761854096E-01
-0.1618304907487E+01  0.5768403508511E-01
-0.1624806846805E+01  0.5871084696440E-01
-0.1629234535992E+01  0.5933134103531E-01
-0.1336527499909E+01  0.3056133678464E-02
-0.1358993373472E+01  0.7044705054356E-02
-0.1381149061047E+01  0.1109461221060E-01
-0.1402944270822E+01  0.1517682561172E-01
-0.1424318469110E+01  0.1926820693616E-01
-0.1445204005709E+01  0.2334459097823E-01
-0.1465526249311E+01  0.2737933538767E-01
-0.1485203541531E+01  0.3134335844178E-01
-0.1504147060615E+01  0.3520565057020E-01
-0.1522260802749E+01  0.3893400731839E-01
-0.1539441769367E+01  0.4249598614360E-01
-0.1555580435807E+01  0.4586014156093E-01
-0.1570561570470E+01  0.4899758370064E-01
-0.1584265477358E+01  0.5188386749844E-01
-0.1596569695047E+01  0.5450113351555E-01
-0.1607351241970E+01  0.5684037307761E-01
-0.1616488757113E+01  0.5890319393359E-01
-0.1623866042843E+01  0.6070336841585E-01
-0.1629362986994E+01  0.6226086647242E-01
-0.1334632060262E+01  0.3640725383228E-02
-0.1356493949831E+01  0.7515555347930E-02
-0.1378093967596E+01  0.1143488986893E-01
-0.1399380012098E+01  0.1538916691283E-01
-0.1420292909764E+01  0.1936435096273E-01
-0.1440768118093E+01  0.2334302340206E-01
-0.1460735350698E+01  0.2730544973860E-01
-0.1480118181985E+01  0.3123055575487E-01
-0.1498833874402E+01  0.3509670614082E-01
-0.1516793483611E+01  0.3888247640622E-01
-0.1533902270184E+01  0.4256753401699E-01
-0.1550060456154E+01  0.4613369999634E-01
-0.1565164362805E+01  0.4956621785077E-01
-0.1579107941977E+01  0.5285520578866E-01
-0.1591784688115E+01  0.5599722544300E-01
-0.1603089744470E+01  0.5899676634424E-01
-0.1612922331173E+01  0.6186778565338E-01
-0.1621185558841E+01  0.6463356427842E-01
-0.1627793288310E+01  0.6733370935641E-01
</DataArray>
</PointData>
   <DataArray type="Float64" Name="Load" NumberOfComponents="1"    ComponentName0="Load" format="ascii">
 0.1729372522984E+02
 0.1550532550850E+02
 0.1408008056139E+02
 0.1352186898519E+02
 0.1308351567700E+02
 0.1275302907612E+02
 0.1246967333932E+02
 0.1221589352547E+02
 0.1197939210735E+02
 0.1175402433480E+02
 0.1153635394384E+02
 0.1132492636239E+02
 0.1111979113134E+02
 0.1092262396192E+02
 0.1073787366002E+02
 0.1057593094950E+02
 0.1043673277670E+02
 0.1028944750268E+02
 0.1010481786163E+02
 0.9882540356804E+01
 0.9635389035819E+01
 0.9376803218480E+01
 0.9117323834539E+01
 0.8864705537468E+01
 0.8624665399315E+01
 0.8401055989646E+01
 0.8195207346141E+01
 0.8010463509588E+01
 0.7856681882390E+01
 0.7744959069069E+01
 0.7684069302374E+01
 0.7681807724977E+01
 0.7744754961982E+01
 0.7876592226791E+01
 0.8078792110951E+01
 0.8360545274040E+01
 0.8818235660180E+01
 0.9511303734943E+01
 0.1099379804103E+02
 0.1160877975095E+02
 0.2017500567717E+02
 0.1468682124567E+02
 0.1512284036256E+02
 0.1401334586075E+02
 0.1332707472820E+02
 0.1288537958605E+02
 0.1253142595946E+02
 0.1223701859846E+02
 0.1197538318347E+02
 0.1173462208974E+02
 0.1150733323443E+02
 0.1128952311007E+02
 0.1107921793397E+02
 0.1087599673124E+02
 0.1068098611632E+02
 0.1049670352774E+02
 0.1032433402457E+02
 0.1015843710506E+02
 0.9986108685541E+01
 0.9794930742987E+01
 0.9580913727802E+01
 0.9348414179644E+01
 0.9105280849517E+01
 0.8859189178030E+01
 0.8616459880012E+01
 0.8381901670086E+01
 0.8158995082484E+01
 0.7950715463435E+01
 0.7760975505902E+01
 0.7595301215352E+01
 0.7459896361255E+01
 0.7360169954574E+01
 0.7299858707202E+01
 0.7280522196103E+01
 0.7301717602944E+01
 0.7363636516685E+01
 0.7478899266292E+01
 0.7653389931806E+01
 0.7918389359676E+01
 0.8061092132075E+01
 0.6904664947019E+01
 0.1376605961234E+02
 0.1313738498428E+02
 0.1412519480182E+02
 0.1371110277323E+02
 0.1308011132253E+02
 0.1264169787957E+02
 0.1228953616828E+02
 0.1199105887030E+02
 0.1172692636436E+02
 0.1148459687898E+02
 0.1125697022335E+02
 0.1103977312544E+02
 0.1083073829426E+02
 0.1062900859200E+02
 0.1043483548866E+02
 0.1024822959372E+02
 0.1006633423173E+02
 0.9883842328851E+01
 0.9696108478720E+01
 0.9499035022379E+01
 0.9289215933197E+01
 0.9066734582843E+01
 0.8835231552214E+01
 0.8599675225984E+01
 0.8364802513880E+01
 0.8134505649221E+01
 0.7912000672463E+01
 0.7700524046693E+01
 0.7503424629143E+01
 0.7323751505428E+01
 0.7164327089974E+01
 0.7027374453497E+01
 0.6913427601283E+01
 0.6820764139359E+01
 0.6746016803679E+01
 0.6687477489013E+01
 0.6642529102388E+01
 0.6587911761291E+01
 0.6457661967959E+01
 0.5872989016780E+01
 0.5156412358628E+01
 0.1171677027704E+02
 0.1206972344173E+02
 0.1314339423397E+02
 0.1319084869341E+02
 0.1276065823150E+02
 0.1235861957745E+02
 0.1202335177423E+02
 0.1173096570832E+02
 0.1146930243094E+02
 0.1122853495109E+02
 0.1100231624989E+02
 0.1078666315847E+02
 0.1057921218206E+02
 0.1037873932308E+02
 0.1018453131767E+02
 0.9994825148779E+01
 0.9805456470617E+01
 0.9612433965487E+01
 0.9415178128011E+01
 0.9213723921452E+01
 0.9005962258241E+01
 0.8790194101202E+01
 0.8567242251867E+01
 0.8339777760017E+01
 0.8111001984147E+01
 0.7883895015886E+01
 0.7661223807609E+01
 0.7445844788764E+01
 0.7240226687805E+01
 0.7045726341729E+01
 0.6862839092877E+01
 0.6691292078503E+01
 0.6529281533680E+01
 0.6373016257356E+01
 0.6217508579445E+01
 0.6057657287831E+01
 0.5881706213096E+01
 0.5652750102642E+01
 0.5266633475717E+01
 0.4575148466757E+01
 0.4733172028533E+01
 0.1068969498201E+02
 0.1126043167032E+02
 0.1227804743482E+02
 0.1258339002553E+02
 0.1236471461775E+02
 0.1203876618274E+02
 0.1173331722527E+02
 0.1145596900750E+02
 0.1120198874252E+02
 0.1096588454789E+02
 0.1074295223032E+02
 0.1052988816122E+02
 0.1032448343202E+02
 0.1012525169515E+02
 0.9930719721372E+01
 0.9738182384238E+01
 0.9543431739575E+01
 0.9343823059343E+01
 0.9140818377746E+01
 0.8936463378545E+01
 0.8729766114063E+01
 0.8518471046710E+01
 0.8301690191195E+01
 0.8080303899675E+01
 0.7856140904942E+01
 0.7631276765489E+01
 0.7407867596063E+01
 0.7188118644891E+01
 0.6973581731987E+01
 0.6764372206353E+01
 0.6559400587031E+01
 0.6356663431841E+01
 0.6152854646293E+01
 0.5943171875258E+01
 0.5721919898090E+01
 0.5482225567500E+01
 0.5210095634096E+01
 0.4868783880416E+01
 0.4393993718447E+01
 0.3900194152128E+01
 0.4799559693402E+01
 0.1000116572189E+02
 0.1060522827244E+02
 0.1152747186801E+02
 0.1196271018559E+02
 0.1191694933663E+02
 0.1168455929621E+02
 0.1142150291836E+02
 0.1116630931436E+02
 0.1092485534508E+02
 0.1069641021850E+02
 0.1047863985884E+02
 0.1026928160989E+02
 0.1006650633374E+02
 0.9868734497838E+01
 0.9674050689344E+01
 0.9479433565622E+01
 0.9281156700613E+01
 0.9077675365379E+01
 0.8871453471690E+01
 0.8665446313740E+01
 0.8459445793926E+01
 0.8251178394527E+01
 0.8038803508985E+01
 0.7821899025823E+01
 0.7601135147756E+01
 0.7377720946199E+01
 0.7153121514953E+01
 0.6928809817193E+01
 0.6705497926570E+01
 0.6482386853128E+01
 0.6257361378116E+01
 0.6027378983210E+01
 0.5788409402353E+01
 0.5535520482669E+01
 0.5263371061905E+01
 0.4965831114310E+01
 0.4632163558962E+01
 0.4241139728389E+01
 0.3799126341063E+01
 0.3606782795074E+01
 0.4982831437654E+01
 0.9465464698862E+01
 0.1004920485955E+02
 0.1087175219947E+02
 0.1136233049039E+02
 0.1144315397217E+02
 0.1130317548191E+02
 0.1109046117477E+02
 0.1086310763112E+02
 0.1063819735739E+02
 0.1042014937344E+02
 0.1020932579152E+02
 0.1000480507761E+02
 0.9805336122619E+01
 0.9609443445333E+01
 0.9415083682698E+01
 0.9219326751011E+01
 0.9019104000972E+01
 0.8813702231841E+01
 0.8606035210707E+01
 0.8399390453532E+01
 0.8194052140537E+01
 0.7987931058232E+01
 0.7778711196979E+01
 0.7565075587634E+01
 0.7346761212050E+01
 0.7124184688011E+01
 0.6898114815329E+01
 0.6669313232546E+01
 0.6437779295242E+01
 0.6202070913245E+01
 0.5959488860381E+01
 0.5706537329372E+01
 0.5439135942328E+01
 0.5152981360429E+01
 0.4844191997706E+01
 0.4509590008438E+01
 0.4146141527539E+01
 0.3757017585870E+01
 0.3417053011076E+01
 0.3525610840337E+01
 0.5151822897711E+01
 0.9017996315348E+01
 0.9560877911585E+01
 0.1029109759778E+02
 0.1079497170458E+02
 0.1096228959793E+02
 0.1090370490126E+02
 0.1074367303413E+02
 0.1054797943633E+02
 0.1034271565904E+02
 0.1013738208835E+02
 0.9935126276599E+01
 0.9736538289846E+01
 0.9541110455857E+01
 0.9347659786295E+01
 0.9154274440337E+01
 0.8958358477541E+01
 0.8757521310310E+01
 0.8551659091949E+01
 0.8343839320970E+01
 0.8137381527100E+01
 0.7932848262590E+01
 0.7728384078510E+01
 0.7521481413402E+01
 0.7310241069658E+01
 0.7093678785892E+01
 0.6871520407861E+01
 0.6643887793271E+01
 0.6410907807557E+01
 0.6172014415964E+01
 0.5925359167824E+01
 0.5668016107027E+01
 0.5396513570847E+01
 0.5107274346730E+01
 0.4797262089741E+01
 0.4464984427020E+01
 0.4111840117816E+01
 0.3745206027876E+01
 0.3394366297184E+01
 0.3186957120798E+01
 0.3548578976472E+01
 0.5271842707885E+01
 0.8629590752058E+01
 0.9120982797231E+01
 0.9769402231695E+01
 0.1026354626138E+02
 0.1048642190418E+02
 0.1049465975977E+02
 0.1038522122646E+02
 0.1022290480761E+02
 0.1003940740228E+02
 0.9848602323923E+01
 0.9656304939579E+01
 0.9464664669709E+01
 0.9274030588553E+01
 0.9083668587772E+01
 0.8891989638971E+01
 0.8696863896297E+01
 0.8496535535274E+01
 0.8291343404278E+01
 0.8084352257417E+01
 0.7878763495687E+01
 0.7675273802598E+01
 0.7472248285009E+01
 0.7267148837426E+01
 0.7057721826407E+01
 0.6842448180287E+01
 0.6620479760914E+01
 0.6391375490066E+01
 0.6154732815579E+01
 0.5909571975585E+01
 0.5653846224889E+01
 0.5384691997663E+01
 0.5099037085754E+01
 0.4794237868645E+01
 0.4469013344173E+01
 0.4124910972292E+01
 0.3768843410093E+01
 0.3419414307731E+01
 0.3129175600689E+01
 0.3059700785503E+01
 0.3612770729498E+01
 0.5341076031438E+01
 0.8283976222260E+01
 0.8717098789813E+01
 0.9294266637143E+01
 0.9766641618749E+01
 0.1002248308119E+02
 0.1008291113748E+02
 0.1001922223497E+02
 0.9890086563220E+01
 0.9729471324697E+01
 0.9554471640479E+01
 0.9373248893974E+01
 0.9189453740565E+01
 0.9004345320730E+01
 0.8817749690166E+01
 0.8628527726234E+01
 0.8435076257431E+01
 0.8236210021670E+01
 0.8032591418380E+01
 0.7827204031040E+01
 0.7623063302983E+01
 0.7420908669942E+01
 0.7219292237454E+01
 0.7015732306484E+01
 0.6807781761650E+01
 0.6593543885590E+01
 0.6371717127307E+01
 0.6141399867114E+01
 0.5901777631858E+01
 0.5651603270623E+01
 0.5388811872071E+01
 0.5110831936558E+01
 0.4815272824093E+01
 0.4500733907236E+01
 0.4168010807156E+01
 0.3822036571217E+01
 0.3475509413868E+01
 0.3157620416583E+01
 0.2939253958671E+01
 0.2998168460335E+01
 0.3684719933712E+01
 0.5366964500823E+01
 0.7970612413930E+01
 0.8340861661775E+01
 0.8856285618531E+01
 0.9301159176568E+01
 0.9573991396285E+01
 0.9673519411100E+01
 0.9649402157479E+01
 0.9551774758179E+01
 0.9414223232521E+01
 0.9255769308927E+01
 0.9086441404140E+01
 0.8911242908880E+01
 0.8732337883074E+01
 0.8550175154162E+01
 0.8364138072377E+01
 0.8173165728604E+01
 0.7976576783224E+01
 0.7775274225742E+01
 0.7572126041988E+01
 0.7369939072210E+01
 0.7169441476923E+01
 0.6969337101444E+01
 0.6767244885088E+01
 0.6560636070614E+01
 0.6347365291440E+01
 0.6125793708519E+01
 0.5894667803345E+01
 0.5652879933334E+01
 0.5399050377180E+01
 0.5131247751526E+01
 0.4847368599925E+01
 0.4545901953719E+01
 0.4226884884733E+01
 0.3893346282870E+01
 0.3553667788166E+01
 0.3226070763200E+01
 0.2948828259435E+01
 0.2805618219017E+01
 0.2975717350856E+01
 0.3748139032256E+01
 0.5358173756306E+01
 0.7682061465744E+01
 0.7986426797559E+01
 0.8448320317437E+01
 0.8863549010189E+01
 0.9142331241504E+01
 0.9269954714884E+01
 0.9278884294674E+01
 0.9210109285747E+01
 0.9095015520609E+01
 0.8953344721877E+01
 0.8796433303173E+01
 0.8630419433379E+01
 0.8458315226253E+01
 0.8281209304604E+01
 0.8099036148981E+01
 0.7911264481156E+01
 0.7717654771963E+01
 0.7519293531017E+01
 0.7318923271733E+01
 0.7119143954759E+01
 0.6920643760577E+01
 0.6722248557682E+01
 0.6521698643511E+01
 0.6316460854310E+01
 0.6104245287235E+01
 0.5883182372114E+01
 0.5651773107211E+01
 0.5408729482951E+01
 0.5152658553228E+01
 0.4881885469156E+01
 0.4594901909844E+01
 0.4291200034639E+01
 0.3972345911569E+01
 0.3643611741324E+01
 0.3316661314641E+01
 0.3014620347482E+01
 0.2782944228722E+01
 0.2712736447718E+01
 0.2974087565221E+01
 0.3796033657006E+01
 0.5322213416663E+01
 0.7412825175047E+01
 0.7649578089894E+01
 0.8064911462545E+01
 0.8450360175386E+01
 0.8727616301557E+01
 0.8874429984031E+01
 0.8910136637878E+01
 0.8867010810663E+01
 0.8773166077075E+01
 0.8648073835525E+01
 0.8503815457865E+01
 0.8347403217825E+01
 0.8182598969768E+01
 0.8011109331273E+01
 0.7833414562027E+01
 0.7649482648294E+01
 0.7459460042256E+01
 0.7264577420841E+01
 0.7067455126574E+01
 0.6870500462466E+01
 0.6674349534270E+01
 0.6477928005541E+01
 0.6279106061016E+01
 0.6075399585464E+01
 0.5864457260194E+01
 0.5644273091953E+01
 0.5413201270346E+01
 0.5169875635795E+01
 0.4912991579183E+01
 0.4641225585918E+01
 0.4353747465828E+01
 0.4051111184521E+01
 0.3736414930563E+01
 0.3417065569580E+01
 0.3107680477837E+01
 0.2835478389491E+01
 0.2651101668920E+01
 0.2648303245561E+01
 0.2981278152655E+01
 0.3826177597540E+01
 0.5265005133716E+01
 0.7158731129708E+01
 0.7327188771390E+01
 0.7701839899429E+01
 0.8058460741821E+01
 0.8329243454724E+01
 0.8488223347358E+01
 0.8545012445809E+01
 0.8524123062653E+01
 0.8449902970865E+01
 0.8340821257228E+01
 0.8209193684690E+01
 0.8062630983749E+01
 0.7905517469739E+01
 0.7740125524094E+01
 0.7567450506346E+01
 0.7387918188814E+01
 0.7202011073928E+01
 0.7011076285652E+01
 0.6817621721739E+01
 0.6623881906276E+01
 0.6430439278639E+01
 0.6236304197160E+01
 0.6039479471903E+01
 0.5837567340480E+01
 0.5628220892454E+01
 0.5409378774459E+01
 0.5179336041118E+01
 0.4936737266655E+01
 0.4680448931933E+01
 0.4409566748586E+01
 0.4123982668220E+01
 0.3825316759526E+01
 0.3518131846925E+01
 0.3211774257748E+01
 0.2923389955545E+01
 0.2683408251207E+01
 0.2545735800828E+01
 0.2602833774708E+01
 0.2989705451470E+01
 0.3838667798354E+01
 0.5191054128142E+01
 0.6916558868417E+01
 0.7016882919867E+01
 0.7355805920709E+01
 0.7685101673879E+01
 0.7946237094741E+01
 0.8111946683961E+01
 0.8184833746265E+01
 0.8182796061041E+01
 0.8126327409739E+01
 0.8032409524450E+01
 0.7913166982340E+01
 0.7776542201987E+01
 0.7627398732615E+01
 0.7468500842249E+01
 0.7301310387050E+01
 0.7126662670241E+01
 0.6945331152646E+01
 0.6758758975043E+01
 0.6569353723521E+01
 0.6379198729109E+01
 0.6188827471910E+01
 0.5997325802802E+01
 0.5802829523550E+01
 0.5603053547442E+01
 0.5395707077321E+01
 0.5178741283707E+01
 0.4950467138538E+01
 0.4709614166778E+01
 0.4455283878581E+01
 0.4187034226282E+01
 0.3905489805988E+01
 0.3613297344432E+01
 0.3316364380989E+01
 0.3025726362971E+01
 0.2760590447208E+01
 0.2553720135988E+01
 0.2460530659063E+01
 0.2569196741560E+01
 0.2994774944285E+01
 0.3834648812207E+01
 0.5103753718735E+01
 0.6683790514274E+01
 0.6716815943016E+01
 0.7024196948602E+01
 0.7327910121452E+01
 0.7577457504557E+01
 0.7745753244444E+01
 0.7830486986698E+01
 0.7844096777359E+01
 0.7803393720431E+01
 0.7723596361300E+01
 0.7616309615124E+01
 0.7489567008688E+01
 0.7348564086340E+01
 0.7196469839306E+01
 0.7035152318916E+01
 0.6865804325815E+01
 0.6689448951121E+01
 0.6507609225073E+01
 0.6322604605180E+01
 0.6136388270364E+01
 0.5949452888553E+01
 0.5760955068850E+01
 0.5569163268385E+01
 0.5371923816247E+01
 0.5167042205492E+01
 0.4952537518356E+01
 0.4726798600813E+01
 0.4488699194915E+01
 0.4237621753646E+01
 0.3973607209955E+01
 0.3697995497171E+01
 0.3414387250672E+01
 0.3129879614044E+01
 0.2856918910955E+01
 0.2616302431630E+01
 0.2442301298731E+01
 0.2390306526339E+01
 0.2542151298029E+01
 0.2993852067646E+01
 0.3815665097798E+01
 0.5005673979548E+01
 0.6458435300036E+01
 0.6425528066908E+01
 0.6704918932640E+01
 0.6984853875195E+01
 0.7221723237625E+01
 0.7389491199782E+01
 0.7482514474953E+01
 0.7508835509195E+01
 0.7481903070167E+01
 0.7415059740072E+01
 0.7319157266412E+01
 0.7202116218731E+01
 0.7069322617303E+01
 0.6924257110951E+01
 0.6769127111177E+01
 0.6605429309302E+01
 0.6434398022210E+01
 0.6257622373484E+01
 0.6077344598749E+01
 0.5895406983105E+01
 0.5712271049079E+01
 0.5527162558921E+01
 0.5338482264797E+01
 0.5144221251889E+01
 0.4942312009644E+01
 0.4730885430205E+01
 0.4508457391007E+01
 0.4274090642068E+01
 0.4027477842231E+01
 0.3769144358371E+01
 0.3501106044662E+01
 0.3227821159294E+01
 0.2957401318064E+01
 0.2703418835518E+01
 0.2487810932008E+01
 0.2345602281409E+01
 0.2330883398715E+01
 0.2517928909893E+01
 0.2985552226672E+01
 0.3783338745141E+01
 0.4898801893349E+01
 0.6238902278758E+01
 0.6141844005717E+01
 0.6396273221171E+01
 0.6654196961867E+01
 0.6877880053663E+01
 0.7042813841553E+01
 0.7141194313580E+01
 0.7177599390347E+01
 0.7162507100863E+01
 0.7107389836082E+01
 0.7022197169574E+01
 0.6914573452262E+01
 0.6789966416837E+01
 0.6652075475384E+01
 0.6503378229547E+01
 0.6345621786303E+01
 0.6180215658520E+01
 0.6008802367275E+01
 0.5833555879569E+01
 0.5656224439512E+01
 0.5477248342173E+01
 0.5295922890001E+01
 0.5110780895348E+01
 0.4919967518914E+01
 0.4721565101235E+01
 0.4513849902108E+01
 0.4295501978878E+01
 0.4065804404072E+01
 0.3824774431860E+01
 0.3573407213157E+01
 0.3314338468757E+01
 0.3052772958839E+01
 0.2797654038270E+01
 0.2563403460538E+01
 0.2372682565982E+01
 0.2260599542327E+01
 0.2278937481055E+01
 0.2493884251843E+01
 0.2969263759464E+01
 0.3739200982800E+01
 0.4784740998493E+01
 0.6023902079621E+01
 0.5864802654798E+01
 0.6096865866910E+01
 0.6334455524015E+01
 0.6544837150585E+01
 0.6705256865177E+01
 0.6806606651942E+01
 0.6850787443401E+01
 0.6845717969758E+01
 0.6801086572959E+01
 0.6725861866476E+01
 0.6627289298126E+01
 0.6510766677803E+01
 0.6380124087061E+01
 0.6238041120072E+01
 0.6086463308290E+01
 0.5926941415859E+01
 0.5761159061294E+01
 0.5591228676957E+01
 0.5418818667019E+01
 0.5244357452815E+01
 0.5067211345740E+01
 0.4886045002758E+01
 0.4699163824963E+01
 0.4504816288251E+01
 0.4301448422952E+01
 0.4087930691770E+01
 0.3863785663467E+01
 0.3629356717997E+01
 0.3386081243272E+01
 0.3137147169321E+01
 0.2888387181053E+01
 0.2649395463019E+01
 0.2435184465548E+01
 0.2268764183843E+01
 0.2184746646769E+01
 0.2231863191292E+01
 0.2468209307678E+01
 0.2944867568813E+01
 0.3684538292767E+01
 0.4664906657715E+01
 0.5812378581943E+01
 0.5593606789630E+01
 0.5805540168452E+01
 0.6024357782386E+01
 0.6221583732030E+01
 0.6376291469653E+01
 0.6478686692301E+01
 0.6528643888717E+01
 0.6531921978000E+01
 0.6496561364121E+01
 0.6430526075778E+01
 0.6340577357090E+01
 0.6231970657001E+01
 0.6108586650277E+01
 0.5973242186895E+01
 0.5828031782760E+01
 0.5674615498332E+01
 0.5514705803489E+01
 0.5350358103074E+01
 0.5183172495086E+01
 0.5013573817164E+01
 0.4841001244026E+01
 0.4664250876883E+01
 0.4481791919632E+01
 0.4292049727384E+01
 0.4093656511655E+01
 0.3885689684767E+01
 0.3667919868852E+01
 0.3441007354386E+01
 0.3206794403560E+01
 0.2968946344524E+01
 0.2733803676135E+01
 0.2511438954076E+01
 0.2317219358340E+01
 0.2174170534070E+01
 0.2115919926479E+01
 0.2187650630289E+01
 0.2439699604983E+01
 0.2912580508167E+01
 0.3620372457782E+01
 0.4540327996166E+01
 0.5603696517279E+01
 0.5327586396192E+01
 0.5521325977672E+01
 0.5722809294820E+01
 0.5907194026384E+01
 0.6055360079650E+01
 0.6157266033465E+01
 0.6211288026113E+01
 0.6221394717412E+01
 0.6194141760516E+01
 0.6136506078333E+01
 0.6054711947509E+01
 0.5953799486142E+01
 0.5837629856666E+01
 0.5709097639647E+01
 0.5570400259929E+01
 0.5423277138185E+01
 0.5269457301117E+01
 0.5110941556044E+01
 0.4949270685612E+01
 0.4784872891511E+01
 0.4617261943327E+01
 0.4445364586488E+01
 0.4267815156375E+01
 0.4083221938938E+01
 0.3890412853533E+01
 0.3688680425800E+01
 0.3478042871276E+01
 0.3259459528870E+01
 0.3035133202220E+01
 0.2809128420537E+01
 0.2588176353567E+01
 0.2382668050104E+01
 0.2208114269781E+01
 0.2087264844584E+01
 0.2052366866037E+01
 0.2144766124821E+01
 0.2407621083507E+01
 0.2872690651964E+01
 0.3548047903951E+01
 0.4409978669952E+01
 0.5403008769945E+01
 0.5066171479338E+01
 0.5243401208909E+01
 0.5428863529066E+01
 0.5600825761743E+01
 0.5741899781690E+01
 0.5842104286059E+01
 0.5898740031615E+01
 0.5914316326137E+01
 0.5894077915964E+01
 0.5844061025063E+01
 0.5769927218490E+01
 0.5676446779483E+01
 0.5567402125799E+01
 0.5445712361544E+01
 0.5313635686764E+01
 0.5172963057068E+01
 0.5025427758237E+01
 0.4872976592227E+01
 0.4717097680263E+01
 0.4558228069257E+01
 0.4395957381083E+01
 0.4229341624484E+01
 0.4057179630093E+01
 0.3878264691957E+01
 0.3691624118238E+01
 0.3496766624085E+01
 0.3293950131250E+01
 0.3084408516729E+01
 0.2870656353291E+01
 0.2657078848581E+01
 0.2450686837357E+01
 0.2262044792019E+01
 0.2106620524867E+01
 0.2006637227964E+01
 0.1992652586509E+01
 0.2102068288015E+01
 0.2371530360506E+01
 0.2825731395359E+01
 0.3468116833483E+01
 0.4276103234986E+01
 0.5200097403911E+01
 0.4808871583774E+01
 0.4971062311898E+01
 0.5141697264202E+01
 0.5301715151283E+01
 0.5435357190393E+01
 0.5532912849491E+01
 0.5590942625193E+01
 0.5610785971170E+01
 0.5596550016966E+01
 0.5553395625784E+01
 0.5486417407716E+01
 0.5400077963564E+01
 0.5298032693862E+01
 0.5183178903490E+01
 0.5057797734328E+01
 0.4923706069032E+01
 0.4782629277978E+01
 0.4636459194798E+01
 0.4486635846164E+01
 0.4333609121774E+01
 0.4177045055668E+01
 0.4016126829745E+01
 0.3849815388684E+01
 0.3677087761454E+01
 0.3497169441841E+01
 0.3309780564251E+01
 0.3115404961602E+01
 0.2915521726867E+01
 0.2712906163726E+01
 0.2512187673879E+01
 0.2320553935144E+01
 0.2148613293546E+01
 0.2011627650228E+01
 0.1931080852152E+01
 0.1935615589322E+01
 0.2058714502586E+01
 0.2331244094228E+01
 0.2772144943525E+01
 0.3381680777533E+01
 0.4138163336528E+01
 0.4998216898267E+01
 0.4555260149704E+01
 0.4703701393151E+01
 0.4860590169163E+01
 0.5009170225921E+01
 0.5135197409447E+01
 0.5229372520705E+01
 0.5287778895614E+01
 0.5310835060904E+01
 0.5301676044133E+01
 0.5264663753137E+01
 0.5204337987834E+01
 0.5124830235284E+01
 0.5029631062434E+01
 0.4921576668430E+01
 0.4802937765872E+01
 0.4675533861364E+01
 0.4541070519237E+01
 0.4401382381646E+01
 0.4257864128936E+01
 0.4110981063956E+01
 0.3960475373388E+01
 0.3805654542008E+01
 0.3645637702762E+01
 0.3479581550573E+01
 0.3306904559947E+01
 0.3127528828286E+01
 0.2942145804202E+01
 0.2752447298809E+01
 0.2561417842567E+01
 0.2373858314805E+01
 0.2197039702905E+01
 0.2041499968208E+01
 0.1922153850155E+01
 0.1859569598243E+01
 0.1880322590419E+01
 0.2014106984633E+01
 0.2286716746858E+01
 0.2712485132003E+01
 0.3289396681431E+01
 0.3996935330977E+01
 0.4797477187224E+01
 0.4304962404232E+01
 0.4440788315718E+01
 0.4584907898175E+01
 0.4722563595017E+01
 0.4840908974089E+01
 0.4931146330598E+01
 0.4989086721005E+01
 0.5014438957711E+01
 0.5009519421568E+01
 0.4977972580822E+01
 0.4923807465796E+01
 0.4850813044214E+01
 0.4762286793781E+01
 0.4660971318173E+01
 0.4549097983869E+01
 0.4428467970828E+01
 0.4300755593484E+01
 0.4167735105435E+01
 0.4030757040555E+01
 0.3890303363194E+01
 0.3746191290792E+01
 0.3597848943831E+01
 0.3444548369486E+01
 0.3285619564943E+01
 0.3120665582311E+01
 0.2949797402204E+01
 0.2773892563171E+01
 0.2594821336428E+01
 0.2415726945977E+01
 0.2241513968586E+01
 0.2079452856702E+01
 0.1939911319282E+01
 0.1837335576776E+01
 0.1791235746903E+01
 0.1826032823987E+01
 0.1967831092463E+01
 0.2238024326350E+01
 0.2647263511274E+01
 0.3191950031842E+01
 0.3852980758400E+01
 0.4597566490329E+01
 0.4057645875235E+01
 0.4181856562295E+01
 0.4314088102711E+01
 0.4441325251486E+01
 0.4552006100510E+01
 0.4637888738027E+01
 0.4694670273451E+01
 0.4721527139663E+01
 0.4720096267159E+01
 0.4693386963544E+01
 0.4644909633607E+01
 0.4578108998439E+01
 0.4496069626987E+01
 0.4401414417010E+01
 0.4296310778763E+01
 0.4182522965810E+01
 0.4061683190783E+01
 0.3935501412151E+01
 0.3805283929710E+01
 0.3671529431567E+01
 0.3534128198315E+01
 0.3392624552103E+01
 0.3246437030718E+01
 0.3095060732425E+01
 0.2938272411604E+01
 0.2776356184350E+01
 0.2610352043090E+01
 0.2442273892162E+01
 0.2275375185001E+01
 0.2114602054764E+01
 0.1967150134396E+01
 0.1843130194309E+01
 0.1756416545964E+01
 0.1725349901598E+01
 0.1772164262125E+01
 0.1919616425486E+01
 0.2185314084210E+01
 0.2576975860761E+01
 0.3089962906969E+01
 0.3706648236309E+01
 0.4398268332211E+01
 0.3813012875303E+01
 0.3926491968838E+01
 0.4047628840591E+01
 0.4164935752082E+01
 0.4268029163641E+01
 0.4349252072576E+01
 0.4404309082192E+01
 0.4431991867565E+01
 0.4433382072459E+01
 0.4410933840574E+01
 0.4367696100895E+01
 0.4306775096783E+01
 0.4231029877361E+01
 0.4142943308631E+01
 0.4044598285550E+01
 0.3937705833873E+01
 0.3823845920635E+01
 0.3704659827929E+01
 0.3581408490790E+01
 0.3454606350473E+01
 0.3324213997640E+01
 0.3189886822944E+01
 0.3051182483902E+01
 0.2907751560104E+01
 0.2759531811465E+01
 0.2606962919754E+01
 0.2451222551761E+01
 0.2294433823626E+01
 0.2139914821093E+01
 0.1992597058576E+01
 0.1859536145950E+01
 0.1750511042028E+01
 0.1678736969350E+01
 0.1661302313611E+01
 0.1718265835379E+01
 0.1869301946127E+01
 0.2128779820552E+01
 0.2502094606262E+01
 0.2983966406564E+01
 0.3558206826594E+01
 0.4199440785548E+01
 0.3570794483078E+01
 0.3674323666602E+01
 0.3785078946010E+01
 0.3892919931856E+01
 0.3988544039397E+01
 0.4064890918322E+01
 0.4117765087672E+01
 0.4145695475023E+01
 0.4149317727003E+01
 0.4130606509879E+01
 0.4092188973811E+01
 0.4036844200415E+01
 0.3967199077509E+01
 0.3885581212967E+01
 0.3793972144832E+01
 0.3694015568861E+01
 0.3587229853136E+01
 0.3475182949032E+01
 0.3359088476562E+01
 0.3239474787244E+01
 0.3116369333873E+01
 0.2989532839487E+01
 0.2858653967438E+01
 0.2723528123869E+01
 0.2584240134753E+01
 0.2441366593520E+01
 0.2296197736465E+01
 0.2150932650367E+01
 0.2008911863363E+01
 0.1875002101942E+01
 0.1756062128676E+01
 0.1661474654114E+01
 0.1603723192405E+01
 0.1598586180804E+01
 0.1663993583692E+01
 0.1816809175432E+01
 0.2068644190181E+01
 0.2423059785086E+01
 0.2874419536962E+01
 0.3407891959387E+01
 0.4000994259636E+01
 0.3330745674819E+01
 0.3425016737022E+01
 0.3526030000012E+01
 0.3624841209909E+01
 0.3713140746351E+01
 0.3784464969647E+01
 0.3834788063792E+01
 0.3862476428578E+01
 0.3867814862080E+01
 0.3852368672300E+01
 0.3818383576176E+01
 0.3768326668881E+01
 0.3704590818020E+01
 0.3629337523468E+01
 0.3544433458469E+01
 0.3451442947796E+01
 0.3351814245882E+01
 0.3247037213563E+01
 0.3138275586262E+01
 0.3026069071278E+01
 0.2910507950937E+01
 0.2791452057416E+01
 0.2668712405934E+01
 0.2542217889230E+01
 0.2412185727207E+01
 0.2279310321673E+01
 0.2144969727479E+01
 0.2011407537352E+01
 0.1881948267144E+01
 0.1761349522279E+01
 0.1656223952155E+01
 0.1575502700140E+01
 0.1530877975070E+01
 0.1536782792789E+01
 0.1609090599676E+01
 0.1762121624390E+01
 0.2005145197407E+01
 0.2340278326853E+01
 0.2761727707964E+01
 0.3255922286435E+01
 0.3802878496923E+01
 0.3092641348014E+01
 0.3178266204954E+01
 0.3270109606179E+01
 0.3360296485074E+01
 0.3441431681078E+01
 0.3507640762641E+01
 0.3555119728765E+01
 0.3582154313961E+01
 0.3588760529323E+01
 0.3576158186473E+01
 0.3546251136692E+01
 0.3501212098757E+01
 0.3443201748298E+01
 0.3374208282709E+01
 0.3295972926387E+01
 0.3209970485833E+01
 0.3117571442661E+01
 0.3020182836800E+01
 0.2918915506499E+01
 0.2814317404128E+01
 0.2706537145304E+01
 0.2595527088569E+01
 0.2481211604959E+01
 0.2363641365576E+01
 0.2243151025260E+01
 0.2120533781267E+01
 0.1997231663907E+01
 0.1875503527068E+01
 0.1758623314547E+01
 0.1651200699051E+01
 0.1559559639973E+01
 0.1492132285041E+01
 0.1459771520083E+01
 0.1475548441447E+01
 0.1553370394139E+01
 0.1705268802831E+01
 0.1938527146998E+01
 0.2254126737638E+01
 0.2646255941793E+01
 0.3102506134831E+01
 0.3605074032649E+01
 0.2856273042660E+01
 0.2933792084766E+01
 0.3016975730829E+01
 0.3098911588242E+01
 0.3173049643333E+01
 0.3234092586483E+01
 0.3278496811499E+01
 0.3304533901283E+01
 0.3312021255216E+01
 0.3301890506706E+01
 0.3275741390163E+01
 0.3235471116544E+01
 0.3183012702979E+01
 0.3120176814387E+01
 0.3048571149998E+01
 0.2969572557357E+01
 0.2884466931601E+01
 0.2794573895752E+01
 0.2700948087805E+01
 0.2604142184538E+01
 0.2504358299813E+01
 0.2401634508742E+01
 0.2295999389468E+01
 0.2187613599691E+01
 0.2076914369654E+01
 0.1964775223230E+01
 0.1852679675781E+01
 0.1742875134666E+01
 0.1638554338588E+01
 0.1544145329870E+01
 0.1465646617391E+01
 0.1410950687441E+01
 0.1390033293070E+01
 0.1414603004181E+01
 0.1496703162941E+01
 0.1646313944322E+01
 0.1869034905734E+01
 0.2164954595254E+01
 0.2528337835149E+01
 0.2947844304652E+01
 0.3407586534949E+01
 0.2621446212214E+01
 0.2691335259516E+01
 0.2766311911735E+01
 0.2840337242197E+01
 0.2907645779367E+01
 0.2963502803025E+01
 0.3004653293073E+01
 0.3029408432185E+01
 0.3037446528087E+01
 0.3029461799852E+01
 0.3006785061390E+01
 0.2971057190869E+01
 0.2923989926180E+01
 0.2867214492690E+01
 0.2802199089294E+01
 0.2730215673281E+01
 0.2652459553653E+01
 0.2570158553206E+01
 0.2484307645832E+01
 0.2395460436515E+01
 0.2303867486530E+01
 0.2209645682332E+01
 0.2112918685429E+01
 0.2013945518242E+01
 0.1913251558810E+01
 0.1811773111727E+01
 0.1711014393446E+01
 0.1613187412018E+01
 0.1521376934376E+01
 0.1439800326236E+01
 0.1374098849109E+01
 0.1331590386369E+01
 0.1321344647420E+01
 0.1353720061096E+01
 0.1439004516878E+01
 0.1585344681572E+01
 0.1796910358207E+01
 0.2073087902894E+01
 0.2408281805955E+01
 0.2792131691756E+01
 0.3210442970743E+01
 0.2387977930190E+01
 0.2450654022513E+01
 0.2517823175621E+01
 0.2584245473612E+01
 0.2644887525029E+01
 0.2695561745168E+01
 0.2733322002794E+01
 0.2756562259625E+01
 0.2764871783224E+01
 0.2758751755622E+01
 0.2739296218715E+01
 0.2707908442918E+01
 0.2666086375016E+01
 0.2615281636028E+01
 0.2556818665511E+01
 0.2491858909657E+01
 0.2421501858284E+01
 0.2346879418786E+01
 0.2268923384557E+01
 0.2188184337653E+01
 0.2104956136751E+01
 0.2019427604722E+01
 0.1931808550751E+01
 0.1842445133444E+01
 0.1751937167943E+01
 0.1661267433132E+01
 0.1571942051232E+01
 0.1486116578023E+01
 0.1406744785730E+01
 0.1337808475211E+01
 0.1284563999209E+01
 0.1253724452731E+01
 0.1253432242776E+01
 0.1292718398476E+01
 0.1380226284554E+01
 0.1522465998988E+01
 0.1722390273122E+01
 0.1978832069981E+01
 0.2286375727222E+01
 0.2635558658193E+01
 0.3013689085116E+01
 0.2155694943627E+01
 0.2211521147372E+01
 0.2271232533860E+01
 0.2330326421176E+01
 0.2384456598697E+01
 0.2429967321724E+01
 0.2464235716004E+01
 0.2485772959153E+01
 0.2494120957886E+01
 0.2489626120634E+01
 0.2473174502101E+01
 0.2445949449928E+01
 0.2409243096684E+01
 0.2364328522965E+01
 0.2312383511337E+01
 0.2254454493165E+01
 0.2191540614678E+01
 0.2124674057077E+01
 0.2054719952435E+01
 0.1982221859011E+01
 0.1907511789978E+01
 0.1830843775563E+01
 0.1752505171345E+01
 0.1672918632316E+01
 0.1592745662272E+01
 0.1513000716251E+01
 0.1435175247862E+01
 0.1361350305482E+01
 0.1294329225832E+01
 0.1237836999579E+01
 0.1196720727956E+01
 0.1177062365284E+01
 0.1186062235100E+01
 0.1231454753559E+01
 0.1320349038897E+01
 0.1457794915253E+01
 0.1645705084525E+01
 0.1882474544897E+01
 0.2162890646396E+01
 0.2478312516853E+01
 0.2817387982302E+01
 0.1924432003439E+01
 0.1973721380488E+01
 0.2026277949186E+01
 0.2078285486362E+01
 0.2126047073538E+01
 0.2166424426017E+01
 0.2197127877072E+01
 0.2216813022686E+01
 0.2225008695624E+01
 0.2221939004030E+01
 0.2208307252269E+01
 0.2185093058444E+01
 0.2153390694333E+01
 0.2114296548344E+01
 0.2068839891046E+01
 0.2017948570364E+01
 0.1962517509339E+01
 0.1903475676870E+01
 0.1841618167477E+01
 0.1777477553118E+01
 0.1711418957787E+01
 0.1643755137251E+01
 0.1574842854420E+01
 0.1505171380068E+01
 0.1435452336156E+01
 0.1366718803598E+01
 0.1300433421680E+01
 0.1238587751393E+01
 0.1183818649864E+01
 0.1139576149768E+01
 0.1110276239689E+01
 0.1101346309620E+01
 0.1119035216958E+01
 0.1169817664714E+01
 0.1259376043327E+01
 0.1391456473631E+01
 0.1567078283741E+01
 0.1784287195691E+01
 0.2038084032018E+01
 0.2320579333621E+01
 0.2621619812196E+01
 0.1694030415832E+01
 0.1737049270945E+01
 0.1782709684899E+01
 0.1827840777863E+01
 0.1869363546834E+01
 0.1904644226944E+01
 0.1931733058514E+01
 0.1949451247292E+01
 0.1957342295868E+01
 0.1955535030426E+01
 0.1944571601897E+01
 0.1925242261828E+01
 0.1898450936481E+01
 0.1865119578817E+01
 0.1826127856145E+01
 0.1782282233319E+01
 0.1734370109429E+01
 0.1683214086256E+01
 0.1629535999154E+01
 0.1573853578027E+01
 0.1516560186709E+01
 0.1458021154607E+01
 0.1398655082985E+01
 0.1339008887585E+01
 0.1279834117005E+01
 0.1222171411644E+01
 0.1167443095438E+01
 0.1117539421333E+01
 0.1074917913028E+01
 0.1042737984542E+01
 0.1024964219348E+01
 0.1026348035919E+01
 0.1052181898808E+01
 0.1107722307081E+01
 0.1197328361840E+01
 0.1323580721788E+01
 0.1486726235121E+01
 0.1684528545588E+01
 0.1912202857966E+01
 0.2162546252935E+01
 0.2426482776208E+01
 0.1464336769696E+01
 0.1501307268953E+01
 0.1540287963070E+01
 0.1578720807206E+01
 0.1614119421823E+01
 0.1644343418226E+01
 0.1667787274312E+01
 0.1683453956081E+01
 0.1690923548084E+01
 0.1690251475389E+01
 0.1681836661531E+01
 0.1666292276997E+01
 0.1644338652198E+01
 0.1616725660811E+01
 0.1584182802388E+01
 0.1547392980784E+01
 0.1507033283392E+01
 0.1463817114875E+01
 0.1418390013381E+01
 0.1371251161373E+01
 0.1322817511974E+01
 0.1273501203981E+01
 0.1223775764948E+01
 0.1174237834960E+01
 0.1125670288287E+01
 0.1079112516561E+01
 0.1035937944664E+01
 0.9979269775063E+00
 0.9673478945103E+00
 0.9470555626182E+00
 0.9405433569199E+00
 0.9518663953230E+00
 0.9853595489451E+00
 0.1045106217253E+01
 0.1134240924213E+01
 0.1254300442798E+01
 0.1404858299816E+01
 0.1583445970153E+01
 0.1785486794751E+01
 0.2004404651863E+01
 0.2232095941629E+01
 0.1235201803026E+01
 0.1266304036164E+01
 0.1298780870564E+01
 0.1330662403573E+01
 0.1360035331246E+01
 0.1385243529635E+01
 0.1405028319574E+01
 0.1418586275510E+01
 0.1425550711678E+01
 0.1425920672118E+01
 0.1419966113213E+01
 0.1408133158432E+01
 0.1390964277285E+01
 0.1369039475260E+01
 0.1342937852494E+01
 0.1313217068601E+01
 0.1280441558638E+01
 0.1245213002293E+01
 0.1208097786815E+01
 0.1169572999795E+01
 0.1130074762050E+01
 0.1090056667102E+01
 0.1050040979413E+01
 0.1010667344192E+01
 0.9727432239091E+00
 0.9373006021699E+00
 0.9056587491254E+00
 0.8794831532741E+00
 0.8608455226907E+00
 0.8522829151147E+00
 0.8567967914278E+00
 0.8777257634602E+00
 0.9184492590612E+00
 0.9819258433980E+00
 0.1070159381292E+01
 0.1183749458021E+01
 0.1321677196780E+01
 0.1481277972867E+01
 0.1658171810776E+01
 0.1846354629624E+01
 0.2038604792034E+01
 0.1006479377772E+01
 0.1031852920593E+01
 0.1057962463015E+01
 0.1083408839457E+01
 0.1106837789739E+01
 0.1127070521993E+01
 0.1143196507140E+01
 0.1154613982629E+01
 0.1161021282456E+01
 0.1162373441066E+01
 0.1158822061724E+01
 0.1150653889147E+01
 0.1138238075967E+01
 0.1121986645350E+01
 0.1102328249285E+01
 0.1079694006569E+01
 0.1054533734518E+01
 0.1027335111215E+01
 0.9985826563628E+00
 0.9687279170148E+00
 0.9382219278792E+00
 0.9075547563284E+00
 0.8772919865414E+00
 0.8481109672092E+00
 0.8208393279691E+00
 0.7964988115130E+00
 0.7763533084266E+00
 0.7619520751915E+00
 0.7551648304211E+00
 0.7581964972060E+00
 0.7735330806138E+00
 0.8037757310827E+00
 0.8513541898458E+00
 0.9181539038357E+00
 0.1005137626313E+01
 0.1112061365500E+01
 0.1237379561865E+01
 0.1378256686384E+01
 0.1530494602369E+01
 0.1688611705954E+01
 0.1846191241969E+01
 0.7780255379960E+00
 0.7977705563848E+00
 0.8176110320817E+00
 0.8367082348183E+00
 0.8542583869824E+00
 0.8695553494532E+00
 0.8820369314102E+00
 0.8913075167884E+00
 0.8971375801933E+00
 0.8994459725236E+00
 0.8982729211614E+00
 0.8937510328449E+00
 0.8860793971329E+00
 0.8755035068618E+00
 0.8623015971679E+00
 0.8467772396907E+00
 0.8292639443396E+00
 0.8101332446705E+00
 0.7897850595884E+00
 0.7686418552593E+00
 0.7471652842098E+00
 0.7258771377171E+00
 0.7053817386904E+00
 0.6863907027164E+00
 0.6697506826586E+00
 0.6564750620934E+00
 0.6477764710557E+00
 0.6450906687549E+00
 0.6500802948225E+00
 0.6645995771231E+00
 0.6905898868294E+00
 0.7298927781119E+00
 0.7839991089072E+00
 0.8537776077193E+00
 0.9392358995200E+00
 0.1039368608642E+01
 0.1152156692436E+01
 0.1274610811468E+01
 0.1402698511024E+01
 0.1531417286388E+01
 0.1655091406304E+01
 0.5496976339633E+00
 0.5638755563219E+00
 0.5775075456618E+00
 0.5903126567416E+00
 0.6020349174192E+00
 0.6124384093288E+00
 0.6213080529412E+00
 0.6284549260631E+00
 0.6337238089775E+00
 0.6370004872185E+00
 0.6382170945204E+00
 0.6373549158312E+00
 0.6344449630967E+00
 0.6295672234245E+00
 0.6228495884201E+00
 0.6144672554356E+00
 0.6046358073026E+00
 0.5936083067199E+00
 0.5816968654862E+00
 0.5692906474518E+00
 0.5568569856621E+00
 0.5449445160609E+00
 0.5341928207341E+00
 0.5253475294675E+00
 0.5192790209260E+00
 0.5170022543878E+00
 0.5196906551431E+00
 0.5286729556459E+00
 0.5453956023276E+00
 0.5713329133557E+00
 0.6078428844466E+00
 0.6559853349720E+00
 0.7163318289044E+00
 0.7887979069206E+00
 0.8725194404720E+00
 0.9658017925827E+00
 0.1066195493476E+01
 0.1170569328763E+01
 0.1275042049010E+01
 0.1375055790931E+01
 0.1465627664904E+01
 0.3213535301115E+00
 0.3299872882552E+00
 0.3374345652282E+00
 0.3439809181154E+00
 0.3499239730995E+00
 0.3554976334849E+00
 0.3608289190335E+00
 0.3659291590893E+00
 0.3707121294633E+00
 0.3750275146069E+00
 0.3786985192927E+00
 0.3815557505874E+00
 0.3834633895680E+00
 0.3843370003601E+00
 0.3841544656682E+00
 0.3829617676377E+00
 0.3808543658282E+00
 0.3779632543906E+00
 0.3745074583961E+00
 0.3708359274203E+00
 0.3674142548218E+00
 0.3648122713599E+00
 0.3637043497387E+00
 0.3648786446977E+00
 0.3692488245073E+00
 0.3778590104322E+00
 0.3918681517962E+00
 0.4125030713944E+00
 0.4409669120027E+00
 0.4783002967960E+00
 0.5252255854372E+00
 0.5820051221177E+00
 0.6483277345301E+00
 0.7232301521417E+00
 0.8050577164082E+00
 0.8914891822366E+00
 0.9796796797069E+00
 0.1066366550802E+01
 0.1147812061148E+01
 0.1219884102975E+01
 0.1278268780400E+01
 0.9285168174446E-01
 0.9592518281882E-01
 0.9718271560342E-01
 0.9754952510273E-01
 0.9793150209418E-01
 0.9903102483407E-01
 0.1012639654088E+00
 0.1047677986756E+00
 0.1094640401542E+00
 0.1151349915851E+00
 0.1214917447845E+00
 0.1282276256935E+00
 0.1350583084122E+00
 0.1417505556469E+00
 0.1481414985391E+00
 0.1541496346054E+00
 0.1597456245873E+00
 0.1649288105630E+00
 0.1698099151825E+00
 0.1746786219506E+00
 0.1799834545603E+00
 0.1863146894355E+00
 0.1944067076369E+00
 0.2051472082211E+00
 0.2195733373981E+00
 0.2388333076343E+00
 0.2641014124686E+00
 0.2964610824044E+00
 0.3367721835233E+00
 0.3855340705681E+00
 0.4427743107576E+00
 0.5079711053419E+00
 0.5799997931683E+00
 0.6571069120243E+00
 0.7369243570040E+00
 0.8165563285736E+00
 0.8927913510381E+00
 0.9622495312401E+00
 0.1021345401373E+01
 0.1066385037602E+01
 0.1093749054027E+01
 0.1359579670133E+00
 0.1384974449865E+00
 0.1435236664237E+00
 0.1497163367585E+00
 0.1557265220103E+00
 0.1603607613004E+00
 0.1627512290804E+00
 0.1624351101633E+00
 0.1593361739702E+00
 0.1536814573975E+00
 0.1458929348535E+00
 0.1364840296484E+00
 0.1259769555082E+00
 0.1148453503959E+00
 0.1034794836656E+00
 0.9217070196845E-01
 0.8115539054722E-01
 0.7065256835501E-01
 0.6079130075085E-01
 0.5166579736962E-01
 0.4373619988288E-01
 0.3866488607480E-01
 0.4000579717956E-01
 0.5087618874188E-01
 0.7115571330244E-01
 0.9975756489044E-01
 0.1362740526489E+00
 0.1807294848962E+00
 0.2331704689100E+00
 0.2933885940275E+00
 0.3607382744216E+00
 0.4340210846287E+00
 0.5114191133678E+00
 0.5904844930117E+00
 0.6681981109126E+00
 0.7411257801580E+00
 0.8057131739770E+00
 0.8584897584581E+00
 0.8960669903838E+00
 0.9152706679195E+00
 0.9133220966121E+00
 0.3652119799870E+00
 0.3734609584282E+00
 0.3848272740939E+00
 0.3973521259838E+00
 0.4090859072743E+00
 0.4183553466161E+00
 0.4239644378666E+00
 0.4252730694617E+00
 0.4221578708736E+00
 0.4148962996251E+00
 0.4040219743245E+00
 0.3901877716746E+00
 0.3740563750429E+00
 0.3562233994473E+00
 0.3371685964632E+00
 0.3172289143323E+00
 0.2966485553877E+00
 0.2756203053636E+00
 0.2541350016341E+00
 0.2318661863895E+00
 0.2082311411844E+00
 0.1824661069799E+00
 0.1536869776063E+00
 0.1209498424746E+00
 0.8333477970229E-01
 0.4019589007247E-01
 0.1345672206218E-01
 0.6836417280323E-01
 0.1323790610892E+00
 0.2032582297991E+00
 0.2798851533696E+00
 0.3605300523319E+00
 0.4427574684894E+00
 0.5234563786987E+00
 0.5989655100007E+00
 0.6653168483785E+00
 0.7186316335039E+00
 0.7554030097635E+00
 0.7725612735718E+00
 0.7676969478066E+00
 0.7393505286291E+00
 0.5950643334199E+00
 0.6091587652089E+00
 0.6270028759275E+00
 0.6460051327862E+00
 0.6636121648035E+00
 0.6776583476329E+00
 0.6866121842138E+00
 0.6896621666511E+00
 0.6866559063230E+00
 0.6779471228508E+00
 0.6642110032721E+00
 0.6462727636291E+00
 0.6249727760069E+00
 0.6010735411316E+00
 0.5752020989962E+00
 0.5478197073818E+00
 0.5192863363295E+00
 0.4899155109036E+00
 0.4597938354214E+00
 0.4286422805255E+00
 0.3958942735927E+00
 0.3607922423512E+00
 0.3224684016396E+00
 0.2800296470949E+00
 0.2326766892464E+00
 0.1799325199150E+00
 0.1223361746883E+00
 0.6578128287046E-01
 0.5733581928351E-01
 0.1213719265473E+00
 0.2025139195123E+00
 0.2884094629854E+00
 0.3743796346776E+00
 0.4561807082033E+00
 0.5293267337995E+00
 0.5892454132984E+00
 0.6317423245585E+00
 0.6533857065925E+00
 0.6517166442017E+00
 0.6257474597733E+00
 0.5768118275627E+00
 0.8256672800850E+00
 0.8457866402812E+00
 0.8702830341892E+00
 0.8959024116084E+00
 0.9194643561026E+00
 0.9382998296849E+00
 0.9505456641704E+00
 0.9552349245722E+00
 0.9522083081967E+00
 0.9419179886273E+00
 0.9251989724258E+00
 0.9030615576569E+00
 0.8765313633380E+00
 0.8465414676860E+00
 0.8138675339465E+00
 0.7790952600983E+00
 0.7426995762119E+00
 0.7051122445697E+00
 0.6665107143561E+00
 0.6266554754991E+00
 0.5849837375846E+00
 0.5407244891810E+00
 0.4929934438565E+00
 0.4408880574751E+00
 0.3836068436716E+00
 0.3206306202075E+00
 0.2520645648834E+00
 0.1795635366404E+00
 0.1107017390900E+00
 0.8292289894983E-01
 0.1365385392441E+00
 0.2199619485470E+00
 0.3070599531106E+00
 0.3889387449429E+00
 0.4594080770510E+00
 0.5130237984890E+00
 0.5452594456142E+00
 0.5529871695783E+00
 0.5350421074418E+00
 0.4936164968917E+00
 0.4373648096538E+00
 0.1057178539095E+01
 0.1083548001140E+01
 0.1114913830820E+01
 0.1147317239682E+01
 0.1176919404940E+01
 0.1200535735572E+01
 0.1215979507808E+01
 0.1222151027223E+01
 0.1218912736768E+01
 0.1206842352988E+01
 0.1186955656212E+01
 0.1160461416562E+01
 0.1128577133390E+01
 0.1092408246133E+01
 0.1052878045746E+01
 0.1010694537501E+01
 0.9664452596367E+00
 0.9206777905446E+00
 0.8736575822105E+00
 0.8251807964260E+00
 0.7746827764097E+00
 0.7213706928110E+00
 0.6643316702492E+00
 0.6026374349337E+00
 0.5354676436272E+00
 0.4622772825083E+00
 0.3830502631931E+00
 0.2987553547345E+00
 0.2126478003243E+00
 0.1358889109748E+00
 0.1088400177476E+00
 0.1615662898589E+00
 0.2425409597765E+00
 0.3222685227587E+00
 0.3893894030245E+00
 0.4367608538019E+00
 0.4594347661395E+00
 0.4550671522279E+00
 0.4254221378191E+00
 0.3805998766193E+00
 0.3481788340768E+00
 0.1289762004637E+01
 0.1322655371554E+01
 0.1361153130845E+01
 0.1400538569136E+01
 0.1436276111973E+01
 0.1464652633286E+01
 0.1483170258771E+01
 0.1490626041538E+01
 0.1486939691551E+01
 0.1472846846180E+01
 0.1449568181034E+01
 0.1418525565321E+01
 0.1381134864255E+01
 0.1338674742212E+01
 0.1292213956488E+01
 0.1242579661193E+01
 0.1190469065690E+01
 0.1136543241377E+01
 0.1081153633022E+01
 0.1024129772947E+01
 0.9649019112510E+00
 0.9026506833730E+00
 0.8364280524595E+00
 0.7652717930391E+00
 0.6883352556529E+00
 0.6050528497841E+00
 0.5153625237346E+00
 0.4200149155827E+00
 0.3212063511013E+00
 0.2244843508331E+00
 0.1462325219139E+00
 0.1302255527630E+00
 0.1850915445374E+00
 0.2573013881293E+00
 0.3195695517469E+00
 0.3605627185707E+00
 0.3746004761802E+00
 0.3611776090628E+00
 0.3290127391410E+00
 0.3069895554793E+00
 0.3483682956323E+00
 0.1523589007951E+01
 0.1563332320603E+01
 0.1609272637930E+01
 0.1655870368547E+01
 0.1697847785998E+01
 0.1730950040706E+01
 0.1752385870280E+01
 0.1760886468852E+01
 0.1756471880381E+01
 0.1740073563013E+01
 0.1713144271816E+01
 0.1677334579067E+01
 0.1634264790195E+01
 0.1585386555334E+01
 0.1531910686527E+01
 0.1474779284376E+01
 0.1414795654028E+01
 0.1352731880860E+01
 0.1289023647276E+01
 0.1223532107013E+01
 0.1155680016418E+01
 0.1084617907781E+01
 0.1009357542155E+01
 0.9288962840662E+00
 0.8423544358922E+00
 0.7491438540259E+00
 0.6491794782230E+00
 0.5431274965581E+00
 0.4328050034942E+00
 0.3220846708315E+00
 0.2194850347231E+00
 0.1472493573230E+00
 0.1453772318405E+00
 0.1967059986633E+00
 0.2505421427578E+00
 0.2845358976870E+00
 0.2912816951022E+00
 0.2745964403674E+00
 0.2593962859612E+00
 0.3013121665413E+00
 0.4364606946602E+00
 0.1758839798331E+01
 0.1805815710055E+01
 0.1859560553686E+01
 0.1913633573980E+01
 0.1961962100909E+01
 0.1999737125371E+01
 0.2023898742106E+01
 0.2033159060374E+01
 0.2027689946944E+01
 0.2008662298497E+01
 0.1977790916033E+01
 0.1936971165373E+01
 0.1888032957413E+01
 0.1832599187872E+01
 0.1772017795617E+01
 0.1707340432813E+01
 0.1639472204570E+01
 0.1569293482096E+01
 0.1497322513799E+01
 0.1423450574627E+01
 0.1347090858373E+01
 0.1267360631719E+01
 0.1183226892643E+01
 0.1093640552431E+01
 0.9976817810285E+00
 0.8947340533230E+00
 0.7846935626260E+00
 0.6681890349058E+00
 0.5468809377047E+00
 0.4240060995274E+00
 0.3054554071699E+00
 0.2028296648949E+00
 0.1417353762759E+00
 0.1474463928536E+00
 0.1837558744516E+00
 0.2087992603060E+00
 0.2105571903988E+00
 0.2032795570412E+00
 0.2390842438929E+00
 0.3651876179398E+00
 0.5722473928358E+00
 0.1995705266545E+01
 0.2050358309800E+01
 0.2112324693863E+01
 0.2174168771338E+01
 0.2228962351206E+01
 0.2271331943688E+01
 0.2297982887267E+01
 0.2307666224847E+01
 0.2300766545336E+01
 0.2278743632967E+01
 0.2243606635454E+01
 0.2197511628226E+01
 0.2142501749814E+01
 0.2080367406807E+01
 0.2012586894838E+01
 0.1940314655359E+01
 0.1864552511140E+01
 0.1786286126186E+01
 0.1706114705137E+01
 0.1623958321149E+01
 0.1539218718750E+01
 0.1450976909678E+01
 0.1358150749370E+01
 0.1259638770636E+01
 0.1154473589994E+01
 0.1042002335754E+01
 0.9220981779913E+00
 0.7953667573317E+00
 0.6633983862954E+00
 0.5291645413538E+00
 0.3975521143892E+00
 0.2763076467356E+00
 0.1784932757776E+00
 0.1257439083284E+00
 0.1237321450030E+00
 0.1335417237771E+00
 0.1355930481932E+00
 0.1656366047847E+00
 0.2770951605179E+00
 0.4698157864474E+00
 0.7287909825999E+00
 0.2234388967852E+01
 0.2297231872428E+01
 0.2367896118704E+01
 0.2437839336856E+01
 0.2499209106195E+01
 0.2546061155629E+01
 0.2574911871356E+01
 0.2584622723850E+01
 0.2575862375764E+01
 0.2550434743438E+01
 0.2510677299771E+01
 0.2459021733256E+01
 0.2397725737905E+01
 0.2328740943488E+01
 0.2253667035461E+01
 0.2173752936307E+01
 0.2090091270822E+01
 0.2003769766591E+01
 0.1915467083849E+01
 0.1825130969393E+01
 0.1732149990844E+01
 0.1635566034739E+01
 0.1534243566034E+01
 0.1427022944672E+01
 0.1312881703694E+01
 0.1191121527268E+01
 0.1061583827987E+01
 0.9248502780270E+00
 0.7824733056220E+00
 0.6373118067412E+00
 0.4938552582007E+00
 0.3584515560703E+00
 0.2393916301975E+00
 0.1464249952496E+00
 0.8725526680046E-01
 0.5953044457991E-01
 0.8056294869641E-01
 0.1811619887479E+00
 0.3533965759326E+00
 0.5929175254364E+00
 0.8946803722893E+00
 0.2475109521323E+01
 0.2546730784277E+01
 0.2626633383316E+01
 0.2705035006718E+01
 0.2773081980256E+01
 0.2824259616887E+01
 0.2854956596762E+01
 0.2864232394685E+01
 0.2853122572853E+01
 0.2823835948106E+01
 0.2779073052214E+01
 0.2721554042953E+01
 0.2653749341984E+01
 0.2577762355786E+01
 0.2495302628896E+01
 0.2407703539097E+01
 0.2316141738828E+01
 0.2221803616321E+01
 0.2125445984117E+01
 0.2027043401889E+01
 0.1925969720068E+01
 0.1821224964269E+01
 0.1711616140301E+01
 0.1595919904228E+01
 0.1473051367238E+01
 0.1342257256222E+01
 0.1203336092012E+01
 0.1056836507734E+01
 0.9042791613386E+00
 0.7484733956898E+00
 0.5937667733509E+00
 0.4460399501377E+00
 0.3121621064827E+00
 0.1981182596361E+00
 0.1044914237231E+00
 0.2388980255052E-01
 0.8969819910523E-01
 0.2374811274547E+00
 0.4472636614178E+00
 0.7241572970690E+00
 0.1065124085413E+01
 0.2718103484724E+01
 0.2799176442711E+01
 0.2888927545497E+01
 0.2976175900311E+01
 0.3050981374221E+01
 0.3106269549206E+01
 0.3138382527613E+01
 0.3146684428509E+01
 0.3132672910826E+01
 0.3099027364647E+01
 0.3048845613858E+01
 0.2985145844542E+01
 0.2910605261303E+01
 0.2827465808014E+01
 0.2737532430527E+01
 0.2642211063621E+01
 0.2542754753518E+01
 0.2440445065848E+01
 0.2336115977966E+01
 0.2229768354088E+01
 0.2120760022043E+01
 0.2008046586622E+01
 0.1890373795946E+01
 0.1766449526818E+01
 0.1635119666389E+01
 0.1495566666527E+01
 0.1347533905951E+01
 0.1191523204934E+01
 0.1029015092311E+01
 0.8627883901503E+00
 0.6971578904897E+00
 0.5379203807045E+00
 0.3917446269325E+00
 0.2645500853499E+00
 0.1597404016776E+00
 0.9348769873869E-01
 0.1495349270637E+00
 0.3113342508749E+00
 0.5482779827962E+00
 0.8589209999566E+00
 0.1237942520792E+01
 0.2963628833923E+01
 0.3054922552307E+01
 0.3155208101695E+01
 0.3251717031429E+01
 0.3333330049477E+01
 0.3392439035687E+01
 0.3425446074420E+01
 0.3432148948678E+01
 0.3414615601802E+01
 0.3376065464817E+01
 0.3320025723739E+01
 0.3249817377618E+01
 0.3168313311394E+01
 0.3077876337307E+01
 0.2980389076228E+01
 0.2877316119301E+01
 0.2769978440503E+01
 0.2659749343340E+01
 0.2547539442081E+01
 0.2433375850305E+01
 0.2316599351883E+01
 0.2196118792088E+01
 0.2070615243357E+01
 0.1938723413806E+01
 0.1799214085143E+01
 0.1651196900823E+01
 0.1494347708290E+01
 0.1329105096759E+01
 0.1156892332567E+01
 0.9804520297842E+00
 0.8041039467495E+00
 0.6337192703804E+00
 0.4762157174650E+00
 0.3384490943955E+00
 0.2275590030357E+00
 0.1669829202683E+00
 0.2206099182636E+00
 0.3911641916929E+00
 0.6516972763337E+00
 0.9949370456549E+00
 0.1412094426033E+01
 0.3211969215994E+01
 0.3314361589952E+01
 0.3425950061170E+01
 0.3532153332986E+01
 0.3620574353279E+01
 0.3683119554451E+01
 0.3716389869866E+01
 0.3720771702918E+01
 0.3699024579380E+01
 0.3654979458004E+01
 0.3592620648503E+01
 0.3515570270991E+01
 0.3426879543974E+01
 0.3329009444170E+01
 0.3223898973828E+01
 0.3113055381465E+01
 0.2997858328036E+01
 0.2879769613837E+01
 0.2759776587887E+01
 0.2637933115705E+01
 0.2513562238203E+01
 0.2385523959560E+01
 0.2252431757296E+01
 0.2112843727832E+01
 0.1965451013714E+01
 0.1809283310266E+01
 0.1643937276176E+01
 0.1469770669170E+01
 0.1288126824847E+01
 0.1101691019232E+01
 0.9147857669841E+00
 0.7334084858936E+00
 0.5648791011187E+00
 0.4171773898014E+00
 0.3003522314910E+00
 0.2405569461451E+00
 0.2935070468971E+00
 0.4723009714216E+00
 0.7551185024876E+00
 0.1130921867223E+01
 0.1587108958389E+01
 0.3463439200600E+01
 0.3577932766354E+01
 0.3701682415859E+01
 0.3818025194739E+01
 0.3913184834747E+01
 0.3978662190701E+01
 0.4011436641617E+01
 0.4012667709684E+01
 0.3985940220956E+01
 0.3935767512884E+01
 0.3866611776362E+01
 0.3782386181849E+01
 0.3686295613452E+01
 0.3580870945317E+01
 0.3468082467759E+01
 0.3349461933734E+01
 0.3226437763003E+01
 0.3100557394265E+01
 0.2972885820289E+01
 0.2843504819459E+01
 0.2711719329108E+01
 0.2576338703959E+01
 0.2435906526001E+01
 0.2288902071961E+01
 0.2133934132131E+01
 0.1969947359924E+01
 0.1796449157513E+01
 0.1613698894511E+01
 0.1422933949575E+01
 0.1226750775701E+01
 0.1029447264242E+01
 0.8371409400394E+00
 0.6575787287152E+00
 0.4998199972743E+00
 0.3761230925588E+00
 0.3140618833428E+00
 0.3659759059534E+00
 0.5526161986775E+00
 0.8571163359595E+00
 0.1265993370723E+01
 0.1762860633540E+01
 0.3718390831313E+01
 0.3846131916919E+01
 0.3982998320052E+01
 0.4109924463206E+01
 0.4211655871479E+01
 0.4279412062399E+01
 0.4310781347721E+01
 0.4307913719516E+01
 0.4275363513538E+01
 0.4218392882386E+01
 0.4141952359164E+01
 0.4050225671720E+01
 0.3946538391781E+01
 0.3833457066259E+01
 0.3712954240453E+01
 0.3586565853409E+01
 0.3455758581429E+01
 0.3322163236507E+01
 0.3186924375838E+01
 0.3050153597437E+01
 0.2911137694609E+01
 0.2768633825005E+01
 0.2621114112097E+01
 0.2466978358461E+01
 0.2304752632620E+01
 0.2133294205184E+01
 0.1952013635522E+01
 0.1761055553788E+01
 0.1561523732771E+01
 0.1355887216764E+01
 0.1148374479164E+01
 0.9451807563461E+00
 0.7544392639456E+00
 0.5861747403295E+00
 0.4543780785026E+00
 0.3876289428540E+00
 0.4372547969682E+00
 0.6309548666252E+00
 0.9567514132871E+00
 0.1399324432306E+01
 0.1939480369709E+01
 0.3977221887323E+01
 0.4119523899840E+01
 0.4270567359388E+01
 0.4408500764522E+01
 0.4516503753727E+01
 0.4585700358187E+01
 0.4614581197215E+01
 0.4606539383403E+01
 0.4567249727104E+01
 0.4502780051603E+01
 0.4418565504607E+01
 0.4319027377480E+01
 0.4207569849055E+01
 0.4086754764739E+01
 0.3958523930410E+01
 0.3824395018742E+01
 0.3685862016030E+01
 0.3544637666110E+01
 0.3401949232353E+01
 0.3257940847923E+01
 0.3111881375885E+01
 0.2962474441572E+01
 0.2808120004101E+01
 0.2647139644814E+01
 0.2477979261424E+01
 0.2299409919696E+01
 0.2110741177148E+01
 0.1911988959614E+01
 0.1704095760195E+01
 0.1489360013919E+01
 0.1271883269647E+01
 0.1057870366273E+01
 0.8557595678623E+00
 0.6763995076951E+00
 0.5351784427053E+00
 0.4615204832616E+00
 0.5070754267093E+00
 0.7065206097284E+00
 0.1053473992998E+01
 0.1530035367474E+01
 0.2117002622393E+01
 0.4240386421603E+01
 0.4398758279759E+01
 0.4565150360175E+01
 0.4714467861268E+01
 0.4828262426317E+01
 0.4897833215719E+01
 0.4922943144244E+01
 0.4908517075842E+01
 0.4861501736764E+01
 0.4788811087803E+01
 0.4696342554292E+01
 0.4588707549884E+01
 0.4469337220597E+01
 0.4340742275939E+01
 0.4204796948581E+01
 0.4062976123737E+01
 0.3916789836218E+01
 0.3768032383048E+01
 0.3618018305470E+01
 0.3466927819425E+01
 0.3314012196571E+01
 0.3157920317469E+01
 0.2996980254898E+01
 0.2829438927995E+01
 0.2653668169706E+01
 0.2468358360539E+01
 0.2272718327178E+01
 0.2066624951988E+01
 0.1850833364521E+01
 0.1627425833728E+01
 0.1400310212580E+01
 0.1175613027178E+01
 0.9619657772146E+00
 0.7708804146706E+00
 0.6188785219514E+00
 0.5361365431147E+00
 0.5753805179597E+00
 0.7788554745582E+00
 0.1146266437511E+01
 0.1659657916623E+01
 0.2288144827435E+01
 0.4508408367663E+01
 0.4684589355893E+01
 0.4867617260317E+01
 0.5028609507540E+01
 0.5147475741522E+01
 0.5216076466248E+01
 0.5235908436679E+01
 0.5213750417210E+01
 0.5157963239366E+01
 0.5076322440872E+01
 0.4975142016598E+01
 0.4859160041832E+01
 0.4731773478849E+01
 0.4595389863991E+01
 0.4451775470460E+01
 0.4302335887786E+01
 0.4148585724850E+01
 0.3992401746497E+01
 0.3835191967981E+01
 0.3677177031400E+01
 0.3517590870478E+01
 0.3355026399276E+01
 0.3187741214509E+01
 0.3013913897217E+01
 0.2831852572191E+01
 0.2640177666101E+01
 0.2438003024590E+01
 0.2225061078103E+01
 0.2001896809817E+01
 0.1770330722938E+01
 0.1534004088076E+01
 0.1298861474214E+01
 0.1073589654159E+01
 0.8701807572207E+00
 0.7060526537022E+00
 0.6120271572759E+00
 0.6423390348775E+00
 0.8474501129791E+00
 0.1234936603664E+01
 0.1785949491662E+01
 0.2463589177297E+01
 0.4781899340485E+01
 0.4977901987610E+01
 0.5178968611950E+01
 0.5351783860921E+01
 0.5474684588451E+01
 0.5540635040090E+01
 0.5553433840799E+01
 0.5522061690739E+01
 0.5456412240219E+01
 0.5365102512953E+01
 0.5254789246879E+01
 0.5130256825871E+01
 0.4994798112701E+01
 0.4850660744197E+01
 0.4699459563641E+01
 0.4542502437126E+01
 0.4381296894743E+01
 0.4217804572784E+01
 0.4053534940452E+01
 0.3888754081671E+01
 0.3722678448371E+01
 0.3553843588404E+01
 0.3380439361651E+01
 0.3200585642265E+01
 0.3012542212026E+01
 0.2814876386229E+01
 0.2606619327044E+01
 0.2387359891492E+01
 0.2157415268506E+01
 0.1918301086946E+01
 0.1673316380641E+01
 0.1428108284632E+01
 0.1191257177093E+01
 0.9750244677357E+00
 0.7974793914125E+00
 0.6899433713925E+00
 0.7082920402600E+00
 0.9120532157875E+00
 0.1318553311155E+01
 0.1909601594914E+01
 0.2641175226863E+01
 0.5061582258527E+01
 0.5279745230878E+01
 0.5500361277137E+01
 0.5684924855921E+01
 0.5810406596038E+01
 0.5871625596387E+01
 0.5875369300086E+01
 0.5833178583074E+01
 0.5756555351553E+01
 0.5654890392253E+01
 0.5535077088582E+01
 0.5401849115642E+01
 0.5258318199897E+01
 0.5106512118808E+01
 0.4947848392341E+01
 0.4783506826674E+01
 0.4614975952149E+01
 0.4444306291464E+01
 0.4273118624521E+01
 0.4101729916505E+01
 0.3929338160725E+01
 0.3754419774345E+01
 0.3575101238128E+01
 0.3389457315433E+01
 0.3195720637262E+01
 0.2992429258470E+01
 0.2778551551271E+01
 0.2553541336217E+01
 0.2317477445714E+01
 0.2071532840246E+01
 0.1818589779160E+01
 0.1563875163116E+01
 0.1315680713143E+01
 0.1086292894446E+01
 0.8941559696930E+00
 0.7708756943869E+00
 0.7738585822076E+00
 0.9724454632919E+00
 0.1396430778733E+01
 0.2030149953356E+01
 0.2821088045023E+01
 0.5348323181160E+01
 0.5591376599315E+01
 0.5833138731371E+01
 0.6029037890088E+01
 0.6155105203309E+01
 0.6209040757311E+01
 0.6201432075911E+01
 0.6146721012224E+01
 0.6058023635980E+01
 0.5945376213085E+01
 0.5815767697096E+01
 0.5673769152502E+01
 0.5522229733738E+01
 0.5362896239052E+01
 0.5196941413502E+01
 0.5025384656677E+01
 0.4849683017821E+01
 0.4671981524335E+01
 0.4494023979342E+01
 0.4316183665671E+01
 0.4137637726968E+01
 0.3956801155724E+01
 0.3771743483536E+01
 0.3580512742026E+01
 0.3381342300845E+01
 0.3172772661602E+01
 0.2953737863701E+01
 0.2723574218503E+01
 0.2482120752402E+01
 0.2230178412672E+01
 0.1970143830594E+01
 0.1706699353474E+01
 0.1447650024934E+01
 0.1205027481411E+01
 0.9973218686233E+00
 0.8561207794272E+00
 0.8399897522108E+00
 0.1028610957356E+01
 0.1467748831276E+01
 0.2146880938226E+01
 0.3004060834680E+01
 0.5643174955955E+01
 0.5914320911379E+01
 0.6178865947578E+01
 0.6385185485053E+01
 0.6509143705866E+01
 0.6552703292368E+01
 0.6531177945784E+01
 0.6462189255847E+01
 0.6360370924190E+01
 0.6236203642725E+01
 0.6096595753878E+01
 0.5945832691509E+01
 0.5786419128725E+01
 0.5619761360447E+01
 0.5446739435023E+01
 0.5268177710819E+01
 0.5085488113143E+01
 0.4900917172654E+01
 0.4716345074248E+01
 0.4532206170893E+01
 0.4347652207328E+01
 0.4161033861580E+01
 0.3970372946183E+01
 0.3773714959424E+01
 0.3569329495320E+01
 0.3355799791577E+01
 0.3132063381814E+01
 0.2897366803327E+01
 0.2651318979593E+01
 0.2394331352691E+01
 0.2128257082842E+01
 0.1857115502255E+01
 0.1588019139084E+01
 0.1332431180168E+01
 0.1108490377259E+01
 0.9473518958329E+00
 0.9080910365477E+00
 0.1080830387122E+01
 0.1531551200196E+01
 0.2258988408851E+01
 0.3191075237723E+01
 0.5947438189934E+01
 0.6250449335260E+01
 0.6539367790835E+01
 0.6754455897653E+01
 0.6872718420154E+01
 0.6902208912446E+01
 0.6863970924491E+01
 0.6778955162770E+01
 0.6663075709719E+01
 0.6526974995140E+01
 0.6377273247911E+01
 0.6217842193295E+01
 0.6050764794205E+01
 0.5877052407642E+01
 0.5697245353636E+01
 0.5511935510197E+01
 0.5322473822784E+01
 0.5131216136993E+01
 0.4940193506242E+01
 0.4749904378937E+01
 0.4559467484204E+01
 0.4367165868319E+01
 0.4170986821671E+01
 0.3969004652006E+01
 0.3759569141002E+01
 0.3541355631849E+01
 0.3313352887770E+01
 0.3074756626149E+01
 0.2824968486809E+01
 0.2564008362538E+01
 0.2293145131834E+01
 0.2015631615250E+01
 0.1737685837500E+01
 0.1469864116925E+01
 0.1229480351232E+01
 0.1046703504433E+01
 0.9801756530636E+00
 0.1129845800354E+01
 0.1586825908778E+01
 0.2365443107316E+01
 0.3383373447239E+01
 0.6262748206531E+01
 0.6602086601645E+01
 0.6916767606095E+01
 0.7137903407062E+01
 0.7245763461625E+01
 0.7256857335525E+01
 0.7198954355533E+01
 0.7096258871049E+01
 0.6965547809364E+01
 0.6817259404572E+01
 0.6657495947257E+01
 0.6489590697099E+01
 0.6315138626141E+01
 0.6134711099019E+01
 0.5948464312210E+01
 0.5756716625664E+01
 0.5560738246971E+01
 0.5363001849255E+01
 0.5165703947890E+01
 0.4969406823110E+01
 0.4773184462554E+01
 0.4575249172471E+01
 0.4373572729110E+01
 0.4166298427155E+01
 0.3951909452696E+01
 0.3729231820793E+01
 0.3497363303398E+01
 0.3255499668163E+01
 0.3002872990650E+01
 0.2739128687659E+01
 0.2464934151695E+01
 0.2182697824513E+01
 0.1897560858539E+01
 0.1618827598994E+01
 0.1362442027903E+01
 0.1156867606375E+01
 0.1059051934610E+01
 0.1177141953051E+01
 0.1632589871828E+01
 0.2464863433250E+01
 0.3582523296483E+01
 0.6591201953685E+01
 0.6972157672691E+01
 0.7313518041278E+01
 0.7536442365135E+01
 0.7627818198577E+01
 0.7615573554429E+01
 0.7535028207041E+01
 0.7413214040940E+01
 0.7267140894632E+01
 0.7106604345813E+01
 0.6936951612277E+01
 0.6760866325969E+01
 0.6579407234935E+01
 0.6392675201670E+01
 0.6200402906145E+01
 0.6002589511899E+01
 0.5800398259267E+01
 0.5596423882276E+01
 0.5393041205811E+01
 0.5190870486360E+01
 0.4988924070749E+01
 0.4785342121469E+01
 0.4578108575959E+01
 0.4365486849637E+01
 0.4146156520587E+01
 0.3919161560020E+01
 0.3683776135037E+01
 0.3439259113296E+01
 0.3184727118921E+01
 0.2919490898118E+01
 0.2643629653127E+01
 0.2358666982693E+01
 0.2068523893380E+01
 0.1780929784691E+01
 0.1509867436196E+01
 0.1281194465306E+01
 0.1148554473884E+01
 0.1225359856994E+01
 0.1668069661319E+01
 0.2555360426832E+01
 0.3790511288605E+01
 0.6935548037176E+01
 0.7364389642316E+01
 0.7732406761913E+01
 0.7950666936312E+01
 0.8017848241337E+01
 0.7976825669193E+01
 0.7870839965358E+01
 0.7728824876859E+01
 0.7567171658235E+01
 0.7394550566024E+01
 0.7215329921823E+01
 0.7031457368612E+01
 0.6843432714286E+01
 0.6650876493887E+01
 0.6453066908254E+01
 0.6249632500896E+01
 0.6041593088620E+01
 0.5831665038206E+01
 0.5622409341785E+01
 0.5414489427556E+01
 0.5206833112819E+01
 0.4997511712492E+01
 0.4784561981083E+01
 0.4566432117476E+01
 0.4342070857558E+01
 0.4110814761731E+01
 0.3872190170888E+01
 0.3625593985092E+01
 0.3370098982783E+01
 0.3104747219844E+01
 0.2829080444019E+01
 0.2543746497924E+01
 0.2251363889529E+01
 0.1957825678195E+01
 0.1674570296257E+01
 0.1423785930361E+01
 0.1253815673253E+01
 0.1278887596978E+01
 0.1693084932205E+01
 0.2634345391167E+01
 0.4009873875599E+01
 0.7299479586435E+01
 0.7783590148294E+01
 0.8176500864758E+01
 0.8380553495484E+01
 0.8414014234072E+01
 0.8338553470339E+01
 0.8204799211162E+01
 0.8042017723366E+01
 0.7864945740100E+01
 0.7680650226183E+01
 0.7492333999768E+01
 0.7301157907822E+01
 0.7107072785664E+01
 0.6909236909313E+01
 0.6706456743086E+01
 0.6497932386524E+01
 0.6284488246661E+01
 0.6068950536650E+01
 0.5854063669005E+01
 0.5640505659517E+01
 0.5427090949219E+01
 0.5211835527815E+01
 0.4992888918734E+01
 0.4768965223759E+01
 0.4539363990967E+01
 0.4303793705975E+01
 0.4062114807084E+01
 0.3813948052503E+01
 0.3558412105130E+01
 0.3294375696685E+01
 0.3020938025282E+01
 0.2737941378172E+01
 0.2446702170487E+01
 0.2151124114649E+01
 0.1859615103878E+01
 0.1589553831909E+01
 0.1381570935950E+01
 0.1344664722025E+01
 0.1708822010321E+01
 0.2698313408726E+01
 0.4243884131863E+01
 0.7688100485387E+01
 0.8236028550768E+01
 0.8648955926033E+01
 0.8824982363154E+01
 0.8813394872579E+01
 0.8698134376570E+01
 0.8535127437081E+01
 0.8351688249363E+01
 0.8159789712718E+01
 0.7964487783364E+01
 0.7767693333536E+01
 0.7569774042846E+01
 0.7370180264555E+01
 0.7167662239794E+01
 0.6960559580118E+01
 0.6747580682465E+01
 0.6529279820721E+01
 0.6308560290149E+01
 0.6088326835278E+01
 0.5869222882269E+01
 0.5649916829168E+01
 0.5428402766227E+01
 0.5203031115208E+01
 0.4972882408563E+01
 0.4737695213868E+01
 0.4497629576948E+01
 0.4252964500057E+01
 0.4003639494864E+01
 0.3748927118166E+01
 0.3487650571547E+01
 0.3218611927489E+01
 0.2940989142518E+01
 0.2654898425101E+01
 0.2362256550144E+01
 0.2068170564419E+01
 0.1784191599868E+01
 0.1540474322216E+01
 0.1433203778940E+01
 0.1719332872782E+01
 0.2742684794511E+01
 0.4496827770812E+01
 0.8108695524235E+01
 0.8729944336222E+01
 0.9152539136857E+01
 0.9280993360548E+01
 0.9211701842181E+01
 0.9052429972954E+01
 0.8859951944853E+01
 0.8656762002251E+01
 0.8451087780071E+01
 0.8245702866970E+01
 0.8041177748620E+01
 0.7837130905749E+01
 0.7632602052277E+01
 0.7426032727087E+01
 0.7215336358449E+01
 0.6998666023314E+01
 0.6776199147152E+01
 0.6550845886329E+01
 0.6325610821395E+01
 0.6101023761565E+01
 0.5875577398910E+01
 0.5647313537176E+01
 0.5414911586537E+01
 0.5177940666415E+01
 0.4936668657408E+01
 0.4691780382496E+01
 0.4444055007753E+01
 0.4193851925999E+01
 0.3940723689796E+01
 0.3683611345759E+01
 0.3421221753987E+01
 0.3152288002026E+01
 0.2875941617700E+01
 0.2592307305597E+01
 0.2303263952218E+01
 0.2013973447683E+01
 0.1741347777832E+01
 0.1559786868881E+01
 0.1734310750284E+01
 0.2761980751139E+01
 0.4774443249621E+01
 0.8572058034820E+01
 0.9276177148356E+01
 0.9688560615743E+01
 0.9742683398626E+01
 0.9603093553161E+01
 0.9397970542090E+01
 0.9177440953446E+01
 0.8956262755024E+01
 0.8738321800314E+01
 0.8524013946595E+01
 0.8312611959510E+01
 0.8103080898430E+01
 0.7894178362130E+01
 0.7684189992803E+01
 0.7470701189037E+01
 0.7251260063444E+01
 0.7025517865550E+01
 0.6796255027482E+01
 0.6566447636226E+01
 0.6336391402120E+01
 0.6104393360659E+01
 0.5868675206614E+01
 0.5628427581194E+01
 0.5383852036580E+01
 0.5135830890132E+01
 0.4885630951179E+01
 0.4634602323181E+01
 0.4383627488381E+01
 0.4132683122404E+01
 0.3881030999922E+01
 0.3627546891159E+01
 0.3370820468038E+01
 0.3109329950984E+01
 0.2841812013036E+01
 0.2567427470361E+01
 0.2285264646163E+01
 0.1997148153929E+01
 0.1745772103870E+01
 0.1773868125224E+01
 0.2751146856473E+01
 0.5084720043447E+01
 0.9094896752622E+01
 0.9888782118409E+01
 0.1025459174039E+02
 0.1019972873121E+02
 0.9980327545893E+01
 0.9731321600748E+01
 0.9485953528173E+01
 0.9249384036436E+01
 0.9021113154685E+01
 0.8799240833395E+01
 0.8581890165142E+01
 0.8367513756324E+01
 0.8154743807912E+01
 0.7941920323644E+01
 0.7726489233649E+01
 0.7505392109521E+01
 0.7277553336408E+01
 0.7045368295228E+01
 0.6811532944879E+01
 0.6575935252424E+01
 0.6336743298326E+01
 0.6092594167270E+01
 0.5843440150053E+01
 0.5590276351190E+01
 0.5334669252453E+01
 0.5078495979748E+01
 0.4823725590521E+01
 0.4571862822250E+01
 0.4323471904904E+01
 0.4078383865609E+01
 0.3835974943169E+01
 0.3595075092771E+01
 0.3353946243264E+01
 0.3110537484430E+01
 0.2862260165539E+01
 0.2603640088949E+01
 0.2322164661843E+01
 0.2019873082522E+01
 0.1875774693072E+01
 0.2710306717086E+01
 0.5439622449145E+01
 0.9704475420080E+01
 0.1058500914766E+02
 0.1083972860916E+02
 0.1063587891695E+02
 0.1033568571780E+02
 0.1004957235097E+02
 0.9784159533583E+01
 0.9535569228644E+01
 0.9299261374901E+01
 0.9071324151250E+01
 0.8848990034684E+01
 0.8630368890135E+01
 0.8414133529363E+01
 0.8198936015835E+01
 0.7982407133783E+01
 0.7761003476284E+01
 0.7532674425342E+01
 0.7298957274469E+01
 0.7061788975495E+01
 0.6820420319790E+01
 0.6573061140335E+01
 0.6319161103874E+01
 0.6059759709723E+01
 0.5796812011108E+01
 0.5532610991191E+01
 0.5269627533768E+01
 0.5010455983890E+01
 0.4757308744557E+01
 0.4511525998859E+01
 0.4273813675191E+01
 0.4044450233382E+01
 0.3822968419513E+01
 0.3607938385827E+01
 0.3397259598311E+01
 0.3187964876716E+01
 0.2972649904688E+01
 0.2729625390254E+01
 0.2418545130004E+01
 0.2104535821167E+01
 0.2659129339918E+01
 0.5859623878429E+01
 0.1044828366941E+02
 0.1138221918213E+02
 0.1141510603488E+02
 0.1102904347203E+02
 0.1066313024636E+02
 0.1035061190682E+02
 0.1007114886906E+02
 0.9814604248519E+01
 0.9572767544942E+01
 0.9340343372081E+01
 0.9113983962691E+01
 0.8891649923303E+01
 0.8672199466066E+01
 0.8454861001554E+01
 0.8237957330114E+01
 0.8017863455352E+01
 0.7791307931433E+01
 0.7558081774641E+01
 0.7318455610476E+01
 0.7070795006638E+01
 0.6813821612422E+01
 0.6548427942447E+01
 0.6277127425857E+01
 0.6002984160093E+01
 0.5729022691028E+01
 0.5458229099446E+01
 0.5193754930659E+01
 0.4938574228469E+01
 0.4695034523211E+01
 0.4465102220666E+01
 0.4250425364686E+01
 0.4051766101328E+01
 0.3868615778052E+01
 0.3699570187256E+01
 0.3542901748169E+01
 0.3392595322586E+01
 0.3227023611721E+01
 0.2981761518029E+01
 0.2561494257628E+01
 0.2675980750307E+01
 0.6387667617532E+01
 0.1141643096383E+02
 0.1228200157734E+02
 0.1191695469554E+02
 0.1135821511140E+02
 0.1096074550723E+02
 0.1063273367805E+02
 0.1034676269848E+02
 0.1008663172039E+02
 0.9841859057334E+01
 0.9606528961775E+01
 0.9377046480003E+01
 0.9151438965491E+01
 0.8928842705486E+01
 0.8709238369840E+01
 0.8492325554142E+01
 0.8275407440879E+01
 0.8053947467988E+01
 0.7824263405147E+01
 0.7583219395820E+01
 0.7328204706414E+01
 0.7059506310356E+01
 0.6780375465847E+01
 0.6495193171780E+01
 0.6208229474890E+01
 0.5923207710306E+01
 0.5643479424312E+01
 0.5372548333800E+01
 0.5114134047902E+01
 0.4871918957394E+01
 0.4649639810419E+01
 0.4450820094063E+01
 0.4278005918275E+01
 0.4132342318921E+01
 0.4013819408925E+01
 0.3923098660072E+01
 0.3859825760641E+01
 0.3810589075294E+01
 0.3735011542207E+01
 0.3394516068884E+01
 0.2987111953201E+01
 0.7141646800132E+01
 0.1280186461830E+02
 0.1319745951796E+02
 0.1223263563330E+02
 0.1162732403370E+02
 0.1122640142845E+02
 0.1089562504773E+02
 0.1061170074026E+02
 0.1035212079846E+02
 0.1010702597009E+02
 0.9870257697753E+01
 0.9638462166568E+01
 0.9409903369189E+01
 0.9184060678389E+01
 0.8961603841720E+01
 0.8744229112175E+01
 0.8532400702856E+01
 0.8321174405171E+01
 0.8099820365231E+01
 0.7858377640332E+01
 0.7593963663832E+01
 0.7310545016715E+01
 0.7014871142779E+01
 0.6713492539076E+01
 0.6411877767615E+01
 0.6114393952914E+01
 0.5824571014707E+01
 0.5545792288991E+01
 0.5282334723095E+01
 0.5039797656147E+01
 0.4824404785814E+01
 0.4641988571030E+01
 0.4497437511337E+01
 0.4394382632949E+01
 0.4335201510427E+01
 0.4322291282816E+01
 0.4364924800104E+01
 0.4466846179184E+01
 0.4647603794026E+01
 0.4772830119996E+01
 0.4103354630466E+01
 0.8543510861896E+01
 0.1510182769168E+02
 0.1358276979903E+02
 0.1234847292253E+02
 0.1185429087664E+02
 0.1145487512699E+02
 0.1114280821170E+02
 0.1086669001674E+02
 0.1061213070555E+02
 0.1036894460536E+02
 0.1013206855575E+02
 0.9898622288428E+01
 0.9667301850386E+01
 0.9437965798707E+01
 0.9211715831362E+01
 0.8991801935380E+01
 0.8786146574262E+01
 0.8593743297019E+01
 0.8388575985567E+01
 0.8146950394412E+01
 0.7869459099295E+01
 0.7567229312441E+01
 0.7251618153026E+01
 0.6931425221470E+01
 0.6613139310936E+01
 0.6301688126256E+01
 0.6000767185405E+01
 0.5712616480769E+01
 0.5441369916955E+01
 0.5195918629681E+01
 0.4985968581366E+01
 0.4819714226706E+01
 0.4704925064208E+01
 0.4648878875597E+01
 0.4657277479927E+01
 0.4734415504377E+01
 0.4888036731762E+01
 0.5176714048195E+01
 0.5632745991148E+01
 0.6606974722171E+01
 0.7050384981770E+01
 0.1262047046282E+02
 0.2352425195481E+00
 0.2992913918364E+00
 0.3898333307706E+00
 0.4830784049630E+00
 0.5634846797396E+00
 0.6227542609123E+00
 0.6576254527402E+00
 0.6681765653057E+00
 0.6565134519201E+00
 0.6257708111917E+00
 0.5793802177076E+00
 0.5205766682230E+00
 0.4522795838758E+00
 0.3772180599610E+00
 0.2980744081483E+00
 0.2176027033556E+00
 0.1387089661844E+00
 0.6551178972126E-01
 0.2852171824699E-01
 0.8466029977614E-01
 0.2243177192095E+00
 0.2812695960888E+00
 0.3639478087853E+00
 0.4508545353207E+00
 0.5273046205806E+00
 0.5848706995921E+00
 0.6198150827556E+00
 0.6316279368940E+00
 0.6218618412793E+00
 0.5932032668290E+00
 0.5487728739665E+00
 0.4916227366882E+00
 0.4245406142673E+00
 0.3502631491018E+00
 0.2715861411215E+00
 0.1914665186693E+00
 0.1131977130078E+00
 0.4376817630419E-01
 0.4900027532985E-01
 0.1191616240212E+00
 0.2147562017680E+00
 0.2656356430003E+00
 0.3413003516634E+00
 0.4222941850156E+00
 0.4947636121612E+00
 0.5503218650877E+00
 0.5848787054066E+00
 0.5974400258198E+00
 0.5890724403507E+00
 0.5620511153055E+00
 0.5191881373856E+00
 0.4633350956726E+00
 0.3972008213436E+00
 0.3235249822572E+00
 0.2451922465963E+00
 0.1653208203610E+00
 0.8776908832058E-01
 0.2964701571091E-01
 0.7724779851615E-01
 0.1482299859596E+00
 0.2061719696247E+00
 0.2521546842906E+00
 0.3216011281207E+00
 0.3970983656453E+00
 0.4656283597607E+00
 0.5189423737497E+00
 0.5527172456254E+00
 0.5655666266278E+00
 0.5581365572409E+00
 0.5323262918345E+00
 0.4906520233919E+00
 0.4357776027322E+00
 0.3703384453203E+00
 0.2970763440985E+00
 0.2189383555930E+00
 0.1392075413948E+00
 0.6287043992960E-01
 0.3859830625340E-01
 0.1062524124389E+00
 0.1760910461546E+00
 0.1983964982386E+00
 0.2405106476392E+00
 0.3045609425927E+00
 0.3749927461181E+00
 0.4396702183568E+00
 0.4905670308275E+00
 0.5232255405808E+00
 0.5359531432334E+00
 0.5290368112196E+00
 0.5040376455631E+00
 0.4631980606310E+00
 0.4090050548372E+00
 0.3440208528795E+00
 0.2709798820344E+00
 0.1928795176518E+00
 0.1132406793939E+00
 0.4122877538577E-01
 0.6188576710051E-01
 0.1351750271461E+00
 0.2038502785029E+00
 0.1913116269384E+00
 0.2304659288810E+00
 0.2898999691332E+00
 0.3557183794800E+00
 0.4166709853303E+00
 0.4650317580651E+00
 0.4962948014786E+00
 0.5085386260964E+00
 0.5017502114083E+00
 0.4771921884615E+00
 0.4368575340262E+00
 0.3830671835029E+00
 0.3183074335860E+00
 0.2452975870588E+00
 0.1670958143736E+00
 0.8782921522284E-01
 0.3199469469383E-01
 0.8869025710560E-01
 0.1639677065903E+00
 0.2318583407843E+00
 0.1848292212536E+00
 0.2218291066528E+00
 0.2773738519244E+00
 0.3390328952113E+00
 0.3964227608309E+00
 0.4421758603439E+00
 0.4718142829513E+00
 0.4832578594587E+00
 0.4762496730197E+00
 0.4517936752313E+00
 0.4116583740755E+00
 0.3580091548634E+00
 0.2932545636537E+00
 0.2200987941410E+00
 0.1417322496603E+00
 0.6388273733329E-01
 0.4391699497046E-01
 0.1163965161814E+00
 0.1926787168016E+00
 0.2601993071543E+00
 0.1788794038701E+00
 0.2144441088234E+00
 0.2667703226258E+00
 0.3247152256024E+00
 0.3787287478243E+00
 0.4218430669076E+00
 0.4496728145006E+00
 0.4600426642697E+00
 0.4525044730397E+00
 0.4278422636580E+00
 0.3876248327830E+00
 0.3338730101166E+00
 0.2689193311421E+00
 0.1954697756440E+00
 0.1170094176870E+00
 0.4379670788787E-01
 0.6618710356829E-01
 0.1443079572536E+00
 0.2213336231584E+00
 0.2888549984870E+00
 0.1734047710964E+00
 0.2081810717881E+00
 0.2579050519330E+00
 0.3125651269102E+00
 0.3634043497829E+00
 0.4038823089474E+00
 0.4297597502152E+00
 0.4388226812959E+00
 0.4304805575033E+00
 0.4053344723660E+00
 0.3647777825744E+00
 0.3106989885167E+00
 0.2453624181376E+00
 0.1715146942807E+00
 0.9326333099172E-01
 0.3447160730285E-01
 0.9123374189853E-01
 0.1721659582361E+00
 0.2499277955773E+00
 0.3177688869903E+00
 0.1683568202119E+00
 0.2029301052925E+00
 0.2506170089471E+00
 0.3024014586373E+00
 0.3502770878535E+00
 0.3881482590406E+00
 0.4119655771823E+00
 0.4195258939542E+00
 0.4101408367231E+00
 0.3842633918543E+00
 0.3431351917160E+00
 0.2885264773919E+00
 0.2226483495019E+00
 0.1483556438435E+00
 0.7110277392112E-01
 0.4278959261140E-01
 0.1169869097388E+00
 0.1998367190234E+00
 0.2784318623533E+00
 0.3468780059205E+00
 0.1636935997918E+00
 0.1985966778212E+00
 0.2447643195636E+00
 0.2940598461090E+00
 0.3391858335412E+00
 0.3745013648487E+00
 0.3961822261759E+00
 0.4020789382974E+00
 0.3914454197961E+00
 0.3646189122271E+00
 0.3227124372944E+00
 0.2673940551715E+00
 0.2008443497606E+00
 0.1261405167688E+00
 0.5189321477547E-01
 0.6138055967545E-01
 0.1427699857837E+00
 0.2272254240540E+00
 0.3067951215572E+00
 0.3761130941229E+00
 0.1593780548189E+00
 0.1950981211771E+00
 0.2402206634580E+00
 0.2873902223020E+00
 0.3299796201256E+00
 0.3628075083310E+00
 0.3823031263055E+00
 0.3864072779734E+00
 0.3743517981849E+00
 0.3463878939704E+00
 0.3035223369713E+00
 0.2473389296901E+00
 0.1800196872586E+00
 0.1050642698999E+00
 0.3903789847368E-01
 0.8309511734524E-01
 0.1682800814762E+00
 0.2542481286985E+00
 0.3349488433881E+00
 0.4053852534920E+00
 0.1553768050881E+00
 0.1923608920195E+00
 0.2368721610995E+00
 0.2822544110543E+00
 0.3225162196313E+00
 0.3529373689994E+00
 0.3702230229504E+00
 0.3724352205081E+00
 0.3588149152207E+00
 0.3295541820730E+00
 0.2855748985520E+00
 0.2283962009363E+00
 0.1602459376105E+00
 0.8541634790890E-01
 0.3808386864798E-01
 0.1055293589955E+00
 0.1933391526734E+00
 0.2808214012097E+00
 0.3628108967368E+00
 0.4345913630592E+00
 0.1516592073740E+00
 0.1903183679634E+00
 0.2346146734527E+00
 0.2785238302079E+00
 0.3166606112884E+00
 0.3447655927298E+00
 0.3598376168970E+00
 0.3600858042101E+00
 0.3447871342186E+00
 0.3140985036002E+00
 0.2688769625824E+00
 0.2105981939909E+00
 0.1415983134973E+00
 0.6768561865798E-01
 0.4861721002377E-01
 0.1278470332374E+00
 0.2178176426597E+00
 0.3068585640444E+00
 0.3902889529954E+00
 0.4636200323565E+00
 0.1481966108503E+00
 0.1889090288625E+00
 0.2333514408165E+00
 0.2760773357360E+00
 0.3122834078974E+00
 0.3381698251102E+00
 0.3510430550414E+00
 0.3492805602747E+00
 0.3322181049277E+00
 0.2999982851710E+00
 0.2534318256468E+00
 0.1939738840854E+00
 0.1241580932037E+00
 0.5278626154171E-01
 0.6439640470359E-01
 0.1496730516333E+00
 0.2416065265253E+00
 0.3322684900128E+00
 0.4172820037370E+00
 0.4923531053098E+00
 0.1449617482717E+00
 0.1880749227499E+00
 0.2329910013171E+00
 0.2747992097616E+00
 0.3092592797722E+00
 0.3330296524568E+00
 0.3437353004046E+00
 0.3399391634039E+00
 0.3210545442058E+00
 0.2872274274191E+00
 0.2392388863691E+00
 0.1785483570098E+00
 0.1080162447177E+00
 0.4241234824493E-01
 0.8171160376514E-01
 0.1707940267397E+00
 0.2646058406923E+00
 0.3569554085725E+00
 0.4436811542595E+00
 0.5206652863750E+00
 0.1419282242477E+00
 0.1877603466675E+00
 0.2334453420258E+00
 0.2745772877267E+00
 0.3074654009824E+00
 0.3292254832120E+00
 0.3378094084539E+00
 0.3319789918516E+00
 0.3112399548187E+00
 0.2757560686276E+00
 0.2262933367278E+00
 0.1643422423106E+00
 0.9327831990043E-01
 0.3878209079603E-01
 0.9912103807853E-01
 0.1910633913504E+00
 0.2867196989488E+00
 0.3808192132340E+00
 0.4693702639850E+00
 0.5484234638791E+00
 0.1390700742552E+00
 0.1879106931326E+00
 0.2346282455373E+00
 0.2753012171363E+00
 0.3067799337444E+00
 0.3266373944580E+00
 0.3331587327010E+00
 0.3253146156555E+00
 0.3027142996400E+00
 0.2655503536480E+00
 0.2145859064088E+00
 0.1513710650901E+00
 0.8007021743029E-01
 0.4227264914049E-01
 0.1160166837804E+00
 0.2103661264761E+00
 0.3078541794886E+00
 0.4037561023200E+00
 0.4942266685580E+00
 0.5754860514028E+00
 0.1363613753296E+00
 0.1884714257011E+00
 0.2364538003467E+00
 0.2768608373353E+00
 0.3070805594836E+00
 0.3251439605781E+00
 0.3296740757822E+00
 0.3198572238894E+00
 0.2954136355122E+00
 0.2565722056541E+00
 0.2041026560769E+00
 0.1396444807600E+00
 0.6854275143885E-01
 0.5033349211989E-01
 0.1320919036482E+00
 0.2286040276248E+00
 0.3279166236495E+00
 0.4256594912846E+00
 0.5181221074862E+00
 0.6017025168660E+00
 0.1337758944551E+00
 0.1893871557762E+00
 0.2388350474678E+00
 0.2791446687215E+00
 0.3082430622229E+00
 0.3246210794374E+00
 0.3272428026462E+00
 0.3155140028369E+00
 0.2892697106265E+00
 0.2487790970133E+00
 0.1948248233592E+00
 0.1291654119429E+00
 0.5886880046094E-01
 0.6026580926333E-01
 0.1471638669803E+00
 0.2456891018719E+00
 0.3468156849267E+00
 0.4464210724735E+00
 0.5409239693428E+00
 0.6269135295422E+00
 0.1312867639486E+00
 0.1906007981027E+00
 0.2416827377371E+00
 0.2820384977692E+00
 0.3101399661519E+00
 0.3249408080216E+00
 0.3257479299361E+00
 0.3121874743392E+00
 0.2842095250512E+00
 0.2421238093640E+00
 0.1867287226435E+00
 0.1199291696775E+00
 0.5121940136636E-01
 0.7053437889756E-01
 0.1611079577209E+00
 0.2615405627143E+00
 0.3644618303647E+00
 0.4659319415159E+00
 0.5624966104714E+00
 0.6509523959026E+00
 0.1288661753117E+00
 0.1920527856256E+00
 0.2449041753967E+00
 0.2854240425074E+00
 0.3126392261367E+00
 0.3259702168793E+00
 0.3250672043063E+00
 0.3097748030080E+00
 0.2801548531163E+00
 0.2365541699211E+00
 0.1797856942341E+00
 0.1119227196650E+00
 0.4570080635225E-01
 0.8038086806429E-01
 0.1738306677169E+00
 0.2760835671762E+00
 0.3807681270441E+00
 0.4840838938100E+00
 0.5827024241098E+00
 0.6736474239882E+00
 0.1264850843287E+00
 0.1936803260980E+00
 0.2484021241681E+00
 0.2891776816719E+00
 0.3156029673384E+00
 0.3275702705162E+00
 0.3250721815719E+00
 0.3081670815411E+00
 0.2770217274142E+00
 0.2320127498140E+00
 0.1739620879480E+00
 0.1051243274056E+00
 0.4225562440695E-01
 0.8941601460185E-01
 0.1852573293134E+00
 0.2892488433740E+00
 0.3956512471361E+00
 0.5007708680427E+00
 0.6014033274765E+00
 0.6948214754250E+00
 0.1241129208826E+00
 0.1954166834443E+00
 0.2520737523496E+00
 0.2931692298309E+00
 0.3188862682312E+00
 0.3295947392583E+00
 0.3256273182499E+00
 0.3072486047217E+00
 0.2747198866423E+00
 0.2284365108216E+00
 0.1692192521004E+00
 0.9950384368954E-01
 0.4059021468794E-01
 0.9742299120252E-01
 0.1953261685272E+00
 0.3009727877393E+00
 0.4090326038721E+00
 0.5158906638262E+00
 0.6184623666695E+00
 0.7142932559352E+00
 0.1217172971104E+00
 0.1971904665782E+00
 0.2558095935377E+00
 0.2972607403954E+00
 0.3223359803456E+00
 0.3318891472802E+00
 0.3265890873010E+00
 0.3068961445916E+00
 0.2731521928359E+00
 0.2257563890309E+00
 0.1655134837161E+00
 0.9502382255967E-01
 0.4021393983041E-01
 0.1042713430841E+00
 0.2039852593122E+00
 0.3111977848467E+00
 0.4208395906902E+00
 0.5293468160949E+00
 0.6337460656791E+00
 0.7318799881847E+00
 0.1192637069825E+00
 0.1989249071116E+00
 0.2594924991547E+00
 0.3013053184021E+00
 0.3257895780057E+00
 0.3342897616582E+00
 0.3278051310261E+00
 0.3069782421521E+00
 0.2722140281939E+00
 0.2238968086239E+00
 0.1627958851405E+00
 0.9164146585847E-01
 0.4057903786511E-01
 0.1098780467275E+00
 0.2111908581395E+00
 0.3198725919227E+00
 0.4310068541736E+00
 0.5410507132479E+00
 0.6471272248373E+00
 0.7474002417835E+00
 0.1167152091985E+00
 0.2005371050641E+00
 0.2629965578966E+00
 0.3051459251679E+00
 0.3290740321487E+00
 0.3366226284294E+00
 0.3291134660332E+00
 0.3073545347731E+00
 0.2717926878400E+00
 0.2227751264037E+00
 0.1610120701021E+00
 0.8931108749361E-01
 0.4121371982445E-01
 0.1141887992823E+00
 0.2169063734465E+00
 0.3269526490648E+00
 0.4394775474645E+00
 0.5509239278813E+00
 0.6584879823924E+00
 0.7606771237564E+00
 0.1140320831616E+00
 0.2019372177609E+00
 0.2661859552064E+00
 0.3086141573304E+00
 0.3320047039970E+00
 0.3387026635471E+00
 0.3303417576440E+00
 0.3078751430678E+00
 0.2717667928631E+00
 0.2223010185424E+00
 0.1601016716142E+00
 0.8798649023788E-01
 0.4178247338192E-01
 0.1171684979545E+00
 0.2211015615328E+00
 0.3324001744448E+00
 0.4462044652074E+00
 0.5589006959515E+00
 0.6677232872338E+00
 0.7715419512811E+00
 0.1111714449463E+00
 0.2030275615501E+00
 0.2689137433513E+00
 0.3115289841834E+00
 0.3343842577346E+00
 0.3403328096698E+00
 0.3313066837247E+00
 0.3083801458441E+00
 0.2720057583660E+00
 0.2223758373838E+00
 0.1599976270945E+00
 0.8762249556270E-01
 0.4208936687591E-01
 0.1187962222574E+00
 0.2237517031492E+00
 0.3361838736207E+00
 0.4511509056234E+00
 0.5649305262705E+00
 0.6747448950491E+00
 0.7798387708029E+00
 0.1080868025704E+00
 0.2037015863950E+00
 0.2710204876534E+00
 0.3136954286837E+00
 0.3360015956607E+00
 0.3413032727985E+00
 0.3318134089323E+00
 0.3086991747005E+00
 0.2723693632138E+00
 0.2228919909823E+00
 0.1606252568354E+00
 0.8817497182204E-01
 0.4206196344441E-01
 0.1190626937597E+00
 0.2248366006554E+00
 0.3382780246613E+00
 0.4542910204924E+00
 0.5689808744026E+00
 0.6794860661640E+00
 0.7854298180127E+00
 0.1047275236209E+00
 0.2038426705731E+00
 0.2723327505255E+00
 0.3149031834230E+00
 0.3366308283309E+00
 0.3413908576938E+00
 0.3316551888903E+00
 0.3086511567441E+00
 0.2727074754213E+00
 0.2237324283017E+00
 0.1619012109028E+00
 0.8959905822024E-01
 0.4173783734147E-01
 0.1179694560687E+00
 0.2243393271918E+00
 0.3386606135641E+00
 0.4556092670526E+00
 0.5710397637508E+00
 0.6819071614948E+00
 0.7882023335921E+00
 0.1010381717005E+00
 0.2033226610069E+00
 0.2726613698229E+00
 0.3149251646857E+00
 0.3360303077665E+00
 0.3403584290593E+00
 0.3306131208245E+00
 0.3080442239620E+00
 0.2728599854507E+00
 0.2247703468194E+00
 0.1637324512026E+00
 0.9184577845871E-01
 0.4125929881356E-01
 0.1155297856246E+00
 0.2222448296676E+00
 0.3373100447177E+00
 0.4550983039176E+00
 0.5711181290684E+00
 0.6820024433064E+00
 0.7880769665339E+00
 0.9695764102372E-01
 0.2020000512585E+00
 0.2717994860320E+00
 0.3135160309869E+00
 0.3339417766787E+00
 0.3379545338036E+00
 0.3284560490934E+00
 0.3066757873810E+00
 0.2726569742624E+00
 0.2258692513414E+00
 0.1660155496703E+00
 0.9485775253974E-01
 0.4087129479971E-01
 0.1117719901379E+00
 0.2185389027729E+00
 0.3341997780268E+00
 0.4527539696023E+00
 0.5692515581668E+00
 0.6798084197859E+00
 0.7850125148478E+00
 0.9241796600901E-01
 0.1997176360628E+00
 0.2695202806959E+00
 0.3104107476114E+00
 0.3300897298948E+00
 0.3339132345795E+00
 0.3249406226954E+00
 0.3043327514701E+00
 0.2719190997217E+00
 0.2268834291046E+00
 0.1686366616284E+00
 0.9856515300350E-01
 0.4090807101729E-01
 0.1067464269761E+00
 0.2132090129570E+00
 0.3292904272673E+00
 0.4485644882347E+00
 0.5655000416211E+00
 0.6754156275591E+00
 0.7789989872836E+00
 0.8734259987480E-01
 0.1962993821650E+00
 0.2655744469187E+00
 0.3053233726189E+00
 0.3241811553740E+00
 0.3279541947597E+00
 0.3198114778836E+00
 0.3007918123692E+00
 0.2704581509450E+00
 0.2276588082333E+00
 0.1714723652826E+00
 0.1028834509539E+00
 0.4174758184319E-01
 0.1005378460735E+00
 0.2062505658077E+00
 0.3225199603930E+00
 0.4424889712938E+00
 0.5599399863932E+00
 0.6689888078062E+00
 0.7700718350878E+00
 0.8164369638446E-01
 0.1915461704554E+00
 0.2596874948319E+00
 0.2979465397494E+00
 0.3159058515092E+00
 0.3197830720611E+00
 0.3128014697733E+00
 0.2958197765023E+00
 0.2680776967639E+00
 0.2280341156985E+00
 0.1743912210252E+00
 0.1077137314811E+00
 0.4372492439771E-01
 0.9328366945443E-01
 0.1976852137810E+00
 0.3137982917158E+00
 0.4344160799672E+00
 0.5526360840564E+00
 0.6607975080517E+00
 0.7583740312447E+00
 0.7521758842250E-01
 0.1852293678951E+00
 0.2515580183513E+00
 0.2879521550256E+00
 0.3049377800807E+00
 0.3090919493155E+00
 0.3036319307101E+00
 0.2891737721222E+00
 0.2645736902511E+00
 0.2278422842568E+00
 0.1772558723248E+00
 0.1129449178223E+00
 0.4703609562252E-01
 0.8518973165088E-01
 0.1876040304210E+00
 0.3030248511777E+00
 0.4240968148083E+00
 0.5435524803488E+00
 0.6512625982966E+00
 0.7442759288448E+00
 0.6793489871303E-01
 0.1770841712335E+00
 0.2408570153966E+00
 0.2749971444762E+00
 0.2909356322123E+00
 0.2955600031753E+00
 0.2920132248512E+00
 0.2806010032884E+00
 0.2597347512507E+00
 0.2269121935959E+00
 0.1799257112635E+00
 0.1184569745625E+00
 0.5169332872662E-01
 0.7653304713604E-01
 0.1761998093699E+00
 0.2902320757144E+00
 0.4110355148758E+00
 0.5323208880387E+00
 0.6409691378639E+00
 0.7286804001480E+00
 0.5962392176625E-01
 0.1667822844918E+00
 0.2272585997619E+00
 0.2587234790183E+00
 0.2735420228860E+00
 0.2788559081800E+00
 0.2776455995330E+00
 0.2698380184140E+00
 0.2533407193411E+00
 0.2250710040679E+00
 0.1822613570497E+00
 0.1241238859660E+00
 0.5755376888527E-01
 0.6768372164137E-01
 0.1637056654160E+00
 0.2757624093994E+00
 0.3949375382532E+00
 0.5171830157262E+00
 0.6306397559959E+00
 0.7139599566934E+00
 0.4990276651858E-01
 0.1541201980368E+00
 0.2104462635280E+00
 0.2387421001730E+00
 0.2523916300195E+00
 0.2586394373761E+00
 0.2602203298651E+00
 0.2566116375904E+00
 0.2451577047118E+00
 0.2221410782870E+00
 0.1841392884248E+00
 0.1298172925545E+00
 0.6437960362583E-01
 0.5913863874051E-01
 0.1503843936610E+00
 0.2599686790353E+00
 0.3767420747641E+00
 0.4960161100651E+00
 0.6148418877042E+00
 0.7090671228901E+00
 0.2851099265557E+01
 0.3342233142258E+01
 0.2323315854154E+01
 0.1773406205972E+01
 0.1405418069844E+01
 0.1135410338410E+01
 0.9211530309057E+00
 0.7441380183470E+00
 0.5940719115011E+00
 0.4654080723000E+00
 0.3542584694166E+00
 0.2573205915489E+00
 0.1794367862001E+00
 0.1227609192202E+00
 0.8294079617282E-01
 0.5595164135449E-01
 0.3678771807052E-01
 0.2221413535924E-01
 0.1047055180429E-01
 0.1145361765583E-02
 0.2187874881798E+01
 0.3287376256353E+01
 0.2596581745120E+01
 0.1971037976179E+01
 0.1556098771569E+01
 0.1256318485875E+01
 0.1023864627028E+01
 0.8340824054448E+00
 0.6744380599266E+00
 0.5378701904377E+00
 0.4198524468661E+00
 0.3180425937135E+00
 0.2354774202733E+00
 0.1715676799930E+00
 0.1224165923978E+00
 0.8537354263597E-01
 0.5668115182531E-01
 0.3346885317624E-01
 0.1433819144075E-01
 0.2832665174109E-02
 0.1741171889646E+01
 0.2844596778629E+01
 0.2621910302583E+01
 0.2113217151372E+01
 0.1684805950648E+01
 0.1366101519965E+01
 0.1118841121520E+01
 0.9182970891785E+00
 0.7502052475173E+00
 0.6065602648505E+00
 0.4825319230859E+00
 0.3756167315955E+00
 0.2871080121961E+00
 0.2161375958917E+00
 0.1590682904318E+00
 0.1132707230985E+00
 0.7594162812754E-01
 0.4483009867899E-01
 0.1897234007528E-01
 0.4157999715103E-02
 0.1422906157401E+01
 0.2430856161614E+01
 0.2473371659220E+01
 0.2153335396450E+01
 0.1775764332548E+01
 0.1457641274340E+01
 0.1203030433098E+01
 0.9949044646980E+00
 0.8201785212540E+00
 0.6706396350653E+00
 0.5413015550680E+00
 0.4294023813097E+00
 0.3350111306954E+00
 0.2572277729278E+00
 0.1928824219345E+00
 0.1393184731137E+00
 0.9425473684750E-01
 0.5596085695569E-01
 0.2385185087802E-01
 0.5415158882893E-02
 0.1185092293097E+01
 0.2073991061786E+01
 0.2267260652912E+01
 0.2105410547844E+01
 0.1814130503709E+01
 0.1523070173884E+01
 0.1272307236091E+01
 0.1061715076966E+01
 0.8829727029530E+00
 0.7291000693873E+00
 0.5953768245406E+00
 0.4789847382674E+00
 0.3791642715688E+00
 0.2950502576748E+00
 0.2239743456616E+00
 0.1633795742733E+00
 0.1113558756047E+00
 0.6652918556929E-01
 0.2854637812657E-01
 0.6753910940046E-02
 0.1002282163778E+01
 0.1773752432576E+01
 0.2047514732971E+01
 0.2004825767899E+01
 0.1802404003624E+01
 0.1556559243757E+01
 0.1322559713953E+01
 0.1116224116457E+01
 0.9370397605040E+00
 0.7808783228415E+00
 0.6440141407044E+00
 0.5239143897388E+00
 0.4193641522486E+00
 0.3295598844416E+00
 0.2523400538647E+00
 0.1853686071514E+00
 0.1270529124128E+00
 0.7627224370289E-01
 0.3281352757605E-01
 0.8258836507264E-02
 0.8588209380958E+00
 0.1522441550280E+01
 0.1833921447707E+01
 0.1875939566190E+01
 0.1752446396259E+01
 0.1558336146245E+01
 0.1351071388817E+01
 0.1156148548000E+01
 0.9807941817240E+00
 0.8248907693847E+00
 0.6864673227095E+00
 0.5637091952783E+00
 0.4553126486119E+00
 0.3605897559538E+00
 0.2778860193446E+00
 0.2051858015852E+00
 0.1412017907297E+00
 0.8501658098845E-01
 0.3650512518552E-01
 0.9990714766466E-02
 0.7444491855196E+00
 0.1312104657672E+01
 0.1634895600057E+01
 0.1734542502778E+01
 0.1676101140097E+01
 0.1532883203867E+01
 0.1357688049359E+01
 0.1180071092027E+01
 0.1012902489383E+01
 0.8601226554966E+00
 0.7220124225274E+00
 0.5978739409170E+00
 0.4866679576355E+00
 0.3879103493100E+00
 0.3004639628049E+00
 0.2227135903828E+00
 0.1536863925737E+00
 0.9264925078327E-01
 0.3954093947101E-01
 0.1199901619256E-01
 0.6520996491731E+00
 0.1135755237669E+01
 0.1453624849091E+01
 0.1590434430688E+01
 0.1583136938487E+01
 0.1486027612844E+01
 0.1344363477958E+01
 0.1187850942950E+01
 0.1032586502493E+01
 0.8857833996378E+00
 0.7500143611158E+00
 0.6259407967875E+00
 0.5130831859994E+00
 0.4112685832120E+00
 0.3198981717682E+00
 0.2378232777433E+00
 0.1644058955065E+00
 0.9909656550122E-01
 0.4188851123145E-01
 0.1431579000713E-01
 0.5767292044813E+00
 0.9875623257784E+00
 0.1290755865004E+01
 0.1449575360516E+01
 0.1480978621671E+01
 0.1423507779741E+01
 0.1314165519972E+01
 0.1180496893858E+01
 0.1039792379127E+01
 0.9014559450958E+00
 0.7700186153504E+00
 0.6475248931941E+00
 0.5342467690355E+00
 0.4304203696037E+00
 0.3360084807016E+00
 0.2503831062971E+00
 0.1732680106714E+00
 0.1043085274938E+00
 0.4355020198321E-01
 0.1694853416454E-01
 0.5146392546052E+00
 0.8627316625674E+00
 0.1145700164228E+01
 0.1315476871343E+01
 0.1375050534523E+01
 0.1350360913616E+01
 0.1270533780570E+01
 0.1159787284278E+01
 0.1035150505548E+01
 0.9071755049921E+00
 0.7818321599170E+00
 0.6623849837147E+00
 0.5499260113173E+00
 0.4451628047018E+00
 0.3486320631509E+00
 0.2602672794575E+00
 0.1801851071168E+00
 0.1082470744562E+00
 0.4455352917100E-01
 0.1987534303359E-01
 0.4630577310153E+00
 0.7573347732236E+00
 0.1017289565265E+01
 0.1190088954578E+01
 0.1269210275619E+01
 0.1270752659001E+01
 0.1216826788623E+01
 0.1127899161948E+01
 0.1019811566463E+01
 0.9034147732956E+00
 0.7855651184568E+00
 0.6704726462166E+00
 0.5600089842110E+00
 0.4553667602727E+00
 0.3576462227631E+00
 0.2673666297372E+00
 0.1850721345009E+00
 0.1108753069885E+00
 0.4494245558847E-01
 0.2304220722656E-01
 0.4198700119723E+00
 0.6681480310626E+00
 0.9041167500844E+00
 0.1074362258179E+01
 0.1166133862566E+01
 0.1188002581838E+01
 0.1156088874954E+01
 0.1087126107877E+01
 0.9952545304542E+00
 0.8910043866181E+00
 0.7816245468790E+00
 0.6719572683884E+00
 0.5645370678141E+00
 0.4610076734545E+00
 0.3629929618742E+00
 0.2716022642684E+00
 0.1878462247899E+00
 0.1121454892533E+00
 0.4476676168140E-01
 0.2636062316465E-01
 0.3834391622230E+00
 0.5925171678377E+00
 0.8047146625512E+00
 0.9686084080807E+00
 0.1067621809496E+01
 0.1104685363670E+01
 0.1090954034327E+01
 0.1039692053426E+01
 0.9631160338499E+00
 0.8710270522297E+00
 0.7706711525742E+00
 0.6672228627938E+00
 0.5637218727609E+00
 0.4621910555973E+00
 0.3647056388818E+00
 0.2729444928972E+00
 0.1884295426507E+00
 0.1119840348594E+00
 0.4406578999871E-01
 0.2970432410630E-01
 0.3524818245767E+00
 0.5282472680420E+00
 0.7176507437382E+00
 0.8727340284052E+00
 0.9748323358767E+00
 0.1022751093970E+01
 0.1023627638086E+01
 0.9876418287809E+00
 0.9250587958412E+00
 0.8447121370509E+00
 0.7535558592724E+00
 0.6568406447867E+00
 0.5579431348315E+00
 0.4591689455291E+00
 0.3629378852309E+00
 0.2714421451254E+00
 0.1867603762307E+00
 0.1102733695820E+00
 0.4284102041485E-01
 0.3290585784992E-01
 0.3259796873979E+00
 0.4735143854005E+00
 0.6415750968418E+00
 0.7863952609088E+00
 0.8884561154794E+00
 0.9436404911967E+00
 0.9559085049440E+00
 0.9327857954616E+00
 0.8826794529035E+00
 0.8133448584193E+00
 0.7312509243965E+00
 0.6415253630318E+00
 0.5477262073621E+00
 0.4523405835186E+00
 0.3579936072647E+00
 0.2672706913360E+00
 0.1828281425006E+00
 0.1068345665508E+00
 0.4101138732816E-01
 0.3575914401321E-01
 0.3031138832972E+00
 0.4267938620663E+00
 0.5752445461276E+00
 0.7091016964288E+00
 0.8088468398491E+00
 0.8683858425012E+00
 0.8892294881493E+00
 0.8766796548678E+00
 0.8374492451918E+00
 0.7781949791765E+00
 0.7047860417357E+00
 0.6220848310824E+00
 0.5337023998908E+00
 0.4422233485876E+00
 0.3503399454835E+00
 0.2608149836882E+00
 0.1767630667209E+00
 0.1014436729289E+00
 0.3834260190782E-01
 0.3804567003426E-01
 0.2832113860956E+00
 0.3868044065807E+00
 0.5175341906350E+00
 0.6402909126011E+00
 0.7361165644902E+00
 0.7976959594720E+00
 0.8247047514070E+00
 0.8206257224126E+00
 0.7906790311644E+00
 0.7404643064618E+00
 0.6751950085268E+00
 0.5993733619784E+00
 0.5165619933338E+00
 0.4293943391279E+00
 0.3405386068048E+00
 0.2527351151436E+00
 0.1691087293075E+00
 0.9394145091419E-01
 0.3443491857096E-01
 0.3966726885329E-01
 0.2656983905473E+00
 0.3524459478871E+00
 0.4674745464519E+00
 0.5793711285852E+00
 0.6702039857706E+00
 0.7320272309091E+00
 0.7631777794167E+00
 0.7656870453545E+00
 0.7435004989700E+00
 0.7012479043312E+00
 0.6434747453702E+00
 0.5742563244342E+00
 0.4970213497951E+00
 0.4144257484713E+00
 0.3291105354753E+00
 0.2437133726961E+00
 0.1611115870107E+00
 0.8524510335910E-01
 0.2893976456280E-01
 0.4106741551954E-01
 0.2499093650846E+00
 0.3229910223664E+00
 0.4242495266180E+00
 0.5257299985434E+00
 0.6109288609948E+00
 0.6716417931245E+00
 0.7052685777232E+00
 0.7127095301183E+00
 0.6968588832026E+00
 0.6615001252722E+00
 0.6105477840147E+00
 0.5475966963147E+00
 0.4758134621691E+00
 0.3978755424606E+00
 0.3164292457622E+00
 0.2341007643098E+00
 0.1535723899130E+00
 0.7839252661072E-01
 0.2626365654824E-01
 0.4686983951612E-01
 0.3750049128717E-01
 0.1385189479482E+00
 0.1890300163586E+00
 0.2129880764690E+00
 0.2247538180173E+00
 0.2317318234762E+00
 0.2362626845898E+00
 0.2371446328376E+00
 0.2308923452874E+00
 0.2130143781303E+00
 0.1793861542162E+00
 0.1282584305921E+00
 0.6489531149456E-01
 0.5746069841124E-01
 0.1470039529542E+00
 0.2554530730538E+00
 0.3706672780973E+00
 0.4878450940367E+00
 0.6073273700598E+00
 0.7508972033463E+00
 0.2533699607380E-01
 0.1203860210599E+00
 0.1633498352174E+00
 0.1814946547528E+00
 0.1906217928763E+00
 0.1982312386046E+00
 0.2061179269532E+00
 0.2121929910423E+00
 0.2119300087706E+00
 0.1997560348526E+00
 0.1704931627107E+00
 0.1218609561954E+00
 0.6050402355206E-01
 0.6371806269245E-01
 0.1567817633103E+00
 0.2674396779395E+00
 0.3847464910491E+00
 0.5053196921765E+00
 0.6359195262129E+00
 0.7767583750664E+00
 0.1156003952928E-01
 0.9774190507146E-01
 0.1313712700006E+00
 0.1430403607792E+00
 0.1497806580510E+00
 0.1589929740851E+00
 0.1716700192780E+00
 0.1846051575884E+00
 0.1920180915942E+00
 0.1870419951108E+00
 0.1632574985120E+00
 0.1177473508680E+00
 0.5839960497730E-01
 0.6865809105057E-01
 0.1646575201543E+00
 0.2781961599849E+00
 0.3991836089996E+00
 0.5260003374228E+00
 0.6603331913762E+00
 0.7883645075117E+00
 0.6077869135770E-02
 0.7003190527369E-01
 0.9231594103040E-01
 0.9690326001684E-01
 0.1017463851360E+00
 0.1138110079431E+00
 0.1329703640534E+00
 0.1546216414068E+00
 0.1715066056020E+00
 0.1752603261229E+00
 0.1579921421710E+00
 0.1160205682803E+00
 0.5826676574441E-01
 0.7228825597424E-01
 0.1711577626181E+00
 0.2881827314670E+00
 0.4133832185401E+00
 0.5438467181949E+00
 0.6762271887750E+00
 0.7947984430813E+00
 0.2443421028109E-01
 0.3694023590967E-01
 0.4565446889713E-01
 0.4259405478904E-01
 0.4615289417486E-01
 0.6258411862577E-01
 0.9018977044123E-01
 0.1225911241409E+00
 0.1508271043294E+00
 0.1648357181863E+00
 0.1550038649534E+00
 0.1167672966973E+00
 0.5986752929336E-01
 0.7475097452200E-01
 0.1764347316853E+00
 0.2969472454708E+00
 0.4252287944213E+00
 0.5566454974443E+00
 0.6852824007051E+00
 0.7966021350133E+00
 0.4664369414494E-01
 0.1471063389278E-01
 0.1672130992483E-01
 0.2353433326016E-01
 0.1826103923363E-01
 0.5376756555400E-02
 0.4367285922503E-01
 0.8899172955840E-01
 0.1304850661494E+00
 0.1562190911316E+00
 0.1545878026071E+00
 0.1200490270012E+00
 0.6308213923692E-01
 0.7619638474514E-01
 0.1803907492379E+00
 0.3037633853910E+00
 0.4336440389899E+00
 0.5641280062822E+00
 0.6881600792347E+00
 0.7933771545105E+00
 0.7281209386951E-01
 0.5830213501101E-01
 0.7997787647047E-01
 0.9635292616616E-01
 0.8968461635909E-01
 0.5766909086170E-01
 0.7184338043824E-02
 0.5447735307268E-01
 0.1110462840155E+00
 0.1498649000487E+00
 0.1570031290428E+00
 0.1258816549566E+00
 0.6786573634213E-01
 0.7682132985760E-01
 0.1829228491845E+00
 0.3082281623210E+00
 0.4382405318829E+00
 0.5662841239593E+00
 0.6850738888166E+00
 0.7845050886089E+00
 0.1036651226797E+00
 0.1173964878637E+00
 0.1579278380363E+00
 0.1806139352697E+00
 0.1696239570757E+00
 0.1259923192645E+00
 0.5894581877187E-01
 0.2032984164724E-01
 0.9310765411914E-01
 0.1461929638137E+00
 0.1624331708507E+00
 0.1341909755932E+00
 0.7414767732834E-01
 0.7692674096453E-01
 0.1840802310605E+00
 0.3102165811319E+00
 0.4388955343613E+00
 0.5631322853329E+00
 0.6759703530807E+00
 0.7693941593305E+00
 0.1401358776245E+00
 0.1885415204037E+00
 0.2488788559434E+00
 0.2759409099401E+00
 0.2574260431781E+00
 0.1988511474621E+00
 0.1131173214626E+00
 0.1731151448929E-01
 0.7724530772698E-01
 0.1455321720598E+00
 0.1709283092441E+00
 0.1447516557948E+00
 0.8172424618701E-01
 0.7692394944985E-01
 0.1840574851454E+00
 0.3097591166406E+00
 0.4355863218413E+00
 0.5546489898168E+00
 0.6606781079344E+00
 0.7475412152257E+00
 0.1833963248681E+00
 0.2733804296831E+00
 0.3539298934276E+00
 0.3824488084468E+00
 0.3523464944592E+00
 0.2750845550512E+00
 0.1678879798989E+00
 0.4945807062983E-01
 0.6393280238778E-01
 0.1480433265753E+00
 0.1823348598543E+00
 0.1571252528819E+00
 0.9018814709732E-01
 0.7726999304674E-01
 0.1831365821001E+00
 0.3069460502417E+00
 0.4283026604938E+00
 0.5407662710398E+00
 0.6389955435875E+00
 0.7185664849021E+00
 0.2349320192263E+00
 0.3741877477971E+00
 0.4742725954674E+00
 0.4998829373152E+00
 0.4530916479687E+00
 0.3530663870216E+00
 0.2218716426514E+00
 0.8036442038169E-01
 0.5342487204340E-01
 0.1536201593159E+00
 0.1962172897029E+00
 0.1706111062083E+00
 0.9891635412657E-01
 0.7836534197545E-01
 0.1816106913892E+00
 0.3018466101566E+00
 0.4169966131120E+00
 0.5213835527719E+00
 0.6107538702414E+00
 0.6822465616811E+00
 0.2966555649022E+00
 0.4937441458966E+00
 0.6109644877012E+00
 0.6273448787993E+00
 0.5576003648785E+00
 0.4306304307420E+00
 0.2735395522304E+00
 0.1086206509047E+00
 0.4561108363310E-01
 0.1617720498997E+00
 0.2117832989525E+00
 0.1842202335654E+00
 0.1071159926285E+00
 0.8046274101734E-01
 0.1796956033767E+00
 0.2944353312437E+00
 0.4015490009049E+00
 0.4963875776177E+00
 0.5758715756711E+00
 0.6385562859485E+00
 0.3710773388664E+00
 0.6354031730844E+00
 0.7646933846357E+00
 0.7629227861156E+00
 0.6627816846204E+00
 0.5050355035341E+00
 0.3213512561885E+00
 0.1338788632670E+00
 0.3985370007172E-01
 0.1714987042976E+00
 0.2278208681009E+00
 0.1966788406123E+00
 0.1139232264173E+00
 0.8363574265034E-01
 0.1774318657416E+00
 0.2845241132305E+00
 0.3817517178388E+00
 0.4656851465860E+00
 0.5344140717255E+00
 0.5877237391950E+00
 0.4615696302969E+00
 0.8031910078353E+00
 0.9353623947255E+00
 0.9031245233333E+00
 0.7642153264538E+00
 0.5730392370343E+00
 0.3640277290457E+00
 0.1565097283790E+00
 0.3482162579572E-01
 0.1811708132541E+00
 0.2426501471635E+00
 0.2064670705028E+00
 0.1185597680544E+00
 0.8781144454600E-01
 0.1745866509984E+00
 0.2717124092122E+00
 0.3573207645725E+00
 0.4292647673572E+00
 0.4866735472451E+00
 0.5303044854032E+00
 0.5727926728865E+00
 0.1001881650584E+01
 0.1121282407242E+01
 0.1042000766807E+01
 0.8558952590100E+00
 0.6312236864183E+00
 0.4009939647459E+00
 0.1778533489171E+00
 0.2834301280614E-01
 0.1884156459325E+00
 0.2540789505563E+00
 0.2119040721560E+00
 0.1205666043891E+00
 0.9281407916305E-01
 0.1705855275588E+00
 0.2553961421420E+00
 0.3279803185537E+00
 0.3873196551531E+00
 0.4332936254241E+00
 0.4672894298949E+00
 0.7114191605709E+00
 0.1236888133065E+01
 0.1317529246982E+01
 0.1169804286864E+01
 0.9303290735913E+00
 0.6767940926063E+00
 0.4329558064837E+00
 0.2003745414096E+00
 0.1741076579597E-01
 0.1899563828897E+00
 0.2593355522199E+00
 0.2113135902869E+00
 0.1201444053801E+00
 0.9837774880322E-01
 0.1645702291436E+00
 0.2349451398276E+00
 0.2937083047714E+00
 0.3404988639582E+00
 0.3754887387244E+00
 0.4002929829083E+00
 0.8874836983956E+00
 0.1513527319557E+01
 0.1512214200475E+01
 0.1271384975900E+01
 0.9797041918146E+00
 0.7092370624197E+00
 0.4621100765401E+00
 0.2275071147661E+00
 0.6946318107983E-02
 0.1812836555142E+00
 0.2549482227233E+00
 0.2033653270754E+00
 0.1186132768339E+00
 0.1042652291501E+00
 0.1558816506933E+00
 0.2103327930403E+00
 0.2553535064455E+00
 0.2904239004895E+00
 0.3154893758588E+00
 0.3319301502984E+00
 0.1117040363741E+01
 0.1832695517690E+01
 0.1678754819561E+01
 0.1324649542801E+01
 0.1001454208773E+01
 0.7313033110777E+00
 0.4912747591240E+00
 0.2633035120544E+00
 0.3997914417376E-01
 0.1559274931388E+00
 0.2365469643034E+00
 0.1878662019068E+00
 0.1189193161184E+00
 0.1111370059392E+00
 0.1458123685981E+00
 0.1839333852031E+00
 0.2160761883725E+00
 0.2408338664707E+00
 0.2575041422020E+00
 0.2667625744354E+00
 0.1429771154985E+01
 0.2178452160150E+01
 0.1746932719230E+01
 0.1319810093920E+01
 0.1003069472226E+01
 0.7465797442476E+00
 0.5226435301520E+00
 0.3118453433772E+00
 0.9892244121540E-01
 0.1037575951436E+00
 0.1986851575135E+00
 0.1676540721299E+00
 0.1264998105485E+00
 0.1235408416022E+00
 0.1420169378002E+00
 0.1645246068057E+00
 0.1845479697732E+00
 0.1999398665989E+00
 0.2098261267730E+00
 0.2131204704743E+00
 0.1879094958989E+01
 0.2302334439062E+01
 0.1670925603265E+01
 0.1282849995039E+01
 0.9924116200353E+00
 0.7579449950057E+00
 0.5567582877522E+00
 0.3755063059100E+00
 0.1938985997647E+00
 0.8874984919643E-02
 0.1350998568737E+00
 0.1550524953255E+00
 0.1513992332127E+00
 0.1537541132330E+00
 0.1615375147749E+00
 0.1703049662603E+00
 0.1782453138361E+00
 0.1837360007248E+00
 0.1860882867961E+00
 0.1849260674406E+00
 0.1144080216022E+00
 0.1122625442247E+00
 0.1031493941391E+00
 0.9368971444087E-01
 0.8469938115308E-01
 0.7620019022435E-01
 0.6811829129388E-01
 0.6040469422496E-01
 0.5304537711012E-01
 0.4604979507360E-01
 0.3943877438700E-01
 0.3323484794979E-01
 0.2745495923887E-01
 0.2210504835907E-01
 0.1717670372304E-01
 0.1264721673712E-01
 0.8490536674865E-02
 0.4731735009737E-02
 0.2094108910842E-02
 0.3525762494721E-02
 0.1388988001077E+00
 0.1338215725693E+00
 0.1285507523765E+00
 0.1217010276089E+00
 0.1140113367465E+00
 0.1059094857235E+00
 0.9761799118721E-01
 0.8925834952408E-01
 0.8091188861586E-01
 0.7264432173139E-01
 0.6451370222057E-01
 0.5657157289888E-01
 0.4886198130177E-01
 0.4142064867822E-01
 0.3427585284740E-01
 0.2745329446963E-01
 0.2098751743296E-01
 0.1496312273828E-01
 0.9564294596324E-02
 0.6073842936285E-02
 0.1674513358813E+00
 0.1595602199212E+00
 0.1546466767500E+00
 0.1492526707653E+00
 0.1427304918615E+00
 0.1352249797209E+00
 0.1269732135427E+00
 0.1181783601000E+00
 0.1089991863960E+00
 0.9956319981877E-01
 0.8997783670925E-01
 0.8033724421752E-01
 0.7072638614940E-01
 0.6122460687315E-01
 0.5191076127472E-01
 0.4287148762485E-01
 0.3421943526900E-01
 0.2611455538914E-01
 0.1891037302391E-01
 0.1294132069296E-01
 0.1973047454380E+00
 0.1889485800840E+00
 0.1833018176729E+00
 0.1780761475739E+00
 0.1720391272384E+00
 0.1648651737611E+00
 0.1566014511934E+00
 0.1474040940392E+00
 0.1374454811333E+00
 0.1268875221237E+00
 0.1158779360826E+00
 0.1045527623361E+00
 0.9304032536985E-01
 0.8146605855472E-01
 0.6995876226168E-01
 0.5865985237335E-01
 0.4773312174561E-01
 0.3738549039482E-01
 0.2781432438016E-01
 0.1907223131142E-01
 0.2274087285340E+00
 0.2200075271164E+00
 0.2141471961017E+00
 0.2087057478629E+00
 0.2026533082439E+00
 0.1954643030661E+00
 0.1869988493096E+00
 0.1773127290616E+00
 0.1665426515882E+00
 0.1548525376462E+00
 0.1424118343433E+00
 0.1293885027784E+00
 0.1159483592000E+00
 0.1022575459298E+00
 0.8848727423511E-01
 0.7481982193808E-01
 0.6145578520826E-01
 0.4860588619158E-01
 0.3645215267007E-01
 0.2506476348466E-01
 0.2576286606662E+00
 0.2518879099528E+00
 0.2464385256515E+00
 0.2409534278522E+00
 0.2347513595580E+00
 0.2273430644249E+00
 0.2185060153815E+00
 0.2082149984344E+00
 0.1965593295614E+00
 0.1836871883513E+00
 0.1697748009154E+00
 0.1550111736712E+00
 0.1395914459538E+00
 0.1237150175578E+00
 0.1075865003507E+00
 0.9141869838385E-01
 0.7543499199570E-01
 0.5986998342847E-01
 0.4496760934780E-01
 0.3095637071586E-01
 0.2879735653238E+00
 0.2842083190962E+00
 0.2796702008524E+00
 0.2744614293690E+00
 0.2682119962288E+00
 0.2605509922557E+00
 0.2512596383584E+00
 0.2402764752056E+00
 0.2276573899131E+00
 0.2135340676349E+00
 0.1980838790654E+00
 0.1815107985795E+00
 0.1640340149321E+00
 0.1458813733274E+00
 0.1272859269209E+00
 0.1084846119495E+00
 0.8971968839410E-01
 0.7124687833717E-01
 0.5336629413656E-01
 0.3650651453479E-01
 0.3184692220654E+00
 0.3168114014331E+00
 0.3135320709672E+00
 0.3089188695682E+00
 0.3028167268900E+00
 0.2949796496540E+00
 0.2852319096085E+00
 0.2735117207667E+00
 0.2598624036999E+00
 0.2444080984969E+00
 0.2273298630310E+00
 0.2088468072612E+00
 0.1892021603817E+00
 0.1686529753741E+00
 0.1474623106272E+00
 0.1258934883859E+00
 0.1042074501886E+00
 0.8266807652432E-01
 0.6156855517818E-01
 0.4135628218509E-01
 0.3491370051746E+00
 0.3496527463796E+00
 0.3478713297137E+00
 0.3441257481442E+00
 0.3383847103403E+00
 0.3304994515929E+00
 0.3203450539402E+00
 0.3078774449017E+00
 0.2931433905406E+00
 0.2762700529657E+00
 0.2574485090870E+00
 0.2369173337128E+00
 0.2149480288235E+00
 0.1918322766409E+00
 0.1678705478486E+00
 0.1433617365038E+00
 0.1185939297381E+00
 0.9383669003055E-01
 0.6933530337839E-01
 0.4529140125835E-01
 0.3800262142179E+00
 0.3827752366982E+00
 0.3826837842023E+00
 0.3800495552708E+00
 0.3748946413269E+00
 0.3671310064213E+00
 0.3566742174065E+00
 0.3435007528984E+00
 0.3276674831122E+00
 0.3093107961476E+00
 0.2886365687437E+00
 0.2659068033700E+00
 0.2414253652492E+00
 0.2155235278944E+00
 0.1885452939962E+00
 0.1608320813829E+00
 0.1327056708143E+00
 0.1044457329867E+00
 0.7624979629785E-01
 0.4810542092007E-01
 0.4111156671727E+00
 0.4161452423621E+00
 0.4179029118031E+00
 0.4166002248520E+00
 0.4122600393743E+00
 0.4048192731661E+00
 0.3942154529075E+00
 0.3804382778566E+00
 0.3635528559592E+00
 0.3437049322367E+00
 0.3211159904621E+00
 0.2960729232070E+00
 0.2689146092873E+00
 0.2400163528891E+00
 0.2097724176999E+00
 0.1785763777017E+00
 0.1467980145856E+00
 0.1147532222526E+00
 0.8265491701242E-01
 0.5053849647850E-01
 0.4423433749507E+00
 0.4497056612346E+00
 0.4534528430331E+00
 0.4536855289806E+00
 0.4503892770186E+00
 0.4434942504545E+00
 0.4329383890426E+00
 0.4187112551646E+00
 0.4008779444957E+00
 0.3795882092283E+00
 0.3550757372772E+00
 0.3276508928690E+00
 0.2976887326328E+00
 0.2656131669454E+00
 0.2318776721833E+00
 0.1969427183208E+00
 0.1612498335525E+00
 0.1251915970344E+00
 0.8907986183394E-01
 0.5313344891558E-01
 0.4736246856954E+00
 0.4833903503968E+00
 0.4892644470035E+00
 0.4912296120513E+00
 0.4892088716893E+00
 0.4830992885441E+00
 0.4728175206934E+00
 0.4583363516635E+00
 0.4397080880753E+00
 0.4170765172015E+00
 0.3906800270886E+00
 0.3608478113292E+00
 0.3279902201723E+00
 0.2925837793651E+00
 0.2551512845949E+00
 0.2162376629430E+00
 0.1763829333564E+00
 0.1360953240882E+00
 0.9583251128865E-01
 0.5600555597903E-01
 0.5048565280386E+00
 0.5171150577054E+00
 0.5252591536066E+00
 0.5291547791206E+00
 0.5286468073308E+00
 0.5235784116008E+00
 0.5138246977003E+00
 0.4993235495393E+00
 0.4800985273005E+00
 0.4562734868638E+00
 0.4280798079272E+00
 0.3958569156323E+00
 0.3600462781451E+00
 0.3211787805906E+00
 0.2798555505429E+00
 0.2367230455061E+00
 0.1924446145262E+00
 0.1476729771042E+00
 0.1030304962744E+00
 0.5910406765060E-01
 0.5359206291729E+00
 0.5507749680529E+00
 0.5613397904414E+00
 0.5673688002359E+00
 0.5686194299980E+00
 0.5648650736552E+00
 0.5559211872146E+00
 0.5416723181762E+00
 0.5220951036361E+00
 0.4972759194057E+00
 0.4674229366181E+00
 0.4328722510167E+00
 0.3940873289837E+00
 0.3516507562069E+00
 0.3062475074024E+00
 0.2586399160166E+00
 0.2096362929319E+00
 0.1600573184934E+00
 0.1107056808239E+00
 0.6234315435725E-01
 0.5666844928404E+00
 0.5842436925592E+00
 0.5973850782908E+00
 0.6057555443472E+00
 0.6090200660190E+00
 0.6068705172719E+00
 0.5990471365560E+00
 0.5853632214242E+00
 0.5657288800316E+00
 0.5401722378240E+00
 0.5088572465595E+00
 0.4720970266681E+00
 0.4303610855128E+00
 0.3842742261228E+00
 0.3346048941038E+00
 0.2822414995939E+00
 0.2281571469801E+00
 0.1733659393675E+00
 0.1188762834086E+00
 0.6564661948101E-01
 0.5970018538960E+00
 0.6173735688642E+00
 0.6332474042003E+00
 0.6441697015528E+00
 0.6497113008549E+00
 0.6494745897316E+00
 0.6431119108203E+00
 0.6303487376685E+00
 0.6110084852208E+00
 0.5850375778724E+00
 0.5525298037496E+00
 0.5137485386255E+00
 0.4691444943802E+00
 0.4193655560487E+00
 0.3652544380508E+00
 0.3078299243175E+00
 0.2482490496692E+00
 0.1877512453856E+00
 0.1275907219598E+00
 0.6896687774211E-01
 0.6267120604319E+00
 0.6499945629323E+00
 0.6687498526185E+00
 0.6824311867014E+00
 0.6905167220842E+00
 0.6925152150905E+00
 0.6879819273583E+00
 0.6765403208010E+00
 0.6579076011361E+00
 0.6319233605007E+00
 0.5985807200612E+00
 0.5580587377442E+00
 0.5107535468679E+00
 0.4573038450528E+00
 0.3986042606100E+00
 0.3357985218094E+00
 0.2702446003322E+00
 0.2034476758888E+00
 0.1369656911925E+00
 0.7230546479783E-01
 0.6556393543062E+00
 0.6819128885671E+00
 0.7036830362971E+00
 0.7203193311138E+00
 0.7312119430632E+00
 0.7357760933288E+00
 0.7334652090967E+00
 0.7237903837681E+00
 0.7063455236926E+00
 0.6808383607379E+00
 0.6471275911896E+00
 0.6052657558766E+00
 0.5555459987964E+00
 0.4985483176113E+00
 0.4351772562692E+00
 0.3666786972233E+00
 0.2946202319899E+00
 0.2208209595892E+00
 0.1472256399069E+00
 0.7574272120639E-01
 0.6835920184535E+00
 0.7129091165692E+00
 0.7378017366879E+00
 0.7575669577625E+00
 0.7715152202874E+00
 0.7789732382625E+00
 0.7792935070619E+00
 0.7718701171422E+00
 0.7561615125418E+00
 0.7317215217834E+00
 0.6982401768148E+00
 0.6555954984692E+00
 0.6039162289033E+00
 0.5436528480546E+00
 0.4756492979594E+00
 0.4012001216290E+00
 0.3220684057862E+00
 0.2404336595775E+00
 0.1587441723106E+00
 0.7946680120676E-01
 0.7103611072891E+00
 0.7427377037831E+00
 0.7708233608938E+00
 0.7938559578682E+00
 0.8110785051869E+00
 0.8217397650562E+00
 0.8250991574783E+00
 0.8204370382199E+00
 0.8070723676612E+00
 0.7843902358300E+00
 0.7518821970060E+00
 0.7092026842538E+00
 0.6562445291995E+00
 0.5932349631697E+00
 0.5208488702687E+00
 0.4403259045308E+00
 0.3535604168948E+00
 0.2631116202549E+00
 0.1720703148947E+00
 0.8373643519267E-01
 0.7357241760353E+00
 0.7711334654785E+00
 0.8024345935554E+00
 0.8288219480061E+00
 0.8494865587376E+00
 0.8636152529643E+00
 0.8703898375070E+00
 0.8689899028782E+00
 0.8586023838400E+00
 0.8384412628509E+00
 0.8077815817482E+00
 0.7660131434804E+00
 0.7127206335523E+00
 0.6477976767186E+00
 0.5716008228662E+00
 0.4851416513907E+00
 0.3902921629589E+00
 0.2899336726223E+00
 0.1879275489188E+00
 0.8878237921512E-01
 0.7594556811719E+00
 0.7978181979258E+00
 0.8322978198672E+00
 0.8620591286793E+00
 0.8862584357891E+00
 0.9040410330471E+00
 0.9145338295011E+00
 0.9168390378873E+00
 0.9100329641882E+00
 0.8931736287092E+00
 0.8653218706243E+00
 0.8255826319125E+00
 0.7731762809827E+00
 0.7075540572635E+00
 0.6285762996102E+00
 0.5367739274184E+00
 0.4337023944535E+00
 0.3223375614383E+00
 0.2073324179985E+00
 0.9483037743157E-01
 0.7813279461854E+00
 0.8225038404604E+00
 0.8600540675760E+00
 0.8931238855764E+00
 0.9208519762713E+00
 0.9423651916156E+00
 0.9567639469139E+00
 0.9631059081073E+00
 0.9603924686024E+00
 0.9475613012446E+00
 0.9234889356725E+00
 0.8870097061647E+00
 0.8369618326885E+00
 0.7722786725368E+00
 0.6921546981870E+00
 0.5963327567091E+00
 0.4855793213008E+00
 0.3624123503775E+00
 0.2319568958885E+00
 0.1023550898931E+00
 0.8011119081523E+00
 0.8448962972080E+00
 0.8853287597394E+00
 0.9215416923778E+00
 0.9526712491780E+00
 0.9778491401936E+00
 0.9961803334853E+00
 0.1006716856325E+01
 0.1008432237940E+01
 0.1000198589772E+01
 0.9807682318294E+00
 0.9487637142928E+00
 0.9026843829999E+00
 0.8409457347179E+00
 0.7619829277046E+00
 0.6644788399416E+00
 0.5478324053655E+00
 0.4130912230356E+00
 0.2646860919217E+00
 0.1125409773255E+00
 0.8185813837274E+00
 0.8647020657845E+00
 0.9077412470454E+00
 0.9468192608646E+00
 0.9810809852660E+00
 0.1009683413778E+01
 0.1031765144917E+01
 0.1046411312356E+01
 0.1052618328975E+01
 0.1049258514035E+01
 0.1035043465299E+01
 0.1008485762508E+01
 0.9678611402737E+00
 0.9111788023611E+00
 0.8361794808503E+00
 0.7404074683374E+00
 0.6214676705144E+00
 0.4777393829704E+00
 0.3103572010778E+00
 0.1282432071240E+00
 0.8335189589990E+00
 0.8816374368881E+00
 0.9269176793830E+00
 0.9684619679749E+00
 0.1005429764032E+01
 0.1037017762176E+01
 0.1062419665324E+01
 0.1080783474551E+01
 0.1091170272887E+01
 0.1092512341923E+01
 0.1083566206477E+01
 0.1062855540249E+01
 0.1028598780794E+01
 0.9786167899558E+00
 0.9102181195710E+00
 0.8200675851899E+00
 0.7040699877515E+00
 0.5573960810819E+00
 0.3751115172637E+00
 0.1566536451951E+00
 0.8457232068375E+00
 0.8954399063735E+00
 0.9425073191767E+00
 0.9859969802408E+00
 0.1025083260565E+01
 0.1059008856368E+01
 0.1087031215944E+01
 0.1108372368547E+01
 0.1122175065187E+01
 0.1127460556285E+01
 0.1123080780029E+01
 0.1107656410787E+01
 0.1079490119908E+01
 0.1036440060652E+01
 0.9757301200853E+00
 0.8936569562866E+00
 0.7851204039028E+00
 0.6428293358524E+00
 0.4558141477449E+00
 0.2063198401932E+00
 0.8550175130801E+00
 0.9058824829684E+00
 0.9542029883606E+00
 0.9990029893278E+00
 0.1039469030056E+01
 0.1074888642971E+01
 0.1104576744270E+01
 0.1127816008911E+01
 0.1143810996889E+01
 0.1151647716224E+01
 0.1150248546864E+01
 0.1138311575291E+01
 0.1114220676160E+01
 0.1075905824289E+01
 0.1020618223400E+01
 0.9445532186843E+00
 0.8421822671034E+00
 0.7049686332508E+00
 0.5186191957602E+00
 0.2545992755591E+00
 0.8612609237978E+00
 0.9127904606217E+00
 0.9617646320349E+00
 0.1007144626969E+01
 0.1048129720786E+01
 0.1084049048882E+01
 0.1114258953583E+01
 0.1138070874754E+01
 0.1154702272644E+01
 0.1163236293566E+01
 0.1162576326462E+01
 0.1151382222024E+01
 0.1127972870150E+01
 0.1090172993761E+01
 0.1035067126835E+01
 0.9585932773418E+00
 0.8548464760072E+00
 0.7148260256205E+00
 0.5240298758111E+00
 0.2583679659228E+00
 0.8643620525844E+00
 0.9160625712564E+00
 0.9650476582632E+00
 0.1010211743271E+01
 0.1050780752432E+01
 0.1086129679603E+01
 0.1115642450864E+01
 0.1138627613626E+01
 0.1154268508493E+01
 0.1161585124139E+01
 0.1159389940856E+01
 0.1146223728614E+01
 0.1120257574320E+01
 0.1079143737810E+01
 0.1019789621734E+01
 0.9380158312241E+00
 0.8280416665780E+00
 0.6817542109548E+00
 0.4879080115907E+00
 0.2345158121359E+00
 0.8642971119039E+00
 0.9156969480623E+00
 0.9640339774136E+00
 0.1008156394191E+01
 0.1047355496615E+01
 0.1081071355475E+01
 0.1108711906788E+01
 0.1129564258689E+01
 0.1142753494229E+01
 0.1147215779182E+01
 0.1141665540095E+01
 0.1124545138275E+01
 0.1093949549751E+01
 0.1047520271491E+01
 0.9823047729336E+00
 0.8945856673880E+00
 0.7797165856867E+00
 0.6321068761073E+00
 0.4460306480990E+00
 0.2198185783578E+00
 0.8611414043336E+00
 0.9118261684939E+00
 0.9588575168240E+00
 0.1001111217874E+01
 0.1038018234362E+01
 0.1069117572023E+01
 0.1093844489019E+01
 0.1111455772915E+01
 0.1121012989867E+01
 0.1121378502903E+01
 0.1111204656639E+01
 0.1088910143497E+01
 0.1052645119395E+01
 0.1000252528848E+01
 0.9292432955444E+00
 0.8368252103708E+00
 0.7200748080202E+00
 0.5764758956101E+00
 0.4053447016743E+00
 0.2129771193376E+00
 0.8550755987347E+00
 0.9046780015664E+00
 0.9497091036161E+00
 0.9892597426394E+00
 0.1023018497814E+01
 0.1050662169872E+01
 0.1071651289395E+01
 0.1085205179589E+01
 0.1090329319124E+01
 0.1085844468210E+01
 0.1070403537717E+01
 0.1042500156079E+01
 0.1000479489800E+01
 0.9425683187061E+00
 0.8669530253274E+00
 0.7719590391510E+00
 0.6564294485049E+00
 0.5204850450698E+00
 0.3671338767352E+00
 0.2079916711085E+00
 0.8462591599805E+00
 0.8943182946678E+00
 0.9365092190662E+00
 0.9724867643132E+00
 0.1002342499500E+01
 0.1025901283613E+01
 0.1042623930844E+01
 0.1051680442762E+01
 0.1052040237092E+01
 0.1042533061146E+01
 0.1021889526824E+01
 0.9887775277227E+00
 0.9418510891853E+00
 0.8798309277337E+00
 0.8016453535484E+00
 0.7066753608356E+00
 0.5951913828608E+00
 0.4691335454337E+00
 0.3337573178795E+00
 0.2029789478837E+00
 0.8349290272430E+00
 0.8807125638970E+00
 0.9190057738715E+00
 0.9505707200101E+00
 0.9759790272094E+00
 0.9951282167245E+00
 0.1007402531982E+01
 0.1011910973254E+01
 0.1007621954722E+01
 0.9934354490527E+00
 0.9682332446814E+00
 0.9309318118948E+00
 0.8805541760984E+00
 0.8163360656469E+00
 0.7378847676886E+00
 0.6454236810517E+00
 0.5401646475481E+00
 0.4250266327710E+00
 0.3062279486942E+00
 0.1982964367144E+00
 0.8213892738907E+00
 0.8635805045027E+00
 0.8967280814846E+00
 0.9232700632869E+00
 0.9440982064941E+00
 0.9588889777197E+00
 0.9668635309030E+00
 0.9670930944089E+00
 0.9586060194598E+00
 0.9404390411808E+00
 0.9116820193315E+00
 0.8715364063445E+00
 0.8193963113749E+00
 0.7549589224176E+00
 0.6783738282669E+00
 0.5904410185636E+00
 0.4929138415148E+00
 0.3889457187792E+00
 0.2847358404200E+00
 0.1946662223362E+00
 0.8058553104239E+00
 0.8420017883580E+00
 0.8688415551414E+00
 0.8905844158408E+00
 0.9072650447209E+00
 0.9180617419985E+00
 0.9220873050815E+00
 0.9184806592384E+00
 0.9064216837669E+00
 0.8851462984974E+00
 0.8539841246323E+00
 0.8124188291333E+00
 0.7601702370245E+00
 0.6972982740467E+00
 0.6243293937762E+00
 0.5424168247845E+00
 0.4535379477331E+00
 0.3609539363791E+00
 0.2697472392183E+00
 0.1930429566422E+00
 0.7871903273583E+00
 0.8131775259801E+00
 0.8350692831207E+00
 0.8534436838357E+00
 0.8666838639709E+00
 0.8738523554888E+00
 0.8742414331505E+00
 0.8672320162338E+00
 0.8522437998591E+00
 0.8287488742085E+00
 0.7963157820668E+00
 0.7546733429020E+00
 0.7037898899692E+00
 0.6439661469701E+00
 0.5759426231580E+00
 0.5010279469471E+00
 0.4212951925387E+00
 0.3398795669636E+00
 0.2622855326613E+00
 0.1957063460413E+00
 0.7618677197638E+00
 0.7771186296988E+00
 0.7981791381805E+00
 0.8142006563062E+00
 0.8240674527771E+00
 0.8275161778383E+00
 0.8243270660452E+00
 0.8142140818971E+00
 0.7968572007186E+00
 0.7719557616993E+00
 0.7392867295550E+00
 0.6987679949958E+00
 0.6505289830564E+00
 0.5949905337275E+00
 0.5329576123742E+00
 0.4657411130056E+00
 0.3953493732526E+00
 0.3249315716215E+00
 0.2595817067257E+00
 0.2100112232517E+00
</DataArray>
<CellData Tensors="'E_Centroid','S_Centroid'">
<DataArray type="Float64" Name="E_Centroid" NumberOfComponents="4" ComponentName0="E11" ComponentName1="E22" ComponentName2="E33" ComponentName3="E12" format="ascii">
 0.5074555179180E-02 -0.3873434421099E-01  0.0000000000000E+00 -0.1214523373638E-01
 0.8703652689604E-02 -0.3208957751715E-01  0.0000000000000E+00 -0.4509202459956E-03
 0.7263319467299E-02 -0.2956992877703E-01  0.0000000000000E+00 -0.7588720698263E-03
 0.7100715997663E-02 -0.2831417869609E-01  0.0000000000000E+00 -0.4284381220233E-03
 0.6846617110065E-02 -0.2741222879294E-01  0.0000000000000E+00 -0.3371092869517E-03
 0.6679557111822E-02 -0.2671587990962E-01  0.0000000000000E+00 -0.2811713472206E-03
 0.6530125584844E-02 -0.2612296806546E-01  0.0000000000000E+00 -0.2510823866515E-03
 0.6397641618295E-02 -0.2559104260155E-01  0.0000000000000E+00 -0.2333299205092E-03
 0.6273776334921E-02 -0.2509560044207E-01  0.0000000000000E+00 -0.2225495166168E-03
 0.6155794251972E-02 -0.2462344722842E-01  0.0000000000000E+00 -0.2155179874307E-03
 0.6041796097685E-02 -0.2416745077364E-01  0.0000000000000E+00 -0.2102620531758E-03
 0.5931050207366E-02 -0.2372454382133E-01  0.0000000000000E+00 -0.2053381039667E-03
 0.5823567352734E-02 -0.2329484027022E-01  0.0000000000000E+00 -0.1993831971008E-03
 0.5720221320556E-02 -0.2288185310157E-01  0.0000000000000E+00 -0.1906173552153E-03
 0.5623197325530E-02 -0.2249499856467E-01  0.0000000000000E+00 -0.1751640822141E-03
 0.5534952086237E-02 -0.2215803396642E-01  0.0000000000000E+00 -0.1265155284398E-03
 0.5452788562820E-02 -0.2187260119085E-01  0.0000000000000E+00  0.2080781873282E-04
 0.5365709515434E-02 -0.2157067691006E-01  0.0000000000000E+00  0.3079739270235E-03
 0.5262648232899E-02 -0.2118813651220E-01  0.0000000000000E+00  0.6928906921749E-03
 0.5141295111597E-02 -0.2072577780759E-01  0.0000000000000E+00  0.1104648388249E-02
 0.5006254025789E-02 -0.2021174974461E-01  0.0000000000000E+00  0.1501230636161E-02
 0.4863694083533E-02 -0.1967478383535E-01  0.0000000000000E+00  0.1868948438259E-02
 0.4718840817495E-02 -0.1913715674365E-01  0.0000000000000E+00  0.2209554542172E-02
 0.4575529214675E-02 -0.1861526163588E-01  0.0000000000000E+00  0.2531755778628E-02
 0.4436354651839E-02 -0.1812133655473E-01  0.0000000000000E+00  0.2847455694690E-02
 0.4302637521632E-02 -0.1766390965615E-01  0.0000000000000E+00  0.3170131462350E-02
 0.4175174566307E-02 -0.1724569332251E-01  0.0000000000000E+00  0.3508197192102E-02
 0.4056450389196E-02 -0.1687319954517E-01  0.0000000000000E+00  0.3860228152197E-02
 0.3950763135574E-02 -0.1656764186177E-01  0.0000000000000E+00  0.4228337298330E-02
 0.3861895513400E-02 -0.1635359259991E-01  0.0000000000000E+00  0.4629337375199E-02
 0.3792219693891E-02 -0.1625087473028E-01  0.0000000000000E+00  0.5089092024322E-02
 0.3742722089748E-02 -0.1627781535426E-01  0.0000000000000E+00  0.5638157931799E-02
 0.3712782641565E-02 -0.1645080171841E-01  0.0000000000000E+00  0.6311595649313E-02
 0.3699409863113E-02 -0.1678065304114E-01  0.0000000000000E+00  0.7143808245662E-02
 0.3704436443213E-02 -0.1726963066924E-01  0.0000000000000E+00  0.8145175754542E-02
 0.3739447305821E-02 -0.1793252404561E-01  0.0000000000000E+00  0.9260021591721E-02
 0.3908743770446E-02 -0.1893692456905E-01  0.0000000000000E+00  0.1043746990315E-01
 0.4037398008840E-02 -0.2053905758416E-01  0.0000000000000E+00  0.1197354715436E-01
 0.5244965488430E-02 -0.2336870933195E-01  0.0000000000000E+00  0.1384053205506E-01
 0.1654463645051E-02 -0.2699697285745E-01  0.0000000000000E+00  0.2242905623474E-01
 0.2462431974047E-01 -0.3115886368685E-01  0.0000000000000E+00  0.1114599935446E-01
 0.3526203057470E-02 -0.3335273653034E-01  0.0000000000000E+00 -0.1313931762957E-01
 0.7366309433760E-02 -0.3204662071168E-01  0.0000000000000E+00 -0.5656868499814E-02
 0.7336542456143E-02 -0.2935815471475E-01  0.0000000000000E+00 -0.2063548972911E-02
 0.6915122929628E-02 -0.2796177517846E-01  0.0000000000000E+00 -0.1501024786030E-02
 0.6732737796908E-02 -0.2700389298435E-01  0.0000000000000E+00 -0.1083964620190E-02
 0.6550633072428E-02 -0.2626022029556E-01  0.0000000000000E+00 -0.8950797204093E-03
 0.6402564991811E-02 -0.2563939035858E-01  0.0000000000000E+00 -0.7833437464203E-03
 0.6267832323106E-02 -0.2508976492989E-01  0.0000000000000E+00 -0.7179016794018E-03
 0.6143242125860E-02 -0.2458439535792E-01  0.0000000000000E+00 -0.6770434165380E-03
 0.6024946674414E-02 -0.2410775589514E-01  0.0000000000000E+00 -0.6499887100844E-03
 0.5911184748166E-02 -0.2365126045419E-01  0.0000000000000E+00 -0.6298823870618E-03
 0.5800990786827E-02 -0.2321072875050E-01  0.0000000000000E+00 -0.6119148631888E-03
 0.5694102914052E-02 -0.2278530648366E-01  0.0000000000000E+00 -0.5917769808478E-03
 0.5590996051028E-02 -0.2237743050245E-01  0.0000000000000E+00 -0.5641687324094E-03
 0.5491185249210E-02 -0.2199357647785E-01  0.0000000000000E+00 -0.5167953755697E-03
 0.5389840575670E-02 -0.2163985741300E-01  0.0000000000000E+00 -0.4258992203482E-03
 0.5282394237050E-02 -0.2130601107241E-01  0.0000000000000E+00 -0.2672759935606E-03
 0.5171198105423E-02 -0.2095893040834E-01  0.0000000000000E+00 -0.3033064464719E-04
 0.5058643616894E-02 -0.2056669181923E-01  0.0000000000000E+00  0.2745873451658E-03
 0.4941589452987E-02 -0.2012164719898E-01  0.0000000000000E+00  0.6183943176258E-03
 0.4817341244502E-02 -0.1963623179541E-01  0.0000000000000E+00  0.9716364892082E-03
 0.4686731589079E-02 -0.1912906479165E-01  0.0000000000000E+00  0.1318589306967E-02
 0.4552123679009E-02 -0.1861732398502E-01  0.0000000000000E+00  0.1655753019381E-02
 0.4415945403463E-02 -0.1811483334333E-01  0.0000000000000E+00  0.1987156540686E-02
 0.4279982680362E-02 -0.1763214715564E-01  0.0000000000000E+00  0.2320824747599E-02
 0.4145686273993E-02 -0.1717679484005E-01  0.0000000000000E+00  0.2665403727864E-02
 0.4015303284371E-02 -0.1675454264343E-01  0.0000000000000E+00  0.3027843838335E-02
 0.3891287996994E-02 -0.1637330785588E-01  0.0000000000000E+00  0.3414558592526E-02
 0.3774635061782E-02 -0.1604590411059E-01  0.0000000000000E+00  0.3833927005934E-02
 0.3665407419536E-02 -0.1578739567587E-01  0.0000000000000E+00  0.4298951069831E-02
 0.3563393907346E-02 -0.1561105945768E-01  0.0000000000000E+00  0.4828791731084E-02
 0.3467169330441E-02 -0.1552684905198E-01  0.0000000000000E+00  0.5446643236258E-02
 0.3373631240095E-02 -0.1554044593159E-01  0.0000000000000E+00  0.6175680425362E-02
 0.3280629350261E-02 -0.1565196583830E-01  0.0000000000000E+00  0.7031672962422E-02
 0.3192318944011E-02 -0.1585898672074E-01  0.0000000000000E+00  0.8012577517356E-02
 0.3134865249764E-02 -0.1617542305551E-01  0.0000000000000E+00  0.9103514753745E-02
 0.3077779272363E-02 -0.1663482412410E-01  0.0000000000000E+00  0.1036869225529E-01
 0.3106337498029E-02 -0.1725959630563E-01  0.0000000000000E+00  0.1174309169520E-01
 0.2622957364758E-02 -0.1790132490013E-01  0.0000000000000E+00  0.1431998761928E-01
 0.1238721589701E-02 -0.1591707505565E-01  0.0000000000000E+00  0.1305294397672E-01
 0.2040784530491E-01 -0.1770996674141E-01  0.0000000000000E+00 -0.2967153563569E-02
 0.2545901995648E-02 -0.3017958920716E-01  0.0000000000000E+00 -0.1256068927588E-01
 0.6053217028554E-02 -0.3046608661141E-01  0.0000000000000E+00 -0.8094652855580E-02
 0.6916728314215E-02 -0.2889849835421E-01  0.0000000000000E+00 -0.3975009433740E-02
 0.6724939216171E-02 -0.2748482910067E-01  0.0000000000000E+00 -0.2513163567154E-02
 0.6554010855729E-02 -0.2652742136503E-01  0.0000000000000E+00 -0.1890116110622E-02
 0.6401631959900E-02 -0.2576835182104E-01  0.0000000000000E+00 -0.1532140318788E-02
 0.6259193084387E-02 -0.2513383069637E-01  0.0000000000000E+00 -0.1333797131581E-02
 0.6129168587064E-02 -0.2457496694233E-01  0.0000000000000E+00 -0.1212863674948E-02
 0.6006708334469E-02 -0.2406434533115E-01  0.0000000000000E+00 -0.1136922197632E-02
 0.5889945625194E-02 -0.2358585887083E-01  0.0000000000000E+00 -0.1085984141341E-02
 0.5777263946422E-02 -0.2313014166557E-01  0.0000000000000E+00 -0.1048224811616E-02
 0.5667789787404E-02 -0.2269223486511E-01  0.0000000000000E+00 -0.1015269422913E-02
 0.5561042324589E-02 -0.2227036412441E-01  0.0000000000000E+00 -0.9799811477494E-03
 0.5456557572646E-02 -0.2186545309311E-01  0.0000000000000E+00 -0.9337035410421E-03
 0.5351470724644E-02 -0.2147943576723E-01  0.0000000000000E+00 -0.8623027213296E-03
 0.5238985242159E-02 -0.2110985264896E-01  0.0000000000000E+00 -0.7504237886725E-03
 0.5116126108129E-02 -0.2074569837441E-01  0.0000000000000E+00 -0.5926215665896E-03
 0.4990453210660E-02 -0.2037058123802E-01  0.0000000000000E+00 -0.3887760760514E-03
 0.4869875684802E-02 -0.1996925002293E-01  0.0000000000000E+00 -0.1376446317338E-03
 0.4752990305959E-02 -0.1953433602516E-01  0.0000000000000E+00  0.1534388291166E-03
 0.4634504545186E-02 -0.1906955959367E-01  0.0000000000000E+00  0.4682334045790E-03
 0.4511595214286E-02 -0.1858568307941E-01  0.0000000000000E+00  0.7932034813422E-03
 0.4384048299501E-02 -0.1809497950019E-01  0.0000000000000E+00  0.1122505845683E-02
 0.4252748848509E-02 -0.1760842587724E-01  0.0000000000000E+00  0.1456855159837E-02
 0.4118732476856E-02 -0.1713483296880E-01  0.0000000000000E+00  0.1800876141019E-02
 0.3983398425943E-02 -0.1668111501677E-01  0.0000000000000E+00  0.2160363082881E-02
 0.3849045804890E-02 -0.1625363770610E-01  0.0000000000000E+00  0.2541952831569E-02
 0.3717403674637E-02 -0.1585941430302E-01  0.0000000000000E+00  0.2954559950260E-02
 0.3587779166336E-02 -0.1550631093697E-01  0.0000000000000E+00  0.3408328372360E-02
 0.3458034093001E-02 -0.1520256225679E-01  0.0000000000000E+00  0.3914000836726E-02
 0.3325882454506E-02 -0.1495499104739E-01  0.0000000000000E+00  0.4484643581356E-02
 0.3188336198700E-02 -0.1476669548672E-01  0.0000000000000E+00  0.5134619577599E-02
 0.3041860979869E-02 -0.1463554733499E-01  0.0000000000000E+00  0.5874612369618E-02
 0.2885008045339E-02 -0.1455399264932E-01  0.0000000000000E+00  0.6705173945360E-02
 0.2725735445217E-02 -0.1451253909889E-01  0.0000000000000E+00  0.7612706173461E-02
 0.2570487721974E-02 -0.1450063707363E-01  0.0000000000000E+00  0.8593724856763E-02
 0.2406559765326E-02 -0.1446974479450E-01  0.0000000000000E+00  0.9618480732023E-02
 0.2173110706821E-02 -0.1429714532612E-01  0.0000000000000E+00  0.1065823144279E-01
 0.1507957696388E-02 -0.1328056669577E-01  0.0000000000000E+00  0.1107556273937E-01
 0.2666054161132E-02 -0.1082507254160E-01  0.0000000000000E+00  0.5073362494116E-02
 0.1925274425456E-01 -0.1301755129390E-01  0.0000000000000E+00 -0.7248627408444E-02
 0.1922642462141E-02 -0.2795812134047E-01  0.0000000000000E+00 -0.1174064866392E-01
 0.4982449145134E-02 -0.2875640833600E-01  0.0000000000000E+00 -0.9137939331013E-02
 0.6294455549570E-02 -0.2803796382433E-01  0.0000000000000E+00 -0.5526113610634E-02
 0.6431340370371E-02 -0.2689918554758E-01  0.0000000000000E+00 -0.3578435924340E-02
 0.6339101969795E-02 -0.2597865987799E-01  0.0000000000000E+00 -0.2681091176988E-02
 0.6223287713249E-02 -0.2523662437784E-01  0.0000000000000E+00 -0.2183668276318E-02
 0.6100523882607E-02 -0.2460391161995E-01  0.0000000000000E+00 -0.1891408275537E-02
 0.5980076327363E-02 -0.2404471045797E-01  0.0000000000000E+00 -0.1713221392213E-02
 0.5863427692093E-02 -0.2353403664309E-01  0.0000000000000E+00 -0.1599035069617E-02
 0.5750116446255E-02 -0.2305669201075E-01  0.0000000000000E+00 -0.1521831428301E-02
 0.5639571988255E-02 -0.2260332420574E-01  0.0000000000000E+00 -0.1464560550145E-02
 0.5531178307911E-02 -0.2216856814404E-01  0.0000000000000E+00 -0.1415485989780E-02
 0.5424305974406E-02 -0.2174985196001E-01  0.0000000000000E+00 -0.1364827106217E-02
 0.5317578032777E-02 -0.2134634943504E-01  0.0000000000000E+00 -0.1301919014012E-02
 0.5206903890469E-02 -0.2095647437365E-01  0.0000000000000E+00 -0.1213966245203E-02
 0.5085857314003E-02 -0.2057431878915E-01  0.0000000000000E+00 -0.1092656492733E-02
 0.4953448345246E-02 -0.2019076581610E-01  0.0000000000000E+00 -0.9405962079366E-03
 0.4819004029514E-02 -0.1979818671568E-01  0.0000000000000E+00 -0.7606446571323E-03
 0.4692297918260E-02 -0.1939019752729E-01  0.0000000000000E+00 -0.5470202685751E-03
 0.4573667162609E-02 -0.1896144989122E-01  0.0000000000000E+00 -0.2962500586402E-03
 0.4457501404592E-02 -0.1851152133526E-01  0.0000000000000E+00 -0.1458246928621E-04
 0.4338958652219E-02 -0.1804562605876E-01  0.0000000000000E+00  0.2884689907026E-03
 0.4215788197928E-02 -0.1757177189339E-01  0.0000000000000E+00  0.6067389351825E-03
 0.4087448155585E-02 -0.1709812776366E-01  0.0000000000000E+00  0.9388660375993E-03
 0.3954210290929E-02 -0.1663177926735E-01  0.0000000000000E+00  0.1286963073423E-02
 0.3817122522673E-02 -0.1617877244877E-01  0.0000000000000E+00  0.1654972445840E-02
 0.3677968154954E-02 -0.1574488059660E-01  0.0000000000000E+00  0.2049003887149E-02
 0.3537626295588E-02 -0.1533551919204E-01  0.0000000000000E+00  0.2478015494035E-02
 0.3394436302545E-02 -0.1495504202063E-01  0.0000000000000E+00  0.2951536693272E-02
 0.3245084617350E-02 -0.1460674537458E-01  0.0000000000000E+00  0.3477720748485E-02
 0.3086058799495E-02 -0.1429211842562E-01  0.0000000000000E+00  0.4063890181743E-02
 0.2913812900791E-02 -0.1400885612108E-01  0.0000000000000E+00  0.4715372676594E-02
 0.2725384773035E-02 -0.1374934077082E-01  0.0000000000000E+00  0.5430851738657E-02
 0.2521551321305E-02 -0.1350059398497E-01  0.0000000000000E+00  0.6196464809624E-02
 0.2309790365957E-02 -0.1324521149939E-01  0.0000000000000E+00  0.6986302653723E-02
 0.2096312012401E-02 -0.1295070978708E-01  0.0000000000000E+00  0.7763069147879E-02
 0.1871984017696E-02 -0.1253339550642E-01  0.0000000000000E+00  0.8434280687695E-02
 0.1588811983618E-02 -0.1177039979257E-01  0.0000000000000E+00  0.8705106614337E-02
 0.1443799053228E-02 -0.1018703299395E-01  0.0000000000000E+00  0.7112511868565E-02
 0.4404249576755E-02 -0.8498003454401E-02  0.0000000000000E+00 -0.1433536921287E-03
 0.1832902994978E-01 -0.1099057800507E-01  0.0000000000000E+00 -0.8149503067847E-02
 0.1508902214062E-02 -0.2623897374948E-01  0.0000000000000E+00 -0.1094845364824E-01
 0.4143554726609E-02 -0.2717622778472E-01  0.0000000000000E+00 -0.9495149855020E-02
 0.5634840838717E-02 -0.2698584532772E-01  0.0000000000000E+00 -0.6610075167082E-02
 0.6052733980301E-02 -0.2618232415048E-01  0.0000000000000E+00 -0.4560109797929E-02
 0.6083895350140E-02 -0.2536663131968E-01  0.0000000000000E+00 -0.3450557607283E-02
 0.6019595305688E-02 -0.2466341648849E-01  0.0000000000000E+00 -0.2825537162855E-02
 0.5925201248950E-02 -0.2404863662158E-01  0.0000000000000E+00 -0.2448270682570E-02
 0.5820355084890E-02 -0.2349784438083E-01  0.0000000000000E+00 -0.2212926813424E-02
 0.5712824055539E-02 -0.2299250145401E-01  0.0000000000000E+00 -0.2060123531241E-02
 0.5605067114812E-02 -0.2251949066240E-01  0.0000000000000E+00 -0.1955595986975E-02
 0.5497814393897E-02 -0.2207025774150E-01  0.0000000000000E+00 -0.1877964445691E-02
 0.5391028098351E-02 -0.2163943148100E-01  0.0000000000000E+00 -0.1812384172391E-02
 0.5284048104582E-02 -0.2122381948489E-01  0.0000000000000E+00 -0.1746925282844E-02
 0.5174948271204E-02 -0.2082110322648E-01  0.0000000000000E+00 -0.1670097243912E-02
 0.5059384695993E-02 -0.2042755971759E-01  0.0000000000000E+00 -0.1571326768849E-02
 0.4932163361655E-02 -0.2003634842784E-01  0.0000000000000E+00 -0.1446952805062E-02
 0.4793915453003E-02 -0.1964056192995E-01  0.0000000000000E+00 -0.1302476084745E-02
 0.4654220784393E-02 -0.1923739616836E-01  0.0000000000000E+00 -0.1140838059538E-02
 0.4523046547466E-02 -0.1882525730976E-01  0.0000000000000E+00 -0.9544379796326E-03
 0.4401945408631E-02 -0.1840072485062E-01  0.0000000000000E+00 -0.7346879639868E-03
 0.4285905003057E-02 -0.1796162200013E-01  0.0000000000000E+00 -0.4811728876084E-03
 0.4169236696340E-02 -0.1750954217928E-01  0.0000000000000E+00 -0.1992612334740E-03
 0.4048282778918E-02 -0.1704904682789E-01  0.0000000000000E+00  0.1057642503707E-03
 0.3921303071464E-02 -0.1658574137398E-01  0.0000000000000E+00  0.4314959559334E-03
 0.3787802955111E-02 -0.1612500501695E-01  0.0000000000000E+00  0.7783500765106E-03
 0.3648282708008E-02 -0.1567174901773E-01  0.0000000000000E+00  0.1148895624346E-02
 0.3503821559572E-02 -0.1523061416024E-01  0.0000000000000E+00  0.1548323275625E-02
 0.3354529157710E-02 -0.1480527172184E-01  0.0000000000000E+00  0.1984385274430E-02
 0.3198202728484E-02 -0.1439737944696E-01  0.0000000000000E+00  0.2464696619854E-02
 0.3031064601580E-02 -0.1400663657083E-01  0.0000000000000E+00  0.2994248576084E-02
 0.2849233941583E-02 -0.1363050507233E-01  0.0000000000000E+00  0.3574766697430E-02
 0.2649482046481E-02 -0.1326275628322E-01  0.0000000000000E+00  0.4203015644769E-02
 0.2430469041699E-02 -0.1289221945768E-01  0.0000000000000E+00  0.4866382334655E-02
 0.2195590473298E-02 -0.1250253761060E-01  0.0000000000000E+00  0.5537847807574E-02
 0.1954886112741E-02 -0.1207052413361E-01  0.0000000000000E+00  0.6173091112291E-02
 0.1721356634067E-02 -0.1155437122838E-01  0.0000000000000E+00  0.6697664270654E-02
 0.1506348333875E-02 -0.1085885890193E-01  0.0000000000000E+00  0.6939796495921E-02
 0.1373552714930E-02 -0.9791504830399E-02  0.0000000000000E+00  0.6386629730139E-02
 0.1922903595001E-02 -0.8249691174053E-02  0.0000000000000E+00  0.3566632890741E-02
 0.5869645204668E-02 -0.7401835632348E-02  0.0000000000000E+00 -0.3247998050735E-02
 0.1750185271259E-01 -0.9860848560971E-02  0.0000000000000E+00 -0.8093304518205E-02
 0.1221314463925E-02 -0.2481990486771E-01  0.0000000000000E+00 -0.1023799002113E-01
 0.3488524214268E-02 -0.2575621921724E-01  0.0000000000000E+00 -0.9511779415789E-02
 0.5011056177619E-02 -0.2587510010356E-01  0.0000000000000E+00 -0.7313056905063E-02
 0.5629545386804E-02 -0.2536731334560E-01  0.0000000000000E+00 -0.5385385526109E-02
 0.5792686325463E-02 -0.2469423867617E-01  0.0000000000000E+00 -0.4170507909145E-02
 0.5793231356761E-02 -0.2405194745795E-01  0.0000000000000E+00 -0.3444249183816E-02
 0.5734194619461E-02 -0.2346792297794E-01  0.0000000000000E+00 -0.2994272180400E-02
 0.5649993999925E-02 -0.2293404750281E-01  0.0000000000000E+00 -0.2706606663346E-02
 0.5554801545036E-02 -0.2243922313950E-01  0.0000000000000E+00 -0.2516673503782E-02
 0.5454611841307E-02 -0.2197379356388E-01  0.0000000000000E+00 -0.2385244730788E-02
 0.5351874648835E-02 -0.2153061127871E-01  0.0000000000000E+00 -0.2287330854630E-02
 0.5247351441307E-02 -0.2110470363186E-01  0.0000000000000E+00 -0.2205573138039E-02
 0.5140571777426E-02 -0.2069252470521E-01  0.0000000000000E+00 -0.2126464062813E-02
 0.5029489450628E-02 -0.2029075413789E-01  0.0000000000000E+00 -0.2038422697762E-02
 0.4910141025673E-02 -0.1989463943334E-01  0.0000000000000E+00 -0.1932946913318E-02
 0.4778761185587E-02 -0.1949756147531E-01  0.0000000000000E+00 -0.1809032738609E-02
 0.4637141071224E-02 -0.1909452893639E-01  0.0000000000000E+00 -0.1672606257380E-02
 0.4494455957783E-02 -0.1868545882616E-01  0.0000000000000E+00 -0.1525633128842E-02
 0.4360135616454E-02 -0.1827134005883E-01  0.0000000000000E+00 -0.1359815960600E-02
 0.4236443067130E-02 -0.1785019903342E-01  0.0000000000000E+00 -0.1164384183419E-02
 0.4119224906824E-02 -0.1741924773366E-01  0.0000000000000E+00 -0.9348098522761E-03
 0.4002666638895E-02 -0.1697783423272E-01  0.0000000000000E+00 -0.6729552471790E-03
 0.3882269401437E-02 -0.1652789102192E-01  0.0000000000000E+00 -0.3826845262991E-03
 0.3755367280378E-02 -0.1607280119932E-01  0.0000000000000E+00 -0.6670125475394E-04
 0.3620744750947E-02 -0.1561629888949E-01  0.0000000000000E+00  0.2743365622518E-03
 0.3478280134689E-02 -0.1516201214221E-01  0.0000000000000E+00  0.6418690998113E-03
 0.3328344755803E-02 -0.1471325134638E-01  0.0000000000000E+00  0.1039862078242E-02
 0.3170438856223E-02 -0.1427202388382E-01  0.0000000000000E+00  0.1474214032568E-02
 0.3002132178147E-02 -0.1383788164007E-01  0.0000000000000E+00  0.1949939638310E-02
 0.2819713775460E-02 -0.1340794467481E-01  0.0000000000000E+00  0.2468468130712E-02
 0.2619656765083E-02 -0.1297687182884E-01  0.0000000000000E+00  0.3026120971638E-02
 0.2399850449300E-02 -0.1253591387464E-01  0.0000000000000E+00  0.3611821415188E-02
 0.2161339218770E-02 -0.1207206036061E-01  0.0000000000000E+00  0.4202870630332E-02
 0.1911158887715E-02 -0.1156761169097E-01  0.0000000000000E+00  0.4759775564330E-02
 0.1664920945801E-02 -0.1099799287625E-01  0.0000000000000E+00  0.5219499907802E-02
 0.1448132908943E-02 -0.1032216158624E-01  0.0000000000000E+00  0.5473679864283E-02
 0.1310012988138E-02 -0.9460306317710E-02  0.0000000000000E+00  0.5285238446162E-02
 0.1436200210657E-02 -0.8314571494590E-02  0.0000000000000E+00  0.4073015913914E-02
 0.2603637109315E-02 -0.7055631223718E-02  0.0000000000000E+00  0.7285294573735E-03
 0.6973803766534E-02 -0.6834790570180E-02  0.0000000000000E+00 -0.5053884688727E-02
 0.1675072646109E-01 -0.9106833466481E-02  0.0000000000000E+00 -0.7805859542232E-02
 0.1012907059047E-02 -0.2359568045935E-01  0.0000000000000E+00 -0.9612338452569E-02
 0.2972536917885E-02 -0.2447863473541E-01  0.0000000000000E+00 -0.9359992900735E-02
 0.4449607685316E-02 -0.2477114880426E-01  0.0000000000000E+00 -0.7739821168623E-02
 0.5195010689150E-02 -0.2449504996507E-01  0.0000000000000E+00 -0.6040507858229E-02
 0.5476562375204E-02 -0.2397151629728E-01  0.0000000000000E+00 -0.4816629037855E-02
 0.5547722819490E-02 -0.2340604419732E-01  0.0000000000000E+00 -0.4027772895529E-02
 0.5529293401547E-02 -0.2286328977274E-01  0.0000000000000E+00 -0.3521079939935E-02
 0.5469618654557E-02 -0.2235361064755E-01  0.0000000000000E+00 -0.3188895015034E-02
 0.5389565323694E-02 -0.2187414969183E-01  0.0000000000000E+00 -0.2965335464611E-02
 0.5298806735462E-02 -0.2141942932360E-01  0.0000000000000E+00 -0.2808671017064E-02
 0.5201792095641E-02 -0.2098426242188E-01  0.0000000000000E+00 -0.2691442235758E-02
 0.5100286414750E-02 -0.2056442584608E-01  0.0000000000000E+00 -0.2594457699073E-02
 0.4994244968063E-02 -0.2015634576515E-01  0.0000000000000E+00 -0.2503211308293E-02
 0.4881879342668E-02 -0.1975621634991E-01  0.0000000000000E+00 -0.2406399495228E-02
 0.4759961098398E-02 -0.1935901570319E-01  0.0000000000000E+00 -0.2297107810209E-02
 0.4626077689992E-02 -0.1895882899116E-01  0.0000000000000E+00 -0.2175598053462E-02
 0.4482795557623E-02 -0.1855218221877E-01  0.0000000000000E+00 -0.2047091837862E-02
 0.4338628488882E-02 -0.1814053458419E-01  0.0000000000000E+00 -0.1912288704416E-02
 0.4202189769987E-02 -0.1772623020990E-01  0.0000000000000E+00 -0.1762686473959E-02
 0.4076081584472E-02 -0.1730827452319E-01  0.0000000000000E+00 -0.1586834421068E-02
 0.3956990556654E-02 -0.1688377490453E-01  0.0000000000000E+00 -0.1377853986448E-02
 0.3839370973024E-02 -0.1645073934399E-01  0.0000000000000E+00 -0.1134943649534E-02
 0.3718323015231E-02 -0.1600917586629E-01  0.0000000000000E+00 -0.8604546224912E-03
 0.3590525848025E-02 -0.1556061563090E-01  0.0000000000000E+00 -0.5569212680046E-03
 0.3454137162594E-02 -0.1510726499088E-01  0.0000000000000E+00 -0.2256445950356E-03
 0.3308433776030E-02 -0.1465144077229E-01  0.0000000000000E+00  0.1338306130457E-03
 0.3153168230947E-02 -0.1419511349314E-01  0.0000000000000E+00  0.5240649948249E-03
 0.2987419704610E-02 -0.1373881150174E-01  0.0000000000000E+00  0.9487979708708E-03
 0.2808793899527E-02 -0.1328047098745E-01  0.0000000000000E+00  0.1410140354978E-02
 0.2614056124061E-02 -0.1281544895225E-01  0.0000000000000E+00  0.1905815843310E-02
 0.2400614346166E-02 -0.1233666820407E-01  0.0000000000000E+00  0.2427066277538E-02
 0.2168121362139E-02 -0.1183412142822E-01  0.0000000000000E+00  0.2955905905037E-02
 0.1920660400013E-02 -0.1129445775532E-01  0.0000000000000E+00  0.3460954175718E-02
 0.1669962613087E-02 -0.1070077653253E-01  0.0000000000000E+00  0.3891826608881E-02
 0.1439449470601E-02 -0.1003125965092E-01  0.0000000000000E+00  0.4169807165065E-02
 0.1271328526416E-02 -0.9253977450607E-02  0.0000000000000E+00  0.4161605560108E-02
 0.1257554681003E-02 -0.8322052841193E-02  0.0000000000000E+00  0.3600304067747E-02
 0.1671381250065E-02 -0.7236488216362E-02  0.0000000000000E+00  0.1956716048556E-02
 0.3306062388234E-02 -0.6309309612647E-02  0.0000000000000E+00 -0.1445437206572E-02
 0.7761715013914E-02 -0.6496743555287E-02  0.0000000000000E+00 -0.6105257376806E-02
 0.1607313273136E-01 -0.8536560343791E-02  0.0000000000000E+00 -0.7509852486067E-02
 0.8563401301176E-03 -0.2250594948851E-01  0.0000000000000E+00 -0.9062590258346E-02
 0.2560750627695E-02 -0.2331849566137E-01  0.0000000000000E+00 -0.9128131066556E-02
 0.3955632550066E-02 -0.2370263693188E-01  0.0000000000000E+00 -0.7975249031694E-02
 0.4770795099289E-02 -0.2359765785243E-01  0.0000000000000E+00 -0.6540410694518E-02
 0.5147898968585E-02 -0.2321238898520E-01  0.0000000000000E+00 -0.5376968722085E-02
 0.5287956361664E-02 -0.2273090783984E-01  0.0000000000000E+00 -0.4566187075256E-02
 0.5312805131095E-02 -0.2223711931672E-01  0.0000000000000E+00 -0.4021937554018E-02
 0.5280341962260E-02 -0.2175749025361E-01  0.0000000000000E+00 -0.3655019867298E-02
 0.5217623820071E-02 -0.2129761890011E-01  0.0000000000000E+00 -0.3402951289377E-02
 0.5137912684421E-02 -0.2085650376767E-01  0.0000000000000E+00 -0.3223817710096E-02
 0.5047752419350E-02 -0.2043127950480E-01  0.0000000000000E+00 -0.3089010481067E-02
 0.4950068301563E-02 -0.2001877574331E-01  0.0000000000000E+00 -0.2978268411372E-02
 0.4845452639479E-02 -0.1961571183920E-01  0.0000000000000E+00 -0.2876604591572E-02
 0.4732656697027E-02 -0.1921824341666E-01  0.0000000000000E+00 -0.2773153878764E-02
 0.4609354046279E-02 -0.1882156231658E-01  0.0000000000000E+00 -0.2662088333316E-02
 0.4474316567410E-02 -0.1842062099090E-01  0.0000000000000E+00 -0.2544053712150E-02
 0.4330605063062E-02 -0.1801310738374E-01  0.0000000000000E+00 -0.2423116026566E-02
 0.4186005795037E-02 -0.1760134220920E-01  0.0000000000000E+00 -0.2298739390694E-02
 0.4048253425798E-02 -0.1718833093838E-01  0.0000000000000E+00 -0.2162448394980E-02
 0.3920046704477E-02 -0.1677369483040E-01  0.0000000000000E+00 -0.2002872919660E-02
 0.3798793790123E-02 -0.1635463547842E-01  0.0000000000000E+00 -0.1811942875527E-02
 0.3679405392229E-02 -0.1592839049547E-01  0.0000000000000E+00 -0.1586986992995E-02
 0.3556893053194E-02 -0.1549360090516E-01  0.0000000000000E+00 -0.1328993664987E-02
 0.3427523606862E-02 -0.1505030298692E-01  0.0000000000000E+00 -0.1040098162351E-02
 0.3288955082890E-02 -0.1459933876631E-01  0.0000000000000E+00 -0.7219713889338E-03
 0.3139946071213E-02 -0.1414177818825E-01  0.0000000000000E+00 -0.3750427900993E-03
 0.2979765005771E-02 -0.1367834902622E-01  0.0000000000000E+00  0.1773132102811E-05
 0.2807262828626E-02 -0.1320833376786E-01  0.0000000000000E+00  0.4099654840412E-03
 0.2620309548633E-02 -0.1272848477902E-01  0.0000000000000E+00  0.8486935272718E-03
 0.2416466585522E-02 -0.1223306946425E-01  0.0000000000000E+00  0.1312064580762E-02
 0.2194518677171E-02 -0.1171417512029E-01  0.0000000000000E+00  0.1786727692207E-02
 0.1956370592159E-02 -0.1116161488934E-01  0.0000000000000E+00  0.2248859834349E-02
 0.1709659237607E-02 -0.1056300061811E-01  0.0000000000000E+00  0.2660047379002E-02
 0.1471575675760E-02 -0.9904123079059E-02  0.0000000000000E+00  0.2961489191219E-02
 0.1274643785102E-02 -0.9169160801533E-02  0.0000000000000E+00  0.3063765936860E-02
 0.1179038006872E-02 -0.8340790913728E-02  0.0000000000000E+00  0.2821556775770E-02
 0.1313287534948E-02 -0.7410051910437E-02  0.0000000000000E+00  0.1974509325009E-02
 0.1995417073448E-02 -0.6453217613166E-02  0.0000000000000E+00  0.1072860778063E-03
 0.3947685745766E-02 -0.5826421914468E-02  0.0000000000000E+00 -0.3087131896304E-02
 0.8303189519523E-02 -0.6258812472359E-02  0.0000000000000E+00 -0.6727174752720E-02
 0.1546058916293E-01 -0.8070778094101E-02  0.0000000000000E+00 -0.7262161742336E-02
 0.7350690835452E-03 -0.2151356602610E-01  0.0000000000000E+00 -0.8578085528327E-02
 0.2227443617369E-02 -0.2225335547808E-01  0.0000000000000E+00 -0.8862580114853E-02
 0.3525278852237E-02 -0.2267994450612E-01  0.0000000000000E+00 -0.8081080315693E-02
 0.4369179073682E-02 -0.2269675617199E-01  0.0000000000000E+00 -0.6909850313836E-02
 0.4817367893871E-02 -0.2243057805678E-01  0.0000000000000E+00 -0.5850224380765E-02
 0.5019430991486E-02 -0.2203282370114E-01  0.0000000000000E+00 -0.5053206869759E-02
 0.5087459277754E-02 -0.2159240820351E-01  0.0000000000000E+00 -0.4491611660992E-02
 0.5083607617669E-02 -0.2114714679628E-01  0.0000000000000E+00 -0.4101018103762E-02
 0.5039743180388E-02 -0.2071031907700E-01  0.0000000000000E+00 -0.3826689411359E-02
 0.4972367968873E-02 -0.2028536420075E-01  0.0000000000000E+00 -0.3628744146315E-02
 0.4890065915683E-02 -0.1987190091252E-01  0.0000000000000E+00 -0.3478731464839E-02
 0.4797005076502E-02 -0.1946803776701E-01  0.0000000000000E+00 -0.3356107397896E-02
 0.4694574314239E-02 -0.1907106509133E-01  0.0000000000000E+00 -0.3245858668876E-02
 0.4582248913556E-02 -0.1867744563593E-01  0.0000000000000E+00 -0.3137627227575E-02
 0.4458655359670E-02 -0.1828287454822E-01  0.0000000000000E+00 -0.3026272429922E-02
 0.4323567409939E-02 -0.1788318834422E-01  0.0000000000000E+00 -0.2912313259431E-02
 0.4180348529959E-02 -0.1747695733808E-01  0.0000000000000E+00 -0.2798554518662E-02
 0.4036081446781E-02 -0.1706696451572E-01  0.0000000000000E+00 -0.2683382585879E-02
 0.3897661081295E-02 -0.1665648284721E-01  0.0000000000000E+00 -0.2558470037191E-02
 0.3767737574513E-02 -0.1624549209020E-01  0.0000000000000E+00 -0.2412902224308E-02
 0.3644303169037E-02 -0.1583134609553E-01  0.0000000000000E+00 -0.2238158133143E-02
 0.3522792007388E-02 -0.1541086123533E-01  0.0000000000000E+00 -0.2030355504185E-02
 0.3398333888499E-02 -0.1498173158714E-01  0.0000000000000E+00 -0.1789379036321E-02
 0.3266986578280E-02 -0.1454281963000E-01  0.0000000000000E+00 -0.1516901451222E-02
 0.3126050294824E-02 -0.1409379418041E-01  0.0000000000000E+00 -0.1214809182846E-02
 0.2973884427968E-02 -0.1363460434377E-01  0.0000000000000E+00 -0.8843358565614E-03
 0.2809426627044E-02 -0.1316489142181E-01  0.0000000000000E+00 -0.5258568362642E-03
 0.2631483781262E-02 -0.1268294328385E-01  0.0000000000000E+00 -0.1400824292939E-03
 0.2438386265317E-02 -0.1218471426505E-01  0.0000000000000E+00  0.2693238815036E-03
 0.2228736211625E-02 -0.1166394248533E-01  0.0000000000000E+00  0.6931281428695E-03
 0.2003010250666E-02 -0.1111261867289E-01  0.0000000000000E+00  0.1114015442036E-02
 0.1765698415801E-02 -0.1052125974085E-01  0.0000000000000E+00  0.1503503018083E-02
 0.1528310575084E-02 -0.9879499301858E-02  0.0000000000000E+00  0.1818003273143E-02
 0.1313850324798E-02 -0.9177255938679E-02  0.0000000000000E+00  0.1993323151995E-02
 0.1164170751206E-02 -0.8406774996868E-02  0.0000000000000E+00  0.1935248494315E-02
 0.1155739527679E-02 -0.7567459608275E-02  0.0000000000000E+00  0.1499710038832E-02
 0.1442207023048E-02 -0.6684330406298E-02  0.0000000000000E+00  0.4591163710378E-03
 0.2351033134537E-02 -0.5879855252394E-02  0.0000000000000E+00 -0.1471565617733E-02
 0.4497819713572E-02 -0.5497533252316E-02  0.0000000000000E+00 -0.4328720004643E-02
 0.8660099823032E-02 -0.6065528994319E-02  0.0000000000000E+00 -0.7105679357541E-02
 0.1490222394097E-01 -0.7672331506015E-02  0.0000000000000E+00 -0.7068614244607E-02
 0.6386896697311E-03 -0.2059437917490E-01  0.0000000000000E+00 -0.8149116388121E-02
 0.1953878825136E-02 -0.2126502791050E-01  0.0000000000000E+00 -0.8588003180171E-02
 0.3151489333253E-02 -0.2170475942538E-01  0.0000000000000E+00 -0.8100460403583E-02
 0.3996071268679E-02 -0.2180567261153E-01  0.0000000000000E+00 -0.7174389001390E-02
 0.4493003657532E-02 -0.2163760691041E-01  0.0000000000000E+00 -0.6241787368622E-02
 0.4747438607060E-02 -0.2131832372008E-01  0.0000000000000E+00 -0.5486367176656E-02
 0.4856202221430E-02 -0.2093256104215E-01  0.0000000000000E+00 -0.4926545044365E-02
 0.4881074810971E-02 -0.2052439196154E-01  0.0000000000000E+00 -0.4523799524737E-02
 0.4856880576463E-02 -0.2011322120964E-01  0.0000000000000E+00 -0.4234146301358E-02
 0.4802756165417E-02 -0.1970656281274E-01  0.0000000000000E+00 -0.4021687859952E-02
 0.4729143612416E-02 -0.1930650820435E-01  0.0000000000000E+00 -0.3859333578400E-02
 0.4641457060321E-02 -0.1891257764669E-01  0.0000000000000E+00 -0.3727003811483E-02
 0.4541976553502E-02 -0.1852284365130E-01  0.0000000000000E+00 -0.3610059705404E-02
 0.4431001861364E-02 -0.1813432107270E-01  0.0000000000000E+00 -0.3498694272232E-02
 0.4308094980614E-02 -0.1774336908380E-01  0.0000000000000E+00 -0.3388183872515E-02
 0.4173864951814E-02 -0.1734666308089E-01  0.0000000000000E+00 -0.3278663564100E-02
 0.4031853079110E-02 -0.1694344754823E-01  0.0000000000000E+00 -0.3171744503276E-02
 0.3888502300774E-02 -0.1653673292244E-01  0.0000000000000E+00 -0.3064934335026E-02
 0.3749949786878E-02 -0.1612983866428E-01  0.0000000000000E+00 -0.2950127371971E-02
 0.3618719089229E-02 -0.1572293055392E-01  0.0000000000000E+00 -0.2817038951425E-02
 0.3493262484608E-02 -0.1531351408421E-01  0.0000000000000E+00 -0.2657160083080E-02
 0.3369539810587E-02 -0.1489819518944E-01  0.0000000000000E+00 -0.2465909186160E-02
 0.3242928031436E-02 -0.1447402931457E-01  0.0000000000000E+00 -0.2242354029680E-02
 0.3109438530829E-02 -0.1403898183648E-01  0.0000000000000E+00 -0.1987744102236E-02
 0.2966155470331E-02 -0.1359174930737E-01  0.0000000000000E+00 -0.1704108792160E-02
 0.2811173250343E-02 -0.1313132169828E-01  0.0000000000000E+00 -0.1393414767591E-02
 0.2643254179219E-02 -0.1265643954309E-01  0.0000000000000E+00 -0.1057423127998E-02
 0.2461328622319E-02 -0.1216464701250E-01  0.0000000000000E+00 -0.6988963777912E-03
 0.2264349924981E-02 -0.1165144230083E-01  0.0000000000000E+00 -0.3240699635173E-03
 0.2052138005252E-02 -0.1111049648005E-01  0.0000000000000E+00  0.5489181675511E-04
 0.1827062801081E-02 -0.1053429160027E-01  0.0000000000000E+00  0.4174437935025E-03
 0.1596380318109E-02 -0.9914733197483E-02  0.0000000000000E+00  0.7316886781527E-03
 0.1375571101743E-02 -0.9244252646560E-02  0.0000000000000E+00  0.9508287595366E-03
 0.1193367415838E-02 -0.8517797963244E-02  0.0000000000000E+00  0.1008489562335E-02
 0.1100184886811E-02 -0.7736534711679E-02  0.0000000000000E+00  0.8115284831640E-03
 0.1185160549017E-02 -0.6915882304777E-02  0.0000000000000E+00  0.2280324995636E-03
 0.1614911229054E-02 -0.6106726782560E-02  0.0000000000000E+00 -0.9228546199893E-03
 0.2702464444940E-02 -0.5453121972557E-02  0.0000000000000E+00 -0.2805462686331E-02
 0.4951001694966E-02 -0.5258846853038E-02  0.0000000000000E+00 -0.5277691794234E-02
 0.8880085566132E-02 -0.5892956534050E-02  0.0000000000000E+00 -0.7345870401165E-02
 0.1438733035227E-01 -0.7321504833084E-02  0.0000000000000E+00 -0.6921396795275E-02
 0.5604191130793E-03 -0.1973197412706E-01  0.0000000000000E+00 -0.7767473410473E-02
 0.1726385776357E-02 -0.2033924459692E-01  0.0000000000000E+00 -0.8317486903642E-02
 0.2826597612633E-02 -0.2077485927875E-01  0.0000000000000E+00 -0.8063066065990E-02
 0.3653418980354E-02 -0.2093199330179E-01  0.0000000000000E+00 -0.7356785949864E-02
 0.4180289819934E-02 -0.2084230540729E-01  0.0000000000000E+00 -0.6560403557703E-02
 0.4476555626626E-02 -0.2059348692480E-01  0.0000000000000E+00 -0.5866320368127E-02
 0.4621951572672E-02 -0.2026112746732E-01  0.0000000000000E+00 -0.5324869683396E-02
 0.4674509518647E-02 -0.1989125607157E-01  0.0000000000000E+00 -0.4921171088015E-02
 0.4670118092268E-02 -0.1950750191829E-01  0.0000000000000E+00 -0.4623397611053E-02
 0.4629768924808E-02 -0.1912081511355E-01  0.0000000000000E+00 -0.4401114528751E-02
 0.4565473180842E-02 -0.1873559788906E-01  0.0000000000000E+00 -0.4229621341768E-02
 0.4483820724741E-02 -0.1835282127975E-01  0.0000000000000E+00 -0.4089967285384E-02
 0.4388012155198E-02 -0.1797147597087E-01  0.0000000000000E+00 -0.3968239633861E-02
 0.4279205002279E-02 -0.1758928561272E-01  0.0000000000000E+00 -0.3855233971415E-02
 0.4157840791307E-02 -0.1720334987819E-01  0.0000000000000E+00 -0.3746490770174E-02
 0.4025221651675E-02 -0.1681111546203E-01  0.0000000000000E+00 -0.3641670376926E-02
 0.3884988586765E-02 -0.1641235007465E-01  0.0000000000000E+00 -0.3541340288301E-02
 0.3743022715084E-02 -0.1601015500384E-01  0.0000000000000E+00 -0.3442332159092E-02
 0.3604799562408E-02 -0.1560777648861E-01  0.0000000000000E+00 -0.3336815130455E-02
 0.3472681981845E-02 -0.1520545625862E-01  0.0000000000000E+00 -0.3215206132656E-02
 0.3345481734604E-02 -0.1480083114522E-01  0.0000000000000E+00 -0.3069291232850E-02
 0.3219655593380E-02 -0.1439042344863E-01  0.0000000000000E+00 -0.2894171215811E-02
 0.3090902718877E-02 -0.1397087386493E-01  0.0000000000000E+00 -0.2688367730239E-02
 0.2955314040623E-02 -0.1353948305785E-01  0.0000000000000E+00 -0.2452799916289E-02
 0.2809889407461E-02 -0.1309417250780E-01  0.0000000000000E+00 -0.2189618446074E-02
 0.2652593068420E-02 -0.1263315039366E-01  0.0000000000000E+00 -0.1901455718773E-02
 0.2482158953861E-02 -0.1215445197891E-01  0.0000000000000E+00 -0.1591341358191E-02
 0.2297786694939E-02 -0.1165511634170E-01  0.0000000000000E+00 -0.1263878345359E-02
 0.2099180239019E-02 -0.1113048272857E-01  0.0000000000000E+00 -0.9275419229442E-03
 0.1887492305190E-02 -0.1057452839568E-01  0.0000000000000E+00 -0.5969259075173E-03
 0.1667085935525E-02 -0.9980675103526E-02  0.0000000000000E+00 -0.2950091094500E-03
 0.1448019675825E-02 -0.9342707171559E-02  0.0000000000000E+00 -0.5584128262348E-04
 0.1249625273406E-02 -0.8656337332130E-02  0.0000000000000E+00  0.7251330611524E-04
 0.1105885247245E-02 -0.7921916612876E-02  0.0000000000000E+00  0.2456782201254E-04
 0.1074277268663E-02 -0.7149332217673E-02  0.0000000000000E+00 -0.2867029032709E-03
 0.1252184849163E-02 -0.6367519843296E-02  0.0000000000000E+00 -0.9737079230386E-03
 0.1808810147819E-02 -0.5644332033010E-02  0.0000000000000E+00 -0.2166477515377E-02
 0.3029120526115E-02 -0.5127917429387E-02  0.0000000000000E+00 -0.3929581078595E-02
 0.5312909660356E-02 -0.5073316819044E-02  0.0000000000000E+00 -0.6014672502677E-02
 0.8997944698988E-02 -0.5730763423867E-02  0.0000000000000E+00 -0.7507078978275E-02
 0.1390657346779E-01 -0.7006528675007E-02  0.0000000000000E+00 -0.6810869994098E-02
 0.4956871357567E-03 -0.1891477309480E-01  0.0000000000000E+00 -0.7426374209146E-02
 0.1534908842561E-02 -0.1946489473563E-01  0.0000000000000E+00 -0.8057807160741E-02
 0.2543414132008E-02 -0.1988646610053E-01  0.0000000000000E+00 -0.7989193101244E-02
 0.3340865558305E-02 -0.2007956849973E-01  0.0000000000000E+00 -0.7475970286910E-02
 0.3882617274669E-02 -0.2005102258922E-01  0.0000000000000E+00 -0.6815957940945E-02
 0.4210438432890E-02 -0.1986355122339E-01  0.0000000000000E+00 -0.6195877429326E-02
 0.4387394852196E-02 -0.1958155201987E-01  0.0000000000000E+00 -0.5686221887018E-02
 0.4465679233135E-02 -0.1924986259406E-01  0.0000000000000E+00 -0.5291814481774E-02
 0.4480601025527E-02 -0.1889446898618E-01  0.0000000000000E+00 -0.4993014401731E-02
 0.4454168026925E-02 -0.1852895579239E-01  0.0000000000000E+00 -0.4765750243334E-02
 0.4399595308504E-02 -0.1815975334879E-01  0.0000000000000E+00 -0.4588512134110E-02
 0.4324515588470E-02 -0.1778923742263E-01  0.0000000000000E+00 -0.4444033810562E-02
 0.4233021539545E-02 -0.1741738006424E-01  0.0000000000000E+00 -0.4319431380413E-02
 0.4127110299331E-02 -0.1704269746026E-01  0.0000000000000E+00 -0.4206171336481E-02
 0.4008025994981E-02 -0.1666305121431E-01  0.0000000000000E+00 -0.4099998252043E-02
 0.3877645398435E-02 -0.1627658686410E-01  0.0000000000000E+00 -0.4000111907824E-02
 0.3739662019323E-02 -0.1588348706859E-01  0.0000000000000E+00 -0.3906220166028E-02
 0.3599474356275E-02 -0.1548686670639E-01  0.0000000000000E+00 -0.3814669387401E-02
 0.3461992214913E-02 -0.1508983895546E-01  0.0000000000000E+00 -0.3717947314629E-02
 0.3329411001958E-02 -0.1469265535295E-01  0.0000000000000E+00 -0.3607192496355E-02
 0.3200825372970E-02 -0.1429306153592E-01  0.0000000000000E+00 -0.3474654095871E-02
 0.3073148441578E-02 -0.1388757329609E-01  0.0000000000000E+00 -0.3315391759746E-02
 0.2942441179704E-02 -0.1347257928702E-01  0.0000000000000E+00 -0.3127615765307E-02
 0.2804968942436E-02 -0.1304490773721E-01  0.0000000000000E+00 -0.2912027411982E-02
 0.2657763394683E-02 -0.1260188963368E-01  0.0000000000000E+00 -0.2670904246041E-02
 0.2498784492590E-02 -0.1214112992685E-01  0.0000000000000E+00 -0.2407477401553E-02
 0.2326869507218E-02 -0.1166015063305E-01  0.0000000000000E+00 -0.2125900012325E-02
 0.2141608322489E-02 -0.1115570406725E-01  0.0000000000000E+00 -0.1832362838220E-02
 0.1943547553285E-02 -0.1062322207892E-01  0.0000000000000E+00 -0.1537199054435E-02
 0.1735230747597E-02 -0.1005727927125E-01  0.0000000000000E+00 -0.1256880895444E-02
 0.1523024223460E-02 -0.9452558056654E-02  0.0000000000000E+00 -0.1016003084154E-02
 0.1319696895149E-02 -0.8805028999452E-02  0.0000000000000E+00 -0.8495442391928E-03
 0.1148122159291E-02 -0.8113895157254E-02  0.0000000000000E+00 -0.8050275376482E-03
 0.1046750607932E-02 -0.7384824914685E-02  0.0000000000000E+00 -0.9443793624191E-03
 0.1078218239385E-02 -0.6635470642667E-02  0.0000000000000E+00 -0.1344717943293E-02
 0.1343811322061E-02 -0.5904989745726E-02  0.0000000000000E+00 -0.2095112381834E-02
 0.2007581400830E-02 -0.5270338859942E-02  0.0000000000000E+00 -0.3277165340319E-02
 0.3320337587405E-02 -0.4872813129814E-02  0.0000000000000E+00 -0.4879153068866E-02
 0.5593319715395E-02 -0.4919358631004E-02  0.0000000000000E+00 -0.6597968497165E-02
 0.9038628337630E-02 -0.5574491045249E-02  0.0000000000000E+00 -0.7622981236315E-02
 0.1345226489230E-01 -0.6719658585972E-02  0.0000000000000E+00 -0.6728758942995E-02
 0.4413207752213E-03 -0.1813434839979E-01  0.0000000000000E+00 -0.7120242825024E-02
 0.1371968226997E-02 -0.1863330131287E-01  0.0000000000000E+00 -0.7812244222438E-02
 0.2295609500121E-02 -0.1903538371139E-01  0.0000000000000E+00 -0.7892701194273E-02
 0.3056812620270E-02 -0.1924991252855E-01  0.0000000000000E+00 -0.7547126277805E-02
 0.3601803478489E-02 -0.1926807983246E-01  0.0000000000000E+00 -0.7018189873201E-02
 0.3951818234896E-02 -0.1913278181323E-01  0.0000000000000E+00 -0.6479132488723E-02
 0.4154863884531E-02 -0.1889699021311E-01  0.0000000000000E+00 -0.6011439067726E-02
 0.4256262664522E-02 -0.1860231499848E-01  0.0000000000000E+00 -0.5635209376667E-02
 0.4289481995281E-02 -0.1827549267466E-01  0.0000000000000E+00 -0.5342052175155E-02
 0.4276749604883E-02 -0.1793189562843E-01  0.0000000000000E+00 -0.5114596713587E-02
 0.4232081423067E-02 -0.1757961785286E-01  0.0000000000000E+00 -0.4935063622076E-02
 0.4163973093640E-02 -0.1722232310560E-01  0.0000000000000E+00 -0.4788301947996E-02
 0.4077334123710E-02 -0.1686096411238E-01  0.0000000000000E+00 -0.4662708061831E-02
 0.3974945362785E-02 -0.1649487535378E-01  0.0000000000000E+00 -0.4550501465070E-02
 0.3858765919675E-02 -0.1612266551748E-01  0.0000000000000E+00 -0.4447637353271E-02
 0.3731148648092E-02 -0.1574310856421E-01  0.0000000000000E+00 -0.4352931727011E-02
 0.3595811855051E-02 -0.1535672419185E-01  0.0000000000000E+00 -0.4265424889702E-02
 0.3457745396227E-02 -0.1496659942864E-01  0.0000000000000E+00 -0.4181150636344E-02
 0.3321382359678E-02 -0.1457568985195E-01  0.0000000000000E+00 -0.4092954318316E-02
 0.3188760114620E-02 -0.1418422071073E-01  0.0000000000000E+00 -0.3992691445099E-02
 0.3059200355714E-02 -0.1379002861201E-01  0.0000000000000E+00 -0.3873169426187E-02
 0.2930030294724E-02 -0.1338967128598E-01  0.0000000000000E+00 -0.3729601874503E-02
 0.2797689964947E-02 -0.1297940472707E-01  0.0000000000000E+00 -0.3560079766536E-02
 0.2658688814097E-02 -0.1255574251802E-01  0.0000000000000E+00 -0.3365197405008E-02
 0.2510188377562E-02 -0.1211559212740E-01  0.0000000000000E+00 -0.3147375341345E-02
 0.2350255402390E-02 -0.1165612531390E-01  0.0000000000000E+00 -0.2910374446564E-02
 0.2177942935877E-02 -0.1117453053380E-01  0.0000000000000E+00 -0.2659309286327E-02
 0.1993325832258E-02 -0.1066746631097E-01  0.0000000000000E+00 -0.2401682775643E-02
 0.1797850523446E-02 -0.1013066296217E-01  0.0000000000000E+00 -0.2149279725280E-02
 0.1595457937914E-02 -0.9559508110338E-02  0.0000000000000E+00 -0.1919882603255E-02
 0.1394450933010E-02 -0.8950151428442E-02  0.0000000000000E+00 -0.1738901407775E-02
 0.1210108894431E-02 -0.8300893889663E-02  0.0000000000000E+00 -0.1641109417599E-02
 0.1068389349799E-02 -0.7614400922945E-02  0.0000000000000E+00 -0.1671908038066E-02
 0.1011238782582E-02 -0.6901220175973E-02  0.0000000000000E+00 -0.1887543388955E-02
 0.1104444631405E-02 -0.6185373168476E-02  0.0000000000000E+00 -0.2352800170259E-02
 0.1449445142387E-02 -0.5512870756769E-02  0.0000000000000E+00 -0.3132412408816E-02
 0.2200015717520E-02 -0.4963635138320E-02  0.0000000000000E+00 -0.4265477791757E-02
 0.3571622096970E-02 -0.4666136628843E-02  0.0000000000000E+00 -0.5685546359214E-02
 0.5802789307077E-02 -0.4784307998640E-02  0.0000000000000E+00 -0.7069074617802E-02
 0.9019989392692E-02 -0.5422208064587E-02  0.0000000000000E+00 -0.7712837153921E-02
 0.1301824250757E-01 -0.6455416060312E-02  0.0000000000000E+00 -0.6668624807307E-02
 0.3950571324637E-03 -0.1738439606710E-01  0.0000000000000E+00 -0.6844482712727E-02
 0.1231930354530E-02 -0.1783763578125E-01  0.0000000000000E+00 -0.7582126225128E-02
 0.2077781935059E-02 -0.1821752474799E-01  0.0000000000000E+00 -0.7783053247209E-02
 0.2799071336234E-02 -0.1844312972057E-01  0.0000000000000E+00 -0.7582186096281E-02
 0.3338549635910E-02 -0.1849624515632E-01  0.0000000000000E+00 -0.7176037966565E-02
 0.3702599999272E-02 -0.1840449808806E-01  0.0000000000000E+00 -0.6720788021753E-02
 0.3926279892967E-02 -0.1821020208940E-01  0.0000000000000E+00 -0.6302226762748E-02
 0.4047783196885E-02 -0.1795060577411E-01  0.0000000000000E+00 -0.5951514983529E-02
 0.4097873244003E-02 -0.1765194512981E-01  0.0000000000000E+00 -0.5670016754809E-02
 0.4098312124948E-02 -0.1733058179207E-01  0.0000000000000E+00 -0.5446931633373E-02
 0.4063513479218E-02 -0.1699586952807E-01  0.0000000000000E+00 -0.5268491058736E-02
 0.4002626788070E-02 -0.1665259089218E-01  0.0000000000000E+00 -0.5121959042286E-02
 0.3921268793734E-02 -0.1630262676923E-01  0.0000000000000E+00 -0.4997209504500E-02
 0.3822921887553E-02 -0.1594611117832E-01  0.0000000000000E+00 -0.4887302560146E-02
 0.3710167849377E-02 -0.1558236092847E-01  0.0000000000000E+00 -0.4788453467523E-02
 0.3585752515632E-02 -0.1521071205372E-01  0.0000000000000E+00 -0.4699205074392E-02
 0.3453402766982E-02 -0.1483196422514E-01  0.0000000000000E+00 -0.4618116297598E-02
 0.3317765602231E-02 -0.1444915645588E-01  0.0000000000000E+00 -0.4541061579546E-02
 0.3182876641830E-02 -0.1406508261304E-01  0.0000000000000E+00 -0.4461279666660E-02
 0.3050633366444E-02 -0.1367992558030E-01  0.0000000000000E+00 -0.4371327539185E-02
 0.2920545178739E-02 -0.1329160171983E-01  0.0000000000000E+00 -0.4264620031576E-02
 0.2790314346896E-02 -0.1289674295309E-01  0.0000000000000E+00 -0.4136658371450E-02
 0.2656763570023E-02 -0.1249156159452E-01  0.0000000000000E+00 -0.3985564180198E-02
 0.2516695999016E-02 -0.1207238549227E-01  0.0000000000000E+00 -0.3811921981290E-02
 0.2367482603847E-02 -0.1163584573849E-01  0.0000000000000E+00 -0.3618311146401E-02
 0.2207390226499E-02 -0.1117883629444E-01  0.0000000000000E+00 -0.3408949993674E-02
 0.2035778833068E-02 -0.1069837377540E-01  0.0000000000000E+00 -0.3189743521662E-02
 0.1853276547244E-02 -0.1019118767635E-01  0.0000000000000E+00 -0.2969222337144E-02
 0.1662253696611E-02 -0.9653468115989E-02  0.0000000000000E+00 -0.2760212330842E-02
 0.1468009912019E-02 -0.9081562934615E-02  0.0000000000000E+00 -0.2581247967242E-02
 0.1280654520416E-02 -0.8473195751661E-02  0.0000000000000E+00 -0.2457803136559E-02
 0.1117694256833E-02 -0.7829003595291E-02  0.0000000000000E+00 -0.2423441607115E-02
 0.1007614365839E-02 -0.7154898975891E-02  0.0000000000000E+00 -0.2520147975554E-02
 0.9948066329553E-03 -0.6465637178892E-02  0.0000000000000E+00 -0.2796979085197E-02
 0.1146320119142E-02 -0.5790045008473E-02  0.0000000000000E+00 -0.3305200970552E-02
 0.1560801827719E-02 -0.5177968246224E-02  0.0000000000000E+00 -0.4086211515003E-02
 0.2378803512106E-02 -0.4707927644309E-02  0.0000000000000E+00 -0.5143931619474E-02
 0.3782148123199E-02 -0.4492995782231E-02  0.0000000000000E+00 -0.6375117135340E-02
 0.5951228123451E-02 -0.4660674118630E-02  0.0000000000000E+00 -0.7457362209466E-02
 0.8954890182607E-02 -0.5273063848804E-02  0.0000000000000E+00 -0.7787737928098E-02
 0.1259962333808E-01 -0.6209725927333E-02  0.0000000000000E+00 -0.6625598701124E-02
 0.3552430158330E-03 -0.1666008717398E-01  0.0000000000000E+00 -0.6595282039741E-02
 0.1110497320470E-02 -0.1707247074428E-01  0.0000000000000E+00 -0.7367693225558E-02
 0.1885392742904E-02 -0.1742913287099E-01  0.0000000000000E+00 -0.7666705717110E-02
 0.2565246919255E-02 -0.1765850883578E-01  0.0000000000000E+00 -0.7590413483427E-02
 0.3092802041508E-02 -0.1773714441548E-01  0.0000000000000E+00 -0.7297369629992E-02
 0.3464001662993E-02 -0.1768117977269E-01  0.0000000000000E+00 -0.6925686502108E-02
 0.3703150603798E-02 -0.1752351077659E-01  0.0000000000000E+00 -0.6560853247949E-02
 0.3841568041680E-02 -0.1729655252266E-01  0.0000000000000E+00 -0.6241431246228E-02
 0.3906809250066E-02 -0.1702515024369E-01  0.0000000000000E+00 -0.5976812391591E-02
 0.3919629143795E-02 -0.1672596295165E-01  0.0000000000000E+00 -0.5762296594234E-02
 0.3894466248384E-02 -0.1640919890541E-01  0.0000000000000E+00 -0.5588174927894E-02
 0.3840903523919E-02 -0.1608055750335E-01  0.0000000000000E+00 -0.5444298123072E-02
 0.3765133287573E-02 -0.1574275655653E-01  0.0000000000000E+00 -0.5322158955791E-02
 0.3671240494466E-02 -0.1539667805128E-01  0.0000000000000E+00 -0.5215741999051E-02
 0.3562336258023E-02 -0.1504229196808E-01  0.0000000000000E+00 -0.5121595620341E-02
 0.3441487865697E-02 -0.1467943415446E-01  0.0000000000000E+00 -0.5038114518924E-02
 0.3312420651736E-02 -0.1430914100697E-01  0.0000000000000E+00 -0.4963549103460E-02
 0.3179495272604E-02 -0.1393439551748E-01  0.0000000000000E+00 -0.4893748451819E-02
 0.3046418559557E-02 -0.1355783703157E-01  0.0000000000000E+00 -0.4822377498112E-02
 0.2914970177943E-02 -0.1317960291001E-01  0.0000000000000E+00 -0.4742675226418E-02
 0.2784820378076E-02 -0.1279768435986E-01  0.0000000000000E+00 -0.4648684141206E-02
 0.2654012466400E-02 -0.1240881073907E-01  0.0000000000000E+00 -0.4536280946536E-02
 0.2519747320015E-02 -0.1200921825091E-01  0.0000000000000E+00 -0.4403729713553E-02
 0.2379155570141E-02 -0.1159515400448E-01  0.0000000000000E+00 -0.4251683170403E-02
 0.2229879485677E-02 -0.1116309959047E-01  0.0000000000000E+00 -0.4082888720164E-02
 0.2070460476862E-02 -0.1070980850677E-01  0.0000000000000E+00 -0.3901946210359E-02
 0.1900634790195E-02 -0.1023226607366E-01  0.0000000000000E+00 -0.3715377444451E-02
 0.1721626627665E-02 -0.9727408229527E-02  0.0000000000000E+00 -0.3532458434834E-02
 0.1536724073370E-02 -0.9192004029317E-02  0.0000000000000E+00 -0.3366657232477E-02
 0.1352508481667E-02 -0.8623447939332E-02  0.0000000000000E+00 -0.3236733186937E-02
 0.1180716319784E-02 -0.8021059728618E-02  0.0000000000000E+00 -0.3167546684664E-02
 0.1040740987063E-02 -0.7387707323373E-02  0.0000000000000E+00 -0.3190605190508E-02
 0.9629887721270E-03 -0.6732201273327E-02  0.0000000000000E+00 -0.3343492294214E-02
 0.9932604570280E-03 -0.6072709682130E-02  0.0000000000000E+00 -0.3667155729137E-02
 0.1198226987217E-02 -0.5441329510155E-02  0.0000000000000E+00 -0.4199161195466E-02
 0.1671626581610E-02 -0.4889263536390E-02  0.0000000000000E+00 -0.4959786828079E-02
 0.2539481896930E-02 -0.4490790284505E-02  0.0000000000000E+00 -0.5925185230450E-02
 0.3953159315593E-02 -0.4343149620835E-02  0.0000000000000E+00 -0.6969319713516E-02
 0.6047388210674E-02 -0.4543995357597E-02  0.0000000000000E+00 -0.7783623141256E-02
 0.8852713253239E-02 -0.5126670193769E-02  0.0000000000000E+00 -0.7854093624821E-02
 0.1219254720143E-01 -0.5979451897679E-02  0.0000000000000E+00 -0.6596011119994E-02
 0.3206443748591E-03 -0.1595764425423E-01  0.0000000000000E+00 -0.6369456701154E-02
 0.1004348203535E-02 -0.1633344526009E-01  0.0000000000000E+00 -0.7168588908891E-02
 0.1714655910371E-02 -0.1666685488845E-01  0.0000000000000E+00 -0.7548052187003E-02
 0.2352955896117E-02 -0.1689489684801E-01  0.0000000000000E+00 -0.7578948502417E-02
 0.2864020906760E-02 -0.1699158836569E-01  0.0000000000000E+00 -0.7388928131723E-02
 0.3236697358530E-02 -0.1696460148363E-01  0.0000000000000E+00 -0.7098512428830E-02
 0.3486599738917E-02 -0.1683880654910E-01  0.0000000000000E+00 -0.6789898048549E-02
 0.3638730059747E-02 -0.1664176025786E-01  0.0000000000000E+00 -0.6506059033852E-02
 0.3717220448036E-02 -0.1639634539207E-01  0.0000000000000E+00 -0.6262678995938E-02
 0.3741427469074E-02 -0.1611896007111E-01  0.0000000000000E+00 -0.6060475225376E-02
 0.3725492361100E-02 -0.1582028942187E-01  0.0000000000000E+00 -0.5893660132729E-02
 0.3679215611728E-02 -0.1550673362689E-01  0.0000000000000E+00 -0.5754726713087E-02
 0.3609222649657E-02 -0.1518173029170E-01  0.0000000000000E+00 -0.5636872280827E-02
 0.3520092959275E-02 -0.1484683495941E-01  0.0000000000000E+00 -0.5535077904573E-02
 0.3415375033612E-02 -0.1450260554212E-01  0.0000000000000E+00 -0.5446306886665E-02
 0.3298394627524E-02 -0.1414931891449E-01  0.0000000000000E+00 -0.5368932157284E-02
 0.3172868040791E-02 -0.1378821377354E-01  0.0000000000000E+00 -0.5301051452025E-02
 0.3042916777399E-02 -0.1342221549895E-01  0.0000000000000E+00 -0.5238604224728E-02
 0.2911977184677E-02 -0.1305382174829E-01  0.0000000000000E+00 -0.5175711080782E-02
 0.2781734045210E-02 -0.1268312915141E-01  0.0000000000000E+00 -0.5106272688106E-02
 0.2652000588790E-02 -0.1230820395983E-01  0.0000000000000E+00 -0.5024961235078E-02
 0.2521132366752E-02 -0.1192589117091E-01  0.0000000000000E+00 -0.4928082893520E-02
 0.2386699230141E-02 -0.1153250313131E-01  0.0000000000000E+00 -0.4814123159935E-02
 0.2246180548731E-02 -0.1112429141945E-01  0.0000000000000E+00 -0.4683860175374E-02
 0.2097535484642E-02 -0.1069769538090E-01  0.0000000000000E+00 -0.4540209022446E-02
 0.1939635918625E-02 -0.1024944583514E-01  0.0000000000000E+00 -0.4388072016080E-02
 0.1772642588476E-02 -0.9776614799080E-02  0.0000000000000E+00 -0.4234416465888E-02
 0.1598394866212E-02 -0.9276451157127E-02  0.0000000000000E+00 -0.4088992211446E-02
 0.1421065850236E-02 -0.8746383161566E-02  0.0000000000000E+00 -0.3965534344502E-02
 0.1248410701095E-02 -0.8184885785748E-02  0.0000000000000E+00 -0.3882546785431E-02
 0.1093578399484E-02 -0.7592828552989E-02  0.0000000000000E+00 -0.3863689875702E-02
 0.9774754180707E-03 -0.6975122544909E-02  0.0000000000000E+00 -0.3937738833960E-02
 0.9318148868087E-03 -0.6343044635983E-02  0.0000000000000E+00 -0.4137199000763E-02
 0.1002851250253E-02 -0.5717347444094E-02  0.0000000000000E+00 -0.4494505112412E-02
 0.1255547927435E-02 -0.5132013616799E-02  0.0000000000000E+00 -0.5034074089042E-02
 0.1777353429218E-02 -0.4637705223313E-02  0.0000000000000E+00 -0.5757889805422E-02
 0.2679599454904E-02 -0.4302806196673E-02  0.0000000000000E+00 -0.6621098633697E-02
 0.4086977098500E-02 -0.4209527448864E-02  0.0000000000000E+00 -0.7485304738748E-02
 0.6098778103485E-02 -0.4431603425726E-02  0.0000000000000E+00 -0.8062604742182E-02
 0.8720419026586E-02 -0.4982848143443E-02  0.0000000000000E+00 -0.7915596314049E-02
 0.1179395084704E-01 -0.5762125319641E-02  0.0000000000000E+00 -0.6577095140951E-02
 0.2903221089008E-03 -0.1527405659732E-01  0.0000000000000E+00 -0.6164326654461E-02
 0.9108850885112E-03 -0.1561701588058E-01  0.0000000000000E+00 -0.6984143672611E-02
 0.1562420638467E-02 -0.1592774149039E-01  0.0000000000000E+00 -0.7430064444666E-02
 0.2159941181319E-02 -0.1615092963023E-01  0.0000000000000E+00 -0.7553269953745E-02
 0.2651372484489E-02 -0.1625982061504E-01  0.0000000000000E+00 -0.7456392553496E-02
 0.3020946922967E-02 -0.1625596746199E-01  0.0000000000000E+00 -0.7243620480703E-02
 0.3277413253262E-02 -0.1615757840830E-01  0.0000000000000E+00 -0.6992060134737E-02
 0.3440167012743E-02 -0.1598760554248E-01  0.0000000000000E+00 -0.6746772501914E-02
 0.3529917468675E-02 -0.1576665507149E-01  0.0000000000000E+00 -0.6528125388798E-02
 0.3564370910780E-02 -0.1551044331937E-01  0.0000000000000E+00 -0.6341464525901E-02
 0.3557110214814E-02 -0.1522980107759E-01  0.0000000000000E+00 -0.6184648298224E-02
 0.3517953976738E-02 -0.1493161489909E-01  0.0000000000000E+00 -0.6052768963631E-02
 0.3453817053517E-02 -0.1461991075573E-01  0.0000000000000E+00 -0.5940761448943E-02
 0.3369662638026E-02 -0.1429682888982E-01  0.0000000000000E+00 -0.5844657723356E-02
 0.3269387768324E-02 -0.1396344382514E-01  0.0000000000000E+00 -0.5761915893404E-02
 0.3156520091453E-02 -0.1362041751583E-01  0.0000000000000E+00 -0.5691006389518E-02
 0.3034759906192E-02 -0.1326916193148E-01  0.0000000000000E+00 -0.5630011384806E-02
 0.2908027929986E-02 -0.1291254607170E-01  0.0000000000000E+00 -0.5575059371187E-02
 0.2779538648971E-02 -0.1255294088580E-01  0.0000000000000E+00 -0.5520752306468E-02
 0.2650903858018E-02 -0.1219041156486E-01  0.0000000000000E+00 -0.5461632537819E-02
 0.2522068079649E-02 -0.1182310329563E-01  0.0000000000000E+00 -0.5392992401792E-02
 0.2391674953260E-02 -0.1144799192981E-01  0.0000000000000E+00 -0.5311596568495E-02
 0.2257651332337E-02 -0.1106150695376E-01  0.0000000000000E+00 -0.5216203628094E-02
 0.2117836609805E-02 -0.1065997316372E-01  0.0000000000000E+00 -0.5107754454171E-02
 0.1970537878883E-02 -0.1023987654936E-01  0.0000000000000E+00 -0.4989321212060E-02
 0.1814995918030E-02 -0.9798023331081E-02  0.0000000000000E+00 -0.4866027584561E-02
 0.1651824435200E-02 -0.9331667624704E-02  0.0000000000000E+00 -0.4745121372121E-02
 0.1483475738703E-02 -0.8838450188136E-02  0.0000000000000E+00 -0.4636571824806E-02
 0.1314952708260E-02 -0.8316503938725E-02  0.0000000000000E+00 -0.4554038622896E-02
 0.1155052913047E-02 -0.7765374279666E-02  0.0000000000000E+00 -0.4515347353777E-02
 0.1018101124092E-02 -0.7187381106429E-02  0.0000000000000E+00 -0.4542471920817E-02
 0.9261323031045E-03 -0.6589234990001E-02  0.0000000000000E+00 -0.4660951189387E-02
 0.9115785093965E-03 -0.5984208840049E-02  0.0000000000000E+00 -0.4897816305797E-02
 0.1020314205463E-02 -0.5394843320059E-02  0.0000000000000E+00 -0.5277002993578E-02
 0.1314584710650E-02 -0.4855833509064E-02  0.0000000000000E+00 -0.5810811782424E-02
 0.1874771668002E-02 -0.4415940597302E-02  0.0000000000000E+00 -0.6485939429014E-02
 0.2798088054084E-02 -0.4136859850860E-02  0.0000000000000E+00 -0.7242321819302E-02
 0.4186397019266E-02 -0.4087209853768E-02  0.0000000000000E+00 -0.7936648072857E-02
 0.6111751964569E-02 -0.4321894834202E-02  0.0000000000000E+00 -0.8304764828382E-02
 0.8563288962236E-02 -0.4841542453420E-02  0.0000000000000E+00 -0.7974324158813E-02
 0.1140138032464E-01 -0.5555777738502E-02  0.0000000000000E+00 -0.6566803048756E-02
 0.2635491037185E-03 -0.1460688396089E-01  0.0000000000000E+00 -0.5977619206252E-02
 0.8280514508372E-03 -0.1492027117131E-01  0.0000000000000E+00 -0.6813538586909E-02
 0.1426062977637E-02 -0.1520921652674E-01  0.0000000000000E+00 -0.7314729848653E-02
 0.1984126131847E-02 -0.1542517123224E-01  0.0000000000000E+00 -0.7517569691645E-02
 0.2453862166217E-02 -0.1554169999334E-01  0.0000000000000E+00 -0.7504488767657E-02
 0.2816704942835E-02 -0.1555603290677E-01  0.0000000000000E+00 -0.7364950690180E-02
 0.3076091517878E-02 -0.1548095953902E-01  0.0000000000000E+00 -0.7170020772811E-02
 0.3246572748811E-02 -0.1533523689310E-01  0.0000000000000E+00 -0.6965110522238E-02
 0.3345584370750E-02 -0.1513707528535E-01  0.0000000000000E+00 -0.6773864205502E-02
 0.3389049379529E-02 -0.1490121504750E-01  0.0000000000000E+00 -0.6605442359253E-02
 0.3389794732327E-02 -0.1463835730143E-01  0.0000000000000E+00 -0.6460984907070E-02
 0.3357482394528E-02 -0.1435567411485E-01  0.0000000000000E+00 -0.6338062549363E-02
 0.3299179310509E-02 -0.1405764390142E-01  0.0000000000000E+00 -0.6233333735888E-02
 0.3220123726741E-02 -0.1374689522983E-01  0.0000000000000E+00 -0.6143914767250E-02
 0.3124476853179E-02 -0.1342494509038E-01  0.0000000000000E+00 -0.6067829219463E-02
 0.3015916667478E-02 -0.1309278698485E-01  0.0000000000000E+00 -0.6003751894174E-02
 0.2898119860791E-02 -0.1275198027474E-01  0.0000000000000E+00 -0.5949867321670E-02
 0.2774836693038E-02 -0.1240533944013E-01  0.0000000000000E+00 -0.5902575785807E-02
 0.2649099634746E-02 -0.1205512371159E-01  0.0000000000000E+00 -0.5856981978617E-02
 0.2522467230429E-02 -0.1170137826343E-01  0.0000000000000E+00 -0.5808250423496E-02
 0.2395007605497E-02 -0.1134233345493E-01  0.0000000000000E+00 -0.5752276671230E-02
 0.2265632066405E-02 -0.1097510917664E-01  0.0000000000000E+00 -0.5686294574122E-02
 0.2132610786091E-02 -0.1059628446294E-01  0.0000000000000E+00 -0.5609365360048E-02
 0.1994146435328E-02 -0.1020231226475E-01  0.0000000000000E+00 -0.5522612274494E-02
 0.1848912309459E-02 -0.9789797288424E-02  0.0000000000000E+00 -0.5429244491165E-02
 0.1696540630744E-02 -0.9355700260202E-02  0.0000000000000E+00 -0.5334525431669E-02
 0.1538108762375E-02 -0.8897531135620E-02  0.0000000000000E+00 -0.5245827802854E-02
 0.1376661186741E-02 -0.8413376074050E-02  0.0000000000000E+00 -0.5173107696239E-02
 0.1217957190653E-02 -0.7902087898141E-02  0.0000000000000E+00 -0.5129645561792E-02
 0.1071689093699E-02 -0.7364236947381E-02  0.0000000000000E+00 -0.5132229263795E-02
 0.9531104821425E-03 -0.6803455785389E-02  0.0000000000000E+00 -0.5200762649215E-02
 0.8850073865465E-03 -0.6227978450250E-02  0.0000000000000E+00 -0.5357206814510E-02
 0.8999929476863E-03 -0.5652600069040E-02  0.0000000000000E+00 -0.5622965353528E-02
 0.1042869198139E-02 -0.5100926468764E-02  0.0000000000000E+00 -0.6013802157191E-02
 0.1372446682987E-02 -0.4607421905195E-02  0.0000000000000E+00 -0.6531209467104E-02
 0.1961730029699E-02 -0.4218038179253E-02  0.0000000000000E+00 -0.7149500081321E-02
 0.2894809905262E-02 -0.3987587115256E-02  0.0000000000000E+00 -0.7798181835546E-02
 0.4254327944427E-02 -0.3972730916406E-02  0.0000000000000E+00 -0.8334071650802E-02
 0.6091640908124E-02 -0.4213868786254E-02  0.0000000000000E+00 -0.8517465447313E-02
 0.8385473855382E-02 -0.4702815400021E-02  0.0000000000000E+00 -0.8031300646575E-02
 0.1101281335073E-01 -0.5358852645075E-02  0.0000000000000E+00 -0.6563783479679E-02
 0.2397535328663E-03 -0.1395411812848E-01  0.0000000000000E+00 -0.5807393358087E-02
 0.7542008692004E-03 -0.1424079276616E-01  0.0000000000000E+00 -0.6655900258852E-02
 0.1303392054749E-02 -0.1450903483553E-01  0.0000000000000E+00 -0.7203351431681E-02
 0.1823633149625E-02 -0.1471619540351E-01  0.0000000000000E+00 -0.7475047823103E-02
 0.2270424103284E-02 -0.1483683187320E-01  0.0000000000000E+00 -0.7537116696547E-02
 0.2623708462277E-02 -0.1486520690037E-01  0.0000000000000E+00 -0.7466000318546E-02
 0.2882900771790E-02 -0.1480977744473E-01  0.0000000000000E+00 -0.7326351632943E-02
 0.3058455575118E-02 -0.1468558613384E-01  0.0000000000000E+00 -0.7162689350950E-02
 0.3164778918407E-02 -0.1450846684807E-01  0.0000000000000E+00 -0.7000752332385E-02
 0.3215972751907E-02 -0.1429199838935E-01  0.0000000000000E+00 -0.6852733752724E-02
 0.3223970831563E-02 -0.1404653494008E-01  0.0000000000000E+00 -0.6722642967266E-02
 0.3198132865545E-02 -0.1377935472756E-01  0.0000000000000E+00 -0.6610351665533E-02
 0.3145552347303E-02 -0.1349525590347E-01  0.0000000000000E+00 -0.6514187780757E-02
 0.3071639843677E-02 -0.1319725704894E-01  0.0000000000000E+00 -0.6432363354898E-02
 0.2980741888821E-02 -0.1288724323452E-01  0.0000000000000E+00 -0.6363524490940E-02
 0.2876639417182E-02 -0.1256648822453E-01  0.0000000000000E+00 -0.6306641833886E-02
 0.2762976747552E-02 -0.1223667464666E-01  0.0000000000000E+00 -0.6260101278763E-02
 0.2643356892469E-02 -0.1190056367485E-01  0.0000000000000E+00 -0.6220642864368E-02
 0.2520662349514E-02 -0.1156031655955E-01  0.0000000000000E+00 -0.6183890682669E-02
 0.2396415388246E-02 -0.1121597040542E-01  0.0000000000000E+00 -0.6145612168345E-02
 0.2270802397628E-02 -0.1086584817885E-01  0.0000000000000E+00 -0.6102284327811E-02
 0.2142984714746E-02 -0.1050722532191E-01  0.0000000000000E+00 -0.6051607439685E-02
 0.2011560964791E-02 -0.1013685599474E-01  0.0000000000000E+00 -0.5992957399511E-02
 0.1875093818411E-02 -0.9751364539358E-02  0.0000000000000E+00 -0.5927644593778E-02
 0.1732630029198E-02 -0.9347531302007E-02  0.0000000000000E+00 -0.5858987252129E-02
 0.1584201784467E-02 -0.8922532939785E-02  0.0000000000000E+00 -0.5792308075025E-02
 0.1431345236744E-02 -0.8474188911573E-02  0.0000000000000E+00 -0.5734960977230E-02
 0.1277660760618E-02 -0.8001061603189E-02  0.0000000000000E+00 -0.5696681339723E-02
 0.1129576891008E-02 -0.7502713546753E-02  0.0000000000000E+00 -0.5690108647641E-02
 0.9975234526516E-03 -0.6980667296509E-02  0.0000000000000E+00 -0.5730699425165E-02
 0.8974357413332E-03 -0.6439705227584E-02  0.0000000000000E+00 -0.5836003756002E-02
 0.8524944006463E-03 -0.5889296083796E-02  0.0000000000000E+00 -0.6024210125508E-02
 0.8950207466636E-03 -0.5345305370580E-02  0.0000000000000E+00 -0.6311138589049E-02
 0.1068195126643E-02 -0.4831777503795E-02  0.0000000000000E+00 -0.6704926071322E-02
 0.1426933437269E-02 -0.4382223129230E-02  0.0000000000000E+00 -0.7197677443577E-02
 0.2036882466101E-02 -0.4039238189542E-02  0.0000000000000E+00 -0.7753981243623E-02
 0.2970248011258E-02 -0.3850929745253E-02  0.0000000000000E+00 -0.8296671713609E-02
 0.4293592150993E-02 -0.3863689035242E-02  0.0000000000000E+00 -0.8686168231991E-02
 0.6042840600498E-02 -0.4106678723889E-02  0.0000000000000E+00 -0.8705789900057E-02
 0.8190416922592E-02 -0.4566962361269E-02  0.0000000000000E+00 -0.8086613767506E-02
 0.1062656302308E-01 -0.5170109620896E-02  0.0000000000000E+00 -0.6567524470372E-02
 0.2184792906838E-03 -0.1331408325313E-01  0.0000000000000E+00 -0.5651980392520E-02
 0.6880010452916E-03 -0.1357655049286E-01  0.0000000000000E+00 -0.6510355121319E-02
 0.1192571562521E-02 -0.1382523834676E-01  0.0000000000000E+00 -0.7096755164375E-02
 0.1676782463246E-02 -0.1402263098595E-01  0.0000000000000E+00 -0.7428142103225E-02
 0.2099979729165E-02 -0.1414466117302E-01  0.0000000000000E+00 -0.7557475534249E-02
 0.2441545265784E-02 -0.1418363646897E-01  0.0000000000000E+00 -0.7549830583040E-02
 0.2697920181409E-02 -0.1414460313886E-01  0.0000000000000E+00 -0.7463457996346E-02
 0.2876160161002E-02 -0.1403938629784E-01  0.0000000000000E+00 -0.7341135720608E-02
 0.2987937938133E-02 -0.1388155555593E-01  0.0000000000000E+00 -0.7209739069177E-02
 0.3045568723485E-02 -0.1368343076454E-01  0.0000000000000E+00 -0.7083778101132E-02
 0.3060009360138E-02 -0.1345485716185E-01  0.0000000000000E+00 -0.6969704752784E-02
 0.3040202145678E-02 -0.1320306566974E-01  0.0000000000000E+00 -0.6869477329752E-02
 0.2993156875497E-02 -0.1293305030948E-01  0.0000000000000E+00 -0.6783007416534E-02
 0.2924362297462E-02 -0.1264812373429E-01  0.0000000000000E+00 -0.6709593004824E-02
 0.2838277767853E-02 -0.1235046652621E-01  0.0000000000000E+00 -0.6648544000616E-02
 0.2738743563551E-02 -0.1204158371594E-01  0.0000000000000E+00 -0.6599201610823E-02
 0.2629361609681E-02 -0.1172325804241E-01  0.0000000000000E+00 -0.6560233947884E-02
 0.2513604719342E-02 -0.1139819727101E-01  0.0000000000000E+00 -0.6528775043875E-02
 0.2394230624100E-02 -0.1106847646875E-01  0.0000000000000E+00 -0.6500980041573E-02
 0.2272739270097E-02 -0.1073413608361E-01  0.0000000000000E+00 -0.6473199835303E-02
 0.2149431116731E-02 -0.1039359940128E-01  0.0000000000000E+00 -0.6442467903334E-02
 0.2023701812250E-02 -0.1004430731500E-01  0.0000000000000E+00 -0.6406938408924E-02
 0.1894462619859E-02 -0.9683209031929E-02  0.0000000000000E+00 -0.6366300402006E-02
 0.1760627577385E-02 -0.9307133526236E-02  0.0000000000000E+00 -0.6322044271885E-02
 0.1621614795355E-02 -0.8913080235931E-02  0.0000000000000E+00 -0.6277563465925E-02
 0.1477852880380E-02 -0.8498487120946E-02  0.0000000000000E+00 -0.6238162383526E-02
 0.1331318736039E-02 -0.8061518727374E-02  0.0000000000000E+00 -0.6211046168470E-02
 0.1186119883819E-02 -0.7601224782530E-02  0.0000000000000E+00 -0.6205548826850E-02
 0.1049257327565E-02 -0.7117846680412E-02  0.0000000000000E+00 -0.6233450558816E-02
 0.9317374842948E-03 -0.6613766799478E-02  0.0000000000000E+00 -0.6308647823765E-02
 0.8499382495208E-03 -0.6094740636510E-02  0.0000000000000E+00 -0.6446146216362E-02
 0.8271091316727E-03 -0.5571185496620E-02  0.0000000000000E+00 -0.6660292925551E-02
 0.8948782202842E-03 -0.5059624252181E-02  0.0000000000000E+00 -0.6961520647025E-02
 0.1094391344977E-02 -0.4584017798797E-02  0.0000000000000E+00 -0.7351018334552E-02
 0.1476415673589E-02 -0.4176397172393E-02  0.0000000000000E+00 -0.7812929603977E-02
 0.2099502261573E-02 -0.3875729946341E-02  0.0000000000000E+00 -0.8304439180707E-02
 0.3025229452292E-02 -0.3723823282399E-02  0.0000000000000E+00 -0.8744647114896E-02
 0.4306992697400E-02 -0.3758369847222E-02  0.0000000000000E+00 -0.8999547539443E-02
 0.5968600007226E-02 -0.3999877687624E-02  0.0000000000000E+00 -0.8874336401796E-02
 0.7981532296839E-02 -0.4433088570012E-02  0.0000000000000E+00 -0.8137466506819E-02
 0.1024008366099E-01 -0.4990727887440E-02  0.0000000000000E+00 -0.6580473914241E-02
 0.1993578467526E-03 -0.1268536278825E-01  0.0000000000000E+00 -0.5509936945097E-02
 0.6283628380785E-03 -0.1292582252952E-01  0.0000000000000E+00 -0.6376059691262E-02
 0.1092055190000E-02 -0.1315611489400E-01  0.0000000000000E+00 -0.6995434071638E-02
 0.1542080503261E-02 -0.1334318496543E-01  0.0000000000000E+00 -0.7378704751450E-02
 0.1941474518934E-02 -0.1346453725012E-01  0.0000000000000E+00 -0.7568178186878E-02
 0.2269705696536E-02 -0.1351127347109E-01  0.0000000000000E+00 -0.7619093252513E-02
 0.2521082853425E-02 -0.1348579632040E-01  0.0000000000000E+00 -0.7583547871107E-02
 0.2699890389407E-02 -0.1339719276034E-01  0.0000000000000E+00 -0.7502037966016E-02
 0.2815386006251E-02 -0.1325693727196E-01  0.0000000000000E+00 -0.7401822863425E-02
 0.2878183800255E-02 -0.1307606142455E-01  0.0000000000000E+00 -0.7299098758926E-02
 0.2898225172104E-02 -0.1286378897049E-01  0.0000000000000E+00 -0.7202342912397E-02
 0.2883949400034E-02 -0.1262717747905E-01  0.0000000000000E+00 -0.7115366021367E-02
 0.2842189411797E-02 -0.1237130549072E-01  0.0000000000000E+00 -0.7039554018900E-02
 0.2778428302875E-02 -0.1209968933272E-01  0.0000000000000E+00 -0.6975262018549E-02
 0.2697172674470E-02 -0.1181473595322E-01  0.0000000000000E+00 -0.6922488725463E-02
 0.2602282113566E-02 -0.1151813512472E-01  0.0000000000000E+00 -0.6881003696389E-02
 0.2497305031877E-02 -0.1121174714490E-01  0.0000000000000E+00 -0.6849821034056E-02
 0.2385595867961E-02 -0.1089822468149E-01  0.0000000000000E+00 -0.6826510310674E-02
 0.2269806880034E-02 -0.1057956615474E-01  0.0000000000000E+00 -0.6807764188435E-02
 0.2151426582853E-02 -0.1025582556547E-01  0.0000000000000E+00 -0.6790496948442E-02
 0.2030865608900E-02 -0.9925533812073E-02  0.0000000000000E+00 -0.6772271337472E-02
 0.1907739390725E-02 -0.9586305459984E-02  0.0000000000000E+00 -0.6751675815382E-02
 0.1781255165752E-02 -0.9235299841846E-02  0.0000000000000E+00 -0.6728700878532E-02
 0.1650665306971E-02 -0.8869575215567E-02  0.0000000000000E+00 -0.6705000723629E-02
 0.1515749361247E-02 -0.8486381722301E-02  0.0000000000000E+00 -0.6684006378117E-02
 0.1377318693370E-02 -0.8083449739272E-02  0.0000000000000E+00 -0.6670930827771E-02
 0.1237762133707E-02 -0.7659308625132E-02  0.0000000000000E+00 -0.6672715450636E-02
 0.1101636110012E-02 -0.7213489956399E-02  0.0000000000000E+00 -0.6698139874019E-02
 0.9764115235831E-03 -0.6746867074338E-02  0.0000000000000E+00 -0.6757949704834E-02
 0.8735118082706E-03 -0.6262576851359E-02  0.0000000000000E+00 -0.6864314224392E-02
 0.8095325293740E-03 -0.5767166689146E-02  0.0000000000000E+00 -0.7029587098577E-02
 0.8075028058938E-03 -0.5271730172156E-02  0.0000000000000E+00 -0.7264309656316E-02
 0.8980289229990E-03 -0.4793082969800E-02  0.0000000000000E+00 -0.7573833209618E-02
 0.1119929658283E-02 -0.4354683031702E-02  0.0000000000000E+00 -0.7953146549327E-02
 0.1519736952957E-02 -0.3986722720585E-02  0.0000000000000E+00 -0.8379786084690E-02
 0.2149298734982E-02 -0.3724466333166E-02  0.0000000000000E+00 -0.8805509175715E-02
 0.3060871569579E-02 -0.3603952334023E-02  0.0000000000000E+00 -0.9147870874180E-02
 0.4296872584167E-02 -0.3655545948094E-02  0.0000000000000E+00 -0.9279636989093E-02
 0.5872726927091E-02 -0.3893270364085E-02  0.0000000000000E+00 -0.9025772887003E-02
 0.7757091190647E-02 -0.4300123313450E-02  0.0000000000000E+00 -0.8185853250385E-02
 0.9866806488820E-02 -0.4820232991560E-02  0.0000000000000E+00 -0.6590124339321E-02
 0.1820878707008E-03 -0.1206674501076E-01  0.0000000000000E+00 -0.5380007695866E-02
 0.5743872062212E-03 -0.1228713406154E-01  0.0000000000000E+00 -0.6252216538710E-02
 0.1000534017242E-02 -0.1250016147258E-01  0.0000000000000E+00 -0.6899649112511E-02
 0.1418203439464E-02 -0.1267665192434E-01  0.0000000000000E+00 -0.7328138192297E-02
 0.1793899799054E-02 -0.1279575849033E-01  0.0000000000000E+00 -0.7571351563459E-02
 0.2107621120665E-02 -0.1284792681393E-01  0.0000000000000E+00 -0.7676067242074E-02
 0.2352210381995E-02 -0.1283354513824E-01  0.0000000000000E+00 -0.7688619426631E-02
 0.2529731474530E-02 -0.1275940528155E-01  0.0000000000000E+00 -0.7646912178269E-02
 0.2647346038247E-02 -0.1263508623845E-01  0.0000000000000E+00 -0.7578016522550E-02
 0.2714086606408E-02 -0.1247035215513E-01  0.0000000000000E+00 -0.7499275930551E-02
 0.2738876983250E-02 -0.1227373495959E-01  0.0000000000000E+00 -0.7420801956919E-02
 0.2729594900095E-02 -0.1205201966114E-01  0.0000000000000E+00 -0.7348017512650E-02
 0.2692820744894E-02 -0.1181027252456E-01  0.0000000000000E+00 -0.7283657977113E-02
 0.2633959323475E-02 -0.1155213084981E-01  0.0000000000000E+00 -0.7229090722052E-02
 0.2557506166942E-02 -0.1128016342718E-01  0.0000000000000E+00 -0.7185012661797E-02
 0.2467303679838E-02 -0.1099620096739E-01  0.0000000000000E+00 -0.7151663209110E-02
 0.2366834840146E-02 -0.1070215927923E-01  0.0000000000000E+00 -0.7128450437424E-02
 0.2259343200888E-02 -0.1040063264128E-01  0.0000000000000E+00 -0.7113409332373E-02
 0.2147389782298E-02 -0.1009355002887E-01  0.0000000000000E+00 -0.7103771324918E-02
 0.2032459612524E-02 -0.9780987611836E-02  0.0000000000000E+00 -0.7096993018909E-02
 0.1915069323162E-02 -0.9461590279372E-02  0.0000000000000E+00 -0.7091137655611E-02
 0.1795040233419E-02 -0.9133152719808E-02  0.0000000000000E+00 -0.7085203428166E-02
 0.1671858089590E-02 -0.8793055226664E-02  0.0000000000000E+00 -0.7079463157259E-02
 0.1545096970875E-02 -0.8438602592659E-02  0.0000000000000E+00 -0.7075712185289E-02
 0.1414881531590E-02 -0.8067316985244E-02  0.0000000000000E+00 -0.7077379670787E-02
 0.1282383993316E-02 -0.7677239906193E-02  0.0000000000000E+00 -0.7089519911312E-02
 0.1150367802390E-02 -0.7267271693878E-02  0.0000000000000E+00 -0.7118711253526E-02
 0.1023773336045E-02 -0.6837406737629E-02  0.0000000000000E+00 -0.7173053466212E-02
 0.9104364117267E-03 -0.6389091583105E-02  0.0000000000000E+00 -0.7262123513312E-02
 0.8220432978785E-03 -0.5926105108349E-02  0.0000000000000E+00 -0.7396253003488E-02
 0.7752007389012E-03 -0.5455608171021E-02  0.0000000000000E+00 -0.7585108302328E-02
 0.7924675472069E-03 -0.4989119807090E-02  0.0000000000000E+00 -0.7835542530104E-02
 0.9031686701506E-03 -0.4543436295320E-02  0.0000000000000E+00 -0.8148204638421E-02
 0.1143608079329E-02 -0.4141188217094E-02  0.0000000000000E+00 -0.8512649513720E-02
 0.1556114746900E-02 -0.3810505236809E-02  0.0000000000000E+00 -0.8901045770343E-02
 0.2186327820677E-02 -0.3583013886292E-02  0.0000000000000E+00 -0.9261362086655E-02
 0.3078334837231E-02 -0.3489553207741E-02  0.0000000000000E+00 -0.9511207248691E-02
 0.4265719165186E-02 -0.3554401255727E-02  0.0000000000000E+00 -0.9530722789028E-02
 0.5757019198821E-02 -0.3786539070898E-02  0.0000000000000E+00 -0.9162263338014E-02
 0.7522448385227E-02 -0.4168562523880E-02  0.0000000000000E+00 -0.8232967790377E-02
 0.9485844006315E-02 -0.4652305951929E-02  0.0000000000000E+00 -0.6592220816680E-02
 0.1664202428181E-03 -0.1145718178380E-01  0.0000000000000E+00 -0.5261095509218E-02
 0.5253251078509E-03 -0.1165920971455E-01  0.0000000000000E+00 -0.6138081775186E-02
 0.9168938451304E-03 -0.1185605235156E-01  0.0000000000000E+00 -0.6809500247224E-02
 0.1303979092974E-02 -0.1202191541289E-01  0.0000000000000E+00 -0.7277499120389E-02
 0.1656304471027E-02 -0.1213760240214E-01  0.0000000000000E+00 -0.7568722225057E-02
 0.1954691879296E-02 -0.1219330261367E-01  0.0000000000000E+00 -0.7722698955460E-02
 0.2191041210744E-02 -0.1218790018402E-01  0.0000000000000E+00 -0.7780460827402E-02
 0.2365670353497E-02 -0.1212628945295E-01  0.0000000000000E+00 -0.7777180346099E-02
 0.2483950691483E-02 -0.1201636526951E-01  0.0000000000000E+00 -0.7739320228684E-02
 0.2553472777472E-02 -0.1186668031347E-01  0.0000000000000E+00 -0.7684923290870E-02
 0.2582168636696E-02 -0.1168503892039E-01  0.0000000000000E+00 -0.7625380847704E-02
 0.2577319651607E-02 -0.1147787918784E-01  0.0000000000000E+00 -0.7567492563831E-02
 0.2545194895025E-02 -0.1125017359017E-01  0.0000000000000E+00 -0.7515209766414E-02
 0.2491059658533E-02 -0.1100560668636E-01  0.0000000000000E+00 -0.7470854579264E-02
 0.2419347453233E-02 -0.1074685003175E-01  0.0000000000000E+00 -0.7435817429890E-02
 0.2333850556857E-02 -0.1047583444827E-01  0.0000000000000E+00 -0.7410834015380E-02
 0.2237974148387E-02 -0.1019450977809E-01  0.0000000000000E+00 -0.7395739990436E-02
 0.2134854862917E-02 -0.9905407157347E-02  0.0000000000000E+00 -0.7389054967261E-02
 0.2026972444933E-02 -0.9610391064624E-02  0.0000000000000E+00 -0.7388545259508E-02
 0.1915813640025E-02 -0.9309566671889E-02  0.0000000000000E+00 -0.7392187464223E-02
 0.1801996271411E-02 -0.9001697995386E-02  0.0000000000000E+00 -0.7398515410785E-02
 0.1685533868819E-02 -0.8684764460912E-02  0.0000000000000E+00 -0.7406909066567E-02
 0.1566172469595E-02 -0.8356374394028E-02  0.0000000000000E+00 -0.7417899320225E-02
 0.1443788330068E-02 -0.8014090004229E-02  0.0000000000000E+00 -0.7433395793929E-02
 0.1318829759102E-02 -0.7655717978335E-02  0.0000000000000E+00 -0.7456786292061E-02
 0.1192801447156E-02 -0.7279619069001E-02  0.0000000000000E+00 -0.7492906086950E-02
 0.1068797805959E-02 -0.6885059475222E-02  0.0000000000000E+00 -0.7547887236139E-02
 0.9520740064068E-03 -0.6472466730074E-02  0.0000000000000E+00 -0.7629050828520E-02
 0.8507262758835E-03 -0.6043793806168E-02  0.0000000000000E+00 -0.7744709645102E-02
 0.7765580187773E-03 -0.5603346730574E-02  0.0000000000000E+00 -0.7903297671915E-02
 0.7460017624754E-03 -0.5158729557016E-02  0.0000000000000E+00 -0.8111818911866E-02
 0.7809355777764E-03 -0.4721661902382E-02  0.0000000000000E+00 -0.8373617734309E-02
 0.9092070376133E-03 -0.4308660788793E-02  0.0000000000000E+00 -0.8685062293425E-02
 0.1164502275762E-02 -0.3941288726813E-02  0.0000000000000E+00 -0.9031022153675E-02
 0.1585071725356E-02 -0.3645495371297E-02  0.0000000000000E+00 -0.9379402275568E-02
 0.2210861645519E-02 -0.3449424535177E-02  0.0000000000000E+00 -0.9675705948786E-02
 0.3078909396692E-02 -0.3379295574386E-02  0.0000000000000E+00 -0.9838761832069E-02
 0.4215482331670E-02 -0.3454332032154E-02  0.0000000000000E+00 -0.9756112300748E-02
 0.5624400390617E-02 -0.3679686758963E-02  0.0000000000000E+00 -0.9286016599946E-02
 0.7276426217917E-02 -0.4038162104518E-02  0.0000000000000E+00 -0.8276591356029E-02
 0.9105865333782E-02 -0.4486410492922E-02  0.0000000000000E+00 -0.6600679737215E-02
 0.1521468629586E-03 -0.1085575690356E-01  0.0000000000000E+00 -0.5152237375399E-02
 0.4805468753030E-03 -0.1104093632917E-01  0.0000000000000E+00 -0.6032967557599E-02
 0.8401806258434E-03 -0.1122261182138E-01  0.0000000000000E+00 -0.6724976797998E-02
 0.1198369006939E-02 -0.1137794469761E-01  0.0000000000000E+00 -0.7227578311067E-02
 0.1527800063725E-02 -0.1148934545650E-01  0.0000000000000E+00 -0.7561688322485E-02
 0.1810307143574E-02 -0.1154703469808E-01  0.0000000000000E+00 -0.7760642590922E-02
 0.2037253438296E-02 -0.1154880293686E-01  0.0000000000000E+00 -0.7860658034724E-02
 0.2207613850665E-02 -0.1149799664860E-01  0.0000000000000E+00 -0.7894157716163E-02
 0.2325253800249E-02 -0.1140103680154E-01  0.0000000000000E+00 -0.7886701381518E-02
 0.2396470826038E-02 -0.1126534347972E-01  0.0000000000000E+00 -0.7856668409761E-02
 0.2428251429134E-02 -0.1109798491840E-01  0.0000000000000E+00 -0.7816417153284E-02
 0.2427265818177E-02 -0.1090499999626E-01  0.0000000000000E+00 -0.7773900986453E-02
 0.2399428569907E-02 -0.1069120090702E-01  0.0000000000000E+00 -0.7734150997284E-02
 0.2349815341208E-02 -0.1046025532577E-01  0.0000000000000E+00 -0.7700377352449E-02
 0.2282753926395E-02 -0.1021488443555E-01  0.0000000000000E+00 -0.7674647128404E-02
 0.2201957082370E-02 -0.9957081535531E-02  0.0000000000000E+00 -0.7658205204768E-02
 0.2110739736854E-02 -0.9688809743157E-02  0.0000000000000E+00 -0.7651335554790E-02
 0.2012132783576E-02 -0.9412531065083E-02  0.0000000000000E+00 -0.7653051981797E-02
 0.1908541089130E-02 -0.9130048355548E-02  0.0000000000000E+00 -0.7661646850355E-02
 0.1801455843584E-02 -0.8841500790956E-02  0.0000000000000E+00 -0.7675592983487E-02
 0.1691590428328E-02 -0.8545775222732E-02  0.0000000000000E+00 -0.7693864076128E-02
 0.1579136860562E-02 -0.8241038575694E-02  0.0000000000000E+00 -0.7716191729209E-02
 0.1464082573332E-02 -0.7925130929511E-02  0.0000000000000E+00 -0.7743337355993E-02
 0.1346584192997E-02 -0.7595877338409E-02  0.0000000000000E+00 -0.7777295699463E-02
 0.1227388267569E-02 -0.7251374028060E-02  0.0000000000000E+00 -0.7821375191134E-02
 0.1108298687930E-02 -0.6890300296334E-02  0.0000000000000E+00 -0.7880139484730E-02
 0.9926927915910E-03 -0.6512273964086E-02  0.0000000000000E+00 -0.7959206970854E-02
 0.8860694013100E-03 -0.6118118087023E-02  0.0000000000000E+00 -0.8065046468901E-02
 0.7966834842503E-03 -0.5710220544950E-02  0.0000000000000E+00 -0.8204646123938E-02
 0.7363205797197E-03 -0.5293301108493E-02  0.0000000000000E+00 -0.8384526273885E-02
 0.7210759062937E-03 -0.4875248711576E-02  0.0000000000000E+00 -0.8609102255849E-02
 0.7719743878396E-03 -0.4467786718196E-02  0.0000000000000E+00 -0.8878432876380E-02
 0.9152457721611E-03 -0.4086942486805E-02  0.0000000000000E+00 -0.9185045161490E-02
 0.1181924441663E-02 -0.3753041211725E-02  0.0000000000000E+00 -0.9509830939621E-02
 0.1606363558934E-02 -0.3489815812219E-02  0.0000000000000E+00 -0.9817390154634E-02
 0.2223350305610E-02 -0.3322138824610E-02  0.0000000000000E+00 -0.1005182130166E-01
 0.3063830198279E-02 -0.3272163562120E-02  0.0000000000000E+00 -0.1013393692360E-01
 0.4148162168307E-02 -0.3354933429151E-02  0.0000000000000E+00 -0.9958613452333E-02
 0.5476574397484E-02 -0.3572758816093E-02  0.0000000000000E+00 -0.9397871574722E-02
 0.7021191224310E-02 -0.3908702868921E-02  0.0000000000000E+00 -0.8318385677399E-02
 0.8725254872428E-02 -0.4324914300180E-02  0.0000000000000E+00 -0.6610213100074E-02
 0.1390921806101E-03 -0.1026166148930E-01  0.0000000000000E+00 -0.5052584904628E-02
 0.4395185899322E-03 -0.1043133356462E-01  0.0000000000000E+00 -0.5936241727534E-02
 0.7695724309141E-03 -0.1059879109846E-01  0.0000000000000E+00 -0.6645993327255E-02
 0.1100451602482E-02 -0.1074378903569E-01  0.0000000000000E+00 -0.7178961924469E-02
 0.1407561479482E-02 -0.1085027573092E-01  0.0000000000000E+00 -0.7551379361809E-02
 0.1673858637374E-02 -0.1090870750750E-01  0.0000000000000E+00 -0.7791298262176E-02
 0.1890482828980E-02 -0.1091610917729E-01  0.0000000000000E+00 -0.7930607368751E-02
 0.2055404442742E-02 -0.1087458201238E-01  0.0000000000000E+00 -0.7999047010109E-02
 0.2171241317982E-02 -0.1078927406569E-01  0.0000000000000E+00 -0.8021080191063E-02
 0.2243148492180E-02 -0.1066656512318E-01  0.0000000000000E+00 -0.8015136811869E-02
 0.2277227183635E-02 -0.1051279947828E-01  0.0000000000000E+00 -0.7994273030210E-02
 0.2279537795898E-02 -0.1033358333516E-01  0.0000000000000E+00 -0.7967390432106E-02
 0.2255611089413E-02 -0.1013351620386E-01  0.0000000000000E+00 -0.7940465727948E-02
 0.2210293376565E-02 -0.9916194333378E-02  0.0000000000000E+00 -0.7917524452837E-02
 0.2147769993851E-02 -0.9684341540994E-02  0.0000000000000E+00 -0.7901283440254E-02
 0.2071648295691E-02 -0.9439979311591E-02  0.0000000000000E+00 -0.7893497847844E-02
 0.1985140744369E-02 -0.9185064179386E-02  0.0000000000000E+00 -0.7894909350712E-02
 0.1891171518909E-02 -0.8921982068932E-02  0.0000000000000E+00 -0.7905026864568E-02
 0.1792074075392E-02 -0.8652475239574E-02  0.0000000000000E+00 -0.7922655304973E-02
 0.1689344593206E-02 -0.8376720095616E-02  0.0000000000000E+00 -0.7946738439661E-02
 0.1583785483559E-02 -0.8093728529487E-02  0.0000000000000E+00 -0.7976658536526E-02
 0.1475753330740E-02 -0.7801855912455E-02  0.0000000000000E+00 -0.8012467446264E-02
 0.1365457500562E-02 -0.7499174835422E-02  0.0000000000000E+00 -0.8055127754189E-02
 0.1253311470409E-02 -0.7183773997439E-02  0.0000000000000E+00 -0.8106689438995E-02
 0.1140331693733E-02 -0.6854037960759E-02  0.0000000000000E+00 -0.8170346216090E-02
 0.1028584557097E-02 -0.6508956667526E-02  0.0000000000000E+00 -0.8250345785308E-02
 0.9216796259873E-03 -0.6148478211132E-02  0.0000000000000E+00 -0.8351740901980E-02
 0.8252881347162E-03 -0.5773777996907E-02  0.0000000000000E+00 -0.8480097925183E-02
 0.7477268101899E-03 -0.5387605321928E-02  0.0000000000000E+00 -0.8641051181910E-02
 0.7006404350447E-03 -0.4994984660443E-02  0.0000000000000E+00 -0.8839228517355E-02
 0.6996462739488E-03 -0.4603945805733E-02  0.0000000000000E+00 -0.9076568282001E-02
 0.7647788706142E-03 -0.4226047306652E-02  0.0000000000000E+00 -0.9350095139822E-02
 0.9205575140254E-03 -0.3876661424616E-02  0.0000000000000E+00 -0.9648934514550E-02
 0.1195383208335E-02 -0.3574765851143E-02  0.0000000000000E+00 -0.9950651462801E-02
 0.1619932150478E-02 -0.3341899192580E-02  0.0000000000000E+00 -0.1021736087051E-01
 0.2224344729182E-02 -0.3199904518520E-02  0.0000000000000E+00 -0.1039257680408E-01
 0.3034339438645E-02 -0.3167379873875E-02  0.0000000000000E+00 -0.1039961304235E-01
 0.4065466924490E-02 -0.3255941969287E-02  0.0000000000000E+00 -0.1014032148091E-01
 0.5315355078952E-02 -0.3465742241434E-02  0.0000000000000E+00 -0.9498903947130E-02
 0.6757871247302E-02 -0.3780550136661E-02  0.0000000000000E+00 -0.8357602631223E-02
 0.8343606187843E-02 -0.4167312866867E-02  0.0000000000000E+00 -0.6619611285458E-02
 0.1271067033166E-03 -0.9674174620856E-02  0.0000000000000E+00 -0.4961388419086E-02
 0.4017836806094E-03 -0.9829530479702E-02  0.0000000000000E+00 -0.5847325874723E-02
 0.7043566680899E-03 -0.9983648834855E-02  0.0000000000000E+00 -0.6572415316908E-02
 0.1009406842468E-02 -0.1011857079501E-01  0.0000000000000E+00 -0.7132078703122E-02
 0.1294825053266E-02 -0.1021970054902E-01  0.0000000000000E+00 -0.7538705501317E-02
 0.1544749782207E-02 -0.1027787309295E-01  0.0000000000000E+00 -0.7815846836818E-02
 0.1750336801654E-02 -0.1028960801186E-01  0.0000000000000E+00 -0.7991530574530E-02
 0.1908833663356E-02 -0.1025602031003E-01  0.0000000000000E+00 -0.8092937566093E-02
 0.2021841444544E-02 -0.1018117188991E-01  0.0000000000000E+00 -0.8143319957780E-02
 0.2093519211158E-02 -0.1007050081534E-01  0.0000000000000E+00 -0.8160939348481E-02
 0.2129151802825E-02 -0.9929654566104E-02  0.0000000000000E+00 -0.8159323115038E-02
 0.2134203798591E-02 -0.9763788809153E-02  0.0000000000000E+00 -0.8148136132371E-02
 0.2113804733787E-02 -0.9577250687366E-02  0.0000000000000E+00 -0.8134172242893E-02
 0.2072541323397E-02 -0.9373519700939E-02  0.0000000000000E+00 -0.8122196589179E-02
 0.2014426214193E-02 -0.9155281415962E-02  0.0000000000000E+00 -0.8115540996844E-02
 0.1942938894451E-02 -0.8924554622606E-02  0.0000000000000E+00 -0.8116461975674E-02
 0.1861177656926E-02 -0.8683270487160E-02  0.0000000000000E+00 -0.8126158430670E-02
 0.1771957394305E-02 -0.8433731209833E-02  0.0000000000000E+00 -0.8144627657715E-02
 0.1677541250474E-02 -0.8177617900923E-02  0.0000000000000E+00 -0.8171169301221E-02
 0.1579429064298E-02 -0.7915145756905E-02  0.0000000000000E+00 -0.8205171284612E-02
 0.1478504875245E-02 -0.7645452427856E-02  0.0000000000000E+00 -0.8246392791601E-02
 0.1375275662452E-02 -0.7367080956748E-02  0.0000000000000E+00 -0.8295174022783E-02
 0.1270152838483E-02 -0.7078334608218E-02  0.0000000000000E+00 -0.8352648738486E-02
 0.1163782021693E-02 -0.6777562652843E-02  0.0000000000000E+00 -0.8420892787482E-02
 0.1057419251444E-02 -0.6463431712040E-02  0.0000000000000E+00 -0.8502953420198E-02
 0.9533545468208E-03 -0.6135228779073E-02  0.0000000000000E+00 -0.8602726547577E-02
 0.8553778463066E-03 -0.5793205579557E-02  0.0000000000000E+00 -0.8724661984235E-02
 0.7692630194087E-03 -0.5438843238112E-02  0.0000000000000E+00 -0.8873394736660E-02
 0.7032976394084E-03 -0.5075179271384E-02  0.0000000000000E+00 -0.9053203423262E-02
 0.6688756963034E-03 -0.4707440290119E-02  0.0000000000000E+00 -0.9266875200758E-02
 0.6810175715357E-03 -0.4343668431459E-02  0.0000000000000E+00 -0.9514011384561E-02
 0.7586618951823E-03 -0.3995116072739E-02  0.0000000000000E+00 -0.9788869481375E-02
 0.9245644740428E-03 -0.3676374574792E-02  0.0000000000000E+00 -0.1007759912805E-01
 0.1204550709018E-02 -0.3405011411744E-02  0.0000000000000E+00 -0.1035502600662E-01
 0.1625859401813E-02 -0.3200435114862E-02  0.0000000000000E+00 -0.1058146723982E-01
 0.2214469765456E-02 -0.3081711720151E-02  0.0000000000000E+00 -0.1070048166898E-01
 0.2991623212843E-02 -0.3064351273960E-02  0.0000000000000E+00 -0.1063817888874E-01
 0.3968967703678E-02 -0.3157160450926E-02  0.0000000000000E+00 -0.1030295669143E-01
 0.5142300882442E-02 -0.3358713985029E-02  0.0000000000000E+00 -0.9589707105670E-02
 0.6487338532694E-02 -0.3653711285404E-02  0.0000000000000E+00 -0.8393590666249E-02
 0.7960722304707E-02 -0.4013137352021E-02  0.0000000000000E+00 -0.6628207035139E-02
 0.1160619627657E-03 -0.9092647934960E-02  0.0000000000000E+00 -0.4877983909843E-02
 0.3669484575800E-03 -0.9234746715091E-02  0.0000000000000E+00 -0.5765692607484E-02
 0.6439115027381E-03 -0.9376334691943E-02  0.0000000000000E+00 -0.6504077619487E-02
 0.9245025349078E-03 -0.9501478212553E-02  0.0000000000000E+00 -0.7087236410529E-02
 0.1188885018755E-02 -0.9596950671854E-02  0.0000000000000E+00 -0.7524398024106E-02
 0.1422401467885E-02 -0.9654063573945E-02  0.0000000000000E+00 -0.7835281051527E-02
 0.1616405113249E-02 -0.9669037163278E-02  0.0000000000000E+00 -0.8044490853864E-02
 0.1767653306443E-02 -0.9642219657179E-02  0.0000000000000E+00 -0.8176807877592E-02
 0.1876933765410E-02 -0.9576756819663E-02  0.0000000000000E+00 -0.8254221067133E-02
 0.1947548433606E-02 -0.9477244632726E-02  0.0000000000000E+00 -0.8294662481586E-02
 0.1984039083706E-02 -0.9348671102153E-02  0.0000000000000E+00 -0.8311944295744E-02
 0.1991297821998E-02 -0.9195735973212E-02  0.0000000000000E+00 -0.8316331714418E-02
 0.1974045457698E-02 -0.9022505458411E-02  0.0000000000000E+00 -0.8315315435170E-02
 0.1936587203930E-02 -0.8832305538975E-02  0.0000000000000E+00 -0.8314323796134E-02
 0.1882738737492E-02 -0.8627748525903E-02  0.0000000000000E+00 -0.8317263014840E-02
 0.1815832480631E-02 -0.8410823031379E-02  0.0000000000000E+00 -0.8326873747810E-02
 0.1738841572438E-02 -0.8183417289567E-02  0.0000000000000E+00 -0.8344803244897E-02
 0.1654467914457E-02 -0.7947741707178E-02  0.0000000000000E+00 -0.8371523758801E-02
 0.1564903560148E-02 -0.7705414373634E-02  0.0000000000000E+00 -0.8406807913125E-02
 0.1471649110441E-02 -0.7456689346191E-02  0.0000000000000E+00 -0.8450459563277E-02
 0.1375662044519E-02 -0.7200829338962E-02  0.0000000000000E+00 -0.8502582967522E-02
 0.1277585332505E-02 -0.6936562707096E-02  0.0000000000000E+00 -0.8563774822135E-02
 0.1178012298322E-02 -0.6662419320602E-02  0.0000000000000E+00 -0.8635310321651E-02
 0.1077795281035E-02 -0.6377002767983E-02  0.0000000000000E+00 -0.8719263294571E-02
 0.9783984272109E-03 -0.6079251419578E-02  0.0000000000000E+00 -0.8818507020192E-02
 0.8822954799850E-03 -0.5768731392421E-02  0.0000000000000E+00 -0.8936558286266E-02
 0.7934050119213E-03 -0.5445967726663E-02  0.0000000000000E+00 -0.9077240367185E-02
 0.7175364657459E-03 -0.5112698962023E-02  0.0000000000000E+00 -0.9244247074893E-02
 0.6628643665203E-03 -0.4772179714009E-02  0.0000000000000E+00 -0.9440522765375E-02
 0.6404349216893E-03 -0.4429744048989E-02  0.0000000000000E+00 -0.9667090259315E-02
 0.6645731087023E-03 -0.4093333761735E-02  0.0000000000000E+00 -0.9921373635095E-02
 0.7530438997554E-03 -0.3773778986566E-02  0.0000000000000E+00 -0.1019513566129E-01
 0.9268187397355E-03 -0.3484798368716E-02  0.0000000000000E+00 -0.1047195326689E-01
 0.1209232889942E-02 -0.3242523676612E-02  0.0000000000000E+00 -0.1072443357113E-01
 0.1624334473453E-02 -0.3064325135763E-02  0.0000000000000E+00 -0.1091166435964E-01
 0.2194390436919E-02 -0.2966743401737E-02  0.0000000000000E+00 -0.1097771634846E-01
 0.2936812672254E-02 -0.2962616223756E-02  0.0000000000000E+00 -0.1085163471245E-01
 0.3860088431803E-02 -0.3058456368918E-02  0.0000000000000E+00 -0.1044787710003E-01
 0.4958755735518E-02 -0.3251714191408E-02  0.0000000000000E+00 -0.9670646596378E-02
 0.6210341712206E-02 -0.3528090525251E-02  0.0000000000000E+00 -0.8425838708761E-02
 0.7576553796541E-02 -0.3861966215505E-02  0.0000000000000E+00 -0.6635544626042E-02
 0.1058465681804E-03 -0.8516493242570E-02  0.0000000000000E+00 -0.4801782292144E-02
 0.3346706380101E-03 -0.8646277245849E-02  0.0000000000000E+00 -0.5690862502201E-02
 0.5876906463860E-03 -0.8776075488070E-02  0.0000000000000E+00 -0.6440797756426E-02
 0.8450822473753E-03 -0.8891758252111E-02  0.0000000000000E+00 -0.7044650049560E-02
 0.1089089109707E-02 -0.8981382140786E-02  0.0000000000000E+00 -0.7509042467892E-02
 0.1306255367007E-02 -0.9036800131725E-02  0.0000000000000E+00 -0.7850432856954E-02
 0.1488267868756E-02 -0.9054095141104E-02  0.0000000000000E+00 -0.8090408849594E-02
 0.1631584650054E-02 -0.9033033246358E-02  0.0000000000000E+00 -0.8251530353650E-02
 0.1736357336540E-02 -0.8975996384333E-02  0.0000000000000E+00 -0.8354517846969E-02
 0.1805159619428E-02 -0.8886835492167E-02  0.0000000000000E+00 -0.8416861053373E-02
 0.1841864622519E-02 -0.8769922787969E-02  0.0000000000000E+00 -0.8452507249101E-02
 0.1850821870242E-02 -0.8629506343255E-02  0.0000000000000E+00 -0.8472181136105E-02
 0.1836343908284E-02 -0.8469352315694E-02  0.0000000000000E+00 -0.8483959874305E-02
 0.1802439713759E-02 -0.8292604102117E-02  0.0000000000000E+00 -0.8493859898583E-02
 0.1752709034077E-02 -0.8101771267066E-02  0.0000000000000E+00 -0.8506317219393E-02
 0.1690321080391E-02 -0.7898788068226E-02  0.0000000000000E+00 -0.8524532791205E-02
 0.1618113720427E-02 -0.7685483571720E-02  0.0000000000000E+00 -0.8550586267653E-02
 0.1538671410828E-02 -0.7463968131510E-02  0.0000000000000E+00 -0.8585405665866E-02
 0.1454112887729E-02 -0.7235793885694E-02  0.0000000000000E+00 -0.8629211336291E-02
 0.1365935346710E-02 -0.7001252514765E-02  0.0000000000000E+00 -0.8682193531415E-02
 0.1275160861118E-02 -0.6759729819401E-02  0.0000000000000E+00 -0.8744769721191E-02
 0.1182553832640E-02 -0.6510135695759E-02  0.0000000000000E+00 -0.8817761719035E-02
 0.1088869306860E-02 -0.6251220678485E-02  0.0000000000000E+00 -0.8902557348159E-02
 0.9951406561457E-03 -0.5981833877651E-02  0.0000000000000E+00 -0.9001202702770E-02
 0.9030082229938E-03 -0.5701172009478E-02  0.0000000000000E+00 -0.9116374234060E-02
 0.8150894755873E-03 -0.5409059262119E-02  0.0000000000000E+00 -0.9251190568364E-02
 0.7353810530473E-03 -0.5106261398719E-02  0.0000000000000E+00 -0.9408837440659E-02
 0.6696645870481E-03 -0.4794725877757E-02  0.0000000000000E+00 -0.9592074381433E-02
 0.6259252621965E-03 -0.4477856723531E-02  0.0000000000000E+00 -0.9802552474009E-02
 0.6147773229390E-03 -0.4161009500619E-02  0.0000000000000E+00 -0.1003962558996E-01
 0.6497705244384E-03 -0.3851928472923E-02  0.0000000000000E+00 -0.1029871309464E-01
 0.7474422701608E-03 -0.3560928309259E-02  0.0000000000000E+00 -0.1056935315699E-01
 0.9269840316533E-03 -0.3300791615337E-02  0.0000000000000E+00 -0.1083292455036E-01
 0.1209344758515E-02 -0.3086217217107E-02  0.0000000000000E+00 -0.1106027119999E-01
 0.1615626237449E-02 -0.2932645668524E-02  0.0000000000000E+00 -0.1120971431420E-01
 0.2164791490293E-02 -0.2854333987452E-02  0.0000000000000E+00 -0.1122617242892E-01
 0.2870978620867E-02 -0.2861813895789E-02  0.0000000000000E+00 -0.1104165251041E-01
 0.3740116116794E-02 -0.2959731645301E-02  0.0000000000000E+00 -0.1057615700439E-01
 0.4765896836443E-02 -0.3144749814282E-02  0.0000000000000E+00 -0.9741965062223E-02
 0.5927562827489E-02 -0.3403562659130E-02  0.0000000000000E+00 -0.8453945122483E-02
 0.7191132508767E-02 -0.3713437204850E-02  0.0000000000000E+00 -0.6641241306231E-02
 0.9636307989453E-04 -0.7945172475540E-02  0.0000000000000E+00 -0.4732260518301E-02
 0.3046501651603E-03 -0.8063479924893E-02  0.0000000000000E+00 -0.5622401012141E-02
 0.5352108442583E-03 -0.8182163493122E-02  0.0000000000000E+00 -0.6382385523606E-02
 0.7705547209306E-03 -0.8288709814616E-02  0.0000000000000E+00 -0.7004463784213E-02
 0.9948337726951E-03 -0.8372376545449E-02  0.0000000000000E+00 -0.7493105695560E-02
 0.1195775484784E-02 -0.8425599375436E-02  0.0000000000000E+00 -0.7861997167821E-02
 0.1365501395822E-02 -0.8444450842585E-02  0.0000000000000E+00 -0.8130077944163E-02
 0.1500325945247E-02 -0.8428269254046E-02  0.0000000000000E+00 -0.8317877416275E-02
 0.1599917720971E-02 -0.8378807434764E-02  0.0000000000000E+00 -0.8444877567424E-02
 0.1666239794742E-02 -0.8299263242060E-02  0.0000000000000E+00 -0.8528053122382E-02
 0.1702569680525E-02 -0.8193440077382E-02  0.0000000000000E+00 -0.8581369580863E-02
 0.1712748345124E-02 -0.8065145704923E-02  0.0000000000000E+00 -0.8615891725260E-02
 0.1700686685891E-02 -0.7917834883616E-02  0.0000000000000E+00 -0.8640183597141E-02
 0.1670088697523E-02 -0.7754446121165E-02  0.0000000000000E+00 -0.8660777445702E-02
 0.1624323889388E-02 -0.7577361789425E-02  0.0000000000000E+00 -0.8682592065161E-02
 0.1566384917706E-02 -0.7388440766404E-02  0.0000000000000E+00 -0.8709259702419E-02
 0.1498965214698E-02 -0.7189438107793E-02  0.0000000000000E+00 -0.8743270668375E-02
 0.1424526899900E-02 -0.6982355869608E-02  0.0000000000000E+00 -0.8785984653093E-02
 0.1345112084703E-02 -0.6768676493066E-02  0.0000000000000E+00 -0.8838041416795E-02
 0.1262209403598E-02 -0.6548726940179E-02  0.0000000000000E+00 -0.8899986921334E-02
 0.1176896178981E-02 -0.6322012995510E-02  0.0000000000000E+00 -0.8972520111029E-02
 0.1090043644533E-02 -0.6087621112077E-02  0.0000000000000E+00 -0.9056657336836E-02
 0.1002548531487E-02 -0.5844515027280E-02  0.0000000000000E+00 -0.9153871674125E-02
 0.9155996967194E-03 -0.5591778618627E-02  0.0000000000000E+00 -0.9266158426817E-02
 0.8309819674585E-03 -0.5328851293089E-02  0.0000000000000E+00 -0.9395979207668E-02
 0.7514172533654E-03 -0.5055792193243E-02  0.0000000000000E+00 -0.9546043368609E-02
 0.6809317174207E-03 -0.4773574138001E-02  0.0000000000000E+00 -0.9718899508317E-02
 0.6252201804702E-03 -0.4484306016034E-02  0.0000000000000E+00 -0.9916394281722E-02
 0.5920100743337E-03 -0.4191477977758E-02  0.0000000000000E+00 -0.1013894250218E-01
 0.5914117524799E-03 -0.3900390228154E-02  0.0000000000000E+00 -0.1038433866130E-01
 0.6361367109042E-03 -0.3618507015767E-02  0.0000000000000E+00 -0.1064617683358E-01
 0.7414608588379E-03 -0.3355554498503E-02  0.0000000000000E+00 -0.1091203277389E-01
 0.9248193215095E-03 -0.3123339251454E-02  0.0000000000000E+00 -0.1116143006028E-01
 0.1204889398850E-02 -0.2935150671546E-02  0.0000000000000E+00 -0.1136384264585E-01
 0.1600061868167E-02 -0.2804616832550E-02  0.0000000000000E+00 -0.1147719607406E-01
 0.2126362643454E-02 -0.2743937642332E-02  0.0000000000000E+00 -0.1144748758365E-01
 0.2795129628844E-02 -0.2761658155864E-02  0.0000000000000E+00 -0.1120963006331E-01
 0.3610217312426E-02 -0.2860907591296E-02  0.0000000000000E+00 -0.1068865347146E-01
 0.4564773044702E-02 -0.3037807225972E-02  0.0000000000000E+00 -0.9803830553693E-02
 0.5639637258879E-02 -0.3280001156576E-02  0.0000000000000E+00 -0.8477576536325E-02
 0.6804545865348E-02 -0.3567237372630E-02  0.0000000000000E+00 -0.6644950336382E-02
 0.8752550792877E-04 -0.7378189446138E-02  0.0000000000000E+00 -0.4668954203126E-02
 0.2766217998054E-03 -0.7485765223439E-02  0.0000000000000E+00 -0.5559915497369E-02
 0.4860415297262E-03 -0.7593946506174E-02  0.0000000000000E+00 -0.6328649938480E-02
 0.7003846347882E-03 -0.7691677425331E-02  0.0000000000000E+00 -0.6966768022978E-02
 0.9055592943311E-03 -0.7769340257192E-02  0.0000000000000E+00 -0.7476957991163E-02
 0.1090448459549E-02 -0.7819977728070E-02  0.0000000000000E+00 -0.7870552307652E-02
 0.1247682431695E-02 -0.7839751058142E-02  0.0000000000000E+00 -0.8164178496522E-02
 0.1373558413734E-02 -0.7827699134018E-02  0.0000000000000E+00 -0.8376528284504E-02
 0.1467393029340E-02 -0.7785063544733E-02  0.0000000000000E+00 -0.8525900989862E-02
 0.1530644613181E-02 -0.7714474397643E-02  0.0000000000000E+00 -0.8628716476637E-02
 0.1566064918359E-02 -0.7619214163032E-02  0.0000000000000E+00 -0.8698870380164E-02
 0.1577022516718E-02 -0.7502666620652E-02  0.0000000000000E+00 -0.8747668266591E-02
 0.1567037790217E-02 -0.7367970002758E-02  0.0000000000000E+00 -0.8784072624706E-02
 0.1539505852940E-02 -0.7217841408779E-02  0.0000000000000E+00 -0.8815063129880E-02
 0.1497555638215E-02 -0.7054516089555E-02  0.0000000000000E+00 -0.8845993262463E-02
 0.1443992419048E-02 -0.6879759463335E-02  0.0000000000000E+00 -0.8880893711166E-02
 0.1381357016602E-02 -0.6695239150671E-02  0.0000000000000E+00 -0.8922639021954E-02
 0.1311984127716E-02 -0.6502840847685E-02  0.0000000000000E+00 -0.8972992374755E-02
 0.1237835164674E-02 -0.6303972960701E-02  0.0000000000000E+00 -0.9032981994155E-02
 0.1160384318466E-02 -0.6098994491885E-02  0.0000000000000E+00 -0.9103477890210E-02
 0.1080754488071E-02 -0.5887527160115E-02  0.0000000000000E+00 -0.9185429001587E-02
 0.9999092402565E-03 -0.5668827992589E-02  0.0000000000000E+00 -0.9280016671540E-02
 0.9188673224715E-03 -0.5442065286789E-02  0.0000000000000E+00 -0.9388773619565E-02
 0.8389480341972E-03 -0.5206545509701E-02  0.0000000000000E+00 -0.9513624257757E-02
 0.7620497211452E-03 -0.4961933596899E-02  0.0000000000000E+00 -0.9656802219231E-02
 0.6909608352847E-03 -0.4708499383712E-02  0.0000000000000E+00 -0.9820603894885E-02
 0.6296912166660E-03 -0.4447389006017E-02  0.0000000000000E+00 -0.1000695131073E-01
 0.5837947447662E-03 -0.4180827246647E-02  0.0000000000000E+00 -0.1021681197767E-01
 0.5606805975571E-03 -0.3912332164334E-02  0.0000000000000E+00 -0.1044943424943E-01
 0.5698947835533E-03 -0.3647080866183E-02  0.0000000000000E+00 -0.1070117282832E-01
 0.6232622764433E-03 -0.3392188712892E-02  0.0000000000000E+00 -0.1096397818628E-01
 0.7347799536295E-03 -0.3156737761140E-02  0.0000000000000E+00 -0.1122371397273E-01
 0.9201642738261E-03 -0.2951537243106E-02  0.0000000000000E+00 -0.1145835886925E-01
 0.1195940459808E-02 -0.2788505183316E-02  0.0000000000000E+00 -0.1163635266810E-01
 0.1578010183213E-02 -0.2679576773375E-02  0.0000000000000E+00 -0.1171551759906E-01
 0.2079788282863E-02 -0.2635103102230E-02  0.0000000000000E+00 -0.1164307718011E-01
 0.2710213461533E-02 -0.2661918206942E-02  0.0000000000000E+00 -0.1135673744743E-01
 0.3471455124321E-02 -0.2761917684789E-02  0.0000000000000E+00 -0.1078605562391E-01
 0.4356331841863E-02 -0.2930861579250E-02  0.0000000000000E+00 -0.9856358691775E-02
 0.5347163043821E-02 -0.3157286430329E-02  0.0000000000000E+00 -0.8496442050556E-02
 0.6416921912849E-02 -0.3423093448313E-02  0.0000000000000E+00 -0.6646348555671E-02
 0.7925729116561E-04 -0.6815083029135E-02  0.0000000000000E+00 -0.4611451490215E-02
 0.2503490907678E-03 -0.6912587711643E-02  0.0000000000000E+00 -0.5503052464351E-02
 0.4397962217624E-03 -0.7010819410284E-02  0.0000000000000E+00 -0.6279404266172E-02
 0.6340845618399E-03 -0.7100045443646E-02  0.0000000000000E+00 -0.6931612770796E-02
 0.8207450286892E-03 -0.7171703003046E-02  0.0000000000000E+00 -0.7460891083155E-02
 0.9897829941559E-03 -0.7219454327382E-02  0.0000000000000E+00 -0.7876577483991E-02
 0.1134390988435E-02 -0.7239626282745E-02  0.0000000000000E+00 -0.8193290820324E-02
 0.1250950983050E-02 -0.7231064506219E-02  0.0000000000000E+00 -0.8428075977368E-02
 0.1338539043622E-02 -0.7194601513154E-02  0.0000000000000E+00 -0.8598123986147E-02
 0.1398202901186E-02 -0.7132377457412E-02  0.0000000000000E+00 -0.8719286474468E-02
 0.1432233937183E-02 -0.7047200885457E-02  0.0000000000000E+00 -0.8805325991700E-02
 0.1443565010978E-02 -0.6942051053292E-02  0.0000000000000E+00 -0.8867708053235E-02
 0.1435340200703E-02 -0.6819749325874E-02  0.0000000000000E+00 -0.8915716182930E-02
 0.1410645625715E-02 -0.6682779702743E-02  0.0000000000000E+00 -0.8956713690184E-02
 0.1372362609620E-02 -0.6533214348753E-02  0.0000000000000E+00 -0.8996440611149E-02
 0.1323100424869E-02 -0.6372709845341E-02  0.0000000000000E+00 -0.9039290506029E-02
 0.1265240086519E-02 -0.6202834358795E-02  0.0000000000000E+00 -0.9088492058808E-02
 0.1200983778035E-02 -0.6025349481549E-02  0.0000000000000E+00 -0.9146180402133E-02
 0.1132207635675E-02 -0.5841584853719E-02  0.0000000000000E+00 -0.9213739073707E-02
 0.1060365036983E-02 -0.5651927576361E-02  0.0000000000000E+00 -0.9292329685659E-02
 0.9866146348415E-03 -0.5456110494072E-02  0.0000000000000E+00 -0.9383120063604E-02
 0.9119980857263E-03 -0.5253554448433E-02  0.0000000000000E+00 -0.9487428194493E-02
 0.8376370610275E-03 -0.5043622798948E-02  0.0000000000000E+00 -0.9606822814286E-02
 0.7649570983319E-03 -0.4825831484016E-02  0.0000000000000E+00 -0.9743140438777E-02
 0.6959403041926E-03 -0.4600052952608E-02  0.0000000000000E+00 -0.9898378329704E-02
 0.6334057030731E-03 -0.4366743111231E-02  0.0000000000000E+00 -0.1007442306514E-01
 0.5813041715643E-03 -0.4127188427880E-02  0.0000000000000E+00 -0.1027258957770E-01
 0.5449996844749E-03 -0.3883686716214E-02  0.0000000000000E+00 -0.1049301026360E-01
 0.5315304179800E-03 -0.3639731185067E-02  0.0000000000000E+00 -0.1073384678994E-01
 0.5498281379528E-03 -0.3400316982110E-02  0.0000000000000E+00 -0.1099014020125E-01
 0.6107958125521E-03 -0.3172154057205E-02  0.0000000000000E+00 -0.1125237776607E-01
 0.7271468673866E-03 -0.2963639595864E-02  0.0000000000000E+00 -0.1150494696793E-01
 0.9129264556866E-03 -0.2784578756121E-02  0.0000000000000E+00 -0.1172455962286E-01
 0.1182627656698E-02 -0.2645565762373E-02  0.0000000000000E+00 -0.1187890527523E-01
 0.1549868766624E-02 -0.2556960487571E-02  0.0000000000000E+00 -0.1192592886467E-01
 0.2025740656103E-02 -0.2527453793839E-02  0.0000000000000E+00 -0.1181416258211E-01
 0.2617120558315E-02 -0.2562404588361E-02  0.0000000000000E+00 -0.1148395551063E-01
 0.3324804315258E-02 -0.2662703727111E-02  0.0000000000000E+00 -0.1086892009209E-01
 0.4141438502250E-02 -0.2823881923001E-02  0.0000000000000E+00 -0.9899624633375E-02
 0.5050706293972E-02 -0.3035307093830E-02  0.0000000000000E+00 -0.8510278464088E-02
 0.6028420322661E-02 -0.3280763433757E-02  0.0000000000000E+00 -0.6645132524240E-02
 0.7148964902442E-04 -0.6255421468149E-02  0.0000000000000E+00 -0.4559387943997E-02
 0.2256194253353E-03 -0.6343438925134E-02  0.0000000000000E+00 -0.5451495059042E-02
 0.3961253269697E-03 -0.6432216948920E-02  0.0000000000000E+00 -0.6234469653490E-02
 0.5712079583272E-03 -0.6513232794335E-02  0.0000000000000E+00 -0.6899018091610E-02
 0.7399048314998E-03 -0.6578916037959E-02  0.0000000000000E+00 -0.7445132836180E-02
 0.8933086959866E-03 -0.6623552819091E-02  0.0000000000000E+00 -0.7880467635994E-02
 0.1025212191450E-02 -0.6643695166857E-02  0.0000000000000E+00 -0.8217906824958E-02
 0.1132163966031E-02 -0.6638082841188E-02  0.0000000000000E+00 -0.8473034207614E-02
 0.1213093516984E-02 -0.6607227030624E-02  0.0000000000000E+00 -0.8662019849159E-02
 0.1268720694064E-02 -0.6552847774503E-02  0.0000000000000E+00 -0.8800154908498E-02
 0.1300936589594E-02 -0.6477324501445E-02  0.0000000000000E+00 -0.8901026813572E-02
 0.1312274265832E-02 -0.6383253041659E-02  0.0000000000000E+00 -0.8976196805158E-02
 0.1305517547226E-02 -0.6273141068590E-02  0.0000000000000E+00 -0.9035202587538E-02
 0.1283446259724E-02 -0.6149231710529E-02  0.0000000000000E+00 -0.9085732288197E-02
 0.1248689753633E-02 -0.6013421489111E-02  0.0000000000000E+00 -0.9133865140212E-02
 0.1203654583304E-02 -0.5867245211628E-02  0.0000000000000E+00 -0.9184320224044E-02
 0.1150555701551E-02 -0.5712160934850E-02  0.0000000000000E+00 -0.9240647459266E-02
 0.1091457822992E-02 -0.5549798825205E-02  0.0000000000000E+00 -0.9305319702586E-02
 0.1028146948985E-02 -0.5381404806774E-02  0.0000000000000E+00 -0.9380040846782E-02
 0.9620490014814E-03 -0.5207389628171E-02  0.0000000000000E+00 -0.9466231062872E-02
 0.8943485890803E-03 -0.5027591881360E-02  0.0000000000000E+00 -0.9565246426229E-02
 0.8261516297891E-03 -0.4841588906272E-02  0.0000000000000E+00 -0.9678514516477E-02
 0.7586644061516E-03 -0.4648929077443E-02  0.0000000000000E+00 -0.9807618545790E-02
 0.6933956195523E-03 -0.4449324180655E-02  0.0000000000000E+00 -0.9954293243523E-02
 0.6323829774012E-03 -0.4242835877890E-02  0.0000000000000E+00 -0.1012029562632E-01
 0.5784424708445E-03 -0.4030081826543E-02  0.0000000000000E+00 -0.1030711178969E-01
 0.5354269506188E-03 -0.3812457260768E-02  0.0000000000000E+00 -0.1051547675209E-01
 0.5084668365096E-03 -0.3592293361715E-02  0.0000000000000E+00 -0.1074474026288E-01
 0.5041840113182E-03 -0.3373011375024E-02  0.0000000000000E+00 -0.1099206456533E-01
 0.5308556675356E-03 -0.3159374078170E-02  0.0000000000000E+00 -0.1125130687998E-01
 0.5984381560484E-03 -0.2957640503149E-02  0.0000000000000E+00 -0.1151166776828E-01
 0.7183672424549E-03 -0.2775494553990E-02  0.0000000000000E+00 -0.1175627877288E-01
 0.9030701990715E-03 -0.2621741632662E-02  0.0000000000000E+00 -0.1196083203200E-01
 0.1165124842426E-02 -0.2505705253482E-02  0.0000000000000E+00 -0.1209250465969E-01
 0.1516054123397E-02 -0.2436282381376E-02  0.0000000000000E+00 -0.1210953499043E-01
 0.1964875687148E-02 -0.2420672207030E-02  0.0000000000000E+00 -0.1196179602807E-01
 0.2516688472162E-02 -0.2462958978523E-02  0.0000000000000E+00 -0.1159210704377E-01
 0.3171164096180E-02 -0.2563213333617E-02  0.0000000000000E+00 -0.1093769695544E-01
 0.3920890199388E-02 -0.2716833557699E-02  0.0000000000000E+00 -0.9933670878241E-02
 0.4750805235998E-02 -0.2913958769043E-02  0.0000000000000E+00 -0.8518842359924E-02
 0.5639226203259E-02 -0.3140029840712E-02  0.0000000000000E+00 -0.6641016992191E-02
 0.6416022376972E-04 -0.5698797575698E-02  0.0000000000000E+00 -0.4512442296561E-02
 0.2022399296458E-03 -0.5777841340136E-02  0.0000000000000E+00 -0.5404960830292E-02
 0.3547100750452E-03 -0.5857607511246E-02  0.0000000000000E+00 -0.6193677752320E-02
 0.5113430413698E-03 -0.5930688192313E-02  0.0000000000000E+00 -0.6868982323417E-02
 0.6625827550603E-03 -0.5990450090227E-02  0.0000000000000E+00 -0.7429859215918E-02
 0.8005745261069E-03 -0.6031802328347E-02  0.0000000000000E+00 -0.7882545979423E-02
 0.9197373267185E-03 -0.6051567881355E-02  0.0000000000000E+00 -0.8238440316756E-02
 0.1016851866765E-02 -0.6048452123850E-02  0.0000000000000E+00 -0.8511843942693E-02
 0.1090779747166E-02 -0.6022719588617E-02  0.0000000000000E+00 -0.8718001999141E-02
 0.1141984788013E-02 -0.5975731983177E-02  0.0000000000000E+00 -0.8871669633264E-02
 0.1172012042579E-02 -0.5909481272299E-02  0.0000000000000E+00 -0.8986234940761E-02
 0.1183028921191E-02 -0.5826201378970E-02  0.0000000000000E+00 -0.9073305350600E-02
 0.1177475834748E-02 -0.5728091871168E-02  0.0000000000000E+00 -0.9142615742397E-02
 0.1157830969955E-02 -0.5617150320463E-02  0.0000000000000E+00 -0.9202125335354E-02
 0.1126469421712E-02 -0.5495087919472E-02  0.0000000000000E+00 -0.9258206547056E-02
 0.1085589901885E-02 -0.5363306932450E-02  0.0000000000000E+00 -0.9315865605663E-02
 0.1037235918121E-02 -0.5223145951403E-02  0.0000000000000E+00 -0.9378938698855E-02
 0.9833299966293E-03 -0.5076096891556E-02  0.0000000000000E+00 -0.9450200072684E-02
 0.9255630451307E-03 -0.4923316943519E-02  0.0000000000000E+00 -0.9531637578848E-02
 0.8653268068772E-03 -0.4765235718450E-02  0.0000000000000E+00 -0.9624896486813E-02
 0.8038222392425E-03 -0.4601791791960E-02  0.0000000000000E+00 -0.9731491033602E-02
 0.7422062660941E-03 -0.4432711344085E-02  0.0000000000000E+00 -0.9852932687401E-02
 0.6817524371329E-03 -0.4257717452517E-02  0.0000000000000E+00 -0.9990799705461E-02
 0.6240309289264E-03 -0.4076704005803E-02  0.0000000000000E+00 -0.1014671417196E-01
 0.5711088086743E-03 -0.3889903780716E-02  0.0000000000000E+00 -0.1032219318647E-01
 0.5257681304071E-03 -0.3698072714894E-02  0.0000000000000E+00 -0.1051833718707E-01
 0.4917284900027E-03 -0.3502685185030E-02  0.0000000000000E+00 -0.1073533499489E-01
 0.4738484405016E-03 -0.3306069642230E-02  0.0000000000000E+00 -0.1097181294435E-01
 0.4782953452838E-03 -0.3111533924821E-02  0.0000000000000E+00 -0.1122402650043E-01
 0.5126600523717E-03 -0.2923565937268E-02  0.0000000000000E+00 -0.1148478034547E-01
 0.5859367802155E-03 -0.2747937971892E-02  0.0000000000000E+00 -0.1174215911592E-01
 0.7082971061856E-03 -0.2591602364999E-02  0.0000000000000E+00 -0.1197824247668E-01
 0.8906069667782E-03 -0.2462377141858E-02  0.0000000000000E+00 -0.1216792134557E-01
 0.1143640247888E-02 -0.2368370588587E-02  0.0000000000000E+00 -0.1227805790178E-01
 0.1476994246613E-02 -0.2317121918291E-02  0.0000000000000E+00 -0.1226730890935E-01
 0.1897830677790E-02 -0.2314487603012E-02  0.0000000000000E+00 -0.1208688215980E-01
 0.2409706619446E-02 -0.2363446611525E-02  0.0000000000000E+00 -0.1168188190735E-01
 0.3011368833672E-02 -0.2463398003971E-02  0.0000000000000E+00 -0.1099274927618E-01
 0.3695426838915E-02 -0.2609678862196E-02  0.0000000000000E+00 -0.9958513257581E-02
 0.4447973627969E-02 -0.2793142258629E-02  0.0000000000000E+00 -0.8521905986670E-02
 0.5249545443748E-02 -0.3000694271136E-02  0.0000000000000E+00 -0.6633733945943E-02
 0.5721195074256E-04 -0.5144824646735E-02  0.0000000000000E+00 -0.4470332912819E-02
 0.1800340406639E-03 -0.5215343238054E-02  0.0000000000000E+00 -0.5363199764617E-02
 0.3152573694205E-03 -0.5286487749069E-02  0.0000000000000E+00 -0.6156872608880E-02
 0.4541074215492E-03 -0.5351885818653E-02  0.0000000000000E+00 -0.6841488536136E-02
 0.5883490232324E-03 -0.5405793196554E-02  0.0000000000000E+00 -0.7415204016834E-02
 0.7111470005031E-03 -0.5443737825265E-02  0.0000000000000E+00 -0.7883074545079E-02
 0.8175642827092E-03 -0.5462848620305E-02  0.0000000000000E+00 -0.8255236003438E-02
 0.9046654704782E-03 -0.5461854661551E-02  0.0000000000000E+00 -0.8544879486449E-02
 0.9713095194769E-03 -0.5440836715981E-02  0.0000000000000E+00 -0.8766426859212E-02
 0.1017765845072E-02 -0.5400851998856E-02  0.0000000000000E+00 -0.8934134739212E-02
 0.1045281589595E-02 -0.5343542851544E-02  0.0000000000000E+00 -0.9061182490847E-02
 0.1055690120142E-02 -0.5270802258717E-02  0.0000000000000E+00 -0.9159186967215E-02
 0.1051105192942E-02 -0.5184528735074E-02  0.0000000000000E+00 -0.9238032194717E-02
 0.1033709209533E-02 -0.5086471947567E-02  0.0000000000000E+00 -0.9305899745097E-02
 0.1005622274801E-02 -0.4978150443699E-02  0.0000000000000E+00 -0.9369410927046E-02
 0.9688314340855E-03 -0.4860825076443E-02  0.0000000000000E+00 -0.9433820315840E-02
 0.9252041591115E-03 -0.4735706839341E-02  0.0000000000000E+00 -0.9503213951874E-02
 0.8765163730140E-03 -0.4604143120829E-02  0.0000000000000E+00 -0.9580629538675E-02
 0.8243589799417E-03 -0.4467197421340E-02  0.0000000000000E+00 -0.9668301386415E-02
 0.7700829078759E-03 -0.4325313256602E-02  0.0000000000000E+00 -0.9768066151636E-02
 0.7148962021289E-03 -0.4178523211426E-02  0.0000000000000E+00 -0.9881566753631E-02
 0.6599942586967E-03 -0.4026694507611E-02  0.0000000000000E+00 -0.1001037419797E-01
 0.6067016919200E-03 -0.3869714608120E-02  0.0000000000000E+00 -0.1015604441795E-01
 0.5566300697831E-03 -0.3707645976727E-02  0.0000000000000E+00 -0.1032007886388E-01
 0.5118517573387E-03 -0.3540875021543E-02  0.0000000000000E+00 -0.1050375887044E-01
 0.4750869243968E-03 -0.3370273786538E-02  0.0000000000000E+00 -0.1070781883812E-01
 0.4498906757446E-03 -0.3197368510709E-02  0.0000000000000E+00 -0.1093194055343E-01
 0.4408166595544E-03 -0.3024452617307E-02  0.0000000000000E+00 -0.1117409144749E-01
 0.4535461120290E-03 -0.2854684668087E-02  0.0000000000000E+00 -0.1142971647555E-01
 0.4949593412982E-03 -0.2692242493407E-02  0.0000000000000E+00 -0.1169069879350E-01
 0.5730804033728E-03 -0.2542384234132E-02  0.0000000000000E+00 -0.1194417103968E-01
 0.6968356722457E-03 -0.2411320511953E-02  0.0000000000000E+00 -0.1217134914072E-01
 0.8755870595964E-03 -0.2305899929591E-02  0.0000000000000E+00 -0.1234651506152E-01
 0.1118408537125E-02 -0.2233071016473E-02  0.0000000000000E+00 -0.1243637876000E-01
 0.1433123083158E-02 -0.2199111802278E-02  0.0000000000000E+00 -0.1240010322240E-01
 0.1825223332849E-02 -0.2208666300331E-02  0.0000000000000E+00 -0.1219019646294E-01
 0.2296921000815E-02 -0.2263750514731E-02  0.0000000000000E+00 -0.1175385734190E-01
 0.2846197057792E-02 -0.2363211522688E-02  0.0000000000000E+00 -0.1103436824073E-01
 0.3465739701766E-02 -0.2502377371600E-02  0.0000000000000E+00 -0.9974145943826E-02
 0.4142703768867E-02 -0.2672761728448E-02  0.0000000000000E+00 -0.8519255164250E-02
 0.4859600959476E-02 -0.2862573029355E-02  0.0000000000000E+00 -0.6623031756250E-02
 0.5059210791317E-04 -0.4593132943166E-02  0.0000000000000E+00 -0.4432814864975E-02
 0.1588386099477E-03 -0.4655514284756E-02  0.0000000000000E+00 -0.5325992584642E-02
 0.2774953763091E-03 -0.4718377877458E-02  0.0000000000000E+00 -0.6123912020031E-02
 0.3991433719213E-03 -0.4776321398897E-02  0.0000000000000E+00 -0.6816509607457E-02
 0.5167962836280E-03 -0.4824448502095E-02  0.0000000000000E+00 -0.7401266747668E-02
 0.6246082434912E-03 -0.4858900046751E-02  0.0000000000000E+00 -0.7882262972586E-02
 0.7182975330013E-03 -0.4877137423152E-02  0.0000000000000E+00 -0.8268577269905E-02
 0.7952533517913E-03 -0.4877960181614E-02  0.0000000000000E+00 -0.8572453990316E-02
 0.8543855106414E-03 -0.4861317628305E-02  0.0000000000000E+00 -0.8807596728618E-02
 0.8958210948690E-03 -0.4828008622388E-02  0.0000000000000E+00 -0.8987811094177E-02
 0.9205512197830E-03 -0.4779359466140E-02  0.0000000000000E+00 -0.9126070467474E-02
 0.9301037085233E-03 -0.4716941864157E-02  0.0000000000000E+00 -0.9233975284558E-02
 0.9262816287229E-03 -0.4642361005218E-02  0.0000000000000E+00 -0.9321518688787E-02
 0.9109780062041E-03 -0.4557117985628E-02  0.0000000000000E+00 -0.9397060579908E-02
 0.8860582950584E-03 -0.4462533305006E-02  0.0000000000000E+00 -0.9467428781659E-02
 0.8532950788820E-03 -0.4359719182796E-02  0.0000000000000E+00 -0.9538087431041E-02
 0.8143759062871E-03 -0.4249752015927E-02  0.0000000000000E+00 -0.9613335060744E-02
 0.7709260319904E-03 -0.4133828974085E-02  0.0000000000000E+00 -0.9696433737931E-02
 0.7244316153915E-03 -0.4012915079231E-02  0.0000000000000E+00 -0.9789825923377E-02
 0.6761963637583E-03 -0.3887462764457E-02  0.0000000000000E+00 -0.9895505847701E-02
 0.6274266358692E-03 -0.3757592599939E-02  0.0000000000000E+00 -0.1001521628247E-01
 0.5793446255339E-03 -0.3623305097095E-02  0.0000000000000E+00 -0.1015056474222E-01
 0.5333111042619E-03 -0.3484642011825E-02  0.0000000000000E+00 -0.1030306942787E-01
 0.4909607366868E-03 -0.3341821364065E-02  0.0000000000000E+00 -0.1047410581624E-01
 0.4543495086566E-03 -0.3195366668349E-02  0.0000000000000E+00 -0.1066472703382E-01
 0.4261108992926E-03 -0.3046245555028E-02  0.0000000000000E+00 -0.1087532516257E-01
 0.4096083614163E-03 -0.2896011485564E-02  0.0000000000000E+00 -0.1110511855144E-01
 0.4090627438633E-03 -0.2746894486309E-02  0.0000000000000E+00 -0.1135148422267E-01
 0.4296436937996E-03 -0.2601873371613E-02  0.0000000000000E+00 -0.1160915507343E-01
 0.4775034295588E-03 -0.2464787370878E-02  0.0000000000000E+00 -0.1186922220163E-01
 0.5596938680621E-03 -0.2340360288212E-02  0.0000000000000E+00 -0.1211802272640E-01
 0.6839188544634E-03 -0.2234057296486E-02  0.0000000000000E+00 -0.1233608180040E-01
 0.8580925010273E-03 -0.2151779068123E-02  0.0000000000000E+00 -0.1249724128855E-01
 0.1089684366682E-02 -0.2099368025492E-02  0.0000000000000E+00 -0.1256819204793E-01
 0.1384876479543E-02 -0.2081928225619E-02  0.0000000000000E+00 -0.1250866104329E-01
 0.1747651702600E-02 -0.2103003945636E-02  0.0000000000000E+00 -0.1227240096386E-01
 0.2179038737911E-02 -0.2163767053286E-02  0.0000000000000E+00 -0.1180851448199E-01
 0.2676379129025E-02 -0.2262608617615E-02  0.0000000000000E+00 -0.1106278518128E-01
 0.3232478553856E-02 -0.2394885538161E-02  0.0000000000000E+00 -0.9980545782652E-02
 0.3835469158258E-02 -0.2552723097822E-02  0.0000000000000E+00 -0.8510688255898E-02
 0.4469629522169E-02 -0.2725493503550E-02  0.0000000000000E+00 -0.6608674376599E-02
 0.4425150662028E-04 -0.4043366635301E-02  0.0000000000000E+00 -0.4399677529139E-02
 0.1385014284258E-03 -0.4097941683491E-02  0.0000000000000E+00 -0.5293149299239E-02
 0.2411697079106E-03 -0.4152817534863E-02  0.0000000000000E+00 -0.6094668503490E-02
 0.3461136283852E-03 -0.4203508632579E-02  0.0000000000000E+00 -0.6794012203841E-02
 0.4475361200871E-03 -0.4245932072003E-02  0.0000000000000E+00 -0.7388118991164E-02
 0.5405539617800E-03 -0.4276835096076E-02  0.0000000000000E+00 -0.7880275785925E-02
 0.6215477734206E-03 -0.4294031463212E-02  0.0000000000000E+00 -0.8278692804553E-02
 0.6882629150083E-03 -0.4296428345179E-02  0.0000000000000E+00 -0.8594824341677E-02
 0.7397032380602E-03 -0.4283886373305E-02  0.0000000000000E+00 -0.8841762526104E-02
 0.7758966804934E-03 -0.4256984786871E-02  0.0000000000000E+00 -0.9032917107239E-02
 0.7976139602591E-03 -0.4216762896261E-02  0.0000000000000E+00 -0.9181068036579E-02
 0.8061023280665E-03 -0.4164488887233E-02  0.0000000000000E+00 -0.9297782657475E-02
 0.8028687657892E-03 -0.4101482375295E-02  0.0000000000000E+00 -0.9393130161251E-02
 0.7895233477721E-03 -0.4028996340671E-02  0.0000000000000E+00 -0.9475609062139E-02
 0.7676778798809E-03 -0.3948149341971E-02  0.0000000000000E+00 -0.9552213292120E-02
 0.7388884731543E-03 -0.3859899155024E-02  0.0000000000000E+00 -0.9628578091096E-02
 0.7046594799946E-03 -0.3765181630422E-02  0.0000000000000E+00 -0.9709176578199E-02
 0.6664617968613E-03 -0.3665038630831E-02  0.0000000000000E+00 -0.9797455294741E-02
 0.6256723615756E-03 -0.3560332168996E-02  0.0000000000000E+00 -0.9896025996598E-02
 0.5835416092009E-03 -0.3451518705124E-02  0.0000000000000E+00 -0.1000700670439E-01
 0.5412660477474E-03 -0.3338800866981E-02  0.0000000000000E+00 -0.1013221188379E-01
 0.5000839765817E-03 -0.3222304917167E-02  0.0000000000000E+00 -0.1027326379274E-01
 0.4613788447501E-03 -0.3102217240624E-02  0.0000000000000E+00 -0.1043162930809E-01
 0.4267920585940E-03 -0.2978899149612E-02  0.0000000000000E+00 -0.1060855497749E-01
 0.3983440901896E-03 -0.2852995979511E-02  0.0000000000000E+00 -0.1080487623520E-01
 0.3785601868925E-03 -0.2725552359334E-02  0.0000000000000E+00 -0.1102066998401E-01
 0.3705890869373E-03 -0.2598127183567E-02  0.0000000000000E+00 -0.1125473824057E-01
 0.3782959164178E-03 -0.2472862689567E-02  0.0000000000000E+00 -0.1150393897613E-01
 0.4063189450632E-03 -0.2352532643700E-02  0.0000000000000E+00 -0.1176239251136E-01
 0.4600705425410E-03 -0.2240615205508E-02  0.0000000000000E+00 -0.1202052493154E-01
 0.5456333172553E-03 -0.2141285814720E-02  0.0000000000000E+00 -0.1226402671443E-01
 0.6695134420243E-03 -0.2059265400556E-02  0.0000000000000E+00 -0.1247289114444E-01
 0.8382309413606E-03 -0.1999530094072E-02  0.0000000000000E+00 -0.1262066829820E-01
 0.1057737180590E-02 -0.1966866701162E-02  0.0000000000000E+00 -0.1267413823870E-01
 0.1332689273808E-02 -0.1965282787820E-02  0.0000000000000E+00 -0.1259362575056E-01
 0.1665694756768E-02 -0.1997319316902E-02  0.0000000000000E+00 -0.1233405753642E-01
 0.2056732368956E-02 -0.2063402443463E-02  0.0000000000000E+00 -0.1184625186452E-01
 0.2502603855382E-02 -0.2161543853008E-02  0.0000000000000E+00 -0.1107818129200E-01
 0.2996257631602E-02 -0.2287156395870E-02  0.0000000000000E+00 -0.9977676072222E-02
 0.3526726830015E-02 -0.2432932665951E-02  0.0000000000000E+00 -0.8496015718861E-02
 0.4079879002590E-02 -0.2589291121805E-02  0.0000000000000E+00 -0.6590440648362E-02
 0.3814379316780E-04 -0.3495181107699E-02  0.0000000000000E+00 -0.4370742634624E-02
 0.1188790833029E-03 -0.3542226786345E-02  0.0000000000000E+00 -0.5264507991810E-02
 0.2060400809361E-03 -0.3589362097737E-02  0.0000000000000E+00 -0.6069029989251E-02
 0.2946976285860E-03 -0.3632975923321E-02  0.0000000000000E+00 -0.6773959886232E-02
 0.3801958000644E-03 -0.3669770740905E-02  0.0000000000000E+00 -0.7375809490017E-02
 0.4585913844518E-03 -0.3697093810845E-02  0.0000000000000E+00 -0.7877238342627E-02
 0.5269313020329E-03 -0.3713125921143E-02  0.0000000000000E+00 -0.8285762156944E-02
 0.5833410621170E-03 -0.3716910787207E-02  0.0000000000000E+00 -0.8612195403530E-02
 0.6269526316651E-03 -0.3708254551084E-02  0.0000000000000E+00 -0.8869126309892E-02
 0.6577296969431E-03 -0.3687548489866E-02  0.0000000000000E+00 -0.9069629599024E-02
 0.6762520128822E-03 -0.3655569266761E-02  0.0000000000000E+00 -0.9226312109545E-02
 0.6835074047293E-03 -0.3613296970624E-02  0.0000000000000E+00 -0.9350698929855E-02
 0.6807195606389E-03 -0.3561772899525E-02  0.0000000000000E+00 -0.9452908124660E-02
 0.6692215997822E-03 -0.3502003024768E-02  0.0000000000000E+00 -0.9541540918188E-02
 0.6503729993864E-03 -0.3434901233993E-02  0.0000000000000E+00 -0.9623718845012E-02
 0.6255119584556E-03 -0.3361266254493E-02  0.0000000000000E+00 -0.9705210314154E-02
 0.5959568894059E-03 -0.3281888406428E-02  0.0000000000000E+00 -0.9790624888729E-02
 0.5630210295097E-03 -0.3197649771201E-02  0.0000000000000E+00 -0.9883553203039E-02
 0.5279679576193E-03 -0.3109305151919E-02  0.0000000000000E+00 -0.9986737129277E-02
 0.4919892413926E-03 -0.3017310351190E-02  0.0000000000000E+00 -0.1010238483443E-01
 0.4562640905416E-03 -0.2921944350459E-02  0.0000000000000E+00 -0.1023235499766E-01
 0.4220373056307E-03 -0.2823451985396E-02  0.0000000000000E+00 -0.1037826403357E-01
 0.3907030725654E-03 -0.2722155207913E-02  0.0000000000000E+00 -0.1054151554408E-01
 0.3638952437067E-03 -0.2618547317997E-02  0.0000000000000E+00 -0.1072322627998E-01
 0.3435823006035E-03 -0.2513381649049E-02  0.0000000000000E+00 -0.1092402699998E-01
 0.3321630591735E-03 -0.2407763382734E-02  0.0000000000000E+00 -0.1114370933373E-01
 0.3325525568365E-03 -0.2303238045802E-02  0.0000000000000E+00 -0.1138070873807E-01
 0.3482420479963E-03 -0.2201839659499E-02  0.0000000000000E+00 -0.1163143739832E-01
 0.3833238572875E-03 -0.2106116556854E-02  0.0000000000000E+00 -0.1188950266771E-01
 0.4424637738014E-03 -0.2019168835548E-02  0.0000000000000E+00 -0.1214478968621E-01
 0.5307816738744E-03 -0.1944614760408E-02  0.0000000000000E+00 -0.1238248375862E-01
 0.6536118740024E-03 -0.1886435929475E-02  0.0000000000000E+00 -0.1258219252086E-01
 0.8161304324350E-03 -0.1848707919066E-02  0.0000000000000E+00 -0.1271730490981E-01
 0.1022847011495E-02 -0.1835208287978E-02  0.0000000000000E+00 -0.1275477804491E-01
 0.1276993270392E-02 -0.1848915760949E-02  0.0000000000000E+00 -0.1265554963381E-01
 0.1579913391905E-02 -0.1891449316048E-02  0.0000000000000E+00 -0.1237563914121E-01
 0.1930643895626E-02 -0.1962570003887E-02  0.0000000000000E+00 -0.1186739652889E-01
 0.2325524285424E-02 -0.2059970740856E-02  0.0000000000000E+00 -0.1108069557972E-01
 0.2757660773029E-02 -0.2179139232475E-02  0.0000000000000E+00 -0.9965489867321E-02
 0.3216919384703E-02 -0.2313295947362E-02  0.0000000000000E+00 -0.8475060001208E-02
 0.3690605927732E-02 -0.2453806741965E-02  0.0000000000000E+00 -0.6568123773790E-02
 0.3222483678058E-04 -0.2948240553196E-02  0.0000000000000E+00 -0.4345862710960E-02
 0.9983507474403E-04 -0.2987982068838E-02  0.0000000000000E+00 -0.5239933833330E-02
 0.1718773513946E-03 -0.3027579360035E-02  0.0000000000000E+00 -0.6046900310450E-02
 0.2445881071781E-03 -0.3064263360609E-02  0.0000000000000E+00 -0.6756315507546E-02
 0.3144152266444E-03 -0.3095500012757E-02  0.0000000000000E+00 -0.7364368157815E-02
 0.3783371972092E-03 -0.3119230966812E-02  0.0000000000000E+00 -0.7873241616001E-02
 0.4340692103518E-03 -0.3134014539624E-02  0.0000000000000E+00 -0.8289920303354E-02
 0.4801345689441E-03 -0.3139052777864E-02  0.0000000000000E+00 -0.8624723596752E-02
 0.5158192982615E-03 -0.3134123683049E-02  0.0000000000000E+00 -0.8889843507066E-02
 0.5410499702378E-03 -0.3119455456024E-02  0.0000000000000E+00 -0.9098084687363E-02
 0.5562387106417E-03 -0.3095581669262E-02  0.0000000000000E+00 -0.9261907145626E-02
 0.5621310387751E-03 -0.3063207072876E-02  0.0000000000000E+00 -0.9392790519000E-02
 0.5596779890838E-03 -0.3023100999143E-02  0.0000000000000E+00 -0.9500879391310E-02
 0.5499409422904E-03 -0.2976023792488E-02  0.0000000000000E+00 -0.9594845027616E-02
 0.5340284010091E-03 -0.2922682816077E-02  0.0000000000000E+00 -0.9681899796660E-02
 0.5130596053854E-03 -0.2863714173233E-02  0.0000000000000E+00 -0.9767907972604E-02
 0.4881647378177E-03 -0.2799758561326E-02  0.0000000000000E+00 -0.9857577414949E-02
 0.4604964695695E-03 -0.2731534424514E-02  0.0000000000000E+00 -0.9954602227561E-02
 0.4312012805175E-03 -0.2659685544724E-02  0.0000000000000E+00 -0.1006181508891E-01
 0.4014068152061E-03 -0.2584662678986E-02  0.0000000000000E+00 -0.1018148090256E-01
 0.3722683427682E-03 -0.2506815791375E-02  0.0000000000000E+00 -0.1031547574917E-01
 0.3450287363257E-03 -0.2426501597216E-02  0.0000000000000E+00 -0.1046539068923E-01
 0.3210826060377E-03 -0.2344169298683E-02  0.0000000000000E+00 -0.1063255554046E-01
 0.3020441038561E-03 -0.2260434001385E-02  0.0000000000000E+00 -0.1081795816084E-01
 0.2898159802653E-03 -0.2176144847936E-02  0.0000000000000E+00 -0.1102203968889E-01
 0.2866557978429E-03 -0.2092453418148E-02  0.0000000000000E+00 -0.1124433853080E-01
 0.2952299294703E-03 -0.2010876138898E-02  0.0000000000000E+00 -0.1148297526305E-01
 0.3186421780152E-03 -0.1933322298487E-02  0.0000000000000E+00 -0.1173399064654E-01
 0.3604291581349E-03 -0.1862099064316E-02  0.0000000000000E+00 -0.1199057811461E-01
 0.4245077089728E-03 -0.1799916428753E-02  0.0000000000000E+00 -0.1224220266023E-01
 0.5150444153477E-03 -0.1749831082467E-02  0.0000000000000E+00 -0.1247367892952E-01
 0.6362275455043E-03 -0.1715092905391E-02  0.0000000000000E+00 -0.1266436398542E-01
 0.7919349358756E-03 -0.1698900498309E-02  0.0000000000000E+00 -0.1278760143450E-01
 0.9853010933285E-03 -0.1704063751767E-02  0.0000000000000E+00 -0.1281059680107E-01
 0.1218215891847E-02 -0.1732590435011E-02  0.0000000000000E+00 -0.1269490146025E-01
 0.1490851735122E-02 -0.1785244888809E-02  0.0000000000000E+00 -0.1239753927410E-01
 0.1801388597445E-02 -0.1861187979483E-02  0.0000000000000E+00 -0.1187221315681E-01
 0.2145762852246E-02 -0.1957841050898E-02  0.0000000000000E+00 -0.1107043142150E-01
 0.2517245884240E-02 -0.2070779312146E-02  0.0000000000000E+00 -0.9943932877773E-02
 0.2906476753461E-02 -0.2193716677603E-02  0.0000000000000E+00 -0.8447655683720E-02
 0.3302073283081E-02 -0.2318884371888E-02  0.0000000000000E+00 -0.6541531002469E-02
 0.2645218376622E-04 -0.2402215791220E-02  0.0000000000000E+00 -0.4324919889668E-02
 0.8123813241667E-04 -0.2434828387350E-02  0.0000000000000E+00 -0.5219318307951E-02
 0.1384608418319E-03 -0.2467046500049E-02  0.0000000000000E+00 -0.6028199550409E-02
 0.1954879742296E-03 -0.2496919906687E-02  0.0000000000000E+00 -0.6741043027883E-02
 0.2498440623112E-03 -0.2522662013959E-02  0.0000000000000E+00 -0.7353809169467E-02
 0.2994154870217E-03 -0.2542804367778E-02  0.0000000000000E+00 -0.7868345939764E-02
 0.3425864387004E-03 -0.2556289937784E-02  0.0000000000000E+00 -0.8291261288498E-02
 0.3782902373646E-03 -0.2562494588101E-02  0.0000000000000E+00 -0.8632519826659E-02
 0.4059855415141E-03 -0.2561187298111E-02  0.0000000000000E+00 -0.8904024805171E-02
 0.4255816241062E-03 -0.2552451575982E-02  0.0000000000000E+00 -0.9118378618342E-02
 0.4373403211460E-03 -0.2536592637872E-02  0.0000000000000E+00 -0.9287925102945E-02
 0.4417778069661E-03 -0.2514049761471E-02  0.0000000000000E+00 -0.9424099762249E-02
 0.4395807010240E-03 -0.2485325456215E-02  0.0000000000000E+00 -0.9537055095922E-02
 0.4315428155665E-03 -0.2450935805442E-02  0.0000000000000E+00 -0.9635502351898E-02
 0.4185228470898E-03 -0.2411380444976E-02  0.0000000000000E+00 -0.9726709464226E-02
 0.4014202804034E-03 -0.2367130167071E-02  0.0000000000000E+00 -0.9816599927780E-02
 0.3811751687127E-03 -0.2318672784351E-02  0.0000000000000E+00 -0.9909941913800E-02
 0.3587771052693E-03 -0.2266559867260E-02  0.0000000000000E+00 -0.1001049233365E-01
 0.3352521719966E-03 -0.2211320800075E-02  0.0000000000000E+00 -0.1012113539478E-01
 0.3116596394301E-03 -0.2153397277260E-02  0.0000000000000E+00 -0.1024415963868E-01
 0.2891250695983E-03 -0.2093205296964E-02  0.0000000000000E+00 -0.1038143238282E-01
 0.2688822244380E-03 -0.2031207346657E-02  0.0000000000000E+00 -0.1053450078202E-01
 0.2523175210030E-03 -0.1967972421218E-02  0.0000000000000E+00 -0.1070461158707E-01
 0.2410154762755E-03 -0.1904228496753E-02  0.0000000000000E+00 -0.1089262611120E-01
 0.2368021515480E-03 -0.1840910094134E-02  0.0000000000000E+00 -0.1109881250851E-01
 0.2417824164227E-03 -0.1779203426357E-02  0.0000000000000E+00 -0.1132248956417E-01
 0.2583629625985E-03 -0.1720583189858E-02  0.0000000000000E+00 -0.1156151587510E-01
 0.2892509286232E-03 -0.1666821250220E-02  0.0000000000000E+00 -0.1181163554976E-01
 0.3374218848844E-03 -0.1619972275900E-02  0.0000000000000E+00 -0.1206572607460E-01
 0.4060451541779E-03 -0.1582348595375E-02  0.0000000000000E+00 -0.1231294974258E-01
 0.4983456244916E-03 -0.1556444667849E-02  0.0000000000000E+00 -0.1253787875103E-01
 0.6173905754578E-03 -0.1544788170395E-02  0.0000000000000E+00 -0.1271974516622E-01
 0.7658004396516E-03 -0.1549723146363E-02  0.0000000000000E+00 -0.1283195097145E-01
 0.9453911209050E-03 -0.1573128163725E-02  0.0000000000000E+00 -0.1284200853257E-01
 0.1156779345692E-02 -0.1616088324181E-02  0.0000000000000E+00 -0.1271207300658E-01
 0.1399038649443E-02 -0.1678567668406E-02  0.0000000000000E+00 -0.1240007985263E-01
 0.1669558641006E-02 -0.1759177814741E-02  0.0000000000000E+00 -0.1186091158693E-01
 0.1963916006902E-02 -0.1855104296823E-02  0.0000000000000E+00 -0.1104746199696E-01
 0.2275548884465E-02 -0.1962017662959E-02  0.0000000000000E+00 -0.9912946029843E-02
 0.2595817730415E-02 -0.2074095953427E-02  0.0000000000000E+00 -0.8413649830512E-02
 0.2914548509829E-02 -0.2184369143674E-02  0.0000000000000E+00 -0.6510483564208E-02
 0.2078456093086E-04 -0.1856782255676E-02  0.0000000000000E+00 -0.4307825028068E-02
 0.6296068119769E-04 -0.1882392450349E-02  0.0000000000000E+00 -0.5202578640737E-02
 0.1055758887893E-03 -0.1907347266413E-02  0.0000000000000E+00 -0.6012864286274E-02
 0.1471074108202E-03 -0.1930500744378E-02  0.0000000000000E+00 -0.6728108840493E-02
 0.1861389904084E-03 -0.1950803496062E-02  0.0000000000000E+00 -0.7344133248364E-02
 0.2214557046351E-03 -0.1967373859098E-02  0.0000000000000E+00 -0.7862583816811E-02
 0.2521107369940E-03 -0.1979543750304E-02  0.0000000000000E+00 -0.8289841001225E-02
 0.2774548814452E-03 -0.1986872632133E-02  0.0000000000000E+00 -0.8635651761031E-02
 0.2971311948863E-03 -0.1989132800015E-02  0.0000000000000E+00 -0.8911737674031E-02
 0.3110444795984E-03 -0.1986275167302E-02  0.0000000000000E+00 -0.9130568490542E-02
 0.3193177261322E-03 -0.1978386504309E-02  0.0000000000000E+00 -0.9304405483007E-02
 0.3222464900244E-03 -0.1965647442387E-02  0.0000000000000E+00 -0.9444644478939E-02
 0.3202586442266E-03 -0.1948297390788E-02  0.0000000000000E+00 -0.9561429982930E-02
 0.3138833671558E-03 -0.1926609312974E-02  0.0000000000000E+00 -0.9663485121486E-02
 0.3037303733153E-03 -0.1900874400507E-02  0.0000000000000E+00 -0.9758099333117E-02
 0.2904787413519E-03 -0.1871396231410E-02  0.0000000000000E+00 -0.9851219321467E-02
 0.2748768393466E-03 -0.1838507255923E-02  0.0000000000000E+00 -0.9947635866790E-02
 0.2577490644673E-03 -0.1802589554550E-02  0.0000000000000E+00 -0.1005112815454E-01
 0.2399982743370E-03 -0.1764055207985E-02  0.0000000000000E+00 -0.1016459281767E-01
 0.2226115680222E-03 -0.1723333259992E-02  0.0000000000000E+00 -0.1029030931209E-01
 0.2066799622816E-03 -0.1680901286618E-02  0.0000000000000E+00 -0.1043011064393E-01
 0.1934222193022E-03 -0.1637322103604E-02  0.0000000000000E+00 -0.1058548234367E-01
 0.1842096865496E-03 -0.1593277984480E-02  0.0000000000000E+00 -0.1075757981455E-01
 0.1805895604327E-03 -0.1549602175358E-02  0.0000000000000E+00 -0.1094714128484E-01
 0.1843030553571E-03 -0.1507305982774E-02  0.0000000000000E+00 -0.1115427969097E-01
 0.1972942695624E-03 -0.1467600930474E-02  0.0000000000000E+00 -0.1137812879386E-01
 0.2217030553686E-03 -0.1431910450589E-02  0.0000000000000E+00 -0.1161633871207E-01
 0.2598348517340E-03 -0.1401860022636E-02  0.0000000000000E+00 -0.1186443150175E-01
 0.3141029623430E-03 -0.1379244647068E-02  0.0000000000000E+00 -0.1211506522739E-01
 0.3869339776559E-03 -0.1365975523518E-02  0.0000000000000E+00 -0.1235721365250E-01
 0.4806242908677E-03 -0.1363987430279E-02  0.0000000000000E+00 -0.1257532921718E-01
 0.5971439660215E-03 -0.1375096652399E-02  0.0000000000000E+00 -0.1274863676723E-01
 0.7378915691889E-03 -0.1400813394959E-02  0.0000000000000E+00 -0.1285069090327E-01
 0.9034110165960E-03 -0.1442115748845E-02  0.0000000000000E+00 -0.1284935963671E-01
 0.1093100178470E-02 -0.1499205051735E-02  0.0000000000000E+00 -0.1270738460729E-01
 0.1304989374956E-02 -0.1571287181775E-02  0.0000000000000E+00 -0.1238351772384E-01
 0.1535726516278E-02 -0.1656462780451E-02  0.0000000000000E+00 -0.1183365295506E-01
 0.1780558454685E-02 -0.1751707375549E-02  0.0000000000000E+00 -0.1101183479195E-01
 0.2033087244515E-02 -0.1852790930967E-02  0.0000000000000E+00 -0.9872467756571E-02
 0.2285351312507E-02 -0.1954331478705E-02  0.0000000000000E+00 -0.8372902543808E-02
 0.2528301654772E-02 -0.2050105484273E-02  0.0000000000000E+00 -0.6474816866938E-02
 0.1518141360263E-04 -0.1311618104402E-02  0.0000000000000E+00 -0.4294517131205E-02
 0.4487741203512E-04 -0.1330304442660E-02  0.0000000000000E+00 -0.5189657419273E-02
 0.7301154678560E-04 -0.1348069322142E-02  0.0000000000000E+00 -0.6000847757128E-02
 0.9916112154988E-04 -0.1364564743766E-02  0.0000000000000E+00 -0.6717482674715E-02
 0.1229610798451E-03 -0.1379473880149E-02  0.0000000000000E+00 -0.7335329235657E-02
 0.1440906464111E-03 -0.1392500293366E-02  0.0000000000000E+00 -0.7855961868417E-02
 0.1622715636776E-03 -0.1403366646068E-02  0.0000000000000E+00 -0.8285679130084E-02
 0.1772751977263E-03 -0.1411820451693E-02  0.0000000000000E+00 -0.8634145468797E-02
 0.1889343200661E-03 -0.1417643175574E-02  0.0000000000000E+00 -0.8913007497222E-02
 0.1971553313923E-03 -0.1420659102689E-02  0.0000000000000E+00 -0.9134672835505E-02
 0.2019280066900E-03 -0.1420741659991E-02  0.0000000000000E+00 -0.9311355428131E-02
 0.2033317405095E-03 -0.1417816537412E-02  0.0000000000000E+00 -0.9454417712117E-02
 0.2015386601286E-03 -0.1411862220042E-02  0.0000000000000E+00 -0.9573981931873E-02
 0.1968148947528E-03 -0.1402909339245E-02  0.0000000000000E+00 -0.9678756264389E-02
 0.1895215574738E-03 -0.1391040307532E-02  0.0000000000000E+00 -0.9776018472466E-02
 0.1801167491642E-03 -0.1376390303142E-02  0.0000000000000E+00 -0.9871703022748E-02
 0.1691559095308E-03 -0.1359134691755E-02  0.0000000000000E+00 -0.9970585967844E-02
 0.1572965151222E-03 -0.1339484069987E-02  0.0000000000000E+00 -0.1007642850349E-01
 0.1453158668395E-03 -0.1317730805501E-02  0.0000000000000E+00 -0.1019210088244E-01
 0.1341257811371E-03 -0.1294288174054E-02  0.0000000000000E+00 -0.1031984118067E-01
 0.1247788546853E-03 -0.1269691416010E-02  0.0000000000000E+00 -0.1046142312414E-01
 0.1184742880279E-03 -0.1244598949278E-02  0.0000000000000E+00 -0.1061825360144E-01
 0.1165632480657E-03 -0.1219800810974E-02  0.0000000000000E+00 -0.1079138916167E-01
 0.1205501872553E-03 -0.1196229303919E-02  0.0000000000000E+00 -0.1098144918854E-01
 0.1320861089963E-03 -0.1174965806727E-02  0.0000000000000E+00 -0.1118840986139E-01
 0.1529495814473E-03 -0.1157240287242E-02  0.0000000000000E+00 -0.1141125497976E-01
 0.1850102222278E-03 -0.1144418440585E-02  0.0000000000000E+00 -0.1164747971896E-01
 0.2301707424204E-03 -0.1137974013503E-02  0.0000000000000E+00 -0.1189245800996E-01
 0.2902848079880E-03 -0.1139439126038E-02  0.0000000000000E+00 -0.1213872330228E-01
 0.3670440660319E-03 -0.1150324163268E-02  0.0000000000000E+00 -0.1237517191011E-01
 0.4618308321513E-03 -0.1172009579118E-02  0.0000000000000E+00 -0.1258625456228E-01
 0.5755400849039E-03 -0.1205611943570E-02  0.0000000000000E+00 -0.1275130057682E-01
 0.7083785895545E-03 -0.1251826293659E-02  0.0000000000000E+00 -0.1284410448069E-01
 0.8596550840398E-03 -0.1310755459399E-02  0.0000000000000E+00 -0.1283293212989E-01
 0.1027589114080E-02 -0.1381746759708E-02  0.0000000000000E+00 -0.1268108976861E-01
 0.1209207259730E-02 -0.1463278487102E-02  0.0000000000000E+00 -0.1234804993614E-01
 0.1400448334522E-02 -0.1552966876980E-02  0.0000000000000E+00 -0.1179055464502E-01
 0.1596247090964E-02 -0.1647594337977E-02  0.0000000000000E+00 -0.1096357532022E-01
 0.1790363215808E-02 -0.1743031298433E-02  0.0000000000000E+00 -0.9822436077375E-02
 0.1975477884740E-02 -0.1834316894347E-02  0.0000000000000E+00 -0.8325287732532E-02
 0.2143603634736E-02 -0.1915935436575E-02  0.0000000000000E+00 -0.6434380971425E-02
 0.9602465186928E-05 -0.7664024068083E-03  0.0000000000000E+00 -0.4284963055807E-02
 0.2686391854530E-04 -0.7781957477258E-03  0.0000000000000E+00 -0.5180522403206E-02
 0.4055839107965E-04 -0.7888016905353E-03  0.0000000000000E+00 -0.5992119974390E-02
 0.5136568779514E-04 -0.7986720073964E-03  0.0000000000000E+00 -0.6709138119479E-02
 0.5997321864804E-04 -0.8082233322284E-03  0.0000000000000E+00 -0.7327374998952E-02
 0.6695445303938E-04 -0.8177444707074E-03  0.0000000000000E+00 -0.7848461976510E-02
 0.7269894964827E-04 -0.8273482741111E-03  0.0000000000000E+00 -0.8278760332050E-02
 0.7739756433989E-04 -0.8369696011603E-03  0.0000000000000E+00 -0.8627986428233E-02
 0.8107181979619E-04 -0.8463986004474E-03  0.0000000000000E+00 -0.8907818301545E-02
 0.8362914318566E-04 -0.8553328501243E-03  0.0000000000000E+00 -0.9130672030684E-02
 0.8492596426116E-04 -0.8634327536980E-03  0.0000000000000E+00 -0.9308749844623E-02
 0.8482570758228E-04 -0.8703696223275E-03  0.0000000000000E+00 -0.9453387625599E-02
 0.8324505630203E-04 -0.8758616000052E-03  0.0000000000000E+00 -0.9574671702372E-02
 0.8018728086079E-04 -0.8796973685108E-03  0.0000000000000E+00 -0.9681269064426E-02
 0.7576478924270E-04 -0.8817505652458E-03  0.0000000000000E+00 -0.9780413152941E-02
 0.7021418419195E-04 -0.8819874731313E-03  0.0000000000000E+00 -0.9877991229409E-02
 0.6389703400833E-04 -0.8804253960617E-03  0.0000000000000E+00 -0.9978727711788E-02
 0.5730256504277E-04 -0.8771020795664E-03  0.0000000000000E+00 -0.1008632593661E-01
 0.5108069513904E-04 -0.8721882826869E-03  0.0000000000000E+00 -0.1020359138172E-01
 0.4606555120101E-04 -0.8660788932337E-03  0.0000000000000E+00 -0.1033268892548E-01
 0.4326841609881E-04 -0.8593634755747E-03  0.0000000000000E+00 -0.1047530858359E-01
 0.4386570650605E-04 -0.8527920722295E-03  0.0000000000000E+00 -0.1063276215337E-01
 0.4918506759244E-04 -0.8472579951235E-03  0.0000000000000E+00 -0.1080600037000E-01
 0.6068503761980E-04 -0.8437877967146E-03  0.0000000000000E+00 -0.1099552846879E-01
 0.7992380920019E-04 -0.8435280965812E-03  0.0000000000000E+00 -0.1120120460358E-01
 0.1085129228146E-03 -0.8477228732989E-03  0.0000000000000E+00 -0.1142189764044E-01
 0.1480520306645E-03 -0.8576766122772E-03  0.0000000000000E+00 -0.1165500085667E-01
 0.2000439472520E-03 -0.8747094840406E-03  0.0000000000000E+00 -0.1189581286944E-01
 0.2657889815605E-03 -0.9000912967384E-03  0.0000000000000E+00 -0.1213683540262E-01
 0.3462543915451E-03 -0.9349354786950E-03  0.0000000000000E+00 -0.1236699556450E-01
 0.4419238023079E-03 -0.9800760484760E-03  0.0000000000000E+00 -0.1257085668966E-01
 0.5526374038942E-03 -0.1035942139753E-02  0.0000000000000E+00 -0.1272795988455E-01
 0.6774347037863E-03 -0.1102430059874E-02  0.0000000000000E+00 -0.1281242242200E-01
 0.8144164439363E-03 -0.1178786948245E-02  0.0000000000000E+00 -0.1279294643620E-01
 0.9606510913369E-03 -0.1263526910002E-02  0.0000000000000E+00 -0.1263337889194E-01
 0.1112185547658E-02 -0.1354420132383E-02  0.0000000000000E+00 -0.1229381788196E-01
 0.1264267023437E-02 -0.1448613950270E-02  0.0000000000000E+00 -0.1173169418315E-01
 0.1411524722471E-02 -0.1542706272295E-02  0.0000000000000E+00 -0.1090269016945E-01
 0.1547866835948E-02 -0.1632666463804E-02  0.0000000000000E+00 -0.9762790519349E-02
 0.1666590286985E-02 -0.1713941176186E-02  0.0000000000000E+00 -0.8270694111160E-02
 0.1760724578880E-02 -0.1781697093149E-02  0.0000000000000E+00 -0.6389041351416E-02
 0.4007286132640E-05 -0.2208133691972E-03  0.0000000000000E+00 -0.4279157487450E-02
 0.8795362723801E-05 -0.2256967164065E-03  0.0000000000000E+00 -0.5175166518198E-02
 0.8006365162731E-05 -0.2291322499022E-03  0.0000000000000E+00 -0.5986667783833E-02
 0.3436968217217E-05 -0.2323814548758E-03  0.0000000000000E+00 -0.6703052791028E-02
-0.3162417825900E-05 -0.2366008575372E-03  0.0000000000000E+00 -0.7320237712364E-02
-0.1031937958626E-04 -0.2426660725101E-03  0.0000000000000E+00 -0.7840041649265E-02
-0.1697764957509E-04 -0.2510771803012E-03  0.0000000000000E+00 -0.8269034634719E-02
-0.2253218981693E-04 -0.2619504890639E-03  0.0000000000000E+00 -0.8617119911745E-02
-0.2677998835740E-04 -0.2750779969051E-03  0.0000000000000E+00 -0.8896113079855E-02
-0.2981979646105E-04 -0.2900244689069E-03  0.0000000000000E+00 -0.9118508532948E-02
-0.3193439243426E-04 -0.3062328540027E-03  0.0000000000000E+00 -0.9296531537216E-02
-0.3348036410872E-04 -0.3231175401814E-03  0.0000000000000E+00 -0.9441497542937E-02
-0.3479883876384E-04 -0.3401353516289E-03  0.0000000000000E+00 -0.9563442888315E-02
-0.3615058380063E-04 -0.3568330215449E-03  0.0000000000000E+00 -0.9670967042532E-02
-0.3767246743991E-04 -0.3728757713434E-03  0.0000000000000E+00 -0.9771226663897E-02
-0.3934984375120E-04 -0.3880611943634E-03  0.0000000000000E+00 -0.9870027223987E-02
-0.4101565266579E-04 -0.4022483086743E-03  0.0000000000000E+00 -0.9972005085983E-02
-0.4234984882023E-04 -0.4153012757449E-03  0.0000000000000E+00 -0.1008076637092E-01
-0.4283121405813E-04 -0.4272678734595E-03  0.0000000000000E+00 -0.1019901390650E-01
-0.4170501033995E-04 -0.4385224905947E-03  0.0000000000000E+00 -0.1032880807777E-01
-0.3800318025093E-04 -0.4497062599375E-03  0.0000000000000E+00 -0.1047173125799E-01
-0.3057397858930E-04 -0.4616576274699E-03  0.0000000000000E+00 -0.1062898414133E-01
-0.1811486857650E-04 -0.4753697172759E-03  0.0000000000000E+00 -0.1080140501473E-01
 0.7858264785554E-06 -0.4919599173784E-03  0.0000000000000E+00 -0.1098938980189E-01
 0.2759360307025E-04 -0.5126371079344E-03  0.0000000000000E+00 -0.1119269722721E-01
 0.6375466418118E-04 -0.5386572225343E-03  0.0000000000000E+00 -0.1141011573831E-01
 0.1106025318995E-03 -0.5712629804765E-03  0.0000000000000E+00 -0.1163898877661E-01
 0.1692466926611E-03 -0.6116225218462E-03  0.0000000000000E+00 -0.1187461093473E-01
 0.2404438925103E-03 -0.6607475505039E-03  0.0000000000000E+00 -0.1210954301942E-01
 0.3244501833835E-03 -0.7193617819888E-03  0.0000000000000E+00 -0.1233284862190E-01
 0.4208667521441E-03 -0.7877630716529E-03  0.0000000000000E+00 -0.1252931519300E-01
 0.5284974291140E-03 -0.8657058892187E-03  0.0000000000000E+00 -0.1267880024253E-01
 0.6452335592053E-03 -0.9523019896586E-03  0.0000000000000E+00 -0.1275582448252E-01
 0.7679856577516E-03 -0.1045956827207E-02  0.0000000000000E+00 -0.1272956370806E-01
 0.8926854277087E-03 -0.1144363357886E-02  0.0000000000000E+00 -0.1256438214183E-01
 0.1014409198678E-02 -0.1244592338565E-02  0.0000000000000E+00 -0.1222091038482E-01
 0.1127715455642E-02 -0.1343326965623E-02  0.0000000000000E+00 -0.1165711216469E-01
 0.1226923653717E-02 -0.1436981284080E-02  0.0000000000000E+00 -0.1082916944519E-01
 0.1306078790262E-02 -0.1521619682876E-02  0.0000000000000E+00 -0.9693473923624E-02
 0.1359074796156E-02 -0.1593088089168E-02  0.0000000000000E+00 -0.8209026449202E-02
 0.1379932212504E-02 -0.1647223109803E-02  0.0000000000000E+00 -0.6338679947179E-02
-0.1645139415155E-05  0.3254734414875E-03  0.0000000000000E+00 -0.4277123188938E-02
-0.9454865659907E-05  0.3275655676196E-03  0.0000000000000E+00 -0.5173608033263E-02
-0.2485737945492E-04  0.3313547744893E-03  0.0000000000000E+00 -0.5984494880909E-02
-0.4491250572470E-04  0.3347515916197E-03  0.0000000000000E+00 -0.6699208150064E-02
-0.6678689795267E-04  0.3358475988732E-03  0.0000000000000E+00 -0.7313873515815E-02
-0.8809998286928E-04  0.3331773940837E-03  0.0000000000000E+00 -0.7830633618647E-02
-0.1071304916738E-03  0.3258592637301E-03  0.0000000000000E+00 -0.8256417079262E-02
-0.1228690061751E-03  0.3136067702749E-03  0.0000000000000E+00 -0.8601450751782E-02
-0.1349447919245E-03  0.2966394030335E-03  0.0000000000000E+00 -0.8877793708811E-02
-0.1434767170475E-03  0.2755373947734E-03  0.0000000000000E+00 -0.9098086931777E-02
-0.1488983644628E-03  0.2510843942544E-03  0.0000000000000E+00 -0.9274611352490E-02
-0.1517945439195E-03  0.2241284957181E-03  0.0000000000000E+00 -0.9418666125603E-02
-0.1527691324800E-03  0.1954766264542E-03  0.0000000000000E+00 -0.9540222078988E-02
-0.1523493907028E-03  0.1658242833762E-03  0.0000000000000E+00 -0.9647784059788E-02
-0.1509224274182E-03  0.1357138709283E-03  0.0000000000000E+00 -0.9748399329672E-02
-0.1486959021514E-03  0.1055155287399E-03  0.0000000000000E+00 -0.9847757285473E-02
-0.1456975695214E-03  0.7552796872437E-04  0.0000000000000E+00 -0.9950370367208E-02
-0.1417770910443E-03  0.4606070191187E-04  0.0000000000000E+00 -0.1005970876041E-01
-0.1365427600353E-03  0.1718977993119E-04  0.0000000000000E+00 -0.1017833539741E-01
-0.1293202298116E-03 -0.1143708139374E-04  0.0000000000000E+00 -0.1030817544270E-01
-0.1191856134525E-03 -0.4051040509233E-04  0.0000000000000E+00 -0.1045068015489E-01
-0.1050124126594E-03 -0.7095456139958E-04  0.0000000000000E+00 -0.1060692342591E-01
-0.8552306536269E-04 -0.1038600232350E-03  0.0000000000000E+00 -0.1077762457402E-01
-0.5935153155812E-04 -0.1404329486446E-03  0.0000000000000E+00 -0.1096307488776E-01
-0.2512225134432E-04 -0.1819432829241E-03  0.0000000000000E+00 -0.1116295173305E-01
 0.1845043146076E-04 -0.2296591491105E-03  0.0000000000000E+00 -0.1137599668242E-01
 0.7244121178507E-04 -0.2847637551404E-03  0.0000000000000E+00 -0.1159955394559E-01
 0.1375764562110E-03 -0.3482780316317E-03  0.0000000000000E+00 -0.1182898346576E-01
 0.2140825765400E-03 -0.4209633164307E-03  0.0000000000000E+00 -0.1205699370257E-01
 0.3015201947387E-03 -0.5031641613286E-03  0.0000000000000E+00 -0.1227288813633E-01
 0.3986252077572E-03 -0.5946548845571E-03  0.0000000000000E+00 -0.1246178793087E-01
 0.5031817607488E-03 -0.6945285999682E-03  0.0000000000000E+00 -0.1260397053829E-01
 0.6119468783854E-03 -0.8011245446514E-03  0.0000000000000E+00 -0.1267444097535E-01
 0.7206494519827E-03 -0.9120151026944E-03  0.0000000000000E+00 -0.1264288768194E-01
 0.8240860430255E-03 -0.1024075587413E-02  0.0000000000000E+00 -0.1247417148507E-01
 0.9163567211816E-03 -0.1133675318671E-02  0.0000000000000E+00 -0.1212936577423E-01
 0.9913195468965E-03 -0.1237027389705E-02  0.0000000000000E+00 -0.1156681426027E-01
 0.1042969215482E-02 -0.1330354560580E-02  0.0000000000000E+00 -0.1074298865504E-01
 0.1065473205975E-02 -0.1409809873604E-02  0.0000000000000E+00 -0.9614434170711E-02
 0.1053312055634E-02 -0.1471635689488E-02  0.0000000000000E+00 -0.8140207095692E-02
 0.1001490244379E-02 -0.1512339268520E-02  0.0000000000000E+00 -0.6283196521352E-02
-0.7396861128915E-05  0.8727869149650E-03  0.0000000000000E+00 -0.4278911524717E-02
-0.2801653176228E-04  0.8819695760765E-03  0.0000000000000E+00 -0.5175890922878E-02
-0.5825070396906E-04  0.8930813730825E-03  0.0000000000000E+00 -0.5985621773539E-02
-0.9397619162888E-04  0.9031778593375E-03  0.0000000000000E+00 -0.6697588955372E-02
-0.1312470978759E-03  0.9095810574692E-03  0.0000000000000E+00 -0.7308226537849E-02
-0.1667610964323E-03  0.9102316229797E-03  0.0000000000000E+00 -0.7820144657193E-02
-0.1981346530493E-03  0.9038748773652E-03  0.0000000000000E+00 -0.8240786598393E-02
-0.2239687678365E-03  0.8900714408938E-03  0.0000000000000E+00 -0.8580842489807E-02
-0.2437456516668E-03  0.8690724357256E-03  0.0000000000000E+00 -0.8852720469061E-02
-0.2576251671516E-03  0.8416214693365E-03  0.0000000000000E+00 -0.9069273832123E-02
-0.2662090538569E-03  0.8087425904154E-03  0.0000000000000E+00 -0.9242868341045E-02
-0.2703226157730E-03  0.7715547946361E-03  0.0000000000000E+00 -0.9384787698448E-02
-0.2708398306085E-03  0.7311324562642E-03  0.0000000000000E+00 -0.9504919233019E-02
-0.2685580203308E-03  0.6884136914704E-03  0.0000000000000E+00 -0.9611644646145E-02
-0.2641157607529E-03  0.6441471747499E-03  0.0000000000000E+00 -0.9711868727738E-02
-0.2579431698151E-03  0.5988689842337E-03  0.0000000000000E+00 -0.9811130758643E-02
-0.2502627515409E-03  0.5530341819612E-03  0.0000000000000E+00 -0.9913784025435E-02
-0.2410939877905E-03  0.5071253829698E-03  0.0000000000000E+00 -0.1002312483186E-01
-0.2301750041238E-03  0.4613427998961E-03  0.0000000000000E+00 -0.1014153971797E-01
-0.2169121759226E-03  0.4153573712220E-03  0.0000000000000E+00 -0.1027078852037E-01
-0.2004257965239E-03  0.3684308100090E-03  0.0000000000000E+00 -0.1041216833873E-01
-0.1796139169734E-03  0.3195545950401E-03  0.0000000000000E+00 -0.1056661076112E-01
-0.1532221481449E-03  0.2675424211561E-03  0.0000000000000E+00 -0.1073470953314E-01
-0.1199267599203E-03  0.2111001523028E-03  0.0000000000000E+00 -0.1091665554079E-01
-0.7843681378483E-04  0.1488962879280E-03  0.0000000000000E+00 -0.1111206196638E-01
-0.2761941076079E-04  0.7964811040598E-04  0.0000000000000E+00 -0.1131965563529E-01
 0.3335198813648E-04  0.2226984615536E-05  0.0000000000000E+00 -0.1153683020401E-01
 0.1048344027088E-03 -0.8424879093743E-04  0.0000000000000E+00 -0.1175907802825E-01
 0.1865405518906E-03 -0.1803013791476E-03  0.0000000000000E+00 -0.1197934136876E-01
 0.2773540572429E-03 -0.2859100135160E-03  0.0000000000000E+00 -0.1218726494391E-01
 0.3751637333722E-03 -0.4003405421356E-03  0.0000000000000E+00 -0.1236841214150E-01
 0.4767492220761E-03 -0.5220387564738E-03  0.0000000000000E+00 -0.1250358437436E-01
 0.5777421343978E-03 -0.6485815334252E-03  0.0000000000000E+00 -0.1256835424918E-01
 0.6726894587148E-03 -0.7767116843280E-03  0.0000000000000E+00 -0.1253296608353E-01
 0.7552416791883E-03 -0.9024820016177E-03  0.0000000000000E+00 -0.1236276191845E-01
 0.8185019971507E-03 -0.1021547646755E-02  0.0000000000000E+00 -0.1201917296278E-01
 0.8556013603251E-03 -0.1129634633116E-02  0.0000000000000E+00 -0.1146077231202E-01
 0.8601833127655E-03 -0.1222758509511E-02  0.0000000000000E+00 -0.1064411004543E-01
 0.8265204564979E-03 -0.1297151791036E-02  0.0000000000000E+00 -0.9525625849202E-02
 0.7496779826557E-03 -0.1349455869115E-02  0.0000000000000E+00 -0.8064177808602E-02
 0.6256567160530E-03 -0.1376863059654E-02  0.0000000000000E+00 -0.6222510329813E-02
-0.1329143670261E-04  0.1421462297258E-02  0.0000000000000E+00 -0.4284603273176E-02
-0.4702401814633E-04  0.1437901730425E-02  0.0000000000000E+00 -0.5182085417695E-02
-0.9239881870986E-04  0.1456478423036E-02  0.0000000000000E+00 -0.5990085678529E-02
-0.1440563092581E-03  0.1473356653339E-02  0.0000000000000E+00 -0.6698182321931E-02
-0.1968983319574E-03  0.1485065426357E-02  0.0000000000000E+00 -0.7303227241820E-02
-0.2466830506439E-03  0.1488946486655E-02  0.0000000000000E+00 -0.7808453579678E-02
-0.2903690772083E-03  0.1483384588526E-02  0.0000000000000E+00 -0.8221984110917E-02
-0.3261883789265E-03  0.1467811128871E-02  0.0000000000000E+00 -0.8555115908184E-02
-0.3535042711541E-03  0.1442536270866E-02  0.0000000000000E+00 -0.8820711181888E-02
-0.3725457325379E-03  0.1408491732970E-02  0.0000000000000E+00 -0.9031897588153E-02
-0.3841057993896E-03  0.1366960346989E-02  0.0000000000000E+00 -0.9201149960395E-02
-0.3892664531525E-03  0.1319343063508E-02  0.0000000000000E+00 -0.9339732741077E-02
-0.3891813000756E-03  0.1266986388454E-02  0.0000000000000E+00 -0.9457428278942E-02
-0.3849221685749E-03  0.1211071301548E-02  0.0000000000000E+00 -0.9562464563999E-02
-0.3773804008880E-03  0.1152550632981E-02  0.0000000000000E+00 -0.9661570114127E-02
-0.3672084088244E-03  0.1092123644346E-02  0.0000000000000E+00 -0.9760100283875E-02
-0.3548229518294E-03  0.1030399484113E-02  0.0000000000000E+00 -0.9862214735721E-02
-0.3404130257791E-03  0.9680326328276E-03  0.0000000000000E+00 -0.9970998880307E-02
-0.3238464420980E-03  0.9053472952641E-03  0.0000000000000E+00 -0.1008862724883E-01
-0.3046099966542E-03  0.8420382957711E-03  0.0000000000000E+00 -0.1021666492209E-01
-0.2818672843284E-03  0.7773207011290E-03  0.0000000000000E+00 -0.1035623220071E-01
-0.2545389899328E-03  0.7101029630284E-03  0.0000000000000E+00 -0.1050810296246E-01
-0.2213904969913E-03  0.6391035914468E-03  0.0000000000000E+00 -0.1067273851357E-01
-0.1811350463820E-03  0.5629400958961E-03  0.0000000000000E+00 -0.1085023286461E-01
-0.1325585594019E-03  0.4802173781985E-03  0.0000000000000E+00 -0.1104015094226E-01
-0.7467022347862E-04  0.3896337029824E-03  0.0000000000000E+00 -0.1124123510544E-01
-0.6877719438081E-05  0.2901075377566E-03  0.0000000000000E+00 -0.1145097473831E-01
 0.7082390736057E-04  0.1808853920382E-03  0.0000000000000E+00 -0.1166505893200E-01
 0.1576537668355E-03  0.6166968662025E-04  0.0000000000000E+00 -0.1187674723601E-01
 0.2518397159166E-03 -0.6717069376995E-04  0.0000000000000E+00 -0.1207612504022E-01
 0.3504430470367E-03 -0.2044108339216E-03  0.0000000000000E+00 -0.1224930610923E-01
 0.4492529995710E-03 -0.3478642990905E-03  0.0000000000000E+00 -0.1237772177841E-01
 0.5427801911240E-03 -0.4943543073977E-03  0.0000000000000E+00 -0.1243760015334E-01
 0.6243808877739E-03 -0.6397928627749E-03  0.0000000000000E+00 -0.1239979160880E-01
 0.6865360496158E-03 -0.7793971587045E-03  0.0000000000000E+00 -0.1223011189518E-01
 0.7213160776729E-03 -0.9080845874904E-03  0.0000000000000E+00 -0.1189027151105E-01
 0.7210822522117E-03 -0.1021065504196E-02  0.0000000000000E+00 -0.1133892448831E-01
 0.6790880731349E-03 -0.1114122965124E-02  0.0000000000000E+00 -0.1053248336979E-01
 0.5896900585276E-03 -0.1183556284333E-02  0.0000000000000E+00 -0.9427011882193E-02
 0.4485446843159E-03 -0.1226413940017E-02  0.0000000000000E+00 -0.7980901928345E-02
 0.2526822665154E-03 -0.1240602251780E-02  0.0000000000000E+00 -0.6156562125997E-02
-0.1937444652553E-04  0.1971843217397E-02  0.0000000000000E+00 -0.4294309746165E-02
-0.6661790833113E-04  0.1995758959099E-02  0.0000000000000E+00 -0.5192288749982E-02
-0.1275367949940E-03  0.2021988524916E-02  0.0000000000000E+00 -0.5997940328463E-02
-0.1954667816868E-03  0.2045758501185E-02  0.0000000000000E+00 -0.6700976330501E-02
-0.2641070827060E-03  0.2062775448610E-02  0.0000000000000E+00 -0.7298790029061E-02
-0.3282547505325E-03  0.2069776938862E-02  0.0000000000000E+00 -0.7795408372879E-02
-0.3842175364637E-03  0.2064804201529E-02  0.0000000000000E+00 -0.8199809802091E-02
-0.4298857055588E-03  0.2047190565100E-02  0.0000000000000E+00 -0.8524046944015E-02
-0.4645401185043E-03  0.2017340506808E-02  0.0000000000000E+00 -0.8781539984217E-02
-0.4885146296359E-03  0.1976405158928E-02  0.0000000000000E+00 -0.8985747921244E-02
-0.5028225279878E-03  0.1925948979904E-02  0.0000000000000E+00 -0.9149272353145E-02
-0.5088223530665E-03  0.1867668252268E-02  0.0000000000000E+00 -0.9283348574491E-02
-0.5079587281267E-03  0.1803186919916E-02  0.0000000000000E+00 -0.9397627963991E-02
-0.5015829968933E-03  0.1733928593388E-02  0.0000000000000E+00 -0.9500151620643E-02
-0.4908403936557E-03  0.1661047135627E-02  0.0000000000000E+00 -0.9597437064119E-02
-0.4766049856007E-03  0.1585401119949E-02  0.0000000000000E+00 -0.9694622191097E-02
-0.4594867947431E-03  0.1507750560714E-02  0.0000000000000E+00 -0.9795639498973E-02
-0.4398435999804E-03  0.1428919883726E-02  0.0000000000000E+00 -0.9903327623054E-02
-0.4176723205404E-03  0.1349356643443E-02  0.0000000000000E+00 -0.1001961449997E-01
-0.3925392933337E-03  0.1268779805765E-02  0.0000000000000E+00 -0.1014584177652E-01
-0.3636497092403E-03  0.1186358459988E-02  0.0000000000000E+00 -0.1028293070531E-01
-0.3299438229635E-03  0.1100918581122E-02  0.0000000000000E+00 -0.1043148205630E-01
-0.2902018777914E-03  0.1011083373875E-02  0.0000000000000E+00 -0.1059181741097E-01
-0.2431668438769E-03  0.9153805834261E-03  0.0000000000000E+00 -0.1076393649087E-01
-0.1876914251703E-03  0.8123480875733E-03  0.0000000000000E+00 -0.1094737031994E-01
-0.1229134802030E-03  0.7006588805297E-03  0.0000000000000E+00 -0.1114090480215E-01
-0.4845782052176E-04  0.5792687119307E-03  0.0000000000000E+00 -0.1134216844729E-01
 0.3534918961190E-04  0.4475383800646E-03  0.0000000000000E+00 -0.1154710819397E-01
 0.1272566522135E-03  0.3053769329640E-03  0.0000000000000E+00 -0.1174938138421E-01
 0.2248609407869E-03  0.1534807015579E-03  0.0000000000000E+00 -0.1193961161806E-01
 0.3244171606398E-03 -0.6455288635243E-05  0.0000000000000E+00 -0.1210457141956E-01
 0.4207377377914E-03 -0.1716290226173E-03  0.0000000000000E+00 -0.1222643129591E-01
 0.5072128289592E-03 -0.3381178925881E-03  0.0000000000000E+00 -0.1228216954628E-01
 0.5759910419136E-03 -0.5009976504994E-03  0.0000000000000E+00 -0.1224330252201E-01
 0.6183478452617E-03 -0.6546288387209E-03  0.0000000000000E+00 -0.1207612295476E-01
 0.6252689193660E-03 -0.7931562881562E-03  0.0000000000000E+00 -0.1174255063803E-01
 0.5882860928492E-03 -0.9112336184762E-03  0.0000000000000E+00 -0.1120117442234E-01
 0.5002096831870E-03 -0.1004375456124E-02  0.0000000000000E+00 -0.1040804602746E-01
 0.3554537550954E-03 -0.1068930656011E-02  0.0000000000000E+00 -0.9318565114473E-02
 0.1502814146039E-03 -0.1102368259233E-02  0.0000000000000E+00 -0.7890366949494E-02
-0.1171917435174E-03 -0.1103353414368E-02  0.0000000000000E+00 -0.6085316525847E-02
-0.2569406454021E-04  0.2524283891264E-02  0.0000000000000E+00 -0.4308174243396E-02
-0.8694673823728E-04  0.2555951481072E-02  0.0000000000000E+00 -0.5206626102065E-02
-0.1639123190354E-03  0.2590069067945E-02  0.0000000000000E+00 -0.6009255654597E-02
-0.2485364056288E-03  0.2620867955224E-02  0.0000000000000E+00 -0.6705958111185E-02
-0.3332538625223E-03  0.2643196679349E-02  0.0000000000000E+00 -0.7294810003383E-02
-0.4118756556080E-03  0.2653183809380E-02  0.0000000000000E+00 -0.7780822373006E-02
-0.4800694702663E-03  0.2648549956602E-02  0.0000000000000E+00 -0.8174019547573E-02
-0.5354193258403E-03  0.2628570140537E-02  0.0000000000000E+00 -0.8487363985107E-02
-0.5771693473856E-03  0.2593787036826E-02  0.0000000000000E+00 -0.8734935773882E-02
-0.6058021317139E-03  0.2545609287429E-02  0.0000000000000E+00 -0.8930575469330E-02
-0.6225859937496E-03  0.2485910094487E-02  0.0000000000000E+00 -0.9087020748367E-02
-0.6291793152958E-03  0.2416696359700E-02  0.0000000000000E+00 -0.9215460282993E-02
-0.6273305756688E-03  0.2339874923108E-02  0.0000000000000E+00 -0.9325382980106E-02
-0.6186758119978E-03  0.2257110902160E-02  0.0000000000000E+00 -0.9424606748149E-02
-0.6046147973520E-03  0.2169754755498E-02  0.0000000000000E+00 -0.9519402338392E-02
-0.5862419530142E-03  0.2078819193455E-02  0.0000000000000E+00 -0.9614657062124E-02
-0.5643589916522E-03  0.1985210835988E-02  0.0000000000000E+00 -0.9714043871825E-02
-0.5394913202439E-03  0.1889921444373E-02  0.0000000000000E+00 -0.9820120109582E-02
-0.5117640052762E-03  0.1793520845196E-02  0.0000000000000E+00 -0.9934533735850E-02
-0.4808215373573E-03  0.1695752056061E-02  0.0000000000000E+00 -0.1005837511761E-01
-0.4459082467761E-03  0.1595738484279E-02  0.0000000000000E+00 -0.1019234460120E-01
-0.4059798290328E-03  0.1492223698877E-02  0.0000000000000E+00 -0.1033685439376E-01
-0.3598250629930E-03  0.1383734835365E-02  0.0000000000000E+00 -0.1049207852010E-01
-0.3062076323752E-03  0.1268707596054E-02  0.0000000000000E+00 -0.1065792385534E-01
-0.2440347852481E-03  0.1145608229062E-02  0.0000000000000E+00 -0.1083389999709E-01
-0.1725570512768E-03  0.1013076604005E-02  0.0000000000000E+00 -0.1101886172351E-01
-0.9159625756727E-04  0.8700937983562E-03  0.0000000000000E+00 -0.1121061667869E-01
-0.1785916062813E-05  0.7161182269936E-03  0.0000000000000E+00 -0.1140542701482E-01
 0.9518029660271E-04  0.5512442713544E-03  0.0000000000000E+00 -0.1159742495010E-01
 0.1962949158394E-03  0.3764713981859E-03  0.0000000000000E+00 -0.1177786779980E-01
 0.2970305199417E-03  0.1939407364668E-03  0.0000000000000E+00 -0.1193429586459E-01
 0.3912365349172E-03  0.7051045162618E-05  0.0000000000000E+00 -0.1204973254840E-01
 0.4711800743855E-03 -0.1795369791586E-03  0.0000000000000E+00 -0.1210200993291E-01
 0.5277775793135E-03 -0.3600538739236E-03  0.0000000000000E+00 -0.1206338293079E-01
 0.5510505121606E-03 -0.5279748133193E-03  0.0000000000000E+00 -0.1190063856009E-01
 0.5308310199557E-03 -0.6766257187965E-03  0.0000000000000E+00 -0.1157584710619E-01
 0.4577425915169E-03 -0.8000486957654E-03  0.0000000000000E+00 -0.1104738920824E-01
 0.3240825108839E-03 -0.8934415305954E-03  0.0000000000000E+00 -0.1027072246225E-01
 0.1242888963944E-03 -0.9531791559061E-03  0.0000000000000E+00 -0.9200269847428E-02
-0.1447443912976E-03 -0.9771699037976E-03  0.0000000000000E+00 -0.7792587571500E-02
-0.4837353150056E-03 -0.9649003504741E-03  0.0000000000000E+00 -0.6008764770952E-02
-0.3230170375687E-04  0.3079151560215E-02  0.0000000000000E+00 -0.4326373878895E-02
-0.1081689702095E-03  0.3118905888536E-02  0.0000000000000E+00 -0.5225251767844E-02
-0.2017887642347E-03  0.3161195594368E-02  0.0000000000000E+00 -0.6024117296788E-02
-0.3036123179245E-03  0.3199186595459E-02  0.0000000000000E+00 -0.6713111293951E-02
-0.4047362381927E-03  0.3226827491296E-02  0.0000000000000E+00 -0.7291158767534E-02
-0.4979577424671E-03  0.3239634446817E-02  0.0000000000000E+00 -0.7764469385058E-02
-0.5783206535366E-03  0.3235037811001E-02  0.0000000000000E+00 -0.8144320428543E-02
-0.6431480280285E-03  0.3212304119057E-02  0.0000000000000E+00 -0.8444744552473E-02
-0.6917034597330E-03  0.3172167623243E-02  0.0000000000000E+00 -0.8680580370155E-02
-0.7246707840772E-03  0.3116339580872E-02  0.0000000000000E+00 -0.8866091330517E-02
-0.7436138779685E-03  0.3047033044186E-02  0.0000000000000E+00 -0.9014150048217E-02
-0.7505172557166E-03  0.2966582193302E-02  0.0000000000000E+00 -0.9135871921972E-02
-0.7474470251460E-03  0.2877181792015E-02  0.0000000000000E+00 -0.9240545403112E-02
-0.7363287828474E-03  0.2780735951688E-02  0.0000000000000E+00 -0.9335725373151E-02
-0.7188166455722E-03  0.2678785617391E-02  0.0000000000000E+00 -0.9427398986632E-02
-0.6962232064596E-03  0.2572490946635E-02  0.0000000000000E+00 -0.9520170466007E-02
-0.6695396316935E-03  0.2462899776296E-02  0.0000000000000E+00 -0.9617422305300E-02
-0.6394573876443E-03  0.2351167903133E-02  0.0000000000000E+00 -0.9721397683495E-02
-0.6062284105851E-03  0.2237985965008E-02  0.0000000000000E+00 -0.9833432606249E-02
-0.5695735358159E-03  0.2123120672477E-02  0.0000000000000E+00 -0.9954339243436E-02
-0.5287731143514E-03  0.2005649762843E-02  0.0000000000000E+00 -0.1008457558088E-01
-0.4827931828688E-03  0.1884234099894E-02  0.0000000000000E+00 -0.1022434970717E-01
-0.4304234356630E-03  0.1757303488275E-02  0.0000000000000E+00 -0.1037367961835E-01
-0.3704376290457E-03  0.1623198635125E-02  0.0000000000000E+00 -0.1053237947769E-01
-0.3017833355237E-03  0.1480308617489E-02  0.0000000000000E+00 -0.1069994778689E-01
-0.2238053594520E-03  0.1327230996910E-02  0.0000000000000E+00 -0.1087533044254E-01
-0.1364995520318E-03  0.1162958350026E-02  0.0000000000000E+00 -0.1105655030888E-01
-0.4077902244770E-04  0.9870274716488E-03  0.0000000000000E+00 -0.1124023775837E-01
 0.6125076709407E-04  0.7996934791857E-03  0.0000000000000E+00 -0.1142107297260E-01
 0.1660099123357E-03  0.6022308242694E-03  0.0000000000000E+00 -0.1159104011496E-01
 0.2682151260469E-03  0.3971988778016E-03  0.0000000000000E+00 -0.1173855708680E-01
 0.3607677875848E-03  0.1885713182035E-03  0.0000000000000E+00 -0.1184761937300E-01
 0.4348072490346E-03 -0.1826169136454E-04  0.0000000000000E+00 -0.1189702735059E-01
 0.4799864172969E-03 -0.2166738979639E-03  0.0000000000000E+00 -0.1185986282395E-01
 0.4850116981696E-03 -0.3992191739635E-03  0.0000000000000E+00 -0.1170344215088E-01
 0.4384748922730E-03 -0.5583462218550E-03  0.0000000000000E+00 -0.1138994188430E-01
 0.3299907456231E-03 -0.6874156556087E-03  0.0000000000000E+00 -0.1087739606842E-01
 0.1512536252006E-03 -0.7812451308316E-03  0.0000000000000E+00 -0.1012042263967E-01
-0.1033177410628E-03 -0.8362036619113E-03  0.0000000000000E+00 -0.9072123284046E-02
-0.4361659560990E-03 -0.8506624188078E-03  0.0000000000000E+00 -0.7687609346029E-02
-0.8467322015564E-03 -0.8250123896465E-03  0.0000000000000E+00 -0.5926927965525E-02
-0.3925275868523E-04  0.3636829232499E-02  0.0000000000000E+00 -0.4349121827767E-02
-0.1304552550315E-03  0.3685068614234E-02  0.0000000000000E+00 -0.5248350538747E-02
-0.2414486711431E-03  0.3735865543592E-02  0.0000000000000E+00 -0.6042625872369E-02
-0.3610638325363E-03  0.3781236277618E-02  0.0000000000000E+00 -0.6722412682505E-02
-0.4789720464553E-03  0.3814181099017E-02  0.0000000000000E+00 -0.7287679082796E-02
-0.5869274263183E-03  0.3829603150597E-02  0.0000000000000E+00 -0.7746077611163E-02
-0.6793736350871E-03  0.3824682356624E-02  0.0000000000000E+00 -0.8110365277562E-02
-0.7534299853501E-03  0.3798738442728E-02  0.0000000000000E+00 -0.8395811382217E-02
-0.8084476471379E-03  0.3752761112306E-02  0.0000000000000E+00 -0.8618106451761E-02
-0.8453733638824E-03  0.3688816520102E-02  0.0000000000000E+00 -0.8791966682344E-02
-0.8661127258064E-03  0.3609492242730E-02  0.0000000000000E+00 -0.8930385677051E-02
-0.8730051458203E-03  0.3517467080892E-02  0.0000000000000E+00 -0.9044368072638E-02
-0.8684484264696E-03  0.3415227613206E-02  0.0000000000000E+00 -0.9142956487185E-02
-0.8546617052211E-03  0.3304912460863E-02  0.0000000000000E+00 -0.9233399102186E-02
-0.8335519862419E-03  0.3188244867627E-02  0.0000000000000E+00 -0.9321361701887E-02
-0.8066467279744E-03  0.3066524000830E-02  0.0000000000000E+00 -0.9411133872122E-02
-0.7751235606653E-03  0.2940932307728E-02  0.0000000000000E+00 -0.9505778591332E-02
-0.7398380519993E-03  0.2812785640471E-02  0.0000000000000E+00 -0.9607193991572E-02
-0.7011674986666E-03  0.2682893671037E-02  0.0000000000000E+00 -0.9716373774284E-02
-0.6589069532630E-03  0.2551046266180E-02  0.0000000000000E+00 -0.9833826032492E-02
-0.6123691075317E-03  0.2416275323868E-02  0.0000000000000E+00 -0.9959745369301E-02
-0.5605243732327E-03  0.2277158456881E-02  0.0000000000000E+00 -0.1009412008202E-01
-0.5021545717678E-03  0.2132026545388E-02  0.0000000000000E+00 -0.1023680297310E-01
-0.4360314347360E-03  0.1979121900390E-02  0.0000000000000E+00 -0.1038751420371E-01
-0.3611268676310E-03  0.1816750235704E-02  0.0000000000000E+00 -0.1054574913387E-01
-0.2768593794550E-03  0.1643456614122E-02  0.0000000000000E+00 -0.1071056354897E-01
-0.1833731599312E-03  0.1458229719745E-02  0.0000000000000E+00 -0.1088022713329E-01
-0.8183005011109E-04  0.1260663155890E-02  0.0000000000000E+00 -0.1105178642242E-01
 0.2528760553022E-04  0.1051144931007E-02  0.0000000000000E+00 -0.1122053791015E-01
 0.1338630617189E-03  0.8311922691955E-03  0.0000000000000E+00 -0.1137928278917E-01
 0.2378876273801E-03  0.6037504848747E-03  0.0000000000000E+00 -0.1151742707539E-01
 0.3293318374884E-03  0.3733424053191E-03  0.0000000000000E+00 -0.1162006369556E-01
 0.3982016503332E-03  0.1460769381422E-03  0.0000000000000E+00 -0.1166708866418E-01
 0.4328491578776E-03 -0.7054985456149E-04  0.0000000000000E+00 -0.1163251799242E-01
 0.4205922434795E-03 -0.2681280514103E-03  0.0000000000000E+00 -0.1148425443686E-01
 0.3486762883105E-03 -0.4381584980654E-03  0.0000000000000E+00 -0.1118455546891E-01
 0.2055824170546E-03 -0.5732333871563E-03  0.0000000000000E+00 -0.1069097743447E-01
-0.1771216035484E-04 -0.6677090021932E-03  0.0000000000000E+00 -0.9957039322752E-02
-0.3268655084796E-03 -0.7179046304532E-03  0.0000000000000E+00 -0.8934136799349E-02
-0.7236158075581E-03 -0.7226816904578E-03  0.0000000000000E+00 -0.7575513104174E-02
-0.1205982722605E-02 -0.6834424819695E-03  0.0000000000000E+00 -0.5839860898482E-02
-0.4660747206852E-04  0.4197718809349E-02  0.0000000000000E+00 -0.4376670054873E-02
-0.1539910617417E-03  0.4254909885824E-02  0.0000000000000E+00 -0.5276139325874E-02
-0.2831977413995E-03  0.4314602469754E-02  0.0000000000000E+00 -0.6064895910416E-02
-0.4212867312997E-03  0.4367562672282E-02  0.0000000000000E+00 -0.6733827961615E-02
-0.5564028243685E-03  0.4405787579778E-02  0.0000000000000E+00 -0.7284178175668E-02
-0.6792274027103E-03  0.4423571313164E-02  0.0000000000000E+00 -0.7725322225845E-02
-0.7836378689519E-03  0.4417895269751E-02  0.0000000000000E+00 -0.8071746190195E-02
-0.8666215230042E-03  0.4388208031918E-02  0.0000000000000E+00 -0.8340127934030E-02
-0.9276987418129E-03  0.4335830218563E-02  0.0000000000000E+00 -0.8547095357219E-02
-0.9681505400881E-03  0.4263242401608E-02  0.0000000000000E+00 -0.8707832579807E-02
-0.9902756986066E-03  0.4173444315544E-02  0.0000000000000E+00 -0.8835424786412E-02
-0.9967990749071E-03  0.4069476537106E-02  0.0000000000000E+00 -0.8940715814627E-02
-0.9904637484172E-03  0.3954119374724E-02  0.0000000000000E+00 -0.9032448861866E-02
-0.9737848270404E-03  0.3829738840292E-02  0.0000000000000E+00 -0.9117517750414E-02
-0.9489190122308E-03  0.3698229762520E-02  0.0000000000000E+00 -0.9201228439528E-02
-0.9176039337485E-03  0.3561019888038E-02  0.0000000000000E+00 -0.9287525745564E-02
-0.8811998620996E-03  0.3419418365568E-02  0.0000000000000E+00 -0.9379126415617E-02
-0.8407241627939E-03  0.3274896467314E-02  0.0000000000000E+00 -0.9477555033959E-02
-0.7966778597365E-03  0.3128380889807E-02  0.0000000000000E+00 -0.9583434531176E-02
-0.7489278980395E-03  0.2979684045902E-02  0.0000000000000E+00 -0.9696944201701E-02
-0.6968151796040E-03  0.2827791755789E-02  0.0000000000000E+00 -0.9817994718344E-02
-0.6393077691954E-03  0.2671197723244E-02  0.0000000000000E+00 -0.9946338812436E-02
-0.5751697969861E-03  0.2508132162351E-02  0.0000000000000E+00 -0.1008165423182E-01
-0.5031576057045E-03  0.2336735394018E-02  0.0000000000000E+00 -0.1022356436105E-01
-0.4222499127297E-03  0.2155223255410E-02  0.0000000000000E+00 -0.1037156681509E-01
-0.3319164528760E-03  0.1962077491051E-02  0.0000000000000E+00 -0.1052484219574E-01
-0.2324216003986E-03  0.1756266311488E-02  0.0000000000000E+00 -0.1068193352830E-01
-0.1251418454600E-03  0.1537416511327E-02  0.0000000000000E+00 -0.1084034558621E-01
-0.1289746134181E-04  0.1306017995733E-02  0.0000000000000E+00 -0.1099605385534E-01
 0.9969825387346E-04  0.1063794269441E-02  0.0000000000000E+00 -0.1114276292432E-01
 0.2059463813264E-03  0.8140392086353E-03  0.0000000000000E+00 -0.1127097765709E-01
 0.2969073779067E-03  0.5617939557348E-03  0.0000000000000E+00 -0.1136702033130E-01
 0.3614487723607E-03  0.3138718629467E-03  0.0000000000000E+00 -0.1141202447988E-01
 0.3865798997658E-03  0.7865176368675E-04  0.0000000000000E+00 -0.1138106999945E-01
 0.3581445604308E-03 -0.1344445320600E-03  0.0000000000000E+00 -0.1124272998248E-01
 0.2619150466283E-03 -0.3158868093909E-03  0.0000000000000E+00 -0.1095934173435E-01
 0.8508600799906E-04 -0.4573930148763E-03  0.0000000000000E+00 -0.1048786410424E-01
-0.1822265804587E-03 -0.5527550964858E-03  0.0000000000000E+00 -0.9780443721452E-02
-0.5458345522711E-03 -0.5981824459584E-03  0.0000000000000E+00 -0.8786336858071E-02
-0.1006724119395E-02 -0.5930560564580E-03  0.0000000000000E+00 -0.7456420445348E-02
-0.1561307200305E-02 -0.5399250147020E-03  0.0000000000000E+00 -0.5747656655577E-02
-0.5443196019220E-04  0.4762244696024E-02  0.0000000000000E+00 -0.4409312603139E-02
-0.1789797742147E-03  0.4828928291975E-02  0.0000000000000E+00 -0.5308869028954E-02
-0.3273694739227E-03  0.4897960842807E-02  0.0000000000000E+00 -0.6091054323088E-02
-0.4847081020017E-03  0.4958739140973E-02  0.0000000000000E+00 -0.6747306188601E-02
-0.6374974705075E-03  0.5002195851272E-02  0.0000000000000E+00 -0.7280419418908E-02
-0.7753183504134E-03  0.5022027166728E-02  0.0000000000000E+00 -0.7701816405455E-02
-0.8915294393351E-03  0.5015083164331E-02  0.0000000000000E+00 -0.8027986938223E-02
-0.9830753774132E-03  0.4981033468312E-02  0.0000000000000E+00 -0.8277193375988E-02
-0.1049742701856E-02  0.4921617804127E-02  0.0000000000000E+00 -0.8467074861686E-02
-0.1093228190223E-02  0.4839797799611E-02  0.0000000000000E+00 -0.8613280060516E-02
-0.1116280125722E-02  0.4739025083357E-02  0.0000000000000E+00 -0.8728937926119E-02
-0.1122040236996E-02  0.4622717894725E-02  0.0000000000000E+00 -0.8824667196413E-02
-0.1113609047519E-02  0.4493949230534E-02  0.0000000000000E+00 -0.8908849182530E-02
-0.1093797750847E-02  0.4355301999335E-02  0.0000000000000E+00 -0.8987971742478E-02
-0.1065007301012E-02  0.4208828895930E-02  0.0000000000000E+00 -0.9066942314573E-02
-0.1029179141684E-02  0.4056073572339E-02  0.0000000000000E+00 -0.9149332828981E-02
-0.9878514554697E-03  0.3898462594201E-02  0.0000000000000E+00 -0.9237490014732E-02
-0.9422008266058E-03  0.3737617406980E-02  0.0000000000000E+00 -0.9332539248883E-02
-0.8928503842192E-03  0.3574579592325E-02  0.0000000000000E+00 -0.9434706386464E-02
-0.8397365830114E-03  0.3409183542939E-02  0.0000000000000E+00 -0.9543818488150E-02
-0.7822240720573E-03  0.3240368812759E-02  0.0000000000000E+00 -0.9659482280398E-02
-0.7192712042365E-03  0.3066544567931E-02  0.0000000000000E+00 -0.9781199102700E-02
-0.6496137160468E-03  0.2885838666771E-02  0.0000000000000E+00 -0.9908461146462E-02
-0.5719781406398E-03  0.2696285939721E-02  0.0000000000000E+00 -0.1004079077106E-01
-0.4853312354201E-03  0.2496005890018E-02  0.0000000000000E+00 -0.1017769056448E-01
-0.3891698882178E-03  0.2283405937168E-02  0.0000000000000E+00 -0.1031847668972E-01
-0.2838483170279E-03  0.2057416495223E-02  0.0000000000000E+00 -0.1046198633646E-01
-0.1709205087332E-03  0.1817672252318E-02  0.0000000000000E+00 -0.1060621781363E-01
-0.5350154905259E-04  0.1564731029915E-02  0.0000000000000E+00 -0.1074788147226E-01
 0.6334419953324E-04  0.1300481654593E-02  0.0000000000000E+00 -0.1088166666148E-01
 0.1722684979208E-03  0.1028523412653E-02  0.0000000000000E+00 -0.1099928715127E-01
 0.2634475866259E-03  0.7543785958503E-03  0.0000000000000E+00 -0.1108843295272E-01
 0.3246079726442E-03  0.4855453544834E-03  0.0000000000000E+00 -0.1113163294734E-01
 0.3413712832105E-03  0.2312962947641E-03  0.0000000000000E+00 -0.1110518642541E-01
 0.2980102137393E-03  0.2117453981737E-05  0.0000000000000E+00 -0.1097845317847E-01
 0.1786753859627E-03 -0.1913341228591E-03  0.0000000000000E+00 -0.1071388019016E-01
-0.3090984442089E-04 -0.3397753980394E-03  0.0000000000000E+00 -0.1026772605860E-01
-0.3416714075883E-03 -0.4363048741650E-03  0.0000000000000E+00 -0.9590478881405E-02
-0.7596792252071E-03 -0.4769393626905E-03  0.0000000000000E+00 -0.8628765210699E-02
-0.1285116541238E-02 -0.4616068890394E-03  0.0000000000000E+00 -0.7330500704643E-02
-0.1912550317349E-02 -0.3941732598171E-03  0.0000000000000E+00 -0.5650452448456E-02
-0.6279944029310E-04  0.5330858022558E-02  0.0000000000000E+00 -0.4447389539178E-02
-0.2056463789220E-03  0.5407656114023E-02  0.0000000000000E+00 -0.5346826659279E-02
-0.3743305998513E-03  0.5486531563568E-02  0.0000000000000E+00 -0.6121238238218E-02
-0.5517918288337E-03  0.5555370992992E-02  0.0000000000000E+00 -0.6762772742706E-02
-0.7227561405248E-03  0.5603975541308E-02  0.0000000000000E+00 -0.7276112045565E-02
-0.8756804087766E-03  0.5625464993520E-02  0.0000000000000E+00 -0.7675100587608E-02
-0.1003470252018E-02  0.5616644690276E-02  0.0000000000000E+00 -0.7978534229245E-02
-0.1103138329953E-02  0.5577516933115E-02  0.0000000000000E+00 -0.8206437128492E-02
-0.1174851549915E-02  0.5510342576243E-02  0.0000000000000E+00 -0.8377517082081E-02
-0.1220814333777E-02  0.5418637663747E-02  0.0000000000000E+00 -0.8507860714636E-02
-0.1244284846649E-02  0.5306346380434E-02  0.0000000000000E+00 -0.8610571308817E-02
-0.1248852851469E-02  0.5177277919109E-02  0.0000000000000E+00 -0.8695962290655E-02
-0.1237985971771E-02  0.5034792843859E-02  0.0000000000000E+00 -0.8771981286798E-02
-0.1214788433287E-02  0.4881676286779E-02  0.0000000000000E+00 -0.8844654913672E-02
-0.1181897182897E-02  0.4720121587606E-02  0.0000000000000E+00 -0.8918453790192E-02
-0.1141449176921E-02  0.4551773141889E-02  0.0000000000000E+00 -0.8996551614323E-02
-0.1095154827395E-02  0.4378164216790E-02  0.0000000000000E+00 -0.9080904935137E-02
-0.1044347185044E-02  0.4201060639561E-02  0.0000000000000E+00 -0.9172217624954E-02
-0.9897700397192E-03  0.4021616729985E-02  0.0000000000000E+00 -0.9270294621459E-02
-0.9314270722767E-03  0.3839688466160E-02  0.0000000000000E+00 -0.9374588734914E-02
-0.8687020056461E-03  0.3654169119150E-02  0.0000000000000E+00 -0.9484383330865E-02
-0.8005355841814E-03  0.3463382862842E-02  0.0000000000000E+00 -0.9598912572165E-02
-0.7256237145440E-03  0.3265353775488E-02  0.0000000000000E+00 -0.9717472076735E-02
-0.6426478743313E-03  0.3058008108060E-02  0.0000000000000E+00 -0.9839477550343E-02
-0.5505431583713E-03  0.2839363057727E-02  0.0000000000000E+00 -0.9964436547316E-02
-0.4488083144044E-03  0.2607741037054E-02  0.0000000000000E+00 -0.1009180705471E-01
-0.3378552276481E-03  0.2362017131809E-02  0.0000000000000E+00 -0.1022073491560E-01
-0.2193753766329E-03  0.2101807405357E-02  0.0000000000000E+00 -0.1034973948245E-01
-0.9673131913024E-04  0.1827700884229E-02  0.0000000000000E+00 -0.1047631367922E-01
 0.2461271164211E-04  0.1541706167887E-02  0.0000000000000E+00 -0.1059620642683E-01
 0.1367068951537E-03  0.1247678338374E-02  0.0000000000000E+00 -0.1070244838635E-01
 0.2288759641280E-03  0.9515759351057E-03  0.0000000000000E+00 -0.1078424151682E-01
 0.2877074894663E-03  0.6615548293795E-03  0.0000000000000E+00 -0.1082568479279E-01
 0.2973895935332E-03  0.3877880447765E-03  0.0000000000000E+00 -0.1080448168908E-01
 0.2405164735251E-03  0.1418805311917E-03  0.0000000000000E+00 -0.1069093375738E-01
 0.9944540707596E-04 -0.6427585624089E-04  0.0000000000000E+00 -0.1044766656527E-01
-0.1417927216969E-03 -0.2202474812606E-03  0.0000000000000E+00 -0.1003016047281E-01
-0.4953910375742E-03 -0.3182792844830E-03  0.0000000000000E+00 -0.9386949888754E-02
-0.9678197185712E-03 -0.3540823061792E-03  0.0000000000000E+00 -0.8461477611980E-02
-0.1558411105465E-02 -0.3281501286712E-03  0.0000000000000E+00 -0.7197979967099E-02
-0.2259586902302E-02 -0.2458763764124E-03  0.0000000000000E+00 -0.5548437541356E-02
-0.7179171608288E-04  0.5904041631397E-02  0.0000000000000E+00 -0.4491291678785E-02
-0.2342419021484E-03  0.5991665615380E-02  0.0000000000000E+00 -0.5390337716444E-02
-0.4244875088041E-03  0.6080948348368E-02  0.0000000000000E+00 -0.6155591951516E-02
-0.6230448522873E-03  0.6158100160668E-02  0.0000000000000E+00 -0.6780120305585E-02
-0.8127143609348E-03  0.6211718648682E-02  0.0000000000000E+00 -0.7270898471766E-02
-0.9808143055510E-03  0.6234383612085E-02  0.0000000000000E+00 -0.7644629706457E-02
-0.1119886530312E-02  0.6222966681785E-02  0.0000000000000E+00 -0.7922747778730E-02
-0.1227148077483E-02  0.6177937255931E-02  0.0000000000000E+00 -0.8127213097726E-02
-0.1303279680273E-02  0.6102194127597E-02  0.0000000000000E+00 -0.8277836709828E-02
-0.1351095648078E-02  0.5999887033743E-02  0.0000000000000E+00 -0.8391087910310E-02
-0.1374427343777E-02  0.5875492722475E-02  0.0000000000000E+00 -0.8479949811828E-02
-0.1377342035017E-02  0.5733220434007E-02  0.0000000000000E+00 -0.8554332926315E-02
-0.1363680322434E-02  0.5576707838822E-02  0.0000000000000E+00 -0.8621669908288E-02
-0.1336832304925E-02  0.5408922591249E-02  0.0000000000000E+00 -0.8687467737057E-02
-0.1299659259242E-02  0.5232177455025E-02  0.0000000000000E+00 -0.8755723168385E-02
-0.1254483134318E-02  0.5048199692206E-02  0.0000000000000E+00 -0.8829190007285E-02
-0.1203179912525E-02  0.4858617094762E-02  0.0000000000000E+00 -0.8909418891693E-02
-0.1147236328197E-02  0.4665333628901E-02  0.0000000000000E+00 -0.8996673834379E-02
-0.1087515766909E-02  0.4469614340772E-02  0.0000000000000E+00 -0.9090317793596E-02
-0.1024087127419E-02  0.4271336707004E-02  0.0000000000000E+00 -0.9189408859740E-02
-0.9563484441890E-03  0.4069347990583E-02  0.0000000000000E+00 -0.9292888306010E-02
-0.8832145275998E-03  0.3861887235154E-02  0.0000000000000E+00 -0.9399707515240E-02
-0.8033294354721E-03  0.3646873804126E-02  0.0000000000000E+00 -0.9508954209059E-02
-0.7153137709220E-03  0.3422123040965E-02  0.0000000000000E+00 -0.9619930626184E-02
-0.6180506986624E-03  0.3185544834010E-02  0.0000000000000E+00 -0.9732146600991E-02
-0.5110147546393E-03  0.2935366821576E-02  0.0000000000000E+00 -0.9845203482037E-02
-0.3946419139511E-03  0.2670391651218E-02  0.0000000000000E+00 -0.9958563278562E-02
-0.2707185959110E-03  0.2390189597002E-02  0.0000000000000E+00 -0.1007128499623E-01
-0.1428032848063E-03  0.2095341825841E-02  0.0000000000000E+00 -0.1018168209035E-01
-0.1670272034882E-04  0.1787926553439E-02  0.0000000000000E+00 -0.1028662936434E-01
 0.9908741754727E-04  0.1471997927436E-02  0.0000000000000E+00 -0.1038057830112E-01
 0.1930818740257E-03  0.1153896590489E-02  0.0000000000000E+00 -0.1045439150103E-01
 0.2507387163835E-03  0.8423992151966E-03  0.0000000000000E+00 -0.1049393001613E-01
 0.2547687253276E-03  0.5485785454636E-03  0.0000000000000E+00 -0.1047851884578E-01
 0.1859715710579E-03  0.2852128578668E-03  0.0000000000000E+00 -0.1037960208344E-01
 0.2471550244798E-04  0.6554816883832E-04  0.0000000000000E+00 -0.1016010171778E-01
-0.2469233201037E-03 -0.9865695894894E-04  0.0000000000000E+00 -0.9774676502744E-02
-0.6426842032436E-03 -0.1985979385960E-03  0.0000000000000E+00 -0.9169609619960E-02
-0.1169631194893E-02 -0.2295268335589E-03  0.0000000000000E+00 -0.8284539517276E-02
-0.1826213379163E-02 -0.1924997433888E-03  0.0000000000000E+00 -0.7059152792135E-02
-0.2602329961226E-02 -0.9469592591611E-04  0.0000000000000E+00 -0.5441865059004E-02
-0.8150099435272E-04  0.6482316032567E-02  0.0000000000000E+00 -0.4541466246214E-02
-0.2650488002101E-03  0.6581576531300E-02  0.0000000000000E+00 -0.5439768805263E-02
-0.4782939050302E-03  0.6681895169573E-02  0.0000000000000E+00 -0.6194262665150E-02
-0.6990243269545E-03  0.6767610317990E-02  0.0000000000000E+00 -0.6799197314107E-02
-0.9079473146265E-03  0.6826040843619E-02  0.0000000000000E+00 -0.7264338704287E-02
-0.1091241960993E-02  0.6849283891371E-02  0.0000000000000E+00 -0.7609758124232E-02
-0.1241206410934E-02  0.6834419117112E-02  0.0000000000000E+00 -0.7859889199782E-02
-0.1355429180749E-02  0.6782543913642E-02  0.0000000000000E+00 -0.8038793795072E-02
-0.1435259448314E-02  0.6697327249367E-02  0.0000000000000E+00 -0.8167389829568E-02
-0.1484233542753E-02  0.6583636368270E-02  0.0000000000000E+00 -0.8262438901737E-02
-0.1506820678823E-02  0.6446517855486E-02  0.0000000000000E+00 -0.8336680874686E-02
-0.1507591652705E-02  0.6290583998687E-02  0.0000000000000E+00 -0.8399507190071E-02
-0.1490760703548E-02  0.6119732396156E-02  0.0000000000000E+00 -0.8457744994452E-02
-0.1459991536978E-02  0.5937087629872E-02  0.0000000000000E+00 -0.8516320997576E-02
-0.1418354093541E-02  0.5745056191854E-02  0.0000000000000E+00 -0.8578723391244E-02
-0.1368342317654E-02  0.5545427421436E-02  0.0000000000000E+00 -0.8647269186600E-02
-0.1311990141485E-02  0.5339909997628E-02  0.0000000000000E+00 -0.8723092724029E-02
-0.1250935359604E-02  0.5130539453865E-02  0.0000000000000E+00 -0.8806004381448E-02
-0.1186160510140E-02  0.4918689848746E-02  0.0000000000000E+00 -0.8894907179753E-02
-0.1117798169303E-02  0.4704260517720E-02  0.0000000000000E+00 -0.8988445684263E-02
-0.1045255946186E-02  0.4486053392638E-02  0.0000000000000E+00 -0.9085201119117E-02
-0.9674140502733E-03  0.4262222700276E-02  0.0000000000000E+00 -0.9183826862144E-02
-0.8828522353274E-03  0.4030582875993E-02  0.0000000000000E+00 -0.9283191419714E-02
-0.7901141115395E-03  0.3788837170751E-02  0.0000000000000E+00 -0.9382475879731E-02
-0.6880104975475E-03  0.3534784674101E-02  0.0000000000000E+00 -0.9481187145743E-02
-0.5759653864310E-03  0.3266550071637E-02  0.0000000000000E+00 -0.9579066569820E-02
-0.4544043983395E-03  0.2982847624354E-02  0.0000000000000E+00 -0.9675892233661E-02
-0.3251642154896E-03  0.2683174714478E-02  0.0000000000000E+00 -0.9771271318231E-02
-0.1919436288360E-03  0.2368063763567E-02  0.0000000000000E+00 -0.9864364215725E-02
-0.6082796634321E-04  0.2039607976559E-02  0.0000000000000E+00 -0.9953227056494E-02
 0.5920609758125E-04  0.1701996168909E-02  0.0000000000000E+00 -0.1003382937669E-01
 0.1559158084614E-03  0.1361886141716E-02  0.0000000000000E+00 -0.1009884535816E-01
 0.2136496499066E-03  0.1028625869886E-02  0.0000000000000E+00 -0.1013610679433E-01
 0.2136027803452E-03  0.7141761160936E-03  0.0000000000000E+00 -0.1012681289991E-01
 0.1346583351327E-03  0.4325390344382E-03  0.0000000000000E+00 -0.1004380452378E-01
-0.4502466892409E-04  0.1984439860592E-03  0.0000000000000E+00 -0.9850478955574E-02
-0.3456332385421E-03  0.2517542290174E-04  0.0000000000000E+00 -0.9500676682526E-02
-0.7827951811226E-03 -0.7717647111791E-04  0.0000000000000E+00 -0.8938138512427E-02
-0.1364429551557E-02 -0.1032023518168E-03  0.0000000000000E+00 -0.8098015653865E-02
-0.2088108053264E-02 -0.5447511298812E-04  0.0000000000000E+00 -0.6914396938656E-02
-0.2940742589316E-02  0.5973802030702E-04  0.0000000000000E+00 -0.5331071705957E-02
-0.9203212884111E-04  0.7066246585443E-02  0.0000000000000E+00 -0.4598423661140E-02
-0.2983875670785E-03  0.7178065068397E-02  0.0000000000000E+00 -0.5495530456102E-02
-0.5362599905689E-03  0.7290114975086E-02  0.0000000000000E+00 -0.6237394550934E-02
-0.7803458143755E-03  0.7384632443965E-02  0.0000000000000E+00 -0.6819793152674E-02
-0.1009074205547E-02  0.7447582184161E-02  0.0000000000000E+00 -0.7255891190276E-02
-0.1207506327045E-02  0.7470664965383E-02  0.0000000000000E+00 -0.7569721964796E-02
-0.1367856383492E-02  0.7451348600089E-02  0.0000000000000E+00 -0.7789109781142E-02
-0.1488287910466E-02  0.7391549804783E-02  0.0000000000000E+00 -0.7940364628978E-02
-0.1570995960270E-02  0.7295855459833E-02  0.0000000000000E+00 -0.8045473654160E-02
-0.1620359784761E-02  0.7169936507958E-02  0.0000000000000E+00 -0.8121358085681E-02
-0.1641550262722E-02  0.7019441237515E-02  0.0000000000000E+00 -0.8180359461265E-02
-0.1639662187970E-02  0.6849379689681E-02  0.0000000000000E+00 -0.8231214784744E-02
-0.1619277295315E-02  0.6663884034812E-02  0.0000000000000E+00 -0.8280046666132E-02
-0.1584314484219E-02  0.6466203455005E-02  0.0000000000000E+00 -0.8331139927021E-02
-0.1538032099075E-02  0.6258807575455E-02  0.0000000000000E+00 -0.8387443157878E-02
-0.1483080375618E-02  0.6043523957554E-02  0.0000000000000E+00 -0.8450825660239E-02
-0.1421642673763E-02  0.5822127103993E-02  0.0000000000000E+00 -0.8522001450690E-02
-0.1355505629903E-02  0.5596777367269E-02  0.0000000000000E+00 -0.8600318762790E-02
-0.1285771400597E-02  0.5368956582924E-02  0.0000000000000E+00 -0.8684206147912E-02
-0.1212635374326E-02  0.5138586890136E-02  0.0000000000000E+00 -0.8771877600631E-02
-0.1135510122785E-02  0.4904426062573E-02  0.0000000000000E+00 -0.8861537214274E-02
-0.1053232308762E-02  0.4664544395038E-02  0.0000000000000E+00 -0.8951525779703E-02
-0.9643046275541E-03  0.4416652140487E-02  0.0000000000000E+00 -0.9040481702069E-02
-0.8671775732468E-03  0.4158340831441E-02  0.0000000000000E+00 -0.9127456820295E-02
-0.7605695264405E-03  0.3887297387890E-02  0.0000000000000E+00 -0.9211947656563E-02
-0.6438279529750E-03  0.3601537717581E-02  0.0000000000000E+00 -0.9293827235941E-02
-0.5173334517584E-03  0.3299673766641E-02  0.0000000000000E+00 -0.9373181416352E-02
-0.3829267159432E-03  0.2981103845668E-02  0.0000000000000E+00 -0.9450162743706E-02
-0.2443874270643E-03  0.2646269646118E-02  0.0000000000000E+00 -0.9524791397184E-02
-0.1080087781715E-03  0.2297220614562E-02  0.0000000000000E+00 -0.9596346621674E-02
 0.1682667499758E-04  0.1938207795751E-02  0.0000000000000E+00 -0.9662403161840E-02
 0.1171844359269E-03  0.1576128880488E-02  0.0000000000000E+00 -0.9717596666033E-02
 0.1763374483172E-03  0.1220838028854E-02  0.0000000000000E+00 -0.9751953255244E-02
 0.1739370428864E-03  0.8851569074866E-03  0.0000000000000E+00 -0.9748836371474E-02
 0.8682579495289E-04  0.5843533911431E-03  0.0000000000000E+00 -0.9682799315499E-02
-0.1092909715992E-03  0.3347763888456E-03  0.0000000000000E+00 -0.9517969779689E-02
-0.4372241947457E-03  0.1514665072615E-03  0.0000000000000E+00 -0.9207435416821E-02
-0.9149055659758E-03  0.4607988288070E-04  0.0000000000000E+00 -0.8692117187392E-02
-0.1551453178628E-02  0.2494224755566E-04  0.0000000000000E+00 -0.7901947516802E-02
-0.2343642996463E-02  0.8608373353811E-04  0.0000000000000E+00 -0.6764189140068E-02
-0.3274856944663E-02  0.2178304041908E-03  0.0000000000000E+00 -0.5216514839177E-02
-0.1035054196414E-03  0.7656452245584E-02  0.0000000000000E+00 -0.4662745698456E-02
-0.3346249062243E-03  0.7781874812095E-02  0.0000000000000E+00 -0.5558080073229E-02
-0.5989635468736E-03  0.7906419953402E-02  0.0000000000000E+00 -0.6285120494761E-02
-0.8676926503845E-03  0.8009950791118E-02  0.0000000000000E+00 -0.6841619122168E-02
-0.1116762540993E-02  0.8077006923187E-02  0.0000000000000E+00 -0.7244889327583E-02
-0.1330170131432E-02  0.8099018719150E-02  0.0000000000000E+00 -0.7523618560305E-02
-0.1500256255989E-02  0.8074070015714E-02  0.0000000000000E+00 -0.7709437326332E-02
-0.1626005792026E-02  0.8005122617102E-02  0.0000000000000E+00 -0.7831018775935E-02
-0.1710660992966E-02  0.7897843714547E-02  0.0000000000000E+00 -0.7911327591706E-02
-0.1759571689391E-02  0.7758793324010E-02  0.0000000000000E+00 -0.7967261710613E-02
-0.1778670509936E-02  0.7594244530514E-02  0.0000000000000E+00 -0.8010574259208E-02
-0.1773588684869E-02  0.7409589055087E-02  0.0000000000000E+00 -0.8049193320020E-02
-0.1749260793718E-02  0.7209158626734E-02  0.0000000000000E+00 -0.8088430841842E-02
-0.1709835334954E-02  0.6996287208704E-02  0.0000000000000E+00 -0.8131868803897E-02
-0.1658733646663E-02  0.6773471723730E-02  0.0000000000000E+00 -0.8181890358327E-02
-0.1598743654329E-02  0.6542550935815E-02  0.0000000000000E+00 -0.8239913521293E-02
-0.1532188833681E-02  0.6305348754622E-02  0.0000000000000E+00 -0.8306235424177E-02
-0.1461003157513E-02  0.6064143607957E-02  0.0000000000000E+00 -0.8379739639473E-02
-0.1386410112251E-02  0.5820524545500E-02  0.0000000000000E+00 -0.8458369448890E-02
-0.1308667927573E-02  0.5574438167116E-02  0.0000000000000E+00 -0.8539893051966E-02
-0.1227189724709E-02  0.5324599824356E-02  0.0000000000000E+00 -0.8622121313110E-02
-0.1140759422007E-02  0.5068997434894E-02  0.0000000000000E+00 -0.8703068844236E-02
-0.1047789724339E-02  0.4805239014540E-02  0.0000000000000E+00 -0.8781134068272E-02
-0.9466221986602E-03  0.4530806762845E-02  0.0000000000000E+00 -0.8855231682949E-02
-0.8358635534284E-03  0.4243276851900E-02  0.0000000000000E+00 -0.8924838574044E-02
-0.7147597912290E-03  0.3940553798836E-02  0.0000000000000E+00 -0.8989946173225E-02
-0.5836123735845E-03  0.3621136310747E-02  0.0000000000000E+00 -0.9050931080282E-02
-0.4442188871614E-03  0.3284299398802E-02  0.0000000000000E+00 -0.9108475798441E-02
-0.3003771536254E-03  0.2930351887286E-02  0.0000000000000E+00 -0.9163457424980E-02
-0.1585106462467E-03  0.2561237222348E-02  0.0000000000000E+00 -0.9216403255619E-02
-0.2832146493170E-04  0.2181188105850E-02  0.0000000000000E+00 -0.9266566151788E-02
 0.7664553378728E-04  0.1797251143310E-02  0.0000000000000E+00 -0.9310687528264E-02
 0.1386400744166E-03  0.1419702717787E-02  0.0000000000000E+00 -0.9341222902363E-02
 0.1357570788616E-03  0.1062177533752E-02  0.0000000000000E+00 -0.9344028115514E-02
 0.4267814896308E-04  0.7412362622388E-03  0.0000000000000E+00 -0.9295753675997E-02
-0.1676116911600E-03  0.4749851473557E-03  0.0000000000000E+00 -0.9161607506749E-02
-0.5209687537144E-03  0.2804840671349E-03  0.0000000000000E+00 -0.8894075639765E-02
-0.1038129188483E-02  0.1712894621723E-03  0.0000000000000E+00 -0.8430994180368E-02
-0.1729841453283E-02  0.1549376921174E-03  0.0000000000000E+00 -0.7696306739135E-02
-0.2592297646457E-02  0.2292836120391E-03  0.0000000000000E+00 -0.6609114108764E-02
-0.3604804803167E-02  0.3800243055848E-03  0.0000000000000E+00 -0.5098845925537E-02
-0.1160601412942E-03  0.8253616324039E-02  0.0000000000000E+00 -0.4735095332523E-02
-0.3741839259627E-03  0.8393830059178E-02  0.0000000000000E+00 -0.5627924872551E-02
-0.6670633803490E-03  0.8531703660585E-02  0.0000000000000E+00 -0.6337550620608E-02
-0.9618266161715E-03  0.8644409150892E-02  0.0000000000000E+00 -0.6864283918085E-02
-0.1231732067673E-02  0.8715001937384E-02  0.0000000000000E+00 -0.7230512696330E-02
-0.1459813079473E-02  0.8734821986230E-02  0.0000000000000E+00 -0.7470382762666E-02
-0.1638812258201E-02  0.8702855948909E-02  0.0000000000000E+00 -0.7619762381297E-02
-0.1768831637027E-02  0.8623374609078E-02  0.0000000000000E+00 -0.7709753194386E-02
-0.1854385996657E-02  0.8503300302104E-02  0.0000000000000E+00 -0.7764136158859E-02
-0.1901926925548E-02  0.8350162146190E-02  0.0000000000000E+00 -0.7799544377121E-02
-0.1918201454422E-02  0.8170868210116E-02  0.0000000000000E+00 -0.7826915282680E-02
-0.1909378830722E-02  0.7971162324775E-02  0.0000000000000E+00 -0.7853195588392E-02
-0.1880721564001E-02  0.7755529695829E-02  0.0000000000000E+00 -0.7882775528622E-02
-0.1836573998937E-02  0.7527341152083E-02  0.0000000000000E+00 -0.7918476009478E-02
-0.1780489414345E-02  0.7289079617396E-02  0.0000000000000E+00 -0.7962095821980E-02
-0.1715371784887E-02  0.7042564841867E-02  0.0000000000000E+00 -0.8014606908693E-02
-0.1643674767588E-02  0.6789652478221E-02  0.0000000000000E+00 -0.8075901595216E-02
-0.1567479256182E-02  0.6532732494093E-02  0.0000000000000E+00 -0.8144403026610E-02
-0.1488133413940E-02  0.6273501464295E-02  0.0000000000000E+00 -0.8217562423424E-02
-0.1405959459689E-02  0.6011932924936E-02  0.0000000000000E+00 -0.8292688802822E-02
-0.1320366885568E-02  0.5746702133093E-02  0.0000000000000E+00 -0.8367184805027E-02
-0.1230077394193E-02  0.5475716923515E-02  0.0000000000000E+00 -0.8438726710291E-02
-0.1133400691113E-02  0.5196486463882E-02  0.0000000000000E+00 -0.8505464825629E-02
-0.1028554258150E-02  0.4906388510565E-02  0.0000000000000E+00 -0.8566169830422E-02
-0.9140153566219E-03  0.4602893445876E-02  0.0000000000000E+00 -0.8620288518859E-02
-0.7889054430535E-03  0.4283795951158E-02  0.0000000000000E+00 -0.8667912697420E-02
-0.6534141833631E-03  0.3947474686872E-02  0.0000000000000E+00 -0.8709683490849E-02
-0.5092489577796E-03  0.3593060298000E-02  0.0000000000000E+00 -0.8746784116653E-02
-0.3601603276806E-03  0.3220687656059E-02  0.0000000000000E+00 -0.8780927739738E-02
-0.2126178000792E-03  0.2832129443486E-02  0.0000000000000E+00 -0.8813894237690E-02
-0.7654473261831E-04  0.2431511617487E-02  0.0000000000000E+00 -0.8846668291160E-02
 0.3400300889966E-04  0.2025923951607E-02  0.0000000000000E+00 -0.8878229768024E-02
 0.1003269613391E-03  0.1625958913610E-02  0.0000000000000E+00 -0.8903704854956E-02
 0.9897587829166E-04  0.1245989593852E-02  0.0000000000000E+00 -0.8911806115754E-02
 0.2360168887661E-05  0.9038731947555E-03  0.0000000000000E+00 -0.8881744493442E-02
-0.2195373359695E-03  0.6196073343933E-03  0.0000000000000E+00 -0.8780266599667E-02
-0.5961109748749E-03  0.4125595688275E-03  0.0000000000000E+00 -0.8559543236701E-02
-0.1151513411435E-02  0.2986163927455E-03  0.0000000000000E+00 -0.8154060889405E-02
-0.1898620354555E-02  0.2868149959854E-03  0.0000000000000E+00 -0.7480910912258E-02
-0.2833409796690E-02  0.3751152978886E-03  0.0000000000000E+00 -0.6449818686335E-02
-0.3930889753065E-02  0.5467856967560E-03  0.0000000000000E+00 -0.4979097424078E-02
-0.1298590361936E-03  0.8858499857716E-02  0.0000000000000E+00 -0.4816228664134E-02
-0.4175569723818E-03  0.9014852253113E-02  0.0000000000000E+00 -0.5705624567445E-02
-0.7413157153460E-03  0.9166955379847E-02  0.0000000000000E+00 -0.6394756322260E-02
-0.1063600009204E-02  0.9288917195571E-02  0.0000000000000E+00 -0.6887261947336E-02
-0.1354757947425E-02  0.9362273107950E-02  0.0000000000000E+00 -0.7211751901274E-02
-0.1597026913967E-02  0.9378525733069E-02  0.0000000000000E+00 -0.7408759970675E-02
-0.1783907816834E-02  0.9337923391722E-02  0.0000000000000E+00 -0.7518824404304E-02
-0.1916971849167E-02  0.9246350647811E-02  0.0000000000000E+00 -0.7575466546510E-02
-0.2002254173901E-02  0.9112167987659E-02  0.0000000000000E+00 -0.7603034363103E-02
-0.2047438028330E-02  0.8943942119108E-02  0.0000000000000E+00 -0.7617587692796E-02
-0.2060125435916E-02  0.8749208436511E-02  0.0000000000000E+00 -0.7628983022567E-02
-0.2047011262466E-02  0.8534016975120E-02  0.0000000000000E+00 -0.7642997844239E-02
-0.2013649059055E-02  0.8302948053408E-02  0.0000000000000E+00 -0.7662987752465E-02
-0.1964536261692E-02  0.8059352991053E-02  0.0000000000000E+00 -0.7690959515759E-02
-0.1903320997332E-02  0.7805653896994E-02  0.0000000000000E+00 -0.7728117374836E-02
-0.1832998522223E-02  0.7543618131526E-02  0.0000000000000E+00 -0.7775002682695E-02
-0.1756142340083E-02  0.7275114309995E-02  0.0000000000000E+00 -0.7831124902889E-02
-0.1674981391074E-02  0.7002637829151E-02  0.0000000000000E+00 -0.7894458514347E-02
-0.1590993944876E-02  0.6727994170671E-02  0.0000000000000E+00 -0.7961960125068E-02
-0.1504568699783E-02  0.6451187172391E-02  0.0000000000000E+00 -0.8030467975498E-02
-0.1415107554672E-02  0.6170854891706E-02  0.0000000000000E+00 -0.8096962725449E-02
-0.1321260166846E-02  0.5884828147902E-02  0.0000000000000E+00 -0.8158772189096E-02
-0.1221220231547E-02  0.5590522343918E-02  0.0000000000000E+00 -0.8213793116737E-02
-0.1113067009164E-02  0.5285218727631E-02  0.0000000000000E+00 -0.8260647329098E-02
-0.9951326731344E-03  0.4966291204777E-02  0.0000000000000E+00 -0.8298740662002E-02
-0.8663938181619E-03  0.4631431393127E-02  0.0000000000000E+00 -0.8328242821314E-02
-0.7268981646399E-03  0.4278896452677E-02  0.0000000000000E+00 -0.8350023737128E-02
-0.5782168761053E-03  0.3907656149555E-02  0.0000000000000E+00 -0.8365723111132E-02
-0.4239861425293E-03  0.3517632856720E-02  0.0000000000000E+00 -0.8377849066155E-02
-0.2706311369611E-03  0.3110362600435E-02  0.0000000000000E+00 -0.8389414375985E-02
-0.1281858547784E-03  0.2689769205585E-02  0.0000000000000E+00 -0.8403164287559E-02
-0.1109782200892E-04  0.2262864549633E-02  0.0000000000000E+00 -0.8420430667826E-02
 0.6108910001879E-04  0.1840425723142E-02  0.0000000000000E+00 -0.8439249650427E-02
 0.6341786683084E-04  0.1437455852092E-02  0.0000000000000E+00 -0.8451587375570E-02
-0.3405904055898E-04  0.1073078894693E-02  0.0000000000000E+00 -0.8439758986112E-02
-0.2646610835431E-03  0.7693021906144E-03  0.0000000000000E+00 -0.8372654178364E-02
-0.6618556438884E-03  0.5481198778404E-03  0.0000000000000E+00 -0.8202534809687E-02
-0.1254052309041E-02  0.4282434356073E-03  0.0000000000000E+00 -0.7860513544438E-02
-0.2056720663201E-02  0.4207687614363E-03  0.0000000000000E+00 -0.7255252986626E-02
-0.3066039700371E-02  0.5232528812092E-03  0.0000000000000E+00 -0.6286834989982E-02
-0.4253642426314E-02  0.7186346609094E-03  0.0000000000000E+00 -0.4859023227594E-02
-0.1450941009473E-03  0.9471958401835E-02  0.0000000000000E+00 -0.4907009442389E-02
-0.4653219289135E-03  0.9645980417928E-02  0.0000000000000E+00 -0.5791793395152E-02
-0.8225942648668E-03  0.9813277138299E-02  0.0000000000000E+00 -0.6456747996496E-02
-0.1173969137248E-02  0.9944456495713E-02  0.0000000000000E+00 -0.6909852281138E-02
-0.1486672539429E-02  0.1001953870033E-01  0.0000000000000E+00 -0.7187365744906E-02
-0.1742407537815E-02  0.1003054030097E-01  0.0000000000000E+00 -0.7337275917324E-02
-0.1935891456106E-02  0.9979417208098E-02  0.0000000000000E+00 -0.7405198755713E-02
-0.2070578812321E-02  0.9874014396872E-02  0.0000000000000E+00 -0.7426960043265E-02
-0.2154291689749E-02  0.9724314551067E-02  0.0000000000000E+00 -0.7427116288784E-02
-0.2196066770296E-02  0.9539970705268E-02  0.0000000000000E+00 -0.7420771451026E-02
-0.2204384001450E-02  0.9329114369129E-02  0.0000000000000E+00 -0.7416399245441E-02
-0.2186434194704E-02  0.9098036760510E-02  0.0000000000000E+00 -0.7418409053605E-02
-0.2148011554215E-02  0.8851341819751E-02  0.0000000000000E+00 -0.7429011063978E-02
-0.2093714227970E-02  0.8592296510038E-02  0.0000000000000E+00 -0.7449352762674E-02
-0.2027241790429E-02  0.8323209933638E-02  0.0000000000000E+00 -0.7480044198085E-02
-0.1951652847809E-02  0.8045760631802E-02  0.0000000000000E+00 -0.7521223333532E-02
-0.1869630286510E-02  0.7761810422301E-02  0.0000000000000E+00 -0.7572049819773E-02
-0.1783554287496E-02  0.7473954656700E-02  0.0000000000000E+00 -0.7630069545869E-02
-0.1695041246078E-02  0.7184110352651E-02  0.0000000000000E+00 -0.7691746366245E-02
-0.1604550383557E-02  0.6892315922023E-02  0.0000000000000E+00 -0.7753437827373E-02
-0.1511472159168E-02  0.6597175590576E-02  0.0000000000000E+00 -0.7811690258394E-02
-0.1414373833043E-02  0.6296446996821E-02  0.0000000000000E+00 -0.7863475638358E-02
-0.1311320123886E-02  0.5987458822281E-02  0.0000000000000E+00 -0.7906435600316E-02
-0.1200239359567E-02  0.5667407385446E-02  0.0000000000000E+00 -0.7939041558413E-02
-0.1079305875457E-02  0.5333584680789E-02  0.0000000000000E+00 -0.7960648091894E-02
-0.9473348813577E-03  0.4983592389682E-02  0.0000000000000E+00 -0.7971476371656E-02
-0.8042057046661E-03  0.4615571421799E-02  0.0000000000000E+00 -0.7972579749745E-02
-0.6513096394658E-03  0.4228320277064E-02  0.0000000000000E+00 -0.7965994200520E-02
-0.4921009098933E-03  0.3821514614853E-02  0.0000000000000E+00 -0.7954959260803E-02
-0.3328648063345E-03  0.3396388663782E-02  0.0000000000000E+00 -0.7943672762630E-02
-0.1836231765902E-03  0.2956563283717E-02  0.0000000000000E+00 -0.7936637926204E-02
-0.5907413728012E-04  0.2508836319365E-02  0.0000000000000E+00 -0.7937623724966E-02
 0.2052810322084E-04  0.2064010075708E-02  0.0000000000000E+00 -0.7947802676303E-02
 0.2880202555766E-04  0.1637568194273E-02  0.0000000000000E+00 -0.7962814180692E-02
-0.6661325346702E-04  0.1249825469167E-02  0.0000000000000E+00 -0.7968708360973E-02
-0.3026234338739E-03  0.9248857372109E-03  0.0000000000000E+00 -0.7937273616300E-02
-0.7174318719099E-03  0.6877120129540E-03  0.0000000000000E+00 -0.7821525214185E-02
-0.1344492321994E-02  0.5604267128461E-03  0.0000000000000E+00 -0.7549110639312E-02
-0.2203445107210E-02  0.5569254533540E-03  0.0000000000000E+00 -0.7019561276197E-02
-0.3288204090991E-02  0.6743010340234E-03  0.0000000000000E+00 -0.6117808091541E-02
-0.4574929572472E-02  0.8932752656960E-03  0.0000000000000E+00 -0.4744659508509E-02
-0.1619941256727E-03  0.1009496335807E-01  0.0000000000000E+00 -0.5008426844495E-02
-0.5181631129319E-03  0.1028839678485E-01  0.0000000000000E+00 -0.5887100806716E-02
-0.9119148881059E-03  0.1047190384786E-01  0.0000000000000E+00 -0.6523443894366E-02
-0.1294009118157E-02  0.1061208552385E-01  0.0000000000000E+00 -0.6931125342818E-02
-0.1628364838825E-02  0.1068751839574E-01  0.0000000000000E+00 -0.7155829313612E-02
-0.1896543157527E-02  0.1069121552888E-01  0.0000000000000E+00 -0.7254203603531E-02
-0.2095061204585E-02  0.1062738979168E-01  0.0000000000000E+00 -0.7277285838141E-02
-0.2229737222424E-02  0.1050623264295E-01  0.0000000000000E+00 -0.7262942529922E-02
-0.2310458160272E-02  0.1033952298418E-01  0.0000000000000E+00 -0.7235447725079E-02
-0.2347718616190E-02  0.1013801863706E-01  0.0000000000000E+00 -0.7208487679583E-02
-0.2350875206712E-02  0.9910386148782E-02  0.0000000000000E+00 -0.7188819472925E-02
-0.2327564479542E-02  0.9663071333311E-02  0.0000000000000E+00 -0.7179281014410E-02
-0.2283756245848E-02  0.9400616872626E-02  0.0000000000000E+00 -0.7180833508726E-02
-0.2224087066739E-02  0.9126132508975E-02  0.0000000000000E+00 -0.7193730861638E-02
-0.2152258145522E-02  0.8841757156874E-02  0.0000000000000E+00 -0.7218001481814E-02
-0.2071360343209E-02  0.8549041217949E-02  0.0000000000000E+00 -0.7253420155922E-02
-0.1984175637910E-02  0.8249819084649E-02  0.0000000000000E+00 -0.7298842100208E-02
-0.1893241319594E-02  0.7946781405455E-02  0.0000000000000E+00 -0.7351413795185E-02
-0.1800323087146E-02  0.7641960743256E-02  0.0000000000000E+00 -0.7407112704603E-02
-0.1705956464590E-02  0.7335435200048E-02  0.0000000000000E+00 -0.7461807243320E-02
-0.1609516543002E-02  0.7025778828874E-02  0.0000000000000E+00 -0.7511598689010E-02
-0.1509477051367E-02  0.6710680643540E-02  0.0000000000000E+00 -0.7553099550438E-02
-0.1403760831570E-02  0.6387391904890E-02  0.0000000000000E+00 -0.7583700137152E-02
-0.1290134443453E-02  0.6053039901602E-02  0.0000000000000E+00 -0.7601724704725E-02
-0.1166605370071E-02  0.5704855512931E-02  0.0000000000000E+00 -0.7606468012418E-02
-0.1031815842066E-02  0.5340371177726E-02  0.0000000000000E+00 -0.7598172952761E-02
-0.8854553795193E-03  0.4957624949777E-02  0.0000000000000E+00 -0.7578021284559E-02
-0.7286955738568E-03  0.4555241531259E-02  0.0000000000000E+00 -0.7548368308947E-02
-0.5647421348838E-03  0.4132622081341E-02  0.0000000000000E+00 -0.7513097069661E-02
-0.3996411741776E-03  0.3690637069509E-02  0.0000000000000E+00 -0.7477510621975E-02
-0.2432682423015E-03  0.3232500512492E-02  0.0000000000000E+00 -0.7447829371505E-02
-0.1104084871353E-03  0.2764646393348E-02  0.0000000000000E+00 -0.7430305228136E-02
-0.2185417789802E-04  0.2297713204445E-02  0.0000000000000E+00 -0.7429445918240E-02
-0.5280480073644E-05  0.1847467108049E-02  0.0000000000000E+00 -0.7444992945826E-02
-0.9546083745349E-04  0.1435275525953E-02  0.0000000000000E+00 -0.7467442300314E-02
-0.3331689067487E-03  0.1087376092575E-02  0.0000000000000E+00 -0.7472426619081E-02
-0.7619922107533E-03  0.8320361685192E-03  0.0000000000000E+00 -0.7414624887871E-02
-0.1421770681780E-02  0.6955404165225E-03  0.0000000000000E+00 -0.7218498983146E-02
-0.2336675226160E-02  0.6953092844786E-03  0.0000000000000E+00 -0.6773007542189E-02
-0.3503188347705E-02  0.8293879210854E-03  0.0000000000000E+00 -0.5945098655254E-02
-0.4877944434755E-02  0.1069779498826E-02  0.0000000000000E+00 -0.4624824300467E-02
-0.1808346417028E-03  0.1072862938952E-01  0.0000000000000E+00 -0.5121617376720E-02
-0.5768983262662E-03  0.1094345921812E-01  0.0000000000000E+00 -0.5992269704239E-02
-0.1010465955480E-02  0.1114422704751E-01  0.0000000000000E+00 -0.6594626368381E-02
-0.1424929615034E-02  0.1129294250063E-01  0.0000000000000E+00 -0.6949853521115E-02
-0.1780776167617E-02  0.1136691608284E-01  0.0000000000000E+00 -0.7115271511408E-02
-0.2059997104753E-02  0.1136081429613E-01  0.0000000000000E+00 -0.7157528332973E-02
-0.2261644843130E-02  0.1128177637011E-01  0.0000000000000E+00 -0.7133304334853E-02
-0.2394448331107E-02  0.1114275791420E-01  0.0000000000000E+00 -0.7082041474395E-02
-0.2470636696461E-02  0.1095748177405E-01  0.0000000000000E+00 -0.7027083746679E-02
-0.2502237575492E-02  0.1073778572145E-01  0.0000000000000E+00 -0.6980157834645E-02
-0.2499451543963E-02  0.1049277381559E-01  0.0000000000000E+00 -0.6945947067564E-02
-0.2470287217376E-02  0.1022893658255E-01  0.0000000000000E+00 -0.6925519156863E-02
-0.2420809752454E-02  0.9950657753154E-02  0.0000000000000E+00 -0.6918495893220E-02
-0.2355622055485E-02  0.9660810021306E-02  0.0000000000000E+00 -0.6924217037199E-02
-0.2278370794371E-02  0.9361300607491E-02  0.0000000000000E+00 -0.6942155369519E-02
-0.2192144835175E-02  0.9053509754199E-02  0.0000000000000E+00 -0.6971776740333E-02
-0.2099815434847E-02  0.8739222974406E-02  0.0000000000000E+00 -0.7011690803210E-02
-0.2004086212544E-02  0.8421222480500E-02  0.0000000000000E+00 -0.7058683706999E-02
-0.1906887138783E-02  0.8101661825073E-02  0.0000000000000E+00 -0.7108257394724E-02
-0.1808837689571E-02  0.7780664582972E-02  0.0000000000000E+00 -0.7155783909256E-02
-0.1709293240808E-02  0.7456778292416E-02  0.0000000000000E+00 -0.7196910710741E-02
-0.1606621703099E-02  0.7127628542674E-02  0.0000000000000E+00 -0.7227892201299E-02
-0.1498591213343E-02  0.6790401091745E-02  0.0000000000000E+00 -0.7245878326095E-02
-0.1382798119952E-02  0.6442175197250E-02  0.0000000000000E+00 -0.7249055978695E-02
-0.1257078718287E-02  0.6080148712115E-02  0.0000000000000E+00 -0.7236654596410E-02
-0.1119896833301E-02  0.5701814355677E-02  0.0000000000000E+00 -0.7208906544244E-02
-0.9707372470092E-03  0.5305130358101E-02  0.0000000000000E+00 -0.7167057597925E-02
-0.8105174735564E-03  0.4888554802237E-02  0.0000000000000E+00 -0.7113688287775E-02
-0.6421310477072E-03  0.4451195378993E-02  0.0000000000000E+00 -0.7053211389824E-02
-0.4712838193428E-03  0.3993503035100E-02  0.0000000000000E+00 -0.6991919861326E-02
-0.3075612432484E-03  0.3518181446784E-02  0.0000000000000E+00 -0.6937665345742E-02
-0.1656495594655E-03  0.3031140075565E-02  0.0000000000000E+00 -0.6899176961421E-02
-0.6666646756526E-04  0.2542635021794E-02  0.0000000000000E+00 -0.6884450406737E-02
-0.3938733943754E-04  0.2068461570954E-02  0.0000000000000E+00 -0.6897745582343E-02
-0.1209290502107E-03  0.1630822485642E-02  0.0000000000000E+00 -0.6934783221893E-02
-0.3561473083913E-03  0.1258044113023E-02  0.0000000000000E+00 -0.6976191366422E-02
-0.7947958203898E-03  0.9820213388052E-03  0.0000000000000E+00 -0.6979562360787E-02
-0.1484304411810E-02  0.8340138030323E-03  0.0000000000000E+00 -0.6866877050319E-02
-0.2455863629934E-02  0.8362737193254E-03  0.0000000000000E+00 -0.6514774658518E-02
-0.3705925965228E-02  0.9881231523407E-03  0.0000000000000E+00 -0.5770697221530E-02
-0.5185041158321E-02  0.1253973399547E-02  0.0000000000000E+00 -0.4493996392059E-02
-0.2019512262973E-03  0.1137425011593E-01  0.0000000000000E+00 -0.5247892029302E-02
-0.6425142254419E-03  0.1161274261635E-01  0.0000000000000E+00 -0.6108070388990E-02
-0.1119645776793E-02  0.1183182265437E-01  0.0000000000000E+00 -0.6669880113729E-02
-0.1568090696053E-02  0.1198824421734E-01  0.0000000000000E+00 -0.6964420740181E-02
-0.1944890067112E-02  0.1205839376383E-01  0.0000000000000E+00 -0.7063400726018E-02
-0.2233283638361E-02  0.1203947771170E-01  0.0000000000000E+00 -0.7044912714622E-02
-0.2435775337827E-02  0.1194236550962E-01  0.0000000000000E+00 -0.6971291316198E-02
-0.2564612248376E-02  0.1178320979008E-01  0.0000000000000E+00 -0.6882821891580E-02
-0.2634623952048E-02  0.1157777589681E-01  0.0000000000000E+00 -0.6801092173080E-02
-0.2659401866726E-02  0.1133889800101E-01  0.0000000000000E+00 -0.6735253287190E-02
-0.2649918759941E-02  0.1107597745891E-01  0.0000000000000E+00 -0.6687548712076E-02
-0.2614456037065E-02  0.1079541581033E-01  0.0000000000000E+00 -0.6657093729252E-02
-0.2559079037766E-02  0.1050132902837E-01  0.0000000000000E+00 -0.6642100115332E-02
-0.2488275896798E-02  0.1019626775174E-01  0.0000000000000E+00 -0.6640989198216E-02
-0.2405576505883E-02  0.9881842646810E-02  0.0000000000000E+00 -0.6652718203932E-02
-0.2314030300593E-02  0.9559219260642E-02  0.0000000000000E+00 -0.6676512868349E-02
-0.2216588743408E-02  0.9230111849289E-02  0.0000000000000E+00 -0.6710810704790E-02
-0.2116135096965E-02  0.8897391360242E-02  0.0000000000000E+00 -0.6752087298290E-02
-0.2014783053044E-02  0.8563339143837E-02  0.0000000000000E+00 -0.6795384350800E-02
-0.1913245611374E-02  0.8228130359640E-02  0.0000000000000E+00 -0.6835571131384E-02
-0.1810853153338E-02  0.7890289264574E-02  0.0000000000000E+00 -0.6867834974318E-02
-0.1705853837202E-02  0.7547383781651E-02  0.0000000000000E+00 -0.6888080203734E-02
-0.1595848354091E-02  0.7196549173347E-02  0.0000000000000E+00 -0.6893236727429E-02
-0.1478257401998E-02  0.6834843683104E-02  0.0000000000000E+00 -0.6881372401546E-02
-0.1350747480668E-02  0.6459468663578E-02  0.0000000000000E+00 -0.6851650331967E-02
-0.1211606075440E-02  0.6067916742651E-02  0.0000000000000E+00 -0.6804258527249E-02
-0.1060106322213E-02  0.5658100488766E-02  0.0000000000000E+00 -0.6740433526454E-02
-0.8968845276598E-03  0.5228330176542E-02  0.0000000000000E+00 -0.6662869863231E-02
-0.7244634104562E-03  0.4777412523633E-02  0.0000000000000E+00 -0.6576369529911E-02
-0.5481082442116E-03  0.4305333010075E-02  0.0000000000000E+00 -0.6488061784667E-02
-0.3769636218434E-03  0.3814186437753E-02  0.0000000000000E+00 -0.6407291794464E-02
-0.2254104325636E-03  0.3309191028697E-02  0.0000000000000E+00 -0.6345195378338E-02
-0.1146363668045E-03  0.2799974838172E-02  0.0000000000000E+00 -0.6313340669511E-02
-0.7425236675718E-04  0.2302048840380E-02  0.0000000000000E+00 -0.6320878908931E-02
-0.1435479449259E-03  0.1838134971979E-02  0.0000000000000E+00 -0.6369578684385E-02
-0.3716055749370E-03  0.1438487172829E-02  0.0000000000000E+00 -0.6446417385506E-02
-0.8150738201913E-03  0.1138879616402E-02  0.0000000000000E+00 -0.6513629696326E-02
-0.1530732748366E-02  0.9764853754658E-03  0.0000000000000E+00 -0.6491736075684E-02
-0.2558599847167E-02  0.9799947212558E-03  0.0000000000000E+00 -0.6244604121440E-02
-0.3897974197183E-02  0.1150793329176E-02  0.0000000000000E+00 -0.5592637744512E-02
-0.5489365911357E-02  0.1448262609555E-02  0.0000000000000E+00 -0.4366237019149E-02
-0.2257575614797E-03  0.1203334524339E-01  0.0000000000000E+00 -0.5388770175112E-02
-0.7162130561969E-03  0.1229809226263E-01  0.0000000000000E+00 -0.6235307187884E-02
-0.1241108681194E-02  0.1253648290446E-01  0.0000000000000E+00 -0.6748504503558E-02
-0.1725017264250E-02  0.1269927783794E-01  0.0000000000000E+00 -0.6972704576833E-02
-0.2121713435842E-02  0.1276253291527E-01  0.0000000000000E+00 -0.6997417844443E-02
-0.2416834645200E-02  0.1272717988957E-01  0.0000000000000E+00 -0.6913664910939E-02
-0.2617460920613E-02  0.1260876463579E-01  0.0000000000000E+00 -0.6789113032673E-02
-0.2740008738276E-02  0.1242705567928E-01  0.0000000000000E+00 -0.6663815578542E-02
-0.2802120845502E-02  0.1219987939892E-01  0.0000000000000E+00 -0.6556583735796E-02
-0.2818920915695E-02  0.1194090688447E-01  0.0000000000000E+00 -0.6473319033486E-02
-0.2802035858550E-02  0.1165964892242E-01  0.0000000000000E+00 -0.6413470883043E-02
-0.2759894156791E-02  0.1136226185483E-01  0.0000000000000E+00 -0.6374050944310E-02
-0.2698452750383E-02  0.1105247708179E-01  0.0000000000000E+00 -0.6351817248985E-02
-0.2621996249959E-02  0.1073243563651E-01  0.0000000000000E+00 -0.6344286500078E-02
-0.2533869922426E-02  0.1040338472176E-01  0.0000000000000E+00 -0.6349954098531E-02
-0.2437043007011E-02  0.1006622825187E-01  0.0000000000000E+00 -0.6367888941392E-02
-0.2334538987152E-02  0.9722585597361E-02  0.0000000000000E+00 -0.6396445264446E-02
-0.2229438966602E-02  0.9375414283286E-02  0.0000000000000E+00 -0.6431849360941E-02
-0.2124065034106E-02  0.9027131359549E-02  0.0000000000000E+00 -0.6468702179136E-02
-0.2019235135570E-02  0.8677969450437E-02  0.0000000000000E+00 -0.6501364246120E-02
-0.1914247704788E-02  0.8326431765565E-02  0.0000000000000E+00 -0.6524559724653E-02
-0.1807214950184E-02  0.7970034830412E-02  0.0000000000000E+00 -0.6533859768259E-02
-0.1695557533603E-02  0.7605882174085E-02  0.0000000000000E+00 -0.6526006589131E-02
-0.1576518819651E-02  0.7231045172347E-02  0.0000000000000E+00 -0.6498978003820E-02
-0.1447603791916E-02  0.6842774859287E-02  0.0000000000000E+00 -0.6451875705652E-02
-0.1306934535159E-02  0.6438614737052E-02  0.0000000000000E+00 -0.6384808931983E-02
-0.1153575234629E-02  0.6016478417006E-02  0.0000000000000E+00 -0.6298923657998E-02
-0.9878629839777E-03  0.5574560722675E-02  0.0000000000000E+00 -0.6196900645791E-02
-0.8118984529719E-03  0.5111374190518E-02  0.0000000000000E+00 -0.6083763834165E-02
-0.6304099210135E-03  0.4626406909796E-02  0.0000000000000E+00 -0.5967285209252E-02
-0.4519472842257E-03  0.4121057072600E-02  0.0000000000000E+00 -0.5858108331953E-02
-0.2903627384252E-03  0.3599685919324E-02  0.0000000000000E+00 -0.5769627159648E-02
-0.1666167566501E-03  0.3071026709787E-02  0.0000000000000E+00 -0.5716972496782E-02
-0.1108094306554E-03  0.2549931493466E-02  0.0000000000000E+00 -0.5714477309220E-02
-0.1641099743490E-03  0.2059207904996E-02  0.0000000000000E+00 -0.5770776353002E-02
-0.3798232317671E-03  0.1630713806314E-02  0.0000000000000E+00 -0.5880763155597E-02
-0.8222302156868E-03  0.1304218692826E-02  0.0000000000000E+00 -0.6013508347613E-02
-0.1559319243039E-02  0.1123847058862E-02  0.0000000000000E+00 -0.6090105653366E-02
-0.2642987056415E-02  0.1126581960522E-02  0.0000000000000E+00 -0.5960592652526E-02
-0.4077618803577E-02  0.1318221975212E-02  0.0000000000000E+00 -0.5413647581399E-02
-0.5792346102331E-02  0.1651103351866E-02  0.0000000000000E+00 -0.4240769040775E-02
-0.2527703414332E-03  0.1270772374580E-01  0.0000000000000E+00 -0.5546022184080E-02
-0.7994750746871E-03  0.1300169321106E-01  0.0000000000000E+00 -0.6374792722376E-02
-0.1376821500497E-02  0.1326025211959E-01  0.0000000000000E+00 -0.6829388387288E-02
-0.1897409262147E-02  0.1342738090701E-01  0.0000000000000E+00 -0.6971922823155E-02
-0.2312244707753E-02  0.1347977830034E-01  0.0000000000000E+00 -0.6913917078910E-02
-0.2610954795058E-02  0.1342367007414E-01  0.0000000000000E+00 -0.6760715541594E-02
-0.2806549584961E-02  0.1328036089741E-01  0.0000000000000E+00 -0.6584491491106E-02
-0.2920277366318E-02  0.1307359237129E-01  0.0000000000000E+00 -0.6423563263659E-02
-0.2972724891570E-02  0.1282315072707E-01  0.0000000000000E+00 -0.6292749519812E-02
-0.2980434311509E-02  0.1254329095136E-01  0.0000000000000E+00 -0.6194000250930E-02
-0.2955516599225E-02  0.1224339539435E-01  0.0000000000000E+00 -0.6123656698817E-02
-0.2906396318255E-02  0.1192920024670E-01  0.0000000000000E+00 -0.6076523517624E-02
-0.2838802939548E-02  0.1160393226521E-01  0.0000000000000E+00 -0.6047894984730E-02
-0.2756723379513E-02  0.1126923638053E-01  0.0000000000000E+00 -0.6034415727090E-02
-0.2663245485748E-02  0.1092592903975E-01  0.0000000000000E+00 -0.6034184882643E-02
-0.2561213846738E-02  0.1057460316772E-01  0.0000000000000E+00 -0.6046211134235E-02
-0.2453716609603E-02  0.1021675768505E-01  0.0000000000000E+00 -0.6068870383965E-02
-0.2344056608142E-02  0.9855434642723E-02  0.0000000000000E+00 -0.6098213261708E-02
-0.2234795011683E-02  0.9493195211561E-02  0.0000000000000E+00 -0.6128423356076E-02
-0.2126867724632E-02  0.9130334256721E-02  0.0000000000000E+00 -0.6153346534774E-02
-0.2019531577460E-02  0.8765334434439E-02  0.0000000000000E+00 -0.6167245313142E-02
-0.1910743646230E-02  0.8395667729240E-02  0.0000000000000E+00 -0.6165386423323E-02
-0.1797732340314E-02  0.8018429436006E-02  0.0000000000000E+00 -0.6144371869950E-02
-0.1677566716194E-02  0.7630746712526E-02  0.0000000000000E+00 -0.6102131288372E-02
-0.1547606678559E-02  0.7229977383296E-02  0.0000000000000E+00 -0.6037717086606E-02
-0.1405830109122E-02  0.6813779232993E-02  0.0000000000000E+00 -0.5951125709134E-02
-0.1251106095378E-02  0.6380127393193E-02  0.0000000000000E+00 -0.5843324261249E-02
-0.1083465541411E-02  0.5927148941316E-02  0.0000000000000E+00 -0.5716836669793E-02
-0.9045458140022E-03  0.5453086250831E-02  0.0000000000000E+00 -0.5576715899361E-02
-0.7184493691994E-03  0.4956916825343E-02  0.0000000000000E+00 -0.5431142968690E-02
-0.5329795964653E-03  0.4439272407994E-02  0.0000000000000E+00 -0.5291803396689E-02
-0.3612258962913E-03  0.3903502087840E-02  0.0000000000000E+00 -0.5174110310778E-02
-0.2235865045219E-03  0.3357166922147E-02  0.0000000000000E+00 -0.5096625670557E-02
-0.1502187547704E-03  0.2814029123300E-02  0.0000000000000E+00 -0.5079020353760E-02
-0.1837233309108E-03  0.2296416704252E-02  0.0000000000000E+00 -0.5137545994287E-02
-0.3814278041221E-03  0.1837249388559E-02  0.0000000000000E+00 -0.5276723993775E-02
-0.8158384361405E-03  0.1480191633965E-02  0.0000000000000E+00 -0.5475293372334E-02
-0.1568304420362E-02  0.1277310681374E-02  0.0000000000000E+00 -0.5657849356155E-02
-0.2706440328127E-02  0.1276433163470E-02  0.0000000000000E+00 -0.5660774313674E-02
-0.4243132310741E-02  0.1490258091659E-02  0.0000000000000E+00 -0.5234570047512E-02
-0.6095149579673E-02  0.1863362125902E-02  0.0000000000000E+00 -0.4118818023841E-02
-0.2836442314439E-03  0.1339956999198E-01  0.0000000000000E+00 -0.5721723358755E-02
-0.8941428525728E-03  0.1372616135366E-01  0.0000000000000E+00 -0.6527301371917E-02
-0.1529132153583E-02  0.1400546477518E-01  0.0000000000000E+00 -0.6910830113237E-02
-0.2087142813792E-02  0.1417390200070E-01  0.0000000000000E+00 -0.6958434596731E-02
-0.2517423185411E-02  0.1421035750873E-01  0.0000000000000E+00 -0.6808777561955E-02
-0.2815762479840E-02  0.1412839998156E-01  0.0000000000000E+00 -0.6582611771972E-02
-0.3002688369439E-02  0.1395627858879E-01  0.0000000000000E+00 -0.6355053340283E-02
-0.3104898449575E-02  0.1372193035946E-01  0.0000000000000E+00 -0.6160672233722E-02
-0.3145925366169E-02  0.1344683224626E-01  0.0000000000000E+00 -0.6008905742678E-02
-0.3143513417481E-02  0.1314546117678E-01  0.0000000000000E+00 -0.5897070910208E-02
-0.3110032792515E-02  0.1282678518261E-01  0.0000000000000E+00 -0.5818162278373E-02
-0.3053731653395E-02  0.1249593344060E-01  0.0000000000000E+00 -0.5764739880106E-02
-0.2979987059170E-02  0.1215551128640E-01  0.0000000000000E+00 -0.5730663931159E-02
-0.2892391766530E-02  0.1180658675043E-01  0.0000000000000E+00 -0.5711757288842E-02
-0.2793699313412E-02  0.1144947993128E-01  0.0000000000000E+00 -0.5705796506341E-02
-0.2686580794254E-02  0.1108442076557E-01  0.0000000000000E+00 -0.5711837559223E-02
-0.2574182080107E-02  0.1071275901541E-01  0.0000000000000E+00 -0.5728399309136E-02
-0.2460058095128E-02  0.1033761823790E-01  0.0000000000000E+00 -0.5751443623843E-02
-0.2347046567886E-02  0.9961711625684E-02  0.0000000000000E+00 -0.5774763654015E-02
-0.2236215418806E-02  0.9585398651832E-02  0.0000000000000E+00 -0.5791684515671E-02
-0.2126766131563E-02  0.9207139271009E-02  0.0000000000000E+00 -0.5796015298125E-02
-0.2016477710885E-02  0.8824368725380E-02  0.0000000000000E+00 -0.5782762890288E-02
-0.1902374914647E-02  0.8434203796384E-02  0.0000000000000E+00 -0.5748455346000E-02
-0.1781361460147E-02  0.8033880300351E-02  0.0000000000000E+00 -0.5691030845839E-02
-0.1650678134096E-02  0.7620932168451E-02  0.0000000000000E+00 -0.5609512728667E-02
-0.1508191382346E-02  0.7193208172207E-02  0.0000000000000E+00 -0.5503751868795E-02
-0.1352601638801E-02  0.6748820122728E-02  0.0000000000000E+00 -0.5374442648913E-02
-0.1183639504057E-02  0.6285891966799E-02  0.0000000000000E+00 -0.5223795889524E-02
-0.1002450426344E-02  0.5802440060928E-02  0.0000000000000E+00 -0.5056677490336E-02
-0.8124339489317E-03  0.5296941957346E-02  0.0000000000000E+00 -0.4881405565437E-02
-0.6205035368614E-03  0.4769219281156E-02  0.0000000000000E+00 -0.4710388512148E-02
-0.4387495591467E-03  0.4221476651395E-02  0.0000000000000E+00 -0.4560719582731E-02
-0.2866444784133E-03  0.3659830643247E-02  0.0000000000000E+00 -0.4454110720352E-02
-0.1938863370481E-03  0.3096480344316E-02  0.0000000000000E+00 -0.4415534521846E-02
-0.2038816587240E-03  0.2552570333920E-02  0.0000000000000E+00 -0.4469441394058E-02
-0.3774993840813E-03  0.2061268136040E-02  0.0000000000000E+00 -0.4631759450140E-02
-0.7958132476333E-03  0.1669670684134E-02  0.0000000000000E+00 -0.4894342488500E-02
-0.1555848493129E-02  0.1438672457717E-02  0.0000000000000E+00 -0.5189649600339E-02
-0.2745830134914E-02  0.1429985468377E-02  0.0000000000000E+00 -0.5341925318776E-02
-0.4392372160681E-02  0.1666940265506E-02  0.0000000000000E+00 -0.5055947333865E-02
-0.6399321034044E-02  0.2086205010414E-02  0.0000000000000E+00 -0.4002170606473E-02
-0.3192218801186E-03  0.1411156333357E-01  0.0000000000000E+00 -0.5918322615058E-02
-0.1002536431072E-02  0.1447466397407E-01  0.0000000000000E+00 -0.6693487588031E-02
-0.1700851448757E-02  0.1477478200683E-01  0.0000000000000E+00 -0.6990277093352E-02
-0.2296254137989E-02  0.1494013010735E-01  0.0000000000000E+00 -0.6927484653875E-02
-0.2738051475344E-02  0.1495416744873E-01  0.0000000000000E+00 -0.6677053330604E-02
-0.3031114008206E-02  0.1484043493776E-01  0.0000000000000E+00 -0.6375541518802E-02
-0.3205278872313E-02  0.1463533579877E-01  0.0000000000000E+00 -0.6098408953921E-02
-0.3293177036285E-02  0.1437098379229E-01  0.0000000000000E+00 -0.5873891459755E-02
-0.3321102803027E-02  0.1407005561730E-01  0.0000000000000E+00 -0.5704545118063E-02
-0.3307666356389E-02  0.1374677030274E-01  0.0000000000000E+00 -0.5582463156965E-02
-0.3265219658536E-02  0.1340935592299E-01  0.0000000000000E+00 -0.5497171500522E-02
-0.3201647502093E-02  0.1306214612326E-01  0.0000000000000E+00 -0.5439031192447E-02
-0.3121850119365E-02  0.1270701965522E-01  0.0000000000000E+00 -0.5400542163578E-02
-0.3028931460116E-02  0.1234439832361E-01  0.0000000000000E+00 -0.5376770567677E-02
-0.2925230822558E-02  0.1197404459086E-01  0.0000000000000E+00 -0.5365246031754E-02
-0.2813191380428E-02  0.1159577028821E-01  0.0000000000000E+00 -0.5365185851224E-02
-0.2696009258368E-02  0.1121074221564E-01  0.0000000000000E+00 -0.5375389177426E-02
-0.2577528977631E-02  0.1082215960173E-01  0.0000000000000E+00 -0.5391830288059E-02
-0.2460909829463E-02  0.1043289328510E-01  0.0000000000000E+00 -0.5407941935959E-02
-0.2347365883825E-02  0.1004336539395E-01  0.0000000000000E+00 -0.5416522403097E-02
-0.2236023632993E-02  0.9652007369601E-02  0.0000000000000E+00 -0.5410945722268E-02
-0.2124456611526E-02  0.9256227339357E-02  0.0000000000000E+00 -0.5386024721563E-02
-0.2009476275134E-02  0.8853201772264E-02  0.0000000000000E+00 -0.5338302573909E-02
-0.1887837538310E-02  0.8440340423006E-02  0.0000000000000E+00 -0.5265799055402E-02
-0.1756698973222E-02  0.8015436055447E-02  0.0000000000000E+00 -0.5167536869784E-02
-0.1613861042028E-02  0.7576618852507E-02  0.0000000000000E+00 -0.5043190373104E-02
-0.1457895750647E-02  0.7122227558108E-02  0.0000000000000E+00 -0.4893083649841E-02
-0.1288253794464E-02  0.6650465686123E-02  0.0000000000000E+00 -0.4718947998165E-02
-0.1105575344806E-02  0.6159190578193E-02  0.0000000000000E+00 -0.4525227127618E-02
-0.9124961734603E-03  0.5646419625441E-02  0.0000000000000E+00 -0.4320070442318E-02
-0.7149122598975E-03  0.5111156085861E-02  0.0000000000000E+00 -0.4116229639487E-02
-0.5236879795623E-03  0.4554365427140E-02  0.0000000000000E+00 -0.3932033533159E-02
-0.3569926686209E-03  0.3980474353807E-02  0.0000000000000E+00 -0.3791889343163E-02
-0.2434758707619E-03  0.3399628659436E-02  0.0000000000000E+00 -0.3725777974804E-02
-0.2265310572442E-03  0.2830958502179E-02  0.0000000000000E+00 -0.3766636655851E-02
-0.3697216930099E-03  0.2306738562811E-02  0.0000000000000E+00 -0.3943470765112E-02
-0.7625930990016E-03  0.1876517898599E-02  0.0000000000000E+00 -0.4265285762044E-02
-0.1520149142793E-02  0.1610536489473E-02  0.0000000000000E+00 -0.4678565591844E-02
-0.2757406755448E-02  0.1587996117990E-02  0.0000000000000E+00 -0.4999141461001E-02
-0.4522533547990E-02  0.1848364278995E-02  0.0000000000000E+00 -0.4877972921282E-02
-0.6706821160628E-02  0.2321082899802E-02  0.0000000000000E+00 -0.3893128637755E-02
-0.3606069734046E-03  0.1484704757884E-01  0.0000000000000E+00 -0.6138730327013E-02
-0.1127612392133E-02  0.1525108054212E-01  0.0000000000000E+00 -0.6873744339074E-02
-0.1895347476000E-02  0.1557121810558E-01  0.0000000000000E+00 -0.7063946523969E-02
-0.2526892691119E-02  0.1572717407081E-01  0.0000000000000E+00 -0.6872879545315E-02
-0.2974680365479E-02  0.1571061686865E-01  0.0000000000000E+00 -0.6512877605725E-02
-0.3256509448524E-02  0.1555834926493E-01  0.0000000000000E+00 -0.6135406606205E-02
-0.3413432174193E-02  0.1531600515365E-01  0.0000000000000E+00 -0.5812270404429E-02
-0.3484233063268E-02  0.1501946983748E-01  0.0000000000000E+00 -0.5562204869674E-02
-0.3497534502814E-02  0.1469185478331E-01  0.0000000000000E+00 -0.5379392887474E-02
-0.3472347026286E-02  0.1434652695887E-01  0.0000000000000E+00 -0.5250295646675E-02
-0.3420683445444E-02  0.1399062538189E-01  0.0000000000000E+00 -0.5161007841189E-02
-0.3349874152961E-02  0.1362751155404E-01  0.0000000000000E+00 -0.5099835147023E-02
-0.3264226786497E-02  0.1325825395453E-01  0.0000000000000E+00 -0.5058037264488E-02
-0.3166268859660E-02  0.1288257728975E-01  0.0000000000000E+00 -0.5029998268645E-02
-0.3057843806521E-02  0.1249963275692E-01  0.0000000000000E+00 -0.5013069384530E-02
-0.2941105021547E-02  0.1210875513073E-01  0.0000000000000E+00 -0.5006742760940E-02
-0.2819289135093E-02  0.1171088637475E-01  0.0000000000000E+00 -0.5010249941513E-02
-0.2696575358483E-02  0.1130928971594E-01  0.0000000000000E+00 -0.5019694116236E-02
-0.2576497625846E-02  0.1090699411489E-01  0.0000000000000E+00 -0.5028180454766E-02
-0.2460428762562E-02  0.1050447532380E-01  0.0000000000000E+00 -0.5027975390569E-02
-0.2347392421261E-02  0.1010012577525E-01  0.0000000000000E+00 -0.5012051980257E-02
-0.2234724398302E-02  0.9691339780741E-02  0.0000000000000E+00 -0.4975123204743E-02
-0.2119016630022E-02  0.9275403596533E-02  0.0000000000000E+00 -0.4913863488140E-02
-0.1996901467412E-02  0.8849981333287E-02  0.0000000000000E+00 -0.4826463885651E-02
-0.1865504494614E-02  0.8413221694384E-02  0.0000000000000E+00 -0.4711982008134E-02
-0.1722619065664E-02  0.7963640161617E-02  0.0000000000000E+00 -0.4569886740109E-02
-0.1566743554441E-02  0.7499907450442E-02  0.0000000000000E+00 -0.4400032883628E-02
-0.1397084994608E-02  0.7020408029587E-02  0.0000000000000E+00 -0.4203499892052E-02
-0.1213782610714E-02  0.6522932478494E-02  0.0000000000000E+00 -0.3984061191430E-02
-0.1018668417190E-02  0.6005112335789E-02  0.0000000000000E+00 -0.3749365126516E-02
-0.8165175718904E-03  0.5465169566284E-02  0.0000000000000E+00 -0.3512072983806E-02
-0.6167645726376E-03  0.4902790253640E-02  0.0000000000000E+00 -0.3291199884000E-02
-0.4359054664667E-03  0.4320520166494E-02  0.0000000000000E+00 -0.3113203947921E-02
-0.3009043089537E-03  0.3725984949790E-02  0.0000000000000E+00 -0.3012462899219E-02
-0.2541340513948E-03  0.3135378691150E-02  0.0000000000000E+00 -0.3030239472514E-02
-0.3605583005151E-03  0.2578588740062E-02  0.0000000000000E+00 -0.3209917324442E-02
-0.7174107477850E-03  0.2105915399669E-02  0.0000000000000E+00 -0.3582090823462E-02
-0.1459648949827E-02  0.1796732203703E-02  0.0000000000000E+00 -0.4115604706418E-02
-0.2736694355523E-02  0.1751795814420E-02  0.0000000000000E+00 -0.4625145598564E-02
-0.4629823901773E-02  0.2034654257543E-02  0.0000000000000E+00 -0.4700171305166E-02
-0.7020158617586E-02  0.2569772298231E-02  0.0000000000000E+00 -0.3794578948635E-02
-0.4092733992668E-03  0.1561027668949E-01  0.0000000000000E+00 -0.6386430794116E-02
-0.1273185994262E-02  0.1606021835441E-01  0.0000000000000E+00 -0.7067958342965E-02
-0.2116647759376E-02  0.1639813965089E-01  0.0000000000000E+00 -0.7126269902289E-02
-0.2781221418757E-02  0.1653576307570E-01  0.0000000000000E+00 -0.6786588089553E-02
-0.3227442778721E-02  0.1647841247615E-01  0.0000000000000E+00 -0.6309411458305E-02
-0.3490980935376E-02  0.1628011031518E-01  0.0000000000000E+00 -0.5857970965228E-02
-0.3625928945756E-02  0.1599638659758E-01  0.0000000000000E+00 -0.5494616326805E-02
-0.3677001772070E-02  0.1566592202274E-01  0.0000000000000E+00 -0.5224940831390E-02
-0.3674407713029E-02  0.1531118811902E-01  0.0000000000000E+00 -0.5033464151318E-02
-0.3636968628505E-02  0.1494401489470E-01  0.0000000000000E+00 -0.4900898549114E-02
-0.3576011410080E-02  0.1457010490586E-01  0.0000000000000E+00 -0.4810141830053E-02
-0.3498130438802E-02  0.1419169886247E-01  0.0000000000000E+00 -0.4747695422501E-02
-0.3406943178294E-02  0.1380900366005E-01  0.0000000000000E+00 -0.4703744919943E-02
-0.3304326511027E-02  0.1342102277826E-01  0.0000000000000E+00 -0.4672069278257E-02
-0.3191546540398E-02  0.1302625470864E-01  0.0000000000000E+00 -0.4649890078566E-02
-0.3070394956338E-02  0.1262349359221E-01  0.0000000000000E+00 -0.4637076593778E-02
-0.2944133969610E-02  0.1221340225611E-01  0.0000000000000E+00 -0.4633456735140E-02
-0.2817330139682E-02  0.1179928557418E-01  0.0000000000000E+00 -0.4635395439164E-02
-0.2693953346237E-02  0.1138432132105E-01  0.0000000000000E+00 -0.4635705790770E-02
-0.2575543697498E-02  0.1096901881876E-01  0.0000000000000E+00 -0.4626121197609E-02
-0.2460983148361E-02  0.1055171557303E-01  0.0000000000000E+00 -0.4599272434762E-02
-0.2347332911662E-02  0.1012981253565E-01  0.0000000000000E+00 -0.4549904905317E-02
-0.2230965503397E-02  0.9700772854530E-02  0.0000000000000E+00 -0.4474971438928E-02
-0.2108429426035E-02  0.9262613921001E-02  0.0000000000000E+00 -0.4372938936159E-02
-0.1976879994571E-02  0.8813952344993E-02  0.0000000000000E+00 -0.4242939574132E-02
-0.1834175852835E-02  0.8353804969430E-02  0.0000000000000E+00 -0.4084209411834E-02
-0.1678811300384E-02  0.7881292999732E-02  0.0000000000000E+00 -0.3896036558719E-02
-0.1509802671779E-02  0.7395101791004E-02  0.0000000000000E+00 -0.3678676056184E-02
-0.1326812342660E-02  0.6893074566445E-02  0.0000000000000E+00 -0.3434978276734E-02
-0.1130854052094E-02  0.6372571042464E-02  0.0000000000000E+00 -0.3171742265517E-02
-0.9255119437799E-03  0.5831124447251E-02  0.0000000000000E+00 -0.2901062255603E-02
-0.7186254628935E-03  0.5267173602782E-02  0.0000000000000E+00 -0.2641994264065E-02
-0.5246810133799E-03  0.4681278534010E-02  0.0000000000000E+00 -0.2422210394806E-02
-0.3683133265686E-03  0.4078156538877E-02  0.0000000000000E+00 -0.2279509506904E-02
-0.2897151706382E-03  0.3470127758011E-02  0.0000000000000E+00 -0.2262701892878E-02
-0.3534525385342E-03  0.2882866652984E-02  0.0000000000000E+00 -0.2430107615509E-02
-0.6626706606820E-03  0.2364793828313E-02  0.0000000000000E+00 -0.2838309905062E-02
-0.1373386468458E-02  0.2002923150490E-02  0.0000000000000E+00 -0.3489277283411E-02
-0.2678408598465E-02  0.1923699997498E-02  0.0000000000000E+00 -0.4209228485678E-02
-0.4709013002378E-02  0.2225988122960E-02  0.0000000000000E+00 -0.4520768710888E-02
-0.7342545326992E-02  0.2834479581798E-02  0.0000000000000E+00 -0.3710175979553E-02
-0.4672324552722E-03  0.1640678018676E-01  0.0000000000000E+00 -0.6665625372665E-02
-0.1444244451741E-02  0.1690810217697E-01  0.0000000000000E+00 -0.7275084582516E-02
-0.2369535064375E-02  0.1725920270052E-01  0.0000000000000E+00 -0.7169076168474E-02
-0.3061228532939E-02  0.1736592364310E-01  0.0000000000000E+00 -0.6658271507361E-02
-0.3495821659409E-02  0.1725527716229E-01  0.0000000000000E+00 -0.6058890354392E-02
-0.3732969347542E-02  0.1700296295425E-01  0.0000000000000E+00 -0.5539117466046E-02
-0.3841194063605E-02  0.1667420396837E-01  0.0000000000000E+00 -0.5143907851468E-02
-0.3870249095758E-02  0.1630872231538E-01  0.0000000000000E+00 -0.4861891826100E-02
-0.3850841770329E-02  0.1592697070412E-01  0.0000000000000E+00 -0.4667117626659E-02
-0.3800921898731E-02  0.1553851734088E-01  0.0000000000000E+00 -0.4534832659248E-02
-0.3730784153471E-02  0.1514731544919E-01  0.0000000000000E+00 -0.4445192645531E-02
-0.3646130098074E-02  0.1475438122597E-01  0.0000000000000E+00 -0.4383255578484E-02
-0.3549818064473E-02  0.1435905222642E-01  0.0000000000000E+00 -0.4338342898850E-02
-0.3443021370371E-02  0.1395962304349E-01  0.0000000000000E+00 -0.4303699286070E-02
-0.3326350302938E-02  0.1355391669182E-01  0.0000000000000E+00 -0.4276429134294E-02
-0.3201149409468E-02  0.1314011808101E-01  0.0000000000000E+00 -0.4256853686109E-02
-0.3070681849324E-02  0.1271853801332E-01  0.0000000000000E+00 -0.4245567259640E-02
-0.2939960870272E-02  0.1229248228535E-01  0.0000000000000E+00 -0.4239346297362E-02
-0.2813461129750E-02  0.1186525090979E-01  0.0000000000000E+00 -0.4230750517181E-02
-0.2692890508121E-02  0.1143735011180E-01  0.0000000000000E+00 -0.4210988960949E-02
-0.2576936194065E-02  0.1100704126197E-01  0.0000000000000E+00 -0.4172447573623E-02
-0.2462345092374E-02  0.1057176579569E-01  0.0000000000000E+00 -0.4110087071809E-02
-0.2345281401126E-02  0.1012925534027E-01  0.0000000000000E+00 -0.4021319550581E-02
-0.2222264463802E-02  0.9678001989126E-02  0.0000000000000E+00 -0.3905002047352E-02
-0.2090556194683E-02  0.9217216657330E-02  0.0000000000000E+00 -0.3760379408592E-02
-0.1948165537237E-02  0.8746542996910E-02  0.0000000000000E+00 -0.3586428064621E-02
-0.1793666392416E-02  0.8265682058238E-02  0.0000000000000E+00 -0.3381777548581E-02
-0.1625954346448E-02  0.7773757454865E-02  0.0000000000000E+00 -0.3145693097509E-02
-0.1444260357853E-02  0.7268812890865E-02  0.0000000000000E+00 -0.2879855421077E-02
-0.1248795187674E-02  0.6748094910954E-02  0.0000000000000E+00 -0.2589864435749E-02
-0.1041924004144E-02  0.6208606028677E-02  0.0000000000000E+00 -0.2286743994158E-02
-0.8297811507454E-03  0.5647660042293E-02  0.0000000000000E+00 -0.1988866618665E-02
-0.6245712938091E-03  0.5063846410675E-02  0.0000000000000E+00 -0.1724103834203E-02
-0.4480062497829E-03  0.4458732901653E-02  0.0000000000000E+00 -0.1532320905347E-02
-0.3368678777962E-03  0.3839932262566E-02  0.0000000000000E+00 -0.1468332645183E-02
-0.3530327246783E-03  0.3226864941941E-02  0.0000000000000E+00 -0.1604732211940E-02
-0.6024540550866E-03  0.2662354662808E-02  0.0000000000000E+00 -0.2027647615757E-02
-0.1261583711683E-02  0.2237499103644E-02  0.0000000000000E+00 -0.2785213799528E-02
-0.2576474925933E-02  0.2107728311885E-02  0.0000000000000E+00 -0.3735693883556E-02
-0.4752778231194E-02  0.2422718322100E-02  0.0000000000000E+00 -0.4335562160775E-02
-0.7678095945398E-02  0.3118011909153E-02  0.0000000000000E+00 -0.3644616553321E-02
-0.5372959119899E-03  0.1724392247819E-01  0.0000000000000E+00 -0.6981410877674E-02
-0.1647392243253E-02  0.1780236098307E-01  0.0000000000000E+00 -0.7492398395871E-02
-0.2659603090014E-02  0.1815815996665E-01  0.0000000000000E+00 -0.7180389243189E-02
-0.3368394697195E-02  0.1821646642859E-01  0.0000000000000E+00 -0.6474781286795E-02
-0.3778338347357E-02  0.1803759629854E-01  0.0000000000000E+00 -0.5752858896767E-02
-0.3980204757448E-02  0.1772333896640E-01  0.0000000000000E+00 -0.5175251257894E-02
-0.4057299209952E-02  0.1734684083054E-01  0.0000000000000E+00 -0.4759350397700E-02
-0.4062606487162E-02  0.1694615564455E-01  0.0000000000000E+00 -0.4473432896966E-02
-0.4025919682109E-02  0.1653811666718E-01  0.0000000000000E+00 -0.4281099892178E-02
-0.3963597861280E-02  0.1612934611792E-01  0.0000000000000E+00 -0.4152900057764E-02
-0.3884590192622E-02  0.1572180598367E-01  0.0000000000000E+00 -0.4066922488600E-02
-0.3793588832725E-02  0.1531524490181E-01  0.0000000000000E+00 -0.4007246180332E-02
-0.3692663192472E-02  0.1490817722319E-01  0.0000000000000E+00 -0.3962578926934E-02
-0.3582260839381E-02  0.1449824868813E-01  0.0000000000000E+00 -0.3925687981165E-02
-0.3462265420785E-02  0.1408261249098E-01  0.0000000000000E+00 -0.3893516332423E-02
-0.3333471378185E-02  0.1365877178581E-01  0.0000000000000E+00 -0.3866860620841E-02
-0.3199101699249E-02  0.1322658544064E-01  0.0000000000000E+00 -0.3847246569216E-02
-0.3064679867464E-02  0.1278928878601E-01  0.0000000000000E+00 -0.3832028140102E-02
-0.2935259329450E-02  0.1235024804428E-01  0.0000000000000E+00 -0.3813555545276E-02
-0.2812702154874E-02  0.1190990524477E-01  0.0000000000000E+00 -0.3782543963363E-02
-0.2695430290121E-02  0.1146642133195E-01  0.0000000000000E+00 -0.3731292991171E-02
-0.2579838016953E-02  0.1101733616680E-01  0.0000000000000E+00 -0.3655227980428E-02
-0.2461910602478E-02  0.1056077658343E-01  0.0000000000000E+00 -0.3552434426802E-02
-0.2338213093544E-02  0.1009585768295E-01  0.0000000000000E+00 -0.3422273072621E-02
-0.2206204680346E-02  0.9622523553898E-02  0.0000000000000E+00 -0.3264128712315E-02
-0.2064139805884E-02  0.9141174594000E-02  0.0000000000000E+00 -0.3076690200300E-02
-0.1910768003042E-02  0.8652227487667E-02  0.0000000000000E+00 -0.2857847534734E-02
-0.1744950574232E-02  0.8155396642643E-02  0.0000000000000E+00 -0.2605727581012E-02
-0.1565554739427E-02  0.7649103095515E-02  0.0000000000000E+00 -0.2320614720850E-02
-0.1372037353937E-02  0.7130688054455E-02  0.0000000000000E+00 -0.2006576510747E-02
-0.1165567771773E-02  0.6596856246537E-02  0.0000000000000E+00 -0.1673057460795E-02
-0.9505362029567E-03  0.6044024907261E-02  0.0000000000000E+00 -0.1336968777994E-02
-0.7366887317246E-03  0.5468979692251E-02  0.0000000000000E+00 -0.1025224719402E-02
-0.5423399114026E-03  0.4870118797901E-02  0.0000000000000E+00 -0.7780567292166E-03
-0.3996938887449E-03  0.4249785995830E-02  0.0000000000000E+00 -0.6538981563157E-03
-0.3652815763473E-03  0.3619149826092E-02  0.0000000000000E+00 -0.7372058459348E-03
-0.5431606927144E-03  0.3010654369069E-02  0.0000000000000E+00 -0.1145062980634E-02
-0.1126607426404E-02  0.2512871923565E-02  0.0000000000000E+00 -0.1986061382580E-02
-0.2424295466807E-02  0.2310878272658E-02  0.0000000000000E+00 -0.3181658328973E-02
-0.4750750600883E-02  0.2625697924809E-02  0.0000000000000E+00 -0.4135871268646E-02
-0.8032073198063E-02  0.3424066435414E-02  0.0000000000000E+00 -0.3604004203051E-02
-0.6235019989119E-03  0.1813178761701E-01  0.0000000000000E+00 -0.7339989829650E-02
-0.1891486647515E-02  0.1875273348188E-01  0.0000000000000E+00 -0.7714159505164E-02
-0.2993197343893E-02  0.1909840426036E-01  0.0000000000000E+00 -0.7142666140170E-02
-0.3703129805494E-02  0.1908418756595E-01  0.0000000000000E+00 -0.6219737652646E-02
-0.4072158907535E-02  0.1882001068012E-01  0.0000000000000E+00 -0.5382737788936E-02
-0.4229622044813E-02  0.1843683526173E-01  0.0000000000000E+00 -0.4763880200642E-02
-0.4272010309353E-02  0.1801143225401E-01  0.0000000000000E+00 -0.4341178383496E-02
-0.4252627727646E-02  0.1757648752463E-01  0.0000000000000E+00 -0.4060622161098E-02
-0.4198728429332E-02  0.1714359034447E-01  0.0000000000000E+00 -0.3876574200162E-02
-0.4124414553528E-02  0.1671587471820E-01  0.0000000000000E+00 -0.3756144015143E-02
-0.4037042532384E-02  0.1629317394287E-01  0.0000000000000E+00 -0.3676222681733E-02
-0.3940232077044E-02  0.1587399922136E-01  0.0000000000000E+00 -0.3620464102021E-02
-0.3835282559861E-02  0.1545614950962E-01  0.0000000000000E+00 -0.3577250553627E-02
-0.3721935717125E-02  0.1503674197397E-01  0.0000000000000E+00 -0.3538910865710E-02
-0.3599293512737E-02  0.1461230926761E-01  0.0000000000000E+00 -0.3502102669428E-02
-0.3467476061796E-02  0.1417960122287E-01  0.0000000000000E+00 -0.3468034628224E-02
-0.3329598770171E-02  0.1373788678685E-01  0.0000000000000E+00 -0.3439302921291E-02
-0.3191757684577E-02  0.1329020885741E-01  0.0000000000000E+00 -0.3414017423985E-02
-0.3059658664747E-02  0.1283989425384E-01  0.0000000000000E+00 -0.3384372763703E-02
-0.2935281291962E-02  0.1238722458977E-01  0.0000000000000E+00 -0.3340665728983E-02
-0.2816692221306E-02  0.1193023969249E-01  0.0000000000000E+00 -0.3275363789706E-02
-0.2699905020180E-02  0.1146667775986E-01  0.0000000000000E+00 -0.3184691201229E-02
-0.2580784486974E-02  0.1099523729654E-01  0.0000000000000E+00 -0.3067647489290E-02
-0.2456041017840E-02  0.1051583575830E-01  0.0000000000000E+00 -0.2924191767429E-02
-0.2323433497724E-02  0.1002929738928E-01  0.0000000000000E+00 -0.2753851466711E-02
-0.2181562675147E-02  0.9536906013560E-02  0.0000000000000E+00 -0.2554996563672E-02
-0.2029458872089E-02  0.9039929462969E-02  0.0000000000000E+00 -0.2324715027747E-02
-0.1866050741860E-02  0.8538836940678E-02  0.0000000000000E+00 -0.2059876206154E-02
-0.1689931866676E-02  0.8032632629987E-02  0.0000000000000E+00 -0.1759178724392E-02
-0.1499891605879E-02  0.7519013848614E-02  0.0000000000000E+00 -0.1424863384961E-02
-0.1295986246989E-02  0.6994704071422E-02  0.0000000000000E+00 -0.1064305722096E-02
-0.1080907775793E-02  0.6455571536468E-02  0.0000000000000E+00 -0.6921566050123E-03
-0.8618891736532E-03  0.5896941143897E-02  0.0000000000000E+00 -0.3331299424636E-03
-0.6535633976525E-03  0.5314310033604E-02  0.0000000000000E+00 -0.2587169007573E-04
-0.4826384883250E-03  0.4704660235646E-02  0.0000000000000E+00  0.1707338413457E-03
-0.3975934859701E-03  0.4069396800734E-02  0.0000000000000E+00  0.1649414808165E-03
-0.4942552309819E-03  0.3425149068577E-02  0.0000000000000E+00 -0.1887168353442E-03
-0.9744930619284E-03  0.2847304924254E-02  0.0000000000000E+00 -0.1072130060827E-02
-0.2215565872581E-02  0.2545382652725E-02  0.0000000000000E+00 -0.2514100494701E-02
-0.4688157066556E-02  0.2837084485316E-02  0.0000000000000E+00 -0.3904798997623E-02
-0.8411165206340E-02  0.3757760607083E-02  0.0000000000000E+00 -0.3596229037606E-02
-0.7318268311153E-03  0.1908463301074E-01  0.0000000000000E+00 -0.7748881058461E-02
-0.2188541660895E-02  0.1977169241507E-01  0.0000000000000E+00 -0.7929175889998E-02
-0.3377081826842E-02  0.2008198442754E-01  0.0000000000000E+00 -0.7030255817574E-02
-0.4063855359111E-02  0.1996266251142E-01  0.0000000000000E+00 -0.5873463102883E-02
-0.4372648111294E-02  0.1959502945086E-01  0.0000000000000E+00 -0.4940933747865E-02
-0.4477366745164E-02  0.1913832918503E-01  0.0000000000000E+00 -0.4304366531687E-02
-0.4482895761671E-02  0.1866502306950E-01  0.0000000000000E+00 -0.3890913162838E-02
-0.4438865946485E-02  0.1819806044173E-01  0.0000000000000E+00 -0.3625265070119E-02
-0.4368406144346E-02  0.1774246419912E-01  0.0000000000000E+00 -0.3455129283416E-02
-0.4282846834993E-02  0.1729757413957E-01  0.0000000000000E+00 -0.3345836080245E-02
-0.4187796841110E-02  0.1686108715243E-01  0.0000000000000E+00 -0.3274091044012E-02
-0.4085803679196E-02  0.1643038790483E-01  0.0000000000000E+00 -0.3223743381163E-02
-0.3977470728901E-02  0.1600273188440E-01  0.0000000000000E+00 -0.3183174610177E-02
-0.3861909085852E-02  0.1557490124091E-01  0.0000000000000E+00 -0.3144302403691E-02
-0.3737413948283E-02  0.1514292486744E-01  0.0000000000000E+00 -0.3103273170636E-02
-0.3603284291218E-02  0.1470274201463E-01  0.0000000000000E+00 -0.3061505719572E-02
-0.3462420627084E-02  0.1425284215084E-01  0.0000000000000E+00 -0.3022740507981E-02
-0.3321541692212E-02  0.1379587022297E-01  0.0000000000000E+00 -0.2986022732837E-02
-0.3187067213648E-02  0.1333492452239E-01  0.0000000000000E+00 -0.2943466821620E-02
-0.3061021372655E-02  0.1286998097166E-01  0.0000000000000E+00 -0.2885115432837E-02
-0.2941007138553E-02  0.1239895709163E-01  0.0000000000000E+00 -0.2804007132101E-02
-0.2822655890236E-02  0.1191996030038E-01  0.0000000000000E+00 -0.2697602828573E-02
-0.2701814602953E-02  0.1143250577836E-01  0.0000000000000E+00 -0.2566064652492E-02
-0.2575467689478E-02  0.1093752631532E-01  0.0000000000000E+00 -0.2409997205989E-02
-0.2441783126399E-02  0.1043687362933E-01  0.0000000000000E+00 -0.2229029761146E-02
-0.2299806842470E-02  0.9932826981644E-02  0.0000000000000E+00 -0.2021176210548E-02
-0.2148959081041E-02  0.9427630781162E-02  0.0000000000000E+00 -0.1782689065800E-02
-0.1988350316633E-02  0.8922679034203E-02  0.0000000000000E+00 -0.1509107144823E-02
-0.1816412494990E-02  0.8417793490250E-02  0.0000000000000E+00 -0.1197412827422E-02
-0.1631394619310E-02  0.7911347502520E-02  0.0000000000000E+00 -0.8477909519180E-03
-0.1432390321872E-02  0.7400491451183E-02  0.0000000000000E+00 -0.4651049932872E-03
-0.1220534769641E-02  0.6881019461391E-02  0.0000000000000E+00 -0.6096072721873E-04
-0.1000633960865E-02  0.6347327905162E-02  0.0000000000000E+00  0.3433860128875E-03
-0.7836022845820E-03  0.5792615165403E-02  0.0000000000000E+00  0.7129237226952E-03
-0.5901854379970E-03  0.5209060626869E-02  0.0000000000000E+00  0.9920035617557E-03
-0.4585946866507E-03  0.4587894911236E-02  0.0000000000000E+00  0.1088370192392E-02
-0.4689861405602E-03  0.3924958995424E-02  0.0000000000000E+00  0.8368391920095E-03
-0.8172561359960E-03  0.3267344648905E-02  0.0000000000000E+00 -0.2372540629436E-04
-0.1946239963188E-02  0.2832695982792E-02  0.0000000000000E+00 -0.1686323783004E-02
-0.4544003491885E-02  0.3062264969812E-02  0.0000000000000E+00 -0.3610392512449E-02
-0.8823736710590E-02  0.4126704684704E-02  0.0000000000000E+00 -0.3631031962930E-02
-0.8714119620169E-03  0.2012338723251E-01  0.0000000000000E+00 -0.8217010453748E-02
-0.2554989532411E-02  0.2087509893652E-01  0.0000000000000E+00 -0.8116248736997E-02
-0.3817496899711E-02  0.2110756993401E-01  0.0000000000000E+00 -0.6805877273626E-02
-0.4445574401663E-02  0.2084052048859E-01  0.0000000000000E+00 -0.5413880411141E-02
-0.4672977959705E-02  0.2035285296156E-01  0.0000000000000E+00 -0.4422750305194E-02
-0.4718973230040E-02  0.1982231513897E-01  0.0000000000000E+00 -0.3798747320506E-02
-0.4687499494977E-02  0.1930478246853E-01  0.0000000000000E+00 -0.3411517743868E-02
-0.4619963183225E-02  0.1880940046487E-01  0.0000000000000E+00 -0.3169931748371E-02
-0.4534194101727E-02  0.1833398151539E-01  0.0000000000000E+00 -0.3018764744256E-02
-0.4438457919302E-02  0.1787404946425E-01  0.0000000000000E+00 -0.2923448442030E-02
-0.4336570608976E-02  0.1742530650015E-01  0.0000000000000E+00 -0.2861601192755E-02
-0.4230076020605E-02  0.1698420239321E-01  0.0000000000000E+00 -0.2817917821555E-02
-0.4119010848269E-02  0.1654767850043E-01  0.0000000000000E+00 -0.2781143415757E-02
-0.4002000162344E-02  0.1611245973701E-01  0.0000000000000E+00 -0.2742824976471E-02
-0.3876561494166E-02  0.1567429237745E-01  0.0000000000000E+00 -0.2698257558976E-02
-0.3741009111111E-02  0.1522829333411E-01  0.0000000000000E+00 -0.2648655757297E-02
-0.3597863639957E-02  0.1477191745522E-01  0.0000000000000E+00 -0.2598838619876E-02
-0.3454482776367E-02  0.1430706643904E-01  0.0000000000000E+00 -0.2548938842591E-02
-0.3318025548092E-02  0.1383627883798E-01  0.0000000000000E+00 -0.2491113227313E-02
-0.3190433325256E-02  0.1335901428087E-01  0.0000000000000E+00 -0.2415485995454E-02
-0.3068728387241E-02  0.1287312073775E-01  0.0000000000000E+00 -0.2316298730742E-02
-0.2948213617024E-02  0.1237736230988E-01  0.0000000000000E+00 -0.2192801131013E-02
-0.2824884488170E-02  0.1187240613892E-01  0.0000000000000E+00 -0.2046535638140E-02
-0.2696159357398E-02  0.1136044556301E-01  0.0000000000000E+00 -0.1878710651630E-02
-0.2560723124434E-02  0.1084449534470E-01  0.0000000000000E+00 -0.1688949040080E-02
-0.2418152471770E-02  0.1032791166595E-01  0.0000000000000E+00 -0.1474862462783E-02
-0.2268362873152E-02  0.9814016629725E-02  0.0000000000000E+00 -0.1231878303085E-02
-0.2110770431240E-02  0.9305297234943E-02  0.0000000000000E+00 -0.9542009419594E-03
-0.1943778477878E-02  0.8802656090738E-02  0.0000000000000E+00 -0.6370526882904E-03
-0.1765267361989E-02  0.8305527567658E-02  0.0000000000000E+00 -0.2784284523720E-03
-0.1573594225460E-02  0.7811996222653E-02  0.0000000000000E+00  0.1196899028983E-03
-0.1368580431145E-02  0.7318386926703E-02  0.0000000000000E+00  0.5494787080940E-03
-0.1152836619173E-02  0.6818885516467E-02  0.0000000000000E+00  0.9943329848031E-03
-0.9337976661519E-03  0.6305336754270E-02  0.0000000000000E+00  0.1424822939947E-02
-0.7263932563670E-03  0.5766433343852E-02  0.0000000000000E+00  0.1792269760587E-02
-0.5575519154606E-03  0.5184563202790E-02  0.0000000000000E+00  0.2012170479794E-02
-0.4847389657050E-03  0.4532367319130E-02  0.0000000000000E+00  0.1915872173276E-02
-0.6761538179216E-03  0.3810655508623E-02  0.0000000000000E+00  0.1173089465445E-02
-0.1618789105371E-02  0.3210444283414E-02  0.0000000000000E+00 -0.6348791366045E-03
-0.4288993855460E-02  0.3314416790813E-02  0.0000000000000E+00 -0.3193227148471E-02
-0.9279905774039E-02  0.4543386874687E-02  0.0000000000000E+00 -0.3718627251876E-02
-0.1056755391169E-02  0.2128018071111E-01  0.0000000000000E+00 -0.8754282264165E-02
-0.3013345896529E-02  0.2208249322103E-01  0.0000000000000E+00 -0.8235399195471E-02
-0.4317910137018E-02  0.2216632100792E-01  0.0000000000000E+00 -0.6416213820527E-02
-0.4837795000295E-02  0.2169925609593E-01  0.0000000000000E+00 -0.4819644434365E-02
-0.4964059992745E-02  0.2108180981337E-01  0.0000000000000E+00 -0.3829262420857E-02
-0.4949804638025E-02  0.2048350855812E-01  0.0000000000000E+00 -0.3252328961186E-02
-0.4883551351481E-02  0.1992822852214E-01  0.0000000000000E+00 -0.2907380205486E-02
-0.4794742514487E-02  0.1940932956431E-01  0.0000000000000E+00 -0.2697934339877E-02
-0.4695492342340E-02  0.1891762110902E-01  0.0000000000000E+00 -0.2569846432743E-02
-0.4590930152124E-02  0.1844507408074E-01  0.0000000000000E+00 -0.2490611055916E-02
-0.4483162535125E-02  0.1798570856315E-01  0.0000000000000E+00 -0.2439865773402E-02
-0.4372862473316E-02  0.1753529808326E-01  0.0000000000000E+00 -0.2403776960918E-02
-0.4259674115335E-02  0.1709073786830E-01  0.0000000000000E+00 -0.2371865014882E-02
-0.4141962590350E-02  0.1664905925419E-01  0.0000000000000E+00 -0.2335414366845E-02
-0.4016590479904E-02  0.1620610552019E-01  0.0000000000000E+00 -0.2288432545067E-02
-0.3880730391903E-02  0.1575627279165E-01  0.0000000000000E+00 -0.2231202175330E-02
-0.3736279943675E-02  0.1529565297210E-01  0.0000000000000E+00 -0.2169273597792E-02
-0.3591175456735E-02  0.1482481992554E-01  0.0000000000000E+00 -0.2103925874028E-02
-0.3453257104987E-02  0.1434517513450E-01  0.0000000000000E+00 -0.2027586279095E-02
-0.3324178514492E-02  0.1385537264662E-01  0.0000000000000E+00 -0.1931124111205E-02
-0.3200284614563E-02  0.1335336875068E-01  0.0000000000000E+00 -0.1810958387447E-02
-0.3076705575859E-02  0.1283905679791E-01  0.0000000000000E+00 -0.1668779163269E-02
-0.2949837138222E-02  0.1231470118906E-01  0.0000000000000E+00 -0.1507624978089E-02
-0.2817720191440E-02  0.1178402409078E-01  0.0000000000000E+00 -0.1329124271067E-02
-0.2679649796477E-02  0.1125131078092E-01  0.0000000000000E+00 -0.1132690080516E-02
-0.2535789621260E-02  0.1072102458786E-01  0.0000000000000E+00 -0.9154716796645E-03
-0.2386640024501E-02  0.1019762091856E-01  0.0000000000000E+00 -0.6721449569883E-03
-0.2232050806428E-02  0.9684834625935E-02  0.0000000000000E+00 -0.3956785240189E-03
-0.2070550581814E-02  0.9184944539942E-02  0.0000000000000E+00 -0.7961445989813E-04
-0.1899872894707E-02  0.8698907051023E-02  0.0000000000000E+00  0.2802492070999E-03
-0.1717948751727E-02  0.8226353530713E-02  0.0000000000000E+00  0.6850853379397E-03
-0.1523632197058E-02  0.7764871594848E-02  0.0000000000000E+00  0.1131514901148E-02
-0.1317702198385E-02  0.7309318648541E-02  0.0000000000000E+00  0.1608640033909E-02
-0.1104619646767E-02  0.6851433559525E-02  0.0000000000000E+00  0.2094233970870E-02
-0.8943029732038E-03  0.6378473644375E-02  0.0000000000000E+00  0.2549786433059E-02
-0.7031938275772E-03  0.5867393622481E-02  0.0000000000000E+00  0.2906597921830E-02
-0.5623149669038E-03  0.5270721132931E-02  0.0000000000000E+00  0.3015161565412E-02
-0.5856705844582E-03  0.4528253097740E-02  0.0000000000000E+00  0.2514347864093E-02
-0.1250846354144E-02  0.3744161983630E-02  0.0000000000000E+00  0.7195409479335E-03
-0.3884252048235E-02  0.3625281966448E-02  0.0000000000000E+00 -0.2544406410130E-02
-0.9791127517822E-02  0.5030958464704E-02  0.0000000000000E+00 -0.3863388136825E-02
-0.1311754588885E-02  0.2260714259398E-01  0.0000000000000E+00 -0.9369310114048E-02
-0.3594062730515E-02  0.2341559185171E-01  0.0000000000000E+00 -0.8210383398933E-02
-0.4874011525964E-02  0.2323362683732E-01  0.0000000000000E+00 -0.5788032948036E-02
-0.5221941790490E-02  0.2251134502755E-01  0.0000000000000E+00 -0.4077943612910E-02
-0.5235361015492E-02  0.2177008915361E-01  0.0000000000000E+00 -0.3170708838149E-02
-0.5165759196108E-02  0.2111756536390E-01  0.0000000000000E+00 -0.2673512520288E-02
-0.5069141063182E-02  0.2053340249173E-01  0.0000000000000E+00 -0.2384177274267E-02
-0.4962305566681E-02  0.1999709512349E-01  0.0000000000000E+00 -0.2213270486258E-02
-0.4851915633701E-02  0.1949315389623E-01  0.0000000000000E+00 -0.2111018572458E-02
-0.4740091273107E-02  0.1901061953768E-01  0.0000000000000E+00 -0.2049058678015E-02
-0.4627471612774E-02  0.1854230696271E-01  0.0000000000000E+00 -0.2009995205909E-02
-0.4514033072320E-02  0.1808361398881E-01  0.0000000000000E+00 -0.1982019888903E-02
-0.4399224347548E-02  0.1763166476061E-01  0.0000000000000E+00 -0.1955886558323E-02
-0.4281458198021E-02  0.1718422205274E-01  0.0000000000000E+00 -0.1922886552251E-02
-0.4157218255415E-02  0.1673783523159E-01  0.0000000000000E+00 -0.1875301095250E-02
-0.4022447853231E-02  0.1628653616684E-01  0.0000000000000E+00 -0.1811317850257E-02
-0.3878084804362E-02  0.1582467244412E-01  0.0000000000000E+00 -0.1736313050311E-02
-0.3732421200845E-02  0.1535048166973E-01  0.0000000000000E+00 -0.1652525567726E-02
-0.3593741586595E-02  0.1486321388361E-01  0.0000000000000E+00 -0.1553122337164E-02
-0.3463107436634E-02  0.1436035774437E-01  0.0000000000000E+00 -0.1431007187204E-02
-0.3336179993986E-02  0.1384042357421E-01  0.0000000000000E+00 -0.1286240249376E-02
-0.3208246497262E-02  0.1330518652744E-01  0.0000000000000E+00 -0.1123623070594E-02
-0.3076457118976E-02  0.1275906912668E-01  0.0000000000000E+00 -0.9475874530201E-03
-0.2939680958112E-02  0.1220759194572E-01  0.0000000000000E+00 -0.7597982398645E-03
-0.2797885164128E-02  0.1165637196259E-01  0.0000000000000E+00 -0.5591316783390E-03
-0.2651826066589E-02  0.1111093370951E-01  0.0000000000000E+00 -0.3421881118720E-03
-0.2502644021891E-02  0.1057684246171E-01  0.0000000000000E+00 -0.1030525069033E-03
-0.2350747063496E-02  0.1005920407573E-01  0.0000000000000E+00  0.1662879161701E-03
-0.2194967328601E-02  0.9562012683614E-02  0.0000000000000E+00  0.4737145667812E-03
-0.2033173936639E-02  0.9088304783320E-02  0.0000000000000E+00  0.8254790766244E-03
-0.1863273408824E-02  0.8639977951284E-02  0.0000000000000E+00  0.1226075634443E-02
-0.1683602391036E-02  0.8216731625562E-02  0.0000000000000E+00  0.1677132323554E-02
-0.1493571842811E-02  0.7815113193610E-02  0.0000000000000E+00  0.2174344774009E-02
-0.1295375815300E-02  0.7428190289558E-02  0.0000000000000E+00  0.2703765666136E-02
-0.1095317814571E-02  0.7044427826439E-02  0.0000000000000E+00  0.3239121123183E-02
-0.9019373662325E-03  0.6640503049819E-02  0.0000000000000E+00  0.3733213146403E-02
-0.7229097926540E-03  0.6159662704867E-02  0.0000000000000E+00  0.4077731887808E-02
-0.5966887047120E-03  0.5483116436561E-02  0.0000000000000E+00  0.3955550198015E-02
-0.8917137122253E-03  0.4545644341756E-02  0.0000000000000E+00  0.2457323298525E-02
-0.3284502133110E-02  0.4070700452653E-02  0.0000000000000E+00 -0.1468736112516E-02
-0.1036900503041E-01  0.5638320956169E-02  0.0000000000000E+00 -0.4042306501707E-02
-0.1677371582750E-02  0.2419508379650E-01  0.0000000000000E+00 -0.1006067545373E-01
-0.4336274533927E-02  0.2488983471726E-01  0.0000000000000E+00 -0.7892523174600E-02
-0.5463011649556E-02  0.2425314520599E-01  0.0000000000000E+00 -0.4831099170362E-02
-0.5569498622046E-02  0.2324179031249E-01  0.0000000000000E+00 -0.3200792191903E-02
-0.5477496105303E-02  0.2240927964881E-01  0.0000000000000E+00 -0.2467919080265E-02
-0.5363909176611E-02  0.2172132229934E-01  0.0000000000000E+00 -0.2072459995390E-02
-0.5242797305850E-02  0.2111907981689E-01  0.0000000000000E+00 -0.1848919133655E-02
-0.5122165544629E-02  0.2057250660791E-01  0.0000000000000E+00 -0.1720436617266E-02
-0.5003330978626E-02  0.2006067463632E-01  0.0000000000000E+00 -0.1645087304654E-02
-0.4885936596881E-02  0.1957088467170E-01  0.0000000000000E+00 -0.1600573466625E-02
-0.4769514319437E-02  0.1909526833831E-01  0.0000000000000E+00 -0.1573050945543E-02
-0.4653533455801E-02  0.1862919559763E-01  0.0000000000000E+00 -0.1553216543967E-02
-0.4537434408446E-02  0.1817024901009E-01  0.0000000000000E+00 -0.1533505805343E-02
-0.4420031526915E-02  0.1771733274208E-01  0.0000000000000E+00 -0.1505782669842E-02
-0.4297936980807E-02  0.1726860358302E-01  0.0000000000000E+00 -0.1460414455892E-02
-0.4165993465526E-02  0.1681863043931E-01  0.0000000000000E+00 -0.1391804159019E-02
-0.4023764454220E-02  0.1635969342976E-01  0.0000000000000E+00 -0.1303138932295E-02
-0.3879333868353E-02  0.1588589826959E-01  0.0000000000000E+00 -0.1196831299658E-02
-0.3740822899337E-02  0.1539252831993E-01  0.0000000000000E+00 -0.1067826160309E-02
-0.3608299979602E-02  0.1487556547367E-01  0.0000000000000E+00 -0.9135498862148E-03
-0.3476980492440E-02  0.1433506525726E-01  0.0000000000000E+00 -0.7397972942962E-03
-0.3342910507322E-02  0.1377582626421E-01  0.0000000000000E+00 -0.5549523363685E-03
-0.3204446822116E-02  0.1320507394465E-01  0.0000000000000E+00 -0.3643510228016E-03
-0.3061484434632E-02  0.1263035951465E-01  0.0000000000000E+00 -0.1690680811485E-03
-0.2914677050291E-02  0.1205863320964E-01  0.0000000000000E+00  0.3303023865786E-04
-0.2765303186428E-02  0.1149633401915E-01  0.0000000000000E+00  0.2460389137792E-03
-0.2615130727557E-02  0.1094997677327E-01  0.0000000000000E+00  0.4761954041330E-03
-0.2465233319121E-02  0.1042609587535E-01  0.0000000000000E+00  0.7319890264775E-03
-0.2314963477626E-02  0.9930818399020E-02  0.0000000000000E+00  0.1022207444898E-02
-0.2162690970104E-02  0.9469957295193E-02  0.0000000000000E+00  0.1354843702208E-02
-0.2006789996514E-02  0.9048491533461E-02  0.0000000000000E+00  0.1737799578668E-02
-0.1845628253660E-02  0.8669164809829E-02  0.0000000000000E+00  0.2178120474983E-02
-0.1677793999285E-02  0.8331381022324E-02  0.0000000000000E+00  0.2678823161111E-02
-0.1503936456573E-02  0.8030953407947E-02  0.0000000000000E+00  0.3234744155321E-02
-0.1328652495886E-02  0.7760423741212E-02  0.0000000000000E+00  0.3831940226326E-02
-0.1156051847370E-02  0.7502416380760E-02  0.0000000000000E+00  0.4447053781250E-02
-0.9813279022457E-03  0.7207423588585E-02  0.0000000000000E+00  0.5021593059621E-02
-0.7737759152184E-03  0.6737896071500E-02  0.0000000000000E+00  0.5375998702561E-02
-0.6510350808835E-03  0.5796159639208E-02  0.0000000000000E+00  0.4606181878313E-02
-0.2457221726784E-02  0.4830941478637E-02  0.0000000000000E+00  0.3672746298877E-03
-0.1102340116582E-01  0.6483494511405E-02  0.0000000000000E+00 -0.4136427688318E-02
-0.2226154952912E-02  0.2621844608163E-01  0.0000000000000E+00 -0.1078354826291E-01
-0.5281927729607E-02  0.2647875274312E-01  0.0000000000000E+00 -0.6983418978954E-02
-0.6021794785294E-02  0.2511032299015E-01  0.0000000000000E+00 -0.3471609678557E-02
-0.5845855911788E-02  0.2386254592758E-01  0.0000000000000E+00 -0.2251171830900E-02
-0.5686979778108E-02  0.2299714178932E-01  0.0000000000000E+00 -0.1744740812947E-02
-0.5542046683302E-02  0.2229212168949E-01  0.0000000000000E+00 -0.1460539893949E-02
-0.5403745554376E-02  0.2168540513530E-01  0.0000000000000E+00 -0.1310123825163E-02
-0.5274373289020E-02  0.2113588522309E-01  0.0000000000000E+00 -0.1223920584500E-02
-0.5149853792010E-02  0.2062066470907E-01  0.0000000000000E+00 -0.1174998857955E-02
-0.5028659699520E-02  0.2012630475562E-01  0.0000000000000E+00 -0.1146878969963E-02
-0.4909431284923E-02  0.1964492597959E-01  0.0000000000000E+00 -0.1130010019990E-02
-0.4791407224017E-02  0.1917221481809E-01  0.0000000000000E+00 -0.1117781335990E-02
-0.4674123317666E-02  0.1870636979497E-01  0.0000000000000E+00 -0.1104695425747E-02
-0.4557102169693E-02  0.1824766179068E-01  0.0000000000000E+00 -0.1084122215071E-02
-0.4437878134542E-02  0.1779699927745E-01  0.0000000000000E+00 -0.1045155713963E-02
-0.4310863115941E-02  0.1735151048419E-01  0.0000000000000E+00 -0.9763409041292E-03
-0.4173885389671E-02  0.1690154262042E-01  0.0000000000000E+00 -0.8744174390615E-03
-0.4033526155993E-02  0.1643371131515E-01  0.0000000000000E+00 -0.7397290857764E-03
-0.3896366689657E-02  0.1593599382673E-01  0.0000000000000E+00 -0.5714480456399E-03
-0.3761094153661E-02  0.1540289918582E-01  0.0000000000000E+00 -0.3763090265809E-03
-0.3623275779107E-02  0.1483807354728E-01  0.0000000000000E+00 -0.1685300566044E-03
-0.3480690535732E-02  0.1425093070244E-01  0.0000000000000E+00  0.4012785446983E-04
-0.3333397476745E-02  0.1365213101278E-01  0.0000000000000E+00  0.2444896645046E-03
-0.3182466249658E-02  0.1305139316407E-01  0.0000000000000E+00  0.4449388933278E-03
-0.3029198490067E-02  0.1245694513496E-01  0.0000000000000E+00  0.6452390019749E-03
-0.2875224148322E-02  0.1187588668299E-01  0.0000000000000E+00  0.8504718720431E-03
-0.2722794480188E-02  0.1131527507326E-01  0.0000000000000E+00  0.1066830719579E-02
-0.2573709496123E-02  0.1078299071845E-01  0.0000000000000E+00  0.1302334502390E-02
-0.2428145007451E-02  0.1028788854090E-01  0.0000000000000E+00  0.1565749254425E-02
-0.2285459682401E-02  0.9839474503121E-02  0.0000000000000E+00  0.1866415771637E-02
-0.2145068254197E-02  0.9446660584539E-02  0.0000000000000E+00  0.2215714674637E-02
-0.2005957627437E-02  0.9116200428158E-02  0.0000000000000E+00  0.2626330792078E-02
-0.1866633736978E-02  0.8851670452516E-02  0.0000000000000E+00  0.3108940103061E-02
-0.1726581662546E-02  0.8653120554762E-02  0.0000000000000E+00  0.3667977780655E-02
-0.1590710819278E-02  0.8518756442500E-02  0.0000000000000E+00  0.4298390696098E-02
-0.1462955944553E-02  0.8445055610341E-02  0.0000000000000E+00  0.4999409669521E-02
-0.1336282631072E-02  0.8403757889327E-02  0.0000000000000E+00  0.5752118496405E-02
-0.1173021386641E-02  0.8319768476377E-02  0.0000000000000E+00  0.6543911808602E-02
-0.7398298549872E-03  0.7751690072647E-02  0.0000000000000E+00  0.6988474751149E-02
-0.1448555570131E-02  0.6334178928279E-02  0.0000000000000E+00  0.3471674580882E-02
-0.1177655658430E-01  0.7887152854080E-02  0.0000000000000E+00 -0.3724894121257E-02
-0.3086258861878E-02  0.2906486998995E-01  0.0000000000000E+00 -0.1130766353120E-01
-0.6440538134330E-02  0.2795866176285E-01  0.0000000000000E+00 -0.4871328980599E-02
-0.6407871130780E-02  0.2562514128930E-01  0.0000000000000E+00 -0.1803209203182E-02
-0.6035653167820E-02  0.2439383950372E-01  0.0000000000000E+00 -0.1346901918173E-02
-0.5867571503199E-02  0.2352606194119E-01  0.0000000000000E+00 -0.1006058874247E-02
-0.5696797583131E-02  0.2283148112658E-01  0.0000000000000E+00 -0.8582812952440E-03
-0.5553208660350E-02  0.2223328566926E-01  0.0000000000000E+00 -0.7743581523998E-03
-0.5419126137637E-02  0.2168825035665E-01  0.0000000000000E+00 -0.7287859423573E-03
-0.5292001911745E-02  0.2117397825816E-01  0.0000000000000E+00 -0.7034762751784E-03
-0.5168619979085E-02  0.2067756168186E-01  0.0000000000000E+00 -0.6896195736302E-03
-0.5047505044029E-02  0.2019178733937E-01  0.0000000000000E+00 -0.6817056473956E-03
-0.4927806655096E-02  0.1971297933606E-01  0.0000000000000E+00 -0.6759666564074E-03
-0.4809223268400E-02  0.1924006626626E-01  0.0000000000000E+00 -0.6690988607835E-03
-0.4692019770723E-02  0.1877450841384E-01  0.0000000000000E+00 -0.6570569806443E-03
-0.4575613926996E-02  0.1832083943587E-01  0.0000000000000E+00 -0.6301820273142E-03
-0.4455875241637E-02  0.1788294519570E-01  0.0000000000000E+00 -0.5698373001880E-03
-0.4329110953945E-02  0.1745119572441E-01  0.0000000000000E+00 -0.4573902880102E-03
-0.4197462487237E-02  0.1699793918566E-01  0.0000000000000E+00 -0.2851977967332E-03
-0.4062978565891E-02  0.1649748172685E-01  0.0000000000000E+00 -0.6287075419831E-04
-0.3923070806989E-02  0.1594450979938E-01  0.0000000000000E+00  0.1844265043702E-03
-0.3775606226059E-02  0.1535013278344E-01  0.0000000000000E+00  0.4315534342947E-03
-0.3621445260275E-02  0.1473026690679E-01  0.0000000000000E+00  0.6650507823177E-03
-0.3462757620158E-02  0.1409947209167E-01  0.0000000000000E+00  0.8816633581901E-03
-0.3301829744317E-02  0.1346958704115E-01  0.0000000000000E+00  0.1084288271036E-02
-0.3140539580829E-02  0.1285002995250E-01  0.0000000000000E+00  0.1278999916861E-02
-0.2980601733660E-02  0.1224828076959E-01  0.0000000000000E+00  0.1472501333166E-02
-0.2824336139532E-02  0.1167105869877E-01  0.0000000000000E+00  0.1670627245608E-02
-0.2674209353876E-02  0.1112716747901E-01  0.0000000000000E+00  0.1879088942298E-02
-0.2531748524133E-02  0.1062925733764E-01  0.0000000000000E+00  0.2104997992421E-02
-0.2398000076139E-02  0.1019180831987E-01  0.0000000000000E+00  0.2358883982890E-02
-0.2273964801800E-02  0.9828355128953E-02  0.0000000000000E+00  0.2655832452848E-02
-0.2159903528689E-02  0.9550584983565E-02  0.0000000000000E+00  0.3013905021186E-02
-0.2054952512694E-02  0.9367807618326E-02  0.0000000000000E+00  0.3451550497739E-02
-0.1958608428579E-02  0.9285985348541E-02  0.0000000000000E+00  0.3983156032394E-02
-0.1873649616210E-02  0.9308982212734E-02  0.0000000000000E+00  0.4612567945439E-02
-0.1816162745312E-02  0.9448991564609E-02  0.0000000000000E+00  0.5334631542631E-02
-0.1766713794373E-02  0.9727330146033E-02  0.0000000000000E+00  0.6191837192728E-02
-0.1780846757383E-02  0.1015668992521E-01  0.0000000000000E+00  0.7144395498608E-02
-0.1476411517083E-02  0.1064500221579E-01  0.0000000000000E+00  0.8897763956823E-02
-0.6065536391922E-03  0.9530754943643E-02  0.0000000000000E+00  0.8273459246458E-02
-0.1271948122004E-01  0.1093455291729E-01  0.0000000000000E+00 -0.1349078670890E-02
-0.4440744815352E-02  0.3381940277894E-01  0.0000000000000E+00 -0.1048521872489E-01
-0.7624011042857E-02  0.2811099037454E-01  0.0000000000000E+00 -0.3708727312882E-03
-0.6370764650479E-02  0.2593286583216E-01  0.0000000000000E+00 -0.6643995346634E-03
-0.6225161294279E-02  0.2482225408244E-01  0.0000000000000E+00 -0.3877700766443E-03
-0.5994490906451E-02  0.2399984973276E-01  0.0000000000000E+00 -0.3159025850642E-03
-0.5836279528481E-02  0.2334262015614E-01  0.0000000000000E+00 -0.2726974021363E-03
-0.5690752250966E-02  0.2276479432594E-01  0.0000000000000E+00 -0.2508921415911E-03
-0.5557795657300E-02  0.2223127882246E-01  0.0000000000000E+00 -0.2391717556969E-03
-0.5430424975574E-02  0.2172183596233E-01  0.0000000000000E+00 -0.2331515223309E-03
-0.5306408119429E-02  0.2122557923693E-01  0.0000000000000E+00 -0.2302197014464E-03
-0.5184149179910E-02  0.2073653309347E-01  0.0000000000000E+00 -0.2288128167424E-03
-0.5062991537000E-02  0.2025194836488E-01  0.0000000000000E+00 -0.2278156276094E-03
-0.4942848529258E-02  0.1977153713322E-01  0.0000000000000E+00 -0.2261943334583E-03
-0.4824295320940E-02  0.1929760854988E-01  0.0000000000000E+00 -0.2225968195362E-03
-0.4708912430362E-02  0.1883705203424E-01  0.0000000000000E+00 -0.2139856497258E-03
-0.4598417568093E-02  0.1840808509196E-01  0.0000000000000E+00 -0.1788504635146E-03
-0.4490254527039E-02  0.1800995047590E-01  0.0000000000000E+00 -0.6423678614720E-04
-0.4375181907614E-02  0.1758522402454E-01  0.0000000000000E+00  0.1615425924842E-03
-0.4244247378932E-02  0.1708196720903E-01  0.0000000000000E+00  0.4610247099809E-03
-0.4095930718068E-02  0.1650264168671E-01  0.0000000000000E+00  0.7740550400375E-03
-0.3934358353965E-02  0.1587169036191E-01  0.0000000000000E+00  0.1065452516217E-02
-0.3764830717254E-02  0.1521333563336E-01  0.0000000000000E+00  0.1323771684388E-02
-0.3591806889795E-02  0.1454611020352E-01  0.0000000000000E+00  0.1550180394084E-02
-0.3418616979707E-02  0.1388365137077E-01  0.0000000000000E+00  0.1751253449791E-02
-0.3247669051563E-02  0.1323639492402E-01  0.0000000000000E+00  0.1935777230431E-02
-0.3080538653762E-02  0.1261231854522E-01  0.0000000000000E+00  0.2113396427689E-02
-0.2918600538966E-02  0.1201597689088E-01  0.0000000000000E+00  0.2290086377559E-02
-0.2764586290136E-02  0.1145565044772E-01  0.0000000000000E+00  0.2465284747197E-02
-0.2622569435089E-02  0.1095034663726E-01  0.0000000000000E+00  0.2641479177114E-02
-0.2496296520053E-02  0.1052127410446E-01  0.0000000000000E+00  0.2831651595764E-02
-0.2388629136575E-02  0.1018652877958E-01  0.0000000000000E+00  0.3054976314633E-02
-0.2301634422904E-02  0.9963680629807E-02  0.0000000000000E+00  0.3333733997201E-02
-0.2236457764112E-02  0.9869684658202E-02  0.0000000000000E+00  0.3693453752147E-02
-0.2192733437248E-02  0.9918608804711E-02  0.0000000000000E+00  0.4160253184097E-02
-0.2172767740613E-02  0.1011932566852E-01  0.0000000000000E+00  0.4747361471235E-02
-0.2183327462812E-02  0.1048624339297E-01  0.0000000000000E+00  0.5429926369265E-02
-0.2288120599945E-02  0.1112101126430E-01  0.0000000000000E+00  0.6183841921541E-02
-0.2373578292308E-02  0.1217460603938E-01  0.0000000000000E+00  0.7194452548489E-02
-0.3152893256729E-02  0.1404343274422E-01  0.0000000000000E+00  0.8436428369174E-02
-0.8821256161076E-03  0.1646260720036E-01  0.0000000000000E+00  0.1398478768941E-01
-0.1554846669762E-01  0.1935721029801E-01  0.0000000000000E+00  0.6968832644443E-02
 0.1429867886943E-01 -0.4913908644335E-01  0.0000000000000E+00 -0.5849997406835E+00
 0.2420257854785E-01 -0.5816560194861E-01  0.0000000000000E+00 -0.6205643639989E+00
 0.3796597703099E-01 -0.7068829576042E-01  0.0000000000000E+00 -0.6427867466119E+00
 0.5212336358682E-01 -0.8334620202995E-01  0.0000000000000E+00 -0.6527012079644E+00
 0.6445126452172E-01 -0.9404139739429E-01  0.0000000000000E+00 -0.6528575690993E+00
 0.7376705057264E-01 -0.1016729050603E+00  0.0000000000000E+00 -0.6459821531538E+00
 0.7959604138463E-01 -0.1058297189428E+00  0.0000000000000E+00 -0.6344907615768E+00
 0.8193655973217E-01 -0.1065564873239E+00  0.0000000000000E+00 -0.6202667717015E+00
 0.8107619292545E-01 -0.1041731959941E+00  0.0000000000000E+00 -0.6045584796094E+00
 0.7745184681518E-01 -0.9913648897026E-01  0.0000000000000E+00 -0.5879758941466E+00
 0.7154668541733E-01 -0.9193758892146E-01  0.0000000000000E+00 -0.5705822887726E+00
 0.6382011535167E-01 -0.8303350970645E-01  0.0000000000000E+00 -0.5520786012405E+00
 0.5468535387598E-01 -0.7283545078298E-01  0.0000000000000E+00 -0.5320464641115E+00
 0.4453547209149E-01 -0.6171803062101E-01  0.0000000000000E+00 -0.5101602090754E+00
 0.3375620386547E-01 -0.5004357910706E-01  0.0000000000000E+00 -0.4861906605133E+00
 0.2273395388687E-01 -0.3817709903709E-01  0.0000000000000E+00 -0.4600182917048E+00
 0.1185088246699E-01 -0.2647145798728E-01  0.0000000000000E+00 -0.4315885812627E+00
 0.1442140226072E-02 -0.1528065303393E-01  0.0000000000000E+00 -0.4010425608673E+00
-0.7986551380128E-02 -0.4988710080762E-02  0.0000000000000E+00 -0.3682399152085E+00
-0.1804072505086E-01  0.4622230508228E-02  0.0000000000000E+00 -0.3297439261945E+00
 0.1335621210459E-01 -0.4704873085279E-01  0.0000000000000E+00 -0.5838153215787E+00
 0.2215013557108E-01 -0.5511225402622E-01  0.0000000000000E+00 -0.6179979111137E+00
 0.3473558338048E-01 -0.6657189691940E-01  0.0000000000000E+00 -0.6405534878062E+00
 0.4792770931533E-01 -0.7840055056458E-01  0.0000000000000E+00 -0.6520128984231E+00
 0.5963300850027E-01 -0.8860177653054E-01  0.0000000000000E+00 -0.6542779601121E+00
 0.6864844552330E-01 -0.9605414630311E-01  0.0000000000000E+00 -0.6496334115534E+00
 0.7443340220902E-01 -0.1002772984605E+00  0.0000000000000E+00 -0.6402045539972E+00
 0.7690332602248E-01 -0.1012323148901E+00  0.0000000000000E+00 -0.6277114581033E+00
 0.7626756594353E-01 -0.9916093846078E-01  0.0000000000000E+00 -0.6133383988882E+00
 0.7289921806164E-01 -0.9445677801632E-01  0.0000000000000E+00 -0.5977011497223E+00
 0.6723680245566E-01 -0.8756756368189E-01  0.0000000000000E+00 -0.5809071063822E+00
 0.5971177353717E-01 -0.7892598345280E-01  0.0000000000000E+00 -0.5627048330165E+00
 0.5072094180918E-01 -0.6892170867893E-01  0.0000000000000E+00 -0.5427337192443E+00
 0.4065592660811E-01 -0.5793087156937E-01  0.0000000000000E+00 -0.5207196835668E+00
 0.2991459170657E-01 -0.4633074371277E-01  0.0000000000000E+00 -0.4964611242678E+00
 0.1890571720674E-01 -0.3450635591508E-01  0.0000000000000E+00 -0.4698453875122E+00
 0.8020986837053E-02 -0.2283892935441E-01  0.0000000000000E+00 -0.4407922260899E+00
-0.2341463331867E-02 -0.1170046331796E-01  0.0000000000000E+00 -0.4091552220556E+00
-0.1249772183698E-01 -0.1054936000961E-02  0.0000000000000E+00 -0.3737385020594E+00
-0.2289374385419E-01  0.9982825073796E-02  0.0000000000000E+00 -0.3372954093059E+00
 0.1254697885968E-01 -0.4520754168023E-01  0.0000000000000E+00 -0.5827838242138E+00
 0.2041645387016E-01 -0.5242465619317E-01  0.0000000000000E+00 -0.6155737835841E+00
 0.3194176283175E-01 -0.6293957910771E-01  0.0000000000000E+00 -0.6383963129438E+00
 0.4423779834050E-01 -0.7398866511309E-01  0.0000000000000E+00 -0.6512055335235E+00
 0.5532118411296E-01 -0.8368686686535E-01  0.0000000000000E+00 -0.6554048452045E+00
 0.6399694285785E-01 -0.9091252935882E-01  0.0000000000000E+00 -0.6528631396783E+00
 0.6967508161362E-01 -0.9513389951024E-01  0.0000000000000E+00 -0.6454259768304E+00
 0.7220326481190E-01 -0.9624267162650E-01  0.0000000000000E+00 -0.6346445132046E+00
 0.7172224080063E-01 -0.9441165363350E-01  0.0000000000000E+00 -0.6216263752649E+00
 0.6854671585538E-01 -0.8997637320964E-01  0.0000000000000E+00 -0.6069778189759E+00
 0.6307077391187E-01 -0.8334140056245E-01  0.0000000000000E+00 -0.5908359311424E+00
 0.5569724007362E-01 -0.7491078198279E-01  0.0000000000000E+00 -0.5730014815427E+00
 0.4681113649642E-01 -0.6506245914276E-01  0.0000000000000E+00 -0.5531666929450E+00
 0.3680274975018E-01 -0.5417196566367E-01  0.0000000000000E+00 -0.5310896633589E+00
 0.2607826211538E-01 -0.4262594260911E-01  0.0000000000000E+00 -0.5065898573859E+00
 0.1505310200478E-01 -0.3082178377756E-01  0.0000000000000E+00 -0.4795447477665E+00
 0.4125504496223E-02 -0.1914178773600E-01  0.0000000000000E+00 -0.4498031295963E+00
-0.6498291950852E-02 -0.7841297680002E-02  0.0000000000000E+00 -0.4169735458643E+00
-0.1703504239428E-01  0.3337352082767E-02  0.0000000000000E+00 -0.3812402744629E+00
-0.2710963848847E-01  0.1415217718453E-01  0.0000000000000E+00 -0.3455191819311E+00
 0.1183834570887E-01 -0.4354157632694E-01  0.0000000000000E+00 -0.5819087639694E+00
 0.1896052292837E-01 -0.5007544825136E-01  0.0000000000000E+00 -0.6133463929349E+00
 0.2954870865372E-01 -0.5974663715376E-01  0.0000000000000E+00 -0.6363197878475E+00
 0.4101132730018E-01 -0.7006873757424E-01  0.0000000000000E+00 -0.6503237590196E+00
 0.5148337809246E-01 -0.7926356188474E-01  0.0000000000000E+00 -0.6562968578600E+00
 0.5978915177286E-01 -0.8622496052994E-01  0.0000000000000E+00 -0.6557369663791E+00
 0.6530696998213E-01 -0.9038581096603E-01  0.0000000000000E+00 -0.6502189843815E+00
 0.6782965327937E-01 -0.9158133569366E-01  0.0000000000000E+00 -0.6411231627822E+00
 0.6743878976017E-01 -0.8992436799768E-01  0.0000000000000E+00 -0.6294705291155E+00
 0.6439579027049E-01 -0.8569717583768E-01  0.0000000000000E+00 -0.6158454057121E+00
 0.5905254556594E-01 -0.7926242420305E-01  0.0000000000000E+00 -0.6004065501559E+00
 0.5178482219822E-01 -0.7099733974943E-01  0.0000000000000E+00 -0.5830009069319E+00
 0.4296634742958E-01 -0.6126875881313E-01  0.0000000000000E+00 -0.5633654475816E+00
 0.3298537675344E-01 -0.5045087960381E-01  0.0000000000000E+00 -0.5412827062374E+00
 0.2224996355520E-01 -0.3893441194378E-01  0.0000000000000E+00 -0.5165820930755E+00
 0.1117466343555E-01 -0.2711670494899E-01  0.0000000000000E+00 -0.4891243792922E+00
 0.1106429818769E-03 -0.1534763824202E-01  0.0000000000000E+00 -0.4587063955141E+00
-0.1076486404821E-01 -0.3796469590211E-02  0.0000000000000E+00 -0.4252356853072E+00
-0.2142413357423E-01  0.7547495712300E-02  0.0000000000000E+00 -0.3893669237296E+00
-0.3117070940772E-01  0.1806800689359E-01  0.0000000000000E+00 -0.3534255039486E+00
 0.1121104412267E-01 -0.4202208152619E-01  0.0000000000000E+00 -0.5811320754252E+00
 0.1774180349338E-01 -0.4801573757162E-01  0.0000000000000E+00 -0.6112977878628E+00
 0.2751566603220E-01 -0.5695232949568E-01  0.0000000000000E+00 -0.6343397291058E+00
 0.3821103488991E-01 -0.6660111393941E-01  0.0000000000000E+00 -0.6493972305838E+00
 0.4808761942679E-01 -0.7529959684536E-01  0.0000000000000E+00 -0.6570028562458E+00
 0.5600195046138E-01 -0.8196817153035E-01  0.0000000000000E+00 -0.6583108241600E+00
 0.6131420101487E-01 -0.8601838381512E-01  0.0000000000000E+00 -0.6546396776877E+00
 0.6377469645139E-01 -0.8724081171240E-01  0.0000000000000E+00 -0.6471985701050E+00
 0.6341463227349E-01 -0.8569682407637E-01  0.0000000000000E+00 -0.6369149177536E+00
 0.6044765324747E-01 -0.8162048089933E-01  0.0000000000000E+00 -0.6243418864511E+00
 0.5518667867988E-01 -0.7533543829173E-01  0.0000000000000E+00 -0.6096516256217E+00
 0.4798190003290E-01 -0.6719344095567E-01  0.0000000000000E+00 -0.5927292053749E+00
 0.3919544161122E-01 -0.5754997908097E-01  0.0000000000000E+00 -0.5733486905552E+00
 0.2921115256551E-01 -0.4677579676846E-01  0.0000000000000E+00 -0.5513109095862E+00
 0.1843431976177E-01 -0.3525994040738E-01  0.0000000000000E+00 -0.5264510137327E+00
 0.7264900445438E-02 -0.2338871905901E-01  0.0000000000000E+00 -0.4986219569327E+00
-0.3965551878334E-02 -0.1148209218015E-01  0.0000000000000E+00 -0.4676981381994E+00
-0.1503276774883E-01  0.2552669390151E-03  0.0000000000000E+00 -0.4338011314478E+00
-0.2572284966260E-01  0.1164460171695E-01  0.0000000000000E+00 -0.3976868429729E+00
-0.3522751163155E-01  0.2192864990624E-01  0.0000000000000E+00 -0.3611334624790E+00
 0.1065245184391E-01 -0.4062828711317E-01  0.0000000000000E+00 -0.5804050858798E+00
 0.1672925731130E-01 -0.4620916984963E-01  0.0000000000000E+00 -0.6093956445519E+00
 0.2580490119634E-01 -0.5451565434043E-01  0.0000000000000E+00 -0.6324554582508E+00
 0.3580117574736E-01 -0.6354880849081E-01  0.0000000000000E+00 -0.6484496227170E+00
 0.4510376825326E-01 -0.7176386492322E-01  0.0000000000000E+00 -0.6575615256722E+00
 0.5261243801808E-01 -0.7811900317047E-01  0.0000000000000E+00 -0.6606321515225E+00
 0.5768152998535E-01 -0.8201635165603E-01  0.0000000000000E+00 -0.6587368074464E+00
 0.6002979440169E-01 -0.8321263988783E-01  0.0000000000000E+00 -0.6529162085942E+00
 0.5964649959473E-01 -0.8172589453295E-01  0.0000000000000E+00 -0.6439995997478E+00
 0.5670323250927E-01 -0.7774736318636E-01  0.0000000000000E+00 -0.6325015483417E+00
 0.5147743825146E-01 -0.7156491086552E-01  0.0000000000000E+00 -0.6185995960963E+00
 0.4429515629400E-01 -0.6350609000953E-01  0.0000000000000E+00 -0.6022087624422E+00
 0.3550607869456E-01 -0.5391424118618E-01  0.0000000000000E+00 -0.5831331764253E+00
 0.2548733125684E-01 -0.4315405882313E-01  0.0000000000000E+00 -0.5611886896988E+00
 0.1463669075066E-01 -0.3160830560229E-01  0.0000000000000E+00 -0.5362182259241E+00
 0.3343275629184E-02 -0.1965083841063E-01  0.0000000000000E+00 -0.5081007270218E+00
-0.8055413557514E-02 -0.7602333338093E-02  0.0000000000000E+00 -0.4767990297929E+00
-0.1927382417480E-01  0.4275101672787E-02  0.0000000000000E+00 -0.4425490139560E+00
-0.2997358163492E-01  0.1567238340255E-01  0.0000000000000E+00 -0.4060749867431E+00
-0.3932606108516E-01  0.2580054887152E-01  0.0000000000000E+00 -0.3687329233779E+00
 0.1015336990229E-01 -0.3934455224654E-01  0.0000000000000E+00 -0.5796841029046E+00
 0.1589823044575E-01 -0.4462610759212E-01  0.0000000000000E+00 -0.6076046610035E+00
 0.2438356359075E-01 -0.5240063256342E-01  0.0000000000000E+00 -0.6306574704465E+00
 0.3374863277339E-01 -0.6087685179087E-01  0.0000000000000E+00 -0.6474954642165E+00
 0.4250312734061E-01 -0.6862669956849E-01  0.0000000000000E+00 -0.6580037049538E+00
 0.4959833546437E-01 -0.7465464715631E-01  0.0000000000000E+00 -0.6627404226979E+00
 0.5439352728437E-01 -0.7836410218531E-01  0.0000000000000E+00 -0.6625523726577E+00
 0.5658584190077E-01 -0.7948768874930E-01  0.0000000000000E+00 -0.6583160739693E+00
 0.5613060280690E-01 -0.7800784296484E-01  0.0000000000000E+00 -0.6507601944976E+00
 0.5316303169935E-01 -0.7407842386018E-01  0.0000000000000E+00 -0.6403546967230E+00
 0.4792863684593E-01 -0.6795481937371E-01  0.0000000000000E+00 -0.6272751812889E+00
 0.4073063564485E-01 -0.5994158748048E-01  0.0000000000000E+00 -0.6114589960455E+00
 0.3190549593022E-01 -0.5036899651521E-01  0.0000000000000E+00 -0.5927346718304E+00
 0.2182158466174E-01 -0.3959350120287E-01  0.0000000000000E+00 -0.5709322322996E+00
 0.1086879364361E-01 -0.2798993605090E-01  0.0000000000000E+00 -0.5459109778949E+00
-0.5671361829904E-03 -0.1592713034151E-01  0.0000000000000E+00 -0.5175871426389E+00
-0.1213078745579E-01 -0.3740880663962E-02  0.0000000000000E+00 -0.4859922060890E+00
-0.2348136175358E-01  0.8251739657080E-02  0.0000000000000E+00 -0.4514113269377E+00
-0.3420042839472E-01  0.1965820553603E-01  0.0000000000000E+00 -0.4144972470694E+00
-0.4347767301848E-01  0.2970222018368E-01  0.0000000000000E+00 -0.3762960140485E+00
 0.9706799426949E-02 -0.3815827247342E-01  0.0000000000000E+00 -0.5789303704323E+00
 0.1522879609758E-01 -0.4324215539347E-01  0.0000000000000E+00 -0.6058899914032E+00
 0.2322329029836E-01 -0.5057575346193E-01  0.0000000000000E+00 -0.6289313644853E+00
 0.3202332691178E-01 -0.5855317110831E-01  0.0000000000000E+00 -0.6465421017943E+00
 0.4025866921851E-01 -0.6585987054423E-01  0.0000000000000E+00 -0.6583527613121E+00
 0.4693806144514E-01 -0.7155284543610E-01  0.0000000000000E+00 -0.6646681009950E+00
 0.5143479919667E-01 -0.7504588538717E-01  0.0000000000000E+00 -0.6661220414050E+00
 0.5343339230618E-01 -0.7605635759939E-01  0.0000000000000E+00 -0.6634328145168E+00
 0.5286270140638E-01 -0.7453838721264E-01  0.0000000000000E+00 -0.6572277847055E+00
 0.4982709093060E-01 -0.7061373921615E-01  0.0000000000000E+00 -0.6479276712215E+00
 0.4454360092606E-01 -0.6450859872051E-01  0.0000000000000E+00 -0.6356996922580E+00
 0.3729396880476E-01 -0.5650571282115E-01  0.0000000000000E+00 -0.6204968875923E+00
 0.2840090967883E-01 -0.4692159993545E-01  0.0000000000000E+00 -0.6021678902562E+00
 0.1822330598037E-01 -0.3610332835325E-01  0.0000000000000E+00 -0.5805580174892E+00
 0.7144864278754E-02 -0.2441913255856E-01  0.0000000000000E+00 -0.5555475098210E+00
-0.4446585386862E-02 -0.1223867884229E-01  0.0000000000000E+00 -0.5270883271226E+00
-0.1617451282887E-01  0.8234147515318E-04  0.0000000000000E+00 -0.4952576615049E+00
-0.2765369834302E-01  0.1218204421524E-01  0.0000000000000E+00 -0.4603538665842E+00
-0.3841476844840E-01  0.2361513610993E-01  0.0000000000000E+00 -0.4229523737912E+00
-0.4767974822813E-01  0.3363446570695E-01  0.0000000000000E+00 -0.3838745295384E+00
 0.9307229199444E-02 -0.3705892810929E-01  0.0000000000000E+00 -0.5781091165287E+00
 0.1470453806292E-01 -0.4203677245615E-01  0.0000000000000E+00 -0.6042185092279E+00
 0.2229955306303E-01 -0.4901342873188E-01  0.0000000000000E+00 -0.6272601583399E+00
 0.3059812034521E-01 -0.5654852991629E-01  0.0000000000000E+00 -0.6455914682887E+00
 0.3834513835038E-01 -0.6343676816216E-01  0.0000000000000E+00 -0.6586256438231E+00
 0.4461084266873E-01 -0.6879198649503E-01  0.0000000000000E+00 -0.6664412618221E+00
 0.4879009957417E-01 -0.7204596083625E-01  0.0000000000000E+00 -0.6694756139916E+00
 0.5056276316589E-01 -0.7290868964552E-01  0.0000000000000E+00 -0.6682959072834E+00
 0.4983814568432E-01 -0.7131274553970E-01  0.0000000000000E+00 -0.6634289798871E+00
 0.4669498854724E-01 -0.6735285295609E-01  0.0000000000000E+00 -0.6552429541723E+00
 0.4132522595525E-01 -0.6122917948180E-01  0.0000000000000E+00 -0.6438912670139E+00
 0.3399054211143E-01 -0.5320392630639E-01  0.0000000000000E+00 -0.6293370800128E+00
 0.2499989917622E-01 -0.4357965291573E-01  0.0000000000000E+00 -0.6114459468736E+00
 0.1470293129629E-01 -0.3269401735705E-01  0.0000000000000E+00 -0.5900789888788E+00
 0.3479055886530E-02 -0.2091047233135E-01  0.0000000000000E+00 -0.5651377157195E+00
-0.8278999080705E-02 -0.8602776413439E-02  0.0000000000000E+00 -0.5366031880041E+00
-0.2017471651337E-01  0.3853927155130E-02  0.0000000000000E+00 -0.5045801641674E+00
-0.3178891796749E-01  0.1606342856231E-01  0.0000000000000E+00 -0.4693616280805E+00
-0.4261998533921E-01  0.2754743674380E-01  0.0000000000000E+00 -0.4314511555612E+00
-0.5192450076649E-01  0.3759113673548E-01  0.0000000000000E+00 -0.3915064163822E+00
 0.8950206877740E-02 -0.3603748818472E-01  0.0000000000000E+00 -0.5771888634651E+00
 0.1431169846024E-01 -0.4099234528548E-01  0.0000000000000E+00 -0.6025592030234E+00
 0.2159099825250E-01 -0.4768932730143E-01  0.0000000000000E+00 -0.6256256367264E+00
 0.2944853513854E-01 -0.5483629972253E-01  0.0000000000000E+00 -0.6446415008352E+00
 0.3673901358927E-01 -0.6133239591719E-01  0.0000000000000E+00 -0.6588339071799E+00
 0.4259676813326E-01 -0.6635118655602E-01  0.0000000000000E+00 -0.6680802555124E+00
 0.4644440511489E-01 -0.6934868382983E-01  0.0000000000000E+00 -0.6726374203794E+00
 0.4796410152971E-01 -0.7003444936932E-01  0.0000000000000E+00 -0.6729298765856E+00
 0.4705191816894E-01 -0.6832567930927E-01  0.0000000000000E+00 -0.6693860282703E+00
 0.4376587643914E-01 -0.6429480686743E-01  0.0000000000000E+00 -0.6623192774260E+00
 0.3827604678342E-01 -0.5811906238135E-01  0.0000000000000E+00 -0.6518649383084E+00
 0.3082563125006E-01 -0.5004150595115E-01  0.0000000000000E+00 -0.6379916983073E+00
 0.2171030932310E-01 -0.4035103057362E-01  0.0000000000000E+00 -0.6205792386376E+00
 0.1127111152363E-01 -0.2937637920561E-01  0.0000000000000E+00 -0.5995037408455E+00
-0.1154678400610E-03 -0.1747762650177E-01  0.0000000000000E+00 -0.5746856837293E+00
-0.1205095827363E-01 -0.5033747711950E-02  0.0000000000000E+00 -0.5461277487768E+00
-0.2412170924349E-01  0.7563256249515E-02  0.0000000000000E+00 -0.5139495193529E+00
-0.3588332864433E-01  0.1989180319302E-01  0.0000000000000E+00 -0.4784298146082E+00
-0.4681437753771E-01  0.3145360561319E-01  0.0000000000000E+00 -0.4400088502013E+00
-0.5620331537477E-01  0.4156440049166E-01  0.0000000000000E+00 -0.3992196491676E+00
 0.8632054006049E-02 -0.3508601985690E-01  0.0000000000000E+00 -0.5761408758853E+00
 0.1403855228233E-01 -0.4009350053386E-01  0.0000000000000E+00 -0.6008832383461E+00
 0.2107886289884E-01 -0.4658178365956E-01  0.0000000000000E+00 -0.6240091545679E+00
 0.2855240468045E-01 -0.5339213218378E-01  0.0000000000000E+00 -0.6436871992585E+00
 0.3541837516009E-01 -0.5952326654909E-01  0.0000000000000E+00 -0.6589846234963E+00
 0.4087677521730E-01 -0.6421029543155E-01  0.0000000000000E+00 -0.6696003473488E+00
 0.4438294575782E-01 -0.6693854994328E-01  0.0000000000000E+00 -0.6756267264119E+00
 0.4562742053519E-01 -0.6742316634001E-01  0.0000000000000E+00 -0.6773545330441E+00
 0.4449866499462E-01 -0.6557152683596E-01  0.0000000000000E+00 -0.6751169601205E+00
 0.4103851491291E-01 -0.6143817631475E-01  0.0000000000000E+00 -0.6691717050340E+00
 0.3539828724097E-01 -0.5518037029917E-01  0.0000000000000E+00 -0.6596326086397E+00
 0.2780439430907E-01 -0.4702356972492E-01  0.0000000000000E+00 -0.6464700160379E+00
 0.1853999511207E-01 -0.3724362478381E-01  0.0000000000000E+00 -0.6295749604530E+00
 0.7938215197271E-02 -0.2616097930887E-01  0.0000000000000E+00 -0.6088368802654E+00
-0.3626637680497E-02 -0.1413311149744E-01  0.0000000000000E+00 -0.5841917561827E+00
-0.1575068259501E-01 -0.1544024399045E-02  0.0000000000000E+00 -0.5556572035446E+00
-0.2800643259542E-01  0.1120066257313E-01  0.0000000000000E+00 -0.5233591496166E+00
-0.3993124583483E-01  0.2366115881762E-01  0.0000000000000E+00 -0.4875586254062E+00
-0.5099238112345E-01  0.3532798776566E-01  0.0000000000000E+00 -0.4486415923349E+00
-0.6050690464832E-01  0.4554487189459E-01  0.0000000000000E+00 -0.4070452440319E+00
 0.8349666272713E-02 -0.3419741201504E-01  0.0000000000000E+00 -0.5749387389839E+00
 0.1387493596607E-01 -0.3932658723676E-01  0.0000000000000E+00 -0.5991638800735E+00
 0.2074647521658E-01 -0.4567128484716E-01  0.0000000000000E+00 -0.6223921215410E+00
 0.2788951783047E-01 -0.5219361352718E-01  0.0000000000000E+00 -0.6427214017409E+00
 0.3436271981833E-01 -0.5798723559489E-01  0.0000000000000E+00 -0.6590811390757E+00
 0.3943258450700E-01 -0.6234984854034E-01  0.0000000000000E+00 -0.6710123000218E+00
 0.4259119942290E-01 -0.6480020157728E-01  0.0000000000000E+00 -0.6784581230932E+00
 0.4354261584961E-01 -0.6506415874669E-01  0.0000000000000E+00 -0.6815852116226E+00
 0.4217271847393E-01 -0.6304422948510E-01  0.0000000000000E+00 -0.6806357206274E+00
 0.3851129819491E-01 -0.5878109815349E-01  0.0000000000000E+00 -0.6758116772630E+00
 0.3269386819840E-01 -0.5241486427284E-01  0.0000000000000E+00 -0.6672029602979E+00
 0.2493179420912E-01 -0.4415500366757E-01  0.0000000000000E+00 -0.6547782372280E+00
 0.1549660608102E-01 -0.3426510960424E-01  0.0000000000000E+00 -0.6384370459954E+00
 0.4714122389782E-02 -0.2305787137618E-01  0.0000000000000E+00 -0.6180796325677E+00
-0.7043296456313E-02 -0.1088843389732E-01  0.0000000000000E+00 -0.5936537364026E+00
-0.1936729195081E-01  0.1855051210894E-02  0.0000000000000E+00 -0.5651864511380E+00
-0.3181971630731E-01  0.1475654596843E-01  0.0000000000000E+00 -0.5328045588641E+00
-0.4392514590880E-01  0.2736367635517E-01  0.0000000000000E+00 -0.4967504209127E+00
-0.5514536664274E-01  0.3916178919372E-01  0.0000000000000E+00 -0.4573643185913E+00
-0.6482324882670E-01  0.4952005717373E-01  0.0000000000000E+00 -0.4150095297393E+00
 0.8100366872365E-02 -0.3336517012892E-01  0.0000000000000E+00 -0.5735580370409E+00
 0.1381188152820E-01 -0.3867927369648E-01  0.0000000000000E+00 -0.5973763659003E+00
 0.2057882974581E-01 -0.4494003172952E-01  0.0000000000000E+00 -0.6207562980612E+00
 0.2744127752891E-01 -0.5121992675756E-01  0.0000000000000E+00 -0.6417353557785E+00
 0.3355274930768E-01 -0.5670330201673E-01  0.0000000000000E+00 -0.6591236920769E+00
 0.3824659616169E-01 -0.6075097628356E-01  0.0000000000000E+00 -0.6723228895456E+00
 0.4105485394668E-01 -0.6291840002082E-01  0.0000000000000E+00 -0.6811418947642E+00
 0.4169945899329E-01 -0.6294653315616E-01  0.0000000000000E+00 -0.6856330060241E+00
 0.4006810212151E-01 -0.6073734046140E-01  0.0000000000000E+00 -0.6859522986485E+00
 0.3618225639951E-01 -0.5632127610953E-01  0.0000000000000E+00 -0.6822470441864E+00
 0.3016437932932E-01 -0.4982391824025E-01  0.0000000000000E+00 -0.6745813997409E+00
 0.2221250562348E-01 -0.4144036493965E-01  0.0000000000000E+00 -0.6629194350630E+00
 0.1258744734568E-01 -0.3142278100009E-01  0.0000000000000E+00 -0.6471663187619E+00
 0.1608178256479E-02 -0.2007652076537E-01  0.0000000000000E+00 -0.6272303652079E+00
-0.1035497180388E-01 -0.7754313731374E-02  0.0000000000000E+00 -0.6030674991654E+00
-0.2289033747746E-01  0.5152707157947E-02  0.0000000000000E+00 -0.5747100213753E+00
-0.3555194823671E-01  0.1822097584799E-01  0.0000000000000E+00 -0.5422821108021E+00
-0.4785587376542E-01  0.3098993435299E-01  0.0000000000000E+00 -0.5060080245224E+00
-0.5926252323293E-01  0.4294394484800E-01  0.0000000000000E+00 -0.4661897297142E+00
-0.6913820548780E-01  0.5347538771471E-01  0.0000000000000E+00 -0.4231328508022E+00
 0.7881794688176E-02 -0.3258325775756E-01  0.0000000000000E+00 -0.5719761107506E+00
 0.1384132556919E-01 -0.3814022573775E-01  0.0000000000000E+00 -0.5954977711501E+00
 0.2056222506460E-01 -0.4437156325781E-01  0.0000000000000E+00 -0.6190839772428E+00
 0.2719038334089E-01 -0.5045153432316E-01  0.0000000000000E+00 -0.6407191409029E+00
 0.3297014971619E-01 -0.5565139528057E-01  0.0000000000000E+00 -0.6591099103992E+00
 0.3730176249757E-01 -0.5939528645359E-01  0.0000000000000E+00 -0.6735353495568E+00
 0.3975974502136E-01 -0.6127797186731E-01  0.0000000000000E+00 -0.6836843526544E+00
 0.4008757185975E-01 -0.6105916501795E-01  0.0000000000000E+00 -0.6895049866020E+00
 0.3817851983767E-01 -0.5864401793073E-01  0.0000000000000E+00 -0.6910728443516E+00
 0.3404904020971E-01 -0.5405596793917E-01  0.0000000000000E+00 -0.6884821011091E+00
 0.2781103826298E-01 -0.4740847794087E-01  0.0000000000000E+00 -0.6817700459964E+00
 0.1965084010163E-01 -0.3888379988621E-01  0.0000000000000E+00 -0.6708935820292E+00
 0.9819409867802E-02 -0.2872347192483E-01  0.0000000000000E+00 -0.6557606824117E+00
-0.1370778383070E-02 -0.1722581955122E-01  0.0000000000000E+00 -0.6362849358700E+00
-0.1355168080152E-01 -0.4740886392018E-02  0.0000000000000E+00 -0.6124272245583E+00
-0.2630952136113E-01  0.8338430538377E-02  0.0000000000000E+00 -0.5842217749765E+00
-0.3919294238633E-01  0.2158353106611E-01  0.0000000000000E+00 -0.5517880753155E+00
-0.5171288170157E-01  0.3452913809422E-01  0.0000000000000E+00 -0.5153335643318E+00
-0.6333140883576E-01  0.4666172132059E-01  0.0000000000000E+00 -0.4751280901683E+00
-0.7343637942637E-01  0.5739508918056E-01  0.0000000000000E+00 -0.4314316211046E+00
 0.7691816153634E-02 -0.3184596992075E-01  0.0000000000000E+00 -0.5701718775366E+00
 0.1395587230966E-01 -0.3769884365593E-01  0.0000000000000E+00 -0.5935068846123E+00
 0.2068395222205E-01 -0.4395043222843E-01  0.0000000000000E+00 -0.6173580985829E+00
 0.2712053947897E-01 -0.4986988422663E-01  0.0000000000000E+00 -0.6396619854501E+00
 0.3259737057313E-01 -0.5481215916311E-01  0.0000000000000E+00 -0.6590352122878E+00
 0.3658144545626E-01 -0.5826472895745E-01  0.0000000000000E+00 -0.6746497489494E+00
 0.3869177503744E-01 -0.5986373479179E-01  0.0000000000000E+00 -0.6860881313053E+00
 0.3869638360965E-01 -0.5939066086442E-01  0.0000000000000E+00 -0.6932044003387E+00
 0.3649732956166E-01 -0.5675700211602E-01  0.0000000000000E+00 -0.6959997820866E+00
 0.3210889305574E-01 -0.5198195896140E-01  0.0000000000000E+00 -0.6945176376334E+00
 0.2563464820552E-01 -0.4516901661278E-01  0.0000000000000E+00 -0.6887677585692E+00
 0.1725069328818E-01 -0.3648898468497E-01  0.0000000000000E+00 -0.6786976227485E+00
 0.7198942738798E-02 -0.2617351510095E-01  0.0000000000000E+00 -0.6642152867663E+00
-0.4214365457752E-02 -0.1451413105465E-01  0.0000000000000E+00 -0.6452368922518E+00
-0.1662378994440E-01 -0.1857850173937E-02  0.0000000000000E+00 -0.6217254297585E+00
-0.2961454539336E-01  0.1140179858315E-01  0.0000000000000E+00 -0.5937145483771E+00
-0.4273192434529E-01  0.2483327091674E-01  0.0000000000000E+00 -0.5613178832254E+00
-0.5548443775742E-01  0.3796933939203E-01  0.0000000000000E+00 -0.5247277296556E+00
-0.6733821572857E-01  0.5030102286832E-01  0.0000000000000E+00 -0.4841871421083E+00
-0.7770137170875E-01  0.6126238876793E-01  0.0000000000000E+00 -0.4399193235549E+00
 0.7528453735902E-02 -0.3114782895301E-01  0.0000000000000E+00 -0.5681257033086E+00
 0.1414859635386E-01 -0.3734504232836E-01  0.0000000000000E+00 -0.5913841044351E+00
 0.2093202393235E-01 -0.4366192256988E-01  0.0000000000000E+00 -0.6155623216978E+00
 0.2721618705299E-01 -0.4945713913500E-01  0.0000000000000E+00 -0.6385525074958E+00
 0.3241740850024E-01 -0.5416673798900E-01  0.0000000000000E+00 -0.6588931291318E+00
 0.3606926512522E-01 -0.5734144957133E-01  0.0000000000000E+00 -0.6756633102877E+00
 0.3783681730916E-01 -0.5866040729413E-01  0.0000000000000E+00 -0.6883524486936E+00
 0.3751507245770E-01 -0.5792930454214E-01  0.0000000000000E+00 -0.6967308535636E+00
 0.3501750392766E-01 -0.5506857869659E-01  0.0000000000000E+00 -0.7007319218544E+00
 0.3035861543602E-01 -0.5009552692107E-01  0.0000000000000E+00 -0.7003510014164E+00
 0.2363555837703E-01 -0.4310549316271E-01  0.0000000000000E+00 -0.6955701910519E+00
 0.1501550876723E-01 -0.3425908419189E-01  0.0000000000000E+00 -0.6863255587984E+00
 0.4732044929540E-02 -0.2377872934234E-01  0.0000000000000E+00 -0.6725226534576E+00
-0.6914614018900E-02 -0.1194933219507E-01  0.0000000000000E+00 -0.6540775710512E+00
-0.1956193012991E-01  0.8854428398346E-03  0.0000000000000E+00 -0.6309529056377E+00
-0.3279504994407E-01  0.1433240767875E-01  0.0000000000000E+00 -0.6031798162855E+00
-0.4615758084315E-01  0.2795878155434E-01  0.0000000000000E+00 -0.5708655665143E+00
-0.5915779811523E-01  0.4129762336595E-01  0.0000000000000E+00 -0.5341892519743E+00
-0.7126791420565E-01  0.5384655813534E-01  0.0000000000000E+00 -0.4933719133465E+00
-0.8191574109467E-01  0.6505946873713E-01  0.0000000000000E+00 -0.4486067930850E+00
 0.7389826210616E-02 -0.3048349660431E-01  0.0000000000000E+00 -0.5658193172743E+00
 0.1441287493532E-01 -0.3706906353660E-01  0.0000000000000E+00 -0.5891113579217E+00
 0.2129493621169E-01 -0.4349179993967E-01  0.0000000000000E+00 -0.6136810781772E+00
 0.2746225795357E-01 -0.4919592654804E-01  0.0000000000000E+00 -0.6373789018076E+00
 0.3241359768419E-01 -0.5369656836626E-01  0.0000000000000E+00 -0.6586755669205E+00
 0.3574894360509E-01 -0.5660763763340E-01  0.0000000000000E+00 -0.6765706773999E+00
 0.3718060982209E-01 -0.5765250684943E-01  0.0000000000000E+00 -0.6904733327916E+00
 0.3653249588802E-01 -0.5666299107881E-01  0.0000000000000E+00 -0.7000804779286E+00
 0.3373158164860E-01 -0.5357053230839E-01  0.0000000000000E+00 -0.7052645684020E+00
 0.2879452542801E-01 -0.4839240259774E-01  0.0000000000000E+00 -0.7059761704289E+00
 0.2181362886527E-01 -0.4121731494630E-01  0.0000000000000E+00 -0.7021698549699E+00
 0.1294825297786E-01 -0.3219672327885E-01  0.0000000000000E+00 -0.6937685270713E+00
 0.2424263837872E-02 -0.2154441497898E-01  0.0000000000000E+00 -0.6806727614066E+00
-0.9463939281090E-02 -0.9538842331943E-02  0.0000000000000E+00 -0.6627961329962E+00
-0.2235695646626E-01  0.3479942831511E-02  0.0000000000000E+00 -0.6400986142646E+00
-0.3584061178771E-01  0.1711986687690E-01  0.0000000000000E+00 -0.6126074007137E+00
-0.4945814304122E-01  0.3094826145919E-01  0.0000000000000E+00 -0.5804233330624E+00
-0.6271936251811E-01  0.4450027610840E-01  0.0000000000000E+00 -0.5437144911112E+00
-0.7510436175309E-01  0.5728196648988E-01  0.0000000000000E+00 -0.5026844345574E+00
-0.8606090951209E-01  0.6876738427747E-01  0.0000000000000E+00 -0.4575019734470E+00
 0.7274097539887E-02 -0.2984769808876E-01  0.0000000000000E+00 -0.5632357637429E+00
 0.1474224231052E-01 -0.3686131255163E-01  0.0000000000000E+00 -0.5866720467138E+00
 0.2176145582498E-01 -0.4342608889258E-01  0.0000000000000E+00 -0.6116996132677E+00
 0.2784394750864E-01 -0.4906910745074E-01  0.0000000000000E+00 -0.6361290882358E+00
 0.3256940804299E-01 -0.5338317773705E-01  0.0000000000000E+00 -0.6583730189088E+00
 0.3560414713787E-01 -0.5604537098223E-01  0.0000000000000E+00 -0.6773641391556E+00
 0.3670864187006E-01 -0.5682424008645E-01  0.0000000000000E+00 -0.6924438168172E+00
 0.3573711246248E-01 -0.5557915151961E-01  0.0000000000000E+00 -0.7032460788126E+00
 0.3263161251425E-01 -0.5225409326659E-01  0.0000000000000E+00 -0.7095896241906E+00
 0.2741241736444E-01 -0.4686772851792E-01  0.0000000000000E+00 -0.7113838255493E+00
 0.2016819907939E-01 -0.3950330467221E-01  0.0000000000000E+00 -0.7085561816252E+00
 0.1105139602789E-01 -0.3030396529623E-01  0.0000000000000E+00 -0.7010148624166E+00
 0.2806934970376E-03 -0.1947535033059E-01  0.0000000000000E+00 -0.6886530979561E+00
-0.1185512806076E-01 -0.7289636042510E-02  0.0000000000000E+00 -0.6713795590775E+00
-0.2499994207977E-01  0.5916894122054E-02  0.0000000000000E+00 -0.6491495764168E+00
-0.3874077970351E-01  0.1975383237001E-01  0.0000000000000E+00 -0.6219852283338E+00
-0.5262149120466E-01  0.3378962954570E-01  0.0000000000000E+00 -0.5899812340161E+00
-0.6615483012129E-01  0.4756295142685E-01  0.0000000000000E+00 -0.5532970806722E+00
-0.7883041469445E-01  0.6058994632186E-01  0.0000000000000E+00 -0.5121234029898E+00
-0.9011705884958E-01  0.7236599132119E-01  0.0000000000000E+00 -0.4666096846856E+00
 0.7179432006313E-02 -0.2923515500593E-01  0.0000000000000E+00 -0.5603593865537E+00
 0.1513026075618E-01 -0.3671221302614E-01  0.0000000000000E+00 -0.5840510174759E+00
 0.2232042799545E-01 -0.4345087102197E-01  0.0000000000000E+00 -0.6096040250170E+00
 0.2834650285706E-01 -0.4905956060328E-01  0.0000000000000E+00 -0.6347908328705E+00
 0.3286825085425E-01 -0.5320798983133E-01  0.0000000000000E+00 -0.6579747399738E+00
 0.3561832806918E-01 -0.5563645999964E-01  0.0000000000000E+00 -0.6780338167492E+00
 0.3640603574902E-01 -0.5615938734262E-01  0.0000000000000E+00 -0.6942541072666E+00
 0.3511689718987E-01 -0.5466467080185E-01  0.0000000000000E+00 -0.7062172677327E+00
 0.3170909725852E-01 -0.5110987885269E-01  0.0000000000000E+00 -0.7136956855336E+00
 0.2620751849065E-01 -0.4551601565856E-01  0.0000000000000E+00 -0.7165614206175E+00
 0.1869805723867E-01 -0.3796166877548E-01  0.0000000000000E+00 -0.7147155789411E+00
 0.9326893502827E-02 -0.2858229231725E-01  0.0000000000000E+00 -0.7080501469421E+00
-0.1694032240142E-02 -0.1757578385196E-01  0.0000000000000E+00 -0.6964486894442E+00
-0.1408134253168E-01 -0.5208239443853E-02  0.0000000000000E+00 -0.6798126324332E+00
-0.2748219859193E-01  0.8187854989559E-02  0.0000000000000E+00 -0.6580907720398E+00
-0.4148513722623E-01  0.2222407098920E-01  0.0000000000000E+00 -0.6312991384262E+00
-0.5563527618566E-01  0.3647064994694E-01  0.0000000000000E+00 -0.5995269072167E+00
-0.6944936842077E-01  0.5047084796782E-01  0.0000000000000E+00 -0.5629276409946E+00
-0.8242806030960E-01  0.6375240966277E-01  0.0000000000000E+00 -0.5216838402031E+00
-0.9406305254995E-01  0.7583389949499E-01  0.0000000000000E+00 -0.4759310926404E+00
 0.7103953903319E-02 -0.2864052486860E-01  0.0000000000000E+00 -0.5571758429980E+00
 0.1557040394674E-01 -0.3661207565666E-01  0.0000000000000E+00 -0.5812345577197E+00
 0.2296059983645E-01 -0.4355209948654E-01  0.0000000000000E+00 -0.6073813059382E+00
 0.2895502422777E-01 -0.4914997981830E-01  0.0000000000000E+00 -0.6333518500635E+00
 0.3329329130609E-01 -0.5315213675326E-01  0.0000000000000E+00 -0.6574688905248E+00
 0.3577456780007E-01 -0.5536229219305E-01  0.0000000000000E+00 -0.6785678200999E+00
 0.3625742542965E-01 -0.5564118375255E-01  0.0000000000000E+00 -0.6958917275557E+00
 0.3465925234202E-01 -0.5390580073826E-01  0.0000000000000E+00 -0.7089805789702E+00
 0.3095492352303E-01 -0.5012783053576E-01  0.0000000000000E+00 -0.7175681297718E+00
 0.2517444362912E-01 -0.4433109823770E-01  0.0000000000000E+00 -0.7214932461905E+00
 0.1740140947273E-01 -0.3658996575092E-01  0.0000000000000E+00 -0.7206314800284E+00
 0.7776167125034E-02 -0.2703258473786E-01  0.0000000000000E+00 -0.7148572467613E+00
-0.3495752232979E-02 -0.1584942090283E-01  0.0000000000000E+00 -0.7040421187273E+00
-0.1613613703945E-01 -0.3300713289241E-02  0.0000000000000E+00 -0.6880779179759E+00
-0.2979531563339E-01  0.1028473737105E-01  0.0000000000000E+00 -0.6669050618470E+00
-0.4406338510150E-01  0.2452054401484E-01  0.0000000000000E+00 -0.6405327384163E+00
-0.5848705285336E-01  0.3897906998638E-01  0.0000000000000E+00 -0.6090453761056E+00
-0.7258778953418E-01  0.5320888909886E-01  0.0000000000000E+00 -0.5725935624704E+00
-0.8587859252289E-01  0.6675067541474E-01  0.0000000000000E+00 -0.5313567998774E+00
-0.9787643247207E-01  0.7914852336788E-01  0.0000000000000E+00 -0.4854631030299E+00
 0.7045710478104E-02 -0.2805834549591E-01  0.0000000000000E+00 -0.5536721450670E+00
 0.1605594936426E-01 -0.3655097701957E-01  0.0000000000000E+00 -0.5782104162488E+00
 0.2367045567518E-01 -0.4371542604928E-01  0.0000000000000E+00 -0.6050193904955E+00
 0.2965427650284E-01 -0.4932268172001E-01  0.0000000000000E+00 -0.6317998910581E+00
 0.3382726715664E-01 -0.5319627709355E-01  0.0000000000000E+00 -0.6568426559299E+00
 0.3605542137713E-01 -0.5520367819620E-01  0.0000000000000E+00 -0.6789523780039E+00
 0.3624683355931E-01 -0.5525219842505E-01  0.0000000000000E+00 -0.6973416399869E+00
 0.3435091499580E-01 -0.5328806954453E-01  0.0000000000000E+00 -0.7115195712052E+00
 0.3035929851618E-01 -0.4929714782026E-01  0.0000000000000E+00 -0.7211891926662E+00
 0.2430714742779E-01 -0.4330608616938E-01  0.0000000000000E+00 -0.7261604853629E+00
 0.1627584723089E-01 -0.3538507302190E-01  0.0000000000000E+00 -0.7262843826335E+00
 0.6400083028979E-02 -0.2565509877338E-01  0.0000000000000E+00 -0.7214163382564E+00
-0.5120795836710E-02 -0.1429940543604E-01  0.0000000000000E+00 -0.7114135356692E+00
-0.1801348442172E-01 -0.1572626418771E-02  0.0000000000000E+00 -0.6961557476449E+00
-0.3193121368257E-01  0.1219986011478E-01  0.0000000000000E+00 -0.6755731356911E+00
-0.4646543777150E-01  0.2663350571778E-01  0.0000000000000E+00 -0.6496673058516E+00
-0.6116442731901E-01  0.4130277064414E-01  0.0000000000000E+00 -0.6185189025765E+00
-0.7555472322565E-01  0.5576190602076E-01  0.0000000000000E+00 -0.5822788073753E+00
-0.8916280991158E-01  0.6956565472657E-01  0.0000000000000E+00 -0.5411292197151E+00
-0.1015335928083E+00  0.8228632038286E-01  0.0000000000000E+00 -0.4951977419065E+00
 0.7002637091316E-02 -0.2748298287225E-01  0.0000000000000E+00 -0.5498367266143E+00
 0.1657987698943E-01 -0.3651864562122E-01  0.0000000000000E+00 -0.5749678477218E+00
 0.2443806096958E-01 -0.4392603728770E-01  0.0000000000000E+00 -0.6025072104807E+00
 0.3042850865891E-01 -0.4955942166813E-01  0.0000000000000E+00 -0.6301228231186E+00
 0.3445231259747E-01 -0.5332041933257E-01  0.0000000000000E+00 -0.6560823457410E+00
 0.3644276410692E-01 -0.5514069977319E-01  0.0000000000000E+00 -0.6791719456346E+00
 0.3635754782269E-01 -0.5497421292493E-01  0.0000000000000E+00 -0.6985863484640E+00
 0.3417786224902E-01 -0.5279618900243E-01  0.0000000000000E+00 -0.7138149153550E+00
 0.2991167867754E-01 -0.4860621910333E-01  0.0000000000000E+00 -0.7245380361862E+00
 0.2359887366263E-01 -0.4243331463171E-01  0.0000000000000E+00 -0.7305412613496E+00
 0.1531831197463E-01 -0.3434315119942E-01  0.0000000000000E+00 -0.7316518796212E+00
 0.5198927094616E-02 -0.2444944113646E-01  0.0000000000000E+00 -0.7277049255156E+00
-0.6566004729208E-02 -0.1292829771446E-01  0.0000000000000E+00 -0.7185406640969E+00
-0.1970780827561E-01 -0.2902331181875E-04  0.0000000000000E+00 -0.7040242155863E+00
-0.3388220474554E-01  0.1392601019230E-01  0.0000000000000E+00 -0.6840734906496E+00
-0.4868153060705E-01  0.2855361193246E-01  0.0000000000000E+00 -0.6586817395087E+00
-0.6365521460922E-01  0.4342992938905E-01  0.0000000000000E+00 -0.6279268910773E+00
-0.7833481182150E-01  0.5811483463208E-01  0.0000000000000E+00 -0.5919637433525E+00
-0.9226115753862E-01  0.7217801994970E-01  0.0000000000000E+00 -0.5509836492817E+00
-0.1050101849956E+00  0.8522305231390E-01  0.0000000000000E+00 -0.5051221295291E+00
 0.6972523700135E-02 -0.2690858127757E-01  0.0000000000000E+00 -0.5456595356532E+00
 0.1713477188582E-01 -0.3650435260163E-01  0.0000000000000E+00 -0.5714976809456E+00
 0.2525091186825E-01 -0.4416849699412E-01  0.0000000000000E+00 -0.5998347594130E+00
 0.3126127885323E-01 -0.4984121569544E-01  0.0000000000000E+00 -0.6283087015152E+00
 0.3514978640554E-01 -0.5350374977408E-01  0.0000000000000E+00 -0.6551734755302E+00
 0.3691764046389E-01 -0.5515256028157E-01  0.0000000000000E+00 -0.6792092920295E+00
 0.3657199754171E-01 -0.5478810011902E-01  0.0000000000000E+00 -0.6996059841242E+00
 0.3412521491504E-01 -0.5241396020017E-01  0.0000000000000E+00 -0.7158444702507E+00
 0.2960069654833E-01 -0.4804254980452E-01  0.0000000000000E+00 -0.7275908078397E+00
 0.2304210104810E-01 -0.4170429016724E-01  0.0000000000000E+00 -0.7346106776115E+00
 0.1452505627198E-01 -0.3345960472895E-01  0.0000000000000E+00 -0.7367086811058E+00
 0.4172377093681E-02 -0.2341454049802E-01  0.0000000000000E+00 -0.7336978496575E+00
-0.7828757310767E-02 -0.1173804947790E-01  0.0000000000000E+00 -0.7253988062092E+00
-0.2121401739091E-01  0.1325610440908E-02  0.0000000000000E+00 -0.7116591844007E+00
-0.3564105608341E-01  0.1545650650788E-01  0.0000000000000E+00 -0.6923824403065E+00
-0.5070233212681E-01  0.3027203373181E-01  0.0000000000000E+00 -0.6675525611690E+00
-0.6594761164222E-01  0.4534919484365E-01  0.0000000000000E+00 -0.6372458530126E+00
-0.8091291721881E-01  0.6025293454394E-01  0.0000000000000E+00 -0.6016250074498E+00
-0.9515394668203E-01  0.7456841001407E-01  0.0000000000000E+00 -0.5608979326284E+00
-0.1082809886762E+00  0.8793379241444E-01  0.0000000000000E+00 -0.5152184976428E+00
 0.6952981847657E-02 -0.2632901459610E-01  0.0000000000000E+00 -0.5411321515815E+00
 0.1771272847657E-01 -0.3649680473396E-01  0.0000000000000E+00 -0.5677924106957E+00
 0.2609578766199E-01 -0.4442659198986E-01  0.0000000000000E+00 -0.5969931663518E+00
 0.3213528304807E-01 -0.5014816643229E-01  0.0000000000000E+00 -0.6263458353939E+00
 0.3590010351604E-01 -0.5372446429225E-01  0.0000000000000E+00 -0.6541008327933E+00
 0.3746011557095E-01 -0.5521743805847E-01  0.0000000000000E+00 -0.6790455692588E+00
 0.3687163141021E-01 -0.5467370446659E-01  0.0000000000000E+00 -0.7003783757445E+00
 0.3417714053323E-01 -0.5212417883623E-01  0.0000000000000E+00 -0.7175833481549E+00
 0.2941408507687E-01 -0.4759268807398E-01  0.0000000000000E+00 -0.7303206935703E+00
 0.2262848499766E-01 -0.4110963273488E-01  0.0000000000000E+00 -0.7383408522275E+00
 0.1389160034698E-01 -0.3272903785806E-01  0.0000000000000E+00 -0.7414266290644E+00
 0.3319471289814E-02 -0.2254861522242E-01  0.0000000000000E+00 -0.7393672895269E+00
-0.8906994247397E-02 -0.1072997788845E-01  0.0000000000000E+00 -0.7319608426601E+00
-0.2252753868509E-01  0.2487380919922E-02  0.0000000000000E+00 -0.7190343003374E+00
-0.3720105126245E-01  0.1678526063255E-01  0.0000000000000E+00 -0.7004741543855E+00
-0.5251905760348E-01  0.3178057100487E-01  0.0000000000000E+00 -0.6762539702051E+00
-0.6803037734300E-01  0.4704987011611E-01  0.0000000000000E+00 -0.6464494373550E+00
-0.8327437036863E-01  0.6216203737865E-01  0.0000000000000E+00 -0.6112354290017E+00
-0.9782156573662E-01  0.7671767828620E-01  0.0000000000000E+00 -0.5708449320121E+00
-0.1113201379260E+00  0.9039306116189E-01  0.0000000000000E+00 -0.5254628665798E+00
 0.6941411354873E-02 -0.2573783771866E-01  0.0000000000000E+00 -0.5362479276560E+00
 0.1830525434297E-01 -0.3648403739063E-01  0.0000000000000E+00 -0.5638463130042E+00
 0.2695860344146E-01 -0.4468317863776E-01  0.0000000000000E+00 -0.5939747787782E+00
 0.3303218515343E-01 -0.5045929107211E-01  0.0000000000000E+00 -0.6242228472487E+00
 0.3668256925098E-01 -0.5395960326929E-01  0.0000000000000E+00 -0.6528485270263E+00
 0.3804912966296E-01 -0.5531234331843E-01  0.0000000000000E+00 -0.6786603640034E+00
 0.3723679743447E-01 -0.5460972501046E-01  0.0000000000000E+00 -0.7008791064580E+00
 0.3431675673703E-01 -0.5190854129002E-01  0.0000000000000E+00 -0.7190039725529E+00
 0.2933859974087E-01 -0.4724214855992E-01  0.0000000000000E+00 -0.7326979673503E+00
 0.2234879473627E-01 -0.4063901311015E-01  0.0000000000000E+00 -0.7417009495968E+00
 0.1341268278100E-01 -0.3214520450073E-01  0.0000000000000E+00 -0.7457747061196E+00
 0.2638572520386E-02 -0.2184913621123E-01  0.0000000000000E+00 -0.7446827527063E+00
-0.9799244384610E-02 -0.9904738912773E-02  0.0000000000000E+00 -0.7381972243331E+00
-0.2364434502847E-01  0.3453013318044E-02  0.0000000000000E+00 -0.7261210123841E+00
-0.3855604305407E-01  0.1790682840689E-01  0.0000000000000E+00 -0.7083207259175E+00
-0.5412357685155E-01  0.3307175954296E-01  0.0000000000000E+00 -0.6847579544493E+00
-0.6989302228071E-01  0.4852210197065E-01  0.0000000000000E+00 -0.6555085346368E+00
-0.8540523718743E-01  0.6382881982857E-01  0.0000000000000E+00 -0.6207640389132E+00
-0.1002448206265E+00  0.7860721841214E-01  0.0000000000000E+00 -0.5807921984898E+00
-0.1141014725678E+00  0.9257523288754E-01  0.0000000000000E+00 -0.5358244423337E+00
 0.6934965821051E-02 -0.2512823686357E-01  0.0000000000000E+00 -0.5310021595926E+00
 0.1890317122894E-01 -0.3645330500073E-01  0.0000000000000E+00 -0.5596555839572E+00
 0.2782426018564E-01 -0.4492002725558E-01  0.0000000000000E+00 -0.5907732533772E+00
 0.3393244669235E-01 -0.5075234946424E-01  0.0000000000000E+00 -0.6219287243335E+00
 0.3747521557101E-01 -0.5418488924080E-01  0.0000000000000E+00 -0.6514000226647E+00
 0.3866235617467E-01 -0.5541297938651E-01  0.0000000000000E+00 -0.6780317312040E+00
 0.3764662648896E-01 -0.5457360267003E-01  0.0000000000000E+00 -0.7010815578229E+00
 0.3452603645089E-01 -0.5174755311248E-01  0.0000000000000E+00 -0.7200761309051E+00
 0.2935993926770E-01 -0.4697533515087E-01  0.0000000000000E+00 -0.7346900416898E+00
 0.2219284527439E-01 -0.4028108516857E-01  0.0000000000000E+00 -0.7446572142357E+00
 0.1308220361337E-01 -0.3170095010623E-01  0.0000000000000E+00 -0.7497190416070E+00
 0.2127325778559E-02 -0.2131278260133E-01  0.0000000000000E+00 -0.7496110556757E+00
-0.1050465128035E-01 -0.9262299611384E-02  0.0000000000000E+00 -0.7440759494115E+00
-0.2456097483080E-01  0.4219870887781E-02  0.0000000000000E+00 -0.7328885861246E+00
-0.3970049123396E-01  0.1881644541887E-01  0.0000000000000E+00 -0.7158922601865E+00
-0.5550850960188E-01  0.3413896354364E-01  0.0000000000000E+00 -0.6930344594340E+00
-0.7152599858131E-01  0.4975707028667E-01  0.0000000000000E+00 -0.6643914725545E+00
-0.8729262192082E-01  0.6524110541709E-01  0.0000000000000E+00 -0.6301761496279E+00
-0.1024053281623E+00  0.8021936444099E-01  0.0000000000000E+00 -0.5907018166896E+00
-0.1165989260512E+00  0.9445494850320E-01  0.0000000000000E+00 -0.5462652265371E+00
 0.6930515883464E-02 -0.2449297743466E-01  0.0000000000000E+00 -0.5253922817785E+00
 0.1949651061547E-01 -0.3639096618723E-01  0.0000000000000E+00 -0.5552185020896E+00
 0.2867648927609E-01 -0.4511766140188E-01  0.0000000000000E+00 -0.5873836525995E+00
 0.3481515397084E-01 -0.5100367041667E-01  0.0000000000000E+00 -0.6194528588279E+00
 0.3825463888492E-01 -0.5437456695059E-01  0.0000000000000E+00 -0.6497381520601E+00
 0.3927606440122E-01 -0.5549360940880E-01  0.0000000000000E+00 -0.6771362082447E+00
 0.3807892135222E-01 -0.5454141390585E-01  0.0000000000000E+00 -0.7009569415337E+00
 0.3478571701807E-01 -0.5162044225571E-01  0.0000000000000E+00 -0.7207670249528E+00
 0.2946266642793E-01 -0.4677546437339E-01  0.0000000000000E+00 -0.7362615241968E+00
 0.2214942412450E-01 -0.4002341303993E-01  0.0000000000000E+00 -0.7471730134895E+00
 0.1289315760677E-01 -0.3138814318520E-01  0.0000000000000E+00 -0.7532229204387E+00
 0.1782605824372E-02 -0.2093538646793E-01  0.0000000000000E+00 -0.7541162927948E+00
-0.1102300247295E-01 -0.8801906769124E-02  0.0000000000000E+00 -0.7495625167796E+00
-0.2527454096889E-01  0.4785963221670E-02  0.0000000000000E+00 -0.7393040976354E+00
-0.4062947758480E-01  0.1951003815216E-01  0.0000000000000E+00 -0.7231569735109E+00
-0.5666729715771E-01  0.3497644223550E-01  0.0000000000000E+00 -0.7010516184757E+00
-0.7292088559169E-01  0.5074716989355E-01  0.0000000000000E+00 -0.6730643149026E+00
-0.8892499898264E-01  0.6638819638151E-01  0.0000000000000E+00 -0.6394335717155E+00
-0.1042859451281E+00  0.8153782909513E-01  0.0000000000000E+00 -0.6005303599842E+00
-0.1187869762244E+00  0.9600756591189E-01  0.0000000000000E+00 -0.5567396191323E+00
 0.6924608865770E-02 -0.2382434770852E-01  0.0000000000000E+00 -0.5194180934097E+00
 0.2007440065827E-01 -0.3628236017943E-01  0.0000000000000E+00 -0.5505356144703E+00
 0.2949768801759E-01 -0.4525518863346E-01  0.0000000000000E+00 -0.5838025436413E+00
 0.3565784067304E-01 -0.5118797428623E-01  0.0000000000000E+00 -0.6167850718669E+00
 0.3899583915113E-01 -0.5450124577513E-01  0.0000000000000E+00 -0.6478451041323E+00
 0.3986498802197E-01 -0.5552693006135E-01  0.0000000000000E+00 -0.6759488069526E+00
 0.3851005358406E-01 -0.5448777334202E-01  0.0000000000000E+00 -0.7004743181538E+00
 0.3507521614262E-01 -0.5150508017962E-01  0.0000000000000E+00 -0.7210413206518E+00
 0.2963013144110E-01 -0.4662449228425E-01  0.0000000000000E+00 -0.7373742859004E+00
 0.2220621351102E-01 -0.3985239413091E-01  0.0000000000000E+00 -0.7492088984854E+00
 0.1283755518577E-01 -0.3119759396253E-01  0.0000000000000E+00 -0.7562468043045E+00
 0.1600449325482E-02 -0.2071186052532E-01  0.0000000000000E+00 -0.7581597966352E+00
-0.1135476663573E-01 -0.8522045882717E-02  0.0000000000000E+00 -0.7546198447918E+00
-0.2578272861350E-01  0.5149943954917E-02  0.0000000000000E+00 -0.7453323845878E+00
-0.4133868877952E-01  0.1998420134713E-01  0.0000000000000E+00 -0.7300812805119E+00
-0.5759423579288E-01  0.3557937468411E-01  0.0000000000000E+00 -0.7087760392097E+00
-0.7407055792516E-01  0.5148617190662E-01  0.0000000000000E+00 -0.6814912921877E+00
-0.9029256523564E-01  0.6726122599603E-01  0.0000000000000E+00 -0.6484949964938E+00
-0.1058712577285E+00  0.8254819749672E-01  0.0000000000000E+00 -0.6102289524736E+00
-0.1206411579772E+00  0.9720968500295E-01  0.0000000000000E+00 -0.5671940000491E+00
 0.6913423270908E-02 -0.2311409603661E-01  0.0000000000000E+00 -0.5130820174865E+00
 0.2062494054403E-01 -0.3611167017625E-01  0.0000000000000E+00 -0.5456099456445E+00
 0.3026874235401E-01 -0.4531011878707E-01  0.0000000000000E+00 -0.5800280941413E+00
 0.3643630393327E-01 -0.5127818998165E-01  0.0000000000000E+00 -0.6139156137887E+00
 0.3967206047291E-01 -0.5453574487029E-01  0.0000000000000E+00 -0.6457023820892E+00
 0.4040220129603E-01 -0.5548395420001E-01  0.0000000000000E+00 -0.6744429790423E+00
 0.3891487115648E-01 -0.5438574836773E-01  0.0000000000000E+00 -0.6996006007332E+00
 0.3537255842048E-01 -0.5137791478884E-01  0.0000000000000E+00 -0.7208611983626E+00
 0.2984440205902E-01 -0.4650304927907E-01  0.0000000000000E+00 -0.7379875467742E+00
 0.2234971058088E-01 -0.3975318100936E-01  0.0000000000000E+00 -0.7507226957029E+00
 0.1290632904385E-01 -0.3111895841566E-01  0.0000000000000E+00 -0.7587483821604E+00
 0.1575963584614E-02 -0.2063610044239E-01  0.0000000000000E+00 -0.7617001008251E+00
-0.1150114885242E-01 -0.8420379146467E-02  0.0000000000000E+00 -0.7592081474671E+00
-0.2608378579903E-01  0.5311102668960E-02  0.0000000000000E+00 -0.7509359250590E+00
-0.4182435753466E-01  0.2023613144199E-01  0.0000000000000E+00 -0.7366298366716E+00
-0.5828445115440E-01  0.3594382021681E-01  0.0000000000000E+00 -0.7161731402177E+00
-0.7496931552272E-01  0.5196934206485E-01  0.0000000000000E+00 -0.6896353971036E+00
-0.9138761195414E-01  0.6785352727272E-01  0.0000000000000E+00 -0.6573165950839E+00
-0.1071481435603E+00  0.8323849662964E-01  0.0000000000000E+00 -0.6197434829447E+00
-0.1221387018959E+00  0.9803978544819E-01  0.0000000000000E+00 -0.5775663279851E+00
 0.6892715140471E-02 -0.2235335831332E-01  0.0000000000000E+00 -0.5063893970943E+00
 0.2113505678102E-01 -0.3586176800201E-01  0.0000000000000E+00 -0.5404472279174E+00
 0.3096883195665E-01 -0.4525816517008E-01  0.0000000000000E+00 -0.5760601561778E+00
 0.3712441184702E-01 -0.5124526476089E-01  0.0000000000000E+00 -0.6108351302951E+00
 0.4025463376997E-01 -0.5444694206571E-01  0.0000000000000E+00 -0.6432907221656E+00
 0.4085900507434E-01 -0.5533390489934E-01  0.0000000000000E+00 -0.6725905500646E+00
 0.3926661994951E-01 -0.5420678896805E-01  0.0000000000000E+00 -0.6983005401901E+00
 0.3565431683774E-01 -0.5121391968690E-01  0.0000000000000E+00 -0.7201864014694E+00
 0.3008620626441E-01 -0.4639038907716E-01  0.0000000000000E+00 -0.7380579808012E+00
 0.2256515137618E-01 -0.3970960853975E-01  0.0000000000000E+00 -0.7516696413639E+00
 0.1308922710762E-01 -0.3114062888426E-01  0.0000000000000E+00 -0.7606826734917E+00
 0.1703202549825E-02 -0.2070085183463E-01  0.0000000000000E+00 -0.7646929275046E+00
-0.1146418087399E-01 -0.8493643232302E-02  0.0000000000000E+00 -0.7632847636795E+00
-0.2617651767290E-01  0.5269364684996E-02  0.0000000000000E+00 -0.7560745987420E+00
-0.4208315187697E-01  0.2026350665717E-01  0.0000000000000E+00 -0.7427654729230E+00
-0.5873378208765E-01  0.3606658080962E-01  0.0000000000000E+00 -0.7232075070033E+00
-0.7561294363843E-01  0.5219348058046E-01  0.0000000000000E+00 -0.6974591769645E+00
-0.9220490691576E-01  0.6816100934200E-01  0.0000000000000E+00 -0.6658529096616E+00
-0.1081064328438E+00  0.8359986461118E-01  0.0000000000000E+00 -0.6290150288479E+00
-0.1232592982904E+00  0.9847900589893E-01  0.0000000000000E+00 -0.5877858078746E+00
 0.6857753058265E-02 -0.2153257104022E-01  0.0000000000000E+00 -0.4993488349808E+00
 0.2159033429755E-01 -0.3551403227517E-01  0.0000000000000E+00 -0.5350561498234E+00
 0.3157521232982E-01 -0.4507302327832E-01  0.0000000000000E+00 -0.5719003261057E+00
 0.3769390110920E-01 -0.5105796594556E-01  0.0000000000000E+00 -0.6075345808359E+00
 0.4071282325900E-01 -0.5420162877197E-01  0.0000000000000E+00 -0.6405899642157E+00
 0.4120482539409E-01 -0.5504412402336E-01  0.0000000000000E+00 -0.6703616174076E+00
 0.3953688202711E-01 -0.5392067587049E-01  0.0000000000000E+00 -0.6965366893835E+00
 0.3589557327640E-01 -0.5098656392142E-01  0.0000000000000E+00 -0.7189742791661E+00
 0.3033489465567E-01 -0.4626435942282E-01  0.0000000000000E+00 -0.7375398378316E+00
 0.2283644830753E-01 -0.3970413729466E-01  0.0000000000000E+00 -0.7520025679438E+00
 0.1337469765864E-01 -0.3124961889234E-01  0.0000000000000E+00 -0.7620022162961E+00
 0.1975000794513E-02 -0.2089753334576E-01  0.0000000000000E+00 -0.7670912442149E+00
-0.1124687399690E-01 -0.8737476808241E-02  0.0000000000000E+00 -0.7668039552325E+00
-0.2606031164249E-01  0.5025330607824E-02  0.0000000000000E+00 -0.7607052743550E+00
-0.4211200816157E-01  0.2006431083028E-01  0.0000000000000E+00 -0.7484489146594E+00
-0.5893853003003E-01  0.3594491688246E-01  0.0000000000000E+00 -0.7298431988536E+00
-0.7599865071499E-01  0.5215682554458E-01  0.0000000000000E+00 -0.7049257623983E+00
-0.9274207184423E-01  0.6818252324632E-01  0.0000000000000E+00 -0.6740581548001E+00
-0.1087396930594E+00  0.8362735223915E-01  0.0000000000000E+00 -0.6379805980866E+00
-0.1239860514126E+00  0.9851211727871E-01  0.0000000000000E+00 -0.5977725911636E+00
 0.6803236153740E-02 -0.2064136278286E-01  0.0000000000000E+00 -0.4919725840315E+00
 0.2197481212400E-01 -0.3504812903218E-01  0.0000000000000E+00 -0.5294486137575E+00
 0.3206296764704E-01 -0.4472612091201E-01  0.0000000000000E+00 -0.5675519583879E+00
 0.3811416490534E-01 -0.5068267538419E-01  0.0000000000000E+00 -0.6040050884737E+00
 0.4101368054587E-01 -0.5376437533932E-01  0.0000000000000E+00 -0.6375788625474E+00
 0.4140712858705E-01 -0.5457999948877E-01  0.0000000000000E+00 -0.6677244083969E+00
 0.3969553336263E-01 -0.5349548950643E-01  0.0000000000000E+00 -0.6942693432629E+00
 0.3606990102780E-01 -0.5066780479274E-01  0.0000000000000E+00 -0.7171798163324E+00
 0.3056842990701E-01 -0.4610140165509E-01  0.0000000000000E+00 -0.7363850709625E+00
 0.2314615615187E-01 -0.3971782908999E-01  0.0000000000000E+00 -0.7516721411703E+00
 0.1374978351768E-01 -0.3143146188910E-01  0.0000000000000E+00 -0.7626573748995E+00
 0.2382764194929E-02 -0.2121601707533E-01  0.0000000000000E+00 -0.7688454702495E+00
-0.1085347225071E-01 -0.9146137618909E-02  0.0000000000000E+00 -0.7697167420870E+00
-0.2573524913324E-01  0.4580420395808E-02  0.0000000000000E+00 -0.7647811788209E+00
-0.4190792077205E-01  0.1963662110229E-01  0.0000000000000E+00 -0.7536381106246E+00
-0.5889500932196E-01  0.3557604356850E-01  0.0000000000000E+00 -0.7360438689468E+00
-0.7612479653099E-01  0.5185871899873E-01  0.0000000000000E+00 -0.7120001970622E+00
-0.9299992385669E-01  0.6792018502666E-01  0.0000000000000E+00 -0.6818881346296E+00
-0.1090461811027E+00  0.8332090057186E-01  0.0000000000000E+00 -0.6465743660154E+00
-0.1243066423480E+00  0.9812873922003E-01  0.0000000000000E+00 -0.6074377238241E+00
 0.6723186250985E-02 -0.1966841214671E-01  0.0000000000000E+00 -0.4842769984510E+00
 0.2227072879082E-01 -0.3444173861034E-01  0.0000000000000E+00 -0.5236399839651E+00
 0.3240472752670E-01 -0.4418633326433E-01  0.0000000000000E+00 -0.5630200978328E+00
 0.3835203414644E-01 -0.5008318092056E-01  0.0000000000000E+00 -0.6002376923215E+00
 0.4112191338746E-01 -0.5309741492208E-01  0.0000000000000E+00 -0.6342348251679E+00
 0.4143135800126E-01 -0.5390491645590E-01  0.0000000000000E+00 -0.6646450979911E+00
 0.3971072259894E-01 -0.5289760103245E-01  0.0000000000000E+00 -0.6914564545845E+00
 0.3614936949792E-01 -0.5022810340372E-01  0.0000000000000E+00 -0.7147556420115E+00
 0.3076340763477E-01 -0.4587658246506E-01  0.0000000000000E+00 -0.7345434472019E+00
 0.2347548403130E-01 -0.3973037216404E-01  0.0000000000000E+00 -0.7506271209140E+00
 0.1420005804577E-01 -0.3167015996230E-01  0.0000000000000E+00 -0.7625967803052E+00
 0.2916238967346E-02 -0.2164439563226E-01  0.0000000000000E+00 -0.7699039414785E+00
-0.1028984494767E-01 -0.9712070811344E-02  0.0000000000000E+00 -0.7719709352666E+00
-0.2520240596611E-01  0.3937238301737E-02  0.0000000000000E+00 -0.7682510604002E+00
-0.4146775214696E-01  0.1897844250741E-01  0.0000000000000E+00 -0.7582868931228E+00
-0.5859880530568E-01  0.3495631099948E-01  0.0000000000000E+00 -0.7417723498774E+00
-0.7599023666088E-01  0.5129881764829E-01  0.0000000000000E+00 -0.7186511489150E+00
-0.9298273388297E-01  0.6737961153907E-01  0.0000000000000E+00 -0.6893031760094E+00
-0.1090299945676E+00  0.8268656215473E-01  0.0000000000000E+00 -0.6547296648815E+00
-0.1242138859459E+00  0.9732413263009E-01  0.0000000000000E+00 -0.6166854623154E+00
 0.6610797813320E-02 -0.1860125229469E-01  0.0000000000000E+00 -0.4762830597204E+00
 0.2245819473197E-01 -0.3367020486441E-01  0.0000000000000E+00 -0.5176492906914E+00
 0.3257034129184E-01 -0.4341965810313E-01  0.0000000000000E+00 -0.5583112740741E+00
 0.3837156164585E-01 -0.4922047794066E-01  0.0000000000000E+00 -0.5962229675659E+00
 0.4099978182311E-01 -0.5216056033189E-01  0.0000000000000E+00 -0.6305335783305E+00
 0.4124089907215E-01 -0.5298024011275E-01  0.0000000000000E+00 -0.6610875979580E+00
 0.3954887070715E-01 -0.5209168507832E-01  0.0000000000000E+00 -0.6880535341368E+00
 0.3610456788470E-01 -0.4963645959754E-01  0.0000000000000E+00 -0.7116520123456E+00
 0.3089510643723E-01 -0.4556365557948E-01  0.0000000000000E+00 -0.7319626206159E+00
 0.2380436398795E-01 -0.3972016309739E-01  0.0000000000000E+00 -0.7488145915480E+00
 0.1470964792762E-01 -0.3194823021034E-01  0.0000000000000E+00 -0.7617678555363E+00
 0.3563325147166E-02 -0.2216881288948E-01  0.0000000000000E+00 -0.7702137270570E+00
-0.9564027781364E-02 -0.1042533582933E-01  0.0000000000000E+00 -0.7735116766239E+00
-0.2446450879925E-01  0.3100348318781E-02  0.0000000000000E+00 -0.7710583495291E+00
-0.4078825096277E-01  0.1808782324226E-01  0.0000000000000E+00 -0.7623425908810E+00
-0.5804366259514E-01  0.3408000582211E-01  0.0000000000000E+00 -0.7469889221881E+00
-0.7559289950859E-01  0.5047541097801E-01  0.0000000000000E+00 -0.7248527929206E+00
-0.9269826351587E-01  0.6656980600965E-01  0.0000000000000E+00 -0.6962731807384E+00
-0.1087025806579E+00  0.8173835853578E-01  0.0000000000000E+00 -0.6623822022467E+00
-0.1237045237340E+00  0.9609845628144E-01  0.0000000000000E+00 -0.6254161467744E+00
 0.6458221631269E-02 -0.1742598619928E-01  0.0000000000000E+00 -0.4680169922990E+00
 0.2251475743310E-01 -0.3270606578036E-01  0.0000000000000E+00 -0.5114993056934E+00
 0.3252651003222E-01 -0.4238885541497E-01  0.0000000000000E+00 -0.5534330534876E+00
 0.3813383307129E-01 -0.4805260628360E-01  0.0000000000000E+00 -0.5919504622272E+00
 0.4060704372261E-01 -0.5091117897614E-01  0.0000000000000E+00 -0.6264487604853E+00
 0.4079707995560E-01 -0.5176533443543E-01  0.0000000000000E+00 -0.6570133397260E+00
 0.3917468802234E-01 -0.5104075040959E-01  0.0000000000000E+00 -0.6840135437091E+00
 0.3590464053991E-01 -0.4886045798486E-01  0.0000000000000E+00 -0.7078167637296E+00
 0.3093756051489E-01 -0.4513514601767E-01  0.0000000000000E+00 -0.7285881462572E+00
 0.2411157006403E-01 -0.3966444145663E-01  0.0000000000000E+00 -0.7461801189834E+00
 0.1526137577051E-01 -0.3224686465962E-01  0.0000000000000E+00 -0.7601172757035E+00
 0.4310063364990E-02 -0.2277351436886E-01  0.0000000000000E+00 -0.7697217587056E+00
-0.8686804441577E-02 -0.1127303267094E-01  0.0000000000000E+00 -0.7742829401136E+00
-0.2352714957139E-01  0.2077636499722E-02  0.0000000000000E+00 -0.7731410727233E+00
-0.3986673794955E-01  0.1696383465860E-01  0.0000000000000E+00 -0.7657423614236E+00
-0.5722006389528E-01  0.3293788576671E-01  0.0000000000000E+00 -0.7516467054014E+00
-0.7492693484911E-01  0.4938208572452E-01  0.0000000000000E+00 -0.7305859167523E+00
-0.9215682861818E-01  0.6550180255386E-01  0.0000000000000E+00 -0.7027862967351E+00
-0.1080854786412E+00  0.8050129468104E-01  0.0000000000000E+00 -0.6694775861901E+00
-0.1227807538337E+00  0.9445931973290E-01  0.0000000000000E+00 -0.6335135933012E+00
 0.6256226867866E-02 -0.1612683269096E-01  0.0000000000000E+00 -0.4595109544231E+00
 0.2241480448462E-01 -0.3151841869442E-01  0.0000000000000E+00 -0.5052163162843E+00
 0.3223639144540E-01 -0.4105306394130E-01  0.0000000000000E+00 -0.5483931671991E+00
 0.3759685902333E-01 -0.4653460096660E-01  0.0000000000000E+00 -0.5874079071036E+00
 0.3990098254980E-01 -0.4930424876285E-01  0.0000000000000E+00 -0.6219515045853E+00
 0.4005921226088E-01 -0.5021762830454E-01  0.0000000000000E+00 -0.6523810914948E+00
 0.3855120123514E-01 -0.4970617481258E-01  0.0000000000000E+00 -0.6792868061365E+00
 0.3551732402223E-01 -0.4786631727193E-01  0.0000000000000E+00 -0.7031952263933E+00
 0.3086364476155E-01 -0.4456244649927E-01  0.0000000000000E+00 -0.7243634224120E+00
 0.2437487953682E-01 -0.3953946227400E-01  0.0000000000000E+00 -0.7426677917069E+00
 0.1583699097494E-01 -0.3254618627791E-01  0.0000000000000E+00 -0.7575912853574E+00
 0.5140917655542E-02 -0.2344113774546E-01  0.0000000000000E+00 -0.7683757253743E+00
-0.7671949797704E-02 -0.1223929728232E-01  0.0000000000000E+00 -0.7742302719031E+00
-0.2240057893645E-01  0.8822877371717E-03  0.0000000000000E+00 -0.7744342101813E+00
-0.3870340643082E-01  0.1560939452386E-01  0.0000000000000E+00 -0.7684091593666E+00
-0.5611416917975E-01  0.3151659928635E-01  0.0000000000000E+00 -0.7556811360857E+00
-0.7397726896216E-01  0.4800125023829E-01  0.0000000000000E+00 -0.7358349574584E+00
-0.9136779066379E-01  0.6418411066754E-01  0.0000000000000E+00 -0.7088631649728E+00
-0.1072145721888E+00  0.7901584055689E-01  0.0000000000000E+00 -0.6759875306205E+00
-0.1214585556528E+00  0.9243113789293E-01  0.0000000000000E+00 -0.6408426336988E+00
 0.5993623004080E-02 -0.1468538125053E-01  0.0000000000000E+00 -0.4508039071153E+00
 0.2212870180067E-01 -0.3007192610598E-01  0.0000000000000E+00 -0.4988291026285E+00
 0.3165927575803E-01 -0.3936760769920E-01  0.0000000000000E+00 -0.5431978751563E+00
 0.3671565501398E-01 -0.4461859685738E-01  0.0000000000000E+00 -0.5825802637059E+00
 0.3883655380933E-01 -0.4729258590332E-01  0.0000000000000E+00 -0.6170100938245E+00
 0.3898466006148E-01 -0.4829266561244E-01  0.0000000000000E+00 -0.6471469019329E+00
 0.3763977205957E-01 -0.4804775509833E-01  0.0000000000000E+00 -0.6738208971372E+00
 0.3490897477566E-01 -0.4661891870009E-01  0.0000000000000E+00 -0.6977301332975E+00
 0.3064515364160E-01 -0.4381590597360E-01  0.0000000000000E+00 -0.7192295181532E+00
 0.2457125998144E-01 -0.3932070755153E-01  0.0000000000000E+00 -0.7382201429255E+00
 0.1641748152468E-01 -0.3282556037408E-01  0.0000000000000E+00 -0.7541358333272E+00
 0.6039167900450E-02 -0.2415316928966E-01  0.0000000000000E+00 -0.7661246586581E+00
-0.6535539746370E-02 -0.1330589755191E-01  0.0000000000000E+00 -0.7733024731667E+00
-0.2110106377698E-01 -0.4669965517301E-03  0.0000000000000E+00 -0.7748777946712E+00
-0.3730671141683E-01  0.1403843492223E-01  0.0000000000000E+00 -0.7702521530066E+00
-0.5470979377145E-01  0.2980162564285E-01  0.0000000000000E+00 -0.7589898663434E+00
-0.7271011373525E-01  0.4629427740366E-01  0.0000000000000E+00 -0.7405700086653E+00
-0.9032894222200E-01  0.6260776921598E-01  0.0000000000000E+00 -0.7145790713306E+00
-0.1061462851404E+00  0.7734505578642E-01  0.0000000000000E+00 -0.6819487719766E+00
-0.1197831720180E+00  0.9007388296292E-01  0.0000000000000E+00 -0.6472452344894E+00
 0.5656248138294E-02 -0.1307877848445E-01  0.0000000000000E+00 -0.4419412983571E+00
 0.2162166035164E-01 -0.2832598167511E-01  0.0000000000000E+00 -0.4923659352312E+00
 0.3075057184775E-01 -0.3728378886025E-01  0.0000000000000E+00 -0.5378490926617E+00
 0.3544279077450E-01 -0.4225487311259E-01  0.0000000000000E+00 -0.5774487906056E+00
 0.3736660244631E-01 -0.4482678751850E-01  0.0000000000000E+00 -0.6115903821215E+00
 0.3752885457193E-01 -0.4594427088431E-01  0.0000000000000E+00 -0.6412637163899E+00
 0.3640018169160E-01 -0.4602377756524E-01  0.0000000000000E+00 -0.6675607599934E+00
 0.3404453194591E-01 -0.4508176917481E-01  0.0000000000000E+00 -0.6913615385584E+00
 0.3025283830893E-01 -0.4286486758832E-01  0.0000000000000E+00 -0.7131248241937E+00
 0.2467710418510E-01 -0.3898314153213E-01  0.0000000000000E+00 -0.7327778259720E+00
 0.1698342325774E-01 -0.3306400426731E-01  0.0000000000000E+00 -0.7496966934326E+00
 0.6987436713647E-02 -0.2489035967091E-01  0.0000000000000E+00 -0.7629191245139E+00
-0.5295348297706E-02 -0.1445310864490E-01  0.0000000000000E+00 -0.7714523377847E+00
-0.1964840320092E-01 -0.1947650382543E-02  0.0000000000000E+00 -0.7744199253215E+00
-0.3570056508430E-01  0.1227712632610E-01  0.0000000000000E+00 -0.7711962383347E+00
-0.5300298260100E-01  0.2780502949768E-01  0.0000000000000E+00 -0.7614038145013E+00
-0.7105999069431E-01  0.4418257392308E-01  0.0000000000000E+00 -0.7446802721243E+00
-0.8899560459382E-01  0.6071081214783E-01  0.0000000000000E+00 -0.7200884365959E+00
-0.1049629576803E+00  0.7557257331664E-01  0.0000000000000E+00 -0.6875660570677E+00
-0.1178648296413E+00  0.8753496485907E-01  0.0000000000000E+00 -0.6525566366868E+00
 0.5224046799749E-02 -0.1127759859059E-01  0.0000000000000E+00 -0.4329795709237E+00
 0.2085132968034E-01 -0.2622937258569E-01  0.0000000000000E+00 -0.4858439072696E+00
 0.2946418612880E-01 -0.3475503383263E-01  0.0000000000000E+00 -0.5323384046214E+00
 0.3372945529898E-01 -0.3939081998000E-01  0.0000000000000E+00 -0.5719959154815E+00
 0.3544133108182E-01 -0.4185549545582E-01  0.0000000000000E+00 -0.6056537847907E+00
 0.3564572486719E-01 -0.4312480186537E-01  0.0000000000000E+00 -0.6346815596884E+00
 0.3479069525450E-01 -0.4359118817084E-01  0.0000000000000E+00 -0.6604489084358E+00
 0.3288741811842E-01 -0.4321688911781E-01  0.0000000000000E+00 -0.6840271470655E+00
 0.2965624610350E-01 -0.4167741682371E-01  0.0000000000000E+00 -0.7059844074336E+00
 0.2466850402152E-01 -0.3850158685635E-01  0.0000000000000E+00 -0.7262786918078E+00
 0.1751559127964E-01 -0.3324084314564E-01  0.0000000000000E+00 -0.7442196237608E+00
 0.7967971242691E-02 -0.2563312238606E-01  0.0000000000000E+00 -0.7587120514531E+00
-0.3969874628760E-02 -0.1566006294207E-01  0.0000000000000E+00 -0.7686357961427E+00
-0.1806516137225E-01 -0.3535567345402E-02  0.0000000000000E+00 -0.7730169065696E+00
-0.3391291396190E-01  0.1035797838446E-01  0.0000000000000E+00 -0.7711874665200E+00
-0.5104231067559E-01  0.2557294796382E-01  0.0000000000000E+00 -0.7628117134440E+00
-0.6895259005007E-01  0.4165907236504E-01  0.0000000000000E+00 -0.7477228643387E+00
-0.8717536177975E-01  0.5817540406741E-01  0.0000000000000E+00 -0.7255431261323E+00
-0.1037589735126E+00  0.7381016793365E-01  0.0000000000000E+00 -0.6935899176468E+00
-0.1160020034779E+00  0.8519370486157E-01  0.0000000000000E+00 -0.6565956044532E+00
 0.4665251601604E-02 -0.9206698005339E-02  0.0000000000000E+00 -0.4239058996261E+00
 0.1977964438405E-01 -0.2376058941285E-01  0.0000000000000E+00 -0.4792104107082E+00
 0.2776075161121E-01 -0.3173070266107E-01  0.0000000000000E+00 -0.5266826184367E+00
 0.3152076317191E-01 -0.3597088052610E-01  0.0000000000000E+00 -0.5661947876994E+00
 0.3301001597402E-01 -0.3832599383178E-01  0.0000000000000E+00 -0.5991580161847E+00
 0.3328771422015E-01 -0.3978556719962E-01  0.0000000000000E+00 -0.6273474357552E+00
 0.3276831683986E-01 -0.4070566661069E-01  0.0000000000000E+00 -0.6524256749981E+00
 0.3139954830158E-01 -0.4098505150437E-01  0.0000000000000E+00 -0.6756630678137E+00
 0.2882307796365E-01 -0.4021961691802E-01  0.0000000000000E+00 -0.6977405693705E+00
 0.2452108231543E-01 -0.3785004228503E-01  0.0000000000000E+00 -0.7186541340703E+00
 0.1799647296173E-01 -0.3333826729351E-01  0.0000000000000E+00 -0.7376498207133E+00
 0.8963365893463E-02 -0.2636173826851E-01  0.0000000000000E+00 -0.7534625027065E+00
-0.2579500120840E-02 -0.1690375832405E-01  0.0000000000000E+00 -0.7648111106079E+00
-0.1637281079998E-01 -0.5206732677972E-02  0.0000000000000E+00 -0.7706273572926E+00
-0.3197722578093E-01  0.8313364588103E-02  0.0000000000000E+00 -0.7701907154510E+00
-0.4887096322683E-01  0.2316109542731E-01  0.0000000000000E+00 -0.7631685119393E+00
-0.6653742650585E-01  0.3883677863427E-01  0.0000000000000E+00 -0.7494903524514E+00
-0.8440784713425E-01  0.5487622975400E-01  0.0000000000000E+00 -0.7294089883573E+00
-0.1021713321366E+00  0.7082433231769E-01  0.0000000000000E+00 -0.7024205839748E+00
-0.1150788916915E+00  0.8475172379171E-01  0.0000000000000E+00 -0.6612872539886E+00
 0.2938640979627E+00 -0.5035771044164E+00  0.0000000000000E+00 -0.7018552429345E+00
 0.4487924052619E+00 -0.4963323435906E+00  0.0000000000000E+00  0.1175632797030E+00
 0.3107608441617E+00 -0.3461906209233E+00  0.0000000000000E+00  0.1332704519531E+00
 0.2367836577114E+00 -0.2646576755121E+00  0.0000000000000E+00  0.8874242624524E-01
 0.1872810178788E+00 -0.2100957946626E+00  0.0000000000000E+00  0.6038339648093E-01
 0.1512051515948E+00 -0.1698243554528E+00  0.0000000000000E+00  0.3945619776533E-01
 0.1226415237395E+00 -0.1378070359436E+00  0.0000000000000E+00  0.2366153059444E-01
 0.9906401748866E-01 -0.1113346044203E+00  0.0000000000000E+00  0.1157658790189E-01
 0.7908832033380E-01 -0.8888047669729E-01  0.0000000000000E+00  0.2589696444170E-02
 0.6196540863525E-01 -0.6962500722070E-01  0.0000000000000E+00 -0.3748516096418E-02
 0.4715904959293E-01 -0.5300441140875E-01  0.0000000000000E+00 -0.7712512268316E-02
 0.3428141348275E-01 -0.3847473237445E-01  0.0000000000000E+00 -0.1024671632810E-01
 0.2402314280580E-01 -0.2671600285215E-01  0.0000000000000E+00 -0.1184048944647E-01
 0.1648016357719E-01 -0.1823433054168E-01  0.0000000000000E+00 -0.1331866866377E-01
 0.1107956103054E-01 -0.1237264574241E-01  0.0000000000000E+00 -0.1451580349985E-01
 0.7377727419577E-02 -0.8439214792471E-02  0.0000000000000E+00 -0.1496440846708E-01
 0.4715658107616E-02 -0.5676841554406E-02  0.0000000000000E+00 -0.1487401499079E-01
 0.2696245196292E-02 -0.3567983748734E-02  0.0000000000000E+00 -0.1415414806456E-01
 0.1096888067996E-02 -0.1834477603530E-02  0.0000000000000E+00 -0.1271152159846E-01
-0.2764155344881E-03 -0.2846312963487E-03  0.0000000000000E+00 -0.1077527609892E-01
 0.2442708612404E+00 -0.3703848929323E+00  0.0000000000000E+00 -0.8720149749522E+00
 0.4238173534986E+00 -0.5050047540212E+00  0.0000000000000E+00 -0.2740151546262E+00
 0.3471068321005E+00 -0.3871072622036E+00  0.0000000000000E+00 -0.8300175721674E-02
 0.2633985698898E+00 -0.2939325531930E+00  0.0000000000000E+00  0.2001564032154E-01
 0.2077669382172E+00 -0.2322293298139E+00  0.0000000000000E+00  0.1098254390074E-01
 0.1675740012483E+00 -0.1876514677366E+00  0.0000000000000E+00 -0.1235969000852E-03
 0.1365099438097E+00 -0.1529867743068E+00  0.0000000000000E+00 -0.9891025580965E-02
 0.1111764528811E+00 -0.1246584019792E+00  0.0000000000000E+00 -0.1773794218620E-01
 0.8987702697329E-01 -0.1008180076046E+00  0.0000000000000E+00 -0.2359357122779E-01
 0.7165703778942E-01 -0.8042312534099E-01  0.0000000000000E+00 -0.2742847378141E-01
 0.5591419969779E-01 -0.6279626492205E-01  0.0000000000000E+00 -0.2943361486287E-01
 0.4235674278610E-01 -0.4756771218858E-01  0.0000000000000E+00 -0.3018579485596E-01
 0.3139403689384E-01 -0.3518690826999E-01  0.0000000000000E+00 -0.2970870449734E-01
 0.2287604621013E-01 -0.2563459341021E-01  0.0000000000000E+00 -0.2882970740541E-01
 0.1623676604251E-01 -0.1837311639103E-01  0.0000000000000E+00 -0.2818248931792E-01
 0.1116812376729E-01 -0.1296197491420E-01  0.0000000000000E+00 -0.2747760614312E-01
 0.7207024453225E-02 -0.8801712307597E-02  0.0000000000000E+00 -0.2654301259821E-01
 0.3996177853489E-02 -0.5435670142037E-02  0.0000000000000E+00 -0.2517310929256E-01
 0.1361279549812E-02 -0.2628491847025E-02  0.0000000000000E+00 -0.2323617702801E-01
-0.7929363397601E-03 -0.2960735029354E-03  0.0000000000000E+00 -0.2094631968237E-01
 0.1934646435290E+00 -0.2955751321912E+00  0.0000000000000E+00 -0.8599170026332E+00
 0.3642647967715E+00 -0.4393090798220E+00  0.0000000000000E+00 -0.4685947798261E+00
 0.3455141009805E+00 -0.3956632889388E+00  0.0000000000000E+00 -0.1891903972530E+00
 0.2819785059109E+00 -0.3155399762489E+00  0.0000000000000E+00 -0.7367027133202E-01
 0.2249793588824E+00 -0.2514106441901E+00  0.0000000000000E+00 -0.4835862506025E-01
 0.1823694479319E+00 -0.2039028829736E+00  0.0000000000000E+00 -0.4521166805089E-01
 0.1492885934708E+00 -0.1670669136405E+00  0.0000000000000E+00 -0.4713806777494E-01
 0.1224840351373E+00 -0.1371653919414E+00  0.0000000000000E+00 -0.4988206586278E-01
 0.1000217865428E+00 -0.1120979485905E+00  0.0000000000000E+00 -0.5206050065449E-01
 0.8082593479362E-01 -0.9067667880128E-01  0.0000000000000E+00 -0.5310006063202E-01
 0.6425280064093E-01 -0.7217953200803E-01  0.0000000000000E+00 -0.5283935627844E-01
 0.4997983307654E-01 -0.5622162908173E-01  0.0000000000000E+00 -0.5138317193935E-01
 0.3817912496488E-01 -0.4299656495324E-01  0.0000000000000E+00 -0.4885637039555E-01
 0.2868616547398E-01 -0.3242147046554E-01  0.0000000000000E+00 -0.4610848191076E-01
 0.2098137662846E-01 -0.2398585737841E-01  0.0000000000000E+00 -0.4375449574193E-01
 0.1473169618008E-01 -0.1727900945850E-01  0.0000000000000E+00 -0.4169849769380E-01
 0.9593901004358E-02 -0.1185056667935E-01  0.0000000000000E+00 -0.3970766779094E-01
 0.5297313041975E-02 -0.7330740454963E-02  0.0000000000000E+00 -0.3744996494625E-01
 0.1720658603345E-02 -0.3542565253178E-02  0.0000000000000E+00 -0.3473050076291E-01
-0.1168234265290E-02 -0.4649892758795E-03  0.0000000000000E+00 -0.3165310544541E-01
 0.1556278226351E+00 -0.2436908599283E+00  0.0000000000000E+00 -0.8272436346359E+00
 0.3082263914205E+00 -0.3782765068555E+00  0.0000000000000E+00 -0.5716582295861E+00
 0.3234840777343E+00 -0.3755898130230E+00  0.0000000000000E+00 -0.3287591414395E+00
 0.2855898698652E+00 -0.3232050010445E+00  0.0000000000000E+00 -0.1811793544653E+00
 0.2367837087424E+00 -0.2653128204866E+00  0.0000000000000E+00 -0.1182675498065E+00
 0.1945335668217E+00 -0.2176200555640E+00  0.0000000000000E+00 -0.9623218872456E-01
 0.1605448214742E+00 -0.1796162875850E+00  0.0000000000000E+00 -0.8820158223418E-01
 0.1327222337987E+00 -0.1485887514424E+00  0.0000000000000E+00 -0.8484605970289E-01
 0.1093557378586E+00 -0.1225490410091E+00  0.0000000000000E+00 -0.8281339756567E-01
 0.8934937439238E-01 -0.1002708614530E+00  0.0000000000000E+00 -0.8071062954162E-01
 0.7204150653932E-01 -0.8100609650684E-01  0.0000000000000E+00 -0.7790171298447E-01
 0.5707415148819E-01 -0.6433218650434E-01  0.0000000000000E+00 -0.7407897303465E-01
 0.4445003792830E-01 -0.5026566221649E-01  0.0000000000000E+00 -0.6947104442488E-01
 0.3401627039985E-01 -0.3870354928121E-01  0.0000000000000E+00 -0.6493508549152E-01
 0.2532318093426E-01 -0.2919769988880E-01  0.0000000000000E+00 -0.6095967951134E-01
 0.1802316499412E-01 -0.2134360814268E-01  0.0000000000000E+00 -0.5748450827670E-01
 0.1183458415056E-01 -0.1477609784999E-01  0.0000000000000E+00 -0.5426204085084E-01
 0.6553025843075E-02 -0.9204221433092E-02  0.0000000000000E+00 -0.5090013469063E-01
 0.2103985075280E-02 -0.4500376797613E-02  0.0000000000000E+00 -0.4713236368795E-01
-0.1526209363332E-02 -0.6482849365659E-03  0.0000000000000E+00 -0.4299742285370E-01
 0.1266976426499E+00 -0.2054680606905E+00  0.0000000000000E+00 -0.7909107946725E+00
 0.2599619053185E+00 -0.3255503051636E+00  0.0000000000000E+00 -0.6290927521727E+00
 0.2943294072229E+00 -0.3463780132822E+00  0.0000000000000E+00 -0.4303445673059E+00
 0.2777040119113E+00 -0.3174772548118E+00  0.0000000000000E+00 -0.2795223105863E+00
 0.2410817782676E+00 -0.2718315457114E+00  0.0000000000000E+00 -0.1939522279433E+00
 0.2029895498261E+00 -0.2276541133026E+00  0.0000000000000E+00 -0.1525489262620E+00
 0.1696840166826E+00 -0.1900614511267E+00  0.0000000000000E+00 -0.1329807008624E+00
 0.1415826373263E+00 -0.1586172311953E+00  0.0000000000000E+00 -0.1225562115132E+00
 0.1176833353135E+00 -0.1319747704079E+00  0.0000000000000E+00 -0.1157772736455E+00
 0.9708626844848E-01 -0.1090614236125E+00  0.0000000000000E+00 -0.1101993655276E+00
 0.7917338305116E-01 -0.8916095761314E-01  0.0000000000000E+00 -0.1046172866556E+00
 0.6358176811360E-01 -0.7183989071304E-01  0.0000000000000E+00 -0.9832599224964E-01
 0.5020071199053E-01 -0.5699375586066E-01  0.0000000000000E+00 -0.9158962222078E-01
 0.3889221716191E-01 -0.4451483430062E-01  0.0000000000000E+00 -0.8524915837216E-01
 0.2928110359249E-01 -0.3402244531635E-01  0.0000000000000E+00 -0.7964649080038E-01
 0.2102733139998E-01 -0.2513221677701E-01  0.0000000000000E+00 -0.7469161019388E-01
 0.1389351866455E-01 -0.1753885824843E-01  0.0000000000000E+00 -0.7010558394753E-01
 0.7718213434812E-02 -0.1100697853945E-01  0.0000000000000E+00 -0.6545676330626E-01
 0.2452719691787E-02 -0.5437140671637E-02  0.0000000000000E+00 -0.6043901260799E-01
-0.1904407695392E-02 -0.8181044261915E-03  0.0000000000000E+00 -0.5506182497408E-01
 0.1043057498007E+00 -0.1761879212994E+00  0.0000000000000E+00 -0.7570002578544E+00
 0.2193601989567E+00 -0.2811668571370E+00  0.0000000000000E+00 -0.6607101975120E+00
 0.2636960723990E+00 -0.3147973359486E+00  0.0000000000000E+00 -0.5034063270893E+00
 0.2629382241713E+00 -0.3037408166244E+00  0.0000000000000E+00 -0.3628317326974E+00
 0.2385754235231E+00 -0.2709841847329E+00  0.0000000000000E+00 -0.2675064123109E+00
 0.2069463612727E+00 -0.2331468946824E+00  0.0000000000000E+00 -0.2117222926965E+00
 0.1761407626714E+00 -0.1978044243872E+00  0.0000000000000E+00 -0.1807729487600E+00
 0.1487110225078E+00 -0.1668960158163E+00  0.0000000000000E+00 -0.1627475400292E+00
 0.1247872925692E+00 -0.1401542751518E+00  0.0000000000000E+00 -0.1507963574731E+00
 0.1038880944047E+00 -0.1168959640517E+00  0.0000000000000E+00 -0.1414653936300E+00
 0.8554527354570E-01 -0.9653682540070E-01  0.0000000000000E+00 -0.1329351313495E+00
 0.6944012344976E-01 -0.7868007645165E-01  0.0000000000000E+00 -0.1241032214859E+00
 0.5540115224496E-01 -0.6315319880791E-01  0.0000000000000E+00 -0.1151914526421E+00
 0.4330645212970E-01 -0.4985000240285E-01  0.0000000000000E+00 -0.1069959814830E+00
 0.3285525807935E-01 -0.3845880881924E-01  0.0000000000000E+00 -0.9971921414636E-01
 0.2373459478296E-01 -0.2863025838129E-01  0.0000000000000E+00 -0.9321142132533E-01
 0.1574598630071E-01 -0.2010910915112E-01  0.0000000000000E+00 -0.8714963750981E-01
 0.8757593615581E-02 -0.1269958604684E-01  0.0000000000000E+00 -0.8107106877618E-01
 0.2732021763533E-02 -0.6317257720639E-02  0.0000000000000E+00 -0.7465060683636E-01
-0.2324118099658E-02 -0.9545395947748E-03  0.0000000000000E+00 -0.6788552205296E-01
 0.8673126406704E-01 -0.1531823503041E+00  0.0000000000000E+00 -0.7270554643015E+00
 0.1854225186096E+00 -0.2439510479360E+00  0.0000000000000E+00 -0.6769395844193E+00
 0.2341041001736E+00 -0.2839175331267E+00  0.0000000000000E+00 -0.5556141383976E+00
 0.2445338746800E+00 -0.2856415350519E+00  0.0000000000000E+00 -0.4309843469080E+00
 0.2309318550559E+00 -0.2644600355969E+00  0.0000000000000E+00 -0.3347290078800E+00
 0.2065338608483E+00 -0.2340359393769E+00  0.0000000000000E+00 -0.2703826744674E+00
 0.1795536001198E+00 -0.2024382697834E+00  0.0000000000000E+00 -0.2301707075546E+00
 0.1537935795074E+00 -0.1730928819044E+00  0.0000000000000E+00 -0.2048315332274E+00
 0.1304460427955E+00 -0.1468603463860E+00  0.0000000000000E+00 -0.1875789025990E+00
 0.1096037808558E+00 -0.1236188380620E+00  0.0000000000000E+00 -0.1743362475925E+00
 0.9105338357922E-01 -0.1030262785668E+00  0.0000000000000E+00 -0.1627486896470E+00
 0.7458195889235E-01 -0.8478349018936E-01  0.0000000000000E+00 -0.1513372054831E+00
 0.6000910739083E-01 -0.6870177574597E-01  0.0000000000000E+00 -0.1402167837980E+00
 0.4723506229478E-01 -0.5468563357204E-01  0.0000000000000E+00 -0.1301113802117E+00
 0.3603304392175E-01 -0.4249284675677E-01  0.0000000000000E+00 -0.1210980809755E+00
 0.2613249058774E-01 -0.3182189365531E-01  0.0000000000000E+00 -0.1129584058697E+00
 0.1737365487551E-01 -0.2246429254561E-01  0.0000000000000E+00 -0.1053216267683E+00
 0.9648025263710E-02 -0.1425572907849E-01  0.0000000000000E+00 -0.9769991149889E-01
 0.2920721214156E-02 -0.7118264344213E-02  0.0000000000000E+00 -0.8975962809038E-01
-0.2797081447643E-02 -0.1046958906951E-02  0.0000000000000E+00 -0.8148920902857E-01
 0.7278009380786E-01 -0.1347631707375E+00  0.0000000000000E+00 -0.7013001657083E+00
 0.1570840203707E+00 -0.2127200988632E+00  0.0000000000000E+00 -0.6837096206263E+00
 0.2066366830438E+00 -0.2550331620762E+00  0.0000000000000E+00 -0.5925983621543E+00
 0.2245819603886E+00 -0.2655524855252E+00  0.0000000000000E+00 -0.4856693407701E+00
 0.2197786937878E+00 -0.2539816863447E+00  0.0000000000000E+00 -0.3939400324483E+00
 0.2024089254468E+00 -0.2309334125943E+00  0.0000000000000E+00 -0.3260386408002E+00
 0.1799353256220E+00 -0.2039073991607E+00  0.0000000000000E+00 -0.2794316955149E+00
 0.1566430742836E+00 -0.1769941330637E+00  0.0000000000000E+00 -0.2479064320975E+00
 0.1344770022977E+00 -0.1518981873725E+00  0.0000000000000E+00 -0.2256533793434E+00
 0.1140927244713E+00 -0.1290834092129E+00  0.0000000000000E+00 -0.2085411314209E+00
 0.9559725424744E-01 -0.1085248277063E+00  0.0000000000000E+00 -0.1938867608449E+00
 0.7893839293455E-01 -0.9007878244701E-01  0.0000000000000E+00 -0.1799064655640E+00
 0.6397667797513E-01 -0.7359054945734E-01  0.0000000000000E+00 -0.1665721451015E+00
 0.5064583910216E-01 -0.5898886745800E-01  0.0000000000000E+00 -0.1545152810963E+00
 0.3879417083476E-01 -0.4610277538120E-01  0.0000000000000E+00 -0.1437048288279E+00
 0.2820569292413E-01 -0.3468905649558E-01  0.0000000000000E+00 -0.1338569920521E+00
 0.1876165316609E-01 -0.2458623391648E-01  0.0000000000000E+00 -0.1245576284310E+00
 0.1037470983707E-01 -0.1565782829835E-01  0.0000000000000E+00 -0.1153012399316E+00
 0.3007252642263E-02 -0.7827266685936E-02  0.0000000000000E+00 -0.1057511432359E+00
-0.3329031315610E-02 -0.1089758625799E-02  0.0000000000000E+00 -0.9588046333293E-01
 0.6159821724160E-01 -0.1197960861199E+00  0.0000000000000E+00 -0.6794612169166E+00
 0.1334000854470E+00 -0.1864441037010E+00  0.0000000000000E+00 -0.6846128950580E+00
 0.1816960526890E+00 -0.2286425773766E+00  0.0000000000000E+00 -0.6184155949077E+00
 0.2043841480599E+00 -0.2449425936583E+00  0.0000000000000E+00 -0.5289683222014E+00
 0.2064441627353E+00 -0.2409836965250E+00  0.0000000000000E+00 -0.4448662881043E+00
 0.1953908179159E+00 -0.2246688445045E+00  0.0000000000000E+00 -0.3772026972281E+00
 0.1775787822096E+00 -0.2024721827198E+00  0.0000000000000E+00 -0.3270479527045E+00
 0.1572549998229E+00 -0.1785646755960E+00  0.0000000000000E+00 -0.2909260720014E+00
 0.1367780080403E+00 -0.1551497650190E+00  0.0000000000000E+00 -0.2643920011764E+00
 0.1172473486705E+00 -0.1331734672392E+00  0.0000000000000E+00 -0.2437006604140E+00
 0.9908948277130E-01 -0.1129400619027E+00  0.0000000000000E+00 -0.2261061123574E+00
 0.8244474232056E-01 -0.9449813658131E-01  0.0000000000000E+00 -0.2096401749606E+00
 0.6725563356396E-01 -0.7776945649711E-01  0.0000000000000E+00 -0.1941305843489E+00
 0.5350358082016E-01 -0.6272314748606E-01  0.0000000000000E+00 -0.1801084640476E+00
 0.4111456466787E-01 -0.4926279506656E-01  0.0000000000000E+00 -0.1674550470327E+00
 0.2993710464829E-01 -0.3721224876621E-01  0.0000000000000E+00 -0.1558330499871E+00
 0.1989697348369E-01 -0.2645915631714E-01  0.0000000000000E+00 -0.1447958122678E+00
 0.1092819173314E-01 -0.1689399504047E-01  0.0000000000000E+00 -0.1338307349617E+00
 0.2986820133421E-02 -0.8437948728677E-02  0.0000000000000E+00 -0.1226028240998E+00
-0.3920805330923E-02 -0.1081711419579E-02  0.0000000000000E+00 -0.1110575478240E+00
 0.5256228677657E-01 -0.1074843768578E+00  0.0000000000000E+00 -0.6611055397174E+00
 0.1135760744099E+00 -0.1642696458051E+00  0.0000000000000E+00 -0.6819132184252E+00
 0.1593512748833E+00 -0.2048591964235E+00  0.0000000000000E+00 -0.6360067146811E+00
 0.1847316738606E+00 -0.2247056243635E+00  0.0000000000000E+00 -0.5628623739778E+00
 0.1919350160423E+00 -0.2265590879549E+00  0.0000000000000E+00 -0.4879347450158E+00
 0.1862743451749E+00 -0.2160707256768E+00  0.0000000000000E+00 -0.4231666787783E+00
 0.1729216362307E+00 -0.1985630707655E+00  0.0000000000000E+00 -0.3719243289520E+00
 0.1557820201476E+00 -0.1779374203650E+00  0.0000000000000E+00 -0.3329159719962E+00
 0.1373496606382E+00 -0.1565992774761E+00  0.0000000000000E+00 -0.3030942434405E+00
 0.1190136860784E+00 -0.1358249046181E+00  0.0000000000000E+00 -0.2793481301791E+00
 0.1014688206688E+00 -0.1162045068246E+00  0.0000000000000E+00 -0.2590936834584E+00
 0.8504844586769E-01 -0.9798507498393E-01  0.0000000000000E+00 -0.2403174328673E+00
 0.6980307051803E-01 -0.8119308384822E-01  0.0000000000000E+00 -0.2227307500359E+00
 0.5577460507321E-01 -0.6585291439409E-01  0.0000000000000E+00 -0.2067702871022E+00
 0.4296959698388E-01 -0.5194635823988E-01  0.0000000000000E+00 -0.1922538595001E+00
 0.3130908953908E-01 -0.3937158507538E-01  0.0000000000000E+00 -0.1788086760745E+00
 0.2076761349695E-01 -0.2806861093519E-01  0.0000000000000E+00 -0.1659719587102E+00
 0.1130222132459E-01 -0.1795573124819E-01  0.0000000000000E+00 -0.1532390346206E+00
 0.2859485127615E-02 -0.8948702863524E-02  0.0000000000000E+00 -0.1402843551804E+00
-0.4569014119513E-02 -0.1025367514803E-02  0.0000000000000E+00 -0.1270109801531E+00
 0.4520812748437E-01 -0.9725003073575E-01  0.0000000000000E+00 -0.6457715031794E+00
 0.9695524988782E-01 -0.1454984625276E+00  0.0000000000000E+00 -0.6770740747138E+00
 0.1395083865991E+00 -0.1836103762913E+00  0.0000000000000E+00 -0.6475256880742E+00
 0.1660889776804E+00 -0.2053699081282E+00  0.0000000000000E+00 -0.5890834986799E+00
 0.1769855044059E+00 -0.2115075906092E+00  0.0000000000000E+00 -0.5238813307190E+00
 0.1757528672826E+00 -0.2058704978152E+00  0.0000000000000E+00 -0.4637449812740E+00
 0.1664463487189E+00 -0.1926707024262E+00  0.0000000000000E+00 -0.4133721782130E+00
 0.1524800125726E+00 -0.1753596847775E+00  0.0000000000000E+00 -0.3730859486197E+00
 0.1362872652811E+00 -0.1563297921780E+00  0.0000000000000E+00 -0.3410845806606E+00
 0.1194016878406E+00 -0.1370376770203E+00  0.0000000000000E+00 -0.3149753102573E+00
 0.1027113495472E+00 -0.1182873535568E+00  0.0000000000000E+00 -0.2924832770113E+00
 0.8671761615060E-01 -0.1005030773908E+00  0.0000000000000E+00 -0.2716718882566E+00
 0.7158752965603E-01 -0.8382687181014E-01  0.0000000000000E+00 -0.2521775016563E+00
 0.5743124792982E-01 -0.6834821281836E-01  0.0000000000000E+00 -0.2343576504397E+00
 0.4433715086455E-01 -0.5412926407433E-01  0.0000000000000E+00 -0.2179937258279E+00
 0.3230478360910E-01 -0.4114802348342E-01  0.0000000000000E+00 -0.2026994921735E+00
 0.2136208956199E-01 -0.2940084490026E-01  0.0000000000000E+00 -0.1880169044017E+00
 0.1149211696333E-01 -0.1883619361334E-01  0.0000000000000E+00 -0.1734696595131E+00
 0.2628760770893E-02 -0.9361192457887E-02  0.0000000000000E+00 -0.1587561061975E+00
-0.5266276072168E-02 -0.9268603376980E-03  0.0000000000000E+00 -0.1437238521900E+00
 0.3918419438646E-01 -0.8866296023401E-01  0.0000000000000E+00 -0.6330225287761E+00
 0.8299756688458E-01 -0.1295604147482E+00  0.0000000000000E+00 -0.6710548936241E+00
 0.1219970237381E+00 -0.1647360669528E+00  0.0000000000000E+00 -0.6545661425965E+00
 0.1487111846535E+00 -0.1872315795928E+00  0.0000000000000E+00 -0.6090919623551E+00
 0.1621168641847E+00 -0.1963988572255E+00  0.0000000000000E+00 -0.5535440535519E+00
 0.1643978071999E+00 -0.1946749487465E+00  0.0000000000000E+00 -0.4990749029740E+00
 0.1586202742130E+00 -0.1852777859149E+00  0.0000000000000E+00 -0.4510341995946E+00
 0.1476568945813E+00 -0.1711394609595E+00  0.0000000000000E+00 -0.4108623923787E+00
 0.1337570683698E+00 -0.1545006047395E+00  0.0000000000000E+00 -0.3777781589335E+00
 0.1184822149929E+00 -0.1368746047277E+00  0.0000000000000E+00 -0.3500834652297E+00
 0.1028359442207E+00 -0.1192007768774E+00  0.0000000000000E+00 -0.3258827771102E+00
 0.8744782547917E-01 -0.1020427186243E+00  0.0000000000000E+00 -0.3034033811784E+00
 0.7259485053518E-01 -0.8565311684551E-01  0.0000000000000E+00 -0.2822458680979E+00
 0.5845642579136E-01 -0.7018935017254E-01  0.0000000000000E+00 -0.2627058192933E+00
 0.4520082013571E-01 -0.5579290209434E-01  0.0000000000000E+00 -0.2445541057504E+00
 0.3290960931999E-01 -0.4252485461789E-01  0.0000000000000E+00 -0.2274140841951E+00
 0.2166916061972E-01 -0.3044245441516E-01  0.0000000000000E+00 -0.2108559074379E+00
 0.1149323753538E-01 -0.1952859581795E-01  0.0000000000000E+00 -0.1944578331178E+00
 0.2300329932956E-02 -0.9679023180386E-02  0.0000000000000E+00 -0.1779672653466E+00
-0.6001087667123E-02 -0.7959843600887E-03  0.0000000000000E+00 -0.1611710487435E+00
 0.3422035930941E-01 -0.8139658218060E-01  0.0000000000000E+00 -0.6224666167169E+00
 0.7125886530573E-01 -0.1159888333067E+00  0.0000000000000E+00 -0.6644870452242E+00
 0.1066157835031E+00 -0.1480397367318E+00  0.0000000000000E+00 -0.6583166683912E+00
 0.1327191119638E+00 -0.1704385435497E+00  0.0000000000000E+00 -0.6240976304276E+00
 0.1476896126550E+00 -0.1816291090396E+00  0.0000000000000E+00 -0.5777575858376E+00
 0.1526634316518E+00 -0.1829686874911E+00  0.0000000000000E+00 -0.5294785468378E+00
 0.1498651161263E+00 -0.1768237483940E+00  0.0000000000000E+00 -0.4847986656335E+00
 0.1416343105870E+00 -0.1656039266311E+00  0.0000000000000E+00 -0.4458750724425E+00
 0.1299693509627E+00 -0.1513198179398E+00  0.0000000000000E+00 -0.4127115384832E+00
 0.1163754037644E+00 -0.1354504922079E+00  0.0000000000000E+00 -0.3842225838087E+00
 0.1019029757794E+00 -0.1189994666423E+00  0.0000000000000E+00 -0.3589034656539E+00
 0.8726540550683E-01 -0.1026254392559E+00  0.0000000000000E+00 -0.3351944190593E+00
 0.7283265960391E-01 -0.8667569410264E-01  0.0000000000000E+00 -0.3126885199472E+00
 0.5884792867855E-01 -0.7137131654185E-01  0.0000000000000E+00 -0.2916313280968E+00
 0.4555334473705E-01 -0.5692776348102E-01  0.0000000000000E+00 -0.2718028766724E+00
 0.3311317627164E-01 -0.4348964199407E-01  0.0000000000000E+00 -0.2528555360446E+00
 0.2167774867105E-01 -0.3118029761199E-01  0.0000000000000E+00 -0.2344102443457E+00
 0.1129923358021E-01 -0.2002442749611E-01  0.0000000000000E+00 -0.2161307206568E+00
 0.1880435144997E-02 -0.9906065256846E-02  0.0000000000000E+00 -0.1978536040900E+00
-0.6757313056632E-02 -0.6465585428077E-03  0.0000000000000E+00 -0.1793172931735E+00
 0.3010646490483E-01 -0.7519870199356E-01  0.0000000000000E+00 -0.6137609641255E+00
 0.6137295585482E-01 -0.1044001340993E+00  0.0000000000000E+00 -0.6577829948473E+00
 0.9315627782301E-01 -0.1333150552157E+00  0.0000000000000E+00 -0.6596684950407E+00
 0.1181475969627E+00 -0.1550440402339E+00  0.0000000000000E+00 -0.6350936442810E+00
 0.1339450800871E+00 -0.1674661760940E+00  0.0000000000000E+00 -0.5973025056291E+00
 0.1409012653379E+00 -0.1711283779197E+00  0.0000000000000E+00 -0.5553724925391E+00
 0.1405446252338E+00 -0.1676898754320E+00  0.0000000000000E+00 -0.5147244544114E+00
 0.1347225590983E+00 -0.1590718714996E+00  0.0000000000000E+00 -0.4779247552850E+00
 0.1251548866986E+00 -0.1470196228353E+00  0.0000000000000E+00 -0.4455478611545E+00
 0.1132356901284E+00 -0.1329171478344E+00  0.0000000000000E+00 -0.4170145123409E+00
 0.1000079630849E+00 -0.1177747277956E+00  0.0000000000000E+00 -0.3911842692538E+00
 0.8622678829242E-01 -0.1023033045821E+00  0.0000000000000E+00 -0.3667275204292E+00
 0.7233264129933E-01 -0.8692257921359E-01  0.0000000000000E+00 -0.3432452233257E+00
 0.5862196491161E-01 -0.7190746313776E-01  0.0000000000000E+00 -0.3209362201592E+00
 0.4540031711269E-01 -0.5753727552906E-01  0.0000000000000E+00 -0.2995989680360E+00
 0.3291188851937E-01 -0.4403694728878E-01  0.0000000000000E+00 -0.2789249985445E+00
 0.2137725347669E-01 -0.3160190372434E-01  0.0000000000000E+00 -0.2586017730554E+00
 0.1089979690838E-01 -0.2031121125991E-01  0.0000000000000E+00 -0.2384101892156E+00
 0.1373279262152E-02 -0.1004377292394E-01  0.0000000000000E+00 -0.2183352578138E+00
-0.7513317689178E-02 -0.4969941687809E-03  0.0000000000000E+00 -0.1981135774378E+00
 0.2667720375226E-01 -0.6987171823626E-01  0.0000000000000E+00 -0.6066101193926E+00
 0.5303686673175E-01 -0.9447745395814E-01  0.0000000000000E+00 -0.6512063139248E+00
 0.8141581593988E-01 -0.1203598715517E+00  0.0000000000000E+00 -0.6592912509812E+00
 0.1049770378201E+00 -0.1410412946873E+00  0.0000000000000E+00 -0.6428905611876E+00
 0.1210370963689E+00 -0.1540837778065E+00  0.0000000000000E+00 -0.6128836700495E+00
 0.1293768258029E+00 -0.1594400460569E+00  0.0000000000000E+00 -0.5772107448994E+00
 0.1309626186301E+00 -0.1581961417499E+00  0.0000000000000E+00 -0.5409822284657E+00
 0.1272059764473E+00 -0.1518373710387E+00  0.0000000000000E+00 -0.5069463668230E+00
 0.1195469344320E+00 -0.1418370921747E+00  0.0000000000000E+00 -0.4760670708918E+00
 0.1092371108691E+00 -0.1294482646906E+00  0.0000000000000E+00 -0.4481620582525E+00
 0.9727255059945E-01 -0.1156455565110E+00  0.0000000000000E+00 -0.4224081427359E+00
 0.8441449873868E-01 -0.1011552569197E+00  0.0000000000000E+00 -0.3977001803602E+00
 0.7115017317018E-01 -0.8644562734890E-01  0.0000000000000E+00 -0.3736520486446E+00
 0.5781544497759E-01 -0.7183188668416E-01  0.0000000000000E+00 -0.3504118922416E+00
 0.4476423525558E-01 -0.5764194143278E-01  0.0000000000000E+00 -0.3277944926836E+00
 0.3231293095557E-01 -0.4417261683410E-01  0.0000000000000E+00 -0.3055266675779E+00
 0.2075894819287E-01 -0.3169709685215E-01  0.0000000000000E+00 -0.2833615616036E+00
 0.1027779084507E-01 -0.2036977424218E-01  0.0000000000000E+00 -0.2612204008286E+00
 0.7763183988363E-03 -0.1008633662453E-01  0.0000000000000E+00 -0.2393156036063E+00
-0.8240927635187E-02 -0.3707795087919E-03  0.0000000000000E+00 -0.2174909692566E+00
 0.2380116416757E-01 -0.6525867136345E-01  0.0000000000000E+00 -0.6007615608450E+00
 0.4599885776680E-01 -0.8595761117820E-01  0.0000000000000E+00 -0.6449176177289E+00
 0.7120389456193E-01 -0.1089833589148E+00  0.0000000000000E+00 -0.6576869952236E+00
 0.9315429628974E-01 -0.1283863296793E+00  0.0000000000000E+00 -0.6481469072000E+00
 0.1090557940350E+00 -0.1415871591827E+00  0.0000000000000E+00 -0.6251239644949E+00
 0.1182855429026E+00 -0.1481157668540E+00  0.0000000000000E+00 -0.5954498370748E+00
 0.1213663336594E+00 -0.1486041187798E+00  0.0000000000000E+00 -0.5638108630623E+00
 0.1193356431867E+00 -0.1441614347969E+00  0.0000000000000E+00 -0.5329747360516E+00
 0.1133687048443E+00 -0.1360006536517E+00  0.0000000000000E+00 -0.5041491078282E+00
 0.1045607411927E+00 -0.1252263004220E+00  0.0000000000000E+00 -0.4774481645564E+00
 0.9383482656059E-01 -0.1127488386482E+00  0.0000000000000E+00 -0.4523108243245E+00
 0.8193093075543E-01 -0.9928099002728E-01  0.0000000000000E+00 -0.4278361425678E+00
 0.6936109214399E-01 -0.8531745031574E-01  0.0000000000000E+00 -0.4036492597180E+00
 0.5648622844534E-01 -0.7119940679858E-01  0.0000000000000E+00 -0.3798401069634E+00
 0.4368869803053E-01 -0.5728366493641E-01  0.0000000000000E+00 -0.3562329998370E+00
 0.3134099688526E-01 -0.4392068896053E-01  0.0000000000000E+00 -0.3325709315080E+00
 0.1982038200579E-01 -0.3146332436938E-01  0.0000000000000E+00 -0.3086439194945E+00
 0.9406258884086E-02 -0.2017144666417E-01  0.0000000000000E+00 -0.2845049736304E+00
 0.7149761620795E-04 -0.1001185029250E-01  0.0000000000000E+00 -0.2606843996748E+00
-0.8905070391432E-02 -0.2956443370097E-03  0.0000000000000E+00 -0.2373501031989E+00
 0.2137259542341E-01 -0.6123301569029E-01  0.0000000000000E+00 -0.5960006244993E+00
 0.4004865408828E-01 -0.7862055537974E-01  0.0000000000000E+00 -0.6390047516676E+00
 0.6234537287601E-01 -0.9900965013909E-01  0.0000000000000E+00 -0.6552290614809E+00
 0.8260683547649E-01 -0.1170132477887E+00  0.0000000000000E+00 -0.6513953120253E+00
 0.9804541622874E-01 -0.1300322294160E+00  0.0000000000000E+00 -0.6345660626837E+00
 0.1077667017773E+00 -0.1373082913301E+00  0.0000000000000E+00 -0.6105283947270E+00
 0.1119521958937E+00 -0.1391227038990E+00  0.0000000000000E+00 -0.5834863209709E+00
 0.1113268421804E+00 -0.1362688528993E+00  0.0000000000000E+00 -0.5561156661786E+00
 0.1068253469993E+00 -0.1297213380544E+00  0.0000000000000E+00 -0.5297550622176E+00
 0.9938489075258E-01 -0.1204321201079E+00  0.0000000000000E+00 -0.5047289825821E+00
 0.8984040627446E-01 -0.1092301973281E+00  0.0000000000000E+00 -0.4806834228115E+00
 0.7889118198207E-01 -0.9679384154824E-01  0.0000000000000E+00 -0.4568932142784E+00
 0.6705607193844E-01 -0.8362583054680E-01  0.0000000000000E+00 -0.4329886362168E+00
 0.5470902058290E-01 -0.7008147238701E-01  0.0000000000000E+00 -0.4089927400190E+00
 0.4224114377573E-01 -0.5652681965529E-01  0.0000000000000E+00 -0.3847357307993E+00
 0.3004932828345E-01 -0.4333582206283E-01  0.0000000000000E+00 -0.3599677497323E+00
 0.1857783228579E-01 -0.3091854762401E-01  0.0000000000000E+00 -0.3344422645499E+00
 0.8248528854478E-02 -0.1968072926963E-01  0.0000000000000E+00 -0.3082647262339E+00
-0.7913514508076E-03 -0.9764580846046E-02  0.0000000000000E+00 -0.2823354099782E+00
-0.9466770359960E-02 -0.2983247069459E-03  0.0000000000000E+00 -0.2575419226213E+00
 0.1930487999456E-01 -0.5769010055898E-01  0.0000000000000E+00 -0.5921441421880E+00
 0.3500952179895E-01 -0.7228137055316E-01  0.0000000000000E+00 -0.6335014369281E+00
 0.5468215606014E-01 -0.9027945878183E-01  0.0000000000000E+00 -0.6521898752641E+00
 0.7325267476228E-01 -0.1068453694712E+00  0.0000000000000E+00 -0.6530648029446E+00
 0.8801753033581E-01 -0.1194393556330E+00  0.0000000000000E+00 -0.6416787331402E+00
 0.9791510654703E-01 -0.1271234294220E+00  0.0000000000000E+00 -0.6228555381301E+00
 0.1028724624371E+00 -0.1299148684628E+00  0.0000000000000E+00 -0.6003001873586E+00
 0.1033593904797E+00 -0.1283482400249E+00  0.0000000000000E+00 -0.5765229686505E+00
 0.1000992763825E+00 -0.1231875698287E+00  0.0000000000000E+00 -0.5529091290965E+00
 0.9387792733997E-01 -0.1152373340703E+00  0.0000000000000E+00 -0.5299236867022E+00
 0.8543504481646E-01 -0.1052363047588E+00  0.0000000000000E+00 -0.5073702405499E+00
 0.7541648209429E-01 -0.9381419988996E-01  0.0000000000000E+00 -0.4846679066791E+00
 0.6433379654001E-01 -0.8146725340030E-01  0.0000000000000E+00 -0.4614422147847E+00
 0.5256722215289E-01 -0.6855780785201E-01  0.0000000000000E+00 -0.4376365737604E+00
 0.4050292487420E-01 -0.5544877879917E-01  0.0000000000000E+00 -0.4130858096325E+00
 0.2853372429072E-01 -0.4250874096829E-01  0.0000000000000E+00 -0.3875682675871E+00
 0.1709916642573E-01 -0.3014530742677E-01  0.0000000000000E+00 -0.3607950243213E+00
 0.6773176509327E-02 -0.1886905049191E-01  0.0000000000000E+00 -0.3326311788758E+00
-0.1922466882744E-02 -0.9231877419194E-02  0.0000000000000E+00 -0.3042316642708E+00
-0.9901499738502E-02 -0.3770098847999E-03  0.0000000000000E+00 -0.2778424946989E+00
 0.1752368111014E-01 -0.5454055607115E-01  0.0000000000000E+00 -0.5890394583184E+00
 0.3073124259640E-01 -0.6677990358808E-01  0.0000000000000E+00 -0.6283917074671E+00
 0.4807635955702E-01 -0.8265721901474E-01  0.0000000000000E+00 -0.6487599679766E+00
 0.6500735408463E-01 -0.9780050153385E-01  0.0000000000000E+00 -0.6535054148674E+00
 0.7896005512125E-01 -0.1098036437328E+00  0.0000000000000E+00 -0.6468624878739E+00
 0.8879097763851E-01 -0.1176302815679E+00  0.0000000000000E+00 -0.6328052901520E+00
 0.9424188724298E-01 -0.1211045905514E+00  0.0000000000000E+00 -0.6145452101674E+00
 0.9557969967013E-01 -0.1205539849284E+00  0.0000000000000E+00 -0.5943812627937E+00
 0.9334767245891E-01 -0.1165623678552E+00  0.0000000000000E+00 -0.5736832094415E+00
 0.8819307532331E-01 -0.1097985472703E+00  0.0000000000000E+00 -0.5530027930529E+00
 0.8075898512116E-01 -0.1009089573240E+00  0.0000000000000E+00 -0.5322626737521E+00
 0.7162925101337E-01 -0.9046443686969E-01  0.0000000000000E+00 -0.5109962020240E+00
 0.6129621941357E-01 -0.7894235144214E-01  0.0000000000000E+00 -0.4888116376635E+00
 0.5014304370493E-01 -0.6670795372116E-01  0.0000000000000E+00 -0.4655509291362E+00
 0.3855086621673E-01 -0.5412010859666E-01  0.0000000000000E+00 -0.4410381712954E+00
 0.2689372405857E-01 -0.4153316239749E-01  0.0000000000000E+00 -0.4151098304616E+00
 0.1557183751061E-01 -0.2931130400615E-01  0.0000000000000E+00 -0.3875429849514E+00
 0.5054752367633E-02 -0.1789375099277E-01  0.0000000000000E+00 -0.3580323977788E+00
-0.3543219580136E-02 -0.8163458685340E-02  0.0000000000000E+00 -0.3266731942636E+00
-0.1026646383530E-01 -0.4232520411181E-03  0.0000000000000E+00 -0.2978698925147E+00
 0.1596010953195E-01 -0.5166723339036E-01  0.0000000000000E+00 -0.5864717872891E+00
 0.2710087163798E-01 -0.6202176256745E-01  0.0000000000000E+00 -0.6235636189282E+00
 0.4241801078102E-01 -0.7602418644832E-01  0.0000000000000E+00 -0.6451055134835E+00
 0.5778287146399E-01 -0.8979422675515E-01  0.0000000000000E+00 -0.6529961177548E+00
 0.7084530289754E-01 -0.1011023737308E+00  0.0000000000000E+00 -0.6504572211025E+00
 0.8042784176195E-01 -0.1088698177425E+00  0.0000000000000E+00 -0.6407136633119E+00
 0.8614432341130E-01 -0.1127836296759E+00  0.0000000000000E+00 -0.6265060814074E+00
 0.8810387926213E-01 -0.1130094213904E+00  0.0000000000000E+00 -0.6098938617207E+00
 0.8670152821482E-01 -0.1099822466897E+00  0.0000000000000E+00 -0.5921854057906E+00
 0.8246370612470E-01 -0.1042524668523E+00  0.0000000000000E+00 -0.5739780058731E+00
 0.7594228285580E-01 -0.9637919250741E-01  0.0000000000000E+00 -0.5552874659296E+00
 0.6765095628845E-01 -0.8686725617804E-01  0.0000000000000E+00 -0.5357487114636E+00
 0.5804721348956E-01 -0.7615461220135E-01  0.0000000000000E+00 -0.5149346718628E+00
 0.4751631866217E-01 -0.6460984416094E-01  0.0000000000000E+00 -0.4925501449040E+00
 0.3643891264605E-01 -0.5259230446033E-01  0.0000000000000E+00 -0.4683737544537E+00
 0.2518629044835E-01 -0.4045210173515E-01  0.0000000000000E+00 -0.4422862463291E+00
 0.1411389108220E-01 -0.2852755818149E-01  0.0000000000000E+00 -0.4141931932011E+00
 0.3603616845295E-02 -0.1714911205728E-01  0.0000000000000E+00 -0.3840420194365E+00
-0.5705373692663E-02 -0.6974647182333E-02  0.0000000000000E+00 -0.3516038589182E+00
-0.1117804057158E-01  0.5875797047836E-03  0.0000000000000E+00 -0.3176846346753E+00
 0.3552102448266E-02 -0.6881274805811E-02  0.0000000000000E+00 -0.4153115820170E+00
 0.1825530300083E-01 -0.2090212632604E-01  0.0000000000000E+00 -0.4734744462845E+00
 0.2538590250559E-01 -0.2806856363260E-01  0.0000000000000E+00 -0.5218080676839E+00
 0.2849760880912E-01 -0.3172819044941E-01  0.0000000000000E+00 -0.5609750441362E+00
 0.2967121611826E-01 -0.3386586805196E-01  0.0000000000000E+00 -0.5929776444222E+00
 0.2999439996858E-01 -0.3548619079239E-01  0.0000000000000E+00 -0.6200315353575E+00
 0.2982898227695E-01 -0.3688582474846E-01  0.0000000000000E+00 -0.6441114014944E+00
 0.2903060348293E-01 -0.3786387917070E-01  0.0000000000000E+00 -0.6666882923290E+00
 0.2712560670977E-01 -0.3789747626829E-01  0.0000000000000E+00 -0.6885563260613E+00
 0.2348881013232E-01 -0.3631648069403E-01  0.0000000000000E+00 -0.7097675655364E+00
 0.1752233169308E-01 -0.3248557875437E-01  0.0000000000000E+00 -0.7295462466735E+00
 0.8880677838162E-02 -0.2602726561346E-01  0.0000000000000E+00 -0.7465145705888E+00
-0.2392762884904E-02 -0.1696011787127E-01  0.0000000000000E+00 -0.7592240691231E+00
-0.1600695149690E-01 -0.5549991996418E-02  0.0000000000000E+00 -0.7664558113978E+00
-0.3149752820098E-01  0.7768873342972E-02  0.0000000000000E+00 -0.7673573024366E+00
-0.4827400908973E-01  0.2243791131358E-01  0.0000000000000E+00 -0.7614652836266E+00
-0.6572931916499E-01  0.3789430562408E-01  0.0000000000000E+00 -0.7485660527668E+00
-0.8334337242384E-01  0.5359599796814E-01  0.0000000000000E+00 -0.7284887718590E+00
-0.1011662967242E+00  0.6968342429306E-01  0.0000000000000E+00 -0.7003301035749E+00
-0.1234296433295E+00  0.8801405020240E-01  0.0000000000000E+00 -0.6634435694062E+00
 0.2737407824498E-02 -0.4368351083668E-02  0.0000000000000E+00 -0.4070811016561E+00
 0.1651522142289E-01 -0.1753707010561E-01  0.0000000000000E+00 -0.4689260700351E+00
 0.2253619507587E-01 -0.2367109435567E-01  0.0000000000000E+00 -0.5181520191070E+00
 0.2475926004461E-01 -0.2657516901837E-01  0.0000000000000E+00 -0.5565575925709E+00
 0.2548232867669E-01 -0.2841824141820E-01  0.0000000000000E+00 -0.5869413690120E+00
 0.2580777444300E-01 -0.3021442568636E-01  0.0000000000000E+00 -0.6121791820325E+00
 0.2602292386250E-01 -0.3217972830295E-01  0.0000000000000E+00 -0.6347274431279E+00
 0.2585901823093E-01 -0.3398702263190E-01  0.0000000000000E+00 -0.6563770033965E+00
 0.2469523438487E-01 -0.3496614000250E-01  0.0000000000000E+00 -0.6780836984247E+00
 0.2175056005094E-01 -0.3429474121270E-01  0.0000000000000E+00 -0.6999007210667E+00
 0.1627245891919E-01 -0.3118561075091E-01  0.0000000000000E+00 -0.7208333447181E+00
 0.7822094484473E-02 -0.2516622804224E-01  0.0000000000000E+00 -0.7391223540394E+00
-0.3541464233058E-02 -0.1627346473280E-01  0.0000000000000E+00 -0.7529676065130E+00
-0.1745620639351E-01 -0.4834308909720E-02  0.0000000000000E+00 -0.7608869031443E+00
-0.3335887747614E-01  0.8635275544137E-02  0.0000000000000E+00 -0.7618645959674E+00
-0.5054713215432E-01  0.2348058806361E-01  0.0000000000000E+00 -0.7553498396229E+00
-0.6841062811517E-01  0.3911236420140E-01  0.0000000000000E+00 -0.7410035924141E+00
-0.8660375811023E-01  0.5519738471824E-01  0.0000000000000E+00 -0.7182521862923E+00
-0.1063246918960E+00  0.7251590734498E-01  0.0000000000000E+00 -0.6867743095023E+00
-0.1273171632667E+00  0.9145122826927E-01  0.0000000000000E+00 -0.6543490348572E+00
 0.1719553860899E-02 -0.1549323020684E-02  0.0000000000000E+00 -0.3991916400806E+00
 0.1418727982334E-01 -0.1346088404051E-01  0.0000000000000E+00 -0.4645998973682E+00
 0.1882899934900E-01 -0.1833505313480E-01  0.0000000000000E+00 -0.5143167797568E+00
 0.2006439672725E-01 -0.2040148672902E-01  0.0000000000000E+00 -0.5513361355374E+00
 0.2036471111817E-01 -0.2199798768536E-01  0.0000000000000E+00 -0.5795005388570E+00
 0.2082258568621E-01 -0.2411656343549E-01  0.0000000000000E+00 -0.6024275323958E+00
 0.2161387922364E-01 -0.2685740243517E-01  0.0000000000000E+00 -0.6230927356864E+00
 0.2231358181273E-01 -0.2973543177467E-01  0.0000000000000E+00 -0.6436120417782E+00
 0.2212317189124E-01 -0.3190470978916E-01  0.0000000000000E+00 -0.6650923099968E+00
 0.2007580893058E-01 -0.3236113458316E-01  0.0000000000000E+00 -0.6875756251831E+00
 0.1523710653268E-01 -0.3014015315062E-01  0.0000000000000E+00 -0.7097969734755E+00
 0.7059572409982E-02 -0.2466302769932E-01  0.0000000000000E+00 -0.7295133774393E+00
-0.4376910270578E-02 -0.1598512453654E-01  0.0000000000000E+00 -0.7445141804559E+00
-0.1861795545347E-01 -0.4514954684461E-02  0.0000000000000E+00 -0.7530577120295E+00
-0.3498831942841E-01  0.9137904871888E-02  0.0000000000000E+00 -0.7539710872430E+00
-0.5271279008684E-01  0.2425528687705E-01  0.0000000000000E+00 -0.7466541156547E+00
-0.7121251318075E-01  0.4029776418472E-01  0.0000000000000E+00 -0.7308057590339E+00
-0.9041643223116E-01  0.5714484816201E-01  0.0000000000000E+00 -0.7064001068679E+00
-0.1105568120503E+00  0.7512937693121E-01  0.0000000000000E+00 -0.6756695794383E+00
-0.1296076086624E+00  0.9238415493813E-01  0.0000000000000E+00 -0.6435875756279E+00
 0.4460082095865E-03  0.1661114187632E-02  0.0000000000000E+00 -0.3918279741920E+00
 0.1117086480197E-01 -0.8584942021536E-02  0.0000000000000E+00 -0.4605833887214E+00
 0.1414892031611E-01 -0.1193614408038E-01  0.0000000000000E+00 -0.5101904734300E+00
 0.1430481135751E-01 -0.1310045935965E-01  0.0000000000000E+00 -0.5451113860628E+00
 0.1424758061267E-01 -0.1453615557248E-01  0.0000000000000E+00 -0.5703887062239E+00
 0.1500804484737E-01 -0.1716517895198E-01  0.0000000000000E+00 -0.5904824742990E+00
 0.1660719551130E-01 -0.2092754799932E-01  0.0000000000000E+00 -0.6089142277816E+00
 0.1842628789594E-01 -0.2514413692865E-01  0.0000000000000E+00 -0.6281209574083E+00
 0.1945779811353E-01 -0.2876333230709E-01  0.0000000000000E+00 -0.6493459773072E+00
 0.1851920619381E-01 -0.3057151624190E-01  0.0000000000000E+00 -0.6726029072641E+00
 0.1446063545072E-01 -0.2939593749590E-01  0.0000000000000E+00 -0.6962871046482E+00
 0.6610775317409E-02 -0.2453713541514E-01  0.0000000000000E+00 -0.7175634099973E+00
-0.4914415088075E-02 -0.1608336722843E-01  0.0000000000000E+00 -0.7337450867177E+00
-0.1954117936784E-01 -0.4548244608820E-02  0.0000000000000E+00 -0.7428433121876E+00
-0.3646764719977E-01  0.9352661944510E-02  0.0000000000000E+00 -0.7436009812496E+00
-0.5483038440826E-01  0.2483665117254E-01  0.0000000000000E+00 -0.7355211091960E+00
-0.7404499794911E-01  0.4137021086999E-01  0.0000000000000E+00 -0.7186554430540E+00
-0.9380847868793E-01  0.5870601759493E-01  0.0000000000000E+00 -0.6938320570844E+00
-0.1136548122221E+00  0.7644060366673E-01  0.0000000000000E+00 -0.6634132652130E+00
-0.1312793089200E+00  0.9245011038012E-01  0.0000000000000E+00 -0.6304333899604E+00
-0.1142212400300E-02  0.5332983632817E-02  0.0000000000000E+00 -0.3851417246529E+00
 0.7338572981627E-02 -0.2774158711994E-02  0.0000000000000E+00 -0.4569141413438E+00
 0.8363227847380E-02 -0.4342132603320E-02  0.0000000000000E+00 -0.5056516995672E+00
 0.7374297511219E-02 -0.4566054775460E-02  0.0000000000000E+00 -0.5376356695315E+00
 0.7068027031799E-02 -0.5973398113188E-02  0.0000000000000E+00 -0.5592995530991E+00
 0.8347673886695E-02 -0.9348052298812E-02  0.0000000000000E+00 -0.5760237275255E+00
 0.1102406493122E-01 -0.1441552458246E-01  0.0000000000000E+00 -0.5918907160095E+00
 0.1424382410285E-01 -0.2026286186425E-01  0.0000000000000E+00 -0.6096400096182E+00
 0.1675899485442E-01 -0.2560358234488E-01  0.0000000000000E+00 -0.6306282179942E+00
 0.1714102828276E-01 -0.2898700134037E-01  0.0000000000000E+00 -0.6548204931129E+00
 0.1398769307280E-01 -0.2899824806118E-01  0.0000000000000E+00 -0.6801912320066E+00
 0.6490560127480E-02 -0.2480505737300E-01  0.0000000000000E+00 -0.7031854803171E+00
-0.5172146601556E-02 -0.1655294629183E-01  0.0000000000000E+00 -0.7205745164644E+00
-0.2026516975652E-01 -0.4898623210978E-02  0.0000000000000E+00 -0.7301660292857E+00
-0.3781806935672E-01  0.9302245381608E-02  0.0000000000000E+00 -0.7307379082287E+00
-0.5683257981438E-01  0.2515989726932E-01  0.0000000000000E+00 -0.7220536332152E+00
-0.7658830712337E-01  0.4204491250127E-01  0.0000000000000E+00 -0.7046049899890E+00
-0.9653758412751E-01  0.5947799467580E-01  0.0000000000000E+00 -0.6795572498107E+00
-0.1158436388655E+00  0.7670227528015E-01  0.0000000000000E+00 -0.6490486758991E+00
-0.1323810975525E+00  0.9175499804547E-01  0.0000000000000E+00 -0.6150147384448E+00
-0.3113667278234E-02  0.9548176487525E-02  0.0000000000000E+00 -0.3793121183567E+00
 0.2543627038341E-02  0.4124364331457E-02  0.0000000000000E+00 -0.4536035257951E+00
 0.1325145342838E-02  0.4595270820186E-02  0.0000000000000E+00 -0.5005301385089E+00
-0.8324916419840E-03  0.5304414572413E-02  0.0000000000000E+00 -0.5286119800875E+00
-0.1223343827073E-02  0.3735032844148E-02  0.0000000000000E+00 -0.5458830882215E+00
 0.8442552548251E-03 -0.6736452490766E-03  0.0000000000000E+00 -0.5587085937876E+00
 0.4905666771999E-02 -0.7367432694665E-02  0.0000000000000E+00 -0.5717210378597E+00
 0.9829305813833E-02 -0.1515792100947E-01  0.0000000000000E+00 -0.5879234393416E+00
 0.1409728188139E-01 -0.2249720122200E-01  0.0000000000000E+00 -0.6087516966228E+00
 0.1600615200916E-01 -0.2767221932942E-01  0.0000000000000E+00 -0.6341031268835E+00
 0.1386183095402E-01 -0.2899022018484E-01  0.0000000000000E+00 -0.6614357387129E+00
 0.6709237878356E-02 -0.2547775906150E-01  0.0000000000000E+00 -0.6863253960305E+00
-0.5169107893122E-02 -0.1737715695125E-01  0.0000000000000E+00 -0.7049376187069E+00
-0.2081262891030E-01 -0.5545826008890E-02  0.0000000000000E+00 -0.7149477686355E+00
-0.3902392878772E-01  0.8968074203494E-02  0.0000000000000E+00 -0.7152990916679E+00
-0.5861269099241E-01  0.2511839883114E-01  0.0000000000000E+00 -0.7061092447447E+00
-0.7870359909413E-01  0.4214567238193E-01  0.0000000000000E+00 -0.6882203056388E+00
-0.9857313055607E-01  0.5940972664033E-01  0.0000000000000E+00 -0.6629452228466E+00
-0.1172231003502E+00  0.7599809026201E-01  0.0000000000000E+00 -0.6321608797529E+00
-0.1328425279020E+00  0.9025426625343E-01  0.0000000000000E+00 -0.5972719965895E+00
-0.5550536941336E-02  0.1440385418086E-01  0.0000000000000E+00 -0.3745457258351E+00
-0.3384369061069E-02  0.1228790307639E-01  0.0000000000000E+00 -0.4506316783469E+00
-0.7124233736676E-02  0.1503577345900E-01  0.0000000000000E+00 -0.4945933004260E+00
-0.1041570860118E-01  0.1660727897552E-01  0.0000000000000E+00 -0.5176790597564E+00
-0.1065650746373E-01  0.1461240933816E-01  0.0000000000000E+00 -0.5297441342511E+00
-0.7473754982328E-02  0.8822335265782E-02  0.0000000000000E+00 -0.5381776371166E+00
-0.1682793948130E-02  0.1456828335404E-03  0.0000000000000E+00 -0.5481155941929E+00
 0.5263187793540E-02 -0.9912936975957E-02  0.0000000000000E+00 -0.5627565226494E+00
 0.1155215615695E-01 -0.1952403414347E-01  0.0000000000000E+00 -0.5835695285983E+00
 0.1518095865076E-01 -0.2669194549915E-01  0.0000000000000E+00 -0.6103690751673E+00
 0.1412185051587E-01 -0.2940885952925E-01  0.0000000000000E+00 -0.6399863308802E+00
 0.7268991433289E-02 -0.2655720743452E-01  0.0000000000000E+00 -0.6669527773271E+00
-0.4928994239796E-02 -0.1853432585263E-01  0.0000000000000E+00 -0.6867666595407E+00
-0.2120373901263E-01 -0.6473960892726E-02  0.0000000000000E+00 -0.6970659248430E+00
-0.4006841354276E-01  0.8327286812570E-02  0.0000000000000E+00 -0.6970918868335E+00
-0.6011633781616E-01  0.2464256741513E-01  0.0000000000000E+00 -0.6873724603149E+00
-0.8034039669116E-01  0.4160481417125E-01  0.0000000000000E+00 -0.6690571146810E+00
-0.9991949663837E-01  0.5848724379242E-01  0.0000000000000E+00 -0.6435270456882E+00
-0.1178242982036E+00  0.7435218657382E-01  0.0000000000000E+00 -0.6124617859782E+00
-0.1325704153624E+00  0.8786113161076E-01  0.0000000000000E+00 -0.5770674992099E+00
-0.8552631445084E-02  0.2001762367664E-01  0.0000000000000E+00 -0.3710806570968E+00
-0.1064420926283E-01  0.2192282656107E-01  0.0000000000000E+00 -0.4479344446578E+00
-0.1715460096297E-01  0.2714923585472E-01  0.0000000000000E+00 -0.4875281362748E+00
-0.2146369840787E-01  0.2942511017390E-01  0.0000000000000E+00 -0.5043978278947E+00
-0.2123334000141E-01  0.2665148621206E-01  0.0000000000000E+00 -0.5104400729608E+00
-0.1654470327529E-01  0.1906892331499E-01  0.0000000000000E+00 -0.5140645828171E+00
-0.8648121975702E-02  0.8023850886702E-02  0.0000000000000E+00 -0.5208127445021E+00
 0.6428792984945E-03 -0.4628157290007E-02  0.0000000000000E+00 -0.5339724799450E+00
 0.9208368678179E-02 -0.1676783709283E-01  0.0000000000000E+00 -0.5549875276651E+00
 0.1472797952798E-01 -0.2610528318705E-01  0.0000000000000E+00 -0.5835855686040E+00
 0.1479585269864E-01 -0.3027890695118E-01  0.0000000000000E+00 -0.6158451772076E+00
 0.8157434911521E-02 -0.2803008891075E-01  0.0000000000000E+00 -0.6450479681803E+00
-0.4489112550800E-02 -0.1998986638785E-01  0.0000000000000E+00 -0.6659690690229E+00
-0.2147051579941E-01 -0.7657261064621E-02  0.0000000000000E+00 -0.6763354375927E+00
-0.4095749375558E-01  0.7375190042722E-02  0.0000000000000E+00 -0.6758342670554E+00
-0.6132736590418E-01  0.2370249334167E-01  0.0000000000000E+00 -0.6654710606227E+00
-0.8148427489654E-01  0.4039236709127E-01  0.0000000000000E+00 -0.6466893027783E+00
-0.1005813726369E+00  0.5670252269179E-01  0.0000000000000E+00 -0.6209122916034E+00
-0.1176397159704E+00  0.7174909455677E-01  0.0000000000000E+00 -0.5896898278455E+00
-0.1314770809501E+00  0.8448853551328E-01  0.0000000000000E+00 -0.5542068370448E+00
-0.1224260042461E-01  0.2653392682228E-01  0.0000000000000E+00 -0.3691899626156E+00
-0.1946907831030E-01  0.3327103294245E-01  0.0000000000000E+00 -0.4453833146739E+00
-0.2894395215178E-01  0.4111287197293E-01  0.0000000000000E+00 -0.4789158943494E+00
-0.3404348173057E-01  0.4381646865545E-01  0.0000000000000E+00 -0.4882353567320E+00
-0.3291582506548E-01  0.3980182533828E-01  0.0000000000000E+00 -0.4874815156181E+00
-0.2626467754086E-01  0.2995037593857E-01  0.0000000000000E+00 -0.4860121507554E+00
-0.1586580225231E-01  0.1613489542911E-01  0.0000000000000E+00 -0.4896019372677E+00
-0.3919868405825E-02  0.5826585642671E-03  0.0000000000000E+00 -0.5014735633968E+00
 0.7149305705875E-02 -0.1430899876667E-01  0.0000000000000E+00 -0.5229769849644E+00
 0.1469781800374E-01 -0.2595704968392E-01  0.0000000000000E+00 -0.5537717364512E+00
 0.1589303756541E-01 -0.3160443747754E-01  0.0000000000000E+00 -0.5890441666270E+00
 0.9339358519746E-02 -0.2985985334856E-01  0.0000000000000E+00 -0.6205865536126E+00
-0.3908481700918E-02 -0.2168849897296E-01  0.0000000000000E+00 -0.6424106867498E+00
-0.2166465782632E-01 -0.9052575373209E-02  0.0000000000000E+00 -0.6525059294489E+00
-0.4171777285873E-01  0.6126238486236E-02  0.0000000000000E+00 -0.6511834139789E+00
-0.6225070118944E-01  0.2228887063899E-01  0.0000000000000E+00 -0.6400049933301E+00
-0.8213271084126E-01  0.3849200901415E-01  0.0000000000000E+00 -0.6207085141820E+00
-0.1005552990485E+00  0.5404058879884E-01  0.0000000000000E+00 -0.5947459365176E+00
-0.1166432452466E+00  0.6815529656967E-01  0.0000000000000E+00 -0.5635822985595E+00
-0.1294873209906E+00  0.8005902517378E-01  0.0000000000000E+00 -0.5284603684771E+00
-0.1677293730114E-01  0.3413287990101E-01  0.0000000000000E+00 -0.3691846867617E+00
-0.3013398203893E-01  0.4661799353179E-01  0.0000000000000E+00 -0.4427554041864E+00
-0.4267390192269E-01  0.5710613277304E-01  0.0000000000000E+00 -0.4681974205239E+00
-0.4818675025673E-01  0.5980066490280E-01  0.0000000000000E+00 -0.4685460063802E+00
-0.4561021665858E-01  0.5395274417419E-01  0.0000000000000E+00 -0.4603380976166E+00
-0.3647700868499E-01  0.4129512820377E-01  0.0000000000000E+00 -0.4536975157111E+00
-0.2317827128142E-01  0.2431299367743E-01  0.0000000000000E+00 -0.4543556159583E+00
-0.8305099228046E-02  0.5599178049082E-02  0.0000000000000E+00 -0.4652564521907E+00
 0.5446529103384E-02 -0.1221319649155E-01  0.0000000000000E+00 -0.4875865251514E+00
 0.1511809749553E-01 -0.2626608772240E-01  0.0000000000000E+00 -0.5209973082794E+00
 0.1739381968112E-01 -0.3335879716279E-01  0.0000000000000E+00 -0.5596331961745E+00
 0.1074871100835E-01 -0.3197891504286E-01  0.0000000000000E+00 -0.5935209122436E+00
-0.3272588975463E-02 -0.2354987658684E-01  0.0000000000000E+00 -0.6158999565049E+00
-0.2185652234220E-01 -0.1060008656902E-01  0.0000000000000E+00 -0.6252598478536E+00
-0.4238812493633E-01  0.4605435248142E-02  0.0000000000000E+00 -0.6227458518087E+00
-0.6289805350518E-01  0.2039867524329E-01  0.0000000000000E+00 -0.6105564586533E+00
-0.8228247709382E-01  0.3588714370929E-01  0.0000000000000E+00 -0.5907189357295E+00
-0.9982864370052E-01  0.5047831578751E-01  0.0000000000000E+00 -0.5646927063117E+00
-0.1148018987235E+00  0.6353092883194E-01  0.0000000000000E+00 -0.5338726379337E+00
-0.1265418255723E+00  0.7450989419965E-01  0.0000000000000E+00 -0.4995777643298E+00
-0.2233568236191E-01  0.4304286819001E-01  0.0000000000000E+00 -0.3714153462424E+00
-0.4296496590270E-01  0.6230294187277E-01  0.0000000000000E+00 -0.4396881670170E+00
-0.5852103217976E-01  0.7530123419969E-01  0.0000000000000E+00 -0.4546246676369E+00
-0.6386896071565E-01  0.7733487034678E-01  0.0000000000000E+00 -0.4445500764026E+00
-0.5914588982586E-01  0.6891044229588E-01  0.0000000000000E+00 -0.4284539175252E+00
-0.4696092668267E-01  0.5286396885383E-01  0.0000000000000E+00 -0.4168723705231E+00
-0.3039656470262E-01  0.3236103703335E-01  0.0000000000000E+00 -0.4150721897530E+00
-0.1239606556767E-01  0.1030714922065E-01  0.0000000000000E+00 -0.4254409260932E+00
 0.4144567951423E-02 -0.1051506243603E-01  0.0000000000000E+00 -0.4489503521718E+00
 0.1597954434417E-01 -0.2701065353026E-01  0.0000000000000E+00 -0.4853745130365E+00
 0.1923925671618E-01 -0.3547387743077E-01  0.0000000000000E+00 -0.5276616172819E+00
 0.1228222007643E-01 -0.3428260796369E-01  0.0000000000000E+00 -0.5637564557891E+00
-0.2693627828148E-02 -0.2546878717165E-01  0.0000000000000E+00 -0.5861687579720E+00
-0.2212877849643E-01 -0.1223015450785E-01  0.0000000000000E+00 -0.5942050277923E+00
-0.4300839985354E-01  0.2836697920459E-02  0.0000000000000E+00 -0.5900803948700E+00
-0.6327549787364E-01  0.1802228394623E-01  0.0000000000000E+00 -0.5766948660861E+00
-0.8192136693130E-01  0.3255247786174E-01  0.0000000000000E+00 -0.5563382367997E+00
-0.9838007028649E-01  0.4598488732925E-01  0.0000000000000E+00 -0.5304362126736E+00
-0.1120834039879E+00  0.5783773330800E-01  0.0000000000000E+00 -0.5002979787133E+00
-0.1226003075383E+00  0.6779722096460E-01  0.0000000000000E+00 -0.4673010247116E+00
-0.2917618393948E-01  0.5355905964961E-01  0.0000000000000E+00 -0.3762694311317E+00
-0.5835038706141E-01  0.8073165658371E-01  0.0000000000000E+00 -0.4356094275977E+00
-0.7664110129727E-01  0.9584574322455E-01  0.0000000000000E+00 -0.4371919612953E+00
-0.8097769706157E-01  0.9627918228381E-01  0.0000000000000E+00 -0.4153122125894E+00
-0.7324751147322E-01  0.8436783275571E-01  0.0000000000000E+00 -0.3912809405030E+00
-0.5742108865623E-01  0.6433946401233E-01  0.0000000000000E+00 -0.3754247095953E+00
-0.3730832987069E-01  0.4006014490169E-01  0.0000000000000E+00 -0.3719314280448E+00
-0.1609807029574E-01  0.1461902184294E-01  0.0000000000000E+00 -0.3822984914771E+00
 0.3240420733615E-02 -0.9196398213714E-02  0.0000000000000E+00 -0.4072885035566E+00
 0.1721986511816E-01 -0.2811163064382E-01  0.0000000000000E+00 -0.4470400502913E+00
 0.2132090194954E-01 -0.3782991505533E-01  0.0000000000000E+00 -0.4931506947416E+00
 0.1379574267487E-01 -0.3662605546596E-01  0.0000000000000E+00 -0.5311203169295E+00
-0.2306120273278E-02 -0.2732037475529E-01  0.0000000000000E+00 -0.5528475609746E+00
-0.2256532970847E-01 -0.1387523858887E-01  0.0000000000000E+00 -0.5588635821688E+00
-0.4360544967135E-01  0.8282588194163E-03  0.0000000000000E+00 -0.5526995101599E+00
-0.6337107506337E-01  0.1513088359090E-01  0.0000000000000E+00 -0.5379842845188E+00
-0.8102127535564E-01  0.2844726061366E-01  0.0000000000000E+00 -0.5172057649114E+00
-0.9618013442952E-01  0.4052276441996E-01  0.0000000000000E+00 -0.4916877991023E+00
-0.1084617549476E+00  0.5104500178981E-01  0.0000000000000E+00 -0.4626122444623E+00
-0.1176452926839E+00  0.5990026831654E-01  0.0000000000000E+00 -0.4313775479178E+00
-0.3761307641539E-01  0.6607154078515E-01  0.0000000000000E+00 -0.3841597213467E+00
-0.7675410600677E-01  0.1023920144112E+00  0.0000000000000E+00 -0.4296256587795E+00
-0.9714005268512E-01  0.1188301971219E+00  0.0000000000000E+00 -0.4145372222546E+00
-0.9926418571573E-01  0.1163425677168E+00  0.0000000000000E+00 -0.3797264677794E+00
-0.8749972821761E-01  0.9986630422107E-01  0.0000000000000E+00 -0.3483456982139E+00
-0.6748211010096E-01  0.7532154944208E-01  0.0000000000000E+00 -0.3294715184737E+00
-0.4369689267811E-01  0.4719151038628E-01  0.0000000000000E+00 -0.3253601882378E+00
-0.1936676743199E-01  0.1850450957549E-01  0.0000000000000E+00 -0.3362734793102E+00
 0.2658280018890E-02 -0.8159743636743E-02  0.0000000000000E+00 -0.3628933105784E+00
 0.1870675106296E-01 -0.2941499721387E-01  0.0000000000000E+00 -0.4061246982381E+00
 0.2347217368569E-01 -0.4024690294257E-01  0.0000000000000E+00 -0.4560556110768E+00
 0.1510415483141E-01 -0.3882485026595E-01  0.0000000000000E+00 -0.4953206360213E+00
-0.2257132999329E-02 -0.2897122379528E-01  0.0000000000000E+00 -0.5154344911049E+00
-0.2323480394798E-01 -0.1548767764893E-01  0.0000000000000E+00 -0.5186595429294E+00
-0.4417556943299E-01 -0.1445586035268E-02  0.0000000000000E+00 -0.5100739704527E+00
-0.6314127066935E-01  0.1166299805026E-01  0.0000000000000E+00 -0.4939972896228E+00
-0.7953167053879E-01  0.2350928484520E-01  0.0000000000000E+00 -0.4729986095668E+00
-0.9319201876583E-01  0.3404899430046E-01  0.0000000000000E+00 -0.4482024046739E+00
-0.1039219918575E+00  0.4313479073901E-01  0.0000000000000E+00 -0.4206026546011E+00
-0.1116864904666E+00  0.5082625813324E-01  0.0000000000000E+00 -0.3915740207833E+00
-0.4806793261254E-01  0.8110985400601E-01  0.0000000000000E+00 -0.3954916296845E+00
-0.9872909908676E-01  0.1278711671766E+00  0.0000000000000E+00 -0.4203358490699E+00
-0.1200197077403E+00  0.1442265125500E+00  0.0000000000000E+00 -0.3847985905695E+00
-0.1182682885546E+00  0.1369981681772E+00  0.0000000000000E+00 -0.3365267863398E+00
-0.1013062125883E+00  0.1147521322844E+00  0.0000000000000E+00 -0.2993772601109E+00
-0.7669708348806E-01  0.8533983841506E-01  0.0000000000000E+00 -0.2794910625608E+00
-0.4937783322671E-01  0.5357765563824E-01  0.0000000000000E+00 -0.2760971128233E+00
-0.2224614602905E-01  0.2203053651399E-01  0.0000000000000E+00 -0.2879830386283E+00
 0.2222108190365E-02 -0.7200367401691E-02  0.0000000000000E+00 -0.3160975530014E+00
 0.2022171263539E-01 -0.3067522141076E-01  0.0000000000000E+00 -0.3627112375019E+00
 0.2546169007825E-01 -0.4247779885379E-01  0.0000000000000E+00 -0.4162163272045E+00
 0.1598554213839E-01 -0.4066040576599E-01  0.0000000000000E+00 -0.4558936870637E+00
-0.2689350512894E-02 -0.3029829455573E-01  0.0000000000000E+00 -0.4732578145923E+00
-0.2416677934577E-01 -0.1706524074744E-01  0.0000000000000E+00 -0.4729087011827E+00
-0.4466216490514E-01 -0.4067451887968E-02  0.0000000000000E+00 -0.4616460248663E+00
-0.6249605477564E-01  0.7510017402248E-02  0.0000000000000E+00 -0.4443389300669E+00
-0.7737381088815E-01  0.1765002480555E-01  0.0000000000000E+00 -0.4234559814576E+00
-0.8937315931189E-01  0.2651756287584E-01  0.0000000000000E+00 -0.3997995108720E+00
-0.9846496805357E-01  0.3410704621203E-01  0.0000000000000E+00 -0.3741079381966E+00
-0.1047652731345E+00  0.4061510285109E-01  0.0000000000000E+00 -0.3476909747910E+00
-0.6111049682950E-01  0.9941713097371E-01  0.0000000000000E+00 -0.4105827583473E+00
-0.1249256785719E+00  0.1578693773891E+00  0.0000000000000E+00 -0.4055030468906E+00
-0.1450725884827E+00  0.1717654535916E+00  0.0000000000000E+00 -0.3454076355372E+00
-0.1372026055071E+00  0.1573514881065E+00  0.0000000000000E+00 -0.2843719671762E+00
-0.1138534146587E+00  0.1281402143171E+00  0.0000000000000E+00 -0.2445458468218E+00
-0.8458820936992E-01  0.9390496913418E-01  0.0000000000000E+00 -0.2264921116879E+00
-0.5425896405920E-01  0.5914776345559E-01  0.0000000000000E+00 -0.2252232315192E+00
-0.2491063736790E-01  0.2540356039307E-01  0.0000000000000E+00 -0.2381788851320E+00
 0.1631494455598E-02 -0.5983027291032E-02  0.0000000000000E+00 -0.2672284667323E+00
 0.2144494416037E-01 -0.3153862851282E-01  0.0000000000000E+00 -0.3167878581465E+00
 0.2698711235293E-01 -0.4420178599800E-01  0.0000000000000E+00 -0.3732938021109E+00
 0.1619100277554E-01 -0.4189160993748E-01  0.0000000000000E+00 -0.4121322120197E+00
-0.3713362912908E-02 -0.3121992333776E-01  0.0000000000000E+00 -0.4254312038400E+00
-0.2531755510654E-01 -0.1868775843874E-01  0.0000000000000E+00 -0.4208170293651E+00
-0.4492762700584E-01 -0.7205240037742E-02  0.0000000000000E+00 -0.4068590004486E+00
-0.6128349463371E-01  0.2502060592882E-02  0.0000000000000E+00 -0.3886852071628E+00
-0.7443743295848E-01  0.1075269228879E-01  0.0000000000000E+00 -0.3684117685243E+00
-0.8467897832073E-01  0.1788379775816E-01  0.0000000000000E+00 -0.3463867293048E+00
-0.9211245680742E-01  0.2398495227977E-01  0.0000000000000E+00 -0.3230362645166E+00
-0.9695842323105E-01  0.2934316154880E-01  0.0000000000000E+00 -0.2995769588965E+00
-0.7752733948944E-01  0.1220835245942E+00  0.0000000000000E+00 -0.4294568319462E+00
-0.1560744126211E+00  0.1931866231627E+00  0.0000000000000E+00 -0.3814345560608E+00
-0.1716690518507E+00  0.2006854531173E+00  0.0000000000000E+00 -0.2928030774639E+00
-0.1547781971598E+00  0.1759358258855E+00  0.0000000000000E+00 -0.2221365529933E+00
-0.1241152421173E+00  0.1389372142883E+00  0.0000000000000E+00 -0.1848899895550E+00
-0.9075066638124E-01  0.1006304997484E+00  0.0000000000000E+00 -0.1721653344675E+00
-0.5841934120437E-01  0.6402184500291E-01  0.0000000000000E+00 -0.1740907878736E+00
-0.2769286005080E-01  0.2898848893535E-01  0.0000000000000E+00 -0.1876638985157E+00
 0.4459919284905E-03 -0.4025119226701E-02  0.0000000000000E+00 -0.2165811397690E+00
 0.2193445396901E-01 -0.3151885924399E-01  0.0000000000000E+00 -0.2682035775857E+00
 0.2766603262001E-01 -0.4501356442907E-01  0.0000000000000E+00 -0.3266777496293E+00
 0.1546389618417E-01 -0.4227778370072E-01  0.0000000000000E+00 -0.3629807514203E+00
-0.5361483079731E-02 -0.3174760288722E-01  0.0000000000000E+00 -0.3708036385281E+00
-0.2652053909210E-01 -0.2056975624950E-01  0.0000000000000E+00 -0.3615019929469E+00
-0.4471980545782E-01 -0.1114460289094E-01  0.0000000000000E+00 -0.3452168532592E+00
-0.5927774329433E-01 -0.3601495411085E-02  0.0000000000000E+00 -0.3268401604547E+00
-0.7058315468422E-01  0.2676098507600E-02  0.0000000000000E+00 -0.3078326661622E+00
-0.7906991659870E-01  0.8111954232691E-02  0.0000000000000E+00 -0.2879824313286E+00
-0.8491238982791E-01  0.1281990205311E-01  0.0000000000000E+00 -0.2673803601683E+00
-0.8838073621861E-01  0.1712609195838E-01  0.0000000000000E+00 -0.2471412554778E+00
-0.9843733259897E-01  0.1508060775808E+00  0.0000000000000E+00 -0.4513414895300E+00
-0.1928742969446E+00  0.2346259798083E+00  0.0000000000000E+00 -0.3416631394359E+00
-0.1982979761018E+00  0.2291391648950E+00  0.0000000000000E+00 -0.2221385511592E+00
-0.1689799374135E+00  0.1904826323228E+00  0.0000000000000E+00 -0.1497586389343E+00
-0.1309993128401E+00  0.1460248070546E+00  0.0000000000000E+00 -0.1229870459759E+00
-0.9505947692959E-01  0.1054943769820E+00  0.0000000000000E+00 -0.1188214614301E+00
-0.6215824140296E-01  0.6852181685406E-01  0.0000000000000E+00 -0.1240270680871E+00
-0.3106386691358E-01  0.3328548502859E-01  0.0000000000000E+00 -0.1372671381994E+00
-0.1935423915077E-02 -0.6729457860849E-03  0.0000000000000E+00 -0.1644540073680E+00
 0.2108413557656E-01 -0.2994548383603E-01  0.0000000000000E+00 -0.2166205449586E+00
 0.2701914545701E-01 -0.4440428631098E-01  0.0000000000000E+00 -0.2753288921602E+00
 0.1357997774558E-01 -0.4162663493651E-01  0.0000000000000E+00 -0.3068721911513E+00
-0.7507075463320E-02 -0.3207722316160E-01  0.0000000000000E+00 -0.3079171414251E+00
-0.2741530272259E-01 -0.2313351699510E-01  0.0000000000000E+00 -0.2940717748492E+00
-0.4363912620008E-01 -0.1631748943623E-01  0.0000000000000E+00 -0.2763937487271E+00
-0.5617952025965E-01 -0.1110755915279E-01  0.0000000000000E+00 -0.2588107228268E+00
-0.6565517528585E-01 -0.6731545934213E-02  0.0000000000000E+00 -0.2418522014461E+00
-0.7252044778064E-01 -0.2816844102369E-02  0.0000000000000E+00 -0.2247325955862E+00
-0.7694364576328E-01  0.6977780640435E-03  0.0000000000000E+00 -0.2072309653511E+00
-0.7918583308151E-01  0.4117663298779E-02  0.0000000000000E+00 -0.1903597655930E+00
-0.1253671611683E+00  0.1885339565961E+00  0.0000000000000E+00 -0.4727230109951E+00
-0.2354984199812E+00  0.2822704286124E+00  0.0000000000000E+00 -0.2739923700025E+00
-0.2215451009755E+00  0.2530293818827E+00  0.0000000000000E+00 -0.1274177998288E+00
-0.1769219002653E+00  0.1976327981719E+00  0.0000000000000E+00 -0.7059813837463E-01
-0.1339413111936E+00  0.1492341049166E+00  0.0000000000000E+00 -0.6366703570185E-01
-0.9789105651555E-01  0.1088982166913E+00  0.0000000000000E+00 -0.6830712522304E-01
-0.6587199408136E-01  0.7304865931428E-01  0.0000000000000E+00 -0.7615408953144E-01
-0.3559011818843E-01  0.3887473175460E-01  0.0000000000000E+00 -0.8797247179384E-01
-0.6323229479278E-02  0.4959496821586E-02  0.0000000000000E+00 -0.1112927452921E+00
 0.1802946098536E-01 -0.2585093631060E-01  0.0000000000000E+00 -0.1614367761232E+00
 0.2444262444355E-01 -0.4172852946672E-01  0.0000000000000E+00 -0.2174679415160E+00
 0.1044054486809E-01 -0.3991010752874E-01  0.0000000000000E+00 -0.2414623596018E+00
-0.9717770148850E-02 -0.3275217236691E-01  0.0000000000000E+00 -0.2350298057785E+00
-0.2735395553852E-01 -0.2710142067373E-01  0.0000000000000E+00 -0.2178393876411E+00
-0.4112974915672E-01 -0.2329693241114E-01  0.0000000000000E+00 -0.2004212101790E+00
-0.5164987644080E-01 -0.2035201457444E-01  0.0000000000000E+00 -0.1848665811559E+00
-0.5950117858463E-01 -0.1761758967928E-01  0.0000000000000E+00 -0.1707801845537E+00
-0.6502457794372E-01 -0.1489524353520E-01  0.0000000000000E+00 -0.1569264977730E+00
-0.6831949359144E-01 -0.1226235437669E-01  0.0000000000000E+00 -0.1427875951682E+00
-0.6957604175766E-01 -0.9472094527728E-02  0.0000000000000E+00 -0.1292873708243E+00
-0.1608732259504E+00  0.2409598604913E+00  0.0000000000000E+00 -0.4835330889834E+00
-0.2815027078059E+00  0.3340381140201E+00  0.0000000000000E+00 -0.1504728881818E+00
-0.2333607205444E+00  0.2605991252054E+00  0.0000000000000E+00 -0.6210450940642E-02
-0.1763414631276E+00  0.1968472233528E+00  0.0000000000000E+00  0.1740107409885E-02
-0.1340054922856E+00  0.1496212405388E+00  0.0000000000000E+00 -0.9965744431149E-02
-0.9973575266279E-01  0.1113661091693E+00  0.0000000000000E+00 -0.2143599099724E-01
-0.6989555357037E-01  0.7788911057794E-01  0.0000000000000E+00 -0.3143531580237E-01
-0.4185608420390E-01  0.4632768948270E-01  0.0000000000000E+00 -0.4124137100157E-01
-0.1385960760650E-01  0.1412529203096E-01  0.0000000000000E+00 -0.5805428770948E-01
 0.1143285491316E-01 -0.1769670612943E-01  0.0000000000000E+00 -0.1016238969141E+00
 0.1917237109770E-01 -0.3617241517048E-01  0.0000000000000E+00 -0.1498786600841E+00
 0.6311446186794E-02 -0.3755422905394E-01  0.0000000000000E+00 -0.1631943289094E+00
-0.1097527980498E-01 -0.3498661619869E-01  0.0000000000000E+00 -0.1504220969698E+00
-0.2533092466180E-01 -0.3351924187953E-01  0.0000000000000E+00 -0.1328656757192E+00
-0.3656764422342E-01 -0.3269695510189E-01  0.0000000000000E+00 -0.1178707067266E+00
-0.4538673692711E-01 -0.3162704430430E-01  0.0000000000000E+00 -0.1055257662995E+00
-0.5199299365262E-01 -0.3010442728285E-01  0.0000000000000E+00 -0.9504449008133E-01
-0.5656308919582E-01 -0.2814328517269E-01  0.0000000000000E+00 -0.8501647067701E-01
-0.5920193364415E-01 -0.2585007772895E-01  0.0000000000000E+00 -0.7444641151186E-01
-0.5982257036836E-01 -0.2340738973953E-01  0.0000000000000E+00 -0.6397453087876E-01
-0.1966173851919E+00  0.3294229398292E+00  0.0000000000000E+00 -0.3871137905850E+00
-0.3082128179641E+00  0.3428149070934E+00  0.0000000000000E+00  0.9271251189866E-01
-0.2230938801128E+00  0.2493702004738E+00  0.0000000000000E+00  0.9385699790559E-01
-0.1711242550919E+00  0.1916034475500E+00  0.0000000000000E+00  0.6061145049330E-01
-0.1322494885101E+00  0.1483514220927E+00  0.0000000000000E+00  0.3824661037372E-01
-0.1010368751700E+00  0.1132706379928E+00  0.0000000000000E+00  0.2158781061482E-01
-0.7431010062868E-01  0.8311565946930E-01  0.0000000000000E+00  0.9338757243877E-02
-0.5027401097217E-01  0.5590753241245E-01  0.0000000000000E+00  0.6799964838087E-03
-0.2621852355789E-01  0.2861820758226E-01  0.0000000000000E+00 -0.7388623193840E-02
-0.1147158476316E-02 -0.2507722753609E-02  0.0000000000000E+00 -0.3553997540816E-01
 0.1028568936251E-01 -0.2673548687636E-01  0.0000000000000E+00 -0.6566748436508E-01
 0.2626747408463E-02 -0.3660631453956E-01  0.0000000000000E+00 -0.6693272150492E-01
-0.9306256040066E-02 -0.4085978360840E-01  0.0000000000000E+00 -0.5410308942778E-01
-0.2022537025912E-01 -0.4346251937888E-01  0.0000000000000E+00 -0.4053890810835E-01
-0.2946622667055E-01 -0.4498407351516E-01  0.0000000000000E+00 -0.2975940060342E-01
-0.3719322344354E-01 -0.4511924509589E-01  0.0000000000000E+00 -0.2145744717945E-01
-0.4305257491041E-01 -0.4426248417241E-01  0.0000000000000E+00 -0.1511477932510E-01
-0.4706891246081E-01 -0.4263333465874E-01  0.0000000000000E+00 -0.9454227098145E-02
-0.4960308719461E-01 -0.4007397144706E-01  0.0000000000000E+00 -0.3040217937945E-02
-0.5062167904681E-01 -0.3674754232335E-01  0.0000000000000E+00  0.5011121187261E-02
-0.2156240077429E-01  0.1012277310268E-01  0.0000000000000E+00 -0.3068066605467E+00
-0.2089423420478E-01  0.1026667138835E-01  0.0000000000000E+00 -0.2866457011709E+00
-0.1928812344797E-01  0.9319853087306E-02  0.0000000000000E+00 -0.2662806845394E+00
-0.1764682294135E-01  0.8303392924439E-02  0.0000000000000E+00 -0.2461003981379E+00
-0.1608075641282E-01  0.7343880433101E-02  0.0000000000000E+00 -0.2263083266383E+00
-0.1458923237387E-01  0.6449437968561E-02  0.0000000000000E+00 -0.2070405312771E+00
-0.1316058319908E-01  0.5610745518418E-02  0.0000000000000E+00 -0.1883806510283E+00
-0.1178744520982E-01  0.4821077647813E-02  0.0000000000000E+00 -0.1703820863092E+00
-0.1046784682702E-01  0.4078283848833E-02  0.0000000000000E+00 -0.1530805954171E+00
-0.9203330456558E-02  0.3383449883226E-02  0.0000000000000E+00 -0.1365010720754E+00
-0.7997114583603E-02  0.2739285058177E-02  0.0000000000000E+00 -0.1206607767356E+00
-0.6852637064977E-02  0.2148799834590E-02  0.0000000000000E+00 -0.1055706543843E+00
-0.5772441089317E-02  0.1614282139216E-02  0.0000000000000E+00 -0.9123552611992E-01
-0.4757294900912E-02  0.1136507521693E-02  0.0000000000000E+00 -0.7765341702870E-01
-0.3805524683347E-02  0.7141464092628E-03  0.0000000000000E+00 -0.6481402768086E-01
-0.2912497412783E-02  0.3435133261681E-03  0.0000000000000E+00 -0.5269568068547E-01
-0.2070882608301E-02  0.1847468961702E-04  0.0000000000000E+00 -0.4126129229826E-01
-0.1269438758555E-02 -0.2668707261939E-03  0.0000000000000E+00 -0.3044239587204E-01
-0.5040100263081E-03 -0.5216484438921E-03  0.0000000000000E+00 -0.2014065815238E-01
 0.2794307081011E-03 -0.6895069945976E-03  0.0000000000000E+00 -0.9894454358612E-02
-0.2533687324863E-01  0.1334285055658E-01  0.0000000000000E+00 -0.3147620324186E+00
-0.2418519395068E-01  0.1313135584456E-01  0.0000000000000E+00 -0.2914063744256E+00
-0.2309350008577E-01  0.1278324332590E-01  0.0000000000000E+00 -0.2699507841113E+00
-0.2180774583284E-01  0.1216895418805E-01  0.0000000000000E+00 -0.2493070907686E+00
-0.2041644329161E-01  0.1141622494249E-01  0.0000000000000E+00 -0.2292213473812E+00
-0.1897408445583E-01  0.1059473206266E-01  0.0000000000000E+00 -0.2096905260543E+00
-0.1750958684985E-01  0.9739944727950E-02  0.0000000000000E+00 -0.1907639520106E+00
-0.1603923334388E-01  0.8870605305280E-02  0.0000000000000E+00 -0.1724954017810E+00
-0.1457431595438E-01  0.7998772701542E-02  0.0000000000000E+00 -0.1549296359121E+00
-0.1312422919124E-01  0.7133860518034E-02  0.0000000000000E+00 -0.1381007542977E+00
-0.1169740118200E-01  0.6284032847184E-02  0.0000000000000E+00 -0.1220329227476E+00
-0.1030135522857E-01  0.5456496383361E-02  0.0000000000000E+00 -0.1067411588507E+00
-0.8942508187307E-02  0.4657433686746E-02  0.0000000000000E+00 -0.9223152865524E-01
-0.7626013821483E-02  0.3891928825381E-02  0.0000000000000E+00 -0.7850062385947E-01
-0.6355842919596E-02  0.3164149308405E-02  0.0000000000000E+00 -0.6553416934467E-01
-0.5135517324003E-02  0.2478001043569E-02  0.0000000000000E+00 -0.5330491183129E-01
-0.3969428597639E-02  0.1839196342190E-02  0.0000000000000E+00 -0.4176807801074E-01
-0.2870229182559E-02  0.1259442553931E-02  0.0000000000000E+00 -0.3085991267878E-01
-0.1858918094712E-02  0.7732295294995E-03  0.0000000000000E+00 -0.2046257695784E-01
-0.1149550491860E-02  0.5312611985360E-03  0.0000000000000E+00 -0.1049922743227E-01
-0.2951598227765E-01  0.1733099578758E-01  0.0000000000000E+00 -0.3212202261823E+00
-0.2802836489791E-01  0.1662912647578E-01  0.0000000000000E+00 -0.2974578112367E+00
-0.2697858397098E-01  0.1633771876847E-01  0.0000000000000E+00 -0.2748838482218E+00
-0.2588724209328E-01  0.1594455150308E-01  0.0000000000000E+00 -0.2534102525219E+00
-0.2465039792336E-01  0.1537132262381E-01  0.0000000000000E+00 -0.2327414551835E+00
-0.2328283597391E-01  0.1464616488575E-01  0.0000000000000E+00 -0.2127625917366E+00
-0.2181513694754E-01  0.1380699647822E-01  0.0000000000000E+00 -0.1934564699634E+00
-0.2027474688627E-01  0.1288473807033E-01  0.0000000000000E+00 -0.1748463782039E+00
-0.1868368573612E-01  0.1190283394741E-01  0.0000000000000E+00 -0.1569664343275E+00
-0.1705996894455E-01  0.1087969764777E-01  0.0000000000000E+00 -0.1398488279045E+00
-0.1541896102501E-01  0.9830610596266E-02  0.0000000000000E+00 -0.1235188795346E+00
-0.1377421151795E-01  0.8768852930736E-02  0.0000000000000E+00 -0.1079932026231E+00
-0.1213796951048E-01  0.7706378363122E-02  0.0000000000000E+00 -0.9327888046797E-01
-0.1052164910982E-01  0.6654377296547E-02  0.0000000000000E+00 -0.7937277669175E-01
-0.8936556556840E-02  0.5624018970627E-02  0.0000000000000E+00 -0.6626072096786E-01
-0.7395014862148E-02  0.4627703220548E-02  0.0000000000000E+00 -0.5391638959217E-01
-0.5913295640710E-02  0.3681285603286E-02  0.0000000000000E+00 -0.4230140162175E-01
-0.4513682281519E-02  0.2808260395256E-02  0.0000000000000E+00 -0.3136514928984E-01
-0.3251688907337E-02  0.2053144800463E-02  0.0000000000000E+00 -0.2106949707363E-01
-0.2172369174446E-02  0.1465964102088E-02  0.0000000000000E+00 -0.1150303111497E-01
-0.3387570520369E-01  0.2148154910263E-01  0.0000000000000E+00 -0.3272064457631E+00
-0.3234794199399E-01  0.2067971914636E-01  0.0000000000000E+00 -0.3036257668825E+00
-0.3120747952133E-01  0.2026244603896E-01  0.0000000000000E+00 -0.2804739594442E+00
-0.3013613944725E-01  0.1989361586600E-01  0.0000000000000E+00 -0.2582325924629E+00
-0.2896064015293E-01  0.1939516668250E-01  0.0000000000000E+00 -0.2368789212195E+00
-0.2763167115643E-01  0.1872458702929E-01  0.0000000000000E+00 -0.2163250457667E+00
-0.2615383891176E-01  0.1789139502136E-01  0.0000000000000E+00 -0.1965297142956E+00
-0.2454808225934E-01  0.1691953618573E-01  0.0000000000000E+00 -0.1774913756934E+00
-0.2283833505264E-01  0.1583437785265E-01  0.0000000000000E+00 -0.1592287950915E+00
-0.2104745626318E-01  0.1465925311356E-01  0.0000000000000E+00 -0.1417667144469E+00
-0.1919651298175E-01  0.1341517159681E-01  0.0000000000000E+00 -0.1251277300463E+00
-0.1730501906381E-01  0.1212132795821E-01  0.0000000000000E+00 -0.1093281389618E+00
-0.1539142932572E-01  0.1079575547583E-01  0.0000000000000E+00 -0.9437589350175E-01
-0.1347379194115E-01  0.9456057347231E-02  0.0000000000000E+00 -0.8026960135025E-01
-0.1157061473199E-01  0.8120328768606E-02  0.0000000000000E+00 -0.6699807017755E-01
-0.9702242281584E-02  0.6808406807709E-02  0.0000000000000E+00 -0.5454054810161E-01
-0.7892104112830E-02  0.5543417646894E-02  0.0000000000000E+00 -0.4286801238645E-01
-0.6170616702988E-02  0.4353646708761E-02  0.0000000000000E+00 -0.3194957975660E-01
-0.4565559940268E-02  0.3267380938168E-02  0.0000000000000E+00 -0.2177539560841E-01
-0.3084649956598E-02  0.2291445376127E-02  0.0000000000000E+00 -0.1236077035850E-01
-0.3826868857326E-01  0.2565189532086E-01  0.0000000000000E+00 -0.3331591705459E+00
-0.3689451912097E-01  0.2496362204175E-01  0.0000000000000E+00 -0.3096991647349E+00
-0.3573292153242E-01  0.2450164641404E-01  0.0000000000000E+00 -0.2862621842700E+00
-0.3463326845081E-01  0.2409564459091E-01  0.0000000000000E+00 -0.2634620142950E+00
-0.3345198546156E-01  0.2359586247365E-01  0.0000000000000E+00 -0.2414742291205E+00
-0.3211490845791E-01  0.2292725137551E-01  0.0000000000000E+00 -0.2203133731860E+00
-0.3060142210083E-01  0.2207111140285E-01  0.0000000000000E+00 -0.1999656354221E+00
-0.2891885482591E-01  0.2103633433323E-01  0.0000000000000E+00 -0.1804299053484E+00
-0.2708632359462E-01  0.1984289820004E-01  0.0000000000000E+00 -0.1617192121824E+00
-0.2512708255132E-01  0.1851426876862E-01  0.0000000000000E+00 -0.1438536148568E+00
-0.2306535031537E-01  0.1707444058428E-01  0.0000000000000E+00 -0.1268534458523E+00
-0.2092523666783E-01  0.1554704265691E-01  0.0000000000000E+00 -0.1107348127580E+00
-0.1873059717301E-01  0.1395531389406E-01  0.0000000000000E+00 -0.9550706980318E-01
-0.1650535326094E-01  0.1232249630678E-01  0.0000000000000E+00 -0.8117168187879E-01
-0.1427416438810E-01  0.1067251590753E-01  0.0000000000000E+00 -0.6772211198128E-01
-0.1206325151403E-01  0.9030869622951E-02  0.0000000000000E+00 -0.5514458111273E-01
-0.9901548592829E-02  0.7425522956901E-02  0.0000000000000E+00 -0.4341994525457E-01
-0.7819099990570E-02  0.5886227152320E-02  0.0000000000000E+00 -0.3252738981531E-01
-0.5841661111564E-02  0.4438859078072E-02  0.0000000000000E+00 -0.2244233229458E-01
-0.3978109244120E-02  0.3094372690487E-02  0.0000000000000E+00 -0.1312840137501E-01
-0.4268181638740E-01  0.2982263182174E-01  0.0000000000000E+00 -0.3392223145583E+00
-0.4155425109209E-01  0.2935640110786E-01  0.0000000000000E+00 -0.3157352161650E+00
-0.4045868218664E-01  0.2894134514420E-01  0.0000000000000E+00 -0.2920969170108E+00
-0.3935568651894E-01  0.2852290544631E-01  0.0000000000000E+00 -0.2688781341911E+00
-0.3815213708899E-01  0.2800025857618E-01  0.0000000000000E+00 -0.2463457071968E+00
-0.3678002278387E-01  0.2730251202525E-01  0.0000000000000E+00 -0.2246010506773E+00
-0.3520824163409E-01  0.2639782383965E-01  0.0000000000000E+00 -0.2036803772055E+00
-0.3343330501008E-01  0.2528279456724E-01  0.0000000000000E+00 -0.1836039943463E+00
-0.3146799550969E-01  0.2397020897063E-01  0.0000000000000E+00 -0.1643927451908E+00
-0.2933355321361E-01  0.2248102956067E-01  0.0000000000000E+00 -0.1460694979949E+00
-0.2705530202224E-01  0.2084003061254E-01  0.0000000000000E+00 -0.1286563033788E+00
-0.2466045140520E-01  0.1907367770769E-01  0.0000000000000E+00 -0.1121713038725E+00
-0.2217712359264E-01  0.1720922683235E-01  0.0000000000000E+00 -0.9662665100673E-01
-0.1963407131708E-01  0.1527448483038E-01  0.0000000000000E+00 -0.8202761295141E-01
-0.1706080112907E-01  0.1329796337639E-01  0.0000000000000E+00 -0.6837276777992E-01
-0.1448801224461E-01  0.1130928912136E-01  0.0000000000000E+00 -0.5565510120412E-01
-0.1194785632237E-01  0.9339630811670E-02  0.0000000000000E+00 -0.4386363539929E-01
-0.9474012490756E-02  0.7421810327843E-02  0.0000000000000E+00 -0.3298303421769E-01
-0.7100928044196E-02  0.5590560048604E-02  0.0000000000000E+00 -0.2298592750602E-01
-0.4859837169406E-02  0.3879459959806E-02  0.0000000000000E+00 -0.1380870351881E-01
-0.4711774806179E-01  0.3399751600525E-01  0.0000000000000E+00 -0.3454460258601E+00
-0.4627783792660E-01  0.3380186393958E-01  0.0000000000000E+00 -0.3217974615803E+00
-0.4531735752657E-01  0.3350744521472E-01  0.0000000000000E+00 -0.2979457855415E+00
-0.4425644385831E-01  0.3312259865307E-01  0.0000000000000E+00 -0.2743654018043E+00
-0.4304599821993E-01  0.3259114375556E-01  0.0000000000000E+00 -0.2513480160020E+00
-0.4163536350977E-01  0.3185848664091E-01  0.0000000000000E+00 -0.2290496955819E+00
-0.3999457897330E-01  0.3089266895940E-01  0.0000000000000E+00 -0.2075531589137E+00
-0.3811558397849E-01  0.2968451078474E-01  0.0000000000000E+00 -0.1869089859494E+00
-0.3600680536937E-01  0.2824161216422E-01  0.0000000000000E+00 -0.1671556806919E+00
-0.3368740886929E-01  0.2658228617823E-01  0.0000000000000E+00 -0.1483266223195E+00
-0.3118306967610E-01  0.2473124333602E-01  0.0000000000000E+00 -0.1304508826829E+00
-0.2852326910817E-01  0.2271688881609E-01  0.0000000000000E+00 -0.1135521022697E+00
-0.2573967019888E-01  0.2056972520204E-01  0.0000000000000E+00 -0.9764734251581E-01
-0.2286517952638E-01  0.1832143872469E-01  0.0000000000000E+00 -0.8274666611540E-01
-0.1993346029948E-01  0.1600441428011E-01  0.0000000000000E+00 -0.6885366308231E-01
-0.1697874143804E-01  0.1365155604130E-01  0.0000000000000E+00 -0.5596688675906E-01
-0.1403604561074E-01  0.1129647027034E-01  0.0000000000000E+00 -0.4408167172168E-01
-0.1114233187162E-01  0.8974633910265E-02  0.0000000000000E+00 -0.3319121902163E-01
-0.8341024860133E-02  0.6727623096739E-02  0.0000000000000E+00 -0.2328403854834E-01
-0.5692690876639E-02  0.4616348924733E-02  0.0000000000000E+00 -0.1432139867001E-01
-0.5158082173725E-01  0.3818191441444E-01  0.0000000000000E+00 -0.3518401235371E+00
-0.5104520890085E-01  0.3827760760025E-01  0.0000000000000E+00 -0.3279243580805E+00
-0.5026776472197E-01  0.3815484486045E-01  0.0000000000000E+00 -0.3038023969175E+00
-0.4929371704797E-01  0.3784982087278E-01  0.0000000000000E+00 -0.2798557503102E+00
-0.4810418318826E-01  0.3733733188604E-01  0.0000000000000E+00 -0.2563681144265E+00
-0.4666635955050E-01  0.3658045059128E-01  0.0000000000000E+00 -0.2335244102524E+00
-0.4495674218671E-01  0.3555297352004E-01  0.0000000000000E+00 -0.2114429891328E+00
-0.4296759017259E-01  0.3424527756996E-01  0.0000000000000E+00 -0.1902045647462E+00
-0.4070587455198E-01  0.3266281669647E-01  0.0000000000000E+00 -0.1698700050428E+00
-0.3818994852722E-01  0.3082254137389E-01  0.0000000000000E+00 -0.1504888100752E+00
-0.3544621515104E-01  0.2874944709682E-01  0.0000000000000E+00 -0.1321020265117E+00
-0.3250647054524E-01  0.2647388473550E-01  0.0000000000000E+00 -0.1147426222972E+00
-0.2940593077253E-01  0.2402958951384E-01  0.0000000000000E+00 -0.9843518709889E-01
-0.2618177188164E-01  0.2145222878395E-01  0.0000000000000E+00 -0.8319592818910E-01
-0.2287202413043E-01  0.1877829735388E-01  0.0000000000000E+00 -0.6903342347342E-01
-0.1951477575117E-01  0.1604429033209E-01  0.0000000000000E+00 -0.5595031417122E-01
-0.1614783722513E-01  0.1328629098288E-01  0.0000000000000E+00 -0.4394609704146E-01
-0.1280962484343E-01  0.1054058918781E-01  0.0000000000000E+00 -0.3302143395487E-01
-0.9543208393819E-02  0.7847086946528E-02  0.0000000000000E+00 -0.2318604763735E-01
-0.6415865465328E-02  0.5265011602327E-02  0.0000000000000E+00 -0.1447645100345E-01
-0.5607449773442E-01  0.4237996731713E-01  0.0000000000000E+00 -0.3584007027610E+00
-0.5585148408908E-01  0.4277742472335E-01  0.0000000000000E+00 -0.3341307623588E+00
-0.5528995470020E-01  0.4286146741854E-01  0.0000000000000E+00 -0.3096632719931E+00
-0.5444076044798E-01  0.4267572185094E-01  0.0000000000000E+00 -0.2853061755830E+00
-0.5330221696827E-01  0.4221303730584E-01  0.0000000000000E+00 -0.2613238054234E+00
-0.5185529595990E-01  0.4145035434596E-01  0.0000000000000E+00 -0.2379142119200E+00
-0.5008385755934E-01  0.4036853015364E-01  0.0000000000000E+00 -0.2152213543820E+00
-0.4798291037477E-01  0.3896020247567E-01  0.0000000000000E+00 -0.1933528058254E+00
-0.4556016002440E-01  0.3723104417983E-01  0.0000000000000E+00 -0.1723930903783E+00
-0.4283461677052E-01  0.3519817850354E-01  0.0000000000000E+00 -0.1524113122340E+00
-0.3983430592109E-01  0.3288779122675E-01  0.0000000000000E+00 -0.1334645503154E+00
-0.3659396022226E-01  0.3033278626056E-01  0.0000000000000E+00 -0.1155988888185E+00
-0.3315295855940E-01  0.2757072189608E-01  0.0000000000000E+00 -0.9884953474316E-01
-0.2955351783175E-01  0.2464201220242E-01  0.0000000000000E+00 -0.8324096047940E-01
-0.2583907978017E-01  0.2158831758416E-01  0.0000000000000E+00 -0.6878762934176E-01
-0.2205285306536E-01  0.1845107024109E-01  0.0000000000000E+00 -0.5549570035901E-01
-0.1823654200449E-01  0.1527013246471E-01  0.0000000000000E+00 -0.4336622998822E-01
-0.1442935573573E-01  0.1208259825585E-01  0.0000000000000E+00 -0.3240131352143E-01
-0.1066744440194E-01  0.8921714104605E-02  0.0000000000000E+00 -0.2261711166001E-01
-0.6982616607406E-02  0.5812574930634E-02  0.0000000000000E+00 -0.1408670636386E-01
-0.6060713978905E-01  0.4659823013992E-01  0.0000000000000E+00 -0.3651284509872E+00
-0.6070451446087E-01  0.4730659455478E-01  0.0000000000000E+00 -0.3404429815006E+00
-0.6038554671354E-01  0.4762536842440E-01  0.0000000000000E+00 -0.3155647309660E+00
-0.5969534161764E-01  0.4759405203557E-01  0.0000000000000E+00 -0.2907464657382E+00
-0.5863944817455E-01  0.4721350072519E-01  0.0000000000000E+00 -0.2662319106960E+00
-0.5720735252335E-01  0.4646941666636E-01  0.0000000000000E+00 -0.2422242737175E+00
-0.5538871436626E-01  0.4534835622788E-01  0.0000000000000E+00 -0.2188862176203E+00
-0.5318159885908E-01  0.4384572518158E-01  0.0000000000000E+00 -0.1963488402492E+00
-0.5059532575642E-01  0.4196843309206E-01  0.0000000000000E+00 -0.1747203270154E+00
-0.4765040487143E-01  0.3973469941602E-01  0.0000000000000E+00 -0.1540916057529E+00
-0.4437714760974E-01  0.3717259595363E-01  0.0000000000000E+00 -0.1345391338382E+00
-0.4081378499563E-01  0.3431814340235E-01  0.0000000000000E+00 -0.1161258018905E+00
-0.3700444477760E-01  0.3121329700574E-01  0.0000000000000E+00 -0.9890097152760E-01
-0.3299709475364E-01  0.2790391340165E-01  0.0000000000000E+00 -0.8290043704868E-01
-0.2884145276411E-01  0.2443768782729E-01  0.0000000000000E+00 -0.6814686787719E-01
-0.2458680859273E-01  0.2086199960674E-01  0.0000000000000E+00 -0.5465115067033E-01
-0.2027960471191E-01  0.1722150603172E-01  0.0000000000000E+00 -0.4241512272881E-01
-0.1596022831621E-01  0.1355499030262E-01  0.0000000000000E+00 -0.3143651181909E-01
-0.1165733598249E-01  0.9889701030099E-02  0.0000000000000E+00 -0.2171850702574E-01
-0.7368108878484E-02  0.6224980480601E-02  0.0000000000000E+00 -0.1328301987721E-01
-0.6517662619705E-01  0.5083348526202E-01  0.0000000000000E+00 -0.3720531845922E+00
-0.6560125461375E-01  0.5185926705859E-01  0.0000000000000E+00 -0.3469384624910E+00
-0.6554750874975E-01  0.5243528122714E-01  0.0000000000000E+00 -0.3216207132977E+00
-0.6504765627460E-01  0.5258954053931E-01  0.0000000000000E+00 -0.2963142974932E+00
-0.6410702020834E-01  0.5232342285653E-01  0.0000000000000E+00 -0.2712450702397E+00
-0.6271848536934E-01  0.5162635414081E-01  0.0000000000000E+00 -0.2466179441858E+00
-0.6087481537729E-01  0.5048803434725E-01  0.0000000000000E+00 -0.2226100020992E+00
-0.5857602568870E-01  0.4890567119973E-01  0.0000000000000E+00 -0.1993732643053E+00
-0.5583273154986E-01  0.4688720743141E-01  0.0000000000000E+00 -0.1770392249818E+00
-0.5266692637186E-01  0.4445201761378E-01  0.0000000000000E+00 -0.1557221775376E+00
-0.4911130579823E-01  0.4163019429549E-01  0.0000000000000E+00 -0.1355207542428E+00
-0.4520780552396E-01  0.3846108525917E-01  0.0000000000000E+00 -0.1165180790631E+00
-0.4100568850086E-01  0.3499140795513E-01  0.0000000000000E+00 -0.9878119619289E-01
-0.3655932108134E-01  0.3127307098281E-01  0.0000000000000E+00 -0.8236040014695E-01
-0.3192567384388E-01  0.2736073233624E-01  0.0000000000000E+00 -0.6728895410531E-01
-0.2716150749653E-01  0.2330905484750E-01  0.0000000000000E+00 -0.5358352490719E-01
-0.2232005050563E-01  0.1916949293617E-01  0.0000000000000E+00 -0.4124546252064E-01
-0.1744665015105E-01  0.1498612717858E-01  0.0000000000000E+00 -0.3026269482204E-01
-0.1257144071011E-01  0.1078911705124E-01  0.0000000000000E+00 -0.2061012878084E-01
-0.7698270243779E-02  0.6584690028111E-02  0.0000000000000E+00 -0.1223600302501E-01
-0.6977451535456E-01  0.5507711921452E-01  0.0000000000000E+00 -0.3791991162519E+00
-0.7053470383300E-01  0.5642675057127E-01  0.0000000000000E+00 -0.3536805888283E+00
-0.7076678588593E-01  0.5727919837533E-01  0.0000000000000E+00 -0.3279271456173E+00
-0.7048683857332E-01  0.5764728793038E-01  0.0000000000000E+00 -0.3021290251498E+00
-0.6969458074346E-01  0.5752749165896E-01  0.0000000000000E+00 -0.2764985449375E+00
-0.6838176864628E-01  0.5690849250450E-01  0.0000000000000E+00 -0.2512413311065E+00
-0.6654116406731E-01  0.5578013334136E-01  0.0000000000000E+00 -0.2265463761676E+00
-0.6417278446430E-01  0.5413959093695E-01  0.0000000000000E+00 -0.2025847548688E+00
-0.6128732467126E-01  0.5199472475827E-01  0.0000000000000E+00 -0.1795109037938E+00
-0.5790747088249E-01  0.4936534456669E-01  0.0000000000000E+00 -0.1574636919712E+00
-0.5406780474015E-01  0.4628310164209E-01  0.0000000000000E+00 -0.1365664100204E+00
-0.4981376637158E-01  0.4279047151155E-01  0.0000000000000E+00 -0.1169257238249E+00
-0.4519993582903E-01  0.3893908228040E-01  0.0000000000000E+00 -0.9863000399969E-01
-0.4028775902313E-01  0.3478750836412E-01  0.0000000000000E+00 -0.8174752393950E-01
-0.3514277774661E-01  0.3039858451377E-01  0.0000000000000E+00 -0.6632495220540E-01
-0.2983138532975E-01  0.2583626498180E-01  0.0000000000000E+00 -0.5238638226698E-01
-0.2441709238294E-01  0.2116202114119E-01  0.0000000000000E+00 -0.3993278536167E-01
-0.1895616610786E-01  0.1643071477272E-01  0.0000000000000E+00 -0.2894096597672E-01
-0.1349301577853E-01  0.1168622334443E-01  0.0000000000000E+00 -0.1935884020434E-01
-0.8058578602824E-02  0.6959562577034E-02  0.0000000000000E+00 -0.1109232755503E-01
-0.7438913871718E-01  0.5931719464675E-01  0.0000000000000E+00 -0.3865797269595E+00
-0.7549622037467E-01  0.6099932530486E-01  0.0000000000000E+00 -0.3607055028055E+00
-0.7603473814315E-01  0.6214652343416E-01  0.0000000000000E+00 -0.3345418253102E+00
-0.7600366561682E-01  0.6275533395789E-01  0.0000000000000E+00 -0.3082647369553E+00
-0.7539356131918E-01  0.6281371880084E-01  0.0000000000000E+00 -0.2820772850052E+00
-0.7419129279922E-01  0.6230590796669E-01  0.0000000000000E+00 -0.2561859653463E+00
-0.7238649984252E-01  0.6121886093424E-01  0.0000000000000E+00 -0.2307902105715E+00
-0.6997679324774E-01  0.5954742074329E-01  0.0000000000000E+00 -0.2060788014130E+00
-0.6697109139445E-01  0.5729760479035E-01  0.0000000000000E+00 -0.1822288115243E+00
-0.6339132615937E-01  0.5448828497021E-01  0.0000000000000E+00 -0.1594047468063E+00
-0.5927288336557E-01  0.5115163134991E-01  0.0000000000000E+00 -0.1377569387158E+00
-0.5466404932789E-01  0.4733259296495E-01  0.0000000000000E+00 -0.1174190411821E+00
-0.4962461504816E-01  0.4308756498576E-01  0.0000000000000E+00 -0.9850487870660E-01
-0.4422371434955E-01  0.3848231347774E-01  0.0000000000000E+00 -0.8110506086124E-01
-0.3853695643479E-01  0.3358921253330E-01  0.0000000000000E+00 -0.6528379349541E-01
-0.3264295378426E-01  0.2848388832568E-01  0.0000000000000E+00 -0.5107618529213E-01
-0.2661943412224E-01  0.2324145824795E-01  0.0000000000000E+00 -0.3848602063991E-01
-0.2053938749574E-01  0.1793277869558E-01  0.0000000000000E+00 -0.2748333449575E-01
-0.1446843228109E-01  0.1262176934369E-01  0.0000000000000E+00 -0.1800070338939E-01
-0.8465516541836E-02  0.7365820329208E-02  0.0000000000000E+00 -0.9928757280065E-02
-0.7900626924045E-01  0.6353902120813E-01  0.0000000000000E+00 -0.3942049503638E+00
-0.8047449051587E-01  0.6556472272960E-01  0.0000000000000E+00 -0.3680358009180E+00
-0.8134115387624E-01  0.6702547973999E-01  0.0000000000000E+00 -0.3415020327294E+00
-0.8158834322644E-01  0.6790170501231E-01  0.0000000000000E+00 -0.3147711786302E+00
-0.8119524187934E-01  0.6817063267849E-01  0.0000000000000E+00 -0.2880400505218E+00
-0.8014085365177E-01  0.6780912267159E-01  0.0000000000000E+00 -0.2615163037945E+00
-0.7840877760063E-01  0.6679842844614E-01  0.0000000000000E+00 -0.2354087132818E+00
-0.7599159791972E-01  0.6512854970515E-01  0.0000000000000E+00 -0.2099225920462E+00
-0.7289414576179E-01  0.6280145724762E-01  0.0000000000000E+00 -0.1852572815800E+00
-0.6913557930951E-01  0.5983315346101E-01  0.0000000000000E+00 -0.1616038326305E+00
-0.6475040378604E-01  0.5625470002878E-01  0.0000000000000E+00 -0.1391419678852E+00
-0.5978852648969E-01  0.5211231262908E-01  0.0000000000000E+00 -0.1180360605976E+00
-0.5431437270843E-01  0.4746654882953E-01  0.0000000000000E+00 -0.9843026317123E-01
-0.4840505037986E-01  0.4239057321057E-01  0.0000000000000E+00 -0.8044316614723E-01
-0.4214757837642E-01  0.3696750601218E-01  0.0000000000000E+00 -0.6416250064548E-01
-0.3563529939077E-01  0.3128696346845E-01  0.0000000000000E+00 -0.4964040602673E-01
-0.2896380224693E-01  0.2544109060805E-01  0.0000000000000E+00 -0.3688963855515E-01
-0.2222700219221E-01  0.1952069467839E-01  0.0000000000000E+00 -0.2588091008991E-01
-0.1551437311315E-01  0.1361243068329E-01  0.0000000000000E+00 -0.1654175301982E-01
-0.8910294977600E-02  0.7798005707834E-02  0.0000000000000E+00 -0.8758352374076E-02
-0.8360956894802E-01  0.6772564726388E-01  0.0000000000000E+00 -0.4020844910188E+00
-0.8545527528310E-01  0.7010770552647E-01  0.0000000000000E+00 -0.3756893114990E+00
-0.8667312047838E-01  0.7190165732863E-01  0.0000000000000E+00 -0.3488368101858E+00
-0.8722892210537E-01  0.7307240771441E-01  0.0000000000000E+00 -0.3216884544346E+00
-0.8708915175967E-01  0.7358516532426E-01  0.0000000000000E+00 -0.2944362553827E+00
-0.8622265897012E-01  0.7340720843465E-01  0.0000000000000E+00 -0.2672887691813E+00
-0.8460438510695E-01  0.7251157699628E-01  0.0000000000000E+00 -0.2404628172146E+00
-0.8221921591387E-01  0.7088088097639E-01  0.0000000000000E+00 -0.2141788463639E+00
-0.7906526058769E-01  0.6851053615592E-01  0.0000000000000E+00 -0.1886577652498E+00
-0.7515636478448E-01  0.6541124951685E-01  0.0000000000000E+00 -0.1641177399259E+00
-0.7052381856545E-01  0.6161072589141E-01  0.0000000000000E+00 -0.1407700797088E+00
-0.6521720856934E-01  0.5715455276338E-01  0.0000000000000E+00 -0.1188138447207E+00
-0.5930430565773E-01  0.5210615852372E-01  0.0000000000000E+00 -0.9842919162223E-01
-0.5286984516979E-01  0.4654570024447E-01  0.0000000000000E+00 -0.7976979759377E-01
-0.4601309328005E-01  0.4056776626837E-01  0.0000000000000E+00 -0.6295498848807E-01
-0.3884423373602E-01  0.3427790973498E-01  0.0000000000000E+00 -0.4806242237603E-01
-0.3147986399005E-01  0.2778827519679E-01  0.0000000000000E+00 -0.3512230104521E-01
-0.2403819851239E-01  0.2121288725594E-01  0.0000000000000E+00 -0.2411410836398E-01
-0.1663475966810E-01  0.1466336942681E-01  0.0000000000000E+00 -0.1496689557217E-01
-0.9379140323034E-02  0.8245695400400E-02  0.0000000000000E+00 -0.7564176826163E-02
-0.8818071141755E-01  0.7185803245409E-01  0.0000000000000E+00 -0.4102288244212E+00
-0.9042129371549E-01  0.7460991587629E-01  0.0000000000000E+00 -0.3836832998678E+00
-0.9201431338028E-01  0.7675717931300E-01  0.0000000000000E+00 -0.3565735009738E+00
-0.9291007175638E-01  0.7825001275206E-01  0.0000000000000E+00 -0.3290550884091E+00
-0.9306158335201E-01  0.7904092220396E-01  0.0000000000000E+00 -0.3013152056389E+00
-0.9242583019551E-01  0.7908599223307E-01  0.0000000000000E+00 -0.2735621701454E+00
-0.9096682775171E-01  0.7834791050295E-01  0.0000000000000E+00 -0.2460189346036E+00
-0.8865915431296E-01  0.7679943690009E-01  0.0000000000000E+00 -0.2189190628032E+00
-0.8549134545497E-01  0.7442673669264E-01  0.0000000000000E+00 -0.1925036379584E+00
-0.8146892117542E-01  0.7123235849539E-01  0.0000000000000E+00 -0.1670178289834E+00
-0.7661691977428E-01  0.6723774285373E-01  0.0000000000000E+00 -0.1427062405702E+00
-0.7098178210499E-01  0.6248511611559E-01  0.0000000000000E+00 -0.1198065361282E+00
-0.6463234718959E-01  0.5703854008371E-01  0.0000000000000E+00 -0.9854116782841E-01
-0.5765964747818E-01  0.5098381102279E-01  0.0000000000000E+00 -0.7910742910150E-01
-0.5017518671181E-01  0.4442688778507E-01  0.0000000000000E+00 -0.6166649728144E-01
-0.4230750101248E-01  0.3749063424615E-01  0.0000000000000E+00 -0.4633263733968E-01
-0.3419707889180E-01  0.3030992242074E-01  0.0000000000000E+00 -0.3316419303359E-01
-0.2599010185152E-01  0.2302553042815E-01  0.0000000000000E+00 -0.2215819083063E-01
-0.1783177956358E-01  0.1577759643447E-01  0.0000000000000E+00 -0.1325010013555E-01
-0.9860038382765E-02  0.8699404414241E-02  0.0000000000000E+00 -0.6319468455834E-02
-0.9269942082884E-01  0.7591515000121E-01  0.0000000000000E+00 -0.4186486222406E+00
-0.9535226122606E-01  0.7904993551866E-01  0.0000000000000E+00 -0.3920352543421E+00
-0.9734469689652E-01  0.8157038264646E-01  0.0000000000000E+00 -0.3647398000223E+00
-0.9861236824775E-01  0.8341288274316E-01  0.0000000000000E+00 -0.3369109699303E+00
-0.9909455073556E-01  0.8451704522748E-01  0.0000000000000E+00 -0.3087297321052E+00
-0.9873517122008E-01  0.8482669305165E-01  0.0000000000000E+00 -0.2804020546355E+00
-0.9748544975546E-01  0.8429244298324E-01  0.0000000000000E+00 -0.2521542275920E+00
-0.9530722402629E-01  0.8287494846581E-01  0.0000000000000E+00 -0.2242299570444E+00
-0.9217650669897E-01  0.8054836891347E-01  0.0000000000000E+00 -0.1968880121420E+00
-0.8808707549383E-01  0.7730387710170E-01  0.0000000000000E+00 -0.1703992917568E+00
-0.8305395294439E-01  0.7315307374147E-01  0.0000000000000E+00 -0.1450423746088E+00
-0.7711656850371E-01  0.6813111642309E-01  0.0000000000000E+00 -0.1210968315490E+00
-0.7034126323041E-01  0.6229923964912E-01  0.0000000000000E+00 -0.9883383566582E-01
-0.6282264319598E-01  0.5574618795811E-01  0.0000000000000E+00 -0.7850398341962E-01
-0.5468317298504E-01  0.4858796290881E-01  0.0000000000000E+00 -0.6032282112817E-01
-0.4607041281234E-01  0.4096528193672E-01  0.0000000000000E+00 -0.4445538342949E-01
-0.3715153799867E-01  0.3303836222185E-01  0.0000000000000E+00 -0.3100197722944E-01
-0.2810531291106E-01  0.2497914606601E-01  0.0000000000000E+00 -0.1998815397464E-01
-0.1911241924730E-01  0.1696184264124E-01  0.0000000000000E+00 -0.1136157785673E-01
-0.1034551969634E-01  0.9153174344117E-02  0.0000000000000E+00 -0.4996828205479E-02
-0.9714337481590E-01  0.7987391629420E-01  0.0000000000000E+00 -0.4273545027439E+00
-0.1002247284066E+00  0.8340314446335E-01  0.0000000000000E+00 -0.4007633792638E+00
-0.1026401077534E+00  0.8631540212396E-01  0.0000000000000E+00 -0.3733649962081E+00
-0.1043115149830E+00  0.8853437407142E-01  0.0000000000000E+00 -0.3452991692530E+00
-0.1051646439138E+00  0.8998702660265E-01  0.0000000000000E+00 -0.3167384636771E+00
-0.1051297136834E+00  0.9060440050757E-01  0.0000000000000E+00 -0.2878834902865E+00
-0.1041437644492E+00  0.9032382739934E-01  0.0000000000000E+00 -0.2589601008398E+00
-0.1021537836977E+00  0.8909195034852E-01  0.0000000000000E+00 -0.2302179643108E+00
-0.9912038263248E-01  0.8686828088148E-01  0.0000000000000E+00 -0.2019295570345E+00
-0.9502191309078E-01  0.8362919053656E-01  0.0000000000000E+00 -0.1743885116452E+00
-0.8985893496495E-01  0.7937225816139E-01  0.0000000000000E+00 -0.1479062926052E+00
-0.8365885162980E-01  0.7412080662513E-01  0.0000000000000E+00 -0.1228062074292E+00
-0.7648034345605E-01  0.6792828234929E-01  0.0000000000000E+00 -0.9941385561589E-01
-0.6841696510186E-01  0.6088187298790E-01  0.0000000000000E+00 -0.7804337125143E-01
-0.5959897574714E-01  0.5310446306034E-01  0.0000000000000E+00 -0.5897939376205E-01
-0.5019225077915E-01  0.4475379452060E-01  0.0000000000000E+00 -0.4245576472682E-01
-0.4039317393282E-01  0.3601771781216E-01  0.0000000000000E+00 -0.2863350614968E-01
-0.3041894837680E-01  0.2710491891964E-01  0.0000000000000E+00 -0.1758233740926E-01
-0.2049408651811E-01  0.1823170909001E-01  0.0000000000000E+00 -0.9271061285179E-02
-0.1083560620344E-01  0.9607433819137E-02  0.0000000000000E+00 -0.3570224583201E-02
-0.1014880843268E+00  0.8370911273403E-01  0.0000000000000E+00 -0.4363561231290E+00
-0.1050118693712E+00  0.8764154766216E-01  0.0000000000000E+00 -0.4098858136807E+00
-0.1078717892910E+00  0.9096174487250E-01  0.0000000000000E+00 -0.3824794977174E+00
-0.1099775045855E+00  0.9358203601503E-01  0.0000000000000E+00 -0.3542657486408E+00
-0.1112417469293E+00  0.9541745401011E-01  0.0000000000000E+00 -0.3254059326847E+00
-0.1115809726266E+00  0.9638634040622E-01  0.0000000000000E+00 -0.2960916151428E+00
-0.1109172789374E+00  0.9641216065461E-01  0.0000000000000E+00 -0.2665435041792E+00
-0.1091812235282E+00  0.9542619816653E-01  0.0000000000000E+00 -0.2370117329411E+00
-0.1063154601434E+00  0.9337103905812E-01  0.0000000000000E+00 -0.2077766945270E+00
-0.1022792136833E+00  0.9020487561204E-01  0.0000000000000E+00 -0.1791494494369E+00
-0.9705362861519E-01  0.8590666868088E-01  0.0000000000000E+00 -0.1514705933373E+00
-0.9064792953897E-01  0.8048212171741E-01  0.0000000000000E+00 -0.1251063214477E+00
-0.8310611773108E-01  0.7397021609386E-01  0.0000000000000E+00 -0.1004402685412E+00
-0.7451356201566E-01  0.6644970887016E-01  0.0000000000000E+00 -0.7785965604609E-01
-0.6500231636989E-01  0.5804448375891E-01  0.0000000000000E+00 -0.5773458796654E-01
-0.5475338715231E-01  0.4892604087641E-01  0.0000000000000E+00 -0.4039037890241E-01
-0.4399373794245E-01  0.3931094579030E-01  0.0000000000000E+00 -0.2607494612061E-01
-0.3298605112640E-01  0.2945121387555E-01  0.0000000000000E+00 -0.1492649961870E-01
-0.2201057916982E-01  0.1961685973274E-01  0.0000000000000E+00 -0.6950205517188E-02
-0.1134221453309E-01  0.1007299129437E-01  0.0000000000000E+00 -0.2014999789621E-02
-0.1057067690393E+00  0.8739327141819E-01  0.0000000000000E+00 -0.4456614114795E+00
-0.1096831991728E+00  0.9173352555217E-01  0.0000000000000E+00 -0.4194200125426E+00
-0.1130058913496E+00  0.9547384295383E-01  0.0000000000000E+00 -0.3921143747397E+00
-0.1155737557927E+00  0.9851679958787E-01  0.0000000000000E+00 -0.3638594168513E+00
-0.1172876852820E+00  0.1007667094076E+00  0.0000000000000E+00 -0.3348024127173E+00
-0.1180510217677E+00  0.1021299900276E+00  0.0000000000000E+00 -0.3051218486297E+00
-0.1177709566875E+00  0.1025164607083E+00  0.0000000000000E+00 -0.2750278815248E+00
-0.1163608417264E+00  0.1018415122514E+00  0.0000000000000E+00 -0.2447643610063E+00
-0.1137434980137E+00  0.1000292418372E+00  0.0000000000000E+00 -0.2146118340682E+00
-0.1098557142611E+00  0.9701673809123E-01  0.0000000000000E+00 -0.1848906709381E+00
-0.1046541490897E+00  0.9275973021692E-01  0.0000000000000E+00 -0.1559632092047E+00
-0.9812280213933E-01  0.8723977033626E-01  0.0000000000000E+00 -0.1282334811364E+00
-0.9028204198461E-01  0.8047295592930E-01  0.0000000000000E+00 -0.1021426281304E+00
-0.8119879223376E-01  0.7251983827062E-01  0.0000000000000E+00 -0.7815757511003E-01
-0.7099676161485E-01  0.6349548866664E-01  0.0000000000000E+00 -0.5675017407589E-01
-0.5986449457413E-01  0.5357762036650E-01  0.0000000000000E+00 -0.3836443040818E-01
-0.4805769383534E-01  0.4300935278304E-01  0.0000000000000E+00 -0.2337154971555E-01
-0.3589142587739E-01  0.3209227307017E-01  0.0000000000000E+00 -0.1201735729518E-01
-0.2371865779023E-01  0.2116614126627E-01  0.0000000000000E+00 -0.4373562233990E-02
-0.1189411529213E-01  0.1057425402712E-01  0.0000000000000E+00 -0.3122064208900E-03
-0.1097701068171E+00  0.9089657154947E-01  0.0000000000000E+00 -0.4552751615956E+00
-0.1142043792575E+00  0.9564390375761E-01  0.0000000000000E+00 -0.4293804539644E+00
-0.1180031255007E+00  0.9981096874360E-01  0.0000000000000E+00 -0.4022979522987E+00
-0.1210563423448E+00  0.1032925036975E+00  0.0000000000000E+00 -0.3741271876742E+00
-0.1232548026483E+00  0.1059838657708E+00  0.0000000000000E+00 -0.3449987927470E+00
-0.1244901742310E+00  0.1077810968055E+00  0.0000000000000E+00 -0.3150742941051E+00
-0.1246557735401E+00  0.1085815641735E+00  0.0000000000000E+00 -0.2845476454808E+00
-0.1236480918970E+00  0.1082853479910E+00  0.0000000000000E+00 -0.2536487783987E+00
-0.1213693885894E+00  0.1067976513880E+00  0.0000000000000E+00 -0.2226488146566E+00
-0.1177317048807E+00  0.1040325773080E+00  0.0000000000000E+00 -0.1918662834280E+00
-0.1126627237315E+00  0.9991868267003E-01  0.0000000000000E+00 -0.1616734103698E+00
-0.1061139438411E+00  0.9440676665697E-01  0.0000000000000E+00 -0.1325011094471E+00
-0.9807159750583E-01  0.8748031981327E-01  0.0000000000000E+00 -0.1048405858661E+00
-0.8857049560028E-01  0.7916884055758E-01  0.0000000000000E+00 -0.7923836894033E-01
-0.7771030404196E-01  0.6956360228897E-01  0.0000000000000E+00 -0.5628018324915E-01
-0.6567226265803E-01  0.5883407497468E-01  0.0000000000000E+00 -0.3655780175397E-01
-0.5273182303513E-01  0.4724074134259E-01  0.0000000000000E+00 -0.2061357108012E-01
-0.3925961248145E-01  0.3513702943584E-01  0.0000000000000E+00 -0.8862260087237E-02
-0.2570173789381E-01  0.2295132791243E-01  0.0000000000000E+00 -0.1501675400410E-02
-0.1253293765263E-01  0.1114263322275E-01  0.0000000000000E+00  0.1563059078396E-02
-0.1136464669919E+00  0.9418768132892E-01  0.0000000000000E+00 -0.4651963374690E+00
-0.1185379128182E+00  0.9933510352006E-01  0.0000000000000E+00 -0.4397704118692E+00
-0.1228194066441E+00  0.1039284928063E+00  0.0000000000000E+00 -0.4130428038951E+00
-0.1263743011447E+00  0.1078569223331E+00  0.0000000000000E+00 -0.3850964821833E+00
-0.1290854205987E+00  0.1110089945209E+00  0.0000000000000E+00 -0.3560437974361E+00
-0.1308349955004E+00  0.1132726726103E+00  0.0000000000000E+00 -0.3260263237911E+00
-0.1315045950414E+00  0.1145351220469E+00  0.0000000000000E+00 -0.2952167681675E+00
-0.1309755873038E+00  0.1146830481590E+00  0.0000000000000E+00 -0.2638235293114E+00
-0.1291305763222E+00  0.1136039678449E+00  0.0000000000000E+00 -0.2320977556952E+00
-0.1258563058748E+00  0.1111888832884E+00  0.0000000000000E+00 -0.2003425259348E+00
-0.1210486321415E+00  0.1073369338793E+00  0.0000000000000E+00 -0.1689235845127E+00
-0.1146203430398E+00  0.1019627710235E+00  0.0000000000000E+00 -0.1382806801779E+00
-0.1065127949600E+00  0.9500758901004E-01  0.0000000000000E+00 -0.1089377629089E+00
-0.9671244558149E-01  0.8645485967227E-01  0.0000000000000E+00 -0.8150883174590E-01
-0.8527312465756E-01  0.7635162555615E-01  0.0000000000000E+00 -0.5669375435583E-01
-0.7234371966758E-01  0.6483516477823E-01  0.0000000000000E+00 -0.3525466228513E-01
-0.5819750979279E-01  0.5216177625463E-01  0.0000000000000E+00 -0.1795940267153E-01
-0.4325299362059E-01  0.3872810126258E-01  0.0000000000000E+00 -0.5479474418727E-02
-0.2806861031253E-01  0.2506817009215E-01  0.0000000000000E+00  0.1756560810465E-02
-0.1329423110283E-01  0.1180778279803E-01  0.0000000000000E+00  0.3722346683260E-02
-0.1173039859622E+00  0.9723458862562E-01  0.0000000000000E+00 -0.4754188015854E+00
-0.1226445014264E+00  0.1027676335084E+00  0.0000000000000E+00 -0.4505822325692E+00
-0.1274071898031E+00  0.1077783387570E+00  0.0000000000000E+00 -0.4243439111247E+00
-0.1314707014650E+00  0.1121520463724E+00  0.0000000000000E+00 -0.3967699642962E+00
-0.1347123750778E+00  0.1157730268837E+00  0.0000000000000E+00 -0.3679543361709E+00
-0.1370078887853E+00  0.1185240544446E+00  0.0000000000000E+00 -0.3380173337804E+00
-0.1382302544237E+00  0.1202853329547E+00  0.0000000000000E+00 -0.3071070268444E+00
-0.1382489660851E+00  0.1209335648788E+00  0.0000000000000E+00 -0.2754040245160E+00
-0.1369298888375E+00  0.1203417234483E+00  0.0000000000000E+00 -0.2431296026784E+00
-0.1341364272956E+00  0.1183800430606E+00  0.0000000000000E+00 -0.2105570943075E+00
-0.1297326496739E+00  0.1149188680152E+00  0.0000000000000E+00 -0.1780264937540E+00
-0.1235893399509E+00  0.1098342810075E+00  0.0000000000000E+00 -0.1459621010490E+00
-0.1155944101344E+00  0.1030178686309E+00  0.0000000000000E+00 -0.1148925050476E+00
-0.1056697166132E+00  0.9439256322222E-01  0.0000000000000E+00 -0.8547089063689E-01
-0.9379698430340E-01  0.8393713691485E-01  0.0000000000000E+00 -0.5849083153645E-01
-0.8005577556193E-01  0.7172220249611E-01  0.0000000000000E+00 -0.3488712782245E-01
-0.6467471537223E-01  0.5795912251540E-01  0.0000000000000E+00 -0.1570087533199E-01
-0.4808795650768E-01  0.4305556770215E-01  0.0000000000000E+00 -0.1973778699424E-02
-0.3097074620542E-01  0.2765264049201E-01  0.0000000000000E+00  0.5459194576732E-02
-0.1420999648054E-01  0.1260159578769E-01  0.0000000000000E+00  0.6263266413634E-02
-0.1207104166263E+00  0.1000050418500E+00  0.0000000000000E+00 -0.4859308178117E+00
-0.1264833899226E+00  0.1059006440846E+00  0.0000000000000E+00 -0.4618015698478E+00
-0.1317157961997E+00  0.1113094916078E+00  0.0000000000000E+00 -0.4361868442408E+00
-0.1362831124914E+00  0.1161146325668E+00  0.0000000000000E+00 -0.4091375041935E+00
-0.1400596520126E+00  0.1201983823837E+00  0.0000000000000E+00 -0.3807309517051E+00
-0.1429178477004E+00  0.1234415561032E+00  0.0000000000000E+00 -0.3510672376322E+00
-0.1447261976709E+00  0.1257213923035E+00  0.0000000000000E+00 -0.3202689886161E+00
-0.1453469669425E+00  0.1269092388491E+00  0.0000000000000E+00 -0.2884854920262E+00
-0.1446342923392E+00  0.1268686251272E+00  0.0000000000000E+00 -0.2559008170813E+00
-0.1424331678813E+00  0.1254541724405E+00  0.0000000000000E+00 -0.2227460710035E+00
-0.1385798869632E+00  0.1225118833290E+00  0.0000000000000E+00 -0.1893162716393E+00
-0.1329048668931E+00  0.1178816789033E+00  0.0000000000000E+00 -0.1559926455136E+00
-0.1252394251601E+00  0.1114036591588E+00  0.0000000000000E+00 -0.1232712602059E+00
-0.1154291387621E+00  0.1029305569921E+00  0.0000000000000E+00 -0.9179845577857E-01
-0.1033581046510E+00  0.9235042775431E-01  0.0000000000000E+00 -0.6241179604497E-01
-0.8899090725760E-01  0.7962593657795E-01  0.0000000000000E+00 -0.3618031037667E-01
-0.7244203748292E-01  0.6485936857213E-01  0.0000000000000E+00 -0.1442525929739E-01
-0.5408196362606E-01  0.4839244688498E-01  0.0000000000000E+00  0.1329354269916E-02
-0.3465837552152E-01  0.3092724126660E-01  0.0000000000000E+00  0.9581621409199E-02
-0.1535117496798E-01  0.1358733444689E-01  0.0000000000000E+00  0.9326588813589E-02
-0.1238331706972E+00  0.1024667203247E+00  0.0000000000000E+00 -0.4967141213548E+00
-0.1300127895021E+00  0.1086925899348E+00  0.0000000000000E+00 -0.4734060792167E+00
-0.1356921218718E+00  0.1144689190157E+00  0.0000000000000E+00 -0.4485464718104E+00
-0.1407444586692E+00  0.1196773019920E+00  0.0000000000000E+00 -0.4221744975441E+00
-0.1450433016371E+00  0.1242001591127E+00  0.0000000000000E+00 -0.3943552574609E+00
-0.1484612189757E+00  0.1279195597781E+00  0.0000000000000E+00 -0.3651723144577E+00
-0.1508666742732E+00  0.1307140849659E+00  0.0000000000000E+00 -0.3347253708803E+00
-0.1521202881439E+00  0.1324551552513E+00  0.0000000000000E+00 -0.3031328761191E+00
-0.1520711846954E+00  0.1330034568523E+00  0.0000000000000E+00 -0.2705390486337E+00
-0.1505537138087E+00  0.1322057385485E+00  0.0000000000000E+00 -0.2371253447482E+00
-0.1473848309818E+00  0.1298922370146E+00  0.0000000000000E+00 -0.2031271870403E+00
-0.1423626994374E+00  0.1258752543756E+00  0.0000000000000E+00 -0.1688576177098E+00
-0.1352677052143E+00  0.1199500021386E+00  0.0000000000000E+00 -0.1347404639412E+00
-0.1258682592505E+00  0.1118999327989E+00  0.0000000000000E+00 -0.1013565708382E+00
-0.1139359769347E+00  0.1015108403703E+00  0.0000000000000E+00 -0.6950740732869E-01
-0.9927911577677E-01  0.8860192959631E-01  0.0000000000000E+00 -0.4029979105075E-01
-0.8181133093005E-01  0.7308952408301E-01  0.0000000000000E+00 -0.1524948785230E-01
-0.6168920074376E-01  0.5511329332610E-01  0.0000000000000E+00  0.3623525865838E-02
-0.3956809852707E-01  0.3527091673394E-01  0.0000000000000E+00  0.1384899670569E-01
-0.1689573544583E-01  0.1492188886564E-01  0.0000000000000E+00  0.1308987989365E-01
-0.1266399203862E+00  0.1045878378758E+00  0.0000000000000E+00 -0.5077431895435E+00
-0.1331907903476E+00  0.1111021918893E+00  0.0000000000000E+00 -0.4853634035691E+00
-0.1392819358187E+00  0.1172029692020E+00  0.0000000000000E+00 -0.4613833909467E+00
-0.1447846626881E+00  0.1227703326901E+00  0.0000000000000E+00 -0.4358363357617E+00
-0.1495733626188E+00  0.1276882894376E+00  0.0000000000000E+00 -0.4087816530847E+00
-0.1535237609310E+00  0.1318429212562E+00  0.0000000000000E+00 -0.3802929688354E+00
-0.1565085555007E+00  0.1351181109892E+00  0.0000000000000E+00 -0.3504531485229E+00
-0.1583923789786E+00  0.1373906593683E+00  0.0000000000000E+00 -0.3193551070783E+00
-0.1590267108679E+00  0.1385254019886E+00  0.0000000000000E+00 -0.2871070644516E+00
-0.1582447514195E+00  0.1383703327225E+00  0.0000000000000E+00 -0.2538418509553E+00
-0.1558560968836E+00  0.1367515711586E+00  0.0000000000000E+00 -0.2197310067335E+00
-0.1516411594387E+00  0.1334681133658E+00  0.0000000000000E+00 -0.1850056821207E+00
-0.1453456427113E+00  0.1282866599041E+00  0.0000000000000E+00 -0.1499879325154E+00
-0.1366761845924E+00  0.1209375799538E+00  0.0000000000000E+00 -0.1151382886662E+00
-0.1253000199509E+00  0.1111147046158E+00  0.0000000000000E+00 -0.8112905082267E-01
-0.1108554089965E+00  0.9848528033236E-01  0.0000000000000E+00 -0.4895845638720E-01
-0.9298922933966E-01  0.8272508918305E-01  0.0000000000000E+00 -0.2012947345860E-01
-0.7146186698122E-01  0.6361544092162E-01  0.0000000000000E+00  0.3073421375971E-02
-0.4644424927500E-01  0.4130618192670E-01  0.0000000000000E+00  0.1719563937303E-01
-0.1927525498751E-01  0.1698076418730E-01  0.0000000000000E+00  0.1757325718315E-01
-0.1290994018303E+00  0.1063380061169E+00  0.0000000000000E+00 -0.5189845382737E+00
-0.1359766295171E+00  0.1130897717534E+00  0.0000000000000E+00 -0.4976292516457E+00
-0.1424316462969E+00  0.1194592459796E+00  0.0000000000000E+00 -0.4746404254073E+00
-0.1483330264783E+00  0.1253242078983E+00  0.0000000000000E+00 -0.4500528644401E+00
-0.1535570135206E+00  0.1305709457345E+00  0.0000000000000E+00 -0.4239288831116E+00
-0.1579847045205E+00  0.1350914169483E+00  0.0000000000000E+00 -0.3963408525411E+00
-0.1614962906311E+00  0.1387776210058E+00  0.0000000000000E+00 -0.3673637877786E+00
-0.1639648992242E+00  0.1415156738875E+00  0.0000000000000E+00 -0.3370748338118E+00
-0.1652506066379E+00  0.1431801390835E+00  0.0000000000000E+00 -0.3055570175697E+00
-0.1651943109834E+00  0.1436283121585E+00  0.0000000000000E+00 -0.2729060894304E+00
-0.1636108289945E+00  0.1426938476055E+00  0.0000000000000E+00 -0.2392407046805E+00
-0.1602804784287E+00  0.1401790327067E+00  0.0000000000000E+00 -0.2047175976163E+00
-0.1549383834408E+00  0.1358450140814E+00  0.0000000000000E+00 -0.1695551375216E+00
-0.1472607929149E+00  0.1293993689093E+00  0.0000000000000E+00 -0.1340713750238E+00
-0.1368479879016E+00  0.1204807572127E+00  0.0000000000000E+00 -0.9874759840068E-01
-0.1232044883438E+00  0.1086415630616E+00  0.0000000000000E+00 -0.6433804169796E-01
-0.1057208945628E+00  0.9333320858028E-01  0.0000000000000E+00 -0.3206698435525E-01
-0.8367578479963E-01  0.7391167770947E-01  0.0000000000000E+00 -0.4000896150178E-02
-0.5632273361780E-01  0.4972861318825E-01  0.0000000000000E+00  0.1617769664423E-01
-0.2358306047680E-01  0.2070331279569E-01  0.0000000000000E+00  0.2149240708938E-01
-0.1311824352115E+00  0.1076892550330E+00  0.0000000000000E+00 -0.5303960672075E+00
-0.1383322892198E+00  0.1146188822899E+00  0.0000000000000E+00 -0.5101455519133E+00
-0.1450905808740E+00  0.1211889430454E+00  0.0000000000000E+00 -0.4882393305754E+00
-0.1513214496197E+00  0.1272729380528E+00  0.0000000000000E+00 -0.4647233104584E+00
-0.1569031820117E+00  0.1327593340463E+00  0.0000000000000E+00 -0.4396723758146E+00
-0.1617233424877E+00  0.1375466464268E+00  0.0000000000000E+00 -0.4131669297164E+00
-0.1656711100233E+00  0.1415359341542E+00  0.0000000000000E+00 -0.3852840140114E+00
-0.1686300386228E+00  0.1446238439472E+00  0.0000000000000E+00 -0.3560969101435E+00
-0.1704716606653E+00  0.1466966040044E+00  0.0000000000000E+00 -0.3256788764153E+00
-0.1710492626483E+00  0.1476243119035E+00  0.0000000000000E+00 -0.2941089581600E+00
-0.1701907886642E+00  0.1472545153662E+00  0.0000000000000E+00 -0.2614795651281E+00
-0.1676896223168E+00  0.1454039158512E+00  0.0000000000000E+00 -0.2279068874210E+00
-0.1632916741864E+00  0.1418467564180E+00  0.0000000000000E+00 -0.1935466667967E+00
-0.1566765385149E+00  0.1362978921044E+00  0.0000000000000E+00 -0.1586200241089E+00
-0.1474291935016E+00  0.1283874365173E+00  0.0000000000000E+00 -0.1234581425928E+00
-0.1349961631054E+00  0.1176217655259E+00  0.0000000000000E+00 -0.8858320947087E-01
-0.1186148728220E+00  0.1033213961119E+00  0.0000000000000E+00 -0.5486252320762E-01
-0.9719275723582E-01  0.8451740713047E-01  0.0000000000000E+00 -0.2382452564904E-01
-0.6907673195799E-01  0.5976163511735E-01  0.0000000000000E+00  0.1628520489666E-02
-0.3153038179318E-01  0.2677318058364E-01  0.0000000000000E+00  0.1491881761681E-01
-0.1328631268413E+00  0.1086173306273E+00  0.0000000000000E+00 -0.5419263936080E+00
-0.1402244831700E+00  0.1156583713054E+00  0.0000000000000E+00 -0.5228383796963E+00
-0.1472138330885E+00  0.1223497842476E+00  0.0000000000000E+00 -0.5020773667670E+00
-0.1536885723854E+00  0.1285583317968E+00  0.0000000000000E+00 -0.4797115522865E+00
-0.1595287824326E+00  0.1341741276152E+00  0.0000000000000E+00 -0.4558377594117E+00
-0.1646285434071E+00  0.1391018574209E+00  0.0000000000000E+00 -0.4305517856304E+00
-0.1688854290548E+00  0.1432504409572E+00  0.0000000000000E+00 -0.4039397134501E+00
-0.1721919202887E+00  0.1465247462378E+00  0.0000000000000E+00 -0.3760795816457E+00
-0.1744287179786E+00  0.1488193039003E+00  0.0000000000000E+00 -0.3470469823006E+00
-0.1754587713261E+00  0.1500128478443E+00  0.0000000000000E+00 -0.3169217373073E+00
-0.1751205742007E+00  0.1499622764735E+00  0.0000000000000E+00 -0.2857950380375E+00
-0.1732191395799E+00  0.1484945252696E+00  0.0000000000000E+00 -0.2537777535896E+00
-0.1695126489963E+00  0.1453944877004E+00  0.0000000000000E+00 -0.2210115651717E+00
-0.1636917538135E+00  0.1403862024278E+00  0.0000000000000E+00 -0.1876856640749E+00
-0.1553462908061E+00  0.1331025229348E+00  0.0000000000000E+00 -0.1540635260042E+00
-0.1439094910584E+00  0.1230342161989E+00  0.0000000000000E+00 -0.1205276109873E+00
-0.1285590273343E+00  0.1094398644539E+00  0.0000000000000E+00 -0.8765641825529E-01
-0.1080262440770E+00  0.9117303035206E-01  0.0000000000000E+00 -0.5636146658719E-01
-0.8018634898006E-01  0.6631306786051E-01  0.0000000000000E+00 -0.2813647034133E-01
-0.4075427824386E-01  0.3105421886129E-01  0.0000000000000E+00 -0.5439125417640E-02
-0.1341203888723E+00  0.1091032463950E+00  0.0000000000000E+00 -0.5535140601480E+00
-0.1416270172313E+00  0.1161847696445E+00  0.0000000000000E+00 -0.5356153096823E+00
-0.1487655873375E+00  0.1229093682491E+00  0.0000000000000E+00 -0.5160233901627E+00
-0.1553846249558E+00  0.1291348862466E+00  0.0000000000000E+00 -0.4948418179624E+00
-0.1613661983532E+00  0.1347530433536E+00  0.0000000000000E+00 -0.4721969196944E+00
-0.1666106426815E+00  0.1396740267522E+00  0.0000000000000E+00 -0.4482026081963E+00
-0.1710219362402E+00  0.1438120423616E+00  0.0000000000000E+00 -0.4229541930905E+00
-0.1744973492780E+00  0.1470752577407E+00  0.0000000000000E+00 -0.3965339187438E+00
-0.1769203225699E+00  0.1493590414868E+00  0.0000000000000E+00 -0.3690192912634E+00
-0.1781545543221E+00  0.1505404692520E+00  0.0000000000000E+00 -0.3404906516829E+00
-0.1780373227503E+00  0.1504721445719E+00  0.0000000000000E+00 -0.3110371654443E+00
-0.1763701457439E+00  0.1489734857669E+00  0.0000000000000E+00 -0.2807614699936E+00
-0.1729045684372E+00  0.1458173508047E+00  0.0000000000000E+00 -0.2497833665037E+00
-0.1673198727973E+00  0.1407089257862E+00  0.0000000000000E+00 -0.2182424374695E+00
-0.1591873513350E+00  0.1332517184547E+00  0.0000000000000E+00 -0.1862980782481E+00
-0.1479113601304E+00  0.1228912373034E+00  0.0000000000000E+00 -0.1541219537973E+00
-0.1326284087194E+00  0.1088180249536E+00  0.0000000000000E+00 -0.1218683953985E+00
-0.1120257525116E+00  0.8979186389812E-01  0.0000000000000E+00 -0.8957680014953E-01
-0.8399130189101E-01  0.6379848738730E-01  0.0000000000000E+00 -0.5685735948674E-01
-0.4502684861444E-01  0.2734985246478E-01  0.0000000000000E+00 -0.2137481909534E-01
-0.1349398885175E+00  0.1091352745579E+00  0.0000000000000E+00 -0.5650864996067E+00
-0.1425238127247E+00  0.1161852578103E+00  0.0000000000000E+00 -0.5483623530698E+00
-0.1497231998628E+00  0.1228491088433E+00  0.0000000000000E+00 -0.5299139450476E+00
-0.1563770872394E+00  0.1289752418478E+00  0.0000000000000E+00 -0.5098959305532E+00
-0.1623715656076E+00  0.1344588804496E+00  0.0000000000000E+00 -0.4884689449599E+00
-0.1676139797631E+00  0.1392161434995E+00  0.0000000000000E+00 -0.4657617075422E+00
-0.1720129784005E+00  0.1431643040246E+00  0.0000000000000E+00 -0.4418710504241E+00
-0.1754664306035E+00  0.1462100065362E+00  0.0000000000000E+00 -0.4168732695580E+00
-0.1778542211270E+00  0.1482423703304E+00  0.0000000000000E+00 -0.3908352845975E+00
-0.1790327081577E+00  0.1491277302041E+00  0.0000000000000E+00 -0.3638218040911E+00
-0.1788283351731E+00  0.1487035060474E+00  0.0000000000000E+00 -0.3358977251483E+00
-0.1770284015463E+00  0.1467692124539E+00  0.0000000000000E+00 -0.3071255661969E+00
-0.1733670345764E+00  0.1430726573068E+00  0.0000000000000E+00 -0.2775568930152E+00
-0.1675038859614E+00  0.1372888275096E+00  0.0000000000000E+00 -0.2472146426002E+00
-0.1589918928796E+00  0.1289877100546E+00  0.0000000000000E+00 -0.2160593268563E+00
-0.1472285793583E+00  0.1175851554026E+00  0.0000000000000E+00 -0.1839241548645E+00
-0.1313827208830E+00  0.1022677323272E+00  0.0000000000000E+00 -0.1503866824369E+00
-0.1102898065160E+00  0.8188088576775E-01  0.0000000000000E+00 -0.1145037998289E+00
-0.8232963262541E-01  0.5478089069291E-01  0.0000000000000E+00 -0.7421554180335E-01
-0.4561413677593E-01  0.1891520143816E-01  0.0000000000000E+00 -0.2515771414909E-01
-0.1353166438460E+00  0.1087114585020E+00  0.0000000000000E+00 -0.5765588324457E+00
-0.1429127429581E+00  0.1156611782256E+00  0.0000000000000E+00 -0.5609403031477E+00
-0.1500818862101E+00  0.1221683241657E+00  0.0000000000000E+00 -0.5435486218991E+00
-0.1566563590572E+00  0.1280749628119E+00  0.0000000000000E+00 -0.5246102321824E+00
-0.1625317423096E+00  0.1332853126345E+00  0.0000000000000E+00 -0.5043213045489E+00
-0.1676252063655E+00  0.1377240234708E+00  0.0000000000000E+00 -0.4828155835615E+00
-0.1718497143702E+00  0.1413107325033E+00  0.0000000000000E+00 -0.4601772043302E+00
-0.1751012795538E+00  0.1439476951104E+00  0.0000000000000E+00 -0.4364605599377E+00
-0.1772529881454E+00  0.1455140909850E+00  0.0000000000000E+00 -0.4117044515333E+00
-0.1781510943330E+00  0.1458622867477E+00  0.0000000000000E+00 -0.3859377437761E+00
-0.1776103301912E+00  0.1448131671510E+00  0.0000000000000E+00 -0.3591767403922E+00
-0.1754067818440E+00  0.1421488804709E+00  0.0000000000000E+00 -0.3314143238676E+00
-0.1712672686751E+00  0.1376018849653E+00  0.0000000000000E+00 -0.3025992133932E+00
-0.1648544066893E+00  0.1308393527736E+00  0.0000000000000E+00 -0.2726008973208E+00
-0.1557468256666E+00  0.1214421101686E+00  0.0000000000000E+00 -0.2411512795032E+00
-0.1434149991313E+00  0.1088779968228E+00  0.0000000000000E+00 -0.2077465765703E+00
-0.1271973994324E+00  0.9247273364872E-01  0.0000000000000E+00 -0.1714797974459E+00
-0.1062928056847E+00  0.7139240517651E-01  0.0000000000000E+00 -0.1307548111079E+00
-0.7984190634976E-01  0.4469894046457E-01  0.0000000000000E+00 -0.8282492867378E-01
-0.4711417503451E-01  0.1159417600299E-01  0.0000000000000E+00 -0.2342406203932E-01
-0.1352598592854E+00  0.1078436808683E+00  0.0000000000000E+00 -0.5878407050373E+00
-0.1428112596177E+00  0.1146323001434E+00  0.0000000000000E+00 -0.5731945315161E+00
-0.1498593679578E+00  0.1208867523450E+00  0.0000000000000E+00 -0.5567060838277E+00
-0.1562397377950E+00  0.1264536728367E+00  0.0000000000000E+00 -0.5387011307778E+00
-0.1618678951764E+00  0.1312568547972E+00  0.0000000000000E+00 -0.5194061258729E+00
-0.1666756922642E+00  0.1352341748885E+00  0.0000000000000E+00 -0.4989423160255E+00
-0.1705809658296E+00  0.1383079491449E+00  0.0000000000000E+00 -0.4773615947723E+00
-0.1734766921442E+00  0.1403746154667E+00  0.0000000000000E+00 -0.4546781459949E+00
-0.1752284178013E+00  0.1413025341173E+00  0.0000000000000E+00 -0.4308853933811E+00
-0.1756736198260E+00  0.1409314273940E+00  0.0000000000000E+00 -0.4059591076379E+00
-0.1746201793258E+00  0.1390706987002E+00  0.0000000000000E+00 -0.3798493859572E+00
-0.1718431075445E+00  0.1354957464685E+00  0.0000000000000E+00 -0.3524627489081E+00
-0.1670797123267E+00  0.1299424231378E+00  0.0000000000000E+00 -0.3236332704759E+00
-0.1600242113956E+00  0.1221005080699E+00  0.0000000000000E+00 -0.2930790096143E+00
-0.1503241546966E+00  0.1116082622895E+00  0.0000000000000E+00 -0.2603370137715E+00
-0.1375837882323E+00  0.9805270039359E-01  0.0000000000000E+00 -0.2246662844862E+00
-0.1213849248629E+00  0.8098569891842E-01  0.0000000000000E+00 -0.1849057390935E+00
-0.1013492955411E+00  0.5997803313809E-01  0.0000000000000E+00 -0.1392775686849E+00
-0.7726531121863E-01  0.3474936524338E-01  0.0000000000000E+00 -0.8518905058353E-01
-0.4930108667222E-01  0.5345144992395E-02  0.0000000000000E+00 -0.1901230569763E-01
-0.1347937351871E+00  0.1065586504984E+00  0.0000000000000E+00 -0.5988536370731E+00
-0.1422512218377E+00  0.1131308423816E+00  0.0000000000000E+00 -0.5849836295613E+00
-0.1490828245153E+00  0.1190306029256E+00  0.0000000000000E+00 -0.5691984485622E+00
-0.1551534661788E+00  0.1241362003820E+00  0.0000000000000E+00 -0.5519506793263E+00
-0.1604152923314E+00  0.1284077304756E+00  0.0000000000000E+00 -0.5334778920378E+00
-0.1648204144676E+00  0.1318016741137E+00  0.0000000000000E+00 -0.5138605846156E+00
-0.1682913924297E+00  0.1342425026184E+00  0.0000000000000E+00 -0.4930949131868E+00
-0.1707171619398E+00  0.1356196906209E+00  0.0000000000000E+00 -0.4711379204481E+00
-0.1719566684726E+00  0.1357917717500E+00  0.0000000000000E+00 -0.4479253290629E+00
-0.1718428745505E+00  0.1345904416308E+00  0.0000000000000E+00 -0.4233705140080E+00
-0.1701851739713E+00  0.1318226566360E+00  0.0000000000000E+00 -0.3973514175022E+00
-0.1667706568454E+00  0.1272713249154E+00  0.0000000000000E+00 -0.3696885137907E+00
-0.1613656417739E+00  0.1206959855814E+00  0.0000000000000E+00 -0.3401138137346E+00
-0.1537197352355E+00  0.1118356415086E+00  0.0000000000000E+00 -0.3082291972233E+00
-0.1435760731413E+00  0.1004172955738E+00  0.0000000000000E+00 -0.2734515827410E+00
-0.1306942861694E+00  0.8617643963612E-01  0.0000000000000E+00 -0.2349433873791E+00
-0.1148964765483E+00  0.6889988976122E-01  0.0000000000000E+00 -0.1915293778100E+00
-0.9614856672349E-01  0.4850544203092E-01  0.0000000000000E+00 -0.1416183731207E+00
-0.7468676945494E-01  0.2516278718418E-01  0.0000000000000E+00 -0.8315033031591E-01
-0.5121002405128E-01 -0.5079265036103E-03  0.0000000000000E+00 -0.1363622338251E-01
-0.1339381029621E+00  0.1048815120230E+00  0.0000000000000E+00 -0.6095116350958E+00
-0.1412399728967E+00  0.1111676927964E+00  0.0000000000000E+00 -0.5961497583602E+00
-0.1477389833249E+00  0.1165899313151E+00  0.0000000000000E+00 -0.5808529020786E+00
-0.1533784983486E+00  0.1211079974186E+00  0.0000000000000E+00 -0.5642033661995E+00
-0.1581678160492E+00  0.1247389386273E+00  0.0000000000000E+00 -0.5464014045928E+00
-0.1620812030918E+00  0.1274587535131E+00  0.0000000000000E+00 -0.5274461542267E+00
-0.1650425248961E+00  0.1291902863932E+00  0.0000000000000E+00 -0.5072554940381E+00
-0.1669350462552E+00  0.1298141536669E+00  0.0000000000000E+00 -0.4857201907175E+00
-0.1676136831287E+00  0.1291819589803E+00  0.0000000000000E+00 -0.4627163436470E+00
-0.1669135872332E+00  0.1271247193099E+00  0.0000000000000E+00 -0.4380972640825E+00
-0.1646558860721E+00  0.1234581790464E+00  0.0000000000000E+00 -0.4116764350354E+00
-0.1606527950872E+00  0.1179872718354E+00  0.0000000000000E+00 -0.3832049606253E+00
-0.1547142839694E+00  0.1105119699106E+00  0.0000000000000E+00 -0.3523441432527E+00
-0.1466587322408E+00  0.1008369692120E+00  0.0000000000000E+00 -0.3186333459523E+00
-0.1363310062915E+00  0.8878854979293E-01  0.0000000000000E+00 -0.2814546059236E+00
-0.1236322640543E+00  0.7424336269241E-01  0.0000000000000E+00 -0.2399987329055E+00
-0.1085693534558E+00  0.5717627982916E-01  0.0000000000000E+00 -0.1932452169804E+00
-0.9132783846809E-01  0.3773331443283E-01  0.0000000000000E+00 -0.1399668268944E+00
-0.7237171596993E-01  0.1633245042077E-01  0.0000000000000E+00 -0.7878730986597E-01
-0.5254810660617E-01 -0.6222131364311E-02  0.0000000000000E+00 -0.8338336333573E-02
-0.1327230174657E+00  0.1028492087239E+00  0.0000000000000E+00 -0.6197027359286E+00
-0.1397703542772E+00  0.1087397218852E+00  0.0000000000000E+00 -0.6064962171547E+00
-0.1457899701289E+00  0.1135302664708E+00  0.0000000000000E+00 -0.5915014893669E+00
-0.1508794787018E+00  0.1173404679677E+00  0.0000000000000E+00 -0.5753519314807E+00
-0.1551177294612E+00  0.1202536335653E+00  0.0000000000000E+00 -0.5581168327937E+00
-0.1584906377485E+00  0.1222543220203E+00  0.0000000000000E+00 -0.5396663600034E+00
-0.1609132559333E+00  0.1232518797917E+00  0.0000000000000E+00 -0.5198306114594E+00
-0.1622613067502E+00  0.1231164501835E+00  0.0000000000000E+00 -0.4984414933205E+00
-0.1623902641460E+00  0.1216978304775E+00  0.0000000000000E+00 -0.4753263454192E+00
-0.1611455454757E+00  0.1188353442478E+00  0.0000000000000E+00 -0.4502915125354E+00
-0.1583696267757E+00  0.1143643270176E+00  0.0000000000000E+00 -0.4231037112121E+00
-0.1539093175459E+00  0.1081227562454E+00  0.0000000000000E+00 -0.3934707393551E+00
-0.1476253256463E+00  0.9996016635176E-01  0.0000000000000E+00 -0.3610215373905E+00
-0.1394058762645E+00  0.8975061504596E-01  0.0000000000000E+00 -0.3252866898937E+00
-0.1291859576309E+00  0.7741155942787E-01  0.0000000000000E+00 -0.2856829679030E+00
-0.1169748070475E+00  0.6293083573024E-01  0.0000000000000E+00 -0.2415092656470E+00
-0.1028899358512E+00  0.4640292950095E-01  0.0000000000000E+00 -0.1919677092134E+00
-0.8721180189788E-01  0.2808057402751E-01  0.0000000000000E+00 -0.1362354346281E+00
-0.7044619367403E-01  0.8444718783908E-02  0.0000000000000E+00 -0.7356794702376E-01
-0.5337821019603E-01 -0.1174431841132E-01  0.0000000000000E+00 -0.3446896161238E-02
-0.1311870209459E+00  0.1005093535904E+00  0.0000000000000E+00 -0.6292478222578E+00
-0.1378028261712E+00  0.1058060775936E+00  0.0000000000000E+00 -0.6157844980917E+00
-0.1431675077366E+00  0.1097851426569E+00  0.0000000000000E+00 -0.6010189389322E+00
-0.1476190697932E+00  0.1128008208396E+00  0.0000000000000E+00 -0.5853806121816E+00
-0.1512816753962E+00  0.1149817196663E+00  0.0000000000000E+00 -0.5686556676860E+00
-0.1541155898584E+00  0.1162744569838E+00  0.0000000000000E+00 -0.5505643126505E+00
-0.1560142806809E+00  0.1165629856998E+00  0.0000000000000E+00 -0.5308787320083E+00
-0.1568489225163E+00  0.1157103796633E+00  0.0000000000000E+00 -0.5093980920456E+00
-0.1564835833674E+00  0.1135736643752E+00  0.0000000000000E+00 -0.4859212016513E+00
-0.1547827229796E+00  0.1100102859537E+00  0.0000000000000E+00 -0.4602254160259E+00
-0.1516174511434E+00  0.1048836557443E+00  0.0000000000000E+00 -0.4320512537334E+00
-0.1468733822443E+00  0.9807041941516E-01  0.0000000000000E+00 -0.4010897897434E+00
-0.1404611029978E+00  0.8947045978995E-01  0.0000000000000E+00 -0.3669719059120E+00
-0.1323296591089E+00  0.7902013344532E-01  0.0000000000000E+00 -0.3292607154928E+00
-0.1224833258151E+00  0.6670888987391E-01  0.0000000000000E+00 -0.2874506403153E+00
-0.1109996408886E+00  0.5259856556157E-01  0.0000000000000E+00 -0.2409805608853E+00
-0.9805070208128E-01  0.3684351557096E-01  0.0000000000000E+00 -0.1892692505293E+00
-0.8390023839784E-01  0.1970270540438E-01  0.0000000000000E+00 -0.1318013787261E+00
-0.6896154935624E-01  0.1570928701173E-02  0.0000000000000E+00 -0.6833335960139E-01
-0.5385058164540E-01 -0.1693881000008E-01  0.0000000000000E+00  0.1025375531806E-02
-0.1293610023421E+00  0.9789163725188E-01  0.0000000000000E+00 -0.6378097429256E+00
-0.1352073800109E+00  0.1022343743237E+00  0.0000000000000E+00 -0.6237605593694E+00
-0.1397597527512E+00  0.1052270040641E+00  0.0000000000000E+00 -0.6094556982190E+00
-0.1435917497553E+00  0.1074925006345E+00  0.0000000000000E+00 -0.5944461393231E+00
-0.1467308575045E+00  0.1090103137157E+00  0.0000000000000E+00 -0.5781442850072E+00
-0.1490685809555E+00  0.1096537417290E+00  0.0000000000000E+00 -0.5602358221646E+00
-0.1504842668490E+00  0.1092892189439E+00  0.0000000000000E+00 -0.5404984670854E+00
-0.1508585177264E+00  0.1077885734884E+00  0.0000000000000E+00 -0.5187317989940E+00
-0.1500763285774E+00  0.1050295389660E+00  0.0000000000000E+00 -0.4947238628261E+00
-0.1480294221213E+00  0.1008969604979E+00  0.0000000000000E+00 -0.4682372997974E+00
-0.1446213816567E+00  0.9528721260234E-01  0.0000000000000E+00 -0.4390026458485E+00
-0.1397755134629E+00  0.8811561714879E-01  0.0000000000000E+00 -0.4067144129447E+00
-0.1334450551907E+00  0.7932639127366E-01  0.0000000000000E+00 -0.3710291593039E+00
-0.1256251545107E+00  0.6890450200803E-01  0.0000000000000E+00 -0.3315667378620E+00
-0.1163651923799E+00  0.5688839346266E-01  0.0000000000000E+00 -0.2879177446921E+00
-0.1057803816318E+00  0.4338129627440E-01  0.0000000000000E+00 -0.2396593049990E+00
-0.9405158037259E-01  0.2855640196785E-01  0.0000000000000E+00 -0.1863896679037E+00
-0.8142976945127E-01  0.1264630264411E-01  0.0000000000000E+00 -0.1277617148636E+00
-0.6806164136389E-01 -0.4141973308110E-02  0.0000000000000E+00 -0.6364086154260E-01
-0.5423477971574E-01 -0.2156688317940E-01  0.0000000000000E+00  0.5226355333458E-02
-0.1270682457363E+00  0.9485102175806E-01  0.0000000000000E+00 -0.6445244621652E+00
-0.1316368517695E+00  0.9757005946700E-01  0.0000000000000E+00 -0.6305600144783E+00
-0.1355213758169E+00  0.9982016848339E-01  0.0000000000000E+00 -0.6173077534899E+00
-0.1389209635359E+00  0.1015538474228E+00  0.0000000000000E+00 -0.6028432780928E+00
-0.1416243102697E+00  0.1025203279991E+00  0.0000000000000E+00 -0.5867239794041E+00
-0.1435073985356E+00  0.1025746881219E+00  0.0000000000000E+00 -0.5687587246399E+00
-0.1444737643341E+00  0.1016092881913E+00  0.0000000000000E+00 -0.5487786146162E+00
-0.1444372854099E+00  0.9953026514444E-01  0.0000000000000E+00 -0.5265927476062E+00
-0.1433158161975E+00  0.9624909056797E-01  0.0000000000000E+00 -0.5019807991660E+00
-0.1410331343323E+00  0.9168359808020E-01  0.0000000000000E+00 -0.4746951837399E+00
-0.1375247362573E+00  0.8576333388574E-01  0.0000000000000E+00 -0.4444644743775E+00
-0.1327459246445E+00  0.7843739341181E-01  0.0000000000000E+00 -0.4109971260166E+00
-0.1266812760829E+00  0.6968374403904E-01  0.0000000000000E+00 -0.3739861106826E+00
-0.1193545273802E+00  0.5951914469370E-01  0.0000000000000E+00 -0.3331157448616E+00
-0.1108376776512E+00  0.4800815927063E-01  0.0000000000000E+00 -0.2880715238314E+00
-0.1012561641310E+00  0.3526957702411E-01  0.0000000000000E+00 -0.2385554199625E+00
-0.9079113232652E-01  0.2147403303718E-01  0.0000000000000E+00 -0.1842942044871E+00
-0.7964451004837E-01  0.6831138833952E-02  0.0000000000000E+00 -0.1250725151692E+00
-0.6808193130842E-01 -0.8487495314350E-02  0.0000000000000E+00 -0.6051476439778E-01
-0.5527624791007E-01 -0.2491447452694E-01  0.0000000000000E+00  0.9461852000181E-02
-0.1241254725987E+00  0.9053381227972E-01  0.0000000000000E+00 -0.6474906172838E+00
-0.1270599304295E+00  0.9184612758029E-01  0.0000000000000E+00 -0.6376871231939E+00
-0.1308297535355E+00  0.9397146228412E-01  0.0000000000000E+00 -0.6251817629080E+00
-0.1339247416134E+00  0.9533383437014E-01  0.0000000000000E+00 -0.6107051209752E+00
-0.1361913076073E+00  0.9576756023723E-01  0.0000000000000E+00 -0.5943663164555E+00
-0.1375961750258E+00  0.9522803981956E-01  0.0000000000000E+00 -0.5761026178049E+00
-0.1381096341789E+00  0.9367868047867E-01  0.0000000000000E+00 -0.5557562295849E+00
-0.1376913339784E+00  0.9107328194974E-01  0.0000000000000E+00 -0.5331178482471E+00
-0.1362946836632E+00  0.8736014280256E-01  0.0000000000000E+00 -0.5079471396332E+00
-0.1338740652855E+00  0.8248900490976E-01  0.0000000000000E+00 -0.4799841295319E+00
-0.1303923875950E+00  0.7641851102235E-01  0.0000000000000E+00 -0.4489571290509E+00
-0.1258288805472E+00  0.6912392208848E-01  0.0000000000000E+00 -0.4145901929515E+00
-0.1201870961872E+00  0.6060505818703E-01  0.0000000000000E+00 -0.3766115506146E+00
-0.1135027195084E+00  0.5089400206224E-01  0.0000000000000E+00 -0.3347634823891E+00
-0.1058501112986E+00  0.4006174726685E-01  0.0000000000000E+00 -0.2888139814458E+00
-0.9734723688524E-01  0.2822206747162E-01  0.0000000000000E+00 -0.2385666220175E+00
-0.8815468543714E-01  0.1553422248014E-01  0.0000000000000E+00 -0.1838744834536E+00
-0.7848983779368E-01  0.2191539680157E-02  0.0000000000000E+00 -0.1245862715118E+00
-0.6857229717291E-01 -0.1152600022747E-01  0.0000000000000E+00 -0.6065401001137E-01
-0.5922484766185E-01 -0.2552604259241E-01  0.0000000000000E+00  0.1000010434312E-01
</DataArray>
<DataArray type="Float64" Name="S_Centroid" NumberOfComponents="4" ComponentName0="S11" ComponentName1="S22" ComponentName2="S33" ComponentName3="S12" format="ascii">
-0.2560572817282E+01 -0.2081428085119E+02 -0.4674970803356E+01 -0.2530257022128E+01
 0.3784767574584E+00 -0.1661870245314E+02 -0.3248045187537E+01 -0.9394171768244E-01
-0.7175714729817E-01 -0.1541894387766E+02 -0.3098140251157E+01 -0.1580983474878E+00
 0.1231732881932E-01 -0.1474388875693E+02 -0.2946314329526E+01 -0.8925794186650E-01
-0.3577897689763E-02 -0.1427809698849E+02 -0.2856335019799E+01 -0.7023110127384E-01
 0.3261166745698E-03 -0.1391443927437E+02 -0.2782822673006E+01 -0.5857736385881E-01
-0.3425295372614E-03 -0.1360579818337E+02 -0.2721228183132E+01 -0.5230883042249E-01
-0.6619514472250E-04 -0.1332868458698E+02 -0.2665750196147E+01 -0.4861039998536E-01
-0.6882914321782E-04 -0.1307064245376E+02 -0.2614142295535E+01 -0.4636448251336E-01
-0.3759433125960E-04 -0.1282472151265E+02 -0.2564951859616E+01 -0.4489958060322E-01
-0.3706014643123E-04 -0.1258722322527E+02 -0.2517452094596E+01 -0.4380459430283E-01
-0.4769913473091E-04 -0.1235654518040E+02 -0.2471318612733E+01 -0.4277877155349E-01
-0.7934627655670E-04 -0.1213274915904E+02 -0.2426565737223E+01 -0.4153816595950E-01
-0.1344785494792E-03 -0.1191766545817E+02 -0.2383560022862E+01 -0.3971194890456E-01
-0.3069002169052E-03 -0.1171622182537E+02 -0.2343305780035E+01 -0.3649251703730E-01
-0.2531393648467E-02 -0.1154127555360E+02 -0.2308761423853E+01 -0.2635740169283E-01
-0.8534353778575E-02 -0.1139411338953E+02 -0.2280529582644E+01  0.4334962225237E-02
-0.1497767368223E-01 -0.1123847198976E+02 -0.2250689966227E+01  0.6416123463722E-01
-0.1910332996930E-01 -0.1104026361306E+02 -0.2211873421565E+01  0.1443522271779E+00
-0.2230524275663E-01 -0.1080025226565E+02 -0.2164511533935E+01  0.2301350803137E+00
-0.2593528036356E-01 -0.1053343682527E+02 -0.2111874452595E+01  0.3127563817569E+00
-0.3055664840389E-01 -0.1025492242254E+02 -0.2057095844843E+01  0.3893642570036E+00
-0.3636025431954E-01 -0.9976359213442E+01 -0.2002543923393E+01  0.4603238618092E+00
-0.4349237848456E-01 -0.9706321875553E+01 -0.1949962879864E+01  0.5274491192375E+00
-0.5221087309907E-01 -0.9451248852495E+01 -0.1900691973441E+01  0.5932199349205E+00
-0.6296665282318E-01 -0.9215694620834E+01 -0.1855732282384E+01  0.6604440530160E+00
-0.7569380285343E-01 -0.9001055401029E+01 -0.1815349867827E+01  0.7308744132062E+00
-0.8991643126245E-01 -0.8810603882259E+01 -0.1780104089230E+01  0.8042141963772E+00
-0.1061930042943E+00 -0.8655528398622E+01 -0.1752344306695E+01  0.8809036016311E+00
-0.1258348408748E+00 -0.8548954867170E+01 -0.1734957967462E+01  0.9644452841045E+00
-0.1502772585332E+00 -0.8501566581195E+01 -0.1730368793730E+01  0.1060227502434E+01
-0.1815176810188E+00 -0.8523408261972E+01 -0.1740985214541E+01  0.1174616232874E+01
-0.2221765922954E+00 -0.8623670054752E+01 -0.1769169355772E+01  0.1314915757008E+01
-0.2754185984217E+00 -0.8808778120666E+01 -0.1816839370891E+01  0.1488293380817E+01
-0.3405396148883E+00 -0.9079734223375E+01 -0.1884054795727E+01  0.1696911611315E+01
-0.4131576621431E+00 -0.9443145702814E+01 -0.1971260702365E+01  0.1929171160151E+01
-0.4586041461520E+00 -0.9977632597301E+01 -0.2087247379793E+01  0.2174472891090E+01
-0.6096480482948E+00 -0.1084983785328E+02 -0.2291897214467E+01  0.2494488984296E+01
-0.3317844197789E+00 -0.1225414889866E+02 -0.2517186701197E+01  0.2883444170976E+01
-0.2830433174448E+01 -0.1476853168751E+02 -0.3519793024841E+01  0.4672720037299E+01
 0.9352557631318E+01 -0.1389043540567E+02 -0.9075755683949E+00  0.2322083193079E+01
-0.2673322915750E+01 -0.1803954770584E+02 -0.4142574186047E+01 -0.2737357832696E+01
-0.3585254976628E+00 -0.1678057968415E+02 -0.3427821087440E+01 -0.1178514267868E+01
-0.1664644035991E-02 -0.1529112176060E+02 -0.3058557326504E+01 -0.4299060349554E+00
-0.4184499748640E-01 -0.1457388583977E+02 -0.2923146211009E+01 -0.3127134963129E+00
-0.1013087499625E-01 -0.1406706033227E+02 -0.2815438283408E+01 -0.2258259619788E+00
-0.8012290999317E-02 -0.1367920116037E+02 -0.2737442731066E+01 -0.1864749412888E+00
-0.4045954029389E-02 -0.1335486065020E+02 -0.2671781360659E+01 -0.1631966134323E+00
-0.2560570120192E-02 -0.1306822605975E+02 -0.2614157364929E+01 -0.1495628495039E+00
-0.1587126727906E-02 -0.1280476937984E+02 -0.2561271339479E+01 -0.1410507114284E+00
-0.1106895354398E-02 -0.1255639960149E+02 -0.2511501336792E+01 -0.1354143142646E+00
-0.9058197352600E-03 -0.1231859129013E+02 -0.2463899458687E+01 -0.1312254969786E+00
-0.9397271595319E-03 -0.1208915617102E+02 -0.2418019215668E+01 -0.1274822628477E+00
-0.1235451652345E-02 -0.1186765600456E+02 -0.2373778326615E+01 -0.1232868707038E+00
-0.1867599333371E-02 -0.1165537863434E+02 -0.2331449281476E+01 -0.1175351522934E+00
-0.4004984830290E-02 -0.1145598900933E+02 -0.2291998832986E+01 -0.1076657029763E+00
-0.1117993245739E-01 -0.1127355406643E+02 -0.2256946833409E+01 -0.8872900401885E-01
-0.2450479468318E-01 -0.1110300697944E+02 -0.2225502387988E+01 -0.5568249852016E-01
-0.3807477473119E-01 -0.1092562829509E+02 -0.2192740646640E+01 -0.6318884285805E-02
-0.4612746333011E-01 -0.1072335053520E+02 -0.2153895631801E+01  0.5720569676748E-01
-0.4934580043789E-01 -0.1049236104616E+02 -0.2108341400736E+01  0.1288321491854E+00
-0.5095377562796E-01 -0.1023994251695E+02 -0.2058179289185E+01  0.2024242680823E+00
-0.5307483236967E-01 -0.9976323299695E+01 -0.2005879656303E+01  0.2747061049358E+00
-0.5678189128894E-01 -0.9710718393991E+01 -0.1953500086165E+01  0.3449485448478E+00
-0.6264612063515E-01 -0.9450470575151E+01 -0.1902623367508E+01  0.4139909449481E+00
-0.7114121729553E-01 -0.9201195292957E+01 -0.1854467329684E+01  0.4835051545489E+00
-0.8250695364348E-01 -0.8966874062430E+01 -0.1809876230184E+01  0.5552924419259E+00
-0.9629580841764E-01 -0.8750398256842E+01 -0.1769338839417E+01  0.6308007980864E+00
-0.1122439133187E+00 -0.8555825497715E+01 -0.1733613908040E+01  0.7113663716761E+00
-0.1315783563705E+00 -0.8390136324347E+01 -0.1704342961540E+01  0.7987347909192E+00
-0.1563564299979E+00 -0.8261691032955E+01 -0.1683609517678E+01  0.8956148039904E+00
-0.1885394616845E+00 -0.8177895010602E+01 -0.1673286919391E+01  0.1005998274811E+01
-0.2303016702229E+00 -0.8144475976577E+01 -0.1674955554319E+01  0.1134717338069E+01
-0.2841557317076E+00 -0.8165021200338E+01 -0.1689835411590E+01  0.1286600085422E+01
-0.3513123247529E+00 -0.8239893633728E+01 -0.1718241217300E+01  0.1464931863533E+01
-0.4291265627234E+00 -0.8367170569991E+01 -0.1759259452758E+01  0.1669286978637E+01
-0.5049947737899E+00 -0.8550948214338E+01 -0.1811188624614E+01  0.1896565568987E+01
-0.6005149111955E+00 -0.8814099639325E+01 -0.1882922938162E+01  0.2160144214487E+01
-0.6714231462517E+00 -0.9157228876703E+01 -0.1965730433883E+01  0.2446477430424E+01
-0.1029096639186E+01 -0.9580880894985E+01 -0.2121995538454E+01  0.2983330746608E+01
-0.1522526254744E+01 -0.8670774839219E+01 -0.2038660249171E+01  0.2719363321729E+01
 0.8877974220347E+01 -0.7004447426175E+01  0.3747053644179E+00 -0.6181569908751E+00
-0.2777219702944E+01 -0.1641284100358E+02 -0.3838012198496E+01 -0.2616810259309E+01
-0.8685026511062E+00 -0.1608487912997E+02 -0.3390676406740E+01 -0.1686386007391E+01
-0.1710535611410E+00 -0.1509406463592E+02 -0.3053023684906E+01 -0.8281269633059E+00
-0.8126010418118E-01 -0.1433533020080E+02 -0.2883318103960E+01 -0.5235757418567E+00
-0.4324700519208E-01 -0.1382717706294E+02 -0.2774084854964E+01 -0.3937741887350E+00
-0.2247561972456E-01 -0.1342663549516E+02 -0.2689822263059E+01 -0.3191958989549E+00
-0.1348039268638E-01 -0.1309390693552E+02 -0.2621477504704E+01 -0.2778744017226E+00
-0.8096257227069E-02 -0.1280148602937E+02 -0.2561916495495E+01 -0.2526799316532E+00
-0.5210061340421E-02 -0.1253481572423E+02 -0.2508005194487E+01 -0.2368587905850E+00
-0.3621779094012E-02 -0.1228520695527E+02 -0.2457765783497E+01 -0.2262466955508E+00
-0.2928654276277E-02 -0.1204768096269E+02 -0.2410121959307E+01 -0.2183801685444E+00
-0.2927241423156E-02 -0.1181960415062E+02 -0.2364506313643E+01 -0.2115144625815E+00
-0.3638227912594E-02 -0.1160005755286E+02 -0.2320739190737E+01 -0.2041627386074E+00
-0.5447668047990E-02 -0.1138961875051E+02 -0.2279013317671E+01 -0.1945215705673E+00
-0.1021573180778E-01 -0.1118976007566E+02 -0.2239995194872E+01 -0.1796463998308E+00
-0.2137667695832E-01 -0.1100005910433E+02 -0.2204287189103E+01 -0.1563382889185E+00
-0.3905476796633E-01 -0.1081481494226E+02 -0.2170773974393E+01 -0.1234628260662E+00
-0.5677344115812E-01 -0.1062387110187E+02 -0.2136128940436E+01 -0.8099501564288E-01
-0.6802050798674E-01 -0.1041765619384E+02 -0.2097135371615E+01 -0.2867596487333E-01
-0.7255210654507E-01 -0.1019227138605E+02 -0.2052964729110E+01  0.3196642265323E-01
-0.7382524584720E-01 -0.9950518612506E+01 -0.2004868801546E+01  0.9754862571170E-01
-0.7490313478685E-01 -0.9698769066594E+01 -0.1954734469404E+01  0.1652507248692E+00
-0.7760925573847E-01 -0.9443870815683E+01 -0.1904296042660E+01  0.2338553839364E+00
-0.8297650186243E-01 -0.9191799281634E+01 -0.1854955184340E+01  0.3035114908789E+00
-0.9165324763820E-01 -0.8947305494668E+01 -0.1807791775400E+01  0.3751825284473E+00
-0.1038224481248E+00 -0.8714036361207E+01 -0.1763571788146E+01  0.4500756411491E+00
-0.1190909434007E+00 -0.8495209052179E+01 -0.1722860024789E+01  0.5295735052617E+00
-0.1374722088278E+00 -0.8294479679258E+01 -0.1686390402746E+01  0.6155333214421E+00
-0.1604436895504E+00 -0.8116314546171E+01 -0.1655351671811E+01  0.7100684091448E+00
-0.1903369684800E+00 -0.7965585428249E+01 -0.1631184503652E+01  0.8154168389595E+00
-0.2293696547330E+00 -0.7846400261606E+01 -0.1615154007336E+01  0.9343007437954E+00
-0.2796320797880E+00 -0.7760895263466E+01 -0.1608105492613E+01  0.1069712409343E+01
-0.3427921801831E+00 -0.7708378959748E+01 -0.1610234251981E+01  0.1223877573964E+01
-0.4186056597620E+00 -0.7684855931159E+01 -0.1620692342334E+01  0.1396911235147E+01
-0.5013330002481E+00 -0.7683947375787E+01 -0.1637056099601E+01  0.1585980448866E+01
-0.5859286766039E+00 -0.7698897323774E+01 -0.1656965224766E+01  0.1790359340713E+01
-0.6727091695503E+00 -0.7704502718682E+01 -0.1675442402613E+01  0.2003850147528E+01
-0.7784309425027E+00 -0.7641037605852E+01 -0.1683893734763E+01  0.2220464878399E+01
-0.1006768914527E+01 -0.7168654062624E+01 -0.1635084619795E+01  0.2307408898305E+01
-0.2234112490328E-01 -0.5643643903747E+01 -0.1133197022616E+01  0.1056950516983E+01
 0.8887975794479E+01 -0.4557980650653E+01  0.8659990416696E+00 -0.1510130706342E+01
-0.2814937790024E+01 -0.1526525601019E+02 -0.3616038813926E+01 -0.2445968465576E+01
-0.1225918378330E+01 -0.1528377562722E+02 -0.3301938850313E+01 -0.1903737355900E+01
-0.3972419665207E+00 -0.1470241667012E+02 -0.3019931772328E+01 -0.1151273666023E+01
-0.1630311904861E+00 -0.1405075028847E+02 -0.2842756338152E+01 -0.7455074823860E+00
-0.8642395625240E-01 -0.1355215802605E+02 -0.2727716437107E+01 -0.5585606604854E+00
-0.4770472169278E-01 -0.1315600139376E+02 -0.2640741262440E+01 -0.4549308897697E+00
-0.2803007618935E-01 -0.1282154483715E+02 -0.2569915020963E+01 -0.3940433897584E+00
-0.1727855511781E-01 -0.1252760635127E+02 -0.2508977018664E+01 -0.3569211224912E+00
-0.1115643241306E-01 -0.1226009987499E+02 -0.2454251298051E+01 -0.3331323053428E+00
-0.7809257694849E-02 -0.1201064608497E+02 -0.2403691104351E+01 -0.3170482134419E+00
-0.6255093598439E-02 -0.1177412847854E+02 -0.2356076749535E+01 -0.3051167805225E+00
-0.6091017427319E-02 -0.1154765201041E+02 -0.2310748640000E+01 -0.2948929138052E+00
-0.7309509403475E-02 -0.1132987528729E+02 -0.2267436993126E+01 -0.2843389797557E+00
-0.1056079191889E-01 -0.1112053054258E+02 -0.2226218300073E+01 -0.2712331272456E+00
-0.1789711147291E-01 -0.1091930469445E+02 -0.2187440393780E+01 -0.2529096337893E+00
-0.3206804405928E-01 -0.1072380806049E+02 -0.2151175252964E+01 -0.2276367687540E+00
-0.5235733508460E-01 -0.1052911320963E+02 -0.2116294140478E+01 -0.1959575428335E+00
-0.7252374560307E-01 -0.1032968653063E+02 -0.2080442086247E+01 -0.1584676365090E+00
-0.8625086357477E-01 -0.1012062394097E+02 -0.2041374991327E+01 -0.1139625556701E+00
-0.9260855506269E-01 -0.9898907303137E+01 -0.1998303201417E+01 -0.6171876206343E-01
-0.9465500892101E-01 -0.9665081126756E+01 -0.1951947256222E+01 -0.3038014427081E-02
-0.9580441507993E-01 -0.9422714688156E+01 -0.1903703849015E+01  0.6009770624711E-01
-0.9841936550237E-01 -0.9176569381006E+01 -0.1854997776943E+01  0.1264039445158E+00
-0.1039354809138E+00 -0.8931258758675E+01 -0.1807038874845E+01  0.1955970906807E+00
-0.1131858911751E+00 -0.8690681519156E+01 -0.1760773508304E+01  0.2681173062972E+00
-0.1264281476145E+00 -0.8458051031692E+01 -0.1716895861445E+01  0.3447859253603E+00
-0.1434733713758E+00 -0.8236326997758E+01 -0.1675960098801E+01  0.4268758087626E+00
-0.1645853194093E+00 -0.8028395919723E+01 -0.1638596272243E+01  0.5162532266419E+00
-0.1912912630746E+00 -0.7836907212075E+01 -0.1605639718956E+01  0.6149034762378E+00
-0.2258898865711E+00 -0.7664152364737E+01 -0.1578008473776E+01  0.7245251541351E+00
-0.2705393751544E+00 -0.7511446534305E+01 -0.1556397205084E+01  0.8466437857605E+00
-0.3268895538364E+00 -0.7378001628772E+01 -0.1540978259484E+01  0.9823693051840E+00
-0.3955280479707E+00 -0.7259997007528E+01 -0.1531105033915E+01  0.1131427442744E+01
-0.4742206894362E+00 -0.7150114550473E+01 -0.1524867070704E+01  0.1290930165466E+01
-0.5563958746110E+00 -0.7037646635744E+01 -0.1518808524703E+01  0.1455479715911E+01
-0.6340919438487E+00 -0.6903684344728E+01 -0.1507555280180E+01  0.1617306068458E+01
-0.7007582899831E+00 -0.6702999743456E+01 -0.1480751628753E+01  0.1757141805572E+01
-0.7521044579875E+00 -0.6318442684242E+01 -0.1414109449518E+01  0.1813563873483E+01
-0.6127551371144E+00 -0.5458935144736E+01 -0.1214338074465E+01  0.1481773302271E+01
 0.1266527045598E+01 -0.4109411704033E+01 -0.5685769401595E+00 -0.2986535245264E-01
 0.8656325252988E+01 -0.3560178031194E+01  0.1019229459547E+01 -0.1697813134918E+01
-0.2806022980171E+01 -0.1436763793627E+02 -0.3434732234469E+01 -0.2280927837720E+01
-0.1472501308885E+01 -0.1452241065620E+02 -0.3198982440685E+01 -0.1978156214883E+01
-0.6175670127865E+00 -0.1420951954838E+02 -0.2965417356421E+01 -0.1377098989722E+01
-0.2738039894862E+00 -0.1370507817729E+02 -0.2795776475015E+01 -0.9500228722090E+00
-0.1432014438132E+00 -0.1324758752369E+02 -0.2678157833409E+01 -0.7188661663986E+00
-0.8125496212710E-01 -0.1286584317795E+02 -0.2589419666601E+01 -0.5886535741329E+00
-0.4831001041870E-01 -0.1253740909212E+02 -0.2517143858016E+01 -0.5100563909353E+00
-0.3005895552210E-01 -0.1224597536923E+02 -0.2455206901537E+01 -0.4610264183183E+00
-0.1961189731160E-01 -0.1198016416325E+02 -0.2399955247875E+01 -0.4291924012759E+00
-0.1378091985887E-01 -0.1173234663126E+02 -0.2349225545230E+01 -0.4074158296079E+00
-0.1097230240250E-01 -0.1149766899696E+02 -0.2301728294170E+01 -0.3912425918807E+00
-0.1046104040833E-01 -0.1127315250383E+02 -0.2256722742476E+01 -0.3775800349770E+00
-0.1217048086357E-01 -0.1105711528238E+02 -0.2213857185638E+01 -0.3639427663554E+00
-0.1684868471440E-01 -0.1084853678185E+02 -0.2173077125694E+01 -0.3479369249508E+00
-0.2639184928123E-01 -0.1064595199524E+02 -0.2134468800709E+01 -0.3273597426971E+00
-0.4273546605188E-01 -0.1044628201917E+02 -0.2097803528304E+01 -0.3014485003059E+00
-0.6456951187512E-01 -0.1024560172949E+02 -0.2062034278999E+01 -0.2713491836479E+00
-0.8618241547470E-01 -0.1004102278773E+02 -0.2025441070822E+01 -0.2376745951468E+00
-0.1018154823996E+00 -0.9830275398751E+01 -0.1986418205830E+01 -0.1988412452630E+00
-0.1101310502481E+00 -0.9611243634672E+01 -0.1944274965956E+01 -0.1530599921171E+00
-0.1136114340989E+00 -0.9383414329073E+01 -0.1899405180938E+01 -0.1002443513361E+00
-0.1156382948831E+00 -0.9148462803957E+01 -0.1852820247377E+01 -0.4151275687066E-01
-0.1188772268013E+00 -0.8909431207806E+01 -0.1805661713828E+01  0.2203421877250E-01
-0.1250735278354E+00 -0.8669675358885E+01 -0.1758949803554E+01  0.8989499059620E-01
-0.1352490972902E+00 -0.8432252398378E+01 -0.1713500324667E+01  0.1621562655370E+00
-0.1498081224475E+00 -0.8199821321512E+01 -0.1669925913676E+01  0.2393532544777E+00
-0.1687955847467E+00 -0.7974810448617E+01 -0.1628721230943E+01  0.3225673482875E+00
-0.1926604683241E+00 -0.7759244149344E+01 -0.1590380947232E+01  0.4134135978130E+00
-0.2228567787743E+00 -0.7554349333669E+01 -0.1555441245666E+01  0.5134784611944E+00
-0.2614414489460E+00 -0.7360483586485E+01 -0.1524385029801E+01  0.6238017851350E+00
-0.3102179955846E+00 -0.7176775900996E+01 -0.1497398801629E+01  0.7447430601150E+00
-0.3701150492026E+00 -0.7000214336778E+01 -0.1474065899161E+01  0.8756282571523E+00
-0.4403254920601E+00 -0.6824779017612E+01 -0.1453020923586E+01  0.1013829650535E+01
-0.5166911061315E+00 -0.6640911125880E+01 -0.1431520467734E+01  0.1153718290379E+01
-0.5904138782371E+00 -0.6434334799702E+01 -0.1404949756523E+01  0.1286060645200E+01
-0.6484645728776E+00 -0.6180017835159E+01 -0.1365696501958E+01  0.1395346719588E+01
-0.6713146925963E+00 -0.5823484361385E+01 -0.1298959830152E+01  0.1445790933060E+01
-0.5968464123704E+00 -0.5248953711370E+01 -0.1169160042170E+01  0.1330547857141E+01
-0.7751068747062E-01 -0.4316091830717E+01 -0.8787205167314E+00  0.7430485170590E+00
 0.2232881265048E+01 -0.3296902403309E+01 -0.2128042308232E+00 -0.6766662588892E+00
 0.8353689212471E+01 -0.3047436289866E+01  0.1061250600335E+01 -0.1686105103772E+01
-0.2768701048413E+01 -0.1361920907631E+02 -0.3277582073785E+01 -0.2132914582439E+01
-0.1639183733873E+01 -0.1382449346674E+02 -0.3092735486208E+01 -0.1981620706701E+01
-0.8098438745508E+00 -0.1367907562641E+02 -0.2897783943373E+01 -0.1523553518104E+01
-0.3957128168747E+00 -0.1331107058997E+02 -0.2741356722218E+01 -0.1121955315153E+01
-0.2115963666616E+00 -0.1291448175246E+02 -0.2625215662944E+01 -0.8688558122473E+00
-0.1220864558582E+00 -0.1255757759777E+02 -0.2535932848514E+01 -0.7175519115129E+00
-0.7377013044426E-01 -0.1224131909914E+02 -0.2463017882619E+01 -0.6238067027008E+00
-0.4639887938038E-01 -0.1195641614261E+02 -0.2400563040169E+01 -0.5638763867966E+00
-0.3055796918533E-01 -0.1169473489211E+02 -0.2345058607202E+01 -0.5243069786525E+00
-0.2157591785034E-01 -0.1145007814163E+02 -0.2294330846084E+01 -0.4969259843467E+00
-0.1709903956578E-01 -0.1121813481489E+02 -0.2247046804375E+01 -0.4765272601979E+00
-0.1601364724609E-01 -0.1099603656713E+02 -0.2202410075694E+01 -0.4594944026170E+00
-0.1808860853058E-01 -0.1078187878290E+02 -0.2159993510472E+01 -0.4430133453191E+00
-0.2399954360584E-01 -0.1057410101262E+02 -0.2119620142830E+01 -0.4246713943123E+00
-0.3528829196657E-01 -0.1037061345755E+02 -0.2081180380916E+01 -0.4026972726078E+00
-0.5312737466073E-01 -0.1016826179158E+02 -0.2044277863710E+01 -0.3768818196075E+00
-0.7582847349811E-01 -0.9964024285444E+01 -0.2007970581710E+01 -0.3484596360888E+00
-0.9828268690417E-01 -0.9756580489561E+01 -0.1970972664663E+01 -0.3178402343861E+00
-0.1153886022836E+00 -0.9545170110235E+01 -0.1932111771294E+01 -0.2832949910881E+00
-0.1256148751053E+00 -0.9328382394148E+01 -0.1890799482026E+01 -0.2425800376099E+00
-0.1308817269904E+00 -0.9105245304903E+01 -0.1847225433904E+01 -0.1947520520739E+00
-0.1343288884690E+00 -0.8876204229931E+01 -0.1802106650533E+01 -0.1401990094808E+00
-0.1387241288548E+00 -0.8642957617468E+01 -0.1756336375436E+01 -0.7972594278097E-01
-0.1460183862653E+00 -0.8407755232289E+01 -0.1710754749203E+01 -0.1389609470589E-01
-0.1574055806671E+00 -0.8172840410943E+01 -0.1666049223148E+01  0.5715345032719E-01
-0.1734572070175E+00 -0.7940245636438E+01 -0.1622740592872E+01  0.1337227287953E+00
-0.1944267503382E+00 -0.7711758440910E+01 -0.1581237061812E+01  0.2166379324290E+00
-0.2208706570396E+00 -0.7488563447340E+01 -0.1541886843852E+01  0.3071279226888E+00
-0.2540768322282E+00 -0.7270749239058E+01 -0.1504965236683E+01  0.4062374236391E+00
-0.2957069209221E+00 -0.7057231258408E+01 -0.1470587657779E+01  0.5142641926211E+00
-0.3469784749347E+00 -0.6845532039598E+01 -0.1438502124342E+01  0.6304418675256E+00
-0.4078489335945E+00 -0.6631084053114E+01 -0.1407786618319E+01  0.7524627929621E+00
-0.4759310726604E+00 -0.6406514216008E+01 -0.1376489078245E+01  0.8755980458113E+00
-0.5448578291921E+00 -0.6161012223029E+01 -0.1341174030429E+01  0.9916199067727E+00
-0.6025429602862E+00 -0.5878757039703E+01 -0.1296260019314E+01  0.1087395811425E+01
-0.6291152999454E+00 -0.5533404660758E+01 -0.1232504010506E+01  0.1140349968894E+01
-0.5861464662625E+00 -0.5073779499221E+01 -0.1131985209965E+01  0.1101091340216E+01
-0.3569126133896E+00 -0.4419734147153E+01 -0.9553293663440E+00  0.8485449799580E+00
 0.4665162631439E+00 -0.3558178865624E+01 -0.6183325297100E+00  0.1517769699092E+00
 0.2925058950986E+01 -0.2828522008355E+01  0.1930738881396E-01 -0.1052892640870E+01
 0.8041121169989E+01 -0.2732862106407E+01  0.1061651828536E+01 -0.1626220733926E+01
-0.2714451768816E+01 -0.1296802987602E+02 -0.3136496375704E+01 -0.2002570505978E+01
-0.1748401050933E+01 -0.1318638921140E+02 -0.2986958096976E+01 -0.1949998516144E+01
-0.9684331319956E+00 -0.1314374830575E+02 -0.2822436329606E+01 -0.1612462739459E+01
-0.5159732886898E+00 -0.1288683186389E+02 -0.2680561070460E+01 -0.1258439134006E+01
-0.2868426737026E+00 -0.1255687542343E+02 -0.2568743657704E+01 -0.1003464380394E+01
-0.1687712999802E+00 -0.1223284086036E+02 -0.2480322469027E+01 -0.8391193511513E+00
-0.1036273048876E+00 -0.1193387026479E+02 -0.2407499549811E+01 -0.7335583189979E+00
-0.6599117325792E-01 -0.1165900335368E+02 -0.2344998940330E+01 -0.6643531264822E+00
-0.4387344523219E-01 -0.1140375467349E+02 -0.2289525657861E+01 -0.6177782202596E+00
-0.3113927521643E-01 -0.1116373760551E+02 -0.2238975409509E+01 -0.5851397937685E+00
-0.2459644872715E-01 -0.1093545247060E+02 -0.2192009816528E+01 -0.5607171310570E+00
-0.2267785704615E-01 -0.1071630793917E+02 -0.2147797191247E+01 -0.5405120192978E+00
-0.2491198180582E-01 -0.1050432476128E+02 -0.2105847379997E+01 -0.5215023545991E+00
-0.3176379834458E-01 -0.1029763697809E+02 -0.2065880186071E+01 -0.5013332269275E+00
-0.4432939880225E-01 -0.1009390304117E+02 -0.2027646518209E+01 -0.4785641259383E+00
-0.6312758139144E-01 -0.9890172007464E+01 -0.1990659947434E+01 -0.4532495933456E+00
-0.8625004668733E-01 -0.9684157429679E+01 -0.1954081524391E+01 -0.4264774651620E+00
-0.1091695790942E+00 -0.9475487502944E+01 -0.1916931444972E+01 -0.3983934790972E+00
-0.1274265921596E+00 -0.9264268227755E+01 -0.1878338991972E+01 -0.3672263478295E+00
-0.1394372932549E+00 -0.9049585649319E+01 -0.1837804615900E+01 -0.3305905035682E+00
-0.1466406939346E+00 -0.8830292947861E+01 -0.1795386755112E+01 -0.2870529131305E+00
-0.1518410781090E+00 -0.8606053689202E+01 -0.1751578979563E+01 -0.2364465930657E+00
-0.1577616816380E+00 -0.8377552861857E+01 -0.1707062934136E+01 -0.1792613792405E+00
-0.1664600740422E+00 -0.8146102337110E+01 -0.1662512507004E+01 -0.1160252638795E+00
-0.1792661981541E+00 -0.7913183742894E+01 -0.1618490012327E+01 -0.4700929051567E-01
-0.1969036036605E+00 -0.7680184646875E+01 -0.1575417673583E+01  0.2788137764862E-01
-0.2197834499511E+00 -0.7448234150367E+01 -0.1533603542916E+01  0.1091802069840E+00
-0.2484906869273E+00 -0.7217753672266E+01 -0.1493248894090E+01  0.1976662434405E+00
-0.2840688394900E+00 -0.6987929192414E+01 -0.1454399628053E+01  0.2937792398907E+00
-0.3276700977084E+00 -0.6756630530205E+01 -0.1416860146696E+01  0.3970449663701E+00
-0.3797515360245E+00 -0.6520285916705E+01 -0.1380007511110E+01  0.5056388065646E+00
-0.4391161405370E+00 -0.6273383955362E+01 -0.1342500039185E+01  0.6158137286867E+00
-0.5016411637635E+00 -0.6007940381476E+01 -0.1301916328448E+01  0.7210321181505E+00
-0.5584619853444E+00 -0.5712936616551E+01 -0.1254279739069E+01  0.8107972081700E+00
-0.5935363848996E+00 -0.5372998506995E+01 -0.1193306996161E+01  0.8687098238978E+00
-0.5789810462279E+00 -0.4964525192429E+01 -0.1108701264252E+01  0.8670011562027E+00
-0.4571992061739E+00 -0.4448702330509E+01 -0.9811803219574E+00  0.7500633455846E+00
-0.7652268790888E-01 -0.3788134956369E+01 -0.7729315403732E+00  0.4076491757701E+00
 0.9604083122959E+00 -0.3045996678121E+01 -0.4171176793806E+00 -0.3011327506212E+00
 0.3409738398724E+01 -0.2531285990355E+01  0.1756904842920E+00 -0.1271928617009E+01
 0.7743884809769E+01 -0.2510153946076E+01  0.1046746188336E+01 -0.1564552597378E+01
-0.2650081869211E+01 -0.1238436918613E+02 -0.3006890255874E+01 -0.1888039632466E+01
-0.1816040782450E+01 -0.1259906004278E+02 -0.2883020208007E+01 -0.1901693967476E+01
-0.1094459333676E+01 -0.1261873825586E+02 -0.2742639558777E+01 -0.1661510210810E+01
-0.6270108210597E+00 -0.1244719952159E+02 -0.2614842107493E+01 -0.1362585557974E+01
-0.3639991045818E+00 -0.1218078572265E+02 -0.2508957002832E+01 -0.1120201814319E+01
-0.2193170586755E+00 -0.1189384378031E+02 -0.2422632203897E+01 -0.9512889716492E+00
-0.1369304458630E+00 -0.1161606560394E+02 -0.2350599244988E+01 -0.8379036550061E+00
-0.8835039058399E-01 -0.1135411378588E+02 -0.2288492869395E+01 -0.7614624704627E+00
-0.5932278029452E-01 -0.1110734055293E+02 -0.2233332699925E+01 -0.7089481835263E+00
-0.4234075272285E-01 -0.1087334758086E+02 -0.2183137699248E+01 -0.6716286879352E+00
-0.3337086234182E-01 -0.1064963413771E+02 -0.2136601031848E+01 -0.6435438486240E+00
-0.3034762649357E-01 -0.1043403261935E+02 -0.2092876080356E+01 -0.6204725841615E+00
-0.3248633993438E-01 -0.1022463818074E+02 -0.2051424934703E+01 -0.5992926217557E+00
-0.3994680383168E-01 -0.1001948849308E+02 -0.2011887089362E+01 -0.5777403899742E+00
-0.5335367825989E-01 -0.9816235471870E+01 -0.1973917859440E+01 -0.5546017347301E+00
-0.7268820365558E-01 -0.9612245495926E+01 -0.1936986768780E+01 -0.5300111887149E+00
-0.9592881521982E-01 -0.9405808978266E+01 -0.1900347587014E+01 -0.5048158376142E+00
-0.1190721333459E+00 -0.9197133779230E+01 -0.1863241210280E+01 -0.4789040385385E+00
-0.1382385498683E+00 -0.8986815346300E+01 -0.1825010806428E+01 -0.4505100811687E+00
-0.1518761568049E+00 -0.8774268441588E+01 -0.1785228946281E+01 -0.4172651905596E+00
-0.1610361981772E+00 -0.8558298372549E+01 -0.1743866940131E+01 -0.3774880981305E+00
-0.1681623927433E+00 -0.8338077325659E+01 -0.1701247969031E+01 -0.3306222893862E+00
-0.1758373591241E+00 -0.8113543155393E+01 -0.1657876127608E+01 -0.2768736795179E+00
-0.1861401173338E+00 -0.7885234512291E+01 -0.1614274949979E+01 -0.2166871166184E+00
-0.2004887100088E+00 -0.7653944461998E+01 -0.1570886657809E+01 -0.1504107056543E+00
-0.2197214128757E+00 -0.7420439836437E+01 -0.1528032272632E+01 -0.7813391440996E-01
-0.2443457311760E+00 -0.7185226560601E+01 -0.1485914480497E+01  0.3694025205016E-03
-0.2749003759386E+00 -0.6948065607903E+01 -0.1444593218294E+01  0.8540947562979E-01
-0.3121176152701E+00 -0.6707448569243E+01 -0.1403913257823E+01  0.1768111510758E+00
-0.3565560221641E+00 -0.6460529361075E+01 -0.1363417096964E+01  0.2733467869799E+00
-0.4077917556574E+00 -0.6203080823539E+01 -0.1322174535541E+01  0.3722349349519E+00
-0.4633517695871E+00 -0.5929179039969E+01 -0.1278506180962E+01  0.4685124643259E+00
-0.5172727608766E+00 -0.5630881021393E+01 -0.1229630774777E+01  0.5541765359158E+00
-0.5580306354815E+00 -0.5297905104884E+01 -0.1171187165525E+01  0.6169769133050E+00
-0.5653591454274E+00 -0.4916944379051E+01 -0.1096460721234E+01  0.6382845685939E+00
-0.5034220909862E+00 -0.4470017464719E+01 -0.9946879259629E+00  0.5878243268254E+00
-0.2995697106533E+00 -0.3934294470537E+01 -0.8467728488559E+00  0.4113561083553E+00
 0.2122848008501E+00 -0.3307979643163E+01 -0.6191389776886E+00  0.2235126615414E-01
 0.1383933471832E+01 -0.2688611376485E+01 -0.2609355848187E+00 -0.6431524767994E+00
 0.3743603554106E+01 -0.2323897260776E+01  0.2839412628972E+00 -0.1401494736669E+01
 0.7468274806610E+01 -0.2336461526134E+01  0.1026362671389E+01 -0.1512950359229E+01
-0.2579623633587E+01 -0.1184988823958E+02 -0.2885902417637E+01 -0.1787101147296E+01
-0.1853275204557E+01 -0.1205360813566E+02 -0.2781376709489E+01 -0.1846370852675E+01
-0.1191504104386E+01 -0.1211034714325E+02 -0.2660370289170E+01 -0.1683558394922E+01
-0.7250055999265E+00 -0.1200247859095E+02 -0.2545496876106E+01 -0.1439552145141E+01
-0.4390426265099E+00 -0.1179235341108E+02 -0.2446279243971E+01 -0.1218796742966E+01
-0.2715416878989E+00 -0.1154331444850E+02 -0.2362971262490E+01 -0.1052751428585E+01
-0.1725793749038E+00 -0.1128919079782E+02 -0.2292354068704E+01 -0.9357524270493E+00
-0.1128773225738E+00 -0.1104235830124E+02 -0.2231047158009E+01 -0.8543787694952E+00
-0.7657593656408E-01 -0.1080576851716E+02 -0.2176468923177E+01 -0.7972269587199E+00
-0.5498509785863E-01 -0.1057904014240E+02 -0.2126805079744E+01 -0.7559883619382E+00
-0.4328300292897E-01 -0.1036076915572E+02 -0.2080810462737E+01 -0.7247357200416E+00
-0.3889136453669E-01 -0.1014932585756E+02 -0.2037643474782E+01 -0.6991890394918E+00
-0.4066224870727E-01 -0.9943011976435E+01 -0.1996734874782E+01 -0.6762205543365E+00
-0.4839587929099E-01 -0.9739935250840E+01 -0.1957666255198E+01 -0.6536723374546E+00
-0.6225742385477E-01 -0.9537894861942E+01 -0.1920030485770E+01 -0.6304734213345E+00
-0.8179431107747E-01 -0.9334609185663E+01 -0.1883280727411E+01 -0.6067319275414E+00
-0.1049393814712E+00 -0.9128816804076E+01 -0.1846751264628E+01 -0.5830321899398E+00
-0.1281443124902E+00 -0.8921080108361E+01 -0.1809844911139E+01 -0.5590380373365E+00
-0.1480331717009E+00 -0.8712259787307E+01 -0.1772058618207E+01 -0.5330145897578E+00
-0.1631308470996E+00 -0.8501976520019E+01 -0.1733021499248E+01 -0.5026879621490E+00
-0.1741852387418E+00 -0.8289039078826E+01 -0.1692644888736E+01 -0.4662829432467E+00
-0.1832907635756E+00 -0.8072312928448E+01 -0.1651120763008E+01 -0.4229907289881E+00
-0.1928328218574E+00 -0.7851193417687E+01 -0.1608805271882E+01 -0.3727872983078E+00
-0.2048435546192E+00 -0.7625596122973E+01 -0.1566087958855E+01 -0.3160211348865E+00
-0.2207768429942E+00 -0.7395712023190E+01 -0.1523297795936E+01 -0.2530852457977E+00
-0.2415370683812E+00 -0.7161740706087E+01 -0.1480655576957E+01 -0.1842366363261E+00
-0.2676646063929E+00 -0.6923630443551E+01 -0.1438259031421E+01 -0.1095535072830E+00
-0.2995845004276E+00 -0.6680595761711E+01 -0.1396036073230E+01 -0.2918383936374E-01
-0.3376624221937E+00 -0.6430620961379E+01 -0.1353656696886E+01  0.5610914184056E-01
-0.3818052592118E+00 -0.6170421368566E+01 -0.1310445345083E+01  0.1444016960725E+00
-0.4306358178832E+00 -0.5895481189124E+01 -0.1265223420255E+01  0.2320865498478E+00
-0.4803425397921E+00 -0.5599908425681E+01 -0.1216050211215E+01  0.3132297946561E+00
-0.5230912777185E+00 -0.5276345381306E+01 -0.1159887349089E+01  0.3787506809642E+00
-0.5447020590327E+00 -0.4915996324625E+01 -0.1092139693006E+01  0.4152756556344E+00
-0.5208461336946E+00 -0.4508740185488E+01 -0.1005917278826E+01  0.4031767686476E+00
-0.4089585624280E+00 -0.4043624860049E+01 -0.8905166977651E+00  0.3124395906474E+00
-0.1271531169474E+00 -0.3513210370766E+01 -0.7280727083917E+00  0.9564924372866E-01
 0.4894829429672E+00 -0.2940053876404E+01 -0.4901141939905E+00 -0.3065761695997E+00
 0.1735242436961E+01 -0.2429487955149E+01 -0.1388491057068E+00 -0.9018166653942E+00
 0.3968731984900E+01 -0.2166946673758E+01  0.3603570675981E+00 -0.1480349862478E+01
 0.7213411709505E+01 -0.2192653036712E+01  0.1004151749522E+01 -0.1472627963969E+01
-0.2505502909275E+01 -0.1135261490590E+02 -0.2771623604336E+01 -0.1697732576642E+01
-0.1867987924466E+01 -0.1154253237362E+02 -0.2682104099584E+01 -0.1789167324759E+01
-0.1263722573687E+01 -0.1162049286406E+02 -0.2576843125948E+01 -0.1687595913222E+01
-0.8085261062032E+00 -0.1155925269626E+02 -0.2473555797351E+01 -0.1494664371578E+01
-0.5091100968009E+00 -0.1139686447307E+02 -0.2381194949457E+01 -0.1300372365233E+01
-0.3234124579995E+00 -0.1118414673400E+02 -0.2301511872695E+01 -0.1142993158965E+01
-0.2094100766588E+00 -0.1095472807646E+02 -0.2232827663896E+01 -0.1026363548360E+01
-0.1389018199548E+00 -0.1072451294888E+02 -0.2172682986142E+01 -0.9424582319795E+00
-0.9523601124774E-01 -0.1049944506295E+02 -0.2118936246415E+01 -0.8821138105922E+00
-0.6882479444195E-01 -0.1028104100998E+02 -0.2069973191729E+01 -0.8378516354091E+00
-0.5415751607556E-01 -0.1006901241485E+02 -0.2024634016355E+01 -0.8040278268365E+00
-0.4815968874662E-01 -0.9862340792296E+01 -0.1982100125744E+01 -0.7764591254639E+00
-0.4929691439266E-01 -0.9659638642525E+01 -0.1941787140318E+01 -0.7520957700914E+00
-0.5698805091011E-01 -0.9459205916754E+01 -0.1903238821893E+01 -0.7288946382381E+00
-0.7097076302041E-01 -0.9259080767042E+01 -0.1866010333818E+01 -0.7058716383543E+00
-0.9044494432818E-01 -0.9057331602351E+01 -0.1829555336598E+01 -0.6830549074910E+00
-0.1133382708917E+00 -0.8853046843910E+01 -0.1793277049682E+01 -0.6607801032080E+00
-0.1364894487539E+00 -0.8647004103959E+01 -0.1756698736719E+01 -0.6385279848779E+00
-0.1569499751967E+00 -0.8440195142606E+01 -0.1719429049182E+01 -0.6146098676342E+00
-0.1733409020162E+00 -0.8232361566647E+01 -0.1681140518784E+01 -0.5868831134226E+00
-0.1861756161117E+00 -0.8022332500322E+01 -0.1641701647750E+01 -0.5535750159335E+00
-0.1972272541504E+00 -0.7808783485259E+01 -0.1601202171742E+01 -0.5137310791740E+00
-0.2086552033364E+00 -0.7590720745838E+01 -0.1559875213079E+01 -0.4671570883565E+00
-0.2223927750865E+00 -0.7367567910386E+01 -0.1517992159714E+01 -0.4141133536040E+00
-0.2398788452282E+00 -0.7139005818802E+01 -0.1475776954797E+01 -0.3550226641516E+00
-0.2620317984071E+00 -0.6904738010505E+01 -0.1433353983141E+01 -0.2902947425271E+00
-0.2893643152389E+00 -0.6664236683702E+01 -0.1390720220511E+01 -0.2202964844524E+00
-0.3221295497845E+00 -0.6416286049158E+01 -0.1347683139871E+01 -0.1456034116782E+00
-0.3602837260545E+00 -0.6158530472407E+01 -0.1303762859120E+01 -0.6751457556510E-01
-0.4030478717778E+00 -0.5887478893699E+01 -0.1258105371843E+01  0.1143579512891E-01
-0.4480611950245E+00 -0.5598625516129E+01 -0.1209337360251E+01  0.8696745676370E-01
-0.4901683503987E+00 -0.5286465636650E+01 -0.1155326814626E+01  0.1524351409032E+00
-0.5197178369048E+00 -0.4944644387708E+01 -0.1092872461208E+01  0.1980893244115E+00
-0.5200456211799E+00 -0.4566364519082E+01 -0.1017282043211E+01  0.2101019916313E+00
-0.4633049056896E+00 -0.4145271395916E+01 -0.9217152740558E+00  0.1690684335726E+00
-0.3021167007821E+00 -0.3677551214813E+01 -0.7959335949794E+00  0.4750677062443E-01
 0.4901639183695E-01 -0.3168332771679E+01 -0.6238632852646E+00 -0.1922613786870E+00
 0.7439910729979E+00 -0.2654169925853E+01 -0.3820357762638E+00 -0.5844713915340E+00
 0.2020161094869E+01 -0.2233942456234E+01 -0.4275627291011E-01 -0.1099519121068E+01
 0.4114914684873E+01 -0.2040519508249E+01  0.4148790415068E+00 -0.1530389663109E+01
 0.6976085642600E+01 -0.2069262328832E+01  0.9813646773772E+00 -0.1441957662101E+01
-0.2429208070478E+01 -0.1088437189954E+02 -0.2662716033681E+01 -0.1618223623163E+01
-0.1865791933387E+01 -0.1105980456609E+02 -0.2585119338416E+01 -0.1732809767289E+01
-0.1315065173674E+01 -0.1114900552066E+02 -0.2492814176012E+01 -0.1679805426243E+01
-0.8775441380282E+00 -0.1112146589682E+02 -0.2399802042729E+01 -0.1532663735749E+01
-0.5723814626565E+00 -0.1099846278144E+02 -0.2314168883303E+01 -0.1366750737794E+01
-0.3732312238735E+00 -0.1081908226102E+02 -0.2238462730335E+01 -0.1222150073658E+01
-0.2462946611987E+00 -0.1061424423545E+02 -0.2172107811696E+01 -0.1109347847952E+01
-0.1657247738786E+00 -0.1040146041105E+02 -0.2113437068478E+01 -0.1025243974124E+01
-0.1148652660630E+00 -0.1018887357878E+02 -0.2060747799676E+01 -0.9632078332438E+00
-0.8357496843287E-01 -0.9979651626506E+01 -0.2012645348979E+01 -0.9168988578793E+00
-0.6579243283768E-01 -0.9774572021183E+01 -0.1968072920131E+01 -0.8811711106799E+00
-0.5799148947075E-01 -0.9573258967710E+01 -0.1926250120140E+01 -0.8520765156723E+00
-0.5825384533114E-01 -0.9374707208054E+01 -0.1886592238789E+01 -0.8267165883346E+00
-0.6562026847098E-01 -0.9177491335424E+01 -0.1848622348326E+01 -0.8031737420500E+00
-0.7944264382407E-01 -0.8979938734011E+01 -0.1811876302566E+01 -0.7805189085145E+00
-0.9864294043204E-01 -0.8780450049582E+01 -0.1775818624465E+01 -0.7586813266421E+00
-0.1211661161863E+00 -0.8578390537437E+01 -0.1739911356651E+01 -0.7377792248970E+00
-0.1441756174423E+00 -0.8374666313220E+01 -0.1703768411521E+01 -0.7171525313631E+00
-0.1650803519610E+00 -0.8170320353336E+01 -0.1667080165901E+01 -0.6951698171183E+00
-0.1826011971337E+00 -0.7965158778000E+01 -0.1629552019309E+01 -0.6698346093065E+00
-0.1970700677463E+00 -0.7758033748893E+01 -0.1591020787036E+01 -0.6394356719224E+00
-0.2099724095533E+00 -0.7547505325501E+01 -0.1551495570130E+01 -0.6029523351299E+00
-0.2232310077265E+00 -0.7332304566656E+01 -0.1511107137394E+01 -0.5600766090754E+00
-0.2386426602713E+00 -0.7111474767568E+01 -0.1470023507473E+01 -0.5109999812911E+00
-0.2575854345503E+00 -0.6884277882785E+01 -0.1428372684752E+01 -0.4561705084658E+00
-0.2809414392814E+00 -0.6650001199331E+01 -0.1386188548378E+01 -0.3961366070940E+00
-0.3091411664100E+00 -0.6407729039919E+01 -0.1343374061284E+01 -0.3315294487997E+00
-0.3422180261410E+00 -0.6155927610301E+01 -0.1299629146654E+01 -0.2633079879626E+00
-0.3796891652782E+00 -0.5892048721419E+01 -0.1254347596031E+01 -0.1932379001335E+00
-0.4200776921043E+00 -0.5612586304571E+01 -0.1206532817314E+01 -0.1243595637572E+00
-0.4600460499540E+00 -0.5313279804172E+01 -0.1154665188031E+01 -0.6146023098278E-01
-0.4931428688206E+00 -0.4989279044064E+01 -0.1096484398916E+01 -0.1163360051767E-01
-0.5080328351899E+00 -0.4635517243913E+01 -0.1028710031149E+01  0.1510693873649E-01
-0.4858855256228E+00 -0.4247469624665E+01 -0.9466710441640E+00  0.5118296239902E-02
-0.3961421231686E+00 -0.3822646067299E+01 -0.8437576506665E+00 -0.5972977136644E-01
-0.1887195236540E+00 -0.3363596470960E+01 -0.7104632095096E+00 -0.2028558167959E+00
 0.2209595082024E+00 -0.2884516392764E+01 -0.5327113848503E+00 -0.4513494812492E+00
 0.9706339729991E+00 -0.2428131833352E+01 -0.2914995764144E+00 -0.8186627226740E+00
 0.2246989137243E+01 -0.2080605218426E+01  0.3327678425940E-01 -0.1253056768279E+01
 0.4202918802510E+01 -0.1934042900105E+01  0.4537751872427E+00 -0.1563974783256E+01
 0.6752745173164E+01 -0.1961047364695E+01  0.9583395759741E+00 -0.1418931245247E+01
-0.2351670134328E+01 -0.1043936187697E+02 -0.2558206440381E+01 -0.1547161289730E+01
-0.1850730524665E+01 -0.1060064866052E+02 -0.2490275874144E+01 -0.1678709820985E+01
-0.1349001385986E+01 -0.1069478479300E+02 -0.2408757271691E+01 -0.1664415225292E+01
-0.9327925924369E+00 -0.1069130675905E+02 -0.2324819904940E+01 -0.1557493805905E+01
-0.6278547056756E+00 -0.1060020462420E+02 -0.2245611899437E+01 -0.1419991234170E+01
-0.4196941490380E+00 -0.1045052314758E+02 -0.2174043491719E+01 -0.1290807794570E+01
-0.2822184699157E+00 -0.1026927964181E+02 -0.2110299653791E+01 -0.1184629556853E+01
-0.1926591701732E+00 -0.1007413490696E+02 -0.2053358846025E+01 -0.1102461347631E+01
-0.1350090610598E+00 -0.9874621541749E+01 -0.2001926150393E+01 -0.1040211331111E+01
-0.9892833784325E-01 -0.9675229905441E+01 -0.1954831677786E+01 -0.9928646315621E+00
-0.7796839654348E-01 -0.9477696980403E+01 -0.1911133103867E+01 -0.9559400255654E+00
-0.6821880582391E-01 -0.9282282537566E+01 -0.1870100296545E+01 -0.9258403749011E+00
-0.6740197670728E-01 -0.9088402622547E+01 -0.1831160947137E+01 -0.8998815353512E+00
-0.7420230310692E-01 -0.8894955514363E+01 -0.1793831590224E+01 -0.8762856929240E+00
-0.8763160376441E-01 -0.8700580419577E+01 -0.1757642430859E+01 -0.8541663003876E+00
-0.1063896633872E+00 -0.8503986418587E+01 -0.1722075242056E+01 -0.8333566453938E+00
-0.1284499014724E+00 -0.8304762001132E+01 -0.1686642405654E+01 -0.8137958659015E+00
-0.1512457741412E+00 -0.8103887863836E+01 -0.1651026752198E+01 -0.7947227870681E+00
-0.1724819974305E+00 -0.7902411632554E+01 -0.1614978750062E+01 -0.7745723552906E+00
-0.1909738366540E+00 -0.7700168132549E+01 -0.1578228417358E+01 -0.7514984348743E+00
-0.2069111549740E+00 -0.7496030682240E+01 -0.1540588390399E+01 -0.7238862681752E+00
-0.2215249714433E+00 -0.7288492344586E+01 -0.1502003485587E+01 -0.6907066148984E+00
-0.2365020590959E+00 -0.7076093903243E+01 -0.1462519214261E+01 -0.6515866161540E+00
-0.2534766968390E+00 -0.6857591963621E+01 -0.1422213753285E+01 -0.6066723759895E+00
-0.2737272634751E+00 -0.6631916009504E+01 -0.1381128675176E+01 -0.5564383832099E+00
-0.2980544709213E+00 -0.6398018797207E+01 -0.1339214673582E+01 -0.5015577907446E+00
-0.3267601152956E+00 -0.6154685159267E+01 -0.1296289074229E+01 -0.4428958348012E+00
-0.3596209714904E+00 -0.5900167786788E+01 -0.1251957770311E+01 -0.3817422570144E+00
-0.3956988992039E+00 -0.5631852899619E+01 -0.1205510377728E+01 -0.3202498022119E+00
-0.4328272888612E+00 -0.5346373117843E+01 -0.1155840098564E+01 -0.2618501859005E+00
-0.4667307432499E+00 -0.5039890015273E+01 -0.1101324168116E+01 -0.2116673086730E+00
-0.4897557772219E+00 -0.4708391556162E+01 -0.1039629482168E+01 -0.1769883827256E+00
-0.4890842617140E+00 -0.4348258134023E+01 -0.9674684935638E+00 -0.1677140699269E+00
-0.4441420322808E+00 -0.3957298491313E+01 -0.8802881178361E+00 -0.1967457000154E+00
-0.3225830301910E+00 -0.3536620056397E+01 -0.7718406288189E+00 -0.2801495708236E+00
-0.7357563464514E-01 -0.3093909405389E+01 -0.6334970174466E+00 -0.4364817451315E+00
 0.3833314799294E+00 -0.2649135287861E+01 -0.4531607683389E+00 -0.6827427775374E+00
 0.1167852383384E+01 -0.2245960406979E+01 -0.2156216079320E+00 -0.1016490220156E+01
 0.2424155583884E+01 -0.1956127049570E+01  0.9360570825757E-01 -0.1374576766829E+01
 0.4247225321578E+01 -0.1841574406167E+01  0.4811301902515E+00 -0.1588121086955E+01
 0.6540194587983E+01 -0.1864773507089E+01  0.9350842301126E+00 -0.1401824776309E+01
-0.2273481346898E+01 -0.1001334348393E+02 -0.2457365002784E+01 -0.1483383918196E+01
-0.1825754000128E+01 -0.1016128295437E+02 -0.2397407426624E+01 -0.1627550875632E+01
-0.1368464736413E+01 -0.1025637855247E+02 -0.2324968692421E+01 -0.1644312744723E+01
-0.9753697822489E+00 -0.1026983857118E+02 -0.2249041704198E+01 -0.1572317970638E+01
-0.6751203188209E+00 -0.1020423834138E+02 -0.2175871764464E+01 -0.1462122886619E+01
-0.4618762836678E+00 -0.1008045961316E+02 -0.2108467210785E+01 -0.1349819265132E+01
-0.3163243104795E+00 -0.9921263493975E+01 -0.2047517591401E+01 -0.1252383135999E+01
-0.2190645406618E+00 -0.9743471876593E+01 -0.1992507313142E+01 -0.1174001950557E+01
-0.1552173664040E+00 -0.9557290122197E+01 -0.1942501526666E+01 -0.1112927533727E+01
-0.1145691036085E+00 -0.9368171261175E+01 -0.1896548101217E+01 -0.1065540979351E+01
-0.9045729034216E-01 -0.9178665299408E+01 -0.1853824545574E+01 -0.1028138252046E+01
-0.7867097971382E-01 -0.8989627707266E+01 -0.1813659764422E+01 -0.9975629033550E+00
-0.7661499078576E-01 -0.8800905900825E+01 -0.1775504204779E+01 -0.9713975104690E+00
-0.8265197390176E-01 -0.8611743917953E+01 -0.1738879204282E+01 -0.9480211362019E+00
-0.9550029745184E-01 -0.8421096708924E+01 -0.1703319426657E+01 -0.9265911129635E+00
-0.1136825372399E+00 -0.8227956355547E+01 -0.1668327803417E+01 -0.9068607742084E+00
-0.1352051474054E+00 -0.8032095147337E+01 -0.1633460083289E+01 -0.8886301831476E+00
-0.1577247398243E+00 -0.7834535064453E+01 -0.1598451984674E+01 -0.8710730470750E+00
-0.1791889846577E+00 -0.7636302387650E+01 -0.1563098297753E+01 -0.8526988141981E+00
-0.1984972946916E+00 -0.7437239287278E+01 -0.1527147339150E+01 -0.8318107156632E+00
-0.2157260349724E+00 -0.7236238087422E+01 -0.1490392846687E+01 -0.8069102951184E+00
-0.2318819948199E+00 -0.7031757636558E+01 -0.1452727947923E+01 -0.7770003885917E+00
-0.2484229327361E+00 -0.6822212371415E+01 -0.1414127081902E+01 -0.7416832828531E+00
-0.2668038198130E+00 -0.6606150192449E+01 -0.1374590822935E+01 -0.7010827909688E+00
-0.2881720625771E+00 -0.6382247257845E+01 -0.1334083883964E+01 -0.6557031944850E+00
-0.3132088791455E+00 -0.6149200829771E+01 -0.1292481961043E+01 -0.6063280081949E+00
-0.3420498621686E+00 -0.5905580460719E+01 -0.1249526083197E+01 -0.5540227666088E+00
-0.3741893320378E+00 -0.5649519378614E+01 -0.1204741760082E+01 -0.5003505770164E+00
-0.4082307038937E+00 -0.5378444643890E+01 -0.1157335086802E+01 -0.4477666083212E+00
-0.4413439650807E+00 -0.5089246473642E+01 -0.1106118104227E+01 -0.3999755413514E+00
-0.4683816493991E+00 -0.4778632622633E+01 -0.1049402870044E+01 -0.3622711257201E+00
-0.4806192332563E+00 -0.4443537050120E+01 -0.9848312713505E+00 -0.3418977944841E+00
-0.4640060663920E+00 -0.4081835337717E+01 -0.9091682943695E+00 -0.3483141737320E+00
-0.3967034978934E+00 -0.3693561389104E+01 -0.8180529895893E+00 -0.3932382050557E+00
-0.2454992728686E+00 -0.3282923348609E+01 -0.7056845348110E+00 -0.4901667009199E+00
 0.3957079321580E-01 -0.2861394157561E+01 -0.5643646812788E+00 -0.6525859168825E+00
 0.5328371741106E+00 -0.2452017341743E+01 -0.3838360392461E+00 -0.8886412044090E+00
 0.1336159959439E+01 -0.2096239501125E+01 -0.1520159106024E+00 -0.1184488821895E+01
 0.2559284612389E+01 -0.1852005920704E+01  0.1414557404448E+00 -0.1472723875051E+01
 0.4258020766582E+01 -0.1759561492339E+01  0.4996918622947E+00 -0.1606841069743E+01
 0.6335771391619E+01 -0.1778252991513E+01  0.9115036936035E+00 -0.1389296831405E+01
-0.2195023322212E+01 -0.9603128803631E+01 -0.2359630460330E+01 -0.1425933894944E+01
-0.1793043714372E+01 -0.9738696251214E+01 -0.2306348027484E+01 -0.1579609626312E+01
-0.1375888525553E+01 -0.9832266289155E+01 -0.2241630996345E+01 -0.1621469422475E+01
-0.1006506214745E+01 -0.9857423299767E+01 -0.2172785935279E+01 -0.1579622099469E+01
-0.7141731911601E+00 -0.9812004331994E+01 -0.2105235536001E+01 -0.1495007905988E+01
-0.4991803398849E+00 -0.9710471186730E+01 -0.2041930335750E+01 -0.1400164167721E+01
-0.3479281758415E+00 -0.9571462312256E+01 -0.1983878127182E+01 -0.1312963905645E+01
-0.2443712954835E+00 -0.9410366677301E+01 -0.1930947623330E+01 -0.1239898951823E+01
-0.1750628454564E+00 -0.9237487145371E+01 -0.1882510026217E+01 -0.1181253487651E+01
-0.1301852248019E+00 -0.9058891001384E+01 -0.1837815272623E+01 -0.1134777420801E+01
-0.1030299903520E+00 -0.8877772888262E+01 -0.1796160602488E+01 -0.1097602301177E+01
-0.8917834062121E-01 -0.8695519019351E+01 -0.1756939498175E+01 -0.1067074797826E+01
-0.8577109725744E-01 -0.8512394227564E+01 -0.1719633090589E+01 -0.1041085310852E+01
-0.9089221216145E-01 -0.8327989302484E+01 -0.1683776328019E+01 -0.1018188030835E+01
-0.1030124755507E+00 -0.8141566113022E+01 -0.1648915742285E+01 -0.9975944699231E+00
-0.1205142052424E+00 -0.7952374423021E+01 -0.1614577749712E+01 -0.9790010547335E+00
-0.1414379773994E+00 -0.7760340871862E+01 -0.1580355793401E+01 -0.9621075596101E+00
-0.1636242111778E+00 -0.7566508383672E+01 -0.1546026542008E+01 -0.9460544933893E+00
-0.1852189323149E+00 -0.7371868603994E+01 -0.1511417529784E+01 -0.9294332615791E+00
-0.2051933853940E+00 -0.7176259595891E+01 -0.1476290618255E+01 -0.9106932350684E+00
-0.2235307303398E+00 -0.6978591921302E+01 -0.1440424551792E+01 -0.8884625043719E+00
-0.2410396961379E+00 -0.6777313554899E+01 -0.1403670671124E+01 -0.8618038252451E+00
-0.2589593825066E+00 -0.6570761518724E+01 -0.1365944200600E+01 -0.8303258688125E+00
-0.2785557956312E+00 -0.6357339735237E+01 -0.1327179125950E+01 -0.7941504107965E+00
-0.3008216038762E+00 -0.6135541732027E+01 -0.1287272686363E+01 -0.7538148202947E+00
-0.3262882785305E+00 -0.5903882648404E+01 -0.1246034203954E+01 -0.7101979135850E+00
-0.3548970349885E+00 -0.5660793942006E+01 -0.1203138213327E+01 -0.6645298986959E+00
-0.3858446788265E+00 -0.5404371426194E+01 -0.1158043238260E+01 -0.6185879853687E+00
-0.4172852111871E+00 -0.5132169288061E+01 -0.1109890916388E+01 -0.5750442341640E+00
-0.4457671482849E+00 -0.4841422490132E+01 -0.1057437943440E+01 -0.5377599918399E+00
-0.4653580333758E+00 -0.4529462303315E+01 -0.9989640822238E+00 -0.5120423188448E+00
-0.4664203786520E+00 -0.4194211141112E+01 -0.9321263178427E+00 -0.5048836668950E+00
-0.4339502302009E+00 -0.3834997447475E+01 -0.8537895482576E+00 -0.5250308269364E+00
-0.3453348301063E+00 -0.3453853077323E+01 -0.7598375928083E+00 -0.5827039746357E+00
-0.1673284228110E+00 -0.3057480552139E+01 -0.6449618046008E+00 -0.6885835338216E+00
 0.1479498572463E+00 -0.2659870999923E+01 -0.5023842360215E+00 -0.8512940635113E+00
 0.6676786575463E+00 -0.2285125983627E+01 -0.3234894700365E+00 -0.1071652418062E+01
 0.1477166203680E+01 -0.1970810415019E+01 -0.9872884373895E-01 -0.1328149399897E+01
 0.2658921994400E+01 -0.1762703928819E+01  0.1792436157871E+00 -0.1553617123114E+01
 0.4242569013500E+01 -0.1685745151532E+01  0.5113647800136E+00 -0.1622445397658E+01
 0.6137328815823E+01 -0.1699900025300E+01  0.8874857713290E+00 -0.1380333059306E+01
-0.2116543816353E+01 -0.9206264711168E+01 -0.2264561739249E+01 -0.1374017088200E+01
-0.1754233587146E+01 -0.9330470261978E+01 -0.2216940802860E+01 -0.1534936084846E+01
-0.1373272536230E+01 -0.9420991522034E+01 -0.2158852843822E+01 -0.1597230353764E+01
-0.1027433543783E+01 -0.9453998420788E+01 -0.2096286424151E+01 -0.1581336138453E+01
-0.7452689721971E+00 -0.9424413307721E+01 -0.2033936486292E+01 -0.1520285335806E+01
-0.5312740922647E+00 -0.9341766335251E+01 -0.1974608114927E+01 -0.1442851351022E+01
-0.3765150969309E+00 -0.9220957316795E+01 -0.1919494511348E+01 -0.1366844423261E+01
-0.2680945396251E+00 -0.9075644752892E+01 -0.1868747886350E+01 -0.1300298173068E+01
-0.1941546619093E+00 -0.8915804429312E+01 -0.1821991845394E+01 -0.1245169245156E+01
-0.1454787072110E+00 -0.8747808725616E+01 -0.1778657513070E+01 -0.1200478454151E+01
-0.1154630861970E+00 -0.8575323545935E+01 -0.1738157352327E+01 -0.1164203107087E+01
-0.9957551526004E-01 -0.8400184256009E+01 -0.1699951979585E+01 -0.1134228772823E+01
-0.9475329194614E-01 -0.8223040706802E+01 -0.1663558824539E+01 -0.1108783113036E+01
-0.9884949484054E-01 -0.8043815535837E+01 -0.1628533030402E+01 -0.1086612913770E+01
-0.1101315582116E+00 -0.7862059966502E+01 -0.1594438328702E+01 -0.1066999084921E+01
-0.1268726345143E+00 -0.7677256790829E+01 -0.1560825908327E+01 -0.1049607188836E+01
-0.1471470375695E+00 -0.7489464377128E+01 -0.1527322305698E+01 -0.1034072727319E+01
-0.1689464848805E+00 -0.7299734296372E+01 -0.1493736178509E+01 -0.1019530924930E+01
-0.1905782015255E+00 -0.7109018013978E+01 -0.1459919264855E+01 -0.1004661976278E+01
-0.2110725624152E+00 -0.6917144665742E+01 -0.1425643466875E+01 -0.9880573363832E+00
-0.2303337627934E+00 -0.6723044054143E+01 -0.1390675584110E+01 -0.9684758603460E+00
-0.2489945987895E+00 -0.6525170918816E+01 -0.1354833123710E+01 -0.9450585281813E+00
-0.2680873891294E+00 -0.6321823028647E+01 -0.1317982103195E+01 -0.9174436880449E+00
-0.2886849927279E+00 -0.6111313967694E+01 -0.1279999811158E+01 -0.8857673249674E+00
-0.3116085922285E+00 -0.5892016526763E+01 -0.1240725042286E+01 -0.8506018145884E+00
-0.3372176122025E+00 -0.5662329675493E+01 -0.1199909475419E+01 -0.8129054584725E+00
-0.3652398768435E+00 -0.5420615224229E+01 -0.1157171037458E+01 -0.7740369656716E+00
-0.3945697098109E+00 -0.5165000888460E+01 -0.1111914136223E+01 -0.7359288387626E+00
-0.4229316553326E+00 -0.4893235020350E+01 -0.1063233350980E+01 -0.7013869216908E+00
-0.4463075257305E+00 -0.4602956024157E+01 -0.1009852725025E+01 -0.6743194122705E+00
-0.4580825848851E+00 -0.4292155928864E+01 -0.9500477169066E+00 -0.6599055576661E+00
-0.4478810451029E+00 -0.3959734499063E+01 -0.8815231219689E+00 -0.6647094130382E+00
-0.4000342112425E+00 -0.3606363388885E+01 -0.8012795319655E+00 -0.6965608928980E+00
-0.2916205520769E+00 -0.3235774769414E+01 -0.7054790748107E+00 -0.7639907750061E+00
-0.9005856459109E-01 -0.2856540431625E+01 -0.5893198080248E+00 -0.8748252468827E+00
 0.2496170424548E+00 -0.2484087166589E+01 -0.4468940314861E+00 -0.1033288919950E+01
 0.7871023945385E+00 -0.2142177673784E+01 -0.2710150598876E+00 -0.1234413586611E+01
 0.1592984389356E+01 -0.1863810992237E+01 -0.5416532138327E-01 -0.1451941603377E+01
 0.2728549649118E+01 -0.1684526826702E+01  0.2088045675945E+00 -0.1621588150401E+01
 0.4206136505071E+01 -0.1618606583383E+01  0.5175059920490E+00 -0.1636269501107E+01
 0.5943157910568E+01 -0.1628508361924E+01  0.8629299225874E+00 -0.1374168979919E+01
-0.2038203764820E+01 -0.8820824010097E+01 -0.2171805587346E+01 -0.1326970142778E+01
-0.1710562888342E+01 -0.8934643480242E+01 -0.2129041305442E+01 -0.1493456018976E+01
-0.1362254388048E+01 -0.9021217201867E+01 -0.2076694348928E+01 -0.1572510868387E+01
-0.1039315778627E+01 -0.9059254402097E+01 -0.2019714066241E+01 -0.1578947600749E+01
-0.7688201494111E+00 -0.9041990659051E+01 -0.1962162190931E+01 -0.1539360023619E+01
-0.5580294972869E+00 -0.8975237327282E+01 -0.1906653393325E+01 -0.1478856752334E+01
-0.4017233219241E+00 -0.8870642587565E+01 -0.1854473209532E+01 -0.1414562089935E+01
-0.2898389356419E+00 -0.8740043213658E+01 -0.1805976456771E+01 -0.1355428962020E+01
-0.2121477654200E+00 -0.8592800177984E+01 -0.1760989614922E+01 -0.1304724787580E+01
-0.1601736804652E+00 -0.8435335134991E+01 -0.1719101788708E+01 -0.1262599002151E+01
-0.1275444827181E+00 -0.8271620205397E+01 -0.1679832962655E+01 -0.1227845857936E+01
-0.1097043710770E+00 -0.8103849867313E+01 -0.1642710872156E+01 -0.1198901395582E+01
-0.1034499970314E+00 -0.7933013703151E+01 -0.1607292763987E+01 -0.1174348388922E+01
-0.1064532502376E+00 -0.7759339864017E+01 -0.1573158646293E+01 -0.1153141227256E+01
-0.1168202334631E+00 -0.7582645454808E+01 -0.1539893160600E+01 -0.1134647265237E+01
-0.1327417599311E+00 -0.7402622384382E+01 -0.1507072851320E+01 -0.1118527529990E+01
-0.1523252599010E+00 -0.7219442664988E+01 -0.1474353606947E+01 -0.1104385716429E+01
-0.1736873116690E+00 -0.7034159076441E+01 -0.1441569299103E+01 -0.1091375877441E+01
-0.1952657302738E+00 -0.6847681935823E+01 -0.1408589554209E+01 -0.1078273139152E+01
-0.2161379461952E+00 -0.6659830928782E+01 -0.1375193795487E+01 -0.1063806807380E+01
-0.2361391444807E+00 -0.6469557690924E+01 -0.1341139387066E+01 -0.1046866921375E+01
-0.2557447129035E+00 -0.6275337838648E+01 -0.1306216529774E+01 -0.1026683933600E+01
-0.2757925601325E+00 -0.6075460196335E+01 -0.1270250570222E+01 -0.1002942322496E+01
-0.2971624221804E+00 -0.5868192395085E+01 -0.1233070981827E+01 -0.9758042007796E+00
-0.3204935625256E+00 -0.5651839743260E+01 -0.1194466678956E+01 -0.9458768773271E+00
-0.3459586612262E+00 -0.5424742712681E+01 -0.1154140291979E+01 -0.9141816677464E+00
-0.3730617551789E+00 -0.5185252321376E+01 -0.1111662831876E+01 -0.8821700948692E+00
-0.4003988716395E+00 -0.4931584703444E+01 -0.1066396730907E+01 -0.8518733752689E+00
-0.4252944354090E+00 -0.4661731513138E+01 -0.1017405204870E+01 -0.8261529863862E+00
-0.4432282146819E+00 -0.4373768407772E+01 -0.9633993388465E+00 -0.8088639116227E+00
-0.4470159872876E+00 -0.4066352208496E+01 -0.9026736526076E+00 -0.8049353887721E+00
-0.4257251408287E+00 -0.3739307617174E+01 -0.8330065640133E+00 -0.8203622550376E+00
-0.3633035023113E+00 -0.3394494962613E+01 -0.7515597041840E+00 -0.8619164563517E+00
-0.2369364661014E+00 -0.3037019248459E+01 -0.6547911526692E+00 -0.9363552294270E+00
-0.1525305598051E-01 -0.2676737026135E+01 -0.5383980244458E+00 -0.1048765432613E+01
 0.3432928356085E+00 -0.2329648262974E+01 -0.3972710913929E+00 -0.1199560373150E+01
 0.8910543842635E+00 -0.2018281296668E+01 -0.2254453858403E+00 -0.1379395545261E+01
 0.1685886237770E+01 -0.1770990648379E+01 -0.1702088237539E-01 -0.1559438483366E+01
 0.2772709580561E+01 -0.1614949379047E+01  0.2315520437533E+00 -0.1679709317116E+01
 0.4152614997427E+01 -0.1557079642572E+01  0.5191070787062E+00 -0.1649082561331E+01
 0.5751899738258E+01 -0.1563131979690E+01  0.8377535641971E+00 -0.1370228150962E+01
-0.1960106735943E+01 -0.8445264514094E+01 -0.2081074281018E+01 -0.1284234716490E+01
-0.1662982758615E+01 -0.8549608145301E+01 -0.2042518211219E+01 -0.1455029928180E+01
-0.1344174898507E+01 -0.8631742434099E+01 -0.1995183496252E+01 -0.1547930088794E+01
-0.1043217393578E+01 -0.8672746879441E+01 -0.1943192883560E+01 -0.1573597903122E+01
-0.7853237501400E+00 -0.8664987522040E+01 -0.1890062282600E+01 -0.1553415111454E+01
-0.5794694567301E+00 -0.8611517097182E+01 -0.1838197338174E+01 -0.1509087596399E+01
-0.4233230149397E+00 -0.8521236187146E+01 -0.1788911867074E+01 -0.1456679191119E+01
-0.3092969163326E+00 -0.8404202127571E+01 -0.1742699834749E+01 -0.1405577601075E+01
-0.2287479856389E+00 -0.8268986524073E+01 -0.1699546927268E+01 -0.1360026119288E+01
-0.1740222180303E+00 -0.8121861460853E+01 -0.1659176760500E+01 -0.1321138439615E+01
-0.1390778480192E+00 -0.7966957533746E+01 -0.1621207100511E+01 -0.1288468392263E+01
-0.1194165657591E+00 -0.7806736911597E+01 -0.1585230719093E+01 -0.1260993530958E+01
-0.1117559468026E+00 -0.7642475848620E+01 -0.1550846382194E+01 -0.1237658632123E+01
-0.1136359176477E+00 -0.7474674035969E+01 -0.1517662013338E+01 -0.1217637022675E+01
-0.1230406965596E+00 -0.7303387176002E+01 -0.1485285596645E+01 -0.1200399141478E+01
-0.1381024176969E+00 -0.7128493070036E+01 -0.1453319119203E+01 -0.1185626328205E+01
-0.1569614664000E+00 -0.6950262215225E+01 -0.1421444757506E+01 -0.1172919035588E+01
-0.1778381384781E+00 -0.6769743956143E+01 -0.1389516439630E+01 -0.1161470699446E+01
-0.1992759068164E+00 -0.6587809030439E+01 -0.1357417007678E+01 -0.1150156727658E+01
-0.2203883841338E+00 -0.6404269794975E+01 -0.1324931655565E+01 -0.1137840109220E+01
-0.2409487782943E+00 -0.6218103503149E+01 -0.1291810475538E+01 -0.1123540080916E+01
-0.2612906023633E+00 -0.6027818455988E+01 -0.1257821830413E+01 -0.1106582615688E+01
-0.2820696997237E+00 -0.5831718971814E+01 -0.1222757752528E+01 -0.1086709086487E+01
-0.3039759626682E+00 -0.5628063355081E+01 -0.1186407881229E+01 -0.1064115508643E+01
-0.3274618379639E+00 -0.5415134503762E+01 -0.1148519285460E+01 -0.1039441916598E+01
-0.3525055348498E+00 -0.5191263543295E+01 -0.1108753832151E+01 -0.1013755744266E+01
-0.3783847316488E+00 -0.4954839745243E+01 -0.1066644911273E+01 -0.9885669500700E+00
-0.4034093623299E+00 -0.4704211821165E+01 -0.1021524251921E+01 -0.9659524611024E+00
-0.4245407322192E+00 -0.4437647658497E+01 -0.9724376926336E+00 -0.9487580440804E+00
-0.4368281644216E+00 -0.4153672818821E+01 -0.9181002103293E+00 -0.9406973630340E+00
-0.4326356604919E+00 -0.3851586581384E+01 -0.8568444611432E+00 -0.9463483144867E+00
-0.4006535987588E+00 -0.3532056629776E+01 -0.7865420574273E+00 -0.9710314953774E+00
-0.3247076281440E+00 -0.3197952349944E+01 -0.7045320061159E+00 -0.1020378394507E+01
-0.1824425838318E+00 -0.2855424879494E+01 -0.6075735017187E+00 -0.1099375620932E+01
 0.5590350619268E-01 -0.2515104078970E+01 -0.4918401218844E+00 -0.1210585784999E+01
 0.4282147227694E+00 -0.2192915381264E+01 -0.3529401369582E+00 -0.1351237377689E+01
 0.9799294881536E+00 -0.1909632131730E+01 -0.1859405314861E+00 -0.1508817041941E+01
 0.1758108082545E+01 -0.1689228105991E+01  0.1377599551602E-01 -0.1653468344405E+01
 0.2795154585909E+01 -0.1552198236116E+01  0.2485912736629E+00 -0.1730159334949E+01
 0.4084946307626E+01 -0.1500400101692E+01  0.5169092488893E+00 -0.1661317528960E+01
 0.5562464389688E+01 -0.1503018119072E+01  0.8118892662213E+00 -0.1368083965093E+01
-0.1882317759524E+01 -0.8078331521055E+01 -0.1992129885801E+01 -0.1245337331543E+01
-0.1612231345711E+01 -0.8174032421976E+01 -0.1957252782703E+01 -0.1419487202081E+01
-0.1320134018735E+01 -0.8251500461676E+01 -0.1914326924608E+01 -0.1523902048018E+01
-0.1040092641675E+01 -0.8293966525362E+01 -0.1866811861225E+01 -0.1566160348536E+01
-0.7953127276791E+00 -0.8293463608872E+01 -0.1817755294397E+01 -0.1563435156046E+01
-0.5957240890511E+00 -0.8251031507376E+01 -0.1769351145651E+01 -0.1534364723310E+01
-0.4411935788471E+00 -0.8173298166686E+01 -0.1722898374780E+01 -0.1493754323959E+01
-0.3262425267006E+00 -0.8068663191601E+01 -0.1678981168679E+01 -0.1451064688529E+01
-0.2437136237278E+00 -0.7944821794645E+01 -0.1637707108078E+01 -0.1411221705975E+01
-0.1868080294385E+00 -0.7807751521775E+01 -0.1598911934068E+01 -0.1376133821427E+01
-0.1498859234444E+00 -0.7661615918853E+01 -0.1562300391740E+01 -0.1346038518963E+01
-0.1285756677202E+00 -0.7509057528300E+01 -0.1527526661966E+01 -0.1320429694505E+01
-0.1195731839491E+00 -0.7351582837624E+01 -0.1494231226580E+01 -0.1298611191752E+01
-0.1203334141876E+00 -0.7189924628536E+01 -0.1462051630331E+01 -0.1279982239998E+01
-0.1287552682183E+00 -0.7024347727574E+01 -0.1430620620476E+01 -0.1264131084249E+01
-0.1429334114777E+00 -0.6854893249943E+01 -0.1399565353139E+01 -0.1250781641513E+01
-0.1610418157527E+00 -0.6681916856029E+01 -0.1368591754750E+01 -0.1239555688936E+01
-0.1813879033211E+00 -0.6506461276433E+01 -0.1337569855882E+01 -0.1229703285656E+01
-0.2026007503584E+00 -0.6329360462782E+01 -0.1306392262095E+01 -0.1220204575848E+01
-0.2238207730107E+00 -0.6150423047401E+01 -0.1274848783079E+01 -0.1210052168556E+01
-0.2447643403852E+00 -0.5968656434680E+01 -0.1242684173530E+01 -0.1198390970197E+01
-0.2656362670239E+00 -0.5782611771258E+01 -0.1209649625682E+01 -0.1184644700000E+01
-0.2869224338392E+00 -0.5590628774429E+01 -0.1175510259170E+01 -0.1168617780441E+01
-0.3091287113556E+00 -0.5390986490433E+01 -0.1140023057345E+01 -0.1150544220995E+01
-0.3325205891467E+00 -0.5181982909554E+01 -0.1102900716175E+01 -0.1131092599517E+01
-0.3568802668141E+00 -0.4961980626605E+01 -0.1063772194535E+01 -0.1111359462171E+01
-0.3812633697327E+00 -0.4729446649765E+01 -0.1022142019131E+01 -0.1092880789547E+01
-0.4037127075869E+00 -0.4482894889452E+01 -0.9773215339711E+00 -0.1077730767373E+01
-0.4208693463895E+00 -0.4220888123950E+01 -0.9283515079013E+00 -0.1068676156053E+01
-0.4274278779473E+00 -0.3942397053001E+01 -0.8739649992128E+00 -0.1069214427302E+01
-0.4154186103730E+00 -0.3647321213818E+01 -0.8125479769461E+00 -0.1083492215896E+01
-0.3733262541781E+00 -0.3337070345483E+01 -0.7420793309900E+00 -0.1116084750251E+01
-0.2850872765596E+00 -0.3015334360081E+01 -0.6600843371642E+00 -0.1171451112409E+01
-0.1290902464837E+00 -0.2689005101336E+01 -0.5636190779624E+00 -0.1252875446303E+01
 0.1225506589197E+00 -0.2369061246635E+01 -0.4493021242382E+00 -0.1360668635601E+01
 0.5040113714573E+00 -0.2070892042544E+01 -0.3133761388871E+00 -0.1489479179909E+01
 0.1054396174972E+01 -0.1813269243122E+01 -0.1517746158916E+00 -0.1624621211704E+01
 0.1811747338319E+01 -0.1616193845181E+01  0.3911069921043E-01 -0.1736264922938E+01
 0.2798985394837E+01 -0.1494976967156E+01  0.2608016894225E+00 -0.1774471963783E+01
 0.4005427783520E+01 -0.1448026059354E+01  0.5114803524549E+00 -0.1673187630548E+01
 0.5373944555854E+01 -0.1447582925454E+01  0.7852723377815E+00 -0.1367454888204E+01
-0.1804875597963E+01 -0.7718988775501E+01 -0.1904772903076E+01 -0.1209873613263E+01
-0.1558887443949E+01 -0.7806801443167E+01 -0.1873137805335E+01 -0.1386645883817E+01
-0.1291037072419E+01 -0.7879548260339E+01 -0.1834117093882E+01 -0.1500698211207E+01
-0.1030786542607E+01 -0.7922381755965E+01 -0.1790633686397E+01 -0.1557301625946E+01
-0.7993244108138E+00 -0.7927347716646E+01 -0.1745334451499E+01 -0.1570232641214E+01
-0.6069962978365E+00 -0.7894044347507E+01 -0.1700208154404E+01 -0.1555416729168E+01
-0.4553020341166E+00 -0.7827251272693E+01 -0.1656510686046E+01 -0.1526323253072E+01
-0.3405227938952E+00 -0.7733873487601E+01 -0.1614879280363E+01 -0.1492226944409E+01
-0.2568543682743E+00 -0.7620706752686E+01 -0.1575512247669E+01 -0.1458490065625E+01
-0.1983482851733E+00 -0.7493336242578E+01 -0.1538336928473E+01 -0.1427652861605E+01
-0.1598127610765E+00 -0.7355856814723E+01 -0.1503133937558E+01 -0.1400550614702E+01
-0.1370588230158E+00 -0.7211011969239E+01 -0.1469614180350E+01 -0.1377156593566E+01
-0.1268120512543E+00 -0.7060482138525E+01 -0.1437458859376E+01 -0.1357122450954E+01
-0.1264858227002E+00 -0.6905192844455E+01 -0.1406335754387E+01 -0.1340075695609E+01
-0.1339272115103E+00 -0.6745587663149E+01 -0.1375902995434E+01 -0.1325734265653E+01
-0.1472126102527E+00 -0.6581849111651E+01 -0.1345812364435E+01 -0.1313883712130E+01
-0.1645510956647E+00 -0.6414405827730E+01 -0.1315791404286E+01 -0.1304187763170E+01
-0.1843244904974E+00 -0.6244291378496E+01 -0.1285723192957E+01 -0.1295967260191E+01
-0.2052315808778E+00 -0.6072306111748E+01 -0.1255507557234E+01 -0.1288310555690E+01
-0.2264318149200E+00 -0.5898259214862E+01 -0.1224938224209E+01 -0.1280335865225E+01
-0.2475887218567E+00 -0.5721193115127E+01 -0.1193756385185E+01 -0.1271309231803E+01
-0.2687898147011E+00 -0.5539710650218E+01 -0.1161700110295E+01 -0.1260751546803E+01
-0.2903628239132E+00 -0.5352203211146E+01 -0.1128513223828E+01 -0.1248532788464E+01
-0.3126374244072E+00 -0.5156995061447E+01 -0.1093926513472E+01 -0.1234925953970E+01
-0.3356960233791E+00 -0.4952429899915E+01 -0.1057625200419E+01 -0.1220622341162E+01
-0.3591286080202E+00 -0.4736934732253E+01 -0.1019212683242E+01 -0.1206730845967E+01
-0.3817789073165E+00 -0.4509084792198E+01 -0.9781727544789E+00 -0.1194783533956E+01
-0.4014470445158E+00 -0.4267581353167E+01 -0.9338056934514E+00 -0.1186808609495E+01
-0.4145008518872E+00 -0.4011288525355E+01 -0.8851578886383E+00 -0.1185439298648E+01
-0.4153574482039E+00 -0.3739603585431E+01 -0.8309922191098E+00 -0.1193895710611E+01
-0.3958281101135E+00 -0.3452970172903E+01 -0.7697596680737E+00 -0.1215834112814E+01
-0.3443498055756E+00 -0.3153429167117E+01 -0.6995558049627E+00 -0.1255043773031E+01
-0.2451697902869E+00 -0.2845305666014E+01 -0.6180951004705E+00 -0.1314820536120E+01
-0.7763848462562E-01 -0.2535960407869E+01 -0.5227197862881E+00 -0.1396859594723E+01
 0.1840986865498E+00 -0.2236383210147E+01 -0.4104569108357E+00 -0.1499516130354E+01
 0.5705960576293E+00 -0.1961120875935E+01 -0.2781049678052E+00 -0.1615412755076E+01
 0.1115286424717E+01 -0.1726870966770E+01 -0.1223169102333E+00 -0.1728473269376E+01
 0.1848705492548E+01 -0.1550161659942E+01  0.5970876741103E-01 -0.1809618377171E+01
 0.2786761621716E+01 -0.1442204752942E+01  0.2689113777619E+00 -0.1813706224674E+01
 0.3915931298481E+01 -0.1399643389926E+01  0.5032575892102E+00 -0.1684711197380E+01
 0.5185575349199E+01 -0.1396371569447E+01  0.7578407672431E+00 -0.1368234261263E+01
-0.1727800886769E+01 -0.7366368599355E+01 -0.1818833924328E+01 -0.1177495912184E+01
-0.1503409250680E+01 -0.7446972376814E+01 -0.1790076352173E+01 -0.1356323980240E+01
-0.1257632276100E+01 -0.7515053056094E+01 -0.1754537092583E+01 -0.1478490655573E+01
-0.1016041864085E+01 -0.7557464118339E+01 -0.1714701222036E+01 -0.1547529600995E+01
-0.7978809085031E+00 -0.7566481267602E+01 -0.1672872460149E+01 -0.1574474065725E+01
-0.6135355120113E+00 -0.7540694550955E+01 -0.1630846036895E+01 -0.1572881367560E+01
-0.4656837068299E+00 -0.7483401739513E+01 -0.1589817112959E+01 -0.1554887078711E+01
-0.3520480451075E+00 -0.7400192385453E+01 -0.1550448109216E+01 -0.1529403271328E+01
-0.2680283429374E+00 -0.7296983948007E+01 -0.1513002480734E+01 -0.1502028969015E+01
-0.2084939070926E+00 -0.7178910343126E+01 -0.1477480872060E+01 -0.1475787100737E+01
-0.1687249967283E+00 -0.7049919363802E+01 -0.1443728893619E+01 -0.1452021819891E+01
-0.1447579634499E+00 -0.6912786203066E+01 -0.1411508854336E+01 -0.1431141106811E+01
-0.1333920905510E+00 -0.6769311734478E+01 -0.1380540785577E+01 -0.1413126541602E+01
-0.1320381643855E+00 -0.6620573994836E+01 -0.1350522451969E+01 -0.1397831872533E+01
-0.1385216234107E+00 -0.6467165063551E+01 -0.1321137357079E+01 -0.1385113330022E+01
-0.1509180125103E+00 -0.6309387697002E+01 -0.1292061161156E+01 -0.1374833665507E+01
-0.1674738647974E+00 -0.6147732038317E+01 -0.1263041199444E+01 -0.1366715402415E+01
-0.1866359181879E+00 -0.5983220066438E+01 -0.1233971215313E+01 -0.1360161464096E+01
-0.2071603033428E+00 -0.5816621578098E+01 -0.1204756394240E+01 -0.1354370838631E+01
-0.2282193346230E+00 -0.5647750718543E+01 -0.1175194028145E+01 -0.1348583295672E+01
-0.2494271020330E+00 -0.5475689804890E+01 -0.1145023398447E+01 -0.1342180809861E+01
-0.2707639250490E+00 -0.5299101048916E+01 -0.1113973011392E+01 -0.1334778831877E+01
-0.2924109362085E+00 -0.5116440779140E+01 -0.1081770359189E+01 -0.1326312580457E+01
-0.3145310275680E+00 -0.4926098142624E+01 -0.1048125849657E+01 -0.1317092553372E+01
-0.3370307263289E+00 -0.4726486978463E+01 -0.1012703556049E+01 -0.1307825718820E+01
-0.3593160788000E+00 -0.4516124402362E+01 -0.9750881107624E+00 -0.1299617160007E+01
-0.3800338810514E+00 -0.4293716147753E+01 -0.9347500196898E+00 -0.1293967948551E+01
-0.3967701943721E+00 -0.4058163796258E+01 -0.8909868114027E+00 -0.1292822669050E+01
-0.4056690991128E+00 -0.3808629093986E+01 -0.8428596511793E+00 -0.1298635529861E+01
-0.4009468050339E+00 -0.3544906915464E+01 -0.7891707558592E+00 -0.1314301626687E+01
-0.3743038558319E+00 -0.3267920051158E+01 -0.7284447922527E+00 -0.1342947125074E+01
-0.3142707058514E+00 -0.2980226794352E+01 -0.6588995098591E+00 -0.1387561022710E+01
-0.2055710376112E+00 -0.2686613728310E+01 -0.5784369618036E+00 -0.1450316797862E+01
-0.2867395903369E-01 -0.2394677763063E+01 -0.4846703516415E+00 -0.1531462149228E+01
 0.2401757570298E+00 -0.2115162922947E+01 -0.3749974387713E+00 -0.1627693663453E+01
 0.6280943117507E+00 -0.1861585768697E+01 -0.2466982950654E+00 -0.1730091491684E+01
 0.1163485345641E+01 -0.1648619953497E+01 -0.9702692301699E-01 -0.1821801477745E+01
 0.1870777905910E+01 -0.1489789812670E+01  0.7619761978347E-01 -0.1874905732728E+01
 0.2760350325113E+01 -0.1393182037426E+01  0.2734336616120E+00 -0.1848820079116E+01
 0.3818477866276E+01 -0.1354280815398E+01  0.4928394175196E+00 -0.1695305518044E+01
 0.4995778721882E+01 -0.1350392740869E+01  0.7290772070669E+00 -0.1370932062062E+01
-0.1651101622473E+01 -0.7019735207057E+01 -0.1734167391747E+01 -0.1147903527378E+01
-0.1446162702327E+01 -0.7093739924800E+01 -0.1707980550876E+01 -0.1328345765714E+01
-0.1220540890526E+01 -0.7157278410781E+01 -0.1675563885229E+01 -0.1457382094638E+01
-0.9965087816177E+00 -0.7198702711502E+01 -0.1639042323047E+01 -0.1537230152734E+01
-0.7914777008899E+00 -0.7210649255385E+01 -0.1600425415103E+01 -0.1576703785017E+01
-0.6156181879339E+00 -0.7191026158113E+01 -0.1561328892475E+01 -0.1587311090331E+01
-0.4724257181343E+00 -0.7141958690665E+01 -0.1522876904453E+01 -0.1579905802557E+01
-0.3607821474904E+00 -0.7067900109895E+01 -0.1485736473616E+01 -0.1562924572372E+01
-0.2771379862939E+00 -0.6973939335583E+01 -0.1450215485985E+01 -0.1542046426051E+01
-0.2171286767937E+00 -0.6864730837287E+01 -0.1416371923922E+01 -0.1520645571000E+01
-0.1765122953359E+00 -0.6744018171775E+01 -0.1384106114047E+01 -0.1500488103023E+01
-0.1515805719691E+00 -0.6614550088869E+01 -0.1353226152332E+01 -0.1482367917437E+01
-0.1392427885698E+00 -0.6478198982210E+01 -0.1323488373878E+01 -0.1466573750295E+01
-0.1369411597589E+00 -0.6336156825859E+01 -0.1294619616415E+01 -0.1453179583589E+01
-0.1425063165596E+00 -0.6189134896412E+01 -0.1266328261464E+01 -0.1442185147556E+01
-0.1540287346018E+00 -0.6037535902610E+01 -0.1238312945895E+01 -0.1433542433188E+01
-0.1697954487203E+00 -0.5881900508193E+01 -0.1210339209418E+01 -0.1427046045218E+01
-0.1883113080124E+00 -0.5723236523203E+01 -0.1182309583861E+01 -0.1422189644525E+01
-0.2083803940626E+00 -0.5562285811920E+01 -0.1154133258395E+01 -0.1418284202402E+01
-0.2291832543379E+00 -0.5398871636634E+01 -0.1125610994967E+01 -0.1414686860745E+01
-0.2502877177868E+00 -0.5232120797486E+01 -0.1096481719393E+01 -0.1410889858469E+01
-0.2715761226286E+00 -0.5060761465197E+01 -0.1066467533457E+01 -0.1406599124711E+01
-0.2930943553779E+00 -0.4883325597144E+01 -0.1035284005931E+01 -0.1401812679546E+01
-0.3148491890746E+00 -0.4698282729246E+01 -0.1002626398604E+01 -0.1396875147287E+01
-0.3365811728353E+00 -0.4504135780630E+01 -0.9681434051195E+00 -0.1392501325316E+01
-0.3575243230482E+00 -0.4299511160192E+01 -0.9314071105272E+00 -0.1389777252334E+01
-0.3761472559807E+00 -0.4083260062957E+01 -0.8918814770775E+00 -0.1390149048763E+01
-0.3898535640512E+00 -0.3854489416452E+01 -0.8488686087497E+00 -0.1395445803622E+01
-0.3946140439250E+00 -0.3612646785067E+01 -0.8014521777409E+00 -0.1407906185011E+01
-0.3845180201722E+00 -0.3357888287633E+01 -0.7484812727144E+00 -0.1430065459863E+01
-0.3512550956241E+00 -0.3091546429869E+01 -0.6885603153589E+00 -0.1464497308566E+01
-0.2835720908861E+00 -0.2816585825449E+01 -0.6200315925063E+00 -0.1513397841307E+01
-0.1668010238272E+00 -0.2538097639938E+01 -0.5409797408142E+00 -0.1577881914752E+01
 0.1736604455339E-01 -0.2263722570608E+01 -0.4492713119057E+00 -0.1656905526995E+01
 0.2905868089972E+00 -0.2003771382614E+01 -0.3426369198290E+00 -0.1745788763308E+01
 0.6767678549361E+00 -0.1770634250714E+01 -0.2187732824156E+00 -0.1834481073718E+01
 0.1199935265187E+01 -0.1577074687750E+01 -0.7542788563653E-01 -0.1905806427388E+01
 0.1879436718180E+01 -0.1434070995366E+01  0.8907314589003E-01 -0.1933257701260E+01
 0.2721894075662E+01 -0.1347271452222E+01  0.2749245287848E+00 -0.1880369346789E+01
 0.3712255759530E+01 -0.1311583604701E+01  0.4801344381203E+00 -0.1705386089595E+01
 0.4812082361529E+01 -0.1307517406765E+01  0.7009130013972E+00 -0.1372942567282E+01
-0.1574776915967E+01 -0.6678457270568E+01 -0.1650646861903E+01 -0.1120834933855E+01
-0.1387442430936E+01 -0.6746409612530E+01 -0.1626770432934E+01 -0.1302545108996E+01
-0.1180281342792E+01 -0.6805571116245E+01 -0.1597170515607E+01 -0.1437426894870E+01
-0.9727553373196E+00 -0.6845611724321E+01 -0.1563673435629E+01 -0.1526695452937E+01
-0.7805777157480E+00 -0.6859601987893E+01 -0.1528035963498E+01 -0.1577364905136E+01
-0.6135336926440E+00 -0.6845011983249E+01 -0.1491709157407E+01 -0.1599180671460E+01
-0.4756533141753E+00 -0.6803051431892E+01 -0.1455740970906E+01 -0.1601795709903E+01
-0.3667332820731E+00 -0.6737206914618E+01 -0.1420788060510E+01 -0.1593106699850E+01
-0.2841253233928E+00 -0.6651805422869E+01 -0.1387186169923E+01 -0.1578753438277E+01
-0.2241674955264E+00 -0.6551016963789E+01 -0.1355036912055E+01 -0.1562349148318E+01
-0.1830871194604E+00 -0.6438342080108E+01 -0.1324285859647E+01 -0.1546000403852E+01
-0.1574500402041E+00 -0.6316456092089E+01 -0.1294781245752E+01 -0.1530836978000E+01
-0.1443041345616E+00 -0.6187259648495E+01 -0.1266312775481E+01 -0.1517428741463E+01
-0.1411519131760E+00 -0.6052022804030E+01 -0.1238634961898E+01 -0.1506060563354E+01
-0.1458526351986E+00 -0.5911548285096E+01 -0.1211480202111E+01 -0.1496877634157E+01
-0.1565258968131E+00 -0.5766319485891E+01 -0.1184569094192E+01 -0.1489929831531E+01
-0.1715027948034E+00 -0.5616916997685E+01 -0.1157683975749E+01 -0.1485093837442E+01
-0.1893416717408E+00 -0.5464331592877E+01 -0.1130734669773E+01 -0.1481960273897E+01
-0.2088876518450E+00 -0.5309279227163E+01 -0.1103633392247E+01 -0.1479952355682E+01
-0.2293262986216E+00 -0.5151595963214E+01 -0.1076184468403E+01 -0.1478540208601E+01
-0.2501823846763E+00 -0.4990457207293E+01 -0.1048127934012E+01 -0.1477320341250E+01
-0.2712488838233E+00 -0.4824662603026E+01 -0.1019182312557E+01 -0.1476084043869E+01
-0.2924476444347E+00 -0.4652828182045E+01 -0.9890551800340E+00 -0.1474888154099E+01
-0.3136409548268E+00 -0.4473515762635E+01 -0.9574313577592E+00 -0.1474106701608E+01
-0.3344154191830E+00 -0.4285331458052E+01 -0.9239493892148E+00 -0.1474454094419E+01
-0.3538477896418E+00 -0.4087024405166E+01 -0.8881744521964E+00 -0.1476983311189E+01
-0.3702500874463E+00 -0.3877599868847E+01 -0.8495700039183E+00 -0.1483064840801E+01
-0.3808768793085E+00 -0.3656368568538E+01 -0.8074491016012E+00 -0.1494386135083E+01
-0.3815758424221E+00 -0.3423045832715E+01 -0.7609243463661E+00 -0.1512942394849E+01
-0.3663794495896E+00 -0.3178107945202E+01 -0.7088974895216E+00 -0.1540886038566E+01
-0.3270562952510E+00 -0.2923226667938E+01 -0.6500566023243E+00 -0.1580230892394E+01
-0.2526735719402E+00 -0.2661668296914E+01 -0.5828683824563E+00 -0.1632404689718E+01
-0.1292724587240E+00 -0.2398691188700E+01 -0.5055927370188E+00 -0.1697542628789E+01
 0.6017278120811E-01 -0.2141825670166E+01 -0.4163305839954E+00 -0.1773468644287E+01
 0.3352713456676E+00 -0.1900820308657E+01 -0.3131097972637E+00 -0.1854384530883E+01
 0.7169857429040E+00 -0.1686906629030E+01 -0.1939841801158E+00 -0.1929450429928E+01
 0.1225525848480E+01 -0.1511094163462E+01 -0.5711366384738E-01 -0.1981501505223E+01
 0.1876177137380E+01 -0.1382206363242E+01  0.9879415629974E-01 -0.1985567242783E+01
 0.2672435795214E+01 -0.1304046807294E+01  0.2736778016621E+00 -0.1908804857346E+01
 0.3600170977215E+01 -0.1271083556149E+01  0.4658174911544E+00 -0.1715201618735E+01
 0.4623759737596E+01 -0.1267136063709E+01  0.6713247447811E+00 -0.1373379333398E+01
-0.1498819592519E+01 -0.6341987091583E+01 -0.1568161360188E+01 -0.1096061561698E+01
-0.1327487435545E+01 -0.6404376932270E+01 -0.1546372896606E+01 -0.1278767033321E+01
-0.1137288503109E+01 -0.6459349405181E+01 -0.1519327604298E+01 -0.1418645881315E+01
-0.9452776792038E+00 -0.6497733709522E+01 -0.1488602299927E+01 -0.1516145646316E+01
-0.7656089950893E+00 -0.6513070177967E+01 -0.1455735856303E+01 -0.1576817126304E+01
-0.6075743527633E+00 -0.6502572043524E+01 -0.1422029300447E+01 -0.1608895611725E+01
-0.4755188306685E+00 -0.6466744396939E+01 -0.1388452666211E+01 -0.1620929335016E+01
-0.3699455937161E+00 -0.6408262164740E+01 -0.1355641571892E+01 -0.1620245901413E+01
-0.2889670465486E+00 -0.6330765348624E+01 -0.1323946498763E+01 -0.1612358376971E+01
-0.2295540876076E+00 -0.6237951193913E+01 -0.1293501075579E+01 -0.1601025681622E+01
-0.1883839717093E+00 -0.6133053772397E+01 -0.1264287567661E+01 -0.1588621005993E+01
-0.1623056666050E+00 -0.6018638501829E+01 -0.1236188852107E+01 -0.1576560946883E+01
-0.1485269755002E+00 -0.5896597163389E+01 -0.1209024845794E+01 -0.1565668697448E+01
-0.1446344807081E+00 -0.5768245443778E+01 -0.1182576002519E+01 -0.1556428033481E+01
-0.1485361698581E+00 -0.5634451774976E+01 -0.1156597606202E+01 -0.1549128627380E+01
-0.1583933916969E+00 -0.5495762130578E+01 -0.1130831121306E+01 -0.1543923749370E+01
-0.1725851915359E+00 -0.5352786814704E+01 -0.1105074417715E+01 -0.1540779160848E+01
-0.1897205410099E+00 -0.5206496370327E+01 -0.1079243398349E+01 -0.1539386447690E+01
-0.2086807596522E+00 -0.5057582209925E+01 -0.1053252609610E+01 -0.1539280258575E+01
-0.2286544849066E+00 -0.4905896269921E+01 -0.1026910166268E+01 -0.1540039051222E+01
-0.2491268172353E+00 -0.4750666083887E+01 -0.9999585951251E+00 -0.1541357373419E+01
-0.2698096048109E+00 -0.4590767231468E+01 -0.9721153817414E+00 -0.1543106051702E+01
-0.2905117609848E+00 -0.4424906277226E+01 -0.9430836216953E+00 -0.1545395687875E+01
-0.3109634502184E+00 -0.4251746079722E+01 -0.9125419195860E+00 -0.1548624119889E+01
-0.3306109851935E+00 -0.4070005866505E+01 -0.8801233834546E+00 -0.1553497140321E+01
-0.3483907535158E+00 -0.3878565959814E+01 -0.8453913552633E+00 -0.1561022097571E+01
-0.3624817207436E+00 -0.3676588913005E+01 -0.8078141387870E+00 -0.1572476503624E+01
-0.3700237270737E+00 -0.3463582359591E+01 -0.7667212287580E+00 -0.1589385585328E+01
-0.3667901145898E+00 -0.3239506808310E+01 -0.7212593953276E+00 -0.1613481172056E+01
-0.3468214957136E+00 -0.3005115134675E+01 -0.6703873360672E+00 -0.1646520344226E+01
-0.3020448071256E+00 -0.2762349517470E+01 -0.6128788740517E+00 -0.1689962269108E+01
-0.2219332896079E+00 -0.2514682233980E+01 -0.5473231128733E+00 -0.1744503690315E+01
-0.9331010015243E-01 -0.2267421689089E+01 -0.4721463648838E+00 -0.1809387973303E+01
 0.9954448687401E-01 -0.2027868425582E+01 -0.3856647934885E+00 -0.1881462944010E+01
 0.3742765933699E+00 -0.1805126358156E+01 -0.2861699572215E+00 -0.1954042135890E+01
 0.7491697226032E+00 -0.1609282846830E+01 -0.1720226274087E+00 -0.2015772067658E+01
 0.1241158608712E+01 -0.1449760122554E+01 -0.4172030339007E-01 -0.2049742043257E+01
 0.1862166288907E+01 -0.1333589688083E+01  0.1057153217401E+00 -0.2032523390941E+01
 0.2613599278482E+01 -0.1263103690882E+01  0.2700991215447E+00 -0.1934586786851E+01
 0.3481603164627E+01 -0.1232808624679E+01  0.4497589146916E+00 -0.1724289861557E+01
 0.4435701510780E+01 -0.1227746736282E+01  0.6415909644601E+00 -0.1375141608505E+01
-0.1423218012792E+01 -0.6009844570783E+01 -0.1486612538867E+01 -0.1073382783876E+01
-0.1266492926053E+01 -0.6067110915994E+01 -0.1466720790265E+01 -0.1256868238045E+01
-0.1091929105046E+01 -0.6118092612239E+01 -0.1442004364945E+01 -0.1401036829437E+01
-0.9145095703208E+00 -0.6154640267534E+01 -0.1413829988639E+01 -0.1505745477733E+01
-0.7469646438396E+00 -0.6170775263798E+01 -0.1383548002144E+01 -0.1575351729939E+01
-0.5980286604035E+00 -0.6163587747270E+01 -0.1352323301686E+01 -0.1616800535760E+01
-0.4721929738132E+00 -0.6133049782736E+01 -0.1321048570995E+01 -0.1637637086500E+01
-0.3704918708391E+00 -0.6081162898015E+01 -0.1290330972998E+01 -0.1644616186783E+01
-0.2916696973242E+00 -0.6010957433867E+01 -0.1260525445022E+01 -0.1643062783736E+01
-0.2332583877298E+00 -0.5925681000991E+01 -0.1231787896099E+01 -0.1636805914635E+01
-0.1923582519076E+00 -0.5828290049381E+01 -0.1204129678201E+01 -0.1628420236223E+01
-0.1661023515451E+00 -0.5721213093763E+01 -0.1177463106607E+01 -0.1619562701489E+01
-0.1518731709170E+00 -0.5606302106089E+01 -0.1151635072562E+01 -0.1611281453766E+01
-0.1473602999628E+00 -0.5484889731283E+01 -0.1126450023035E+01 -0.1604245277776E+01
-0.1505373505946E+00 -0.5357886655141E+01 -0.1101684817563E+01 -0.1598884814447E+01
-0.1596185271942E+00 -0.5225884605404E+01 -0.1077100642570E+01 -0.1595459413698E+01
-0.1730348584512E+00 -0.5089513796246E+01 -0.1052509746623E+01 -0.1594028236622E+01
-0.1894444598865E+00 -0.4949721051672E+01 -0.1027833117628E+01 -0.1594385825581E+01
-0.2077616909252E+00 -0.4807173948118E+01 -0.1002987142754E+01 -0.1596176423193E+01
-0.2271774426945E+00 -0.4661742696072E+01 -0.9777840423235E+00 -0.1599081867588E+01
-0.2471407882260E+00 -0.4512709798907E+01 -0.9519701316121E+00 -0.1602888345212E+01
-0.2672904575164E+00 -0.4359030212461E+01 -0.9252641477830E+00 -0.1607539939593E+01
-0.2873334432648E+00 -0.4199505726400E+01 -0.8973678473048E+00 -0.1613195278492E+01
-0.3068806550188E+00 -0.4032906283851E+01 -0.8679574007076E+00 -0.1620269933364E+01
-0.3252529307744E+00 -0.3858070545179E+01 -0.8366647076580E+00 -0.1629453160773E+01
-0.3412646780708E+00 -0.3674014246570E+01 -0.8030557968947E+00 -0.1641695721908E+01
-0.3529865178460E+00 -0.3480055991612E+01 -0.7666085133150E+00 -0.1658168114810E+01
-0.3574778618515E+00 -0.3275889308076E+01 -0.7266734448137E+00 -0.1680218010181E+01
-0.3504842671820E+00 -0.3061694272615E+01 -0.6824357181285E+00 -0.1709301271575E+01
-0.3261137356884E+00 -0.2838456099538E+01 -0.6329139764764E+00 -0.1746776302721E+01
-0.2765201645314E+00 -0.2608322082853E+01 -0.5769684580743E+00 -0.1793562965514E+01
-0.1916512854440E+00 -0.2374885074203E+01 -0.5133072795784E+00 -0.1849673511319E+01
-0.5916103831572E-01 -0.2143406141042E+01 -0.4405134424357E+00 -0.1913551070558E+01
 0.1353689567572E+00 -0.1920866727048E+01 -0.3570995593793E+00 -0.1981214774167E+01
 0.4077275513125E+00 -0.1715680514728E+01 -0.2615905965810E+00 -0.2045289610469E+01
 0.7737864384315E+00 -0.1536834026755E+01 -0.1526095199388E+00 -0.2094129432646E+01
 0.1247660722710E+01 -0.1392336670900E+01 -0.2893519006920E-01 -0.2111236853839E+01
 0.1838571559847E+01 -0.1287718264663E+01  0.1101706606786E+00 -0.2074711130750E+01
 0.2546324829943E+01 -0.1224230666349E+01  0.2644188366590E+00 -0.1957889906538E+01
 0.3357786395219E+01 -0.1196336132317E+01  0.4322900590220E+00 -0.1732997011821E+01
 0.4246681280955E+01 -0.1190889194127E+01  0.6111584264726E+00 -0.1377127725762E+01
-0.1347957360299E+01 -0.5681604711998E+01 -0.1405912435409E+01 -0.1052621852517E+01
-0.1204619365486E+01 -0.5734141085301E+01 -0.1387752110836E+01 -0.1236717023498E+01
-0.1044514111144E+01 -0.5781332236618E+01 -0.1365169289895E+01 -0.1384581939739E+01
-0.8808309513203E+00 -0.5815931204968E+01 -0.1339352451216E+01 -0.1495617063883E+01
-0.7250041714636E+00 -0.5832436329778E+01 -0.1311488119791E+01 -0.1573204029803E+01
-0.5851768301244E+00 -0.5827912710803E+01 -0.1282617927298E+01 -0.1623187133922E+01
-0.4658580662763E+00 -0.5801938055636E+01 -0.1253559243062E+01 -0.1652209864386E+01
-0.3684672852573E+00 -0.5755961628180E+01 -0.1224885800940E+01 -0.1666468122967E+01
-0.2922651392458E+00 -0.5692479869032E+01 -0.1196949019491E+01 -0.1671058368988E+01
-0.2352737999235E+00 -0.5614321126297E+01 -0.1169919002677E+01 -0.1669820164992E+01
-0.1949848534431E+00 -0.5524162616007E+01 -0.1143829510935E+01 -0.1665473543824E+01
-0.1688100484128E+00 -0.5424277173301E+01 -0.1118617461011E+01 -0.1659873002566E+01
-0.1543155609856E+00 -0.5316451920361E+01 -0.1094153512574E+01 -0.1654263689214E+01
-0.1493084744204E+00 -0.5202011674348E+01 -0.1070264045702E+01 -0.1649484256911E+01
-0.1518419097291E+00 -0.5081888370337E+01 -0.1046746071611E+01 -0.1646100712631E+01
-0.1601925429107E+00 -0.4956704034033E+01 -0.1023379330638E+01 -0.1644478714217E+01
-0.1728474135600E+00 -0.4827099453565E+01 -0.9999893883261E+00 -0.1644772777313E+01
-0.1885133561859E+00 -0.4693994006596E+01 -0.9765014871075E+00 -0.1646880592695E+01
-0.2061359867637E+00 -0.4558031523858E+01 -0.9528335163227E+00 -0.1650553184437E+01
-0.2249085951183E+00 -0.4419102205044E+01 -0.9288021738728E+00 -0.1655570504151E+01
-0.2442481600778E+00 -0.4276545655499E+01 -0.9041587765884E+00 -0.1661803857649E+01
-0.2637281585956E+00 -0.4129398666993E+01 -0.8786253782102E+00 -0.1669264047159E+01
-0.2829645806177E+00 -0.3976561378104E+01 -0.8519052044388E+00 -0.1678151611288E+01
-0.3014622580136E+00 -0.3816914527553E+01 -0.8236753693870E+00 -0.1688893628929E+01
-0.3184321280602E+00 -0.3649419475826E+01 -0.7935703326024E+00 -0.1702155457458E+01
-0.3325859124021E+00 -0.3473228081529E+01 -0.7611628101284E+00 -0.1718822034337E+01
-0.3419110876219E+00 -0.3287810179105E+01 -0.7259442641628E+00 -0.1739946016925E+01
-0.3434202187221E+00 -0.3093031100070E+01 -0.6872902739998E+00 -0.1766687063359E+01
-0.3328747486734E+00 -0.2889263130707E+01 -0.6444275854788E+00 -0.1800218991760E+01
-0.3045031974264E+00 -0.2677680314652E+01 -0.5964367113033E+00 -0.1841505936542E+01
-0.2507445558915E+00 -0.2460574583604E+01 -0.5422638359795E+00 -0.1890951720721E+01
-0.1620738760081E+00 -0.2241584778038E+01 -0.4807317379726E+00 -0.1947936482625E+01
-0.2700436686771E-01 -0.2025845586338E+01 -0.4105699967590E+00 -0.2010194685539E+01
 0.1676065166816E+00 -0.1819955586498E+01 -0.3304698188877E+00 -0.2073052382935E+01
 0.4358096331633E+00 -0.1631620087976E+01 -0.2391620945264E+00 -0.2128616842736E+01
 0.7913158833099E+00 -0.1468787964286E+01 -0.1354944182143E+00 -0.2165120162140E+01
 0.1245830257656E+01 -0.1338219449477E+01 -0.1847783863948E-01 -0.2166586045108E+01
 0.1806378571733E+01 -0.1244208459765E+01  0.1124340240691E+00 -0.2112566969944E+01
 0.2471621955016E+01 -0.1187168586058E+01  0.2568906776195E+00 -0.1978938317404E+01
 0.3229296509548E+01 -0.1161712389531E+01  0.4135168301653E+00 -0.1741167210514E+01
 0.4056543321623E+01 -0.1156339604893E+01  0.5800407519893E+00 -0.1379085681045E+01
-0.1273020558601E+01 -0.5356887766864E+01 -0.1325981684852E+01 -0.1033622584743E+01
-0.1141999440414E+01 -0.5405046996623E+01 -0.1309409306919E+01 -0.1218192887542E+01
-0.9953086632155E+00 -0.5448644278383E+01 -0.1288790607524E+01 -0.1369253187622E+01
-0.8445755050372E+00 -0.5481232842472E+01 -0.1265161688354E+01 -0.1485849726127E+01
-0.7000556312621E+00 -0.5497774620299E+01 -0.1239566068783E+01 -0.1570563642207E+01
-0.5692880792816E+00 -0.5495380931694E+01 -0.1212933820269E+01 -0.1628301420293E+01
-0.4567029179385E+00 -0.5473346577779E+01 -0.1186009916816E+01 -0.1664902198892E+01
-0.3639841468611E+00 -0.5432673289849E+01 -0.1159331504617E+01 -0.1686028655415E+01
-0.2908064318299E+00 -0.5375395308558E+01 -0.1133240364964E+01 -0.1696524986991E+01
-0.2356144673058E+00 -0.5303956132425E+01 -0.1107914136455E+01 -0.1700195693378E+01
-0.1962566034755E+00 -0.5220759244718E+01 -0.1083403185783E+01 -0.1699858978078E+01
-0.1704130279481E+00 -0.5127909935529E+01 -0.1059664608486E+01 -0.1697528356695E+01
-0.1558377687204E+00 -0.5027110848770E+01 -0.1036589738944E+01 -0.1694619213061E+01
-0.1504659147200E+00 -0.4919657996349E+01 -0.1014024797324E+01 -0.1692124285210E+01
-0.1524412130291E+00 -0.4806486047369E+01 -0.9917854668583E+00 -0.1690737703477E+01
-0.1601110021288E+00 -0.4688233289657E+01 -0.9696688728063E+00 -0.1690929574066E+01
-0.1720222258065E+00 -0.4565542274931E+01 -0.9475129142665E+00 -0.1692949668852E+01
-0.1869308048220E+00 -0.4439301045985E+01 -0.9252463839486E+00 -0.1696797424477E+01
-0.2038129245576E+00 -0.4310129227442E+01 -0.9027884438524E+00 -0.1702326933527E+01
-0.2218652295966E+00 -0.4177938061939E+01 -0.8799606714196E+00 -0.1709410680049E+01
-0.2404768160739E+00 -0.4042125682925E+01 -0.8565205125629E+00 -0.1717998493984E+01
-0.2591636737656E+00 -0.3901812256052E+01 -0.8321951983643E+00 -0.1728161250455E+01
-0.2774615824408E+00 -0.3755998009927E+01 -0.8066919304942E+00 -0.1740135149530E+01
-0.2947825972530E+00 -0.3603676203425E+01 -0.7796917717540E+00 -0.1754352659702E+01
-0.3102437270798E+00 -0.3443931620749E+01 -0.7508350807540E+00 -0.1771448624809E+01
-0.3224737103773E+00 -0.3276050088831E+01 -0.7197047705661E+00 -0.1792234692961E+01
-0.3294019876490E+00 -0.3099645074879E+01 -0.6858094227249E+00 -0.1817637908868E+01
-0.3280265653586E+00 -0.2914737499568E+01 -0.6485528226496E+00 -0.1848623898880E+01
-0.3141651134319E+00 -0.2721863820282E+01 -0.6072057957909E+00 -0.1886084041829E+01
-0.2822135555775E+00 -0.2522345211023E+01 -0.5609117616784E+00 -0.1930598995363E+01
-0.2249441989245E+00 -0.2318563361639E+01 -0.5087015196930E+00 -0.1982085700194E+01
-0.1333984125004E+00 -0.2114139227548E+01 -0.4495075347080E+00 -0.2039347803555E+01
 0.3039340692067E-02 -0.1914018591561E+01 -0.3821958558690E+00 -0.2099499813129E+01
 0.1962765786345E+00 -0.1724374300246E+01 -0.3056195488764E+00 -0.2157297079355E+01
 0.4587503395947E+00 -0.1552205704026E+01 -0.2186910761449E+00 -0.2204472336153E+01
 0.8022454591374E+00 -0.1404496821051E+01 -0.1204502741777E+00 -0.2229267008834E+01
 0.1236408549097E+01 -0.1286914147471E+01 -0.1010111982530E-01 -0.2216287262983E+01
 0.1766487548939E+01 -0.1202732508106E+01  0.1127510098468E+00 -0.2146449305383E+01
 0.2390345770319E+01 -0.1151743748998E+01  0.2477204079555E+00 -0.1997855642053E+01
 0.3096617063941E+01 -0.1128820349773E+01  0.3935593486981E+00 -0.1748664717792E+01
 0.3865243318852E+01 -0.1123864859061E+01  0.5482757001281E+00 -0.1380876462225E+01
-0.1198388928528E+01 -0.5035351376385E+01 -0.1246748079561E+01 -0.1016246645360E+01
-0.1078743484127E+01 -0.5079449796138E+01 -0.1231638674406E+01 -0.1201185956909E+01
-0.9445401223573E+00 -0.5119642693105E+01 -0.1212836581165E+01 -0.1355016167361E+01
-0.8060372599334E+00 -0.5150195893920E+01 -0.1191246648522E+01 -0.1476507581860E+01
-0.6724181657817E+00 -0.5166516359041E+01 -0.1167786922366E+01 -0.1567582917796E+01
-0.5506191523602E+00 -0.5165812908327E+01 -0.1143286429174E+01 -0.1632350215014E+01
-0.4449190142104E+00 -0.5147186617752E+01 -0.1118421143058E+01 -0.1675935590393E+01
-0.3571675861928E+00 -0.5111281309228E+01 -0.1093689795381E+01 -0.1703501636934E+01
-0.2873641589047E+00 -0.5059735224166E+01 -0.1069419892550E+01 -0.1719629384715E+01
-0.2343126501548E+00 -0.4994643082637E+01 -0.1045791162142E+01 -0.1728054679372E+01
-0.1961826314891E+00 -0.4918145197203E+01 -0.1022865580980E+01 -0.1731655057313E+01
-0.1709090084845E+00 -0.4832173078246E+01 -0.1000616432256E+01 -0.1732569102867E+01
-0.1564338610932E+00 -0.4738330064759E+01 -0.9789527997581E+00 -0.1732357378025E+01
-0.1508273460854E+00 -0.4637865977819E+01 -0.9577386790523E+00 -0.1732150786559E+01
-0.1523324639895E+00 -0.4531702146195E+01 -0.9368069359964E+00 -0.1732763123788E+01
-0.1593740652488E+00 -0.4420480518004E+01 -0.9159709302996E+00 -0.1734765359819E+01
-0.1705626606689E+00 -0.4304837176237E+01 -0.8950799807189E+00 -0.1738500671703E+01
-0.1847041947698E+00 -0.4185624860515E+01 -0.8740658240815E+00 -0.1744067445419E+01
-0.2008055947157E+00 -0.4063438057532E+01 -0.8528487431580E+00 -0.1751418310885E+01
-0.2180684790511E+00 -0.3938209493409E+01 -0.8312556068786E+00 -0.1760512404644E+01
-0.2358585140746E+00 -0.3809396581650E+01 -0.8090510312008E+00 -0.1771371447168E+01
-0.2536418768170E+00 -0.3676203551484E+01 -0.7859690973720E+00 -0.1784119750181E+01
-0.2708847581495E+00 -0.3537731257921E+01 -0.7617232145647E+00 -0.1799022979209E+01
-0.2869196903225E+00 -0.3393085536366E+01 -0.7360010563049E+00 -0.1816513181858E+01
-0.3007858100051E+00 -0.3241473238864E+01 -0.7084518203306E+00 -0.1837188957977E+01
-0.3110485539271E+00 -0.3082309743881E+01 -0.6786716696745E+00 -0.1861782971682E+01
-0.3156038595670E+00 -0.2915342494187E+01 -0.6461892803798E+00 -0.1891091738467E+01
-0.3114657225868E+00 -0.2740730478124E+01 -0.6104392492384E+00 -0.1925884802486E+01
-0.2945447700995E+00 -0.2559146464696E+01 -0.5707382554637E+00 -0.1966775571235E+01
-0.2594450627362E+00 -0.2372019628605E+01 -0.5262929461107E+00 -0.2013977132356E+01
-0.1993113067383E+00 -0.2181772497830E+01 -0.4762167680099E+00 -0.2066952835511E+01
-0.1057782584269E+00 -0.1991954456376E+01 -0.4195465492124E+00 -0.2123986590827E+01
 0.3089951752017E-01 -0.1807274273103E+01 -0.3552749564106E+00 -0.2181656925184E+01
 0.2214455317635E+00 -0.1633453033027E+01 -0.2824015044608E+00 -0.2234256988436E+01
 0.4768073213553E+00 -0.1476800844299E+01 -0.1999987075690E+00 -0.2273263402613E+01
 0.8070580989343E+00 -0.1343414328498E+01 -0.1072712475113E+00 -0.2287024233583E+01
 0.1220088117056E+01 -0.1238007250177E+01 -0.3583826677555E-02 -0.2260757226145E+01
 0.1719707964924E+01 -0.1163019028217E+01  0.1113377890004E+00 -0.2176641057100E+01
 0.2303237326649E+01 -0.1117791801074E+01  0.2370891086479E+00 -0.2014718035908E+01
 0.2960177269063E+01 -0.1097502819800E+01  0.3725348954038E+00 -0.1755383059966E+01
 0.3672812360728E+01 -0.1093237632455E+01  0.5159149533422E+00 -0.1382405126992E+01
-0.1124042660921E+01 -0.4716684239811E+01 -0.1168145397553E+01 -0.1000371308379E+01
-0.1014943733622E+01 -0.4757005342603E+01 -0.1154389832447E+01 -0.1185596351681E+01
-0.8924045958235E+00 -0.4793973808824E+01 -0.1137275697876E+01 -0.1341832862590E+01
-0.7654763123283E+00 -0.4822493177039E+01 -0.1117593914527E+01 -0.1467635423347E+01
-0.6423647064552E+00 -0.4838394383740E+01 -0.1096151834373E+01 -0.1564383843592E+01
-0.5294137286418E+00 -0.4839020175744E+01 -0.1073686796876E+01 -0.1635506841137E+01
-0.4306977564277E+00 -0.4823348999627E+01 -0.1050809366869E+01 -0.1685501839479E+01
-0.3481520588519E+00 -0.4791742837988E+01 -0.1027978994686E+01 -0.1719068819408E+01
-0.2820232240181E+00 -0.4745503929963E+01 -0.1005505445779E+01 -0.1740524547129E+01
-0.2314162758602E+00 -0.4686414227960E+01 -0.9835661154204E+00 -0.1753512715098E+01
-0.1947867314542E+00 -0.4616364808176E+01 -0.9622303222645E+00 -0.1760939005856E+01
-0.1703081982764E+00 -0.4537111609722E+01 -0.9414839756289E+00 -0.1765037732305E+01
-0.1561078950692E+00 -0.4450147977729E+01 -0.9212511882874E+00 -0.1767491636091E+01
-0.1503951952188E+00 -0.4356663441387E+01 -0.9014117407533E+00 -0.1769554141143E+01
-0.1515187896846E+00 -0.4257552238297E+01 -0.8818142187363E+00 -0.1772149416306E+01
-0.1579866525037E+00 -0.4153448787838E+01 -0.8622871009174E+00 -0.1775944327090E+01
-0.1684762274559E+00 -0.4044975089557E+01 -0.8426902759596E+00 -0.1781372134670E+01
-0.1818448100143E+00 -0.3932944610006E+01 -0.8229578962670E+00 -0.1788626175947E+01
-0.1971308992837E+00 -0.3817925379218E+01 -0.8030112676661E+00 -0.1797752357262E+01
-0.2135432311194E+00 -0.3699871498076E+01 -0.7826829575019E+00 -0.1808790314553E+01
-0.2304286815306E+00 -0.3578299790099E+01 -0.7617457056768E+00 -0.1821827020724E+01
-0.2472111795961E+00 -0.3452498475135E+01 -0.7399419419722E+00 -0.1837033686903E+01
-0.2632977186866E+00 -0.3321668538318E+01 -0.7169932620850E+00 -0.1854699442927E+01
-0.2779543572144E+00 -0.3185027072410E+01 -0.6925962962453E+00 -0.1875250558420E+01
-0.2901582265942E+00 -0.3041899983290E+01 -0.6664116519072E+00 -0.1899244627379E+01
-0.2984307595176E+00 -0.2891826060455E+01 -0.6380513735021E+00 -0.1927331363623E+01
-0.3006579569035E+00 -0.2734675639094E+01 -0.6070667282456E+00 -0.1960174461936E+01
-0.2938982814939E+00 -0.2570727636175E+01 -0.5729251920710E+00 -0.1998348824502E+01
-0.2741883007648E+00 -0.2400764122870E+01 -0.5349904926989E+00 -0.2042198427013E+01
-0.2363750406539E+00 -0.2226286212195E+01 -0.4925322579090E+00 -0.2091588659381E+01
-0.1740064516090E+00 -0.2049714362518E+01 -0.4447441694526E+00 -0.2145565222722E+01
-0.7932768014875E-01 -0.1874482083782E+01 -0.3907619586089E+00 -0.2201948568903E+01
 0.5654784045987E-01 -0.1705025341411E+01 -0.3296955051031E+00 -0.2256859275719E+01
 0.2432169119434E+00 -0.1546600573454E+01 -0.2606767361866E+00 -0.2304223160941E+01
 0.4902582277498E+00 -0.1404855061699E+01 -0.1829193695156E+00 -0.2335357142993E+01
 0.8062266586361E+00 -0.1285075618564E+01 -0.9576979341267E-01 -0.2338785916883E+01
 0.1197513967568E+01 -0.1191149575106E+01  0.1272878511430E-02 -0.2300344267289E+01
 0.1666768446035E+01 -0.1124834781238E+01  0.1083867345745E+00 -0.2203366037109E+01
 0.2210949657252E+01 -0.1085153105697E+01  0.2251593136662E+00 -0.2029576049589E+01
 0.2820373425428E+01 -0.1067595517674E+01  0.3505555867743E+00 -0.1761238562810E+01
 0.3479318451996E+01 -0.1064252250727E+01  0.4830132474513E+00 -0.1383591935362E+01
-0.1049961157238E+01 -0.4400600963681E+01 -0.1090112440428E+01 -0.9858876055308E+00
-0.9506776999924E+00 -0.4437398562189E+01 -0.1077615268494E+01 -0.1171333541287E+01
-0.8390722626387E+00 -0.4471311560860E+01 -0.1062076780526E+01 -0.1329663647449E+01
-0.7231237645387E+00 -0.4497817311642E+01 -0.1044188230796E+01 -0.1459263284754E+01
-0.6101446704141E+00 -0.4513148959947E+01 -0.1024658741341E+01 -0.1561063682698E+01
-0.5059024453900E+00 -0.4514808627192E+01 -0.1004142229479E+01 -0.1637916072561E+01
-0.4142285316248E+00 -0.4501708620810E+01 -0.9831874451375E+00 -0.1693766234161E+01
-0.3370785609844E+00 -0.4473993217082E+01 -0.9622143699515E+00 -0.1732891124087E+01
-0.2748800992113E+00 -0.4432682237108E+01 -0.9415124812935E+00 -0.1759349488844E+01
-0.2269866977455E+00 -0.4379279619434E+01 -0.9212532771636E+00 -0.1776677729417E+01
-0.1921057657014E+00 -0.4315443154589E+01 -0.9015097974916E+00 -0.1787785324907E+01
-0.1686322887742E+00 -0.4242754799509E+01 -0.8822774308036E+00 -0.1794977438305E+01
-0.1548733738455E+00 -0.4162590684520E+01 -0.8634928245402E+00 -0.1800038244934E+01
-0.1491793721544E+00 -0.4076068870189E+01 -0.8450496610609E+00 -0.1804328630040E+01
-0.1500092190325E+00 -0.3984044909016E+01 -0.8268108379301E+00 -0.1808873342416E+01
-0.1559585051922E+00 -0.3887135864305E+01 -0.8086188859487E+00 -0.1814429100164E+01
-0.1657746371335E+00 -0.3785942679180E+01 -0.7903434750398E+00 -0.1821514718054E+01
-0.1783678340070E+00 -0.3681235645936E+01 -0.7719207074911E+00 -0.1830413464848E+01
-0.1928094840974E+00 -0.3573554716438E+01 -0.7532728513318E+00 -0.1841258623926E+01
-0.2083179796327E+00 -0.3462874781457E+01 -0.7342385631590E+00 -0.1854163937340E+01
-0.2242261671328E+00 -0.3348771648744E+01 -0.7145995738238E+00 -0.1869275018489E+01
-0.2399231463573E+00 -0.3230616787517E+01 -0.6941079971179E+00 -0.1886803607155E+01
-0.2547668079209E+00 -0.3107709950322E+01 -0.6724953616695E+00 -0.1907056594040E+01
-0.2679694365406E+00 -0.2979377061201E+01 -0.6494693092262E+00 -0.1930449667459E+01
-0.2784616013863E+00 -0.2845058786907E+01 -0.6247040869675E+00 -0.1957495663403E+01
-0.2847393446654E+00 -0.2704409941410E+01 -0.5978298661234E+00 -0.1988759030188E+01
-0.2847010228985E+00 -0.2557411790347E+01 -0.5684225711192E+00 -0.2024770725871E+01
-0.2754757479263E+00 -0.2404444991183E+01 -0.5359841558085E+00 -0.2065915470228E+01
-0.2532552451789E+00 -0.2246375261934E+01 -0.4999261088720E+00 -0.2112279682709E+01
-0.2131587911947E+00 -0.2084742945144E+01 -0.4595803541160E+00 -0.2163403882398E+01
-0.1491611449376E+00 -0.1921929359981E+01 -0.4142181071561E+00 -0.2217953501487E+01
-0.5412654543136E-01 -0.1761216273417E+01 -0.3630685691799E+00 -0.2273340155580E+01
 0.7999138591004E-01 -0.1606741348636E+01 -0.3053499970952E+00 -0.2325297923451E+01
 0.2617231772503E+00 -0.1463293514464E+01 -0.2403140710237E+00 -0.2367467212005E+01
 0.4993931390655E+00 -0.1335889648342E+01 -0.1672993043482E+00 -0.2391082509491E+01
 0.8002101252552E+00 -0.1229081655449E+01 -0.8577430731695E-01 -0.2384893240672E+01
 0.1169286158255E+01 -0.1146042079623E+01  0.4648815795508E-02 -0.2335339590724E+01
 0.1608328006702E+01 -0.1087974029818E+01  0.1040707969275E+00 -0.2226802801023E+01
 0.2114067354577E+01 -0.1053674417003E+01  0.2120785906750E+00 -0.2042464693614E+01
 0.2677576095786E+01 -0.1038939901423E+01  0.3277272437563E+00 -0.1766161774015E+01
 0.3284853626448E+01 -0.1036722711977E+01  0.4496261895941E+00 -0.1384364649975E+01
-0.9761232747270E+00 -0.4086837831196E+01 -0.1012592236273E+01 -0.9726987899022E+00
-0.8860108593633E+00 -0.4120338777683E+01 -0.1001269942329E+01 -0.1158315725742E+01
-0.7846917430228E+00 -0.4151353416287E+01 -0.9872090465724E+00 -0.1318468733909E+01
-0.6791859788422E+00 -0.4175878495208E+01 -0.9710129092792E+00 -0.1451410001183E+01
-0.5759865611156E+00 -0.4190528031940E+01 -0.9533029328165E+00 -0.1557699577624E+01
-0.4803033400580E+00 -0.4192980909012E+01 -0.9346568637415E+00 -0.1639698393355E+01
-0.3956974288889E+00 -0.4182128040251E+01 -0.9155651074709E+00 -0.1700870515885E+01
-0.3240924491077E+00 -0.4157949751149E+01 -0.8964084534090E+00 -0.1745110054938E+01
-0.2660404971553E+00 -0.4121230726778E+01 -0.8774542578617E+00 -0.1776229368477E+01
-0.2210966797977E+00 -0.4073229591407E+01 -0.8588652670391E+00 -0.1797649261502E+01
-0.1881881439673E+00 -0.4015387751709E+01 -0.8407151916628E+00 -0.1812264658033E+01
-0.1659134302745E+00 -0.3949117228116E+01 -0.8230061439419E+00 -0.1822430884347E+01
-0.1527526365590E+00 -0.3875672541053E+01 -0.8056850475280E+00 -0.1830015125602E+01
-0.1471969632516E+00 -0.3796091646572E+01 -0.7886577337167E+00 -0.1836471480831E+01
-0.1478185655641E+00 -0.3711181776618E+01 -0.7718000799372E+00 -0.1842915258436E+01
-0.1533041554725E+00 -0.3621534097852E+01 -0.7549676619148E+00 -0.1850186185231E+01
-0.1624737796290E+00 -0.3527722174302E+01 -0.7380392017838E+00 -0.1858883124957E+01
-0.1742922864750E+00 -0.3430469351472E+01 -0.7209523383325E+00 -0.1869373406765E+01
-0.1878656145092E+00 -0.3330285658944E+01 -0.7036302651756E+00 -0.1881871244109E+01
-0.2024246301464E+00 -0.3227165793614E+01 -0.6859180949730E+00 -0.1896557889084E+01
-0.2172929615727E+00 -0.3120743641106E+01 -0.6676073304839E+00 -0.1913631037245E+01
-0.2318321032460E+00 -0.3010472610031E+01 -0.6484609523182E+00 -0.1933336801769E+01
-0.2453605701181E+00 -0.2895749150728E+01 -0.6282219535304E+00 -0.1955994499218E+01
-0.2570490939981E+00 -0.2776004731033E+01 -0.6066107740454E+00 -0.1982005048777E+01
-0.2657965016486E+00 -0.2650789544910E+01 -0.5833172180039E+00 -0.2011833790677E+01
-0.2700911302112E+00 -0.2519866215873E+01 -0.5579914775315E+00 -0.2045959139687E+01
-0.2678644763023E+00 -0.2383314563833E+01 -0.5302358159282E+00 -0.2084781517891E+01
-0.2563400489350E+00 -0.2241599207094E+01 -0.4995878586501E+00 -0.2128502490063E+01
-0.2318902573886E+00 -0.2095645570215E+01 -0.4655071724572E+00 -0.2176965463224E+01
-0.1899308062494E+00 -0.1947003989276E+01 -0.4273869654736E+00 -0.2229411000364E+01
-0.1248805102296E+00 -0.1797985084964E+01 -0.3845731247693E+00 -0.2284162116468E+01
-0.3022472308774E-01 -0.1651690433548E+01 -0.3363830363397E+00 -0.2338273738511E+01
 0.1012666388803E+00 -0.1511942322501E+01 -0.2821351409284E+00 -0.2387158091831E+01
 0.2771189738068E+00 -0.1383066706705E+01 -0.2211895498757E+00 -0.2424240133166E+01
 0.5045088782078E+00 -0.1269485682631E+01 -0.1529953631646E+00 -0.2440732827077E+01
 0.7894513890715E+00 -0.1175086683172E+01 -0.7712705996933E-01 -0.2425641073166E+01
 0.1135963280566E+01 -0.1102424909073E+01  0.6707674398665E-02 -0.2365986962339E+01
 0.1544986500346E+01 -0.1052252163666E+01  0.9854686880440E-01 -0.2247094916067E+01
 0.2013120248279E+01 -0.1023210336311E+01  0.1979819853437E+00 -0.2053408055687E+01
 0.2532134132509E+01 -0.1011386472920E+01  0.3041495364499E+00 -0.1770092089470E+01
 0.3089526975304E+01 -0.1010479414997E+01  0.4158095182575E+00 -0.1384655945659E+01
-0.9025075021696E+00 -0.3775149295161E+01 -0.9355313734065E+00 -0.9607190580754E+00
-0.8209988193540E+00 -0.3805555812946E+01 -0.9253109402482E+00 -0.1146469260559E+01
-0.7293937046368E+00 -0.3833816876946E+01 -0.9126421299161E+00 -0.1308209218870E+01
-0.6338482424356E+00 -0.3856402403385E+01 -0.8980501425461E+00 -0.1444085990329E+01
-0.5401004217166E+00 -0.3870287093336E+01 -0.8820775161545E+00 -0.1554352305130E+01
-0.4528225690802E+00 -0.3873338111226E+01 -0.8652321489542E+00 -0.1640953638423E+01
-0.3752864547113E+00 -0.3864460309037E+01 -0.8479493653852E+00 -0.1706935583328E+01
-0.3093417662510E+00 -0.3843514878002E+01 -0.8305713412272E+00 -0.1755849157591E+01
-0.2556174277127E+00 -0.3811092650873E+01 -0.8133420278368E+00 -0.1791275825999E+01
-0.2138286098966E+00 -0.3768237083818E+01 -0.7964131506104E+00 -0.1816518011003E+01
-0.1830923990141E+00 -0.3716190233006E+01 -0.7798565380248E+00 -0.1834442910382E+01
-0.1621932143106E+00 -0.3656199899079E+01 -0.7636786340576E+00 -0.1847439173169E+01
-0.1497762019595E+00 -0.3589396829491E+01 -0.7478346174336E+00 -0.1857440866831E+01
-0.1444718511437E+00 -0.3516732396293E+01 -0.7322408603985E+00 -0.1865982014154E+01
-0.1449672272017E+00 -0.3438957618343E+01 -0.7167849797899E+00 -0.1874258456001E+01
-0.1500428150821E+00 -0.3356630419706E+01 -0.7013346574083E+00 -0.1883185517412E+01
-0.1585936295151E+00 -0.3270291307335E+01 -0.6857769975889E+00 -0.1893435840883E+01
-0.1696409008595E+00 -0.3180613084875E+01 -0.6700508071315E+00 -0.1905454245712E+01
-0.1823270034331E+00 -0.3088073866797E+01 -0.6540801837926E+00 -0.1919528968922E+01
-0.1958982692999E+00 -0.2992686851247E+01 -0.6377170336122E+00 -0.1935902013038E+01
-0.2096738974942E+00 -0.2894142694541E+01 -0.6207633276572E+00 -0.1954816675063E+01
-0.2229947513005E+00 -0.2791974967487E+01 -0.6029939527427E+00 -0.1976547535611E+01
-0.2351492576514E+00 -0.2685674193222E+01 -0.5841646988794E+00 -0.2001421414672E+01
-0.2452782204383E+00 -0.2574773457298E+01 -0.5640103439517E+00 -0.2029820919704E+01
-0.2522627539286E+00 -0.2458926605448E+01 -0.5422378799554E+00 -0.2062162146900E+01
-0.2546000537645E+00 -0.2337995387884E+01 -0.5185190960562E+00 -0.2098838133358E+01
-0.2502738646125E+00 -0.2212145776175E+01 -0.4924839354961E+00 -0.2140122823372E+01
-0.2366233412501E+00 -0.2081909336954E+01 -0.4637065425506E+00 -0.2186043799488E+01
-0.2102235536917E+00 -0.1948249217311E+01 -0.4316945606334E+00 -0.2236218075684E+01
-0.1668061802929E+00 -0.1812699976232E+01 -0.3959012372043E+00 -0.2289612536241E+01
-0.1012459539997E+00 -0.1677475062484E+01 -0.3557442085977E+00 -0.2344245362109E+01
-0.7646136350624E-02 -0.1545473825552E+01 -0.3106239970093E+00 -0.2396863945698E+01
 0.1204343080541E+00 -0.1420192859706E+01 -0.2599517142040E+00 -0.2442616582029E+01
 0.2895756698481E+00 -0.1305504917470E+01 -0.2031858525521E+00 -0.2474771926194E+01
 0.5059047978979E+00 -0.1205274053767E+01 -0.1398738532581E+00 -0.2484568507303E+01
 0.7743762228145E+00 -0.1122788126616E+01 -0.6968238179869E-01 -0.2461283865160E+01
 0.1098066337031E+01 -0.1060069135391E+01  0.7599440441217E-02 -0.2392490725439E+01
 0.1477293544993E+01 -0.1017501466465E+01  0.9195841707579E-01 -0.2264358346895E+01
 0.1908593345082E+01 -0.9936234915644E+00  0.1829939734304E+00 -0.2062421793498E+01
 0.2384377512427E+01 -0.9847947241229E+00  0.2799165618319E+00 -0.1772974675615E+01
 0.2893460815748E+01 -0.9853657397929E+00  0.3816190208776E+00 -0.1384402605778E+01
-0.8290920848341E+00 -0.3465305043776E+01 -0.8588794385203E+00 -0.9498724859736E+00
-0.7556890780859E+00 -0.3492796717317E+01 -0.8496971717421E+00 -0.1135728134480E+01
-0.6732938581819E+00 -0.3518436466070E+01 -0.8383460773427E+00 -0.1298847841251E+01
-0.5872779302912E+00 -0.3539128236569E+01 -0.8252812456698E+00 -0.1437295432183E+01
-0.5026801177757E+00 -0.3552188805810E+01 -0.8109737968016E+00 -0.1551069337019E+01
-0.4236553013724E+00 -0.3555680924876E+01 -0.7958672571091E+00 -0.1641764086755E+01
-0.3531731297608E+00 -0.3548551187786E+01 -0.7803448751374E+00 -0.1712063917614E+01
-0.2929759873006E+00 -0.3530578815601E+01 -0.7647109719755E+00 -0.1765215455536E+01
-0.2437295961518E+00 -0.3502196482896E+01 -0.7491852269733E+00 -0.1804587464093E+01
-0.2052729341404E+00 -0.3464259787949E+01 -0.7339065553540E+00 -0.1833365601384E+01
-0.1768858706199E+00 -0.3417827983837E+01 -0.7189427816045E+00 -0.1854380581555E+01
-0.1575216807574E+00 -0.3363991384249E+01 -0.7043026234962E+00 -0.1870040996430E+01
-0.1459820833957E+00 -0.3303756498810E+01 -0.6899477267221E+00 -0.1882333867729E+01
-0.1410342763826E+00 -0.3237983422963E+01 -0.6758035499395E+00 -0.1892860888673E+01
-0.1414809153308E+00 -0.3167360592293E+01 -0.6617683113858E+00 -0.1902888566152E+01
-0.1461981932806E+00 -0.3092406433852E+01 -0.6477209350783E+00 -0.1913400041924E+01
-0.1541580887749E+00 -0.3013623346840E+01 -0.6335562965638E+00 -0.1925134882566E+01
-0.1644399501414E+00 -0.2931630213351E+01 -0.6192140419255E+00 -0.1938608266558E+01
-0.1762245994162E+00 -0.2846871157683E+01 -0.6046191604294E+00 -0.1954175171560E+01
-0.1887769061533E+00 -0.2759376328791E+01 -0.5896306557750E+00 -0.1972131466534E+01
-0.2014163366788E+00 -0.2668891526567E+01 -0.5740615812034E+00 -0.1992759667182E+01
-0.2134697893088E+00 -0.2575028340136E+01 -0.5576996341993E+00 -0.2016357185925E+01
-0.2242043813116E+00 -0.2477368327214E+01 -0.5403145497564E+00 -0.2043253858632E+01
-0.2327419154950E+00 -0.2375541826926E+01 -0.5216567562576E+00 -0.2073811087250E+01
-0.2379588963468E+00 -0.2269300081007E+01 -0.5014518029429E+00 -0.2108394916913E+01
-0.2383766700868E+00 -0.2158595122563E+01 -0.4793943656734E+00 -0.2147314950852E+01
-0.2320485466013E+00 -0.2043666963513E+01 -0.4551431088051E+00 -0.2190724317911E+01
-0.2164480678324E+00 -0.1925098146182E+01 -0.4283092491853E+00 -0.2238487549207E+01
-0.1883715830042E+00 -0.1803869656634E+01 -0.3984482538651E+00 -0.2290013445424E+01
-0.1438821487131E+00 -0.1681477872272E+01 -0.3650720096370E+00 -0.2344022260842E+01
-0.7831776890927E-01 -0.1560017206562E+01 -0.3276669999769E+00 -0.2398264112435E+01
 0.1360755062458E-01 -0.1442168194279E+01 -0.2857121329883E+00 -0.2449224738267E+01
 0.1375748775668E+00 -0.1331096715341E+01 -0.2387043711119E+00 -0.2491840000477E+01
 0.2992769552193E+00 -0.1230235580944E+01 -0.1861917279194E+00 -0.2519271797846E+01
 0.5038797333815E+00 -0.1142927139517E+01 -0.1278094831317E+00 -0.2522819783408E+01
 0.7553931273240E+00 -0.1071918490712E+01 -0.6330507362086E-01 -0.2492040832992E+01
 0.1056082623969E+01 -0.1018770475330E+01  0.7462429838873E-02 -0.2415022294788E+01
 0.1405755977926E+01 -0.9835679452226E+00  0.8443760779888E-01 -0.2278686860058E+01
 0.1800934338549E+01 -0.9647838867019E+00  0.1672300928613E+00 -0.2069514761160E+01
 0.2234619747307E+01 -0.9590319135284E+00  0.2551175705573E+00 -0.1774758820577E+01
 0.2696788192524E+01 -0.9612351500463E+00  0.3471106136678E+00 -0.1383545203270E+01
-0.7558551120890E+00 -0.3157087522570E+01 -0.7825885385934E+00 -0.9400921427821E+00
-0.6901224649560E+00 -0.3181822987843E+01 -0.7743891020992E+00 -0.1126033503514E+01
-0.6164954634316E+00 -0.3204961117958E+01 -0.7642913276667E+00 -0.1290349528529E+01
-0.5396272433021E+00 -0.3223806917337E+01 -0.7526868433438E+00 -0.1431037980491E+01
-0.4639054436125E+00 -0.3236002455598E+01 -0.7399815908686E+00 -0.1547887332805E+01
-0.3929867148349E+00 -0.3239810397121E+01 -0.7265594332177E+00 -0.1642197074968E+01
-0.3295303744499E+00 -0.3234240870600E+01 -0.7127542596308E+00 -0.1716341728395E+01
-0.2751451078932E+00 -0.3219021763338E+01 -0.6988333846598E+00 -0.1773300816990E+01
-0.2305000997662E+00 -0.3194458148982E+01 -0.6849916599567E+00 -0.1816250411977E+01
-0.1955267982883E+00 -0.3161242112252E+01 -0.6713537921120E+00 -0.1848264502340E+01
-0.1696435023062E+00 -0.3120265709511E+01 -0.6579818521681E+00 -0.1872132274676E+01
-0.1519563620562E+00 -0.3072468979870E+01 -0.6448850779948E+00 -0.1890271943347E+01
-0.1414150892585E+00 -0.3018734959578E+01 -0.6320300191852E+00 -0.1904711608269E+01
-0.1369203540196E+00 -0.2959829218016E+01 -0.6193499236362E+00 -0.1917109440104E+01
-0.1373903248143E+00 -0.2896372543455E+01 -0.6067525826953E+00 -0.1928793025846E+01
-0.1417982539739E+00 -0.2828838594940E+01 -0.5941273786360E+00 -0.1940805329693E+01
-0.1491947750292E+00 -0.2757687214186E+01 -0.5813764065062E+00 -0.1953945557409E+01
-0.1587190283119E+00 -0.2683480225452E+01 -0.5684398592232E+00 -0.1968791676920E+01
-0.1695923415623E+00 -0.2606625664114E+01 -0.5552436094090E+00 -0.1985757823995E+01
-0.1811011922997E+00 -0.2527168905359E+01 -0.5416540276031E+00 -0.2005186763106E+01
-0.1925698508154E+00 -0.2444909024889E+01 -0.5274957830013E+00 -0.2027393960299E+01
-0.2033175510732E+00 -0.2359533216626E+01 -0.5125701611777E+00 -0.2052694304777E+01
-0.2125983040270E+00 -0.2270710752936E+01 -0.4966618187935E+00 -0.2081416600135E+01
-0.2195250516555E+00 -0.2178164602928E+01 -0.4795379380624E+00 -0.2113898780575E+01
-0.2229817533965E+00 -0.2081736994360E+01 -0.4609437564198E+00 -0.2150456908508E+01
-0.2215278150124E+00 -0.1981461496184E+01 -0.4405978688046E+00 -0.2191320241863E+01
-0.2133015688865E+00 -0.1877640596017E+01 -0.4181884392121E+00 -0.2236528118380E+01
-0.1959272148694E+00 -0.1770893078763E+01 -0.3933640645880E+00 -0.2285794357729E+01
-0.1664378619593E+00 -0.1662200054121E+01 -0.3657275886659E+00 -0.2338338848448E+01
-0.1212396924290E+00 -0.1553000517890E+01 -0.3348480470534E+00 -0.2392662566030E+01
-0.5613762551667E-01 -0.1445252102111E+01 -0.3002779500001E+00 -0.2446283143074E+01
 0.3355361282934E-01 -0.1341404496749E+01 -0.2615701806817E+00 -0.2495467176445E+01
 0.1527848171511E+00 -0.1244291891311E+01 -0.2183014180849E+00 -0.2534983607365E+01
 0.3064153287596E+00 -0.1156922516137E+01 -0.1701014400102E+00 -0.2557928723184E+01
 0.4987298664414E+00 -0.1082151865009E+01 -0.1166844014522E+00 -0.2555689349768E+01
 0.7328937617633E+00 -0.1022238850879E+01 -0.5786901868538E-01 -0.2518100443705E+01
 0.1010469423520E+01 -0.9783444177792E+00  0.6425001243817E-02 -0.2433725391319E+01
 0.1330844072296E+01 -0.9503087710567E+00  0.7610706138187E-01 -0.2290156093517E+01
 0.1690559512528E+01 -0.9365678564109E+00  0.1507983334705E+00 -0.2074690256844E+01
 0.2083160035708E+01 -0.9339715762150E+00  0.2298376953234E+00 -0.1775397076147E+01
 0.2499651043751E+01 -0.9379488289129E+00  0.3123404476219E+00 -0.1382027901973E+01
-0.6827745774872E+00 -0.2850289821053E+01 -0.7066128902374E+00 -0.9313193545243E+00
-0.6243343318456E+00 -0.2872408192395E+01 -0.6993485152692E+00 -0.1117333281520E+01
-0.5590914423405E+00 -0.2893151902581E+01 -0.6904486792728E+00 -0.1282681790331E+01
-0.4910355896269E+00 -0.2910199433703E+01 -0.6802470148025E+00 -0.1425310108155E+01
-0.4239440577342E+00 -0.2921503309776E+01 -0.6690894834723E+00 -0.1544834166337E+01
-0.3609930464351E+00 -0.2925528384136E+01 -0.6573042959088E+00 -0.1642307192813E+01
-0.3045266110263E+00 -0.2921365314116E+01 -0.6451783946424E+00 -0.1719840829778E+01
-0.2559990122555E+00 -0.2908715727346E+01 -0.6329429573519E+00 -0.1780183221922E+01
-0.2160553812795E+00 -0.2887782972752E+01 -0.6207676800564E+00 -0.1826338924467E+01
-0.1846928783499E+00 -0.2859116973345E+01 -0.6087619794102E+00 -0.1861278066047E+01
-0.1614467495870E+00 -0.2823456926784E+01 -0.5969807441699E+00 -0.1887746347571E+01
-0.1455613722539E+00 -0.2781599856899E+01 -0.5854322545541E+00 -0.1908163946764E+01
-0.1361261199341E+00 -0.2734306916822E+01 -0.5740866159057E+00 -0.1924590035786E+01
-0.1321715566284E+00 -0.2682247032420E+01 -0.5628837261973E+00 -0.1938729108747E+01
-0.1327307556642E+00 -0.2625969382181E+01 -0.5517400357905E+00 -0.1951960604954E+01
-0.1368749214323E+00 -0.2565898461453E+01 -0.5405546846320E+00 -0.1965379227586E+01
-0.1437347631888E+00 -0.2502447673353E+01 -0.5292364951946E+00 -0.1979836235057E+01
-0.1525107942531E+00 -0.2436118911016E+01 -0.5177259487686E+00 -0.1995964482267E+01
-0.1624668873803E+00 -0.2367282049105E+01 -0.5059497948363E+00 -0.2014229450501E+01
-0.1729141264307E+00 -0.2295995856357E+01 -0.4937820039155E+00 -0.2035013776537E+01
-0.1831859007853E+00 -0.2222110651369E+01 -0.4810593175993E+00 -0.2058659735227E+01
-0.1925996601379E+00 -0.2145386641249E+01 -0.4675972672452E+00 -0.2085494619397E+01
-0.2004038774853E+00 -0.2065577331203E+01 -0.4531962484908E+00 -0.2115842581817E+01
-0.2057119128017E+00 -0.1982493594435E+01 -0.4376411079686E+00 -0.2150016424635E+01
-0.2074261199591E+00 -0.1896062273633E+01 -0.4206976849872E+00 -0.2188283092573E+01
-0.2041564107226E+00 -0.1806390036300E+01 -0.4021092953964E+00 -0.2230795585734E+01
-0.1941397045130E+00 -0.1713831028428E+01 -0.3815941522744E+00 -0.2277487609642E+01
-0.1751647277948E+00 -0.1619026922901E+01 -0.3588383354863E+00 -0.2327935712446E+01
-0.1445139273639E+00 -0.1522943415656E+01 -0.3334914735733E+00 -0.2381190926493E+01
-0.9894516402989E-01 -0.1426945925192E+01 -0.3051782223919E+00 -0.2435562242598E+01
-0.3473092624001E-01 -0.1332841188643E+01 -0.2735144270523E+00 -0.2488368960421E+01
 0.5222529632168E-01 -0.1242839777211E+01 -0.2381228997263E+00 -0.2535697731353E+01
 0.1661733708751E+00 -0.1159446204661E+01 -0.1986545697173E+00 -0.2572190631428E+01
 0.3111893192750E+00 -0.1085260491256E+01 -0.1548142367031E+00 -0.2590912235232E+01
 0.4907472920216E+00 -0.1022683906485E+01 -0.1063873244780E+00 -0.2583354831584E+01
 0.7072537512356E+00 -0.9735335917485E+00 -0.5325596889614E-01 -0.2539624256806E+01
 0.9616574266882E+00 -0.9386223667364E+00  0.4607012059023E-02 -0.2448720273480E+01
 0.1252996763621E+01 -0.9175901395221E+00  0.6708132581928E-01 -0.2298826711110E+01
 0.1577858532108E+01 -0.9088569089523E+00  0.1338003266249E+00 -0.2077947066470E+01
 0.1930285187363E+01 -0.9094920961327E+00  0.2041586212882E+00 -0.1774844821478E+01
 0.2302198724581E+01 -0.9153737627746E+00  0.2773649964943E+00 -0.1379798279125E+01
-0.6098284185311E+00 -0.2544713851676E+01 -0.6309084634426E+00 -0.9235030945762E+00
-0.5583555481468E+00 -0.2564335915958E+01 -0.6245383021273E+00 -0.1109581785711E+01
-0.5011661768821E+00 -0.2582780027449E+01 -0.6167892500570E+00 -0.1275815001005E+01
-0.4416316683366E+00 -0.2598075317489E+01 -0.6079414062241E+00 -0.1420106164693E+01
-0.3829532594052E+00 -0.2608471914596E+01 -0.5982850437154E+00 -0.1541930568601E+01
-0.3278426627894E+00 -0.2612637778049E+01 -0.5880960969311E+00 -0.1642138115210E+01
-0.2783260263133E+00 -0.2609757252254E+01 -0.5776166643206E+00 -0.1722620260285E+01
-0.2356870655041E+00 -0.2599526031886E+01 -0.5670426279275E+00 -0.1785927910214E+01
-0.2005244002315E+00 -0.2582067368878E+01 -0.5565183621147E+00 -0.1834915980572E+01
-0.1728783802051E+00 -0.2557807423139E+01 -0.5461371688069E+00 -0.1872460639970E+01
-0.1523825944607E+00 -0.2527345374364E+01 -0.5359456017511E+00 -0.1901264676002E+01
-0.1384065446716E+00 -0.2491342194111E+01 -0.5259497555939E+00 -0.1923744846172E+01
-0.1301714694845E+00 -0.2450439227864E+01 -0.5161221471605E+00 -0.1941983055341E+01
-0.1268341734856E+00 -0.2405207497757E+01 -0.5064083417946E+00 -0.1957720949286E+01
-0.1275416960159E+00 -0.2356121523841E+01 -0.4967326513734E+00 -0.1972380991280E+01
-0.1314637433333E+00 -0.2303553013638E+01 -0.4870033586512E+00 -0.1987101543199E+01
-0.1378122880046E+00 -0.2247865583687E+01 -0.4771355814482E+00 -0.2002778132681E+01
-0.1458506843102E+00 -0.2189498598433E+01 -0.4670698635085E+00 -0.2020090357052E+01
-0.1548873189675E+00 -0.2128781770158E+01 -0.4567338246310E+00 -0.2039547062305E+01
-0.1642607480888E+00 -0.2065785380123E+01 -0.4460092322884E+00 -0.2061563713151E+01
-0.1733175182085E+00 -0.2000408861924E+01 -0.4347452825047E+00 -0.2086503386999E+01
-0.1813787037935E+00 -0.1932482750540E+01 -0.4227722971665E+00 -0.2114700982710E+01
-0.1876941200997E+00 -0.1861841247645E+01 -0.4099070796570E+00 -0.2146472792143E+01
-0.1913859006524E+00 -0.1788378438666E+01 -0.3959528737638E+00 -0.2182105372964E+01
-0.1913845414409E+00 -0.1712099611417E+01 -0.3806968362443E+00 -0.2221818126528E+01
-0.1863613916107E+00 -0.1633176577318E+01 -0.3639075992083E+00 -0.2265692736576E+01
-0.1746636247953E+00 -0.1552005224283E+01 -0.3453337749615E+00 -0.2313566359137E+01
-0.1542560508553E+00 -0.1469238226828E+01 -0.3246988603751E+00 -0.2364892540516E+01
-0.1226803678013E+00 -0.1385812475253E+01 -0.3016985731065E+00 -0.2418573967624E+01
-0.7705190286381E-01 -0.1303006400001E+01 -0.2760116646858E+00 -0.2472754619199E+01
-0.1410900832426E-01 -0.1222464903771E+01 -0.2473147861043E+00 -0.2524588061730E+01
 0.6966917800323E-01 -0.1146154215206E+01 -0.2152970106488E+00 -0.2570017035367E+01
 0.1778598473163E+00 -0.1076253303382E+01 -0.1796786938905E+00 -0.2603591928648E+01
 0.3138013070205E+00 -0.1014970519752E+01 -0.1402338446359E+00 -0.2618373336817E+01
 0.4802191203685E+00 -0.9642828365282E+00 -0.9681274467456E-01 -0.2605971044213E+01
 0.6788337283057E+00 -0.9256061211412E+00 -0.4935447930254E-01 -0.2556750194454E+01
 0.9100538725642E+00 -0.8994485359404E+00  0.2121067356373E-02 -0.2460107177638E+01
 0.1172626095527E+01 -0.8852854604624E+00  0.5746812786917E-01 -0.2304746907042E+01
 0.1463198426653E+01 -0.8815366058641E+00  0.1163323658913E+00 -0.2079280366222E+01
 0.1776271324348E+01 -0.8854754424082E+00  0.1781591790427E+00 -0.1773060048909E+01
 0.2104586748724E+01 -0.8933811712139E+00  0.2422411191116E+00 -0.1376807158372E+01
-0.5369945414635E+00 -0.2240168763034E+01 -0.5554326691762E+00 -0.9165994829608E+00
-0.4922133415722E+00 -0.2257397967154E+01 -0.5499222699397E+00 -0.1102739434603E+01
-0.4427970545069E+00 -0.2273625067782E+01 -0.5432844325534E+00 -0.1269722601740E+01
-0.3915353066440E+00 -0.2287211244005E+01 -0.5357493181130E+00 -0.1415419205618E+01
-0.3410816222069E+00 -0.2296693364054E+01 -0.5275550051135E+00 -0.1539191452670E+01
-0.2936971300689E+00 -0.2300942565857E+01 -0.5189279469179E+00 -0.1641724117990E+01
-0.2510889522566E+00 -0.2299246962434E+01 -0.5100671905386E+00 -0.1724727663332E+01
-0.2143578848503E+00 -0.2291312571437E+01 -0.5011340987249E+00 -0.1790588400069E+01
-0.1840379869159E+00 -0.2277200319786E+01 -0.4922476686755E+00 -0.1842033855030E+01
-0.1601941872899E+00 -0.2257228126817E+01 -0.4834844700259E+00 -0.1881857726001E+01
-0.1425426579987E+00 -0.2231866343026E+01 -0.4748818072813E+00 -0.1912722502870E+01
-0.1305666188942E+00 -0.2201646286792E+01 -0.4664425880878E+00 -0.1937038048830E+01
-0.1236121377568E+00 -0.2167091774800E+01 -0.4581407893382E+00 -0.1956902112067E+01
-0.1209587538712E+00 -0.2128675285736E+01 -0.4499268146259E+00 -0.1974085216376E+01
-0.1218663748967E+00 -0.2086794379122E+01 -0.4417321573861E+00 -0.1990044430916E+01
-0.1256035191212E+00 -0.2041765026103E+01 -0.4334737155042E+00 -0.2005953763997E+01
-0.1314644144586E+00 -0.1993898205840E+01 -0.4250725303939E+00 -0.2022745115435E+01
-0.1387765993577E+00 -0.1943568439747E+01 -0.4164690140269E+00 -0.2041136514668E+01
-0.1468948323542E+00 -0.1891063382428E+01 -0.4075916490299E+00 -0.2061672077504E+01
-0.1551878245517E+00 -0.1836462951345E+01 -0.3983301611149E+00 -0.2084793058238E+01
-0.1630189920214E+00 -0.1779713535810E+01 -0.3885465113560E+00 -0.2110877470548E+01
-0.1697179271406E+00 -0.1720713295684E+01 -0.3780862501989E+00 -0.2140263284838E+01
-0.1745419339012E+00 -0.1659373632453E+01 -0.3667831187363E+00 -0.2173256100455E+01
-0.1766293021472E+00 -0.1595667302042E+01 -0.3544593261197E+00 -0.2210115614821E+01
-0.1749471773037E+00 -0.1529672202981E+01 -0.3409238811372E+00 -0.2251015876743E+01
-0.1682377315339E+00 -0.1461617955916E+01 -0.3259711423473E+00 -0.2295972907633E+01
-0.1549681789400E+00 -0.1391933288578E+01 -0.3093802981137E+00 -0.2344737127629E+01
-0.1332887602127E+00 -0.1321271509756E+01 -0.2909120583286E+00 -0.2396653947409E+01
-0.1010079041634E+00 -0.1250529396627E+01 -0.2703074641859E+00 -0.2450498433780E+01
-0.5560181646804E-01 -0.1180887542027E+01 -0.2472978753841E+00 -0.2504276021185E+01
 0.5728807579222E-02 -0.1113820827963E+01 -0.2216184073792E+00 -0.2555005559161E+01
 0.8594282381797E-01 -0.1051048357767E+01 -0.1930211096660E+00 -0.2598518981972E+01
 0.1879713387733E+00 -0.9944290897205E+00 -0.1612915525929E+00 -0.2629305888929E+01
 0.3144558323608E+00 -0.9457957819061E+00 -0.1262679917906E+00 -0.2640445459837E+01
 0.4674269837974E+00 -0.9067280384681E+00 -0.8786021224336E-01 -0.2623672024851E+01
 0.6479805125485E+00 -0.8782753476902E+00 -0.4605896771467E-01 -0.2569595313705E+01
 0.8560454190123E+00 -0.8606774152321E+00 -0.9263992577608E-03 -0.2467969132312E+01
 0.1090121049653E+01 -0.8532738240167E+00  0.4736944583304E-01 -0.2307954430102E+01
 0.1346926961675E+01 -0.8544955443036E+00  0.9848628494191E-01 -0.2078682509884E+01
 0.1621385368373E+01 -0.8618060821128E+00  0.1519158595157E+00 -0.1770003270367E+01
 0.1906975679371E+01 -0.8718451988917E+00  0.2070260991809E+00 -0.1373008464999E+01
-0.4642508350810E+00 -0.1936469540119E+01 -0.4801440821947E+00 -0.9105713799520E+00
-0.4259320181302E+00 -0.1951392793362E+01 -0.4754649693834E+00 -0.1096772495570E+01
-0.3840558126598E+00 -0.1965473383179E+01 -0.4699058461700E+00 -0.1264381244621E+01
-0.3408590952486E+00 -0.1977389737812E+01 -0.4636497735211E+00 -0.1411241639460E+01
-0.2984705023621E+00 -0.1985956556908E+01 -0.4568854186622E+00 -0.1536626973271E+01
-0.2587122706723E+00 -0.1990247764412E+01 -0.4497920137193E+00 -0.1641091317305E+01
-0.2229723316881E+00 -0.1989662836957E+01 -0.4425270403232E+00 -0.1726200445076E+01
-0.1921592518230E+00 -0.1983930851258E+01 -0.4352180271015E+00 -0.1794207371279E+01
-0.1667283469399E+00 -0.1973064668599E+01 -0.4279586094849E+00 -0.1847734643305E+01
-0.1467541353773E+00 -0.1957286708718E+01 -0.4208081750896E+00 -0.1889506161771E+01
-0.1320224009534E+00 -0.1936947929656E+01 -0.4137940722878E+00 -0.1922148351381E+01
-0.1221204753173E+00 -0.1912455627268E+01 -0.4069152265806E+00 -0.1948062272215E+01
-0.1165131564497E+00 -0.1884218343794E+01 -0.4001463060115E+00 -0.1969355854413E+01
-0.1145995408254E+00 -0.1852609796738E+01 -0.3934418733755E+00 -0.1987821019686E+01
-0.1157512921572E+00 -0.1817948885171E+01 -0.3867400412285E+00 -0.2004941421065E+01
-0.1193359009000E+00 -0.1780493485503E+01 -0.3799658829426E+00 -0.2021918810427E+01
-0.1247306824000E+00 -0.1740499551651E+01 -0.3730460523691E+00 -0.2039713513420E+01
-0.1313285717008E+00 -0.1698274734772E+01 -0.3659206667472E+00 -0.2059073578853E+01
-0.1385324143156E+00 -0.1654062872859E+01 -0.3585190627773E+00 -0.2080570230099E+01
-0.1457435341293E+00 -0.1607951694074E+01 -0.3507390508671E+00 -0.2104663501945E+01
-0.1523455620562E+00 -0.1559932408977E+01 -0.3424555993097E+00 -0.2131740619219E+01
-0.1576809471796E+00 -0.1509968148415E+01 -0.3335298240890E+00 -0.2162138334957E+01
-0.1610198573158E+00 -0.1458044137627E+01 -0.3238128038138E+00 -0.2196149066230E+01
-0.1615231105940E+00 -0.1404207508218E+01 -0.3131461284285E+00 -0.2234005469448E+01
-0.1582017357907E+00 -0.1348603378523E+01 -0.3013610273533E+00 -0.2275838952676E+01
-0.1498765548484E+00 -0.1291512569475E+01 -0.2882778291603E+00 -0.2321606105429E+01
-0.1351427590253E+00 -0.1233388840731E+01 -0.2737063240297E+00 -0.2370980981209E+01
-0.1123432654915E+00 -0.1174877307642E+01 -0.2574441184630E+00 -0.2423216118632E+01
-0.7955849570381E-01 -0.1116825332353E+01 -0.2392767691769E+00 -0.2476979716289E+01
-0.3462691373345E-01 -0.1060307165082E+01 -0.2189868190262E+00 -0.2530164511677E+01
 0.2479331937966E-01 -0.1006621859010E+01 -0.1963657108521E+00 -0.2579684109972E+01
 0.1011127130706E+00 -0.9572405357500E+00 -0.1712255670873E+00 -0.2621290102002E+01
 0.1966408029880E+00 -0.9137085073796E+00 -0.1434135430154E+00 -0.2649438516297E+01
 0.3133582961422E+00 -0.8774980756806E+00 -0.1128279575890E+00 -0.2657245419424E+01
 0.4526468469893E+00 -0.8498152461684E+00 -0.7943368101949E-01 -0.2636572833829E+01
 0.6150283656720E+00 -0.8313727590499E+00 -0.4326887932034E-01 -0.2578258148016E+01
 0.8000007727111E+00 -0.8221716813905E+00 -0.4434181801954E-02 -0.2472374270712E+01
 0.1005850887423E+01 -0.8214387023216E+00  0.3688243756995E-01 -0.2308478240041E+01
 0.1229375535003E+01 -0.8276244621814E+00  0.8035021576169E-01 -0.2076143717202E+01
 0.1465886331622E+01 -0.8383700510156E+00  0.1255032579915E+00 -0.1765637495867E+01
 0.1709530134598E+01 -0.8506418047504E+00  0.1717776685293E+00 -0.1368359116141E+01
-0.3915751765961E+00 -0.1633435752669E+01 -0.4050021918880E+00 -0.9053880625349E+00
-0.3595335882168E+00 -0.1646124061514E+01 -0.4011315359235E+00 -0.1091652879233E+01
-0.3250097249399E+00 -0.1658116684725E+01 -0.3966252878432E+00 -0.1259770894882E+01
-0.2897098606588E+00 -0.1668397968813E+01 -0.3916215717299E+00 -0.1407565727243E+01
-0.2552554403728E+00 -0.1676053453262E+01 -0.3862617844826E+00 -0.1534243362401E+01
-0.2230392002858E+00 -0.1680359265009E+01 -0.3806796987315E+00 -0.1640258665926E+01
-0.1941302446944E+00 -0.1680831803492E+01 -0.3749924152251E+00 -0.1727066725576E+01
-0.1692381340412E+00 -0.1677232858133E+01 -0.3692942039377E+00 -0.1796817411528E+01
-0.1487286878291E+00 -0.1669538259598E+01 -0.3636533949043E+00 -0.1852050726039E+01
-0.1326743939910E+00 -0.1657884984479E+01 -0.3581118810302E+00 -0.1895434305160E+01
-0.1209204010554E+00 -0.1642512222236E+01 -0.3526865299138E+00 -0.1929563983880E+01
-0.1131504135927E+00 -0.1623707956362E+01 -0.3473716791673E+00 -0.1956831353265E+01
-0.1089429308389E+00 -0.1601767505559E+01 -0.3421420923780E+00 -0.1979349868274E+01
-0.1078139002293E+00 -0.1576965869405E+01 -0.3369559589479E+00 -0.1998926042456E+01
-0.1092457318626E+00 -0.1549542068738E+01 -0.3317575650637E+00 -0.2017062452628E+01
-0.1127049733410E+00 -0.1519694044271E+01 -0.3264798083873E+00 -0.2034980822572E+01
-0.1176527313000E+00 -0.1487620769207E+01 -0.3210547048856E+00 -0.2053661956347E+01
-0.1235484167262E+00 -0.1453561285958E+01 -0.3154219452369E+00 -0.2073875458925E+01
-0.1298445105107E+00 -0.1417714017830E+01 -0.3095117102802E+00 -0.2096211471651E+01
-0.1359771486044E+00 -0.1380172768094E+01 -0.3032299878582E+00 -0.2121141849433E+01
-0.1413531209426E+00 -0.1340971507190E+01 -0.2964649300441E+00 -0.2149057442407E+01
-0.1453314862511E+00 -0.1300135789025E+01 -0.2890934593631E+00 -0.2180289721508E+01
-0.1471998502978E+00 -0.1257721474507E+01 -0.2809842691479E+00 -0.2215115732094E+01
-0.1461468933312E+00 -0.1213846101197E+01 -0.2719986029587E+00 -0.2253741277912E+01
-0.1412334682218E+00 -0.1168717144087E+01 -0.2619901263658E+00 -0.2296258262816E+01
-0.1313653151770E+00 -0.1122660819378E+01 -0.2508052306483E+00 -0.2342570521431E+01
-0.1152717307727E+00 -0.1076149256873E+01 -0.2382842010799E+00 -0.2392286507194E+01
-0.9149355901264E-01 -0.1029812088558E+01 -0.2242611328559E+00 -0.2444581378624E+01
-0.5838645389262E-01 -0.9844398776141E+00 -0.2085652694092E+00 -0.2498037101007E+01
-0.1415078149546E-01 -0.9409941699128E+00 -0.1910289931282E+00 -0.2550458881213E+01
 0.4310368715086E-01 -0.9005944345951E+00 -0.1714981520444E+00 -0.2598683103862E+01
 0.1152523955238E+00 -0.8644644565828E+00 -0.1498424144446E+00 -0.2638409157077E+01
 0.2040054470862E+00 -0.8338426479130E+00 -0.1259674420424E+00 -0.2664083625572E+01
 0.3107139719639E+00 -0.8098547107096E+00 -0.9982814923669E-01 -0.2668874326927E+01
 0.4361490433063E+00 -0.7933535898313E+00 -0.7144091036957E-01 -0.2644771130983E+01
 0.5803002824989E+00 -0.7847399740822E+00 -0.4088793892593E-01 -0.2582820675690E+01
 0.7422731104913E+00 -0.7838004594384E+00 -0.8305469913184E-02 -0.2473377734859E+01
 0.9201681036526E+00 -0.7896668517443E+00  0.2610025077059E-01 -0.2306339873752E+01
 0.1110861696672E+01 -0.8008154637409E+00  0.6200924751029E-01 -0.2071652677724E+01
 0.1310026434794E+01 -0.8150541562051E+00  0.9899445719288E-01 -0.1759928263071E+01
 0.1512417883029E+01 -0.8296478007245E+00  0.1365540184957E+00 -0.1362818955463E+01
-0.3189454318688E+00 -0.1330890418933E+01 -0.3299671750773E+00 -0.9010249747764E+00
-0.2930383209576E+00 -0.1341399368257E+01 -0.3268875427139E+00 -0.1087357978123E+01
-0.2657226646946E+00 -0.1351350721116E+01 -0.3234146819813E+00 -0.1255874903216E+01
-0.2381900087036E+00 -0.1360026622966E+01 -0.3196433310969E+00 -0.1404383960655E+01
-0.2115674746357E+00 -0.1366778336879E+01 -0.3156691670068E+00 -0.1532043573167E+01
-0.1868253433425E+00 -0.1371083613235E+01 -0.3115817959584E+00 -0.1639238733380E+01
-0.1647144770854E+00 -0.1372579630954E+01 -0.3074588261894E+00 -0.1727346097481E+01
-0.1457407903169E+00 -0.1371067797884E+01 -0.3033617221607E+00 -0.1798441626087E+01
-0.1301729421184E+00 -0.1366494955559E+01 -0.2993335839958E+00 -0.1855005163137E+01
-0.1180729347594E+00 -0.1358920098381E+01 -0.2953986110299E+00 -0.1899662207437E+01
-0.1093376949261E+00 -0.1348476424773E+01 -0.2915628282844E+00 -0.1934984391641E+01
-0.1037414698913E+00 -0.1335336287015E+01 -0.2878155556700E+00 -0.1963354112259E+01
-0.1009725973778E+00 -0.1319683493201E+01 -0.2841312223496E+00 -0.1986886473383E+01
-0.1006617488234E+00 -0.1301694504594E+01 -0.2804712548628E+00 -0.2007396318327E+01
-0.1024012644831E+00 -0.1281527633249E+01 -0.2767857836708E+00 -0.2026397800014E+01
-0.1057568183869E+00 -0.1259319501970E+01 -0.2730152681396E+00 -0.2045124979875E+01
-0.1102739105065E+00 -0.1235210554823E+01 -0.2690968970757E+00 -0.2064571226914E+01
-0.1154793738191E+00 -0.1209369776323E+01 -0.2649698339767E+00 -0.2085519230998E+01
-0.1208766884055E+00 -0.1181948757467E+01 -0.2605650930572E+00 -0.2108569868676E+01
-0.1259387170872E+00 -0.1153045763157E+01 -0.2557968998606E+00 -0.2134199919425E+01
-0.1300979251457E+00 -0.1122735575415E+01 -0.2505667038458E+00 -0.2162798407716E+01
-0.1327331236527E+00 -0.1091103775895E+01 -0.2447673835569E+00 -0.2194687657471E+01
-0.1331531079769E+00 -0.1058273914938E+01 -0.2382854081337E+00 -0.2230127408434E+01
-0.1305786986976E+00 -0.1024430351906E+01 -0.2310018135630E+00 -0.2269297100865E+01
-0.1241252118835E+00 -0.9898386454343E+00 -0.2227927747834E+00 -0.2312252600197E+01
-0.1127880273377E+00 -0.9548654597377E+00 -0.2135307005969E+00 -0.2358851986676E+01
-0.9543491306552E-01 -0.9199958078744E+00 -0.2030861472142E+00 -0.2408649134665E+01
-0.7080799564908E-01 -0.8858380681429E+00 -0.1913292156094E+00 -0.2460757400088E+01
-0.3753955104779E-01 -0.8531204493493E+00 -0.1781320027338E+00 -0.2513692925966E+01
 0.5809998891460E-02 -0.8226873946981E+00 -0.1633754815958E+00 -0.2565197856666E+01
 0.6068580593812E-01 -0.7954768137440E+00 -0.1469582037510E+00 -0.2612058066645E+01
 0.1284408480704E+00 -0.7724669604644E+00 -0.1288052243981E+00 -0.2649946903049E+01
 0.2102053595855E+00 -0.7545961321913E+00 -0.1088781561436E+00 -0.2673323112413E+01
 0.3067272637251E+00 -0.7426557689311E+00 -0.8718570234037E-01 -0.2675418437640E+01
 0.4181984777364E+00 -0.7371630485082E+00 -0.6379291510495E-01 -0.2648348536461E+01
 0.5441092934300E+00 -0.7382266691557E+00 -0.3882347572366E-01 -0.2583349962883E+01
 0.6832023242838E+00 -0.7454378620628E+00 -0.1244710774128E-01 -0.2471023241141E+01
 0.8334110720254E+00 -0.7578473839081E+00  0.1511273784867E-01 -0.2301554576984E+01
 0.9916913701329E+00 -0.7739613535756E+00  0.4354600396035E-01 -0.2065197084422E+01
 0.1154052077855E+01 -0.7917452855802E+00  0.7246135953466E-01 -0.1752843710337E+01
 0.1315809012534E+01 -0.8087400044822E+00  0.1014138031216E+00 -0.1356350739175E+01
-0.2463394518258E+00 -0.1028658956803E+01 -0.2549996855255E+00 -0.8974635452854E+00
-0.2264652453743E+00 -0.1037029048172E+01 -0.2526988624748E+00 -0.1083870547462E+01
-0.2062560767104E+00 -0.1044974055962E+01 -0.2502460302634E+00 -0.1252680056529E+01
-0.1863987697299E+00 -0.1052068832246E+01 -0.2476935240861E+00 -0.1401689338288E+01
-0.1675343854526E+00 -0.1057927085937E+01 -0.2450922979302E+00 -0.1530027756276E+01
-0.1502154279490E+00 -0.1062227743906E+01 -0.2424886379844E+00 -0.1638038291101E+01
-0.1348751170580E+00 -0.1064731151123E+01 -0.2399212572113E+00 -0.1727050204299E+01
-0.1218129370317E+00 -0.1065282732013E+01 -0.2374191373468E+00 -0.1799094112413E+01
-0.1111955639587E+00 -0.1063805559469E+01 -0.2350002281872E+00 -0.1856612010812E+01
-0.1030690678709E+00 -0.1060285585035E+01 -0.2326709340483E+00 -0.1902201764139E+01
-0.9737717211708E-01 -0.1054753932423E+01 -0.2304262243417E+00 -0.1938417804146E+01
-0.9398076686432E-01 -0.1047269903002E+01 -0.2282501373744E+00 -0.1967634261559E+01
-0.9267539620241E-01 -0.1037907075111E+01 -0.2261164976321E+00 -0.1991964574830E+01
-0.9320498371351E-01 -0.1026743598116E+01 -0.2239897197036E+00 -0.2013226061976E+01
-0.9527124238999E-01 -0.1013856562535E+01 -0.2218255642904E+00 -0.2032937356017E+01
-0.9853906993102E-01 -0.9993203063449E+00 -0.2195718785271E+00 -0.2052337353542E+01
-0.1026388799353E+00 -0.9832155841105E+00 -0.2171708960453E+00 -0.2072424133768E+01
-0.1071657407126E+00 -0.9656401631711E+00 -0.2145611839740E+00 -0.2093985026996E+01
-0.1116752981237E+00 -0.9466975803508E+00 -0.2116745788491E+00 -0.2117623498421E+01
-0.1156787532091E+00 -0.9264890962014E+00 -0.2084335729880E+00 -0.2143814434694E+01
-0.1186363155531E+00 -0.9051285006412E+00 -0.2047529662899E+00 -0.2172939712089E+01
-0.1199490639042E+00 -0.8827591965541E+00 -0.2005416550800E+00 -0.2205308816120E+01
-0.1189498987708E+00 -0.8595697598606E+00 -0.1957039346425E+00 -0.2241162455799E+01
-0.1148949952185E+00 -0.8358082166743E+00 -0.1901406452119E+00 -0.2280654428677E+01
-0.1069574711513E+00 -0.8117945686220E+00 -0.1837504106928E+00 -0.2323808263181E+01
-0.9422553917886E-01 -0.7879318708044E+00 -0.1764314846257E+00 -0.2370443492833E+01
-0.7570809136347E-01 -0.7647137171348E+00 -0.1680843642043E+00 -0.2420070559005E+01
-0.5035008932810E-01 -0.7427229519294E+00 -0.1586146106150E+00 -0.2471756556726E+01
-0.1706011442277E-01 -0.7226216165917E+00 -0.1479363484073E+00 -0.2523971916105E+01
 0.2524449476931E-01 -0.7051344622394E+00 -0.1359779955202E+00 -0.2574419504543E+01
 0.7757079303699E-01 -0.6910174221986E+00 -0.1226893276605E+00 -0.2619860247073E+01
 0.1407609985902E+00 -0.6810059237109E+00 -0.1080489866342E+00 -0.2655965986577E+01
 0.2153823418724E+00 -0.6757447243095E+00 -0.9207247785942E-01 -0.2677227264866E+01
 0.3016011526066E+00 -0.6757016638999E+00 -0.7482010337357E-01 -0.2676949917667E+01
 0.3990549506838E+00 -0.6810722258858E+00 -0.5640345588089E-01 -0.2647371786610E+01
 0.5067597642184E+00 -0.6916887981099E+00 -0.3698580732943E-01 -0.2579899519393E+01
 0.6231171209058E+00 -0.7069617494280E+00 -0.1676892595431E-01 -0.2465344359515E+01
 0.7459064486902E+00 -0.7258709769188E+00  0.4007094413988E-02 -0.2294132242626E+01
 0.8721608383300E+00 -0.7469550640998E+00  0.2504115521919E-01 -0.2056764110844E+01
 0.9982046891244E+00 -0.7683298028268E+00  0.4597497794459E-01 -0.1744354692294E+01
 0.1119875156482E+01 -0.7877944800498E+00  0.6641613627603E-01 -0.1348920177262E+01
-0.1737350665392E+00 -0.7265681976682E+00 -0.1800606555246E+00 -0.8946910667790E+00
-0.1598326143868E+00 -0.7328250524200E+00 -0.1785315360217E+00 -0.1081178626330E+01
-0.1466698838949E+00 -0.7387869111443E+00 -0.1770913616467E+00 -0.1250176612963E+01
-0.1344333731374E+00 -0.7443191488377E+00 -0.1757505070139E+00 -0.1399475553757E+01
-0.1232818874681E+00 -0.7492964525775E+00 -0.1745156706096E+00 -0.1528193586967E+01
-0.1133524634304E+00 -0.7535986867473E+00 -0.1733902326192E+00 -0.1636658718522E+01
-0.1047611694872E+00 -0.7571104219278E+00 -0.1723743208516E+00 -0.1726183147814E+01
-0.9759995690315E-01 -0.7597231425168E+00 -0.1714646224390E+00 -0.1798780301532E+01
-0.9193137835853E-01 -0.7613386665462E+00 -0.1706540115239E+00 -0.1856876557310E+01
-0.8778302860228E-01 -0.7618723744622E+00 -0.1699310831451E+00 -0.1903056836004E+01
-0.8514300860813E-01 -0.7612553680462E+00 -0.1692796778533E+00 -0.1939865709376E+01
-0.8395688944923E-01 -0.7594353369054E+00 -0.1686784477844E+00 -0.1969670351799E+01
-0.8412605667805E-01 -0.7563764217462E+00 -0.1681004981897E+00 -0.1994579564187E+01
-0.8550691509145E-01 -0.7520586776017E+00 -0.1675131210348E+00 -0.2016407550073E+01
-0.8791029248682E-01 -0.7464777346037E+00 -0.1668776079048E+00 -0.2036670510039E+01
-0.9110046313418E-01 -0.7396450666512E+00 -0.1661491084329E+00 -0.2056604791298E+01
-0.9479320576256E-01 -0.7315809547170E+00 -0.1652748345587E+00 -0.2077205404809E+01
-0.9865250515195E-01 -0.7223110807319E+00 -0.1641927196234E+00 -0.2099255933013E+01
-0.1022871340876E+00 -0.7118899127154E+00 -0.1628354117870E+00 -0.2123354345236E+01
-0.1052479272828E+00 -0.7004204071342E+00 -0.1611336692845E+00 -0.2149966907301E+01
-0.1070244477485E+00 -0.6880537257620E+00 -0.1590156370716E+00 -0.2179463145451E+01
-0.1070419198917E+00 -0.6749891006922E+00 -0.1564062064474E+00 -0.2212136161474E+01
-0.1046594228110E+00 -0.6614777793614E+00 -0.1532274427177E+00 -0.2248206069764E+01
-0.9917063608879E-01 -0.6478287560489E+00 -0.1493998806538E+00 -0.2287801908597E+01
-0.8980852708828E-01 -0.6344134906202E+00 -0.1448444057001E+00 -0.2330918715334E+01
-0.7575583125561E-01 -0.6216682751872E+00 -0.1394848233670E+00 -0.2377344781545E+01
-0.5616355201348E-01 -0.6100921601433E+00 -0.1332511444170E+00 -0.2426558268758E+01
-0.3017931469822E-01 -0.6002396282504E+00 -0.1260837904685E+00 -0.2477595412588E+01
 0.3013900662654E-02 -0.5927044037020E+00 -0.1179381023653E+00 -0.2528900681694E+01
 0.4414612230799E-01 -0.5880906383301E+00 -0.1087889048255E+00 -0.2578160808204E+01
 0.9379357363510E-01 -0.5869732627031E+00 -0.9863593928339E-01 -0.2622136360629E+01
 0.1522983857881E+00 -0.5898482908997E+00 -0.8750998232632E-01 -0.2656520946906E+01
 0.2196788954353E+00 -0.5970731372087E+00 -0.7547884947940E-01 -0.2675855093497E+01
 0.2955367861490E+00 -0.6088009380378E+00 -0.6265283131137E-01 -0.2673527520421E+01
 0.3789735668108E+00 -0.6249163781076E+00 -0.4918856299231E-01 -0.2641893695232E+01
 0.4685486857122E+00 -0.6449870393688E+00 -0.3528767125714E-01 -0.2572510396974E+01
 0.5623370065645E+00 -0.6682526618386E+00 -0.2118313137046E-01 -0.2456365544945E+01
 0.6579713906719E+00 -0.6936292013632E+00 -0.7131562244530E-02 -0.2284078186039E+01
 0.7525585489611E+00 -0.7196891616497E+00  0.6573877560228E-02 -0.2046340844371E+01
 0.8427214768126E+00 -0.7446930105311E+00  0.1960569354844E-01 -0.1734434939970E+01
 0.9247887627062E+00 -0.7666858461390E+00  0.3162058378463E-01 -0.1340496032384E+01
-0.1011100782011E+00 -0.4244454407294E+00 -0.1051111053524E+00 -0.8927006344093E+00
-0.9315834590810E-01 -0.4285998726880E+00 -0.1043516452742E+00 -0.1079275497987E+01
-0.8702335322825E-01 -0.4325900530429E+00 -0.1039226828028E+00 -0.1248358324898E+01
-0.8239017684751E-01 -0.4365725489644E+00 -0.1037925467090E+00 -0.1397737104754E+01
-0.7893478816775E-01 -0.4406833501345E+00 -0.1039236292090E+00 -0.1526536454324E+01
-0.7637870497642E-01 -0.4450032556221E+00 -0.1042763936735E+00 -0.1635096241045E+01
-0.7452117957325E-01 -0.4495408552083E+00 -0.1048124085181E+00 -0.1724741731560E+01
-0.7324713352155E-01 -0.4542334515338E+00 -0.1054961185831E+00 -0.1797497168084E+01
-0.7251546374625E-01 -0.4589614712213E+00 -0.1062953885774E+00 -0.1855795474880E+01
-0.7233559656301E-01 -0.4635697594705E+00 -0.1071810728038E+00 -0.1902223335002E+01
-0.7274012703988E-01 -0.4678895918748E+00 -0.1081259453941E+00 -0.1939322879480E+01
-0.7375927919287E-01 -0.4717573323335E+00 -0.1091033239310E+00 -0.1969455750442E+01
-0.7540019349079E-01 -0.4750279659597E+00 -0.1100856335305E+00 -0.1994723266373E+01
-0.7763170326883E-01 -0.4775836395137E+00 -0.1110430702112E+00 -0.2016931050080E+01
-0.8037380928537E-01 -0.4793385393314E+00 -0.1119424713914E+00 -0.2037586068469E+01
-0.8349038264322E-01 -0.4802410722092E+00 -0.1127462926505E+00 -0.2057914834349E+01
-0.8678295538268E-01 -0.4802506336013E+00 -0.1134067194867E+00 -0.2078901601459E+01
-0.8998497752031E-01 -0.4793202451405E+00 -0.1138610462288E+00 -0.2101317898242E+01
-0.9275910012007E-01 -0.4774545065921E+00 -0.1140427230418E+00 -0.2125748199246E+01
-0.9469676487521E-01 -0.4747569491124E+00 -0.1138907444946E+00 -0.2152643520796E+01
-0.9531803190874E-01 -0.4714146525053E+00 -0.1133465385718E+00 -0.2182355949494E+01
-0.9407350897403E-01 -0.4676809158527E+00 -0.1123508866395E+00 -0.2215158776450E+01
-0.9034968652202E-01 -0.4638676283927E+00 -0.1108434646346E+00 -0.2251250071492E+01
-0.8347884224878E-01 -0.4603425222855E+00 -0.1087642745276E+00 -0.2290735091975E+01
-0.7275456631163E-01 -0.4575261927649E+00 -0.1060561533957E+00 -0.2333584286617E+01
-0.5745433324608E-01 -0.4558859139705E+00 -0.1026680509732E+00 -0.2379562002515E+01
-0.3687062591440E-01 -0.4559242260993E+00 -0.9855897187139E-01 -0.2428125172444E+01
-0.1035190438928E-01 -0.4581658329824E+00 -0.9370354887062E-01 -0.2478294341646E+01
 0.2264786296465E-01 -0.4631355851201E+00 -0.8809754574385E-01 -0.2528507369265E+01
 0.6251139885384E-01 -0.4713177124204E+00 -0.8176126393166E-01 -0.2576457402872E+01
 0.1093915479770E+00 -0.4831083883782E+00 -0.7474336919400E-01 -0.2618928470509E+01
 0.1631399251255E+00 -0.4987682164171E+00 -0.6712565925858E-01 -0.2651658302695E+01
 0.2232373251006E+00 -0.5183729912496E+00 -0.5902713410936E-01 -0.2669254664620E+01
 0.2887331685123E+00 -0.5417682428340E+00 -0.5060701561845E-01 -0.2665197167589E+01
 0.3582052001970E+00 -0.5685356313927E+00 -0.4206608686597E-01 -0.2631953929285E+01
 0.4297669506317E+00 -0.5979854134996E+00 -0.3364369307492E-01 -0.2561212052381E+01
 0.5011741847138E+00 -0.6291928848567E+00 -0.2560374041010E-01 -0.2444102948753E+01
 0.5699156394639E+00 -0.6610139386318E+00 -0.1821966010508E-01 -0.2271393779661E+01
 0.6331667870224E+00 -0.6920554179165E+00 -0.1177772635432E-01 -0.2033914686480E+01
 0.6878361053163E+00 -0.7207186675064E+00 -0.6576512536019E-02 -0.1723061268879E+01
 0.7307223901091E+00 -0.7452866362376E+00 -0.2912849269104E-02 -0.1331050278239E+01
-0.2844225410312E-01 -0.1221175269246E+00 -0.3011195665424E-01 -0.8914911410047E+00
-0.2646045422569E-01 -0.1241654869540E+00 -0.3012518868484E-01 -0.1078159688614E+01
-0.2737594364632E-01 -0.1261836996780E+00 -0.3071192912250E-01 -0.1247222451868E+01
-0.3036577599303E-01 -0.1286234520378E+00 -0.3179784607998E-01 -0.1396469327996E+01
-0.3461812974672E-01 -0.1318841460515E+00 -0.3330045565587E-01 -0.1525049519622E+01
-0.3943661061568E-01 -0.1362477324268E+00 -0.3513686913208E-01 -0.1633342006207E+01
-0.4430385895369E-01 -0.1418453298473E+00 -0.3722983831497E-01 -0.1722715544621E+01
-0.4889989646145E-01 -0.1486575208999E+00 -0.3951148406104E-01 -0.1795233310488E+01
-0.5308304956697E-01 -0.1565405528716E+00 -0.4192472111244E-01 -0.1853356887034E+01
-0.5684773078861E-01 -0.1652663440384E+00 -0.4442281562736E-01 -0.1899689272980E+01
-0.6027367098062E-01 -0.1745646963503E+00 -0.4696767416606E-01 -0.1936777398777E+01
-0.6347763949130E-01 -0.1841597958885E+00 -0.4952748781398E-01 -0.1966978649893E+01
-0.6657371038964E-01 -0.1937972571008E+00 -0.5207419427405E-01 -0.1992383930117E+01
-0.6964380073083E-01 -0.2032614827924E+00 -0.5458105751798E-01 -0.2014784795524E+01
-0.7271745138872E-01 -0.2123854943350E+00 -0.5702058999441E-01 -0.2035672216590E+01
-0.7575841369839E-01 -0.2210548094260E+00 -0.5936264550944E-01 -0.2056255666557E+01
-0.7865429568605E-01 -0.2291679019824E+00 -0.6156444045108E-01 -0.2077501054420E+01
-0.8120842790827E-01 -0.2366048554076E+00 -0.6356265761033E-01 -0.2100159655392E+01
-0.8313788053895E-01 -0.2433198215584E+00 -0.6529154139238E-01 -0.2124794558576E+01
-0.8407535310801E-01 -0.2494159694702E+00 -0.6669826550952E-01 -0.2151835010859E+01
-0.8357208216100E-01 -0.2551150316044E+00 -0.6773742376244E-01 -0.2181610673330E+01
-0.8110466008354E-01 -0.2607228466710E+00 -0.6836550236964E-01 -0.2214371690611E+01
-0.7608738923294E-01 -0.2666102423845E+00 -0.6853952734481E-01 -0.2250292705814E+01
-0.6789119756231E-01 -0.2732019236595E+00 -0.6821862526089E-01 -0.2289456203042E+01
-0.5586982037507E-01 -0.2809659494013E+00 -0.6736715495912E-01 -0.2331811916544E+01
-0.3939424679160E-01 -0.2903991989663E+00 -0.6595869013445E-01 -0.2377107439578E+01
-0.1789623111097E-01 -0.3020068605621E+00 -0.6398061928799E-01 -0.2424789322437E+01
 0.9078366340159E-02 -0.3162838055632E+00 -0.6144108876014E-01 -0.2473877271924E+01
 0.4180944560436E-01 -0.3336869880524E+00 -0.5837550935946E-01 -0.2522821456114E+01
 0.8033874170843E-01 -0.3545829094499E+00 -0.5484883436560E-01 -0.2569343456514E+01
 0.1244033229982E+00 -0.3791924356665E+00 -0.5095782329298E-01 -0.2610273992058E+01
 0.1733727521892E+00 -0.4075452956733E+00 -0.4683450939470E-01 -0.2641416710634E+01
 0.2261989215961E+00 -0.4394408887774E+00 -0.4264839407178E-01 -0.2657463427259E+01
 0.2813869155367E+00 -0.4744224513188E+00 -0.3860710773171E-01 -0.2651992432593E+01
 0.3369969917601E+00 -0.5117733334631E+00 -0.3495526886149E-01 -0.2617579606380E+01
 0.3907006171451E+00 -0.5505500210352E+00 -0.3196988125441E-01 -0.2546022990513E+01
 0.4399353949617E+00 -0.5896656113417E+00 -0.2994604372223E-01 -0.2428565028278E+01
 0.4820435162435E+00 -0.6279168717486E+00 -0.2917467153577E-01 -0.2256076962145E+01
 0.5142632588368E+00 -0.6639444353779E+00 -0.2993623575431E-01 -0.2019473729073E+01
 0.5337793166807E+00 -0.6962885491496E+00 -0.3250184697809E-01 -0.1710213839336E+01
 0.5378480172164E+00 -0.7234666972790E+00 -0.3712373656571E-01 -0.1320558319049E+01
 0.4429067931629E-01  0.1805900876872E+00  0.4497615407090E-01 -0.8910673288157E+00
 0.4024251557788E-01  0.1806676957622E+00  0.4418204292639E-01 -0.1077835004253E+01
 0.3221184218133E-01  0.1806335726228E+00  0.4256908359515E-01 -0.1246769763760E+01
 0.2154188549083E-01  0.1797352589915E+00  0.4025542949631E-01 -0.1395668361131E+01
 0.9541668551955E-02  0.1773060418127E+00  0.3736954262979E-01 -0.1523723645344E+01
-0.2669796008213E-02  0.1728624439529E+00  0.3403853009615E-01 -0.1631381999833E+01
-0.1425870795526E-01  0.1661536896816E+00  0.3037899679796E-01 -0.1720086887241E+01
-0.2470406239537E-01  0.1571608440071E+00  0.2649135671711E-01 -0.1791968902171E+01
-0.3376941111736E-01  0.1460573363352E+00  0.2245758537822E-01 -0.1849540351409E+01
-0.4144020408276E-01  0.1331490087424E+00  0.1834176120523E-01 -0.1895434772746E+01
-0.4784848058379E-01  0.1188110018011E+00  0.1419250445495E-01 -0.1932210693637E+01
-0.5320134405724E-01  0.1034332554028E+00  0.1004638241881E-01 -0.1962222104627E+01
-0.5772220852404E-01  0.8738019067152E-01  0.5931596517883E-02 -0.1987546261520E+01
-0.6160739972205E-01  0.7096496414827E-01  0.1871512913132E-02 -0.2009955007464E+01
-0.6499664416111E-01  0.5443514651999E-01 -0.2112299559700E-02 -0.2030916521971E+01
-0.6795389996154E-01  0.3796752931348E-01 -0.5997274218979E-02 -0.2051616096045E+01
-0.7045309858945E-01  0.2172420878402E-01 -0.9745778106308E-02 -0.2072993821353E+01
-0.7236773102064E-01  0.5898015850071E-02 -0.1329394323221E-01 -0.2095772653214E+01
-0.7346961970282E-01 -0.9414394875882E-02 -0.1657680316275E-01 -0.2120486535860E+01
-0.7343305594761E-01 -0.2431507756216E-01 -0.1954962699327E-01 -0.2147536545229E+01
-0.7184067521996E-01 -0.3905933848465E-01 -0.2218000307143E-01 -0.2177225026862E+01
-0.6819502988720E-01 -0.5400425856420E-01 -0.2443985805446E-01 -0.2209775708242E+01
-0.6193781781689E-01 -0.6957821691139E-01 -0.2630320733760E-01 -0.2245338447344E+01
-0.5247764984728E-01 -0.8626157354942E-01 -0.2774784509282E-01 -0.2283973929278E+01
-0.3922670732535E-01 -0.1045688036547E+00 -0.2875910262455E-01 -0.2325614938610E+01
-0.2164686501748E-01 -0.1250258566654E+00 -0.2933454477370E-01 -0.2369999302951E+01
 0.6945953769995E-03 -0.1481408071390E+00 -0.2948924279182E-01 -0.2416573732664E+01
 0.2805941492748E-01 -0.1743799545042E+00 -0.2926410835142E-01 -0.2464371549246E+01
 0.6046763659862E-01 -0.2041348181487E+00 -0.2873343673817E-01 -0.2511873681796E+01
 0.9762730706566E-01 -0.2376578404630E+00 -0.2800610709680E-01 -0.2556851688719E+01
 0.1388674915445E+00 -0.2749992125586E+00 -0.2722634460853E-01 -0.2596205812483E+01
 0.1830831159724E+00 -0.3159628664203E+00 -0.2657595048559E-01 -0.2625827188955E+01
 0.2287031889031E+00 -0.3600765692333E+00 -0.2627467645756E-01 -0.2640508529974E+01
 0.2736920410541E+00 -0.4065848550385E+00 -0.2657856319292E-01 -0.2633934927197E+01
 0.3155928575110E+00 -0.4544744865925E+00 -0.2777632623020E-01 -0.2598785719602E+01
 0.3516321603293E+00 -0.5025478541545E+00 -0.3018313921481E-01 -0.2526951196690E+01
 0.3789237201393E+00 -0.5495541678055E+00 -0.3412609004175E-01 -0.2409752964906E+01
 0.3946558732160E+00 -0.5942290310206E+00 -0.3991463215570E-01 -0.2238122630907E+01
 0.3961226298139E+00 -0.6352453174490E+00 -0.4782453823965E-01 -0.2003007113924E+01
 0.3807795160899E+00 -0.6712820417647E+00 -0.5810050600072E-01 -0.1695876474058E+01
 0.3463363458493E+00 -0.7010926152572E+00 -0.7095125493883E-01 -0.1308999272031E+01
 0.1171110402566E+00  0.4838542793849E+00  0.1201930657193E+00 -0.8914398987688E+00
 0.1069310372671E+00  0.4860919145916E+00  0.1186045921391E+00 -0.1078310606255E+01
 0.9167758004169E-01  0.4880659444954E+00  0.1159487066352E+00 -0.1247004533057E+01
 0.7323237661239E-01  0.4887132301498E+00  0.1123891230272E+00 -0.1395331028904E+01
 0.5341565060287E-01  0.4870940475862E+00  0.1081019412487E+00 -0.1522547191604E+01
 0.3377600765425E-01  0.4825229729615E+00  0.1032597976618E+00 -0.1629196799536E+01
 0.1546337255816E-01  0.4746340090905E+00  0.9801947779034E-01 -0.1716830537068E+01
-0.8060574854165E-03  0.4633773616661E+00  0.9251426221470E-01 -0.1787675514270E+01
-0.1470974377062E-01  0.4489644581580E+00  0.8685094417166E-01 -0.1844316759807E+01
-0.2623322004127E-01  0.4317862106913E+00  0.8111059933865E-01 -0.1889432043666E+01
-0.3556855706977E-01  0.4123279602647E+00  0.7535188176181E-01 -0.1925597566269E+01
-0.4301884100536E-01  0.3910967455870E+00  0.6961558195368E-01 -0.1955164098988E+01
-0.4892039636994E-01  0.3685680554568E+00  0.6392953277000E-01 -0.1980191501961E+01
-0.5358588589826E-01  0.3451523263620E+00  0.5831328896168E-01 -0.2002425962974E+01
-0.5726609136101E-01  0.3211767974919E+00  0.5278214201270E-01 -0.2023305979920E+01
-0.6012551187286E-01  0.2968795514275E+00  0.4735080861651E-01 -0.2043985569641E+01
-0.6222455771812E-01  0.2724824970765E+00  0.4205158849830E-01 -0.2065371666836E+01
-0.6350702228466E-01  0.2482510480912E+00  0.3694880571189E-01 -0.2088151001452E+01
-0.6379961246073E-01  0.2243328051653E+00  0.3210663901934E-01 -0.2112820769330E+01
-0.6281823978007E-01  0.2006274042092E+00  0.2756183329653E-01 -0.2139747603096E+01
-0.6017671817197E-01  0.1768468672947E+00  0.2333403017226E-01 -0.2169201731848E+01
-0.5540292616492E-01  0.1525839533241E+00  0.1943620572147E-01 -0.2201377236432E+01
-0.4796474551762E-01  0.1273538245891E+00  0.1587781605089E-01 -0.2236397813851E+01
-0.3730651172877E-01  0.1006213680217E+00  0.1266297144727E-01 -0.2274303232016E+01
-0.2289596736833E-01  0.7182615811012E-01  0.9786038294181E-02 -0.2315012903914E+01
-0.4281879342844E-02  0.4041292103231E-01  0.7226208445572E-02 -0.2358261584828E+01
 0.1883818579281E-01  0.5869434357956E-02  0.4941524103787E-02 -0.2403506286534E+01
 0.4654011383012E-01 -0.3224454999348E-01  0.2859112809931E-02 -0.2449807916469E+01
 0.7859178155062E-01 -0.7425902266902E-01  0.8665517892323E-03 -0.2495696112293E+01
 0.1143758629442E+00 -0.1203174992892E+00 -0.1188327286709E-02 -0.2539013523675E+01
 0.1528214427771E+00 -0.1703053378820E+00 -0.3496779073072E-02 -0.2576752523079E+01
 0.1923552954536E+00 -0.2238063612419E+00 -0.6290213251387E-02 -0.2604913404856E+01
 0.2308870830942E+00 -0.2800811105630E+00 -0.9838805640385E-02 -0.2618407128743E+01
 0.2658397421103E+00 -0.3380773993243E+00 -0.1444753165809E-01 -0.2611034594251E+01
 0.2942339869746E+00 -0.3964842116458E+00 -0.2045004523896E-01 -0.2575575393281E+01
 0.3128417126682E+00 -0.4538456370553E+00 -0.2820078529764E-01 -0.2503994361027E+01
 0.3184403882896E+00 -0.5087412735898E+00 -0.3806017762718E-01 -0.2387660892407E+01
 0.3080520454219E+00 -0.5598403783713E+00 -0.5035766734028E-01 -0.2217522920623E+01
 0.2790180580942E+00 -0.6058453761808E+00 -0.6536546459134E-01 -0.1984505380322E+01
 0.2290633392383E+00 -0.6455757634942E+00 -0.8330248609248E-01 -0.1680037039286E+01
 0.1563560809869E+00 -0.6780271568188E+00 -0.1043342167211E+00 -0.1296356315492E+01
 0.1900411919474E+00  0.7878552462795E+00  0.1955792905597E+00 -0.8926256796948E+00
 0.1735841235109E+00  0.7923031838790E+00  0.1931774643565E+00 -0.1079601126005E+01
 0.1509559971354E+00  0.7963215129269E+00  0.1894555048356E+00 -0.1247934513261E+01
 0.1246015898739E+00  0.7985236559489E+00  0.1846250519157E+00 -0.1395454646937E+01
 0.9687112899818E-01  0.7976893598885E+00  0.1789121004433E+00 -0.1521505671600E+01
 0.6975198801163E-01  0.7929309600900E+00  0.1725365921913E+00 -0.1626761158393E+01
 0.4470948729474E-01  0.7837735128485E+00  0.1656966024977E+00 -0.1712913352187E+01
 0.2264689459897E-01  0.7701466876582E+00  0.1585587188141E+00 -0.1782315809779E+01
 0.3961001836842E-02  0.7523112258200E+00  0.1512544477852E+00 -0.1837648158330E+01
-0.1134599600712E-01  0.7307529461113E+00  0.1438813921648E+00 -0.1881645326192E+01
-0.2353650357479E-01  0.7060743889378E+00  0.1365075791067E+00 -0.1916906236988E+01
-0.3301704519623E-01  0.6789035849776E+00  0.1291773098812E+00 -0.1945777649559E+01
-0.4024149851780E-01  0.6498283699891E+00  0.1219173761110E+00 -0.1970297553220E+01
-0.4564129880809E-01  0.6193559787581E+00  0.1147429376998E+00 -0.1992180112552E+01
-0.4957929867123E-01  0.5878919638578E+00  0.1076625346416E+00 -0.2012827102111E+01
-0.5232082944620E-01  0.5557341911979E+00  0.1006826738506E+00 -0.2033354220757E+01
-0.5401282020281E-01  0.5231631933399E+00  0.9383007602559E-01 -0.2054628064839E+01
-0.5466936857282E-01  0.4905163211594E+00  0.8716939181623E-01 -0.2077291428238E+01
-0.5417200801634E-01  0.4579920479459E+00  0.8076400918939E-01 -0.2101797338285E+01
-0.5227801063382E-01  0.4254921100235E+00  0.7464282099020E-01 -0.2128471853483E+01
-0.4863172541811E-01  0.3926966007598E+00  0.6881297609373E-01 -0.2157548369790E+01
-0.4278513675328E-01  0.3591490093157E+00  0.6327277545532E-01 -0.2189188111741E+01
-0.3423033132394E-01  0.3243088713015E+00  0.5801570886001E-01 -0.2223487184805E+01
-0.2244445552058E-01  0.2875868529920E+00  0.5302848028446E-01 -0.2260465174513E+01
-0.6946784812569E-02  0.2483765218868E+00  0.4828594813437E-01 -0.2300031440591E+01
 0.1263233564781E-01  0.2060923045261E+00  0.4374492868663E-01 -0.2341923974483E+01
 0.3647175922030E-01  0.1602156160774E+00  0.3933747564572E-01 -0.2385619731224E+01
 0.6446958702486E-01  0.1103285388600E+00  0.3495962569791E-01 -0.2430220604799E+01
 0.9615066079027E-01  0.5615729413323E-01  0.3046159143861E-01 -0.2474322334690E+01
 0.1305816905761E+00 -0.2339313129874E-02  0.2564847587143E-01 -0.2515859377130E+01
 0.1663001881775E+00 -0.6488892831425E-01  0.2028225227489E-01 -0.2551938766419E+01
 0.2012705136267E+00 -0.1308616933240E+00  0.1408176427038E-01 -0.2578692030764E+01
 0.2328842297412E+00 -0.1992551435696E+00  0.6725817334543E-02 -0.2591166692178E+01
 0.2580181504617E+00 -0.2687209109588E+00 -0.2140552131315E-02 -0.2583289912084E+01
 0.2731593100789E+00 -0.3376461918710E+00 -0.1289737655061E-01 -0.2547939971835E+01
 0.2746082935628E+00 -0.4043086485691E+00 -0.2594007138779E-01 -0.2477139891984E+01
 0.2587865961906E+00 -0.4671083005100E+00 -0.4166434148471E-01 -0.2362275929197E+01
 0.2225318489767E+00 -0.5246394151087E+00 -0.6042151412674E-01 -0.2194267363256E+01
 0.1632227683486E+00 -0.5756298726751E+00 -0.8248142209437E-01 -0.1963960803913E+01
 0.7885621896088E-01 -0.6190432061110E+00 -0.1080373990399E+00 -0.1662687897609E+01
-0.3192683467812E-01 -0.6541287157559E+00 -0.1372111121314E+00 -0.1282617106397E+01
 0.2631035382056E+00  0.1092777562780E+01  0.2711762242379E+00 -0.8946478615625E+00
 0.2401788013043E+00  0.1099502493933E+01  0.2679362630400E+00 -0.1081726820226E+01
 0.2099779705881E+00  0.1105613518326E+01  0.2631183017036E+00 -0.1249570898660E+01
 0.1755404746182E+00  0.1109384340162E+01  0.2569849667855E+00 -0.1396036732054E+01
 0.1397704388829E+00  0.1109304824523E+01  0.2498150564038E+00 -0.1520581252278E+01
 0.1051052747366E+00  0.1104285142836E+01  0.2418780871188E+00 -0.1624043406983E+01
 0.7332418001397E-01  0.1093749901643E+01  0.2334148198096E+00 -0.1708293704526E+01
 0.4550663641914E-01  0.1077621746631E+01  0.2246256799571E+00 -0.1775843108926E+01
 0.2210834318891E-01  0.1056225267834E+01  0.2156667254183E+00 -0.1829487492168E+01
 0.3103705177927E-02  0.1030153614529E+01  0.2066514670207E+00 -0.1872030812277E+01
-0.1185293006824E-01  0.1000135195707E+01  0.1976564560730E+00 -0.1906098402171E+01
-0.2328071192138E-01  0.9669237045090E+00  0.1887286013298E+00 -0.1934030948216E+01
-0.3175666109102E-01  0.9312206898686E+00  0.1798928084361E+00 -0.1957839154302E+01
-0.3783380040317E-01  0.8936293599008E+00  0.1711591144500E+00 -0.1979198249385E+01
-0.4198811238652E-01  0.8546316892543E+00  0.1625287177954E+00 -0.1999466050059E+01
-0.4458594362773E-01  0.8145832648841E+00  0.1539994665460E+00 -0.2019712951462E+01
-0.4586063769502E-01  0.7738215917099E+00  0.1455921929725E+00 -0.2040758223884E+01
-0.4589645705713E-01  0.7327549925532E+00  0.1373717091462E+00 -0.2063193249679E+01
-0.4462952983074E-01  0.6916325366673E+00  0.1294006032955E+00 -0.2087419682310E+01
-0.4185796459159E-01  0.6503583249805E+00  0.1217000738913E+00 -0.2113717031526E+01
-0.3725560498265E-01  0.6085811305918E+00  0.1142651068245E+00 -0.2142277224953E+01
-0.3039676264465E-01  0.5657959042434E+00  0.1070798299154E+00 -0.2173225422998E+01
-0.2079501652995E-01  0.5214071703177E+00  0.1001224322495E+00 -0.2206628621805E+01
-0.7956496561769E-02  0.4747715969490E+00  0.9336302146866E-01 -0.2242486763362E+01
 0.8553111423990E-02  0.4252362406990E+00  0.8675787171738E-01 -0.2280702144324E+01
 0.2902846854821E-01  0.3721836180012E+00  0.8024241850560E-01 -0.2321021828016E+01
 0.5353297806517E-01  0.3150856992708E+00  0.7372373656576E-01 -0.2362951753984E+01
 0.8179654847808E-01  0.2535420440735E+00  0.6706771950971E-01 -0.2405647534436E+01
 0.1131116042416E+00  0.1873283877034E+00  0.6008799928439E-01 -0.2447787782298E+01
 0.1462395099287E+00  0.1164977436572E+00  0.5254745150019E-01 -0.2487419080919E+01
 0.1793351886964E+00  0.4147166850749E-01  0.4416137209883E-01 -0.2521785706145E+01
 0.2099058237474E+00 -0.3691365914319E-01  0.3459843343641E-01 -0.2547173180321E+01
 0.2348240865624E+00 -0.1173970465409E+00  0.2348540835425E-01 -0.2558785315787E+01
 0.2504120159083E+00 -0.1983332714826E+00  0.1041574904035E-01 -0.2550688019085E+01
 0.2526059079039E+00 -0.2778010424383E+00 -0.5039026981963E-02 -0.2515858942659E+01
 0.2372110251245E+00 -0.3537994765419E+00 -0.2331769063095E-01 -0.2446364710180E+01
 0.2002653807388E+00 -0.4245344974285E+00 -0.4485382400631E-01 -0.2333577998858E+01
 0.1383976752262E+00 -0.4885127979296E+00 -0.7002302558410E-01 -0.2168342917002E+01
 0.4901171469087E-01 -0.5444817884630E+00 -0.9909401623105E-01 -0.1941367727360E+01
-0.6961703100248E-01 -0.5915543938050E+00 -0.1322342869319E+00 -0.1643826443729E+01
-0.2183500576175E+00 -0.6292507527847E+00 -0.1695201646065E+00 -0.1267774273069E+01
 0.3363205123809E+00  0.1398811324661E+01  0.3470263725794E+00 -0.8975362984785E+00
 0.3066895255496E+00  0.1407897114193E+01  0.3429173330584E+00 -0.1084713768570E+01
 0.2686694232296E+00  0.1416161664955E+01  0.3369662226581E+00 -0.1251928258265E+01
 0.2259336649425E+00  0.1421518812329E+01  0.3294905003640E+00 -0.1397074603027E+01
 0.1819696226909E+00  0.1422157345391E+01  0.3208253983970E+00 -0.1519752080264E+01
 0.1396779500157E+00  0.1416786057256E+01  0.3112928060929E+00 -0.1621004657017E+01
 0.1011489066087E+00  0.1404740331233E+01  0.3011778520562E+00 -0.1702920734848E+01
 0.6762401221540E-01  0.1385952953265E+01  0.2907153974281E+00 -0.1768200825839E+01
 0.3959856898033E-01  0.1360830392454E+01  0.2800857964604E+00 -0.1819778281706E+01
 0.1700011228405E-01  0.1330088200333E+01  0.2694176665379E+00 -0.1860536551490E+01
-0.6158103089511E-03  0.1294590889906E+01  0.2587950197758E+00 -0.1893129317875E+01
-0.1389178567239E-01  0.1255223075757E+01  0.2482662617165E+00 -0.1919887554189E+01
-0.2353435230755E-01  0.1212801269112E+01  0.2378533869053E+00 -0.1942788116031E+01
-0.3022115341668E-01  0.1168023307840E+01  0.2275604342755E+00 -0.1963459734321E+01
-0.3454227700297E-01  0.1121445033814E+01  0.2173805546014E+00 -0.1983208815573E+01
-0.3696508067676E-01  0.1073477060927E+01  0.2073023991392E+00 -0.2003053549634E+01
-0.3780904092466E-01  0.1024511717954E+01  0.1973405383464E+00 -0.2023759134938E+01
-0.3722830588864E-01  0.9750270101879E+00  0.1875597436547E+00 -0.2045858351082E+01
-0.3521321436758E-01  0.9253221376102E+00  0.1780217873013E+00 -0.2069694523162E+01
-0.3160195314307E-01  0.8753037085288E+00  0.1687403535916E+00 -0.2095494810966E+01
-0.2609645469483E-01  0.8245896811320E+00  0.1596986476671E+00 -0.2123405119977E+01
-0.1829105415970E-01  0.7726270805051E+00  0.1508672075172E+00 -0.2153511326685E+01
-0.7717415422274E-02  0.7187658737559E+00  0.1422096937858E+00 -0.2185849686260E+01
 0.6094040326172E-02  0.6623087172087E+00  0.1336805534990E+00 -0.2220400797682E+01
 0.2353737639441E-01  0.6025552975858E+00  0.1252185366619E+00 -0.2257062493788E+01
 0.4484005819030E-01  0.5388540799974E+00  0.1167388293771E+00 -0.2295596186696E+01
 0.6995955363476E-01  0.4706637426077E+00  0.1081246608597E+00 -0.2335545135593E+01
 0.9846869148919E-01  0.3975954170198E+00  0.9921282318019E-01 -0.2376130622186E+01
 0.1294396488201E+00  0.3194663044947E+00  0.8978119200082E-01 -0.2416130191937E+01
 0.1613404267893E+00  0.2364139609139E+00  0.7955087872605E-01 -0.2453722452198E+01
 0.1919531701381E+00  0.1489990937969E+00  0.6819045380313E-01 -0.2486311632282E+01
 0.2183329431693E+00  0.5825565616911E-01  0.5531772069198E-01 -0.2510360941350E+01
 0.2368310168600E+00 -0.3430108811005E-01  0.4050598635357E-01 -0.2521252063095E+01
 0.2432022837705E+00 -0.1267274874929E+00  0.2329495960263E-01 -0.2513204771007E+01
 0.2328093377407E+00 -0.2167845467593E+00  0.3204958244038E-02 -0.2479299693861E+01
 0.2009303269184E+00 -0.3021766463122E+00 -0.2024926418051E-01 -0.2411634807800E+01
 0.1431835637834E+00 -0.3808961379493E+00 -0.4754251554162E-01 -0.2301539412668E+01
 0.5595673580548E-01 -0.4513449468843E+00 -0.7907764339412E-01 -0.2139733840988E+01
-0.6333660969191E-01 -0.5122816303688E+00 -0.1151236497276E+00 -0.1916722880121E+01
-0.2161315962481E+00 -0.5629755589284E+00 -0.1558214333572E+00 -0.1623455740031E+01
-0.4027557832322E+00 -0.6032412141795E+00 -0.2011994024804E+00 -0.1251825990839E+01
 0.4097145574348E+00  0.1706153414203E+01  0.4231736006334E+00 -0.9013278891980E+00
 0.3730875105277E+00  0.1717702031666E+01  0.4181579146697E+00 -0.1088594115597E+01
 0.3269500840390E+00  0.1728193563310E+01  0.4110287355947E+00 -0.1255024433714E+01
 0.2756579709367E+00  0.1735157514555E+01  0.4021631030910E+00 -0.1398564849433E+01
 0.2233170284193E+00  0.1736468578615E+01  0.3919571272475E+00 -0.1518991406131E+01
 0.1733060474916E+00  0.1730636122492E+01  0.3807884396709E+00 -0.1617597784536E+01
 0.1280215639647E+00  0.1716920920243E+01  0.3689885023398E+00 -0.1696733418399E+01
 0.8884889849443E-01  0.1695287289124E+01  0.3568272428408E+00 -0.1759321777396E+01
 0.5629914512601E-01  0.1666245425701E+01  0.3445089192990E+00 -0.1808454239291E+01
 0.3023006991953E-01  0.1630651051340E+01  0.3321762292018E+00 -0.1847102355937E+01
 0.1008022074142E-01  0.1589516434383E+01  0.3199193357921E+00 -0.1877947922048E+01
-0.4928718672176E-02  0.1543862714572E+01  0.3077868037664E+00 -0.1903306645684E+01
-0.1563975769395E-01  0.1494622245706E+01  0.2957965020101E+00 -0.1925113620867E+01
-0.2285821229438E-01  0.1442585423456E+01  0.2839454464634E+00 -0.1944942781243E+01
-0.2728901607411E-01  0.1388378589978E+01  0.2722179188371E+00 -0.1964041450671E+01
-0.2950025445535E-01  0.1332463972618E+01  0.2605927475157E+00 -0.1983368842159E+01
-0.2989704241734E-01  0.1275286041003E+01  0.2490778034288E+00 -0.2003629641961E+01
-0.2870300061388E-01  0.1217390867449E+01  0.2377375769095E+00 -0.2025291179032E+01
-0.2596217171427E-01  0.1159127148506E+01  0.2266329987355E+00 -0.2048631787881E+01
-0.2155186553039E-01  0.1100404051805E+01  0.2157704404702E+00 -0.2073820670565E+01
-0.1520036911274E-01  0.1040809160429E+01  0.2051217613198E+00 -0.2100953240799E+01
-0.6519249536011E-02  0.9797421158325E+00  0.1946445761597E+00 -0.2130072850370E+01
 0.4945802567777E-02  0.9164986852781E+00  0.1842889003153E+00 -0.2161183248455E+01
 0.1964557634773E-01  0.8503273510224E+00  0.1739945880668E+00 -0.2194245719069E+01
 0.3794101444236E-01  0.7804793263535E+00  0.1636840705983E+00 -0.2229155783400E+01
 0.6000133131012E-01  0.7062664781892E+00  0.1532535641835E+00 -0.2265693836570E+01
 0.8568891192490E-01  0.6271297031044E+00  0.1425637251302E+00 -0.2303447975295E+01
 0.1144321393489E+00  0.5426848441589E+00  0.1314233986599E+00 -0.2341716193844E+01
 0.1450967453263E+00  0.4527812079336E+00  0.1195755924338E+00 -0.2379390196715E+01
 0.1758709013260E+00  0.3576296141803E+00  0.1067001046912E+00 -0.2414800017953E+01
 0.2041749159533E+00  0.2579181457177E+00  0.9241861371134E-01 -0.2445532720344E+01
 0.2266170108518E+00  0.1548684821212E+00  0.7629709973152E-01 -0.2468254029912E+01
 0.2390232376173E+00  0.5024451291986E-01  0.5785355096952E-01 -0.2478547358551E+01
 0.2365655241018E+00 -0.5370960653597E-01  0.3657118405812E-01 -0.2470804748852E+01
 0.2140038356971E+00 -0.1544256934434E+00  0.1191562862830E-01 -0.2438217108711E+01
 0.1660490751793E+00 -0.2492930546759E+00 -0.1664879614741E-01 -0.2372904553337E+01
 0.8785379394946E-01 -0.3360655388443E+00 -0.4964234971869E-01 -0.2266124175293E+01
-0.2447647850519E-01 -0.4130176258870E+00 -0.8749882218227E-01 -0.2108421378027E+01
-0.1735381453323E+00 -0.4789072782608E+00 -0.1304890866631E+00 -0.1890025679482E+01
-0.3604619817662E+00 -0.5331688407993E+00 -0.1787261671763E+00 -0.1601585276445E+01
-0.5849918370736E+00 -0.5759419154669E+00 -0.2321867539680E+00 -0.1234776656418E+01
 0.4833080942310E+00  0.2015008920087E+01  0.4996634103092E+00 -0.9060670452013E+00
 0.4393399547960E+00  0.2029141563042E+01  0.4936963109242E+00 -0.1093406359523E+01
 0.3847320748506E+00  0.2041946326874E+01  0.4853356875771E+00 -0.1258880386950E+01
 0.3245806981403E+00  0.2050539073085E+01  0.4750239613234E+00 -0.1400502638710E+01
 0.2636518043489E+00  0.2052465610520E+01  0.4632234898763E+00 -0.1518266471812E+01
 0.2058185447466E+00  0.2046039613891E+01  0.4503716384386E+00 -0.1613766164984E+01
 0.1537760960611E+00  0.2030466087947E+01  0.4368484433111E+00 -0.1689659428629E+01
 0.1090303576402E+00  0.2005767197962E+01  0.4229595174231E+00 -0.1749127366951E+01
 0.7207924938720E-01  0.1972582894435E+01  0.4089324348581E+00 -0.1795438839658E+01
 0.4268376867038E-01  0.1931929548972E+01  0.3949226694132E+00 -0.1831659720939E+01
 0.2014463989951E-01  0.1884980038825E+01  0.3810249414226E+00 -0.1860497011432E+01
 0.3534244892176E-02  0.1832897668146E+01  0.3672863880806E+00 -0.1884243343787E+01
-0.8134170732986E-02  0.1776730841366E+01  0.3537193393973E+00 -0.1904782596766E+01
-0.1579643040084E-01  0.1717359467830E+01  0.3403126125569E+00 -0.1923624808178E+01
-0.2027264145808E-01  0.1655476043492E+01  0.3270406852801E+00 -0.1941950349737E+01
-0.2223095202025E-01  0.1591590180974E+01  0.3138718504677E+00 -0.1960652885156E+01
-0.2216137232619E-01  0.1526195235659E+01  0.3008067771489E+00 -0.1980370534943E+01
-0.2035646051107E-01  0.1459903407675E+01  0.2879093937230E+00 -0.2001498743273E+01
-0.1691337140419E-01  0.1393112112470E+01  0.2752397523146E+00 -0.2024244531282E+01
-0.1174743050978E-01  0.1325733074270E+01  0.2627971326680E+00 -0.2048713751681E+01
-0.4611258524392E-02  0.1257323918092E+01  0.2505425356468E+00 -0.2074946946785E+01
 0.4869584235554E-02  0.1187237427180E+01  0.2384214058358E+00 -0.2102941678531E+01
 0.1714004145677E-01  0.1114715504213E+01  0.2263711125071E+00 -0.2132667280766E+01
 0.3263836099795E-01  0.1038952248135E+01  0.2143181250201E+00 -0.2164065453731E+01
 0.5170038894536E-01  0.9591491797481E+00  0.2021699167513E+00 -0.2197031064100E+01
 0.7444710123753E-01  0.8745787632406E+00  0.1898051757239E+00 -0.2231367400494E+01
 0.1006579319280E+00  0.7846591300942E+00  0.1770634150429E+00 -0.2266713980472E+01
 0.1296309697784E+00  0.6890031375564E+00  0.1637268239067E+00 -0.2302455498953E+01
 0.1600410245833E+00  0.5874815758037E+00  0.1495045223052E+00 -0.2337612058810E+01
 0.1898117412006E+00  0.4803655769276E+00  0.1340354656229E+00 -0.2370683908523E+01
 0.2160140293659E+00  0.3684568862768E+00  0.1168941848704E+00 -0.2399463968080E+01
 0.2348152456285E+00  0.2531529821791E+00  0.9759364701577E-01 -0.2420846597229E+01
 0.2415116039825E+00  0.1364596408304E+00  0.7559425008902E-01 -0.2430643465668E+01
 0.2306731641419E+00  0.2092357614656E-01  0.5031934880751E-01 -0.2423441242403E+01
 0.1964223503864E+00 -0.9054443843834E-01  0.2117558270514E-01 -0.2392553001738E+01
 0.1328537014692E+00 -0.1949941253731E+00 -0.1242808496597E-01 -0.2330115716902E+01
 0.3459670434899E-01 -0.2899098799330E+00 -0.5106263587769E-01 -0.2227286959983E+01
-0.1025774526112E+00 -0.3734094693713E+00 -0.9519738581505E-01 -0.2074383187088E+01
-0.2813009285123E+00 -0.4442338955967E+00 -0.1451069669841E+00 -0.1861278495242E+01
-0.5023812427258E+00 -0.5019920272684E+00 -0.2008746569921E+00 -0.1578231892783E+01
-0.7649129730053E+00 -0.5471878732810E+00 -0.2624201731676E+00 -0.1216637684162E+01
 0.5571234741953E+00  0.2325592753727E+01  0.5765432541756E+00 -0.9118062591675E+00
 0.5054091293982E+00  0.2342451186322E+01  0.5695720716312E+00 -0.1099195690161E+01
 0.4419182772742E+00  0.2357668360497E+01  0.5599173358976E+00 -0.1263519978199E+01
 0.3725577553372E+00  0.2367911668541E+01  0.5480938929428E+00 -0.1402880821852E+01
 0.3028022739569E+00  0.2370381603883E+01  0.5346367835347E+00 -0.1517537116162E+01
 0.2370363598716E+00  0.2363202486205E+01  0.5200477769647E+00 -0.1609442126387E+01
 0.1782422056964E+00  0.2345547674773E+01  0.5047579836154E+00 -0.1681613785448E+01
 0.1280169479265E+00  0.2317529257040E+01  0.4891092482815E+00 -0.1737526648608E+01
 0.8681046311131E-01  0.2279947524488E+01  0.4733516045734E+00 -0.1780644861665E+01
 0.5425560029445E-01  0.2234002653921E+01  0.4576516576627E+00 -0.1814131782954E+01
 0.2949188883953E-01  0.2181041889392E+01  0.4421067622342E+00 -0.1840713492598E+01
 0.1142782133116E-01  0.2122375987761E+01  0.4267607681776E+00 -0.1862649123421E+01
-0.1074381294853E-02  0.2059168581564E+01  0.4116188461874E+00 -0.1881760174882E+01
-0.9083388441549E-02  0.1992384801309E+01  0.3966602884843E+00 -0.1899482859952E+01
-0.1353419692802E-01  0.1922777787742E+01  0.3818487238529E+00 -0.1916922586808E+01
-0.1519385847700E-01  0.1850899395966E+01  0.3671411129687E+00 -0.1934901192187E+01
-0.1463625271262E-01  0.1777288004365E+01  0.3525303555837E+00 -0.1953984665067E+01
-0.1222223933197E-01  0.1702619685621E+01  0.3380794942955E+00 -0.1974490627171E+01
-0.8101457095165E-02  0.1627339684486E+01  0.3238476503040E+00 -0.1996548855703E+01
-0.2226040390929E-02  0.1551362265726E+01  0.3098272496839E+00 -0.2020196703671E+01
 0.5629318082714E-02  0.1474215537516E+01  0.2959689755300E+00 -0.2045415561242E+01
 0.1582870786696E-01  0.1395205992958E+01  0.2822069443702E+00 -0.2072153914111E+01
 0.2881291970786E-01  0.1313522066241E+01  0.2684670011902E+00 -0.2100344626414E+01
 0.4501458554611E-01  0.1228303332492E+01  0.2546635874023E+00 -0.2129909236595E+01
 0.6475328421832E-01  0.1138700434942E+01  0.2406907474187E+00 -0.2160743081111E+01
 0.8811273867457E-01  0.1043943546270E+01  0.2264112603628E+00 -0.2192675452000E+01
 0.1148027702342E+00  0.9434227314624E+00  0.2116451034931E+00 -0.2225402812868E+01
 0.1440068280537E+00  0.8367394749947E+00  0.1961492635325E+00 -0.2258405324851E+01
 0.1742261360230E+00  0.7237742417727E+00  0.1796000782354E+00 -0.2290844547506E+01
 0.2031371264164E+00  0.6048437985720E+00  0.1615961874057E+00 -0.2321408936801E+01
 0.2274756604451E+00  0.4808476711946E+00  0.1416646684389E+00 -0.2348120339396E+01
 0.2429754839365E+00  0.3533448910908E+00  0.1192640767826E+00 -0.2368129229806E+01
 0.2443981895543E+00  0.2245744773477E+00  0.9379453477805E-01 -0.2377505094071E+01
 0.2256904680928E+00  0.9738707837854E-01  0.6461551025712E-01 -0.2371056243997E+01
 0.1802963488882E+00 -0.2494910580659E-01  0.3106944907929E-01 -0.2342235407199E+01
 0.1016351908284E+00 -0.1391155819150E+00 -0.7496078329019E-02 -0.2283196188987E+01
-0.1625680442163E-01 -0.2422897300583E+00 -0.5170930766652E-01 -0.2184971682958E+01
-0.1780085324154E+00 -0.3323954137099E+00 -0.1020807907462E+00 -0.2037592436909E+01
-0.3863223161870E+00 -0.4081339385026E+00 -0.1588912533056E+00 -0.1830486840885E+01
-0.6416600780965E+00 -0.4692983856342E+00 -0.2221916960571E+00 -0.1553420922256E+01
-0.9423824793412E+00 -0.5168065697301E+00 -0.2918378141630E+00 -0.1197428466938E+01
 0.6311829112345E+00  0.2638131513007E+01  0.6538628945916E+00 -0.9186067900392E+00
 0.5712512917199E+00  0.2657879647450E+01  0.6458261974576E+00 -0.1106014378285E+01
 0.4984004238495E+00  0.2675621383746E+01  0.6348043709785E+00 -0.1268969647492E+01
 0.4194315050806E+00  0.2687534517354E+01  0.6213932137464E+00 -0.1405688785801E+01
 0.3405841766042E+00  0.2690456388176E+01  0.6062081219893E+00 -0.1516754041839E+01
 0.2667713702461E+00  0.2682331996389E+01  0.5898206821160E+00 -0.1604545080485E+01
 0.2012452091391E+00  0.2662333787888E+01  0.5727158079395E+00 -0.1672497274643E+01
 0.1456572299091E+00  0.2630702576123E+01  0.5552719694806E+00 -0.1724415282382E+01
 0.1003676515371E+00  0.2588434522851E+01  0.5377604428908E+00 -0.1763973925137E+01
 0.6484515702839E-01  0.2536939313320E+01  0.5203569018235E+00 -0.1794433341484E+01
 0.3804231524449E-01  0.2477752812968E+01  0.5031590331402E+00 -0.1818528730092E+01
 0.1868847685361E-01  0.2412337692459E+01  0.4862052411076E+00 -0.1838472328020E+01
 0.5487933932155E-02  0.2341970543985E+01  0.4694917025794E+00 -0.1856010241751E+01
-0.2762350417266E-02  0.2267695873187E+01  0.4529867113039E+00 -0.1872494108366E+01
-0.7111143043700E-02  0.2190320600225E+01  0.4366418979427E+00 -0.1888946310845E+01
-0.8422627649037E-02  0.2110432664598E+01  0.4204020136543E+00 -0.1906111001304E+01
-0.7353216008407E-02  0.2028610966298E+01  0.4042515560817E+00 -0.1924477081623E+01
-0.4331365269499E-02  0.1945592893882E+01  0.3882523115079E+00 -0.1944279005355E+01
 0.4414058391392E-03  0.1861870558110E+01  0.3724623983399E+00 -0.1965563825632E+01
 0.6977399247422E-02  0.1777360780663E+01  0.3568676412999E+00 -0.1988295513427E+01
 0.1548230351418E-01  0.1691562668025E+01  0.3414089993953E+00 -0.2012392136752E+01
 0.2631386233462E-01  0.1603737096820E+01  0.3260101966889E+00 -0.2037749808002E+01
 0.3991442463996E-01  0.1513019580489E+01  0.3105868056539E+00 -0.2064262733720E+01
 0.5671853179234E-01  0.1418495228560E+01  0.2950427564670E+00 -0.2091831405442E+01
 0.7703902734662E-01  0.1319262826527E+01  0.2792603749361E+00 -0.2120352195667E+01
 0.1009342263244E+00  0.1214507484136E+01  0.2630883460124E+00 -0.2149682638353E+01
 0.1280587873429E+00  0.1103585790025E+01  0.2463289191441E+00 -0.2179580481349E+01
 0.1574986465925E+00  0.9860789616394E+00  0.2287155250545E+00 -0.2209628705686E+01
 0.1876006760947E+00  0.8618642489902E+00  0.2098929881446E+00 -0.2239141967827E+01
 0.2158136781581E+00  0.7312876164861E+00  0.1894202617514E+00 -0.2267013882178E+01
 0.2385551985961E+00  0.5953280788483E+00  0.1667766579741E+00 -0.2291518150823E+01
 0.2511345782141E+00  0.4556891648829E+00  0.1413647507259E+00 -0.2310090192746E+01
 0.2477746195486E+00  0.3148318618151E+00  0.1125212979494E+00 -0.2319090191604E+01
 0.2217751997032E+00  0.1759106212978E+00  0.7953716538539E-01 -0.2313580499547E+01
 0.1658553213093E+00  0.4256667171651E-01  0.4168439922631E-01 -0.2287177739835E+01
 0.7268991935800E-01 -0.8148070893486E-01 -0.1758157941570E-02 -0.2232058367407E+01
-0.6436316441362E-01 -0.1930571447684E+00 -0.5148406260357E-01 -0.2139109590228E+01
-0.2504153499114E+00 -0.2898459608870E+00 -0.1080522637698E+00 -0.1998016428664E+01
-0.4882855952083E+00 -0.3704773194523E+00 -0.1717525854914E+00 -0.1797659414431E+01
-0.7780657060362E+00 -0.4349366851388E+00 -0.2426004818500E+00 -0.1527187643008E+01
-0.1117274245350E+01 -0.4846171396166E+00 -0.3203782817674E+00 -0.1177177590505E+01
 0.7055083860561E+00  0.2952865656663E+01  0.7316748194466E+00 -0.9265394850278E+00
 0.6368153772419E+00  0.2975691410160E+01  0.7225013682466E+00 -0.1113922217917E+01
 0.5540568446137E+00  0.2996082739974E+01  0.7100279274977E+00 -0.1275257963128E+01
 0.4650283046676E+00  0.3009679474108E+01  0.6949415661106E+00 -0.1408910984565E+01
 0.3767987630136E+00  0.3012936957230E+01  0.6779471541510E+00 -0.1515856672395E+01
 0.2948254820977E+00  0.3003636059660E+01  0.6596923181818E+00 -0.1598979285114E+01
 0.2226060823323E+00  0.2980987301437E+01  0.6407186863014E+00 -0.1662194626965E+01
 0.1618005168796E+00  0.2945406869578E+01  0.6214414865517E+00 -0.1709674397523E+01
 0.1126300669781E+00  0.2898127612626E+01  0.6021515448936E+00 -0.1745316054432E+01
 0.7435839327254E-01  0.2840796718704E+01  0.5830310310832E+00 -0.1772470977814E+01
 0.4572320748629E-01  0.2775152878659E+01  0.5641752256360E+00 -0.1793869018215E+01
 0.2525925143656E-01  0.2702813732528E+01  0.5456146049232E+00 -0.1811658806054E+01
 0.1150681261981E-01  0.2625164645974E+01  0.5273342995767E+00 -0.1827496096878E+01
 0.3128145089141E-02  0.2543321772141E+01  0.5092899910351E+00 -0.1842636435772E+01
-0.1037091123506E-02  0.2458137390478E+01  0.4914200671937E+00 -0.1858011201676E+01
-0.1947705703440E-02  0.2370228254576E+01  0.4736561168325E+00 -0.1874281581663E+01
-0.3409737847442E-03  0.2280208622295E+01  0.4559735364966E+00 -0.1891855190122E+01
 0.3287774683692E-02  0.2188874362841E+01  0.4384324340382E+00 -0.1910878667120E+01
 0.8685645312464E-02  0.2096763460837E+01  0.4210898275046E+00 -0.1931311374674E+01
 0.1583059013859E-01  0.2003795392883E+01  0.4039252026234E+00 -0.1953039314923E+01
 0.2491127295803E-01  0.1909440903609E+01  0.3868704410783E+00 -0.1975913189023E+01
 0.3628341550008E-01  0.1812916097348E+01  0.3698399080806E+00 -0.1999773447568E+01
 0.5039708048408E-01  0.1713304363867E+01  0.3527402941265E+00 -0.2024473344292E+01
 0.6769675965426E-01  0.1609636748488E+01  0.3354667066273E+00 -0.2049891151230E+01
 0.8849867770872E-01  0.1500959597575E+01  0.3178916597937E+00 -0.2075924275535E+01
 0.1128483098662E+00  0.1386410536478E+01  0.2998517737369E+00 -0.2102459797842E+01
 0.1403605929136E+00  0.1265307406560E+01  0.2811336040840E+00 -0.2129319768794E+01
 0.1700424920189E+00  0.1137201982113E+01  0.2614488987222E+00 -0.2156195720156E+01
 0.2001077287666E+00  0.1001954478175E+01  0.2404124449707E+00 -0.2182565344418E+01
 0.2277995901781E+00  0.8599218620436E+00  0.2175442936860E+00 -0.2207543000107E+01
 0.2492369373491E+00  0.7121417042078E+00  0.1922757311765E+00 -0.2229676741619E+01
 0.2593166411524E+00  0.5604416283120E+00  0.1639516563360E+00 -0.2246716977092E+01
 0.2517201119887E+00  0.4074898365657E+00  0.1318419916755E+00 -0.2255350992898E+01
 0.2190758933345E+00  0.2567419145923E+00  0.9516356300342E-01 -0.2250933679634E+01
 0.1533258933399E+00  0.1122275841364E+00  0.5311069628666E-01 -0.2227277860589E+01
 0.4632024612613E-01 -0.2189694675314E-01  0.4884659947385E-02 -0.2176597195692E+01
-0.1093636632061E+00 -0.1420531462765E+00 -0.5028336264579E-01 -0.2089616759979E+01
-0.3194227012883E+00 -0.2456261376836E+00 -0.1130097694784E+00 -0.1955614555300E+01
-0.5868557226111E+00 -0.3311318014162E+00 -0.1835975075413E+00 -0.1762807831451E+01
-0.9113603584846E+00 -0.3987516194268E+00 -0.2620223994867E+00 -0.1499579156088E+01
-0.1289475558998E+01 -0.4504295086279E+00 -0.3479810187105E+00 -0.1155924484912E+01
 0.7801215136057E+00  0.3270052068872E+01  0.8100347285660E+00 -0.9356857640897E+00
 0.7020414079472E+00  0.3296169533808E+01  0.7996422002667E+00 -0.1122987021470E+01
 0.6087497837147E+00  0.3319348050805E+01  0.7856195786105E+00 -0.1282414986714E+01
 0.5091556777610E+00  0.3334632759475E+01  0.7687576989026E+00 -0.1412525060156E+01
 0.4112307405105E+00  0.3338077820582E+01  0.7498617233923E+00 -0.1514770511189E+01
 0.3209897936965E+00  0.3327322251912E+01  0.7296624199945E+00 -0.1592631184890E+01
 0.2421417615200E+00  0.3301663925629E+01  0.7087611479911E+00 -0.1650572449803E+01
 0.1762979258056E+00  0.3261750140399E+01  0.6876096234870E+00 -0.1693169391155E+01
 0.1234827115943E+00  0.3209096790543E+01  0.6665159103594E+00 -0.1724549310264E+01
 0.8270896602850E-01  0.3145618409181E+01  0.6456654846630E+00 -0.1748143310306E+01
 0.5246992475195E-01  0.3073269944855E+01  0.6251479832368E+00 -0.1766656206410E+01
 0.3109061132839E-01  0.2993824966064E+01  0.6049831244934E+00 -0.1782152688556E+01
 0.1694259075201E-01  0.2908770984094E+01  0.5851427236884E+00 -0.1796181226432E+01
 0.8554648961975E-02  0.2819285848721E+01  0.5655681079642E+00 -0.1809889107392E+01
 0.4658404949632E-02  0.2726257029135E+01  0.5461830949558E+00 -0.1824108988883E+01
 0.4203784593762E-02  0.2630321622457E+01  0.5269050892616E+00 -0.1839414580283E+01
 0.6374657684704E-02  0.2532123404448E+01  0.5076996199919E+00 -0.1856128931160E+01
 0.1060950045796E-01  0.2432513643234E+01  0.4886246360195E+00 -0.1874307044174E+01
 0.1660435511591E-01  0.2332075227566E+01  0.4697359235360E+00 -0.1893816202296E+01
 0.2430392743630E-01  0.2230730519633E+01  0.4510068961343E+00 -0.1914460174358E+01
 0.3388254035180E-01  0.2127922716306E+01  0.4323610577743E+00 -0.1936018392277E+01
 0.4569849971026E-01  0.2022824229281E+01  0.4137045519629E+00 -0.1958272394145E+01
 0.6021612941407E-01  0.1914467474642E+01  0.3949367266962E+00 -0.1981032121967E+01
 0.7789833654281E-01  0.1801830337214E+01  0.3759457403535E+00 -0.2004152208811E+01
 0.9907529185457E-01  0.1683906759865E+01  0.3565964156577E+00 -0.2027530536838E+01
 0.1237927584743E+00  0.1559785078331E+01  0.3367155723785E+00 -0.2051084053664E+01
 0.1516422290585E+00  0.1428739544707E+01  0.3160763594631E+00 -0.2074700677881E+01
 0.1815715642707E+00  0.1290283308564E+01  0.2943709789534E+00 -0.2098184369003E+01
 0.2116845460170E+00  0.1144245006471E+01  0.2711859145385E+00 -0.2121183763556E+01
 0.2390438488553E+00  0.9909727110663E+00  0.2460033156501E+00 -0.2143047778916E+01
 0.2594927266671E+00  0.8315387710333E+00  0.2182063027916E+00 -0.2162620474028E+01
 0.2675311271195E+00  0.6678705913184E+00  0.1870803464753E+00 -0.2177998223972E+01
 0.2562991810133E+00  0.5028243882399E+00  0.1518247161130E+00 -0.2186235414598E+01
 0.2177296476156E+00  0.3401504057015E+00  0.1115760123260E+00 -0.2183024754116E+01
 0.1429304376729E+00  0.1842809737406E+00  0.6544228325785E-01 -0.2162417095346E+01
 0.2283474728662E-01  0.3984835824034E-01  0.1253662129220E-01 -0.2116687852613E+01
-0.1508819785067E+00 -0.8910432817899E-01 -0.4799726205235E-01 -0.2036390933014E+01
-0.3846298285537E+00 -0.1995938854100E+00 -0.1168447445339E+00 -0.1910335332747E+01
-0.6816738382902E+00 -0.2899636887072E+00 -0.1943275082952E+00 -0.1725945728479E+01
-0.1041299068272E+01 -0.3605850550564E+00 -0.2803768288436E+00 -0.1470656828042E+01
-0.1458891084960E+01 -0.4140435728428E+00 -0.3745869371424E+00 -0.1133721884477E+01
 0.8550433609490E+00  0.3589967115373E+01  0.8890021085116E+00 -0.9461387989448E+00
 0.7668585380027E+00  0.3619619085713E+01  0.8772955378159E+00 -0.1133285164949E+01
 0.6623221793996E+00  0.3645734286408E+01  0.8616113060006E+00 -0.1290471385368E+01
 0.5515990487532E+00  0.3662696809753E+01  0.8428591842609E+00 -0.1416499436921E+01
 0.4436460727997E+00  0.3666141130732E+01  0.8219574529545E+00 -0.1513403892968E+01
 0.3450439144764E+00  0.3653596344745E+01  0.7997280637611E+00 -0.1585366271944E+01
 0.2596657788390E+00  0.3624509740502E+01  0.7768351154439E+00 -0.1637476912555E+01
 0.1890037947293E+00  0.3579825908971E+01  0.7537659519720E+00 -0.1674748703147E+01
 0.1328179978363E+00  0.3521395780121E+01  0.7308427664819E+00 -0.1701539543601E+01
 0.8981976698579E-01  0.3451432221563E+01  0.7082504082635E+00 -0.1721341433587E+01
 0.5822711969876E-01  0.3372118167431E+01  0.6860690676492E+00 -0.1736808511246E+01
 0.3614132027871E-01  0.3285381166956E+01  0.6643045073458E+00 -0.1749897326919E+01
 0.2176245785244E-01  0.3192801241520E+01  0.6429127494547E+00 -0.1762030202801E+01
 0.1348911012620E-01  0.3095605421993E+01  0.6218189156896E+00 -0.1774233536755E+01
 0.9949989578874E-02  0.2994704267747E+01  0.6009308604198E+00 -0.1787234035404E+01
 0.1000809088626E-01  0.2890745475019E+01  0.5801507218260E+00 -0.1801514409401E+01
 0.1277076826294E-01  0.2784395819343E+01  0.5594333258575E+00 -0.1817310979659E+01
 0.1761084881764E-01  0.2676558681159E+01  0.5388339140246E+00 -0.1834584241579E+01
 0.2417331950735E-01  0.2567860962726E+01  0.5184068641715E+00 -0.1853105657846E+01
 0.3237054569450E-01  0.2458228325929E+01  0.4981197817473E+00 -0.1872592846237E+01
 0.4236523508173E-01  0.2347077453868E+01  0.4778885449110E+00 -0.1892750228449E+01
 0.5452313611605E-01  0.2233538443433E+01  0.4576123227289E+00 -0.1913297258195E+01
 0.6932972383596E-01  0.2116594348468E+01  0.4371848209755E+00 -0.1933998207637E+01
 0.8727511076475E-01  0.1995171473647E+01  0.4164893230886E+00 -0.1954682470090E+01
 0.1087142712038E+00  0.1868212255021E+01  0.3953853111367E+00 -0.1975247317124E+01
 0.1337067486588E+00  0.1734754852211E+01  0.3736923257424E+00 -0.1995638863756E+01
 0.1618375126245E+00  0.1594025851857E+01  0.3511726781291E+00 -0.2015810877006E+01
 0.1920163760622E+00  0.1445490927102E+01  0.3275014655130E+00 -0.2035681519576E+01
 0.2222624025408E+00  0.1288932146726E+01  0.3022389143572E+00 -0.2055075873172E+01
 0.2494855772040E+00  0.1124667217906E+01  0.2748305631174E+00 -0.2073588964953E+01
 0.2692806386332E+00  0.9537764999865E+00  0.2446114313689E+00 -0.2090381114953E+01
 0.2757707511563E+00  0.7782583887644E+00  0.2108058311254E+00 -0.2103926111058E+01
 0.2615589577344E+00  0.6011323818826E+00  0.1725382704944E+00 -0.2111688910241E+01
 0.2178593411973E+00  0.4264315639078E+00  0.1288581829411E+00 -0.2109752682242E+01
 0.1348850537005E+00  0.2590020114362E+00  0.7877741420122E-01 -0.2092459270591E+01
 0.2547960295486E-02  0.1039932329532E+00  0.2130823896726E-01 -0.2052183110648E+01
-0.1885218799798E+00 -0.3401827142854E-01 -0.4450803094488E-01 -0.1979307637277E+01
-0.4456051679164E+00 -0.1515973728113E+00 -0.1194405099253E+00 -0.1862112185464E+01
-0.7723500806506E+00 -0.2468387487305E+00 -0.2038377689137E+00 -0.1687086590365E+01
-0.1167626021997E+01 -0.3202789656529E+00 -0.2975810019642E+00 -0.1440499358642E+01
-0.1625448941589E+01 -0.3752486906844E+00 -0.4001395324172E+00 -0.1110639935983E+01
 0.9302941981458E+00  0.3912910321690E+01  0.9686409184011E+00 -0.9580049270249E+00
 0.8311826327888E+00  0.3946371223167E+01  0.9555107854293E+00 -0.1144902175511E+01
 0.7145937733009E+00  0.3975583334225E+01  0.9380354354830E+00 -0.1299457194884E+01
 0.5921179638742E+00  0.3994192229734E+01  0.9172620523898E+00 -0.1420790236612E+01
 0.4737896546394E+00  0.3997396474934E+01  0.8942372392398E+00 -0.1511643994220E+01
 0.3667555286377E+00  0.3982660224836E+01  0.8698831636570E+00 -0.1577025405416E+01
 0.2749893350403E+00  0.3949658069073E+01  0.8449294934130E+00 -0.1622731200375E+01
 0.1997775424940E+00  0.3899709914659E+01  0.8198975036479E+00 -0.1654242626929E+01
 0.1405377442248E+00  0.3835059160092E+01  0.7951193927116E+00 -0.1676140340454E+01
 0.9562465347641E-01  0.3758248099680E+01  0.7707745621167E+00 -0.1691949596981E+01
 0.6295004431428E-01  0.3671696493784E+01  0.7469293187497E+00 -0.1704241550198E+01
 0.4037931478680E-01  0.3577480088357E+01  0.7235718914108E+00 -0.1714836409230E+01
 0.2594096921842E-01  0.3477258181533E+01  0.7006398405906E+00 -0.1725009717827E+01
 0.1790911653477E-01  0.3372291582881E+01  0.6780401499867E+00 -0.1735654147152E+01
 0.1481656890707E-01  0.3263499758560E+01  0.6556632752636E+00 -0.1747383986885E+01
 0.1544480112004E-01  0.3151529932153E+01  0.6333949560930E+00 -0.1760588674844E+01
 0.1882729415168E-01  0.3037064694054E+01  0.6111784067484E+00 -0.1775416964484E+01
 0.2427152118816E-01  0.2921056096149E+01  0.5890655322452E+00 -0.1791733071131E+01
 0.3137098352513E-01  0.2804174303106E+01  0.5671090657768E+00 -0.1809209609655E+01
 0.4000631800231E-01  0.2686348921623E+01  0.5452710560502E+00 -0.1827474495593E+01
 0.5033134224099E-01  0.2566971413223E+01  0.5234605588930E+00 -0.1846153581722E+01
 0.6272434007735E-01  0.2445131294077E+01  0.5015711343049E+00 -0.1864901199473E+01
 0.7769912703070E-01  0.2319764441480E+01  0.4794927208471E+00 -0.1883433683253E+01
 0.9578203034413E-01  0.2189748027097E+01  0.4571060182996E+00 -0.1901553499506E+01
 0.1173637996781E+00  0.2053975009173E+01  0.4342677682413E+00 -0.1919155757018E+01
 0.1425313856372E+00  0.1911433743976E+01  0.4107930320439E+00 -0.1936214002679E+01
 0.1708805591183E+00  0.1761300229502E+01  0.3864361634823E+00 -0.1952746123557E+01
 0.2013051448363E+00  0.1602984542026E+01  0.3608579427497E+00 -0.1968783900049E+01
 0.2317666657455E+00  0.1436207109914E+01  0.3335947601028E+00 -0.1984331536152E+01
 0.2590535488352E+00  0.1261232459985E+01  0.3040572062949E+00 -0.1999238874550E+01
 0.2785436860159E+00  0.1079119151008E+01  0.2715325714510E+00 -0.2013000653717E+01
 0.2840092584959E+00  0.8919027755531E+00  0.2351824103143E+00 -0.2024499300396E+01
 0.2675260905609E+00  0.7027346647035E+00  0.1940521539445E+00 -0.2031656923130E+01
 0.2195701529734E+00  0.5159117624876E+00  0.1470963852841E+00 -0.2031007572346E+01
 0.1293967479597E+00  0.3366999125241E+00  0.9321933348583E-01 -0.2017249852386E+01
-0.1422048495789E-01  0.1708075814346E+00  0.3131741976200E-01 -0.1982910365844E+01
-0.2218653159515E+00  0.2342247594232E-01 -0.3968856859324E-01 -0.1918215707074E+01
-0.5018808880036E+00 -0.1014702853078E+00 -0.1206702364604E+00 -0.1810857742876E+01
-0.8584542346552E+00 -0.2016228087099E+00 -0.2120154118323E+00 -0.1646239061912E+01
-0.1290067817404E+01 -0.2776816824183E+00 -0.3135499046368E+00 -0.1409206067348E+01
-0.1789110752554E+01 -0.3338243608128E+00 -0.4245870290002E+00 -0.1086773922130E+01
 0.1005893157863E+01  0.4239208843677E+01  0.1049020415939E+01 -0.9714053514325E+00
 0.8949132439098E+00  0.4276788118144E+01  0.1034340287824E+01 -0.1157933345714E+01
 0.7653563796812E+00  0.4309266162661E+01  0.1014924523592E+01 -0.1309400099823E+01
 0.6304417160676E+00  0.4329459807507E+01  0.9919803194966E+00 -0.1425337313579E+01
 0.5013829059875E+00  0.4332120173215E+01  0.9667006302455E+00 -0.1509351939498E+01
 0.3858803270318E+00  0.4314709005017E+01  0.9401178804186E+00 -0.1567420529504E+01
 0.2879229374822E+00  0.4277225540784E+01  0.9130297092584E+00 -0.1606132772330E+01
 0.2084860560691E+00  0.4221456216573E+01  0.8859884677306E+00 -0.1631462240935E+01
 0.1465555407948E+00  0.4150099158982E+01  0.8593309527605E+00 -0.1648193244179E+01
 0.1000703768959E+00  0.4066055789297E+01  0.8332252456546E+00 -0.1659846185589E+01
 0.6660592139025E-01  0.3971987178545E+01  0.8077186320230E+00 -0.1668869633190E+01
 0.4378256316657E-01  0.3870106611979E+01  0.7827778466934E+00 -0.1676915270840E+01
 0.2946049818507E-01  0.3762135247437E+01  0.7583191604242E+00 -0.1685089754532E+01
 0.2179805552607E-01  0.3649349106375E+01  0.7342294433210E+00 -0.1694139329938E+01
 0.1924128663323E-01  0.3532660182238E+01  0.7103803043598E+00 -0.1704560487085E+01
 0.2049672790472E-01  0.3412702798706E+01  0.6866399155540E+00 -0.1716648646006E+01
 0.2452688027828E-01  0.3290167533961E+01  0.6629388927264E+00 -0.1730465709072E+01
 0.3057376273299E-01  0.3166051573892E+01  0.6393250768516E+00 -0.1745779087221E+01
 0.3817836193573E-01  0.3041067795207E+01  0.6158492406055E+00 -0.1762160297476E+01
 0.4718980026710E-01  0.2915150665931E+01  0.5924681020681E+00 -0.1779144381408E+01
 0.5775569809005E-01  0.2787668003421E+01  0.5690847487822E+00 -0.1796275269103E+01
 0.7027220044011E-01  0.2657670884389E+01  0.5455886250958E+00 -0.1813139338046E+01
 0.8528891791328E-01  0.2524050886389E+01  0.5218679686370E+00 -0.1829402926347E+01
 0.1033775076902E+00  0.2385639569316E+01  0.4978034228191E+00 -0.1844839929366E+01
 0.1249753778578E+00  0.2241283874822E+01  0.4732518575880E+00 -0.1859341364975E+01
 0.1502103765760E+00  0.2089924367619E+01  0.4480269555151E+00 -0.1872905448104E+01
 0.1787065123126E+00  0.1930685126433E+01  0.4218783340356E+00 -0.1885610637042E+01
 0.2093644329093E+00  0.1762913714869E+01  0.3944556354335E+00 -0.1897599119962E+01
 0.2401171296954E+00  0.1586254226732E+01  0.3652742767284E+00 -0.1909053625463E+01
 0.2676659294787E+00  0.1400894205245E+01  0.3337120319175E+00 -0.1920084006819E+01
 0.2872086520076E+00  0.1207837637547E+01  0.2990092623665E+00 -0.1930534610161E+01
 0.2921990721907E+00  0.1009118074378E+01  0.2602634331920E+00 -0.1939726563571E+01
 0.2742032012849E+00  0.8079793013635E+00  0.2164365037548E+00 -0.1946088099826E+01
 0.2229452604115E+00  0.6089537823238E+00  0.1663798110263E+00 -0.1946672519231E+01
 0.1266595660132E+00  0.4177254458219E+00  0.1088770039894E+00 -0.1936615344356E+01
-0.2714744571737E-01  0.2406012363325E+00  0.4269075875917E-01 -0.1908668225832E+01
-0.2504709651690E+00  0.8346770935556E-01 -0.3340065166039E-01 -0.1852932420349E+01
-0.5529482365832E+00 -0.4902380006180E-01 -0.1203944091230E+00 -0.1756457116548E+01
-0.9395039087958E+00 -0.1541792668292E+00 -0.2187366383844E+00 -0.1603397233338E+01
-0.1408320417679E+01 -0.2326615628925E+00 -0.3281964010048E+00 -0.1376898769240E+01
-0.1949888187820E+01 -0.2895427299637E+00 -0.4478861902307E+00 -0.1062259565182E+01
 0.1081857769669E+01  0.4569222954897E+01  0.1130216161755E+01 -0.9864781918257E+00
 0.9579297968566E+00  0.4611268948259E+01  0.1113839765621E+01 -0.1172484345536E+01
 0.8143680999927E+00  0.4647187690863E+01  0.1092311174448E+01 -0.1320323042681E+01
 0.6662642868182E+00  0.4668862513154E+01  0.1067025375894E+01 -0.1430059146049E+01
 0.5261213671017E+00  0.4670593858916E+01  0.1039343060691E+01 -0.1506356807994E+01
 0.4021624780310E+00  0.4649927078191E+01  0.1010417926301E+01 -0.1556329738357E+01
 0.2982787619736E+00  0.4607307170901E+01  0.9811172011947E+00 -0.1587450492161E+01
 0.2150066982445E+00  0.4545092623368E+01  0.9520198785087E+00 -0.1606198578175E+01
 0.1507995108205E+00  0.4466502124586E+01  0.9234603408419E+00 -0.1617528362412E+01
 0.1031186947638E+00  0.4374822464046E+01  0.8955882451072E+00 -0.1624905074531E+01
 0.6917535367717E-01  0.4272954370128E+01  0.8684259577016E+00 -0.1630607346509E+01
 0.4633988216743E-01  0.4163232020067E+01  0.8419143929924E+00 -0.1636082410185E+01
 0.3231160904844E-01  0.4047416290673E+01  0.8159455921028E+00 -0.1642244897718E+01
 0.2514518016881E-01  0.3926776483404E+01  0.7903843444923E+00 -0.1649682497878E+01
 0.2321140227909E-01  0.3802198489453E+01  0.7650819897469E+00 -0.1658769958793E+01
 0.2514969919072E-01  0.3674289951275E+01  0.7398879411184E+00 -0.1669709768498E+01
 0.2985465765781E-01  0.3543741001352E+01  0.7147191424520E+00 -0.1682479494825E+01
 0.3650216555899E-01  0.3411590386458E+01  0.6896185206795E+00 -0.1696750626330E+01
 0.4457887869206E-01  0.3278593403258E+01  0.6646344662939E+00 -0.1711992167295E+01
 0.5390211105673E-01  0.3144690596974E+01  0.6397185511387E+00 -0.1727643496297E+01
 0.6461593049917E-01  0.3009228014295E+01  0.6147687981196E+00 -0.1743163496718E+01
 0.7713992372274E-01  0.2871220882496E+01  0.5896721700305E+00 -0.1758068060278E+01
 0.9206719426279E-01  0.2729520168960E+01  0.5643174810536E+00 -0.1771971834272E+01
 0.1100238294867E+00  0.2582916643643E+01  0.5385881026516E+00 -0.1784618710239E+01
 0.1315044595349E+00  0.2430216454867E+01  0.5123441905149E+00 -0.1795893436969E+01
 0.1566908698526E+00  0.2270316445525E+01  0.4854014703085E+00 -0.1805815140811E+01
 0.1852525044328E+00  0.2102289528937E+01  0.4575084134913E+00 -0.1814517389420E+01
 0.2161200749450E+00  0.1925415593941E+01  0.4283071401595E+00 -0.1822246686444E+01
 0.2472286683275E+00  0.1739248657847E+01  0.3972954711550E+00 -0.1829359941236E+01
 0.2752303199033E+00  0.1543875001571E+01  0.3638210697163E+00 -0.1836227961625E+01
 0.2951851028085E+00  0.1340208579424E+01  0.3270787413203E+00 -0.1843055889414E+01
 0.3002688934716E+00  0.1130235950872E+01  0.2861009731319E+00 -0.1849631197078E+01
 0.2815648328895E+00  0.9172448114235E+00  0.2397619324353E+00 -0.1854938506842E+01
 0.2280407133810E+00  0.7059630936776E+00  0.1868007641953E+00 -0.1856626269504E+01
 0.1268491514645E+00  0.5024795779766E+00  0.1258657477638E+00 -0.1850363431538E+01
-0.3590861095926E-01  0.3137350008235E+00  0.5556527880084E-01 -0.1829222203721E+01
-0.2738728236574E+00  0.1464065685082E+00 -0.2549325140973E-01 -0.1783238169884E+01
-0.5982551754832E+00  0.5965574758107E-02 -0.1184579219102E+00 -0.1698762681074E+01
-0.1014953672794E+01 -0.1043556123301E+00 -0.2238618603606E+00 -0.1558523102850E+01
-0.1522017211487E+01 -0.1851317587330E+00 -0.3414297991318E+00 -0.1343712222983E+01
-0.2107885189147E+01 -0.2421870896883E+00 -0.4700144627708E+00 -0.1037311960773E+01
 0.1158203320696E+01  0.4903352850524E+01  0.1212311252309E+01 -0.1003380969203E+01
 0.1020086744286E+01  0.4950257245148E+01  0.1194068815680E+01 -0.1188671781932E+01
 0.8613462100437E+00  0.4989792489454E+01  0.1170227757337E+01 -0.1332240897162E+01
 0.6992385209072E+00  0.5012787345517E+01  0.1142405190308E+01 -0.1434846235465E+01
 0.5476724315728E+00  0.5013102026889E+01  0.1112154908265E+01 -0.1502448309034E+01
 0.4153358698652E+00  0.4988482794773E+01  0.1080763749032E+01 -0.1543491656724E+01
 0.3058739314613E+00  0.4939970256851E+01  0.1049168853296E+01 -0.1566421747006E+01
 0.2192310318405E+00  0.4870615394029E+01  0.1017969300343E+01 -0.1578222193270E+01
 0.1532154813739E+00  0.4784224703856E+01  0.9874880517607E+00 -0.1583965488379E+01
 0.1047486354434E+00  0.4684490352169E+01  0.9578478117954E+00 -0.1586997432058E+01
 0.7065373023716E-01  0.4574542832563E+01  0.9290393264038E+00 -0.1589371459087E+01
 0.4805167854223E-01  0.4456813433254E+01  0.9009730357848E+00 -0.1592291213595E+01
 0.3449332955088E-01  0.4333075449068E+01  0.8735137687402E+00 -0.1596455777799E+01
 0.2794556877092E-01  0.4204566080376E+01  0.8465023424432E+00 -0.1602283228470E+01
 0.2671806302426E-01  0.4072124258947E+01  0.8197684766097E+00 -0.1610024449092E+01
 0.2939224776831E-01  0.3936315843794E+01  0.7931416301312E+00 -0.1619792221539E+01
 0.3479792862586E-01  0.3797821523480E+01  0.7665239018432E+00 -0.1631484350717E+01
 0.4204338839140E-01  0.3657718054505E+01  0.7399522996055E+00 -0.1644678853071E+01
 0.5055812747812E-01  0.3516803167014E+01  0.7134722695300E+00 -0.1658741688603E+01
 0.6012673542163E-01  0.3375025007262E+01  0.6870303587742E+00 -0.1673014157407E+01
 0.7089233192496E-01  0.3231710010066E+01  0.6605204782407E+00 -0.1686867230279E+01
 0.8330383227298E-01  0.3085840622628E+01  0.6338289004250E+00 -0.1699744201840E+01
 0.9800576729058E-01  0.2936231833352E+01  0.6068475291713E+00 -0.1711206895070E+01
 0.1156876100724E+00  0.2781639993783E+01  0.5794655294057E+00 -0.1720968189288E+01
 0.1369111956134E+00  0.2620837805241E+01  0.5515498083896E+00 -0.1728904300290E+01
 0.1619244737624E+00  0.2452684972777E+01  0.5229218971000E+00 -0.1735050583465E+01
 0.1904588720732E+00  0.2276206624109E+01  0.4933331065876E+00 -0.1739588274248E+01
 0.2214984338695E+00  0.2090612189919E+01  0.4624221316484E+00 -0.1742858977157E+01
 0.2530122720709E+00  0.1895353517679E+01  0.4296731643526E+00 -0.1745385217781E+01
 0.2816441830666E+00  0.1690391570150E+01  0.3944071565204E+00 -0.1747794657323E+01
 0.3023647006503E+00  0.1476512639552E+01  0.3557754733420E+00 -0.1750659222227E+01
 0.3081212933348E+00  0.1255605612499E+01  0.3127453858271E+00 -0.1754256384774E+01
 0.2895530785089E+00  0.1030943336302E+01  0.2640992868976E+00 -0.1758177006139E+01
 0.2348787989570E+00  0.8073946247274E+00  0.2084546878431E+00 -0.1760747365537E+01
 0.1301170494353E+00  0.5914245213111E+00  0.1443083162996E+00 -0.1758283117740E+01
-0.4018640698699E-01  0.3906316228420E+00  0.7008904421541E-01 -0.1744302949494E+01
-0.2915698187950E+00  0.2125866473399E+00 -0.1579663452642E-01 -0.1708861414441E+01
-0.6372174735654E+00  0.6373908496382E-01 -0.1146956794294E+00 -0.1637606984358E+01
-0.1084182487862E+01 -0.5189523016064E-01 -0.2272155469904E+00 -0.1511511035127E+01
-0.1630681382537E+01 -0.1351428105928E+00 -0.3531648438885E+00 -0.1309757286327E+01
-0.2263324318287E+01 -0.1915422037561E+00 -0.4909733117247E+00 -0.1012296503235E+01
 0.1234941973278E+01  0.5242047172818E+01  0.1295397848522E+01 -0.1022293631292E+01
 0.1081207348742E+01  0.5294249982796E+01  0.1275091485308E+01 -0.1206623620993E+01
 0.9059583730442E+00  0.5337571446690E+01  0.1248705982554E+01 -0.1345155829263E+01
 0.7289694654868E+00  0.5361646801049E+01  0.1218123271459E+01 -0.1439552554995E+01
 0.5656734367242E+00  0.5359928108050E+01  0.1185120326614E+01 -0.1497367859803E+01
 0.4251264372156E+00  0.5330521357862E+01  0.1151129576169E+01 -0.1528599145646E+01
 0.3105349413728E+00  0.5275246872461E+01  0.1117156379414E+01 -0.1542749736942E+01
 0.2210693524219E+00  0.5197983177225E+01  0.1083810522079E+01 -0.1547283338504E+01
 0.1537705524063E+00  0.5103189807121E+01  0.1051392087572E+01 -0.1547315889654E+01
 0.1049588617492E+00  0.4994974464423E+01  0.1019986680433E+01 -0.1545994048458E+01
 0.7105257486146E-01  0.4876676884001E+01  0.9895459065179E+00 -0.1545083172296E+01
 0.4893057673192E-01  0.4750793463061E+01  0.9599448222628E+00 -0.1545501882329E+01
 0.3601330121199E-01  0.4619077195649E+01  0.9310181132454E+00 -0.1547710634485E+01
 0.3019996652940E-01  0.4482704429642E+01  0.9025808926837E+00 -0.1551948488369E+01
 0.2975596218804E-01  0.4342444169838E+01  0.8744400394355E+00 -0.1558342537398E+01
 0.3321519323926E-01  0.4198804132732E+01  0.8464038778066E+00 -0.1566921523928E+01
 0.3934575304053E-01  0.4052446038412E+01  0.8183583704850E+00 -0.1577510375202E+01
 0.4718578433271E-01  0.3904481168168E+01  0.7903334022770E+00 -0.1589597818108E+01
 0.5610354217457E-01  0.3755750032457E+01  0.7623707262865E+00 -0.1602447155655E+01
 0.6584923860290E-01  0.3606210190469E+01  0.7344118967579E+00 -0.1615299543358E+01
 0.7656764983862E-01  0.3455170870508E+01  0.7063477145947E+00 -0.1627435466457E+01
 0.8874330337620E-01  0.3301585307840E+01  0.6780657323473E+00 -0.1638224087256E+01
 0.1030803390318E+00  0.3144238225715E+01  0.6494637226272E+00 -0.1647174079308E+01
 0.1203402855514E+00  0.2981859755533E+01  0.6204400174622E+00 -0.1653966987228E+01
 0.1411612891796E+00  0.2813199014313E+01  0.5908720695031E+00 -0.1658468348359E+01
 0.1658684668788E+00  0.2637088157008E+01  0.5605913331308E+00 -0.1660724239971E+01
 0.1942706519885E+00  0.2452511115741E+01  0.5293563614339E+00 -0.1660954110405E+01
 0.2254280283341E+00  0.2258607155172E+01  0.4968070441042E+00 -0.1659582120987E+01
 0.2573765351896E+00  0.2054716332704E+01  0.4624185804692E+00 -0.1657283175218E+01
 0.2867957651943E+00  0.1840651373884E+01  0.4254894341559E+00 -0.1654931821438E+01
 0.3086209223200E+00  0.1617031944198E+01  0.3851305790426E+00 -0.1653466230519E+01
 0.3156305313113E+00  0.1385593218923E+01  0.3402447551169E+00 -0.1653671605261E+01
 0.2980725743099E+00  0.1149523394065E+01  0.2895191979891E+00 -0.1655792220118E+01
 0.2434411574355E+00  0.9137603927357E+00  0.2314403134830E+00 -0.1658919616857E+01
 0.1365795114226E+00  0.6850956444913E+00  0.1643350336316E+00 -0.1660147571080E+01
-0.3966777529462E-01  0.4717943780538E+00  0.8642532183967E-01 -0.1653598665956E+01
-0.3030577041673E+00  0.2824189130719E+00 -0.4127758280581E-02 -0.1629484415575E+01
-0.6691031364775E+00  0.1246131260680E+00 -0.1088980037046E+00 -0.1572731379284E+01
-0.1146785416093E+01  0.3368981285337E-02 -0.2286832903692E+00 -0.1462408595576E+01
-0.1733127133870E+01 -0.8208333588145E-01 -0.3630420993601E+00 -0.1274543349239E+01
-0.2417561537833E+01 -0.1391428609215E+00 -0.5113408873705E+00 -0.9884707284844E+00
 0.1312081538695E+01  0.5585813812975E+01  0.1379579090891E+01 -0.1043422256678E+01
 0.1141075632689E+01  0.5643808912248E+01  0.1356976929208E+01 -0.1226479331686E+01
 0.9478117383211E+00  0.5691069533193E+01  0.1327776274088E+01 -0.1359050807951E+01
 0.7550068429354E+00  0.5715879598117E+01  0.1294177307495E+01 -0.1443984442834E+01
 0.5797304520918E+00  0.5711348453749E+01  0.1258215799917E+01 -0.1490797769967E+01
 0.4312559874270E+00  0.5676155427069E+01  0.1221482301101E+01 -0.1511292413649E+01
 0.3121034971754E+00  0.5613124732454E+01  0.1185045663584E+01 -0.1516101212514E+01
 0.2204561048412E+00  0.5527110202233E+01  0.1149513278544E+01 -0.1513113023309E+01
 0.1524570194117E+00  0.5423282483175E+01  0.1115147917134E+01 -0.1507384938981E+01
 0.1037700505444E+00  0.5306160559813E+01  0.1081986138194E+01 -0.1501768262850E+01
 0.7040076505821E-01  0.5179259650492E+01  0.1049932098755E+01 -0.1497670719807E+01
 0.4900188839515E-01  0.5045100131343E+01  0.1018820419129E+01 -0.1495683540954E+01
 0.3688778685026E-01  0.4905376574123E+01  0.9884528869238E+00 -0.1496006977269E+01
 0.3191450178666E-01  0.4761172646589E+01  0.9586174439596E+00 -0.1498693925786E+01
 0.3232288060302E-01  0.4613162578558E+01  0.9290971056769E+00 -0.1503750304977E+01
 0.3661111185201E-01  0.4461778418011E+01  0.8996779193789E+00 -0.1511129195397E+01
 0.4348842886652E-01  0.4307652886009E+01  0.8702282759426E+00 -0.1520592100433E+01
 0.5191892729055E-01  0.4151928385879E+01  0.8407694751623E+00 -0.1531544536860E+01
 0.6120396370226E-01  0.3995488883265E+01  0.8113385814834E+00 -0.1543148476293E+01
 0.7105687225372E-01  0.3838303389830E+01  0.7818720640676E+00 -0.1554543171831E+01
 0.8162677637794E-01  0.3679666505724E+01  0.7522586676298E+00 -0.1564916389657E+01
 0.9344063410772E-01  0.3518506331813E+01  0.7223894039486E+00 -0.1573562402433E+01
 0.1072706528419E+00  0.3353584284971E+01  0.6921709978768E+00 -0.1579937524650E+01
 0.1239586449807E+00  0.3183614614488E+01  0.6615146617512E+00 -0.1583692642885E+01
 0.1442269642745E+00  0.3007335658415E+01  0.6303125339302E+00 -0.1584680831985E+01
 0.1684872102016E+00  0.2823565128521E+01  0.5984104766615E+00 -0.1582952694561E+01
 0.1966393790717E+00  0.2631256176899E+01  0.5655791196219E+00 -0.1578754430362E+01
 0.2278415731654E+00  0.2429482028162E+01  0.5314647281850E+00 -0.1572576727125E+01
 0.2602296702447E+00  0.2217464755477E+01  0.4955388925285E+00 -0.1565228552292E+01
 0.2905656179633E+00  0.1994848215267E+01  0.4570827734570E+00 -0.1557814709043E+01
 0.3138093905435E+00  0.1762046368111E+01  0.4151711579174E+00 -0.1551631115210E+01
 0.3226406256884E+00  0.1520580156248E+01  0.3686441618805E+00 -0.1547980252017E+01
 0.3069856310951E+00  0.1273472038004E+01  0.3160915385300E+00 -0.1547801229123E+01
 0.2536590595792E+00  0.1025637219380E+01  0.2558592596044E+00 -0.1551040193195E+01
 0.1463100287219E+00  0.7841168452239E+00  0.1860853775620E+00 -0.1555717142035E+01
-0.3406937709447E-01  0.5578243711536E+00  0.1047510003727E+00 -0.1556755541776E+01
-0.3077684260071E+00  0.3564100637069E+00  0.9728327684925E-02 -0.1544713514470E+01
-0.6932697661442E+00  0.1889431892910E+00 -0.1008653168736E+00 -0.1503853951087E+01
-0.1201582172144E+01  0.6174470415096E-01 -0.2279674969956E+00 -0.1411043234452E+01
-0.1831022986583E+01 -0.2578287907041E-01 -0.3713611786644E+00 -0.1238562216769E+01
-0.2561388651246E+01 -0.8317035174173E-01 -0.5289118084789E+00 -0.9635050602044E+00
 0.1389623758308E+01  0.5935233760027E+01  0.1464971525497E+01 -0.1067003617500E+01
 0.1199425854036E+01  0.5999574818942E+01  0.1439800156050E+01 -0.1248389518616E+01
 0.9864393693917E+00  0.6050894774725E+01  0.1407466849796E+01 -0.1373880490001E+01
 0.7768367043996E+00  0.6075950072766E+01  0.1370557375856E+01 -0.1447886146636E+01
 0.5894182833204E+00  0.6067623374073E+01  0.1331408351318E+01 -0.1482348227862E+01
 0.4334480694939E+00  0.6025452805975E+01  0.1291780194343E+01 -0.1491151732333E+01
 0.3104440577851E+00  0.5953536215951E+01  0.1252796073415E+01 -0.1486105066070E+01
 0.2173562226599E+00  0.5857858810862E+01  0.1215043024810E+01 -0.1475425303501E+01
 0.1492965550421E+00  0.5744345903858E+01  0.1178728509344E+01 -0.1463975776922E+01
 0.1012271697502E+00  0.5617903529775E+01  0.1143826156949E+01 -0.1454199545273E+01
 0.6874553292022E-01  0.5482172752623E+01  0.1110183673652E+01 -0.1447072302149E+01
 0.4830387567652E-01  0.5339647112505E+01  0.1077590213694E+01 -0.1442816487430E+01
 0.3714151801092E-01  0.5191919632546E+01  0.1045812245695E+01 -0.1441353307508E+01
 0.3310027502784E-01  0.5039946961256E+01  0.1014609462376E+01 -0.1442545212501E+01
 0.3441911184683E-01  0.4884282183912E+01  0.9837402738106E+00 -0.1446282365058E+01
 0.3957369211042E-01  0.4725263092713E+01  0.9529673711650E+00 -0.1452453483962E+01
 0.4721686098111E-01  0.4563482853620E+01  0.9221399566613E+00 -0.1460768913708E+01
 0.5623302620692E-01  0.4400111637520E+01  0.8912689460264E+00 -0.1470559101973E+01
 0.6584908647410E-01  0.4236077811057E+01  0.8603853923270E+00 -0.1480886953556E+01
 0.7573805161738E-01  0.4071363988587E+01  0.8294204204002E+00 -0.1490788310726E+01
 0.8605631533161E-01  0.3905252778023E+01  0.7982618305660E+00 -0.1499356394347E+01
 0.9738081467408E-01  0.3736651741375E+01  0.7668065226360E+00 -0.1505810871531E+01
 0.1105606066417E+00  0.3564307391851E+01  0.7349736106504E+00 -0.1509557980854E+01
 0.1265253945600E+00  0.3386930935297E+01  0.7026912764422E+00 -0.1510219991811E+01
 0.1460880494634E+00  0.3203266137872E+01  0.6698708474488E+00 -0.1507636370508E+01
 0.1697537685045E+00  0.3012133423520E+01  0.6363774478876E+00 -0.1501855526321E+01
 0.1975252047470E+00  0.2812470033715E+01  0.6019990566630E+00 -0.1493136995859E+01
 0.2286784729446E+00  0.2603291915294E+01  0.5663940860877E+00 -0.1482018389606E+01
 0.2614821219567E+00  0.2383701461145E+01  0.5290367245035E+00 -0.1469419035897E+01
 0.2928288666622E+00  0.2153156718060E+01  0.4891971242340E+00 -0.1456649967492E+01
 0.3177689649784E+00  0.1911828415199E+01  0.4459194826803E+00 -0.1445346943440E+01
 0.3289641531924E+00  0.1660959831147E+01  0.3979848027983E+00 -0.1437328530060E+01
 0.3161068343572E+00  0.1403315785557E+01  0.3438845291071E+00 -0.1434260497842E+01
 0.2654044803959E+00  0.1143674857545E+01  0.2818158717875E+00 -0.1437030326086E+01
 0.1593203221456E+00  0.8892167936047E+00  0.2097074262750E+00 -0.1444746500973E+01
-0.2313126357351E-01  0.6494484936789E+00  0.1252634478877E+00 -0.1453373197729E+01
-0.3051613795344E+00  0.4351791016249E+00  0.2600354480559E-01 -0.1454075488219E+01
-0.7087783121786E+00  0.2571876082736E+00 -0.9031814212685E-01 -0.1430599381930E+01
-0.1248219558099E+01  0.1235043340189E+00 -0.2249430481680E+00 -0.1357244717154E+01
-0.1921608436348E+01  0.3424535778122E-01 -0.3774726213382E+00 -0.1202228584833E+01
-0.2706415455968E+01 -0.2349273018635E-01 -0.5459816453666E+00 -0.9362492460205E+00
 0.1467561869718E+01  0.6290979083669E+01  0.1551708213800E+01 -0.1093310836723E+01
 0.1255928606191E+01  0.6362285610922E+01  0.1523642866127E+01 -0.1272514661213E+01
 0.1021283304858E+01  0.6417728471107E+01  0.1487802377363E+01 -0.1389558353576E+01
 0.7938724552392E+00  0.6442345321793E+01  0.1447243576972E+01 -0.1450920983934E+01
 0.5942824633234E+00  0.6428984045059E+01  0.1404653322607E+01 -0.1471541814266E+01
 0.4314365825109E+00  0.6378420463599E+01  0.1361971429517E+01 -0.1467690145235E+01
 0.3054533873538E+00  0.6296345392245E+01  0.1320359775595E+01 -0.1452352353934E+01
 0.2117723641304E+00  0.6190031531974E+01  0.1280360798300E+01 -0.1433921223851E+01
 0.1443444872417E+00  0.6066177742892E+01  0.1242104464535E+01 -0.1416894199206E+01
 0.9740149276727E-01  0.5930026423173E+01  0.1205485601151E+01 -0.1403177764680E+01
 0.6615314267081E-01  0.5785276552990E+01  0.1170285956571E+01 -0.1393239311556E+01
 0.4688775894481E-01  0.5634334348148E+01  0.1136244438350E+01 -0.1386894523483E+01
 0.3680737137413E-01  0.5478644052083E+01  0.1103090301129E+01 -0.1383770853924E+01
 0.3377282713465E-01  0.5318999334232E+01  0.1070554448226E+01 -0.1383539412859E+01
 0.3604677893200E-01  0.5155804746505E+01  0.1038370320560E+01 -0.1385982955710E+01
 0.4209697742408E-01  0.4989284282319E+01  0.1006276266943E+01 -0.1390940177452E+01
 0.5052181235251E-01  0.4819980380798E+01  0.9741004531453E+00 -0.1398085560026E+01
 0.6011821385028E-01  0.4649087559623E+01  0.9418411687291E+00 -0.1406684850317E+01
 0.7002876292306E-01  0.4477579667344E+01  0.9095216996063E+00 -0.1415705069567E+01
 0.7988167632616E-01  0.4305454987088E+01  0.8770673457521E+00 -0.1424077315502E+01
 0.8984400008328E-01  0.4131986664175E+01  0.8443661454336E+00 -0.1430798949429E+01
 0.1005511911279E+00  0.3956066856075E+01  0.8113236215302E+00 -0.1435016705547E+01
 0.1129383186193E+00  0.3776437279286E+01  0.7778751311724E+00 -0.1436090981314E+01
 0.1280297508131E+00  0.3591821861003E+01  0.7439703334492E+00 -0.1433619246762E+01
 0.1467331757165E+00  0.3400989894404E+01  0.7095446245971E+00 -0.1427427148948E+01
 0.1696517442313E+00  0.3202786244236E+01  0.6744876077442E+00 -0.1417553856323E+01
 0.1968993486924E+00  0.2996152179648E+01  0.6386103151842E+00 -0.1404256981190E+01
 0.2278878013056E+00  0.2780060588385E+01  0.6015896869024E+00 -0.1388097884726E+01
 0.2610498580272E+00  0.2553498158204E+01  0.5629096116343E+00 -0.1370076981995E+01
 0.2934583501796E+00  0.2315725534444E+01  0.5218367847006E+00 -0.1351679535115E+01
 0.3203238930579E+00  0.2066636413553E+01  0.4773920684358E+00 -0.1334852453865E+01
 0.3343818568124E+00  0.1807132462013E+01  0.4283028701474E+00 -0.1321915700537E+01
 0.3251985321986E+00  0.1539619864589E+01  0.3729636849152E+00 -0.1315279302882E+01
 0.2784776977361E+00  0.1268603198251E+01  0.3094161838081E+00 -0.1316849769424E+01
 0.1755476710030E+00  0.1001248884329E+01  0.2353593145736E+00 -0.1326995555951E+01
-0.6657652820007E-02  0.7475476568759E+00  0.1481780030192E+00 -0.1343003618645E+01
-0.2946410626462E+00  0.5195062005790E+00  0.4497302825670E-01 -0.1357006183364E+01
-0.7147841137477E+00  0.3298901019213E+00 -0.7697880351237E-01 -0.1352445012409E+01
-0.1285333983838E+01  0.1890804160097E+00 -0.2192507168327E+00 -0.1300959188736E+01
-0.2005708818322E+01  0.9794431243656E-01 -0.3815529068627E+00 -0.1165132860546E+01
-0.2848500150736E+01  0.4217839246505E-01 -0.5612643600177E+00 -0.9096327100637E+00
 0.1545877119871E+01  0.6653836609212E+01  0.1639942770254E+01 -0.1122660450360E+01
 0.1310172264173E+01  0.6732799466882E+01  0.1608594370181E+01 -0.1299022327583E+01
 0.1051673394640E+01  0.6792336541072E+01  0.1568802010519E+01 -0.1405938434750E+01
 0.8054456998736E+00  0.6815568644195E+01  0.1524202891526E+01 -0.1452646783233E+01
 0.5938443646595E+00  0.6795613662221E+01  0.1477891627398E+01 -0.1457795380639E+01
 0.4249779940605E+00  0.6734984034546E+01  0.1431992427060E+01 -0.1440346852869E+01
 0.2970723883552E+00  0.6641333021099E+01  0.1387681102569E+01 -0.1414398544961E+01
 0.2037529115431E+00  0.6523363069830E+01  0.1345423216323E+01 -0.1388294908748E+01
 0.1376939233118E+00  0.6388527342964E+01  0.1305244272705E+01 -0.1365954941565E+01
 0.9239214535942E-01  0.6242320380156E+01  0.1266942523982E+01 -0.1348608128627E+01
 0.6270912598326E-01  0.6088411103089E+01  0.1230224064146E+01 -0.1336139763982E+01
 0.4481742229239E-01  0.5929049079188E+01  0.1194773318100E+01 -0.1327927276767E+01
 0.3592587320656E-01  0.5765479955715E+01  0.1160281183074E+01 -0.1323295256919E+01
 0.3395150520740E-01  0.5598298110751E+01  0.1126449939977E+01 -0.1321726350900E+01
 0.3720905928249E-01  0.5427731814308E+01  0.1092988191005E+01 -0.1322907100575E+01
 0.4417450173784E-01  0.5253870846669E+01  0.1059609085471E+01 -0.1326643526162E+01
 0.5339303212268E-01  0.5077194929860E+01  0.1026117607687E+01 -0.1332592760117E+01
 0.6356369350193E-01  0.4898919202280E+01  0.9924965939457E+00 -0.1339968613535E+01
 0.7373213795112E-01  0.4720063957101E+01  0.9587592332971E+00 -0.1347646283973E+01
 0.8347626000482E-01  0.4540644826438E+01  0.9248242310696E+00 -0.1354450881245E+01
 0.9297793111070E-01  0.4359927699827E+01  0.8905811394583E+00 -0.1359283272593E+01
 0.1029409973462E+00  0.4176795062477E+01  0.8559472247192E+00 -0.1361220781673E+01
 0.1143961367240E+00  0.3989996005302E+01  0.8208784406372E+00 -0.1359584702692E+01
 0.1284680599829E+00  0.3798286380868E+01  0.7853508998728E+00 -0.1353953747433E+01
 0.1461610865277E+00  0.3600485515950E+01  0.7493293316614E+00 -0.1344140768673E+01
 0.1681773223414E+00  0.3395489511081E+01  0.7127333773050E+00 -0.1330168524193E+01
 0.1947468883026E+00  0.3182269235731E+01  0.6754032348710E+00 -0.1312275758824E+01
 0.2254317912008E+00  0.2959774995515E+01  0.6370413668359E+00 -0.1291020964667E+01
 0.2588584001084E+00  0.2726888662100E+01  0.5971494213399E+00 -0.1267450795637E+01
 0.2923287944106E+00  0.2482669135142E+01  0.5549995941806E+00 -0.1243184415507E+01
 0.3212872251494E+00  0.2226705702428E+01  0.5095985931091E+00 -0.1220439232793E+01
 0.3386437557994E+00  0.1959497359170E+01  0.4596282298428E+00 -0.1202005655275E+01
 0.3339666318537E+00  0.1682984739519E+01  0.4033902802855E+00 -0.1191035933872E+01
 0.2925963647484E+00  0.1401238413713E+01  0.3387669607402E+00 -0.1190516103131E+01
 0.1948288959974E+00  0.1121211343424E+01  0.2632080518064E+00 -0.1202245070556E+01
 0.1547512639371E-01  0.8531988901802E+00  0.1737348059036E+00 -0.1225158987707E+01
-0.2756530768086E+00  0.6103672995379E+00  0.6694284554339E-01 -0.1252814235975E+01
-0.7101985988066E+00  0.4077873575420E+00 -0.6048224915418E-01 -0.1268772007967E+01
-0.1311856427686E+01  0.2587973254700E+00 -0.2106118235816E+00 -0.1241790132859E+01
-0.2082257398665E+01  0.1660095869130E+00 -0.3832495680614E+00 -0.1127843243324E+01
-0.2988650153732E+01  0.1127871111480E+00 -0.5751726170875E+00 -0.8834935479672E+00
 0.1624533702825E+01  0.7024739559094E+01  0.1729854678161E+01 -0.1155421285480E+01
 0.1361637943196E+01  0.7112124714642E+01  0.1694752556821E+01 -0.1328081813863E+01
 0.1076800887983E+01  0.7175581547875E+01  0.1650476511766E+01 -0.1422789243818E+01
 0.8107977958716E+00  0.7196127017163E+01  0.1601384986469E+01 -0.1452483917883E+01
 0.5876110744677E+00  0.7167620644830E+01  0.1551046366972E+01 -0.1440399387862E+01
 0.4138682159776E+00  0.7094961894882E+01  0.1501766044550E+01 -0.1408482401001E+01
 0.2853003906367E+00  0.6988179741643E+01  0.1454696048133E+01 -0.1371769057240E+01
 0.1934004381549E+00  0.6857512812273E+01  0.1410182671099E+01 -0.1338242343272E+01
 0.1294793615434E+00  0.6711094186297E+01  0.1368114729955E+01 -0.1310989480038E+01
 0.8632693628820E-01  0.6554545779753E+01  0.1328174563000E+01 -0.1290416715739E+01
 0.5851794820436E-01  0.6391397929800E+01  0.1289983194823E+01 -0.1275761809085E+01
 0.4216877736223E-01  0.6223667330741E+01  0.1253167240294E+01 -0.1265942396361E+01
 0.3454454501133E-01  0.6052350865380E+01  0.1217379100219E+01 -0.1259978118690E+01
 0.3365876017876E-01  0.5877808645683E+01  0.1182293498790E+01 -0.1257169940021E+01
 0.3790934740054E-01  0.5700065385629E+01  0.1147594963706E+01 -0.1257121847429E+01
 0.4579833041202E-01  0.5519055406179E+01  0.1112970763903E+01 -0.1259627316504E+01
 0.5581825533873E-01  0.5335182531666E+01  0.1078200173467E+01 -0.1264347993519E+01
 0.6655672159871E-01  0.5149678063502E+01  0.1043246972566E+01 -0.1270461093034E+01
 0.7694657551625E-01  0.4963609156398E+01  0.1008111161405E+01 -0.1276754862678E+01
 0.8650882369169E-01  0.4777009637606E+01  0.9727037067540E+00 -0.1281947191561E+01
 0.9544559589220E-01  0.4589139756357E+01  0.9369170844109E+00 -0.1284842770380E+01
 0.1045407365978E+00  0.4398878799045E+01  0.9006839205499E+00 -0.1284455501669E+01
 0.1149305871096E+00  0.4204997983752E+01  0.8639857270466E+00 -0.1280077469727E+01
 0.1278444435159E+00  0.4006308362517E+01  0.8268305735273E+00 -0.1271277348587E+01
 0.1443820566113E+00  0.3801708739968E+01  0.7892181710761E+00 -0.1257857723252E+01
 0.1653415177578E+00  0.3590178735133E+01  0.7511040617705E+00 -0.1239817852990E+01
 0.1910698799506E+00  0.3370750492292E+01  0.7123640850636E+00 -0.1217359218070E+01
 0.2212898461122E+00  0.3142379206661E+01  0.6727338205791E+00 -0.1191007636582E+01
 0.2548476532262E+00  0.2903861006994E+01  0.6317417414578E+00 -0.1161815809481E+01
 0.2893221456438E+00  0.2654058054164E+01  0.5886760487334E+00 -0.1131488115667E+01
 0.3204658490856E+00  0.2392237512465E+01  0.5425406803946E+00 -0.1102459038239E+01
 0.3414720256308E+00  0.2118442014606E+01  0.4919828153784E+00 -0.1077939645402E+01
 0.3420584688564E+00  0.1834039059596E+01  0.4352195121758E+00 -0.1061797012062E+01
 0.3073825228998E+00  0.1542485802362E+01  0.3699736705654E+00 -0.1058129237739E+01
 0.2168782540555E+00  0.1250269932807E+01  0.2934296417449E+00 -0.1070322079485E+01
 0.4326919547952E-01  0.9677180234674E+00  0.2021974468024E+00 -0.1099317495973E+01
-0.2476614013430E+00  0.7090177921583E+00  0.9227127953801E-01 -0.1140686116403E+01
-0.6938759715128E+00  0.4917969845989E+00 -0.4041579798502E-01 -0.1178718612938E+01
-0.1326295577894E+01  0.3332350394832E+00 -0.1986121106417E+00 -0.1179327979086E+01
-0.2150315441836E+01  0.2385972198976E+00 -0.3823436500851E+00 -0.1090535423857E+01
-0.3127393922495E+01  0.1886526132589E+00 -0.5877482706054E+00 -0.8580870861692E+00
 0.1703471300206E+01  0.7404810545808E+01  0.1821656396348E+01 -0.1192025696780E+01
 0.1409665310673E+01  0.7501458714808E+01  0.1782224831654E+01 -0.1359854449105E+01
 0.1095685618210E+01  0.7568434322452E+01  0.1732824013953E+01 -0.1439756270015E+01
 0.8090737543395E+00  0.7584509076884E+01  0.1678716591260E+01 -0.1449673870719E+01
 0.5750923676666E+00  0.7545000972915E+01  0.1624018692316E+01 -0.1418495321884E+01
 0.3979653244500E+00  0.7458032999168E+01  0.1571199688136E+01 -0.1371377449088E+01
 0.2702118580883E+00  0.7336448073134E+01  0.1521332008914E+01 -0.1323969442604E+01
 0.1808801141111E+00  0.7192058767129E+01  0.1474587798221E+01 -0.1283473378838E+01
 0.1198793104533E+00  0.7033528298462E+01  0.1430681543102E+01 -0.1251855359949E+01
 0.7936218803283E-01  0.6866434918784E+01  0.1389159442064E+01 -0.1228556436576E+01
 0.5370197957114E-01  0.6694042786051E+01  0.1349548973234E+01 -0.1212117138317E+01
 0.3902875844709E-01  0.6518055864853E+01  0.1311416944202E+01 -0.1200987472039E+01
 0.3271712180660E-01  0.6339174750131E+01  0.1274378393377E+01 -0.1193888316026E+01
 0.3291943126464E-01  0.6157493798120E+01  0.1238082664326E+01 -0.1189949432220E+01
 0.3815040165493E-01  0.5972808405537E+01  0.1202191779353E+01 -0.1188707602535E+01
 0.4695802726046E-01  0.5784875329602E+01  0.1166366688753E+01 -0.1189966155216E+01
 0.5778206889899E-01  0.5594007511614E+01  0.1130357932946E+01 -0.1193416519773E+01
 0.6908139608255E-01  0.5401446521602E+01  0.1094105599840E+01 -0.1198217418658E+01
 0.7965632525377E-01  0.5208305559838E+01  0.1057592392778E+01 -0.1203075758265E+01
 0.8896349410219E-01  0.5014636011302E+01  0.1020719916291E+01 -0.1206600937768E+01
 0.9723262761935E-01  0.4819693200296E+01  0.9833851802367E+00 -0.1207503184111E+01
 0.1053413956988E+00  0.4622360732924E+01  0.9455404398143E+00 -0.1204742265818E+01
 0.1145422636067E+00  0.4421450049173E+01  0.9071984760743E+00 -0.1197594860776E+01
 0.1261714739987E+00  0.4215855530716E+01  0.8684054138832E+00 -0.1185631423272E+01
 0.1414194135848E+00  0.4004590363385E+01  0.8292019677501E+00 -0.1168648482237E+01
 0.1611726084904E+00  0.3786755747216E+01  0.7895856829071E+00 -0.1146614969818E+01
 0.1858907914190E+00  0.3561483183673E+01  0.7494748061864E+00 -0.1119675549076E+01
 0.2154630657545E+00  0.3327767837549E+01  0.7086461912203E+00 -0.1088290807615E+01
 0.2489775653204E+00  0.3084348594642E+01  0.6666652419266E+00 -0.1053474474537E+01
 0.2843342038763E+00  0.2829907491837E+01  0.6228483484238E+00 -0.1016959490274E+01
 0.3176673932034E+00  0.2563385228467E+01  0.5762105329202E+00 -0.9813309375937E+00
 0.3425664586983E+00  0.2284327374935E+01  0.5253787745554E+00 -0.9501499107092E+00
 0.3490628898787E+00  0.1993427519820E+01  0.4684980889209E+00 -0.9279397311021E+00
 0.3223520920065E+00  0.1693338205837E+01  0.4031380655759E+00 -0.9199030231001E+00
 0.2412560768112E+00  0.1389777737560E+01  0.3262067677352E+00 -0.9311336214495E+00
 0.7656536668924E-01  0.1092718497549E+01  0.2338567763325E+00 -0.9649498830493E+00
-0.2102197612414E+00  0.8170652077771E+00  0.1213690911157E+00 -0.1019654682572E+01
-0.6645446535869E+00  0.5831724061666E+00 -0.1627444972657E-01 -0.1081176997385E+01
-0.1326852094477E+01  0.4130710692403E+00 -0.1827562077705E+00 -0.1112901105314E+01
-0.2208687278529E+01  0.3160262261116E+00 -0.3785322161241E+00 -0.1053322358606E+01
-0.3265427663123E+01  0.2702081799532E+00 -0.5990439055605E+00 -0.8337855409444E+00
 0.1782593906078E+01  0.7795421063516E+01  0.1915603022464E+01 -0.1232983875075E+01
 0.1453405355330E+01  0.7902238841458E+01  0.1871128867240E+01 -0.1394476577377E+01
 0.1107135627319E+01  0.7971982883430E+01  0.1815823729208E+01 -0.1456307724165E+01
 0.7993213687653E+00  0.7981148119819E+01  0.1756093923885E+01 -0.1443225965973E+01
 0.5558280334450E+00  0.7927585900168E+01  0.1696682812005E+01 -0.1391052773754E+01
 0.3772193321493E+00  0.7823698041141E+01  0.1640183499099E+01 -0.1328237813118E+01
 0.2519750817886E+00  0.7685564509610E+01  0.1587507941935E+01 -0.1270501862245E+01
 0.1664272110132E+00  0.7526494204640E+01  0.1538584306057E+01 -0.1223727384410E+01
 0.1091173153052E+00  0.7355433305779E+01  0.1492910146463E+01 -0.1188446896645E+01
 0.7168126877280E-01  0.7177696525764E+01  0.1449875580512E+01 -0.1163013154813E+01
 0.4839965832091E-01  0.6996139466701E+01  0.1408907845999E+01 -0.1145244059765E+01
 0.3549393877018E-01  0.6812074599173E+01  0.1369513727996E+01 -0.1133131495612E+01
 0.3050269656492E-01  0.6625865086264E+01  0.1331273576403E+01 -0.1125112947951E+01
 0.3176009915760E-01  0.6437314159803E+01  0.1293814871071E+01 -0.1120160532151E+01
 0.3793354509516E-01  0.6245964951937E+01  0.1256779718134E+01 -0.1117759587173E+01
 0.4763958107858E-01  0.6051373594769E+01  0.1219802653346E+01 -0.1117747049562E+01
 0.5926463785721E-01  0.5853744404301E+01  0.1182601826054E+01 -0.1119872742516E+01
 0.7111720759623E-01  0.5654320768464E+01  0.1145087612275E+01 -0.1123297973889E+01
 0.8184085607835E-01  0.5454258807135E+01  0.1107219949142E+01 -0.1126654567193E+01
 0.9081972891157E-01  0.5253624415164E+01  0.1068888844743E+01 -0.1128442164509E+01
 0.9832125278469E-01  0.5051667491564E+01  0.1029997764218E+01 -0.1127280356006E+01
 0.1053334817345E+00  0.4847285116159E+01  0.9905237343386E+00 -0.1122088480872E+01
 0.1132356721761E+00  0.4639351514018E+01  0.9505174514026E+00 -0.1112146366802E+01
 0.1234708930963E+00  0.4426878366290E+01  0.9100698654384E+00 -0.1097041467151E+01
 0.1373111549365E+00  0.4209034073436E+01  0.8692690586276E+00 -0.1076570178531E+01
 0.1557187263467E+00  0.3985085339559E+01  0.8281608255218E+00 -0.1050664658454E+01
 0.1792562073599E+00  0.3754307577129E+01  0.7867127686207E+00 -0.1019392424519E+01
 0.2079792552387E+00  0.3515779030602E+01  0.7447516682657E+00 -0.9831141638428E+00
 0.2412346278004E+00  0.3268220421532E+01  0.7018910203255E+00 -0.9427556492457E+00
 0.2772826450291E+00  0.3010164221117E+01  0.6574893830267E+00 -0.9000146732478E+00
 0.3127093263696E+00  0.2740237797740E+01  0.6105894339204E+00 -0.8575478394301E+00
 0.3416130004008E+00  0.2457468581272E+01  0.5598163246765E+00 -0.8191736507070E+00
 0.3545144115242E+00  0.2161792333047E+01  0.5032613564135E+00 -0.7899769445305E+00
 0.3369062845483E+00  0.1854866501694E+01  0.4383545637805E+00 -0.7762037428231E+00
 0.2673381018200E+00  0.1541292081749E+01  0.3617260421040E+00 -0.7847159680201E+00
 0.1149794217808E+00  0.1230171192270E+01  0.2690301268190E+00 -0.8215564073580E+00
-0.1630353426149E+00  0.9365942369878E+00  0.1547117811800E+00 -0.8886011982190E+00
-0.6208416761598E+00  0.6836106673779E+00  0.1255379843069E-01 -0.9747011625468E+00
-0.1311337626305E+01  0.4992468997978E+00 -0.1624181477216E+00 -0.1041487801789E+01
-0.2255801380423E+01  0.3987393742283E+00 -0.3714124067734E+00 -0.1016244356076E+01
-0.3403639137607E+01  0.3579875448971E+00 -0.6091303276187E+00 -0.8110684641846E+00
 0.1861752779404E+01  0.8198275493769E+01  0.2012005684616E+01 -0.1278902148285E+01
 0.1491754346899E+01  0.8316209719223E+01  0.1961592842454E+01 -0.1432030067084E+01
 0.1109698405748E+01  0.8387434046666E+01  0.1899426518786E+01 -0.1471655522172E+01
 0.7805005028066E+00  0.8386361634719E+01  0.1833372454825E+01 -0.1431849901718E+01
 0.5294299602171E+00  0.8314970455101E+01  0.1768880109422E+01 -0.1356849497823E+01
 0.3517099680640E+00  0.8191234412532E+01  0.1708588901579E+01 -0.1278209706452E+01
 0.2308717706044E+00  0.8034803971156E+01  0.1653135172986E+01 -0.1210889664582E+01
 0.1503524816953E+00  0.7860228671194E+01  0.1602116254451E+01 -0.1158792678304E+01
 0.9746070115568E-01  0.7676372884883E+01  0.1554766740376E+01 -0.1120706848774E+01
 0.6349154481281E-01  0.7488022353521E+01  0.1510302802172E+01 -0.1093811590341E+01
 0.4276275859069E-01  0.7297474751961E+01  0.1468047523986E+01 -0.1075209964244E+01
 0.3166877734441E-01  0.7105579471028E+01  0.1427449670945E+01 -0.1062465652991E+01
 0.2796486892316E-01  0.6912331827255E+01  0.1388059359919E+01 -0.1053757760818E+01
 0.3020862387205E-01  0.6717227836187E+01  0.1349487312121E+01 -0.1047916303365E+01
 0.3725802286982E-01  0.6519539908205E+01  0.1311359605756E+01 -0.1044389452517E+01
 0.4782434324538E-01  0.6318599391120E+01  0.1273284765846E+01 -0.1043071405939E+01
 0.6024028529596E-01  0.6114480066030E+01  0.1234944088667E+01 -0.1043802068556E+01
 0.7263729091824E-01  0.5908414390770E+01  0.1196210354163E+01 -0.1045769604952E+01
 0.8347275234776E-01  0.5701594297035E+01  0.1157013427117E+01 -0.1047537592141E+01
 0.9205006551146E-01  0.5494093421414E+01  0.1117228714033E+01 -0.1047494870434E+01
 0.9868837235906E-01  0.5285154274693E+01  0.1076768545456E+01 -0.1044177493294E+01
 0.1045058848405E+00  0.5073699280434E+01  0.1035641048487E+01 -0.1036483998414E+01
 0.1110190628041E+00  0.4858694145411E+01  0.9939426564539E+00 -0.1023721557487E+01
 0.1197743932908E+00  0.4639308882358E+01  0.9518166693129E+00 -0.1005513307013E+01
 0.1321116494694E+00  0.4414914217582E+01  0.9094051869615E+00 -0.9816629159232E+00
 0.1490505626794E+00  0.4184991897357E+01  0.8668085049237E+00 -0.9520597351583E+00
 0.1712407468013E+00  0.3949011989454E+01  0.8240505595303E+00 -0.9166735151458E+00
 0.1988983593412E+00  0.3706187110712E+01  0.7810171056487E+00 -0.8757291420026E+00
 0.2316391893540E+00  0.3455270468518E+01  0.7373819425623E+00 -0.8300127461532E+00
 0.2681164980659E+00  0.3194691804539E+01  0.6925616708410E+00 -0.7811177327509E+00
 0.3054304706544E+00  0.2922800105060E+01  0.6456461247638E+00 -0.7316818698092E+00
 0.3382961199285E+00  0.2638110625166E+01  0.5952813578892E+00 -0.6856666407972E+00
 0.3579025542643E+00  0.2339746563076E+01  0.5395298315077E+00 -0.6485841542061E+00
 0.3503288601075E+00  0.2028199380417E+01  0.4757056551935E+00 -0.6275964357786E+00
 0.2942836877590E+00  0.1706580660312E+01  0.4001728755772E+00 -0.6312998885393E+00
 0.1578271653145E+00  0.1382471762513E+01  0.3080597901560E+00 -0.6687327742647E+00
-0.1060732715403E+00  0.1070312620311E+01  0.1928478726277E+00 -0.7462689197012E+00
-0.5613699412771E+00  0.7954555359904E+00  0.4681711964029E-01 -0.8574176450410E+00
-0.1277080779069E+01  0.5931234537625E+00 -0.1367914670997E+00 -0.9635719973077E+00
-0.2289533524036E+01  0.4873323687822E+00 -0.3604402364217E+00 -0.9792023528111E+00
-0.3543175308234E+01  0.4526292300998E+00 -0.6181092248374E+00 -0.7905372790023E+00
 0.1940719921561E+01  0.8615532441965E+01  0.2111250504165E+01 -0.1330506412137E+01
 0.1523260377412E+01  0.8745512171421E+01  0.2053754540370E+01 -0.1472491317794E+01
 0.1101604020607E+01  0.8816098755724E+01  0.1983540584823E+01 -0.1484639559290E+01
 0.7515107956710E+00  0.8800254315039E+01  0.1910353050608E+01 -0.1413872515146E+01
 0.4956446779852E+00  0.8706417680457E+01  0.1840412499113E+01 -0.1314460717216E+01
 0.3216926229926E+00  0.8559647290265E+01  0.1776268009120E+01 -0.1220410614725E+01
 0.2073154330653E+00  0.8383280222482E+01  0.1718119156711E+01 -0.1144711731908E+01
 0.1330437819201E+00  0.8192595343073E+01  0.1665127849811E+01 -0.1088529337170E+01
 0.8521632699773E-01  0.7995881237371E+01  0.1616219536957E+01 -0.1048638362254E+01
 0.5501953618225E-01  0.7797095984959E+01  0.1570423127629E+01 -0.1021020528530E+01
 0.3695271359957E-01  0.7597834493130E+01  0.1526957464099E+01 -0.1002112878772E+01
 0.2766352393617E-01  0.7398425714492E+01  0.1485217869817E+01 -0.9891032105647E+00
 0.2517100066127E-01  0.7198482165490E+01  0.1444730654758E+01 -0.9799468558878E+00
 0.2829402568011E-01  0.6997189545575E+01  0.1405096735189E+01 -0.9733477638863E+00
 0.3612066536750E-01  0.6793537835683E+01  0.1365931720564E+01 -0.9687270972955E+00
 0.4748805600890E-01  0.6586608268331E+01  0.1326819284639E+01 -0.9660576213046E+00
 0.6067591760966E-01  0.6376315995975E+01  0.1287398401901E+01 -0.9653034840901E+00
 0.7360628294529E-01  0.6163862815263E+01  0.1247493838231E+01 -0.9657073807607E+00
 0.8451502089175E-01  0.5950462784361E+01  0.1206995579036E+01 -0.9657720373451E+00
 0.9261725493949E-01  0.5736184956031E+01  0.1165760459565E+01 -0.9637752471083E+00
 0.9830321927309E-01  0.5520261006388E+01  0.1123712861877E+01 -0.9581817548623E+00
 0.1028445945065E+00  0.5301655184643E+01  0.1080899971936E+01 -0.9478968529203E+00
 0.1079043089622E+00  0.5079461945751E+01  0.1037473266402E+01 -0.9322857141279E+00
 0.1151244989556E+00  0.4853059215120E+01  0.9936367576215E+00 -0.9110289427706E+00
 0.1258934075359E+00  0.4622073537855E+01  0.9495934032282E+00 -0.8839457424155E+00
 0.1412641274278E+00  0.4386256126162E+01  0.9055040642110E+00 -0.8508769586856E+00
 0.1619511040751E+00  0.4145327885897E+01  0.8614558108312E+00 -0.8116742810507E+00
 0.1883182287063E+00  0.3898695078984E+01  0.8174026737184E+00 -0.7663908431350E+00
 0.2202535180700E+00  0.3645206388358E+01  0.7730919928056E+00 -0.7156204725424E+00
 0.2568270777324E+00  0.3383254192700E+01  0.7280162649348E+00 -0.6607796370082E+00
 0.2957051095384E+00  0.3110970265476E+01  0.6813350851556E+00 -0.6043879684163E+00
 0.3323155358653E+00  0.2826398473702E+01  0.6317428113272E+00 -0.5504154703131E+00
 0.3586881357371E+00  0.2527837941763E+01  0.5773052241025E+00 -0.5046271643312E+00
 0.3617921275372E+00  0.2214487900205E+01  0.5152560132263E+00 -0.4748978127589E+00
 0.3210093262089E+00  0.1887610542589E+01  0.4417239803417E+00 -0.4713962265122E+00
 0.2040356330580E+00  0.1552501959508E+01  0.3513075237482E+00 -0.5062724186403E+00
-0.3970677381005E-01  0.1221736760138E+01  0.2364060007884E+00 -0.5913145620861E+00
-0.4848087081999E+00  0.9219869628680E+00  0.8743565223651E-01 -0.7269327655720E+00
-0.1220824221288E+01  0.6967210222673E+00 -0.1048206413662E+00 -0.8769225990051E+00
-0.2306953320412E+01  0.5826304746355E+00 -0.3448645742942E+00 -0.9418268124292E+00
-0.3685514135031E+01  0.5549128997666E+00 -0.6261202563828E+00 -0.7729533271539E+00
 0.2019145934088E+01  0.9049984517475E+01  0.2213826123301E+01 -0.1388671949190E+01
 0.1545989545335E+01  0.9192800621641E+01  0.2147758065399E+01 -0.1515642617593E+01
 0.1080703165762E+01  0.9259343880824E+01  0.2068009440133E+01 -0.1493557531389E+01
 0.7112513685946E+00  0.9222564754138E+01  0.1986763254152E+01 -0.1387139893922E+01
 0.4544431747565E+00  0.9100734328990E+01  0.1911035529226E+01 -0.1262268820697E+01
 0.2876508178478E+00  0.8927622588805E+01  0.1843054708794E+01 -0.1153982802560E+01
 0.1818650040841E+00  0.8729947496176E+01  0.1782362526611E+01 -0.1071647466394E+01
 0.1149619776671E+00  0.8522866711426E+01  0.1727565763561E+01 -0.1012894127922E+01
 0.7272276686381E-01  0.8313477944085E+01  0.1677240167183E+01 -0.9723161698059E+00
 0.4650417175369E-01  0.8104603834910E+01  0.1630221625625E+01 -0.9447568016636E+00
 0.3113598865063E-01  0.7897010803559E+01  0.1585629382070E+01 -0.9260817988524E+00
 0.2359182071261E-01  0.7690471520024E+01  0.1542812691137E+01 -0.9131782432496E+00
 0.2219169952583E-01  0.7484220968867E+01  0.1501282556049E+01 -0.9038214350157E+00
 0.2604691982270E-01  0.7277148740924E+01  0.1460639153915E+01 -0.8966040157045E+00
 0.3451607409104E-01  0.7067960637772E+01  0.1420495363540E+01 -0.8909227340987E+00
 0.4660009571373E-01  0.6855461533169E+01  0.1380412346346E+01 -0.8868445157368E+00
 0.6052928535352E-01  0.6639370878449E+01  0.1339980052728E+01 -0.8844931768950E+00
 0.7397764377879E-01  0.6420828942857E+01  0.1298961336683E+01 -0.8831971430903E+00
 0.8491758528846E-01  0.6201047586575E+01  0.1257193053106E+01 -0.8814063555571E+00
 0.9247059650446E-01  0.5980070840183E+01  0.1214508305435E+01 -0.8772893646856E+00
 0.9712454074206E-01  0.5757115133368E+01  0.1170847952269E+01 -0.8692599090127E+00
 0.1003313369163E+00  0.5531210860121E+01  0.1126308456191E+01 -0.8562681378337E+00
 0.1039069343374E+00  0.5301630563678E+01  0.1081107515713E+01 -0.8377749042904E+00
 0.1095755996007E+00  0.5068019942673E+01  0.1035519123885E+01 -0.8135420911778E+00
 0.1187488963148E+00  0.4830320906286E+01  0.9898139752695E+00 -0.7834123748444E+00
 0.1324834742269E+00  0.4588612019055E+01  0.9442191127263E+00 -0.7471725116070E+00
 0.1515300898055E+00  0.4342925267169E+01  0.8988910847893E+00 -0.7045369875380E+00
 0.1763805859167E+00  0.4092927160070E+01  0.8538615619209E+00 -0.6553527270200E+00
 0.2071905000559E+00  0.3837637678005E+01  0.8089656476667E+00 -0.5999698779011E+00
 0.2434603184002E+00  0.3575497851220E+01  0.7637916453054E+00 -0.5395550894411E+00
 0.2834597410204E+00  0.3304513913860E+01  0.7175947416690E+00 -0.4764049975997E+00
 0.3234077157197E+00  0.3022341539450E+01  0.6691498610050E+00 -0.4143472111928E+00
 0.3563279637942E+00  0.2726502001443E+01  0.6165660022350E+00 -0.3591882979001E+00
 0.3703761104869E+00  0.2414850751841E+01  0.5570453807662E+00 -0.3192335211545E+00
 0.3461751155820E+00  0.2086508503077E+01  0.4865367309819E+00 -0.3059026336534E+00
 0.2520464041795E+00  0.1743670428233E+01  0.3991433724302E+00 -0.3343192099906E+00
 0.3507479069337E-01  0.1395411753104E+01  0.2860973130227E+00 -0.4224265855668E+00
-0.3901160710940E+00  0.1067835098338E+01  0.1355438074686E+00 -0.5802528734606E+00
-0.1138634914323E+01  0.8131164299202E+00 -0.6510369785076E-01 -0.7782695571413E+00
-0.2303943697132E+01  0.6858465259825E+00 -0.3236194390521E+00 -0.9032421145850E+00
-0.3832551655161E+01  0.6658266063969E+00 -0.6333450191903E+00 -0.7592951133895E+00
 0.2096491556619E+01  0.9505332534129E+01  0.2320364852726E+01 -0.1454460595903E+01
 0.1557332275476E+01  0.9661396099652E+01  0.2243745708460E+01 -0.1560916328597E+01
 0.1044409440671E+01  0.9718477359405E+01  0.2152577392091E+01 -0.1495914421949E+01
 0.6587344439982E+00  0.9652426557405E+01  0.2062232231010E+01 -0.1348912764732E+01
 0.4061448966635E+00  0.9496117643210E+01  0.1980452537486E+01 -0.1198512267183E+01
 0.2503500379784E+00  0.9293493233788E+01  0.1908768682796E+01 -0.1078177342717E+01
 0.1552283775004E+00  0.9073620038889E+01  0.1845769710782E+01 -0.9915313303918E+00
 0.9662916863019E-01  0.8850280035103E+01  0.1789381867411E+01 -0.9319651845534E+00
 0.6033864561208E-01  0.8628687103201E+01  0.1737805175658E+01 -0.8918958086554E+00
 0.3818819086833E-01  0.8410248161408E+01  0.1689687295634E+01 -0.8651875098854E+00
 0.2547854259761E-01  0.8194810262429E+01  0.1644057785504E+01 -0.8472755163541E+00
 0.1956803565268E-01  0.7981582071934E+01  0.1600230045363E+01 -0.8348429521625E+00
 0.1910065715303E-01  0.7769450811099E+01  0.1557710316862E+01 -0.8255372743944E+00
 0.2350077795655E-01  0.7557046395709E+01  0.1516109457325E+01 -0.8178516607115E+00
 0.3243764875242E-01  0.7342803427165E+01  0.1475048237163E+01 -0.8111492339069E+00
 0.4512312898473E-01  0.7125224429731E+01  0.1434069533112E+01 -0.8055959606744E+00
 0.5974706827933E-01  0.6903783359569E+01  0.1392706106323E+01 -0.8015096999294E+00
 0.7369021615970E-01  0.6679510472035E+01  0.1350640157765E+01 -0.7983391938719E+00
 0.8461263316493E-01  0.6453574023067E+01  0.1307637350732E+01 -0.7944907366259E+00
 0.9154122910642E-01  0.6225960963722E+01  0.1263500457393E+01 -0.7880299904102E+00
 0.9509727605528E-01  0.5995868770597E+01  0.1218193227483E+01 -0.7773527045634E+00
 0.9694226483328E-01  0.5762431493992E+01  0.1171874769227E+01 -0.7615058273646E+00
 0.9904644067896E-01  0.5525166088000E+01  0.1124842522497E+01 -0.7400905037457E+00
 0.1031952082761E+00  0.5284058018947E+01  0.1077450661500E+01 -0.7129735550254E+00
 0.1107923631555E+00  0.5039429115183E+01  0.1030044311017E+01 -0.6800268133768E+00
 0.1228632700034E+00  0.4791744258360E+01  0.9829215203193E+00 -0.6409771234706E+00
 0.1401605056139E+00  0.4541408615812E+01  0.9363138382374E+00 -0.5953849015909E+00
 0.1632770141665E+00  0.4288421677619E+01  0.8903397516243E+00 -0.5428599113625E+00
 0.1926228174235E+00  0.4032063572447E+01  0.8449372905647E+00 -0.4834613989765E+00
 0.2281303857840E+00  0.3770932630482E+01  0.7998126151714E+00 -0.4180367720342E+00
 0.2686924013233E+00  0.3503035734253E+01  0.7543456383560E+00 -0.3485536368001E+00
 0.3113722522728E+00  0.3225772707625E+01  0.7074290025211E+00 -0.2785351613904E+00
 0.3503090106412E+00  0.2936004180876E+01  0.6572626480974E+00 -0.2135884826784E+00
 0.3751054518145E+00  0.2630296575090E+01  0.6010804143378E+00 -0.1620951515176E+00
 0.3681959069284E+00  0.2305479187357E+01  0.5347350268252E+00 -0.1362287822274E+00
 0.2997254994658E+00  0.1959905246359E+01  0.4519261558991E+00 -0.1535845508550E+00
 0.1163905079737E+00  0.1597146780039E+01  0.3427074627093E+00 -0.2385547870395E+00
-0.2768830198155E+00  0.1239566705572E+01  0.1925367400204E+00 -0.4137627870098E+00
-0.1025875497089E+01  0.9471135561214E+00 -0.1575238842826E-01 -0.6628454835564E+00
-0.2274625623726E+01  0.7988945876793E+00 -0.2951462116073E+00 -0.8616398454947E+00
-0.3986698111110E+01  0.7866933909838E+00 -0.6400009535620E+00 -0.7508342071041E+00
 0.2171913891298E+01  0.9986617878522E+01  0.2431706390199E+01 -0.1529164544046E+01
 0.1553720455944E+01  0.1015547882183E+02  0.2341839890451E+01 -0.1607116559584E+01
 0.9896687870929E+00  0.1019450276601E+02  0.2236834343951E+01 -0.1488055442173E+01
 0.5932873215770E+00  0.1008800286943E+02  0.2136258070034E+01 -0.1295778674416E+01
 0.3515799180506E+00  0.9889983889219E+01  0.2048312791976E+01 -0.1121403703243E+01
 0.2108815877154E+00  0.9655238775321E+01  0.1973224102011E+01 -0.9924750393357E+00
 0.1282487993787E+00  0.9413016511054E+01  0.1908253090522E+01 -0.9044121609821E+00
 0.7860790882556E-01  0.9174072574686E+01  0.1850536124278E+01 -0.8459629481277E+00
 0.4842735385555E-01  0.8941060154186E+01  0.1797897528399E+01 -0.8076196230280E+00
 0.3030789114688E-01  0.8713761732802E+01  0.1748813950849E+01 -0.7825300012114E+00
 0.2013946074397E-01  0.8491062971061E+01  0.1702240511726E+01 -0.7658797234590E+00
 0.1570433462171E-01  0.8271634021785E+01  0.1657467695979E+01 -0.7542633527145E+00
 0.1597493868046E-01  0.8054071614336E+01  0.1614009334654E+01 -0.7452605301547E+00
 0.2069435918191E-01  0.7836810044395E+01  0.1571500904133E+01 -0.7372730951918E+00
 0.2987992911584E-01  0.7618047735413E+01  0.1529585555698E+01 -0.7296047209856E+00
 0.4301350568872E-01  0.7395962356039E+01  0.1487795194515E+01 -0.7225072124190E+00
 0.5826277272417E-01  0.7169715070487E+01  0.1445595590183E+01 -0.7165214401562E+00
 0.7266366230635E-01  0.6940149704414E+01  0.1402562694244E+01 -0.7112536282304E+00
 0.8350831059079E-01  0.6708322010215E+01  0.1358366084402E+01 -0.7050776573537E+00
 0.8973606320251E-01  0.6474113498069E+01  0.1312769931816E+01 -0.6959720251429E+00
 0.9214875443855E-01  0.6236703703261E+01  0.1265770510401E+01 -0.6823674544940E+00
 0.9264692989070E-01  0.5995389740249E+01  0.1217607352172E+01 -0.6634773319416E+00
 0.9334716054837E-01  0.5750022889630E+01  0.1168674027450E+01 -0.6390932253482E+00
 0.9606553963687E-01  0.5501014182937E+01  0.1119415961195E+01 -0.6092066167013E+00
 0.1021616094350E+00  0.5249132799569E+01  0.1070258897749E+01 -0.5737190541399E+00
 0.1125910407821E+00  0.4995286315617E+01  0.1021575486502E+01 -0.5322909494430E+00
 0.1280686314485E+00  0.4740313759602E+01  0.9736764927189E+00 -0.4843156295779E+00
 0.1492547411516E+00  0.4484624598109E+01  0.9267758816621E+00 -0.4291408752163E+00
 0.1767924052283E+00  0.4227860935444E+01  0.8809306812613E+00 -0.3664955666714E+00
 0.2110343848346E+00  0.3968911648207E+01  0.8359892190656E+00 -0.2968465377963E+00
 0.2514943361806E+00  0.3705948626939E+01  0.7914886044181E+00 -0.2217303582194E+00
 0.2961028557612E+00  0.3436302561405E+01  0.7464810945566E+00 -0.1441992923528E+00
 0.3401923011456E+00  0.3156371593131E+01  0.6993127892759E+00 -0.6940207117422E-01
 0.3750078544499E+00  0.2861621777965E+01  0.6473259361288E+00 -0.5389935419058E-02
 0.3852925528210E+00  0.2546667015774E+01  0.5863919224570E+00  0.3556955019201E-01
 0.3443087419287E+00  0.2205554690100E+01  0.5099726940048E+00  0.3436280841809E-01
 0.2011289185892E+00  0.1834214039349E+01  0.4070685976535E+00 -0.3931600726572E-01
-0.1459260103248E+00  0.1446489813296E+01  0.2601127644703E+00 -0.2233604287842E+00
-0.8773445574612E+00  0.1106383989823E+01  0.4580788715493E-01 -0.5237709350952E+00
-0.2210492192688E+01  0.9250251128052E+00 -0.2570934198075E+00 -0.8134997891511E+00
-0.4150958369392E+01  0.9194273736088E+00 -0.6463062087873E+00 -0.7492143809739E+00
 0.2244073069715E+01  0.1050093131665E+02  0.2549000915255E+01 -0.1614350216504E+01
 0.1530211969557E+01  0.1068030947848E+02  0.2442104325999E+01 -0.1651911639647E+01
 0.9130079887110E+00  0.1068761890376E+02  0.2320125413067E+01 -0.1464636625024E+01
 0.5148946473077E+00  0.1052594373516E+02  0.2208167709399E+01 -0.1223638143395E+01
 0.2922829692371E+00  0.1027881526200E+02  0.2114219677751E+01 -0.1029361194916E+01
 0.1706753563099E+00  0.1001054863612E+02  0.2036244828828E+01 -0.8967430252078E+00
 0.1018667185020E+00  0.9746832874204E+01  0.1969739947893E+01 -0.8106069069115E+00
 0.6147180505593E-01  0.9493524443387E+01  0.1910999278165E+01 -0.7552635543990E+00
 0.3733888239115E-01  0.9250201502620E+01  0.1857508104681E+01 -0.7198185989239E+00
 0.2308154477888E-01  0.9014923595181E+01  0.1807601054927E+01 -0.6970491816532E+00
 0.1526390311974E-01  0.8785632211981E+01  0.1760179249249E+01 -0.6821022991418E+00
 0.1210742977895E-01  0.8560520568559E+01  0.1714525625216E+01 -0.6716132027410E+00
 0.1289573155804E-01  0.8337980133093E+01  0.1670175197818E+01 -0.6631613754731E+00
 0.1767572056705E-01  0.8116346669939E+01  0.1626804502342E+01 -0.6550629991421E+00
 0.2684296626224E-01  0.7893650786609E+01  0.1584098774179E+01 -0.6465152422770E+00
 0.4022293398559E-01  0.7667733875813E+01  0.1541591384931E+01 -0.6378136899934E+00
 0.5599443187296E-01  0.7437353904343E+01  0.1498669689575E+01 -0.6297376042653E+00
 0.7079218235924E-01  0.7203047129305E+01  0.1454767884011E+01 -0.6220880677960E+00
 0.8147998866187E-01  0.6965643194914E+01  0.1409424657717E+01 -0.6132222529811E+00
 0.8692996154039E-01  0.6724847588519E+01  0.1362355530313E+01 -0.6010657136816E+00
 0.8818455149082E-01  0.6479836298194E+01  0.1313604189511E+01 -0.5841681510702E+00
 0.8740791164013E-01  0.6230164642475E+01  0.1263514529651E+01 -0.5620005878904E+00
 0.8683994192027E-01  0.5976140086176E+01  0.1212596023688E+01 -0.5345968012748E+00
 0.8828552270843E-01  0.5718699677391E+01  0.1161397057326E+01 -0.5020827500008E+00
 0.9301962786605E-01  0.5459126596095E+01  0.1110429261339E+01 -0.4643811990855E+00
 0.1018888610430E+00  0.5198819608432E+01  0.1060141709692E+01 -0.4210783761517E+00
 0.1155270327362E+00  0.4939106130008E+01  0.1010926647613E+01 -0.3713935544527E+00
 0.1346219357612E+00  0.4680884153985E+01  0.9631012323006E+00 -0.3143973210573E+00
 0.1600199543576E+00  0.4424272437618E+01  0.9168584920573E+00 -0.2494610050934E+00
 0.1924679413614E+00  0.4168610482249E+01  0.8722156977191E+00 -0.1766231145443E+00
 0.2320736538559E+00  0.3912441050155E+01  0.8289029531538E+00 -0.9689687336086E-01
 0.2776222942280E+00  0.3653269882108E+01  0.7861784469822E+00 -0.1270015147236E-01
 0.3256655817589E+00  0.3387316351666E+01  0.7425963977506E+00  0.7153875250723E-01
 0.3691952978991E+00  0.3109285895254E+01  0.6956962489974E+00  0.1485257751926E+00
 0.3955998586831E+00  0.2811952379710E+01  0.6415104572378E+00  0.2066674081858E+00
 0.3824328139371E+00  0.2485136807834E+01  0.5735139329003E+00  0.2267437895186E+00
 0.2845853491561E+00  0.2115395817936E+01  0.4799962405709E+00  0.1743414979023E+00
-0.2333103092265E-03  0.1701683679173E+01  0.3402900788434E+00 -0.4942792965716E-02
-0.6878144216174E+00  0.1303408884262E+01  0.1231188943636E+00 -0.3513174539200E+00
-0.2099131805138E+01  0.1070146712698E+01 -0.2057970215545E+00 -0.7521651048923E+00
-0.4328922527347E+01  0.1067094707291E+01 -0.6523655737323E+00 -0.7564649903985E+00
 0.2310797197395E+01  0.1105863017339E+02  0.2673885514001E+01 -0.1711877173613E+01
 0.1479880727138E+01  0.1124241756495E+02  0.2544459696332E+01 -0.1690885149342E+01
 0.8107753819544E+00  0.1119621987021E+02  0.2401399086217E+01 -0.1417891095151E+01
 0.4247532335435E+00  0.1096062607832E+02  0.2277075896303E+01 -0.1127891749520E+01
 0.2306863205594E+00  0.1065811584519E+02  0.2177760465601E+01 -0.9214063112937E+00
 0.1314475821600E+00  0.1035698437718E+02  0.2097686423127E+01 -0.7914056898066E+00
 0.7705345142629E-01  0.1007383757806E+02  0.2030178236150E+01 -0.7107328615408E+00
 0.4577056715923E-01  0.9808005396286E+01  0.1970755222056E+01 -0.6604024459372E+00
 0.2738964593289E-01  0.9555796129401E+01  0.1916637183627E+01 -0.6289093201581E+00
 0.1669696116964E-01  0.9313575014561E+01  0.1866054422952E+01 -0.6090517572436E+00
 0.1097560959900E-01  0.9078424382550E+01  0.1817880025518E+01 -0.5961669136767E+00
 0.8874809359225E-02  0.8848157459831E+01  0.1771406480234E+01 -0.5870662113659E+00
 0.9949363311402E-02  0.8621069903882E+01  0.1726203879161E+01 -0.5794048768437E+00
 0.1450824835250E-01  0.8395533185601E+01  0.1682008311855E+01 -0.5714218686789E+00
 0.2333981852348E-01  0.8169528911467E+01  0.1638573770415E+01 -0.5621369900573E+00
 0.3670238531951E-01  0.7940578384532E+01  0.1595456177744E+01 -0.5518032813998E+00
 0.5284210721603E-01  0.7706917544530E+01  0.1551951953475E+01 -0.5414247111295E+00
 0.6793550026188E-01  0.7468580988301E+01  0.1507303320173E+01 -0.5310289242211E+00
 0.7835790353313E-01  0.7225984713314E+01  0.1460868545138E+01 -0.5189819210680E+00
 0.8295572651444E-01  0.6978558878609E+01  0.1412302942070E+01 -0.5032262478032E+00
 0.8308436538826E-01  0.6725521484305E+01  0.1361721190230E+01 -0.4825622343729E+00
 0.8118167701438E-01  0.6466838297364E+01  0.1309604014390E+01 -0.4568335678264E+00
 0.7956505687698E-01  0.6203436136288E+01  0.1256600257358E+01 -0.4263615902202E+00
 0.7997338155142E-01  0.5936892083844E+01  0.1203373111011E+01 -0.3913980514508E+00
 0.8355597933280E-01  0.5669063660933E+01  0.1150523945197E+01 -0.3518643824761E+00
 0.9101416301231E-01  0.5401874207208E+01  0.1098577690414E+01 -0.3072630123168E+00
 0.1028562948161E+00  0.5137181075179E+01  0.1048007489615E+01 -0.2566413125054E+00
 0.1197521786831E+00  0.4876447027780E+01  0.9992398561824E+00 -0.1987918624145E+00
 0.1427142148631E+00  0.4620395274000E+01  0.9526219119677E+00 -0.1327193097309E+00
 0.1728414276447E+00  0.4369005971243E+01  0.9083694933132E+00 -0.5800592743345E-01
 0.2107804822190E+00  0.4121443159221E+01  0.8664447411989E+00  0.2493539637523E-01
 0.2561201868482E+00  0.3875689910296E+01  0.8263620317425E+00  0.1144747305686E+00
 0.3066026631958E+00  0.3628153544797E+01  0.7869512533250E+00  0.2071527046528E+00
 0.3569647523171E+00  0.3373270753335E+01  0.7460471122474E+00  0.2968381117518E+00
 0.3973417272847E+00  0.3102686137324E+01  0.7000055833526E+00  0.3733895325283E+00
 0.4103271734060E+00  0.2802875133402E+01  0.6426404709377E+00  0.4192021822493E+00
 0.3601960486658E+00  0.2450656995489E+01  0.5621706172079E+00  0.3991400351078E+00
 0.1536167100050E+00  0.2023120591422E+01  0.4353474667726E+00  0.2443936380274E+00
-0.4534322347826E+00  0.1558748338881E+01  0.2210632241137E+00 -0.1322664864641E+00
-0.1922438697341E+01  0.1245649064071E+01 -0.1353579286708E+00 -0.6652556542793E+00
-0.4524477258083E+01  0.1235227997915E+01 -0.6578498618362E+00 -0.7747140088835E+00
 0.2368494389769E+01  0.1167555107594E+02  0.2808809134996E+01 -0.1823808800505E+01
 0.1392931956054E+01  0.1184953156240E+02  0.2648492743156E+01 -0.1715708161462E+01
 0.6798167904121E+00  0.1171491307340E+02  0.2478946009701E+01 -0.1336711209290E+01
 0.3261217371768E+00  0.1138322633314E+02  0.2341869648960E+01 -0.1004092587999E+01
 0.1702180888387E+00  0.1102266381444E+02  0.2238576414012E+01 -0.7977630023640E+00
 0.9504033195830E-01  0.1069225413737E+02  0.2157458926013E+01 -0.6775685318976E+00
 0.5472548456582E-01  0.1039296707290E+02  0.2089538542630E+01 -0.6057042079720E+00
 0.3199442621429E-01  0.1011702443400E+02  0.2029803802289E+01 -0.5620696527452E+00
 0.1884056840732E-01  0.9857637815373E+01  0.1975295706190E+01 -0.5353846721586E+00
 0.1129914112737E-01  0.9609634214317E+01  0.1924186699761E+01 -0.5188773020271E+00
 0.7369271924423E-02  0.9369398872955E+01  0.1875353656921E+01 -0.5083053681963E+00
 0.6090071774397E-02  0.9134490281008E+01  0.1828116097798E+01 -0.5007868656141E+00
 0.7228017429005E-02  0.8903232988515E+01  0.1782092227744E+01 -0.4941385435399E+00
 0.1127905600067E-01  0.8674204803044E+01  0.1737096797694E+01 -0.4865446585510E+00
 0.1940887541028E-01  0.8445532187856E+01  0.1692988237881E+01 -0.4767567790383E+00
 0.3240993311040E-01  0.8214494572605E+01  0.1649380925721E+01 -0.4648337853727E+00
 0.4868520605672E-01  0.7978657234601E+01  0.1605468512055E+01 -0.4519319984175E+00
 0.6390533006220E-01  0.7737236720286E+01  0.1560228433319E+01 -0.4383178893338E+00
 0.7390930329706E-01  0.7489922718001E+01  0.1512766426802E+01 -0.4224138070958E+00
 0.7759150677876E-01  0.7235737806130E+01  0.1462665884377E+01 -0.4023175221686E+00
 0.7669868655721E-01  0.6974054238278E+01  0.1410150605980E+01 -0.3772829964477E+00
 0.7392149105652E-01  0.6705489130325E+01  0.1355882144480E+01 -0.3476623248177E+00
 0.7157678714923E-01  0.6431801074388E+01  0.1300675591689E+01 -0.3140885363219E+00
 0.7126993700344E-01  0.6155330039484E+01  0.1245320013854E+01 -0.2769008891179E+00
 0.7398775091141E-01  0.5878554643743E+01  0.1190508496671E+01 -0.2359770995215E+00
 0.8025920898081E-01  0.5603931782395E+01  0.1136838215215E+01 -0.1907232661231E+00
 0.9042514068464E-01  0.5333867187272E+01  0.1084858481757E+01 -0.1400301990248E+00
 0.1050877199218E+00  0.5070456637741E+01  0.1035108886957E+01 -0.8243302563254E-01
 0.1253808871015E+00  0.4815170509519E+01  0.9881102940481E+00 -0.1658634577092E-01
 0.1526966164336E+00  0.4568854916187E+01  0.9443103205954E+00  0.5838525133415E-01
 0.1881331502887E+00  0.4331592424348E+01  0.9039451283972E+00  0.1427261117163E+00
 0.2319920774267E+00  0.4102201981109E+01  0.8668388246240E+00  0.2357322704870E+00
 0.2831263887142E+00  0.3877718399339E+01  0.8321689700110E+00  0.3351333395654E+00
 0.3379104318246E+00  0.3652932592880E+01  0.7981686168346E+00  0.4362987428478E+00
 0.3890641501116E+00  0.3419387733244E+01  0.7616903880211E+00  0.5312055055680E+00
 0.4242525601168E+00  0.3161997324175E+01  0.7172499875463E+00  0.6055412322108E+00
 0.4196474131591E+00  0.2850079115387E+01  0.6539453154539E+00  0.6281586579008E+00
 0.3035515072770E+00  0.2434353036234E+01  0.5475809168618E+00  0.5238224703851E+00
-0.1748921344300E+00  0.1906361334473E+01  0.3462938451689E+00  0.1499043637805E+00
-0.1654406417131E+01  0.1474566081216E+01 -0.3596806771879E-01 -0.5300846674605E+00
-0.4740771061116E+01  0.1435098082932E+01 -0.6611346054884E+00 -0.8048725265063E+00
 0.2411128433917E+01  0.1237733556869E+02  0.2957692844594E+01 -0.1951939602246E+01
 0.1255464083260E+01  0.1250948679791E+02  0.2752990217256E+01 -0.1710496537196E+01
 0.5191084972431E+00  0.1223062445286E+02  0.2549946628018E+01 -0.1205840194513E+01
 0.2254969848538E+00  0.1178103313034E+02  0.2401306058821E+01 -0.8495715839129E+00
 0.1150896528091E+00  0.1136736052866E+02  0.2296490070513E+01 -0.6605643396404E+00
 0.6312902423765E-01  0.1101451423038E+02  0.2215528683937E+01 -0.5569817736767E+00
 0.3567203089235E-01  0.1070339848561E+02  0.2147814135306E+01 -0.4967035975721E+00
 0.2053794858186E-01  0.1042028821032E+02  0.2088165262897E+01 -0.4610980168252E+00
 0.1187385067149E-01  0.1015565279628E+02  0.2033505359693E+01 -0.4397955348366E+00
 0.6979833270044E-02  0.9903109313189E+01  0.1982017858826E+01 -0.4268872235263E+00
 0.4502896821333E-02  0.9658577279298E+01  0.1932616064022E+01 -0.4187490001911E+00
 0.3816949508794E-02  0.9419503201594E+01  0.1884664058304E+01 -0.4129208091626E+00
 0.4828847078144E-02  0.9184365952679E+01  0.1837838987337E+01 -0.4074763653053E+00
 0.8109664022276E-02  0.8952143079628E+01  0.1792050575434E+01 -0.4006013640573E+00
 0.1513368362589E-01  0.8721405948256E+01  0.1747307952413E+01 -0.3906877272068E+00
 0.2732570250050E-01  0.8489402356513E+01  0.1703345637184E+01 -0.3773578845331E+00
 0.4337965591551E-01  0.8252861822394E+01  0.1659248320387E+01 -0.3617318845830E+00
 0.5844404914534E-01  0.8009653558806E+01  0.1613619545635E+01 -0.3442761590879E+00
 0.6781219665159E-01  0.7758210290136E+01  0.1565204520681E+01 -0.3235671527722E+00
 0.7054559266825E-01  0.7496989399644E+01  0.1513507021015E+01 -0.2981264965937E+00
 0.6884775804390E-01  0.7225765893686E+01  0.1458922752086E+01 -0.2679667179544E+00
 0.6558344277426E-01  0.6946180519311E+01  0.1402352813314E+01 -0.2340881391257E+00
 0.6295012362803E-01  0.6661086042931E+01  0.1344807253351E+01 -0.1974140522222E+00
 0.6234282532405E-01  0.6373706519581E+01  0.1287209888162E+01 -0.1582912995786E+00
 0.6455993401777E-01  0.6087167055194E+01  0.1230345416176E+01 -0.1164857660313E+00
 0.6994856277655E-01  0.5804431788577E+01  0.1174876087778E+01 -0.7128918979629E-01
 0.7864813517476E-01  0.5528434156472E+01  0.1121416475040E+01 -0.2146927221821E-01
 0.9114111271651E-01  0.5261954074553E+01  0.1070619053407E+01  0.3464331578274E-01
 0.1086310486431E+00  0.5007372708233E+01  0.1023200766622E+01  0.9869053450099E-01
 0.1327235013340E+00  0.4766672956475E+01  0.9798793061632E+00  0.1719748072030E+00
 0.1648450668529E+00  0.4541199789363E+01  0.9412089852682E+00  0.2554324232080E+00
 0.2058780861093E+00  0.4331017249447E+01  0.9073790806323E+00  0.3494025665394E+00
 0.2556702742767E+00  0.4134289029819E+01  0.8779918739023E+00  0.4529884934602E+00
 0.3120398854287E+00  0.3946859086759E+01  0.8517798071301E+00  0.5632845123794E+00
 0.3698828762900E+00  0.3761443551621E+01  0.8262652978946E+00  0.6748168989873E+00
 0.4212157944272E+00  0.3563899293310E+01  0.7970230294240E+00  0.7777527369023E+00
 0.4538921751608E+00  0.3321630708672E+01  0.7551045880185E+00  0.8495274745169E+00
 0.4300502404693E+00  0.2963302376375E+01  0.6786705334818E+00  0.8240729558732E+00
 0.1359429973847E+00  0.2401508847583E+01  0.5074903765558E+00  0.5119423525880E+00
-0.1259348338575E+01  0.1805319397882E+01  0.1091942134884E+00 -0.3059866893477E+00
-0.4977458221384E+01  0.1692260923127E+01 -0.6570394694421E+00 -0.8421471857642E+00
 0.2428555275181E+01  0.1320874498976E+02  0.3127460099591E+01 -0.2095974047654E+01
 0.1047880149065E+01  0.1322542564015E+02  0.2854661200381E+01 -0.1644275657291E+01
 0.3334859817310E+00  0.1271521797413E+02  0.2609740830059E+01 -0.1006478991326E+01
 0.1338605917786E+00  0.1213856428469E+02  0.2454485011868E+01 -0.6668317049904E+00
 0.6934661762027E-01  0.1168883648631E+02  0.2351636655828E+01 -0.5141498071116E+00
 0.3690083312226E-01  0.1132241392007E+02  0.2271862984493E+01 -0.4317624979672E+00
 0.2054041491796E-01  0.1100465585544E+02  0.2205039286930E+01 -0.3851914852215E+00
 0.1164511290330E-01  0.1071775848321E+02  0.2145880751198E+01 -0.3584242943737E+00
 0.6576541063068E-02  0.1044991218802E+02  0.2091297776980E+01 -0.3427265209517E+00
 0.3769256779188E-02  0.1019411142671E+02  0.2039576167090E+01 -0.3334528047187E+00
 0.2390474486255E-02  0.9946049890517E+01  0.1989688102649E+01 -0.3277189461743E+00
 0.2091961316302E-02  0.9703229042820E+01  0.1941064229751E+01 -0.3235867791894E+00
 0.2848849282426E-02  0.9464383583509E+01  0.1893446514773E+01 -0.3194803753197E+00
 0.5167633968631E-02  0.9229069389810E+01  0.1846847432276E+01 -0.3137047221046E+00
 0.1067444190672E-01  0.8996732987851E+01  0.1801481512796E+01 -0.3042530108885E+00
 0.2148012375688E-01  0.8765073395721E+01  0.1757310730082E+01 -0.2899591990754E+00
 0.3675498869271E-01  0.8529862419259E+01  0.1713323507121E+01 -0.2714872768872E+00
 0.5118931853482E-01  0.8286702688892E+01  0.1667578426334E+01 -0.2493398534762E+00
 0.5961625151297E-01  0.8031845906410E+01  0.1618292455699E+01 -0.2224637828453E+00
 0.6143969916520E-01  0.7763050285569E+01  0.1564898020266E+01 -0.1903228924888E+00
 0.5932549390302E-01  0.7481011204512E+01  0.1508067362155E+01 -0.1541244359289E+00
 0.5613673514179E-01  0.7188943705564E+01  0.1449016109733E+01 -0.1156150697896E+00
 0.5378984772106E-01  0.6891090150225E+01  0.1388976020287E+01 -0.7590646289516E-01
 0.5339194622328E-01  0.6591660242185E+01  0.1329010457485E+01 -0.3522251681846E-01
 0.5554517146915E-01  0.6294424430948E+01  0.1269993939408E+01  0.6881299703298E-02
 0.6043354016605E-01  0.6002782361065E+01  0.1212643198316E+01  0.5125810691003E-01
 0.6797973178093E-01  0.5720107843087E+01  0.1157617532223E+01  0.9920737561466E-01
 0.7849483266260E-01  0.5449881983685E+01  0.1105675379745E+01  0.1524977134708E+00
 0.9318953833218E-01  0.5195598640930E+01  0.1057757651614E+01  0.2129598838249E+00
 0.1137768880863E+00  0.4960713653256E+01  0.1014898123392E+01  0.2822591039256E+00
 0.1418516277433E+00  0.4748218920459E+01  0.9780141242141E+00  0.3620415779901E+00
 0.1787016613138E+00  0.4559865426887E+01  0.9477134317621E+00  0.4537750978278E+00
 0.2250284981118E+00  0.4395518080091E+01  0.9241093294109E+00  0.5580881571787E+00
 0.2798899637152E+00  0.4252760730732E+01  0.9065301523977E+00  0.6739050306849E+00
 0.3396963765737E+00  0.4126811465959E+01  0.8933015818178E+00  0.7983208785020E+00
 0.3997512696871E+00  0.4007446355782E+01  0.8814395382282E+00  0.9264695354595E+00
 0.4558489063997E+00  0.3867828685772E+01  0.8647355313200E+00  0.1046165218156E+01
 0.5059434096806E+00  0.3635806729707E+01  0.8283500402209E+00  0.1119999726919E+01
 0.4433360327121E+00  0.3129667159412E+01  0.7146006490731E+00  0.9596212222652E+00
-0.6941590773799E+00  0.2342575584004E+01  0.3296833062374E+00  0.7651554770325E-01
-0.5223626412671E+01  0.2070913434724E+01 -0.6305426049851E+00 -0.8617557662595E+00
 0.2404698169839E+01  0.1425661523813E+02  0.3332262731249E+01 -0.2246572549194E+01
 0.7432003246991E+00  0.1397681715547E+02  0.2944003539903E+01 -0.1454878950336E+01
 0.1421033778473E+00  0.1311381908540E+02  0.2651184532155E+01 -0.7232520145699E+00
 0.6654482315062E-01  0.1244504555881E+02  0.2502318113680E+01 -0.4689941302728E+00
 0.3461432030186E-01  0.1198633161038E+02  0.2404189221962E+01 -0.3634876684613E+00
 0.1721324610678E-01  0.1161478337264E+02  0.2326399358415E+01 -0.3042791438169E+00
 0.9781016941239E-02  0.1129692710961E+02  0.2261341659006E+01 -0.2729424628978E+00
 0.5332286227572E-02  0.1100960663894E+02  0.2202987817861E+01 -0.2549834544708E+00
 0.2951378500170E-02  0.1074066739395E+02  0.2148723786509E+01 -0.2447914281326E+00
 0.1620323953056E-02  0.1048285548756E+02  0.2096895193549E+01 -0.2389331181489E+00
 0.1000167478235E-02  0.1023198233562E+02  0.2046596531116E+01 -0.2354187535799E+00
 0.9147609947826E-03  0.9985757253743E+01  0.1997334432710E+01 -0.2328711110862E+00
 0.1371787885499E-02  0.9743243893957E+01  0.1948923165410E+01 -0.2301448797923E+00
 0.2674090537782E-02  0.9504659050430E+01  0.1901466656528E+01 -0.2258587942455E+00
 0.6317648741739E-02  0.9270849880728E+01  0.1855433533542E+01 -0.2177407732015E+00
 0.1500810333728E-01  0.9040997080977E+01  0.1811201063852E+01 -0.2034043545218E+00
 0.2861130240587E-01  0.8810039618136E+01  0.1767730210450E+01 -0.1821702993520E+00
 0.4161208311014E-01  0.8569627674905E+01  0.1722247977266E+01 -0.1541102258207E+00
 0.4868435642192E-01  0.8312167884393E+01  0.1672170473080E+01 -0.1190516758793E+00
 0.4979484158556E-01  0.8034792046539E+01  0.1616917401719E+01 -0.7839771367632E-01
 0.4791259840585E-01  0.7740141465298E+01  0.1557610835951E+01 -0.3511042837206E-01
 0.4557900363579E-01  0.7433754501192E+01  0.1495866723256E+01  0.8359969660452E-02
 0.4424185573254E-01  0.7121545375456E+01  0.1433157467593E+01  0.5093534664530E-01
 0.4465672357427E-01  0.6808764795828E+01  0.1370684324305E+01  0.9269560254640E-01
 0.4724325110941E-01  0.6499803078845E+01  0.1309409285503E+01  0.1344247917443E+00
 0.5208198782000E-01  0.6198378152269E+01  0.1250092046646E+01  0.1771816395689E+00
 0.5890241178489E-01  0.5908098044529E+01  0.1193400109046E+01  0.2222563993603E+00
 0.6779901897610E-01  0.5633090761228E+01  0.1140177973031E+01  0.2713196873241E+00
 0.7990398678711E-01  0.5378251285441E+01  0.1091631070712E+01  0.3261977605285E+00
 0.9689388324864E-01  0.5148949781336E+01  0.1049168748551E+01  0.3888366181254E+00
 0.1203316315191E+00  0.4950218635664E+01  0.1014110068548E+01  0.4616072227364E+00
 0.1517180683723E+00  0.4785950580028E+01  0.9875337443954E+00  0.5471522469907E+00
 0.1923799548112E+00  0.4658340022676E+01  0.9701440099537E+00  0.6476958531958E+00
 0.2426102878139E+00  0.4567486200951E+01  0.9620193120883E+00  0.7641620357386E+00
 0.2994324072353E+00  0.4511710422515E+01  0.9622285802883E+00  0.8954980594631E+00
 0.3601711109847E+00  0.4488509248605E+01  0.9697360863681E+00  0.1041543678563E+01
 0.4248093795787E+00  0.4483159586332E+01  0.9815938078091E+00  0.1198358017108E+01
 0.5038448747633E+00  0.4459173974531E+01  0.9926037846498E+00  0.1363314956740E+01
 0.6656070576303E+00  0.4203740352024E+01  0.9738694964427E+00  0.1455932236207E+01
 0.7499399552074E-01  0.3317800028471E+01  0.6785588149097E+00  0.7232655358876E+00
-0.5447093539210E+01  0.2746118706433E+01 -0.5401949746049E+00 -0.7760196066679E+00
 0.2322199325847E+01  0.1571850298084E+02  0.3608140515103E+01 -0.2355763229817E+01
 0.3050707992338E+00  0.1463807072080E+02  0.2988628348540E+01 -0.1014860201771E+01
-0.8809384087916E-03  0.1334620753681E+02  0.2669065359452E+01 -0.3756685830633E+00
 0.3489267885370E-01  0.1271384792717E+02  0.2549748159200E+01 -0.2806045655892E+00
 0.7746717612654E-02  0.1225509395569E+02  0.2452568171207E+01 -0.2095955982809E+00
 0.6151558262678E-02  0.1189293432446E+02  0.2379817212006E+01 -0.1788086027317E+00
 0.2840478064607E-02  0.1158054641998E+02  0.2316677414131E+01 -0.1613246146826E+00
 0.1631418071983E-02  0.1129637159597E+02  0.2259600636480E+01 -0.1518304042807E+00
 0.8293063334461E-03  0.1102832101641E+02  0.2205830097418E+01 -0.1465575569649E+00
 0.4280764834101E-03  0.1076967040846E+02  0.2154019729087E+01 -0.1436707441495E+00
 0.2454915783208E-03  0.1051661729188E+02  0.2103372588034E+01 -0.1420220095214E+00
 0.2434837316563E-03  0.1026723762122E+02  0.2053496251589E+01 -0.1408263864018E+00
 0.4407709783383E-03  0.1002097805220E+02  0.2004283794502E+01 -0.1393955956504E+00
 0.8930112040746E-03  0.9778613063821E+01  0.1955901244150E+01 -0.1368868706276E+00
 0.2553342945660E-02  0.9542742220447E+01  0.1909059141126E+01 -0.1312879220311E+00
 0.8256189231479E-02  0.9316098015005E+01  0.1864870868636E+01 -0.1187161039110E+00
 0.1871558808106E-01  0.9093843348191E+01  0.1822511814412E+01 -0.9528964309880E-01
 0.2890132695851E-01  0.8860318668733E+01  0.1777844025630E+01 -0.5941620750519E-01
 0.3410663492934E-01  0.8600965068963E+01  0.1727014366513E+01 -0.1309807375878E-01
 0.3503150963224E-01  0.8313190075060E+01  0.1669644341818E+01  0.3842218831504E-01
 0.3440391195117E-01  0.8003461812785E+01  0.1607573168902E+01  0.8990696525477E-01
 0.3395640846888E-01  0.7680503125757E+01  0.1542891929836E+01  0.1385522459721E+00
 0.3450581591516E-01  0.7352101511005E+01  0.1477321487398E+01  0.1836798658334E+00
 0.3642615496481E-01  0.7024516464886E+01  0.1412188545013E+01  0.2258933892381E+00
 0.3998220411144E-01  0.6702719493117E+01  0.1348540359540E+01  0.2664583153509E+00
 0.4526028670881E-01  0.6390627980637E+01  0.1287177672650E+01  0.3067711103144E+00
 0.5190477214169E-01  0.6091652606433E+01  0.1228711494024E+01  0.3480473419706E+00
 0.5976809338449E-01  0.5810341759471E+01  0.1174021988065E+01  0.3914768620065E+00
 0.6975881124575E-01  0.5553511240034E+01  0.1124654027015E+01  0.4385412473318E+00
 0.8330669547029E-01  0.5329060180780E+01  0.1082473391380E+01  0.4914341618815E+00
 0.1017355704932E+00  0.5144368862450E+01  0.1049220902223E+01  0.5532984263025E+00
 0.1265237569577E+00  0.5005893958279E+01  0.1026483558343E+01  0.6278968778543E+00
 0.1594441314326E+00  0.4918927507537E+01  0.1015674342929E+01  0.7190730185765E+00
 0.2016044184164E+00  0.4886851813914E+01  0.1017691261631E+01  0.8298241713546E+00
 0.2519977677845E+00  0.4911427684939E+01  0.1032685105933E+01  0.9609516529132E+00
 0.3033806621526E+00  0.4997194946296E+01  0.1060115137487E+01  0.1111381568621E+01
 0.3695104388386E+00  0.5158695402114E+01  0.1105641184666E+01  0.1289966078615E+01
 0.4212920966886E+00  0.5395265702082E+01  0.1163311577089E+01  0.1488415725180E+01
 0.6582439393603E+00  0.5708832982181E+01  0.1273415403284E+01  0.1853700819734E+01
 0.9867417487312E+00  0.5210620314422E+01  0.1239472431100E+01  0.1723637338731E+01
-0.5547690542774E+01  0.4308156989969E+01 -0.2479067142553E+00 -0.2810580557373E+00
 0.2230058917678E+01  0.1817178704238E+02  0.4080369252813E+01 -0.2184420562261E+01
-0.3312574002998E+00  0.1455832648664E+02  0.2845413859668E+01 -0.7726515215982E-01
 0.6247329374312E-01  0.1352231929475E+02  0.2716958558184E+01 -0.1384165693778E+00
-0.1088758786350E-01  0.1292553545364E+02  0.2582929611644E+01 -0.8078543243359E-01
 0.3039799177235E-02  0.1250068170115E+02  0.2500744337329E+01 -0.6581303839159E-01
-0.3468781956846E-03  0.1215752796020E+02  0.2431436252632E+01 -0.5681195863729E-01
 0.2480202936357E-03  0.1185672573123E+02  0.2371394785641E+01 -0.5226919603500E-01
 0.1341768711871E-04  0.1157879442216E+02  0.2315761602478E+01 -0.4982744897978E-01
 0.1895342182667E-04  0.1131346098278E+02  0.2262696020958E+01 -0.4857323369830E-01
-0.7339642518200E-05  0.1105498736472E+02  0.2210996037962E+01 -0.4796243768221E-01
-0.8783322173578E-05  0.1080027547043E+02  0.2160053369609E+01 -0.4766933670294E-01
-0.2417485431838E-05  0.1054788918210E+02  0.2109577384359E+01 -0.4746158896741E-01
 0.1991450893968E-04  0.1029768058163E+02  0.2059540129918E+01 -0.4712381935344E-01
 0.5939243984443E-04  0.1005085264699E+02  0.2010182437839E+01 -0.4637433728820E-01
 0.1948143981356E-03  0.9811013316951E+01  0.1962241655510E+01 -0.4458034358216E-01
 0.2002105905255E-02  0.9588044857120E+01  0.1918009421186E+01 -0.3726051313966E-01
 0.6796208803363E-02  0.9381881603411E+01  0.1877735590423E+01 -0.1338266374743E-01
 0.1173565582547E-01  0.9161904771497E+01  0.1834728112804E+01  0.3365470668397E-01
 0.1458027942667E-01  0.8900503002344E+01  0.1783016682923E+01  0.9604681434082E-01
 0.1651654475874E-01  0.8599255025433E+01  0.1723154339715E+01  0.1612614662740E+00
 0.1864683919210E-01  0.8271167116977E+01  0.1657962815939E+01  0.2219692736606E+00
 0.2139070115166E-01  0.7928959994270E+01  0.1590070162778E+01  0.2757857668959E+00
 0.2484484943788E-01  0.7582310286218E+01  0.1521431049802E+01  0.3229542479654E+00
 0.2905329323859E-01  0.7238331754698E+01  0.1453477031246E+01  0.3648444678003E+00
 0.3412763405909E-01  0.6902487606826E+01  0.1387323068850E+01  0.4032869220049E+00
 0.4030057863595E-01  0.6578991061973E+01  0.1323858347849E+01  0.4402909213418E+00
 0.4744096668178E-01  0.6270181546998E+01  0.1263524521564E+01  0.4771013274731E+00
 0.5518131972741E-01  0.5980279945787E+01  0.1207092271090E+01  0.5136009877237E+00
 0.6389848646969E-01  0.5719280169236E+01  0.1156635748376E+01  0.5503081605320E+00
 0.7445669753081E-01  0.5498444444276E+01  0.1114580244970E+01  0.5899274143192E+00
 0.8777950352399E-01  0.5327428622242E+01  0.1083041641292E+01  0.6364533973013E+00
 0.1051587675834E+00  0.5215706693521E+01  0.1064173108078E+01  0.6945279143587E+00
 0.1283130262547E+00  0.5172539023024E+01  0.1060170425654E+01  0.7694695297864E+00
 0.1593993395479E+00  0.5205791927831E+01  0.1073038269465E+01  0.8667194112009E+00
 0.1983687360933E+00  0.5320074310511E+01  0.1103688625767E+01  0.9890336373844E+00
 0.2434630199402E+00  0.5522450863405E+01  0.1153182793853E+01  0.1131234657454E+01
 0.2734068165270E+00  0.5860545079419E+01  0.1226790397470E+01  0.1288300397122E+01
 0.3722629315143E+00  0.6434006387997E+01  0.1361253884186E+01  0.1498844277213E+01
 0.1988694422521E+00  0.7364005258186E+01  0.1512574962627E+01  0.1757589239213E+01
 0.1796403484827E+01  0.9023375473740E+01  0.2163955823959E+01  0.2913497428058E+01
-0.5949535596042E+01  0.8594496449354E+01  0.5289921785450E+00  0.1451840130653E+01
-0.1055583003262E+01 -0.1314512657809E+01 -0.1113944957878E+01 -0.1193877022771E+01
-0.9871065049297E+00 -0.1323303160290E+01 -0.1085892539899E+01 -0.1266457886739E+01
-0.8912605810521E+00 -0.1334747409132E+01 -0.1046223752733E+01 -0.1311809688027E+01
-0.7855327647675E+00 -0.1338469767733E+01 -0.9982811877434E+00 -0.1332043282640E+01
-0.6830126529962E+00 -0.1329921477668E+01 -0.9460790390125E+00 -0.1332362386998E+01
-0.5911379610517E+00 -0.1307219413196E+01 -0.8922279636332E+00 -0.1318330925873E+01
-0.5138820036842E+00 -0.1270721842369E+01 -0.8387638055176E+00 -0.1294879106309E+01
-0.4527327823426E+00 -0.1222092158706E+01 -0.7871677202961E+00 -0.1265850555519E+01
-0.4075523409991E+00 -0.1163672296386E+01 -0.7384755776978E+00 -0.1233792816530E+01
-0.3771884746691E+00 -0.1097957192745E+01 -0.6933184619262E+00 -0.1199950805354E+01
-0.3599267429293E+00 -0.1027209495874E+01 -0.6519540305838E+00 -0.1164453651501E+01
-0.3538155134780E+00 -0.9532180652218E+00 -0.6143057804308E+00 -0.1126691023854E+01
-0.3571036705700E+00 -0.8775967512327E+00 -0.5803091967754E+00 -0.1085809111312E+01
-0.3675968602980E+00 -0.8012846268232E+00 -0.5493742975535E+00 -0.1041143284672E+01
-0.3829723682029E+00 -0.7250122989804E+00 -0.5207527922553E+00 -0.9922258385868E+00
-0.4009687541050E+00 -0.6495852968534E+00 -0.4937604026981E+00 -0.9388128409751E+00
-0.4190896095940E+00 -0.5755073258607E+00 -0.4674605584780E+00 -0.8807930236993E+00
-0.4365695466930E+00 -0.5048258457688E+00 -0.4424558333348E+00 -0.8184542065154E+00
-0.4474534501337E+00 -0.4352173631876E+00 -0.4148552812088E+00 -0.7515100316472E+00
-0.5026622909848E+00 -0.4101604314850E+00 -0.4290266784727E+00 -0.6729467886977E+00
-0.1022728600555E+01 -0.1269279388336E+01 -0.1077243752047E+01 -0.1191459840923E+01
-0.9634821017850E+00 -0.1278838794275E+01 -0.1053890818475E+01 -0.1261220227785E+01
-0.8761178053319E+00 -0.1289617725259E+01 -0.1017895696796E+01 -0.1307252016991E+01
-0.7786783831339E+00 -0.1294303934082E+01 -0.9743016866204E+00 -0.1330638569290E+01
-0.6828122378772E+00 -0.1287852177269E+01 -0.9262122727696E+00 -0.1335261144169E+01
-0.5960389182122E+00 -0.1268294395600E+01 -0.8762366552692E+00 -0.1325782473633E+01
-0.5224916053349E+00 -0.1235596506605E+01 -0.8263014105160E+00 -0.1306539907176E+01
-0.4639744713321E+00 -0.1191058720544E+01 -0.7778655982091E+00 -0.1281043793086E+01
-0.4206687535142E+00 -0.1136703465949E+01 -0.7319649412912E+00 -0.1251711019154E+01
-0.3917074606368E+00 -0.1074793159468E+01 -0.6892552897011E+00 -0.1219798265728E+01
-0.3755951856826E+00 -0.1007449741858E+01 -0.6500311142956E+00 -0.1185524707864E+01
-0.3706103313457E+00 -0.9364787276820E+00 -0.6143318561849E+00 -0.1148377211169E+01
-0.3749050042915E+00 -0.8632423536186E+00 -0.5819292567417E+00 -0.1107619836091E+01
-0.3863855916115E+00 -0.7887806865398E+00 -0.5523281493302E+00 -0.1062693232631E+01
-0.4027697700110E+00 -0.7139752209546E+00 -0.5248701444226E+00 -0.1013185968715E+01
-0.4216297180673E+00 -0.6396381799658E+00 -0.4987959108104E+00 -0.9588681385577E+00
-0.4410322097813E+00 -0.5669910514813E+00 -0.4737709315918E+00 -0.8995759723416E+00
-0.4585165341367E+00 -0.4967165341109E+00 -0.4489595409376E+00 -0.8350106579335E+00
-0.4843273626231E+00 -0.4376221142749E+00 -0.4333162530430E+00 -0.7627316374745E+00
-0.5062419188813E+00 -0.3720518415154E+00 -0.4127980663394E+00 -0.6883579787334E+00
-0.9930370855107E+00 -0.1228769822599E+01 -0.1044249244163E+01 -0.1189354744258E+01
-0.9400589955690E+00 -0.1237369649130E+01 -0.1023391460413E+01 -0.1256273028741E+01
-0.8607120594685E+00 -0.1247982843209E+01 -0.9910866017446E+00 -0.1302849619309E+01
-0.7706557075357E+00 -0.1253212701615E+01 -0.9512181498882E+00 -0.1328990885819E+01
-0.6811292034961E+00 -0.1248509003868E+01 -0.9069299551607E+00 -0.1337560909665E+01
-0.5993543235625E+00 -0.1231637884143E+01 -0.8605663354390E+00 -0.1332373755526E+01
-0.5296012935435E+00 -0.1202291012962E+01 -0.8139893819929E+00 -0.1317195872151E+01
-0.4738996491276E+00 -0.1161434084128E+01 -0.7686068526805E+00 -0.1295192885141E+01
-0.4326999413449E+00 -0.1110797470197E+01 -0.7254437815849E+00 -0.1268625256672E+01
-0.4053833730777E+00 -0.1052416390194E+01 -0.6851658870000E+00 -0.1238730243813E+01
-0.3906767138080E+00 -0.9882774264328E+00 -0.6481084442693E+00 -0.1205787615554E+01
-0.3869748242018E+00 -0.9200687922112E+00 -0.6143104981560E+00 -0.1169390779607E+01
-0.3924798024525E+00 -0.8491067237991E+00 -0.5835456658582E+00 -0.1128911619171E+01
-0.4051269492559E+00 -0.7764523185932E+00 -0.5553422544805E+00 -0.1083856456713E+01
-0.4226335905712E+00 -0.7030589162047E+00 -0.5290754768428E+00 -0.1033856852646E+01
-0.4427274833266E+00 -0.6299719152431E+00 -0.5041687160490E+00 -0.9786627513374E+00
-0.4632736435442E+00 -0.5582421833445E+00 -0.4801124374199E+00 -0.9179655713491E+00
-0.4850002969001E+00 -0.4904819529419E+00 -0.4584766562629E+00 -0.8509664208214E+00
-0.5074841308824E+00 -0.4243315002964E+00 -0.4379533455432E+00 -0.7780413770858E+00
-0.5249377463250E+00 -0.3565221720129E+00 -0.4142861605681E+00 -0.7051411881862E+00
-0.9653208863661E+00 -0.1191361384655E+01 -0.1013640664809E+01 -0.1187568907023E+01
-0.9174410148872E+00 -0.1199220489319E+01 -0.9948309044535E+00 -0.1251727333535E+01
-0.8449049854345E+00 -0.1209375784944E+01 -0.9655119596291E+00 -0.1298611812987E+01
-0.7616532396299E+00 -0.1215041259893E+01 -0.9290464124194E+00 -0.1327191346014E+01
-0.6780736838750E+00 -0.1211734663807E+01 -0.8882099211576E+00 -0.1339381343658E+01
-0.6011891490741E+00 -0.1197165118140E+01 -0.8452265034470E+00 -0.1338238707981E+01
-0.5352813994298E+00 -0.1170762138509E+01 -0.8018404607975E+00 -0.1326977520222E+01
-0.4825517735920E+00 -0.1133208871969E+01 -0.7594075014874E+00 -0.1308414618984E+01
-0.4436662547319E+00 -0.1085964858346E+01 -0.7189266213232E+00 -0.1284633733931E+01
-0.4182247198716E+00 -0.1030849071830E+01 -0.6810646803724E+00 -0.1256827359615E+01
-0.4051353625022E+00 -0.9696862599763E+00 -0.6461661609260E+00 -0.1225319491108E+01
-0.4029111251877E+00 -0.9040628070131E+00 -0.6142777465764E+00 -0.1189797770214E+01
-0.4098062684180E+00 -0.8352556819986E+00 -0.5851791152116E+00 -0.1149725404160E+01
-0.4237866253410E+00 -0.7643427740141E+00 -0.5584208162805E+00 -0.1104658585054E+01
-0.4426321498711E+00 -0.6923642949674E+00 -0.5334483277211E+00 -0.1054249170397E+01
-0.4641006390463E+00 -0.6203919387018E+00 -0.5097115102488E+00 -0.9982130197731E+00
-0.4867176120016E+00 -0.5498126374564E+00 -0.4871692160096E+00 -0.9361355018084E+00
-0.5095046510010E+00 -0.4810622246187E+00 -0.4655664303604E+00 -0.8678279299021E+00
-0.5311202408289E+00 -0.4128686926248E+00 -0.4436747975979E+00 -0.7946263756027E+00
-0.5461573124004E+00 -0.3451829599871E+00 -0.4189299269596E+00 -0.7212765392555E+00
-0.9393553966893E+00 -0.1156633460738E+01 -0.9851147604924E+00 -0.1185983828360E+01
-0.8955265453301E+00 -0.1163924672344E+01 -0.9679420698516E+00 -0.1247546506854E+01
-0.8288633531248E+00 -0.1173630682090E+01 -0.9411721941636E+00 -0.1294570876776E+01
-0.7517465649504E+00 -0.1179551254397E+01 -0.9077099727908E+00 -0.1325300471654E+01
-0.6737667815305E+00 -0.1177388072846E+01 -0.8700427793501E+00 -0.1340822156691E+01
-0.6016330861224E+00 -0.1164776441647E+01 -0.8302124759461E+00 -0.1343491478967E+01
-0.5395995490360E+00 -0.1140957038626E+01 -0.7898615941976E+00 -0.1335999343303E+01
-0.4899722398096E+00 -0.1106362069549E+01 -0.7502771234958E+00 -0.1320813409449E+01
-0.4535885560300E+00 -0.1062206745707E+01 -0.7124237900093E+00 -0.1299826363816E+01
-0.4302292099312E+00 -0.1010099145695E+01 -0.6769543254271E+00 -0.1274167116240E+01
-0.4189602654050E+00 -0.9517036004150E+00 -0.6442120153015E+00 -0.1244186992074E+01
-0.4184020309535E+00 -0.8885054639411E+00 -0.6142465210425E+00 -0.1209651440522E+01
-0.4268643370426E+00 -0.8217436054942E+00 -0.5868457315039E+00 -0.1170099369429E+01
-0.4423614474660E+00 -0.7525122613255E+00 -0.5615906417076E+00 -0.1125124306190E+01
-0.4627198767994E+00 -0.6818801225655E+00 -0.5379619983370E+00 -0.1074389824816E+01
-0.4858707759927E+00 -0.6109875903981E+00 -0.5155234308961E+00 -0.1017595831300E+01
-0.5100901713846E+00 -0.5407699277434E+00 -0.4939042453374E+00 -0.9544859970993E+00
-0.5338361332179E+00 -0.4714359915842E+00 -0.4724778974586E+00 -0.8853084322440E+00
-0.5551120572192E+00 -0.4025918473830E+00 -0.4501208340213E+00 -0.8116058026437E+00
-0.5689874456700E+00 -0.3356969902245E+00 -0.4252016837919E+00 -0.7370070668813E+00
-0.9149316245755E+00 -0.1124240763346E+01 -0.9584110198920E+00 -0.1184500176225E+01
-0.8742723046971E+00 -0.1131163844338E+01 -0.9425549876557E+00 -0.1243664581727E+01
-0.8126366901496E+00 -0.1140475692606E+01 -0.9179628175670E+00 -0.1290725426048E+01
-0.7410419253142E+00 -0.1146552065391E+01 -0.8871691733811E+00 -0.1323366578047E+01
-0.6683005998617E+00 -0.1145311347908E+01 -0.8523976132896E+00 -0.1341962298378E+01
-0.6007713497231E+00 -0.1134369069293E+01 -0.8155159948690E+00 -0.1348228881752E+01
-0.5426172727266E+00 -0.1112812708460E+01 -0.7780520891842E+00 -0.1344360832614E+01
-0.4962006299112E+00 -0.1080863627485E+01 -0.7412201990964E+00 -0.1332482059436E+01
-0.4624847083071E+00 -0.1039514888888E+01 -0.7059398088912E+00 -0.1314284898510E+01
-0.4413977588320E+00 -0.9901757008918E+00 -0.6728395243636E+00 -0.1290819487458E+01
-0.4321405060933E+00 -0.9343541763658E+00 -0.6422524991268E+00 -0.1262448156322E+01
-0.4334305504856E+00 -0.8734356377956E+00 -0.6142271069342E+00 -0.1228997475368E+01
-0.4436375026489E+00 -0.8086184004173E+00 -0.5885602729483E+00 -0.1190067707955E+01
-0.4608246078388E+00 -0.7409935471679E+00 -0.5648545314205E+00 -0.1145283041130E+01
-0.4828882451557E+00 -0.6716433324637E+00 -0.5426298401048E+00 -0.1094322910937E+01
-0.5077522211959E+00 -0.6016057479652E+00 -0.5213982441833E+00 -0.1036940260069E+01
-0.5335010577996E+00 -0.5316517507801E+00 -0.5006218187627E+00 -0.9730592452645E+00
-0.5582196418428E+00 -0.4621015770808E+00 -0.4795509716778E+00 -0.9031612537038E+00
-0.5795903258557E+00 -0.3932802643271E+00 -0.4572491762262E+00 -0.8287244634131E+00
-0.5929628669293E+00 -0.3271399689314E+00 -0.4324483317576E+00 -0.7525161707692E+00
-0.8918811522665E+00 -0.1093913487732E+01 -0.9333234784319E+00 -0.1183028782397E+01
-0.8536195830919E+00 -0.1100657697733E+01 -0.9185103196578E+00 -0.1240009513258E+01
-0.7962590513301E+00 -0.1109663933846E+01 -0.8957838007608E+00 -0.1287056063180E+01
-0.7296152681306E+00 -0.1115841736053E+01 -0.8673647897664E+00 -0.1321419315799E+01
-0.6617612786072E+00 -0.1115352409216E+01 -0.8352434311586E+00 -0.1342864705076E+01
-0.5986779507933E+00 -0.1105832982309E+01 -0.8011201365263E+00 -0.1352531475991E+01
-0.5443917072529E+00 -0.1086259583079E+01 -0.7664061045120E+00 -0.1352147700398E+01
-0.5012732690965E+00 -0.1056675435466E+01 -0.7322358892869E+00 -0.1343502192864E+01
-0.4703718555621E+00 -0.1017875716299E+01 -0.6994763570005E+00 -0.1328082030664E+01
-0.4517314288070E+00 -0.9710843090630E+00 -0.6687233951028E+00 -0.1306846320903E+01
-0.4446657948789E+00 -0.9176594941181E+00 -0.6402928842046E+00 -0.1280153432240E+01
-0.4479801937217E+00 -0.8588872272196E+00 -0.6142276862845E+00 -0.1247875503146E+01
-0.4601030719576E+00 -0.7959173271092E+00 -0.5903295860641E+00 -0.1209662596553E+01
-0.4791500236220E+00 -0.7298238436808E+00 -0.5682177161911E+00 -0.1165167821965E+01
-0.5030482298394E+00 -0.6616552899456E+00 -0.5474106529105E+00 -0.1114104037424E+01
-0.5296825249045E+00 -0.5923763786636E+00 -0.5273676833394E+00 -0.1056300291956E+01
-0.5569748948931E+00 -0.5227303773476E+00 -0.5074614766660E+00 -0.9918208295573E+00
-0.5827757683628E+00 -0.4532529053571E+00 -0.4869334754133E+00 -0.9212476067424E+00
-0.6045489908535E+00 -0.3847178317742E+00 -0.4649554054557E+00 -0.8459127498073E+00
-0.6178995202136E+00 -0.3192060783299E+00 -0.4404396301983E+00 -0.7679510497014E+00
-0.8700533204977E+00 -0.1065420961066E+01 -0.9096729100276E+00 -0.1181490552861E+01
-0.8335068405832E+00 -0.1072163785638E+01 -0.8956651920523E+00 -0.1236510187540E+01
-0.7797455601921E+00 -0.1080966147213E+01 -0.8745345002623E+00 -0.1283533397950E+01
-0.7175256217084E+00 -0.1087225613927E+01 -0.8482330785972E+00 -0.1319473678201E+01
-0.6542206781716E+00 -0.1087357575514E+01 -0.8185417771560E+00 -0.1343577064992E+01
-0.5954193406181E+00 -0.1079055695628E+01 -0.7870032650394E+00 -0.1356465513335E+01
-0.5449742921851E+00 -0.1061221984783E+01 -0.7549122482601E+00 -0.1359432738664E+01
-0.5052237895228E+00 -0.1033753381403E+01 -0.7233192685004E+00 -0.1353944520520E+01
-0.4772659741216E+00 -0.9972704178863E+00 -0.6930321024859E+00 -0.1341281194364E+01
-0.4612312129849E+00 -0.9528264384723E+00 -0.6646070944992E+00 -0.1322301370912E+01
-0.4565260215375E+00 -0.9016370408640E+00 -0.6383366377097E+00 -0.1297346311783E+01
-0.4620327335526E+00 -0.8448885772342E+00 -0.6142530145118E+00 -0.1266320179787E+01
-0.4762360188837E+00 -0.7836748338851E+00 -0.5921580992994E+00 -0.1228914062744E+01
-0.4972933202120E+00 -0.7190346850188E+00 -0.5716741610085E+00 -0.1184812281551E+01
-0.5231438025720E+00 -0.6519764428288E+00 -0.5523065139375E+00 -0.1133770429126E+01
-0.5516237405430E+00 -0.5834282036522E+00 -0.5334744124186E+00 -0.1075690464388E+01
-0.5805299995359E+00 -0.5141754921187E+00 -0.5145115797727E+00 -0.1010729922258E+01
-0.6075441524142E+00 -0.4449492846976E+00 -0.4946719141878E+00 -0.9394976876684E+00
-0.6299804775138E+00 -0.3767971933970E+00 -0.4731855041279E+00 -0.8631681104779E+00
-0.6436780549155E+00 -0.3117833038909E+00 -0.4490668375000E+00 -0.7834174078566E+00
-0.8493104894155E+00 -0.1038560111237E+01 -0.8872991800563E+00 -0.1179814524485E+01
-0.8138692073266E+00 -0.1045466393307E+01 -0.8738877300811E+00 -0.1233098999424E+01
-0.7630984938041E+00 -0.1054171889121E+01 -0.8541170778086E+00 -0.1280122773160E+01
-0.7048166510550E+00 -0.1060517264656E+01 -0.8297069382796E+00 -0.1317533609821E+01
-0.6457385863731E+00 -0.1061174939822E+01 -0.8022493552771E+00 -0.1344133968076E+01
-0.5910535078129E+00 -0.1053922198653E+01 -0.7731385800778E+00 -0.1360084208903E+01
-0.5444114532766E+00 -0.1037619863515E+01 -0.7435547170062E+00 -0.1366276764356E+01
-0.5080829399699E+00 -0.1012048053895E+01 -0.7144615653042E+00 -0.1363869199643E+01
-0.4831818210929E+00 -0.9776752550614E+00 -0.6866028240511E+00 -0.1353936694745E+01
-0.4698977247954E+00 -0.9353991190640E+00 -0.6604895149387E+00 -0.1337230519803E+01
-0.4677104904957E+00 -0.8862999007822E+00 -0.6363848822865E+00 -0.1314063811298E+01
-0.4755685489035E+00 -0.8314643386526E+00 -0.6143054555932E+00 -0.1284361388823E+01
-0.4920061186200E+00 -0.7719226579979E+00 -0.5940465235037E+00 -0.1247848872183E+01
-0.5152132122086E+00 -0.7086701456444E+00 -0.5752251767319E+00 -0.1204242835423E+01
-0.5431307507495E+00 -0.6426798455970E+00 -0.5573309788693E+00 -0.1153342277914E+01
-0.5735492584025E+00 -0.5748707985372E+00 -0.5397574253926E+00 -0.1095108547835E+01
-0.6041669164701E+00 -0.5060908197845E+00 -0.5218211347161E+00 -0.1029755437911E+01
-0.6325384213322E+00 -0.4372227210522E+00 -0.5027877356454E+00 -0.9578808744105E+00
-0.6558705216703E+00 -0.3694728802829E+00 -0.4819113976957E+00 -0.8805125630838E+00
-0.6702143444747E+00 -0.3048443951908E+00 -0.4582776064805E+00 -0.7989926871423E+00
-0.8295244403625E+00 -0.1013147685664E+01 -0.8660558970359E+00 -0.1177936457006E+01
-0.7946395632396E+00 -0.1020370354222E+01 -0.8530546590431E+00 -0.1229712660229E+01
-0.7463098128039E+00 -0.1029086652029E+01 -0.8344363363549E+00 -0.1276787014763E+01
-0.6915195068026E+00 -0.1035539241208E+01 -0.8117176095063E+00 -0.1315594900730E+01
-0.6363638365798E+00 -0.1036655304278E+01 -0.7863189942087E+00 -0.1344558995335E+01
-0.5856306194371E+00 -0.1030316149142E+01 -0.7594949793057E+00 -0.1363429093988E+01
-0.5427446422131E+00 -0.1015369495432E+01 -0.7323136428358E+00 -0.1372729430459E+01
-0.5098787047902E+00 -0.9915054435442E+00 -0.7056505479274E+00 -0.1373326279860E+01
-0.4881328046918E+00 -0.9590617743725E+00 -0.6801814504350E+00 -0.1366093936353E+01
-0.4777309056307E+00 -0.9187949194846E+00 -0.6563671361394E+00 -0.1351671995843E+01
-0.4782077643182E+00 -0.8716571897996E+00 -0.6344365268262E+00 -0.1330336609871E+01
-0.4885661808538E+00 -0.8186361288815E+00 -0.6143850840173E+00 -0.1302023875152E+01
-0.5073823172822E+00 -0.7606939089028E+00 -0.5959958247953E+00 -0.1266488243145E+01
-0.5328713446088E+00 -0.6987794701688E+00 -0.5788758814772E+00 -0.1223477023126E+01
-0.5629715692675E+00 -0.6338375230462E+00 -0.5625002719608E+00 -0.1172827926929E+01
-0.5954332637616E+00 -0.5667915879764E+00 -0.5462456789314E+00 -0.1114546426979E+01
-0.6278758598826E+00 -0.4985494700104E+00 -0.5294199037069E+00 -0.1048876570959E+01
-0.6577562157071E+00 -0.4301026161864E+00 -0.5112936496931E+00 -0.9763873775433E+00
-0.6822057931789E+00 -0.3627446372019E+00 -0.4911267010333E+00 -0.8979772460370E+00
-0.6974482064633E+00 -0.2983963046440E+00 -0.4680469190333E+00 -0.8147339785538E+00
-0.8105741628303E+00 -0.9890152807830E+00 -0.8458070363530E+00 -0.1175797706842E+01
-0.7757491178817E+00 -0.9966962724127E+00 -0.8330493313255E+00 -0.1226292324150E+01
-0.7293632983404E+00 -0.1005529202884E+01 -0.8153994735075E+00 -0.1273488071579E+01
-0.6776549088633E+00 -0.1012122406540E+01 -0.7941953362250E+00 -0.1313647346491E+01
-0.6261357803924E+00 -0.1013652685642E+01 -0.7707005770815E+00 -0.1344866579655E+01
-0.5791937095897E+00 -0.1008120528912E+01 -0.7460376902037E+00 -0.1366531322228E+01
-0.5400106653056E+00 -0.9943841175153E+00 -0.7211655460967E+00 -0.1378830055020E+01
-0.5106363856598E+00 -0.9720673528715E+00 -0.6968707553422E+00 -0.1382356191007E+01
-0.4921309355744E+00 -0.9413970250431E+00 -0.6737581397813E+00 -0.1377789715649E+01
-0.4847299023512E+00 -0.9030021117829E+00 -0.6522340449887E+00 -0.1365656541993E+01
-0.4880055384817E+00 -0.8577143450678E+00 -0.6324883436640E+00 -0.1346188998316E+01
-0.5010032932671E+00 -0.8064235548780E+00 -0.6144906170696E+00 -0.1319326564413E+01
-0.5223337328987E+00 -0.7500219775563E+00 -0.5980071823971E+00 -0.1284846859109E+01
-0.5502316915049E+00 -0.6894120773571E+00 -0.5826325698873E+00 -0.1242524246447E+01
-0.5826312944592E+00 -0.6255148610937E+00 -0.5678286916697E+00 -0.1192228074809E+01
-0.6172484970508E+00 -0.5592621370203E+00 -0.5529599966109E+00 -0.1133994293868E+01
-0.6516392884399E+00 -0.4916103284384E+00 -0.5373273185699E+00 -0.1068079898043E+01
-0.6831847165350E+00 -0.4236238810084E+00 -0.5202000395260E+00 -0.9950176036767E+00
-0.7089664927073E+00 -0.3566384561395E+00 -0.5008343246877E+00 -0.9155950871402E+00
-0.7253448560903E+00 -0.2924804616865E+00 -0.4783778981418E+00 -0.8307045803306E+00
-0.7923442189406E+00 -0.9660057631130E+00 -0.8264244894691E+00 -0.1173344366225E+01
-0.7571278532386E+00 -0.9742769277120E+00 -0.8137602449828E+00 -0.1222783429713E+01
-0.7122361582762E+00 -0.9833290567154E+00 -0.7969156490248E+00 -0.1270188004175E+01
-0.6632349273914E+00 -0.9901048515652E+00 -0.7770696941387E+00 -0.1311676331147E+01
-0.6150856301932E+00 -0.9920242240222E+00 -0.7553416295654E+00 -0.1345063550225E+01
-0.5717794950164E+00 -0.9872179975874E+00 -0.7327288196653E+00 -0.1369412858298E+01
-0.5362420824709E+00 -0.9745743318067E+00 -0.7100837129094E+00 -0.1384608415599E+01
-0.5103787611661E+00 -0.9536717190615E+00 -0.6881037239617E+00 -0.1390990228929E+01
-0.4951868474856E+00 -0.9246437782789E+00 -0.6673203924167E+00 -0.1389052492203E+01
-0.4908930402697E+00 -0.8880048624220E+00 -0.6480820126213E+00 -0.1379207505737E+01
-0.4970908623936E+00 -0.8444734441906E+00 -0.6305352224953E+00 -0.1361638695590E+01
-0.5128571712317E+00 -0.7948441015693E+00 -0.6146195966576E+00 -0.1336282117876E+01
-0.5368299268408E+00 -0.7399389706188E+00 -0.6000813802840E+00 -0.1302932747986E+01
-0.5672594777226E+00 -0.6806145544103E+00 -0.5865007936149E+00 -0.1261387006263E+01
-0.6020755581288E+00 -0.6177699966763E+00 -0.5733274093042E+00 -0.1211538238539E+01
-0.6389653281966E+00 -0.5523435193031E+00 -0.5599151569047E+00 -0.1153441737952E+01
-0.6754335174659E+00 -0.4853263243495E+00 -0.5455571242695E+00 -0.1087356243462E+01
-0.7088026615059E+00 -0.4178278765191E+00 -0.5295163515287E+00 -0.1013776370032E+01
-0.7361226592392E+00 -0.3511954922476E+00 -0.5110395299026E+00 -0.9333965693107E+00
-0.7538703885331E+00 -0.2871630167243E+00 -0.4892856992299E+00 -0.8469582246446E+00
-0.7747234711229E+00 -0.9439705610613E+00 -0.8077861930778E+00 -0.1170526607155E+01
-0.7387048259954E+00 -0.9529544393311E+00 -0.7950798526868E+00 -0.1219135441601E+01
-0.6949003178138E+00 -0.9623242424198E+00 -0.7788955413342E+00 -0.1266849588907E+01
-0.6482644912260E+00 -0.9693306314312E+00 -0.7602697057205E+00 -0.1309663992447E+01
-0.6032377117024E+00 -0.9716297582231E+00 -0.7401877089876E+00 -0.1345150393085E+01
-0.5634192140931E+00 -0.9674909386871E+00 -0.7195277699817E+00 -0.1372087530798E+01
-0.5314676863941E+00 -0.9558483151770E+00 -0.6990385189654E+00 -0.1390085500646E+01
-0.5091263197877E+00 -0.9362528187033E+00 -0.6793281933677E+00 -0.1399251033837E+01
-0.4973098971242E+00 -0.9087606835106E+00 -0.6608531712222E+00 -0.1399902651438E+01
-0.4962179241853E+00 -0.8737833633039E+00 -0.6439006034868E+00 -0.1392340907632E+01
-0.5054503499184E+00 -0.8319331974059E+00 -0.6285702656481E+00 -0.1376696735281E+01
-0.5241049772390E+00 -0.7839126124012E+00 -0.6147682655716E+00 -0.1352896807348E+01
-0.5508407897396E+00 -0.7304743749701E+00 -0.6022181258861E+00 -0.1320747590381E+01
-0.5839204029809E+00 -0.6724293786520E+00 -0.5904843958698E+00 -0.1280061970850E+01
-0.6212695345176E+00 -0.6106546036008E+00 -0.5790043434470E+00 -0.1230749999295E+01
-0.6605514390667E+00 -0.5460900322987E+00 -0.5671214901033E+00 -0.1172877595595E+01
-0.6992294952992E+00 -0.4797481723265E+00 -0.5541195023786E+00 -0.1106698186208E+01
-0.7345811988726E+00 -0.4127615736385E+00 -0.5392511017125E+00 -0.1032669438638E+01
-0.7636382938622E+00 -0.3464690360507E+00 -0.5217504437357E+00 -0.9514076124333E+00
-0.7829807061744E+00 -0.2825170600440E+00 -0.5007839488525E+00 -0.8635364309090E+00
-0.7576040462298E+00 -0.9227675257341E+00 -0.7897746368199E+00 -0.1167298186152E+01
-0.7204083721690E+00 -0.9325779695122E+00 -0.7769035786196E+00 -0.1215301574761E+01
-0.6773234681604E+00 -0.9423593390791E+00 -0.7612509174717E+00 -0.1263436689275E+01
-0.6327426875236E+00 -0.9496484741645E+00 -0.7437238441071E+00 -0.1307590084536E+01
-0.5906106114757E+00 -0.9523312035926E+00 -0.7251826512428E+00 -0.1345122267212E+01
-0.5541394610287E+00 -0.9488212938025E+00 -0.7063915529790E+00 -0.1374561938986E+01
-0.5257130268742E+00 -0.9381118716523E+00 -0.6879977005624E+00 -0.1395274190222E+01
-0.5068975552477E+00 -0.9197413795731E+00 -0.6705202976651E+00 -0.1407153035023E+01
-0.4985083342046E+00 -0.8937023662329E+00 -0.6543390275460E+00 -0.1410352744718E+01
-0.5007015801860E+00 -0.8603138586363E+00 -0.6396772546240E+00 -0.1405065513607E+01
-0.5130703380666E+00 -0.8200887718006E+00 -0.6265847800483E+00 -0.1391367441937E+01
-0.5347238310819E+00 -0.7736407291853E+00 -0.6149313417659E+00 -0.1369170576680E+01
-0.5643363405354E+00 -0.7216542255309E+00 -0.6044155645181E+00 -0.1338287108048E+01
-0.6001800931818E+00 -0.6648945469818E+00 -0.5945850793688E+00 -0.1298540686502E+01
-0.6401773519214E+00 -0.6042149257310E+00 -0.5848643690132E+00 -0.1249851479704E+01
-0.6819716747917E+00 -0.5405514628423E+00 -0.5745858732307E+00 -0.1192289337654E+01
-0.7229931647912E+00 -0.4749259260086E+00 -0.5630219712479E+00 -0.1126098113802E+01
-0.7604851745036E+00 -0.4084769301537E+00 -0.5494121877954E+00 -0.1051701152550E+01
-0.7914719279259E+00 -0.3425203759032E+00 -0.5329763814479E+00 -0.9696491643951E+00
-0.8126250933394E+00 -0.2786190985924E+00 -0.5128847689071E+00 -0.8804726968459E+00
-0.7408804646436E+00 -0.9022591834454E+00 -0.7722756326431E+00 -0.1163616077549E+01
-0.7021662401908E+00 -0.9130018157316E+00 -0.7591289843581E+00 -0.1211238541007E+01
-0.6594699330116E+00 -0.9232837473092E+00 -0.7438942278640E+00 -0.1259914487926E+01
-0.6166638923825E+00 -0.9309105200072E+00 -0.7273599719783E+00 -0.1305432624426E+01
-0.5772182291438E+00 -0.9339918201933E+00 -0.7102687213869E+00 -0.1344969822086E+01
-0.5439629995822E+00 -0.9310902424010E+00 -0.6932750219737E+00 -0.1376836223462E+01
-0.5190009637985E+00 -0.9212683511828E+00 -0.6769265763242E+00 -0.1400179860942E+01
-0.5037093121098E+00 -0.9040645960021E+00 -0.6616537351344E+00 -0.1414702858981E+01
-0.4987895190662E+00 -0.8794194445898E+00 -0.6477582112754E+00 -0.1420407719696E+01
-0.5043406124820E+00 -0.8475685801773E+00 -0.6353973189383E+00 -0.1417382935095E+01
-0.5199369984469E+00 -0.8089315489601E+00 -0.6245682156972E+00 -0.1405648488016E+01
-0.5446908152012E+00 -0.7640364397593E+00 -0.6151018082713E+00 -0.1385097190406E+01
-0.5772865357670E+00 -0.7135006495090E+00 -0.6066699755410E+00 -0.1355541402663E+01
-0.6160037362948E+00 -0.6580435959080E+00 -0.5988022446166E+00 -0.1316809985255E+01
-0.6587617614244E+00 -0.5984926194553E+00 -0.5909095575147E+00 -0.1268827408699E+01
-0.7031879844166E+00 -0.5357743353972E+00 -0.5823122888355E+00 -0.1211662344609E+01
-0.7466858656751E+00 -0.4709095582595E+00 -0.5722698477978E+00 -0.1145546701389E+01
-0.7864736162288E+00 -0.4050296275544E+00 -0.5600065231577E+00 -0.1070872918533E+01
-0.8195764121973E+00 -0.3394162542696E+00 -0.5447265518578E+00 -0.9881370255121E+00
-0.8427485692616E+00 -0.2755495464478E+00 -0.5256001130503E+00 -0.8977945385952E+00
-0.7244488889283E+00 -0.8823112673784E+00 -0.7551772715487E+00 -0.1159440211774E+01
-0.6839056717051E+00 -0.8940837889459E+00 -0.7416550446249E+00 -0.1206906336561E+01
-0.6413013931799E+00 -0.9049501546272E+00 -0.7267382256261E+00 -0.1256249637137E+01
-0.6000187633080E+00 -0.9129711153495E+00 -0.7111052411654E+00 -0.1303168383701E+01
-0.5630707431492E+00 -0.9164754229837E+00 -0.6953866963187E+00 -0.1344679856461E+01
-0.5329095486990E+00 -0.9141777722594E+00 -0.6801310391254E+00 -0.1378904715991E+01
-0.5113522344730E+00 -0.9052184576629E+00 -0.6657882236152E+00 -0.1404800916840E+01
-0.4995771654822E+00 -0.8891460515118E+00 -0.6526999103317E+00 -0.1421899702303E+01
-0.4981601709729E+00 -0.8658584676965E+00 -0.6410887585486E+00 -0.1430065147801E+01
-0.5071313663758E+00 -0.8355156211609E+00 -0.6310440825417E+00 -0.1429287759152E+01
-0.5260364262643E+00 -0.7984488817495E+00 -0.6225080931876E+00 -0.1419531003298E+01
-0.5539829624371E+00 -0.7551037501884E+00 -0.6152707533735E+00 -0.1400664406847E+01
-0.5896611297175E+00 -0.7060316370440E+00 -0.6089755988333E+00 -0.1372495212251E+01
-0.6313558635668E+00 -0.6519057336902E+00 -0.6031329491810E+00 -0.1334852186901E+01
-0.6769839776280E+00 -0.5935253123777E+00 -0.5971393647881E+00 -0.1287658992142E+01
-0.7241594900108E+00 -0.5318025199658E+00 -0.5903021431918E+00 -0.1230979217907E+01
-0.7702646370022E+00 -0.4677488718692E+00 -0.5818663476938E+00 -0.1165031769341E+01
-0.8124999778171E+00 -0.4024778489900E+00 -0.5710395771509E+00 -0.1090182147771E+01
-0.8478987666231E+00 -0.3372274505315E+00 -0.5570093206499E+00 -0.1006881456626E+01
-0.8732919829410E+00 -0.2733931668145E+00 -0.5389420190181E+00 -0.9155240682628E+00
-0.7082064668034E+00 -0.8627914580101E+00 -0.7383690227896E+00 -0.1154733301496E+01
-0.6655534492706E+00 -0.8756838105509E+00 -0.7243815102788E+00 -0.1202268078366E+01
-0.6227775065214E+00 -0.8872131644965E+00 -0.7096956135784E+00 -0.1252410364643E+01
-0.5827951249881E+00 -0.8956856742281E+00 -0.6948859738691E+00 -0.1300773270050E+01
-0.5481755063402E+00 -0.8996455721372E+00 -0.6804759051584E+00 -0.1344235851948E+01
-0.5209965420940E+00 -0.8979621801079E+00 -0.6669105977434E+00 -0.1380756485609E+01
-0.5027860280800E+00 -0.8898599739919E+00 -0.6545436193136E+00 -0.1409129251738E+01
-0.4945158226074E+00 -0.8749055656377E+00 -0.6436280508427E+00 -0.1428735670401E+01
-0.4966266342139E+00 -0.8529617935110E+00 -0.6343065594219E+00 -0.1439315446886E+01
-0.5090700925707E+00 -0.8241187786456E+00 -0.6265987678824E+00 -0.1440767695921E+01
-0.5313547174821E+00 -0.7886238761053E+00 -0.6203899374126E+00 -0.1432999705182E+01
-0.5625772440179E+00 -0.7468424533784E+00 -0.6154272562153E+00 -0.1415854138028E+01
-0.6014295804990E+00 -0.6992609226880E+00 -0.6113245349473E+00 -0.1389128085630E+01
-0.6462002275608E+00 -0.6465059542992E+00 -0.6075719039331E+00 -0.1352645170477E+01
-0.6948036346626E+00 -0.5893469027494E+00 -0.6035507510528E+00 -0.1306323703640E+01
-0.7448426158009E+00 -0.5286773965864E+00 -0.5985544043039E+00 -0.1250219186144E+01
-0.7936824876009E+00 -0.4654930812106E+00 -0.5918125158404E+00 -0.1184537415374E+01
-0.8385123817460E+00 -0.4008812033237E+00 -0.5825149835053E+00 -0.1109621411331E+01
-0.8763800772274E+00 -0.3360277166138E+00 -0.5698316616600E+00 -0.1025886601969E+01
-0.9041912311689E+00 -0.2722390111072E+00 -0.5529222124673E+00 -0.9336774975877E+00
-0.6920507459409E+00 -0.8435682792419E+00 -0.7217409400053E+00 -0.1149460743265E+01
-0.6470359212882E+00 -0.8576626759984E+00 -0.7072083389310E+00 -0.1197289892224E+01
-0.6038564468730E+00 -0.8699280581809E+00 -0.6926787156184E+00 -0.1248366558701E+01
-0.5649787692039E+00 -0.8789096060274E+00 -0.6786275346375E+00 -0.1298222630105E+01
-0.5325378820711E+00 -0.8833647630904E+00 -0.6654742415380E+00 -0.1343618407026E+01
-0.5082398624834E+00 -0.8823195285831E+00 -0.6535629121436E+00 -0.1382375795316E+01
-0.4933205616136E+00 -0.8750874270518E+00 -0.6431517530415E+00 -0.1413150647712E+01
-0.4885395388230E+00 -0.8612589839501E+00 -0.6344053040943E+00 -0.1435196080373E+01
-0.4941951577396E+00 -0.8406674265137E+00 -0.6273854130078E+00 -0.1448142091359E+01
-0.5101531169940E+00 -0.8133373861474E+00 -0.6220405348987E+00 -0.1451803726788E+01
-0.5358780480339E+00 -0.7794352064012E+00 -0.6181972280165E+00 -0.1446033024897E+01
-0.5704505727029E+00 -0.7392479659994E+00 -0.6155583116288E+00 -0.1430642577521E+01
-0.6125610018970E+00 -0.6931979155446E+00 -0.6137066896410E+00 -0.1405414486764E+01
-0.6604997578016E+00 -0.6418650964875E+00 -0.6121114799633E+00 -0.1370162366575E+01
-0.7121788227384E+00 -0.5859876544654E+00 -0.6101382427382E+00 -0.1324795054986E+01
-0.7651912694448E+00 -0.5264377505837E+00 -0.6070656378737E+00 -0.1269357609874E+01
-0.8168887134404E+00 -0.4641902611121E+00 -0.6021071165125E+00 -0.1204043335703E+01
-0.8644539071145E+00 -0.4002996963375E+00 -0.5944341921147E+00 -0.1129177716573E+01
-0.9049554193991E+00 -0.3358927209118E+00 -0.5831986244669E+00 -0.1045149802868E+01
-0.9353758454278E+00 -0.2721797217440E+00 -0.5675511151312E+00 -0.9522646633958E+00
-0.6758791468905E+00 -0.8245101144080E+00 -0.7051829510217E+00 -0.1143590585731E+01
-0.6282790136192E+00 -0.8398809475962E+00 -0.6900351800211E+00 -0.1191940852958E+01
-0.5844953829853E+00 -0.8529496649068E+00 -0.6755991707957E+00 -0.1244089847982E+01
-0.5465541880464E+00 -0.8624973044673E+00 -0.6622541998017E+00 -0.1295491496705E+01
-0.5161620319734E+00 -0.8674936268933E+00 -0.6503181580179E+00 -0.1342805592872E+01
-0.4946545531521E+00 -0.8671230761840E+00 -0.6400354841646E+00 -0.1383742484284E+01
-0.4829736542412E+00 -0.8607917079828E+00 -0.6315697186434E+00 -0.1416845118020E+01
-0.4816625431020E+00 -0.8481179229572E+00 -0.6249968174626E+00 -0.1441259731236E+01
-0.4908721859960E+00 -0.8289088234588E+00 -0.6202970728705E+00 -0.1456521808393E+01
-0.5103770191794E+00 -0.8031261383932E+00 -0.6173464824933E+00 -0.1462370247344E+01
-0.5395927626993E+00 -0.7708569506997E+00 -0.6159113637354E+00 -0.1458603223512E+01
-0.5775798270015E+00 -0.7323111978211E+00 -0.6156487801051E+00 -0.1445000301054E+01
-0.6230241579773E+00 -0.6878476339965E+00 -0.6161097406650E+00 -0.1421323857161E+01
-0.6742165785842E+00 -0.6379998312576E+00 -0.6167417110614E+00 -0.1387372720376E+01
-0.7290661927874E+00 -0.5834741372347E+00 -0.6168939535457E+00 -0.1343042393007E+01
-0.7851570742622E+00 -0.5251194894985E+00 -0.6158299834055E+00 -0.1288365589670E+01
-0.8398292879308E+00 -0.4638867319827E+00 -0.6127465278052E+00 -0.1223524301434E+01
-0.8902630171209E+00 -0.4007927457501E+00 -0.6067962070103E+00 -0.1148831921329E+01
-0.9335536777321E+00 -0.3368986977691E+00 -0.5971126149711E+00 -0.1064660899237E+01
-0.9667676692634E+00 -0.2733107215788E+00 -0.5828368422176E+00 -0.9712879449517E+00
-0.6595884829559E+00 -0.8054843147963E+00 -0.6885842131971E+00 -0.1137093558061E+01
-0.6092082351063E+00 -0.8221979479460E+00 -0.6727609043282E+00 -0.1186192975900E+01
-0.5646509144878E+00 -0.8361313201079E+00 -0.6583676485901E+00 -0.1239553686593E+01
-0.5275052570705E+00 -0.8463011922110E+00 -0.6456890295246E+00 -0.1292554797096E+01
-0.4990516662038E+00 -0.8518901483649E+00 -0.6349426512368E+00 -0.1341773247057E+01
-0.4802555111055E+00 -0.8522426950525E+00 -0.6262741553058E+00 -0.1384832287041E+01
-0.4717632997610E+00 -0.8468596640741E+00 -0.6197527914306E+00 -0.1420187200245E+01
-0.4738994713585E+00 -0.8353894842243E+00 -0.6153658075631E+00 -0.1446899141929E+01
-0.4866646605082E+00 -0.8176146773431E+00 -0.6130112872353E+00 -0.1464424755824E+01
-0.5097388213440E+00 -0.7934349108264E+00 -0.6124916525666E+00 -0.1472435197501E+01
-0.5424854767082E+00 -0.7628584369834E+00 -0.6135116378789E+00 -0.1470676491046E+01
-0.5839418962514E+00 -0.7260184345825E+00 -0.6156813539303E+00 -0.1458892341512E+01
-0.6327874919046E+00 -0.6832106293734E+00 -0.6185191154319E+00 -0.1436820651629E+01
-0.6873120747529E+00 -0.6349225900157E+00 -0.6214502908650E+00 -0.1404240650069E+01
-0.7454211117381E+00 -0.5818290585261E+00 -0.6238075784419E+00 -0.1361030739567E+01
-0.8046896624576E+00 -0.5247552576741E+00 -0.6248391108771E+00 -0.1307209671297E+01
-0.8624472613181E+00 -0.4646263514455E+00 -0.6237245964169E+00 -0.1242949748162E+01
-0.9158741634383E+00 -0.4024183318666E+00 -0.6195974712218E+00 -0.1168558291703E+01
-0.9620977022881E+00 -0.3391210979559E+00 -0.6115728345635E+00 -0.1084401633282E+01
-0.9982791066058E+00 -0.2757282658568E+00 -0.5987834635387E+00 -0.9907410273950E+00
-0.6430745183582E+00 -0.7863563795928E+00 -0.6718325203329E+00 -0.1129943154114E+01
-0.5897486827189E+00 -0.8044708313984E+00 -0.6552831699731E+00 -0.1180021258608E+01
-0.5442794791528E+00 -0.8193238945777E+00 -0.6408935840278E+00 -0.1234733450992E+01
-0.5078158828009E+00 -0.8301708145841E+00 -0.6288537461759E+00 -0.1289387533817E+01
-0.4812107661128E+00 -0.8364089061975E+00 -0.6192812444151E+00 -0.1340495217271E+01
-0.4650581664925E+00 -0.8375442875020E+00 -0.6122231518246E+00 -0.1385617099091E+01
-0.4597082381780E+00 -0.8331736751517E+00 -0.6076544977237E+00 -0.1423146205209E+01
-0.4652658073099E+00 -0.8229759485809E+00 -0.6054736237330E+00 -0.1452080758739E+01
-0.4815803327503E+00 -0.8067086854076E+00 -0.6054958369985E+00 -0.1471814680104E+01
-0.5082361898956E+00 -0.7842085721486E+00 -0.6074490366201E+00 -0.1481960175412E+01
-0.5445431914791E+00 -0.7554040906410E+00 -0.6109752210468E+00 -0.1482213026985E+01
-0.5895137443941E+00 -0.7203512212445E+00 -0.6156365322887E+00 -0.1472278242534E+01
-0.6418191816463E+00 -0.6792828943271E+00 -0.6209179741326E+00 -0.1451864359686E+01
-0.6997469918049E+00 -0.6326414488813E+00 -0.6262225655342E+00 -0.1420726016754E+01
-0.7611978649567E+00 -0.5810710329848E+00 -0.6308663804324E+00 -0.1378720686202E+01
-0.8237370032199E+00 -0.5253739683278E+00 -0.6340821550191E+00 -0.1325851645670E+01
-0.8846832579769E+00 -0.4664497965637E+00 -0.6350325340234E+00 -0.1262283475670E+01
-0.9412181699190E+00 -0.4052319276623E+00 -0.6328315442581E+00 -0.1188324097648E+01
-0.9905055206872E+00 -0.3426342359245E+00 -0.6265756840182E+00 -0.1104345347253E+01
-0.1029811784922E+01 -0.2795264243491E+00 -0.6153889567964E+00 -0.1010607637363E+01
-0.6262315572869E+00 -0.7669891899053E+00 -0.6548137495195E+00 -0.1122115769510E+01
-0.5698250508993E+00 -0.7865537147920E+00 -0.6374980182580E+00 -0.1173403771812E+01
-0.5233377435639E+00 -0.8023748795342E+00 -0.6230849312757E+00 -0.1229606552999E+01
-0.4874706272459E+00 -0.8139519757843E+00 -0.6116686218728E+00 -0.1285964946183E+01
-0.4626442884551E+00 -0.8209003374397E+00 -0.6032659726405E+00 -0.1338943563822E+01
-0.4490791531016E+00 -0.8228892100583E+00 -0.5978251291688E+00 -0.1386065196297E+01
-0.4468285281728E+00 -0.8196112254041E+00 -0.5952266826714E+00 -0.1425686426593E+01
-0.4557783316110E+00 -0.8107744594558E+00 -0.5952798102916E+00 -0.1456765134559E+01
-0.4756280893684E+00 -0.7961093050604E+00 -0.5977165738655E+00 -0.1478649054640E+01
-0.5058676508526E+00 -0.7753867869664E+00 -0.6021895842475E+00 -0.1490900534576E+01
-0.5457534248769E+00 -0.7484532747313E+00 -0.6082771472731E+00 -0.1493167102479E+01
-0.5942724897008E+00 -0.7152862376809E+00 -0.6154926003083E+00 -0.1485112094093E+01
-0.6500872144701E+00 -0.6760557572881E+00 -0.6232871951454E+00 -0.1466409519754E+01
-0.7114815618349E+00 -0.6311599904890E+00 -0.6310415279917E+00 -0.1436784114607E+01
-0.7763498869059E+00 -0.5812143155728E+00 -0.6380551735467E+00 -0.1396068349397E+01
-0.8422457975249E+00 -0.5270003175161E+00 -0.6435456724370E+00 -0.1344248449067E+01
-0.9064759550340E+00 -0.4693937342785E+00 -0.6466587523367E+00 -0.1281483452217E+01
-0.9662229658569E+00 -0.4092856329417E+00 -0.6464890397956E+00 -0.1208089273128E+01
-0.1018690049812E+01 -0.3475097329888E+00 -0.6421138962877E+00 -0.1124456428017E+01
-0.1061262794533E+01 -0.2848006008038E+00 -0.6326497942038E+00 -0.1030861489671E+01
-0.6089520578607E+00 -0.7472422823716E+00 -0.6374113382925E+00 -0.1113590889991E+01
-0.5493616493192E+00 -0.7682968514863E+00 -0.6192994938078E+00 -0.1166321798794E+01
-0.5017829882440E+00 -0.7851275144426E+00 -0.6048479347286E+00 -0.1224152571223E+01
-0.4664553211599E+00 -0.7974859114230E+00 -0.5940523778072E+00 -0.1282262657193E+01
-0.4433588598303E+00 -0.8052100282038E+00 -0.5868273758876E+00 -0.1337088726656E+01
-0.4323369747848E+00 -0.8081337128261E+00 -0.5830212216984E+00 -0.1386141413429E+01
-0.4331461225901E+00 -0.8060444806914E+00 -0.5824195820651E+00 -0.1427767315697E+01
-0.4454555803437E+00 -0.7986767035494E+00 -0.5847421719466E+00 -0.1460907083329E+01
-0.4688182909314E+00 -0.7857295007919E+00 -0.5896374606144E+00 -0.1484879200877E+01
-0.5026328202937E+00 -0.7669038050604E+00 -0.5966822124030E+00 -0.1499205465729E+01
-0.5461043556987E+00 -0.7419601150450E+00 -0.6053902997140E+00 -0.1503487105517E+01
-0.5981954965471E+00 -0.7107951602780E+00 -0.6152256071474E+00 -0.1497342551536E+01
-0.6575594726804E+00 -0.6735157672530E+00 -0.6256053611819E+00 -0.1480405728158E+01
-0.7224756410492E+00 -0.6304771600284E+00 -0.6358878148936E+00 -0.1452365683628E+01
-0.7908300186328E+00 -0.5822685384992E+00 -0.6453563202152E+00 -0.1413025389526E+01
-0.8601618896327E+00 -0.5296542736152E+00 -0.6532135950697E+00 -0.1362352166756E+01
-0.9277627343988E+00 -0.4734900544963E+00 -0.6585888091103E+00 -0.1300501741897E+01
-0.9908140470511E+00 -0.4146268965318E+00 -0.6605572418085E+00 -0.1227806138648E+01
-0.1046560451588E+01 -0.3538161379809E+00 -0.6581769954280E+00 -0.1144689659354E+01
-0.1092519807645E+01 -0.2916431494824E+00 -0.6505565881998E+00 -0.1051466322573E+01
-0.5911262655093E+00 -0.7269711490634E+00 -0.6195057832779E+00 -0.1104351330654E+01
-0.5282824330253E+00 -0.7495458340640E+00 -0.6005792840087E+00 -0.1158760022768E+01
-0.4795734976800E+00 -0.7674199454721E+00 -0.5860869167949E+00 -0.1218353401706E+01
-0.4447576772189E+00 -0.7806084916968E+00 -0.5759220979296E+00 -0.1278256807963E+01
-0.4233634697117E+00 -0.7891780324912E+00 -0.5698945045899E+00 -0.1334899659844E+01
-0.4148526725863E+00 -0.7931284019927E+00 -0.5677511036121E+00 -0.1385807285326E+01
-0.4186854491960E+00 -0.7923398816492E+00 -0.5691819040535E+00 -0.1429343625128E+01
-0.4343183142188E+00 -0.7865685976451E+00 -0.5738168471207E+00 -0.1464455813749E+01
-0.4611631257383E+00 -0.7754764857926E+00 -0.5812206159453E+00 -0.1490450396250E+01
-0.4985326513871E+00 -0.7586882341799E+00 -0.5908938147178E+00 -0.1506818066992E+01
-0.5455849824236E+00 -0.7358733017821E+00 -0.6022853920491E+00 -0.1513115570746E+01
-0.6012604759220E+00 -0.7068445025881E+00 -0.6148093383404E+00 -0.1508912836993E+01
-0.6642038215276E+00 -0.6716445710890E+00 -0.6278487429373E+00 -0.1493797639293E+01
-0.7326888490685E+00 -0.6305871363121E+00 -0.6407397115037E+00 -0.1467416940654E+01
-0.8045907670589E+00 -0.5842384734312E+00 -0.6527497413747E+00 -0.1429539091742E+01
-0.8774307316995E+00 -0.5333506146517E+00 -0.6630672311033E+00 -0.1380110144395E+01
-0.9484803150802E+00 -0.4787650189479E+00 -0.6708053052918E+00 -0.1319284567101E+01
-0.1014915531976E+01 -0.4212975406891E+00 -0.6750201424404E+00 -0.1247419243872E+01
-0.1074021812204E+01 -0.3616167339823E+00 -0.6747501149962E+00 -0.1164989658112E+01
-0.1123464894715E+01 -0.3001457140970E+00 -0.6690969844447E+00 -0.1072373197971E+01
-0.5726418600723E+00 -0.7060265502766E+00 -0.6009741513397E+00 -0.1094383526716E+01
-0.5065110487539E+00 -0.7301408111132E+00 -0.5812263726633E+00 -0.1150706762166E+01
-0.4566689652424E+00 -0.7490844025376E+00 -0.5667040814192E+00 -0.1212193427061E+01
-0.4223679136982E+00 -0.7631494495890E+00 -0.5571931593317E+00 -0.1273924179092E+01
-0.4026701697334E+00 -0.7726382211366E+00 -0.5523949423078E+00 -0.1332343933787E+01
-0.3966504966006E+00 -0.7777177335683E+00 -0.5519530667794E+00 -0.1385021152150E+01
-0.4034739982511E+00 -0.7783577636364E+00 -0.5554609266783E+00 -0.1430365524544E+01
-0.4223899994014E+00 -0.7743299916340E+00 -0.5624583943600E+00 -0.1467355047216E+01
-0.4526769802846E+00 -0.7652514633984E+00 -0.5724263670791E+00 -0.1495301975397E+01
-0.4935697002745E+00 -0.7506627937337E+00 -0.5847892707006E+00 -0.1513675408568E+01
-0.5441852976681E+00 -0.7301358581525E+00 -0.5989309417166E+00 -0.1521989197397E+01
-0.6034455924482E+00 -0.7033954240868E+00 -0.6142152762136E+00 -0.1519760721041E+01
-0.6699881924728E+00 -0.6704187823840E+00 -0.6299912765848E+00 -0.1506524948840E+01
-0.7420806947814E+00 -0.6314792320529E+00 -0.6455731639747E+00 -0.1481879618312E+01
-0.8175845623742E+00 -0.5871238623467E+00 -0.6602129579443E+00 -0.1445552503045E+01
-0.8939978461580E+00 -0.5380985136469E+00 -0.6730852874011E+00 -0.1397465214295E+01
-0.9685655421440E+00 -0.4852385039914E+00 -0.6832878999506E+00 -0.1337772520752E+01
-0.1038451018613E+01 -0.4293324180533E+00 -0.6898582134832E+00 -0.1266865386565E+01
-0.1100976997386E+01 -0.3709686741874E+00 -0.6918144638849E+00 -0.1185290201961E+01
-0.1153974189786E+01 -0.3103957994880E+00 -0.6882538932130E+00 -0.1093519270956E+01
-0.5533836112824E+00 -0.6842538264278E+00 -0.5816895942484E+00 -0.1083677877598E+01
-0.4839709017744E+00 -0.7099157028950E+00 -0.5611267027714E+00 -0.1142154253900E+01
-0.4330309236211E+00 -0.7299463828057E+00 -0.5465993326342E+00 -0.1205659701747E+01
-0.3992793994440E+00 -0.7449316289349E+00 -0.5377791819741E+00 -0.1269242295587E+01
-0.3812947866051E+00 -0.7554176636914E+00 -0.5342548502843E+00 -0.1329387802435E+01
-0.3777585857674E+00 -0.7617395475530E+00 -0.5355641213022E+00 -0.1383738228069E+01
-0.3875429172842E+00 -0.7639520161976E+00 -0.5412026173637E+00 -0.1430778690595E+01
-0.4096972997701E+00 -0.7618344003143E+00 -0.5506198976431E+00 -0.1469543125488E+01
-0.4433768275050E+00 -0.7549493764049E+00 -0.5632133144091E+00 -0.1499367433236E+01
-0.4877484136212E+00 -0.7427440482890E+00 -0.5783314556309E+00 -0.1519708601713E+01
-0.5418964810463E+00 -0.7246848637235E+00 -0.5952932305319E+00 -0.1530038861663E+01
-0.6047295772801E+00 -0.7004034891123E+00 -0.6134125396486E+00 -0.1529818482211E+01
-0.6748806538262E+00 -0.6698098306834E+00 -0.6320045261165E+00 -0.1518522346969E+01
-0.7506106767262E+00 -0.6331378369632E+00 -0.6503617997844E+00 -0.1495690993304E+01
-0.8297639865369E+00 -0.5909193469439E+00 -0.6677211650424E+00 -0.1461004613810E+01
-0.9098093067861E+00 -0.5439012528342E+00 -0.6832439612886E+00 -0.1414356040808E+01
-0.9879561763691E+00 -0.4929232418126E+00 -0.6960133247801E+00 -0.1355900965497E+01
-0.1061344873914E+01 -0.4387582312133E+00 -0.7050484576214E+00 -0.1286073775794E+01
-0.1127328041591E+01 -0.3819211324017E+00 -0.7093471099775E+00 -0.1205513912589E+01
-0.1183918679237E+01 -0.3224742926025E+00 -0.7080046949690E+00 -0.1114826993837E+01
-0.5332330362910E+00 -0.6614921927955E+00 -0.5615208562464E+00 -0.1072229147356E+01
-0.4605852484103E+00 -0.6886973988103E+00 -0.5401628428236E+00 -0.1133098984775E+01
-0.4086232122975E+00 -0.7098238275538E+00 -0.5256701073968E+00 -0.1198742149134E+01
-0.3754893315737E+00 -0.7257702477251E+00 -0.5175920009576E+00 -0.1264189508837E+01
-0.3592576559031E+00 -0.7373360473750E+00 -0.5153990392335E+00 -0.1325996229769E+01
-0.3582096579283E+00 -0.7450246533849E+00 -0.5185201250020E+00 -0.1381910630191E+01
-0.3709276120009E+00 -0.7489697970343E+00 -0.5263517809115E+00 -0.1430524371637E+01
-0.3962705789695E+00 -0.7489487803730E+00 -0.5382530975258E+00 -0.1470953113341E+01
-0.4332826333253E+00 -0.7444586776647E+00 -0.5535384147613E+00 -0.1502574540396E+01
-0.4810754417275E+00 -0.7348421242371E+00 -0.5714812545539E+00 -0.1524842885909E+01
-0.5387111159466E+00 -0.7194511193257E+00 -0.5913362490781E+00 -0.1537189634795E+01
-0.6050918489585E+00 -0.6978183481859E+00 -0.6123677911046E+00 -0.1539012843686E+01
-0.6788494630175E+00 -0.6697837662599E+00 -0.6338576161527E+00 -0.1529719423240E+01
-0.7582383402241E+00 -0.6355424046529E+00 -0.6550769484307E+00 -0.1508783873949E+01
-0.8410819577449E+00 -0.5956145463745E+00 -0.6752473552234E+00 -0.1475830559382E+01
-0.9248121920386E+00 -0.5507561125793E+00 -0.6935171014114E+00 -0.1430717589886E+01
-0.1006591774495E+01 -0.5018242006766E+00 -0.7089555065325E+00 -0.1373600643772E+01
-0.1083523586846E+01 -0.4495921766827E+00 -0.7205644070310E+00 -0.1304966473947E+01
-0.1152977605778E+01 -0.3945132205788E+00 -0.7273206865431E+00 -0.1225572164227E+01
-0.1213166053214E+01 -0.3364536356199E+00 -0.7283212519045E+00 -0.1136203305273E+01
-0.5120680540463E+00 -0.6375739993493E+00 -0.5403317637255E+00 -0.1060036926186E+01
-0.4362773209948E+00 -0.6663049164372E+00 -0.5182136502787E+00 -0.1123542071259E+01
-0.3834124965919E+00 -0.6885262790885E+00 -0.5038112232919E+00 -0.1191433763500E+01
-0.3509994594180E+00 -0.7054721738249E+00 -0.4965416663648E+00 -0.1258745045647E+01
-0.3365843850450E+00 -0.7182051401555E+00 -0.4957510755868E+00 -0.1322132866648E+01
-0.3380417122479E+00 -0.7273964802507E+00 -0.5007559492042E+00 -0.1379487362247E+01
-0.3536683508819E+00 -0.7332513182350E+00 -0.5108522431892E+00 -0.1429539425963E+01
-0.3821444086364E+00 -0.7355333735035E+00 -0.5253085562734E+00 -0.1471512900483E+01
-0.4224177807621E+00 -0.7336611431587E+00 -0.5433570928646E+00 -0.1504845482650E+01
-0.4735599820227E+00 -0.7268604215829E+00 -0.5641975882636E+00 -0.1528997753251E+01
-0.5346234391512E+00 -0.7143587419431E+00 -0.5870216236254E+00 -0.1543360826363E+01
-0.6045126484279E+00 -0.6955833009540E+00 -0.6110450946596E+00 -0.1547264892347E+01
-0.6818630948996E+00 -0.6703009693677E+00 -0.6355171085937E+00 -0.1540040500824E+01
-0.7649232724848E+00 -0.6386674659807E+00 -0.6596876454055E+00 -0.1521086500392E+01
-0.8514918371339E+00 -0.6011943262099E+00 -0.6827624950398E+00 -0.1489961798171E+01
-0.9389549960880E+00 -0.5586545448530E+00 -0.7038764824570E+00 -0.1446481713846E+01
-0.1024414589641E+01 -0.5119381409324E+00 -0.7220857815380E+00 -0.1390798556613E+01
-0.1104917204921E+01 -0.4618405054945E+00 -0.7363761220275E+00 -0.1323459177591E+01
-0.1177830838319E+01 -0.4087718367761E+00 -0.7457032554033E+00 -0.1245365210140E+01
-0.1241582403115E+01 -0.3523952881894E+00 -0.7491695130130E+00 -0.1157538776549E+01
-0.4897626182030E+00 -0.6123239215984E+00 -0.5179806723929E+00 -0.1047106158985E+01
-0.4109704892318E+00 -0.6425484923595E+00 -0.4951539200920E+00 -0.1113489685892E+01
-0.3573688495043E+00 -0.6658539972691E+00 -0.4809147367637E+00 -0.1183730805330E+01
-0.3258168650165E+00 -0.6838352078167E+00 -0.4745364730280E+00 -0.1252889008748E+01
-0.3133066494430E+00 -0.6978283042169E+00 -0.4752334270148E+00 -0.1317759964516E+01
-0.3172987409008E+00 -0.7086708044673E+00 -0.4822056851000E+00 -0.1376414244060E+01
-0.3358108650697E+00 -0.7166297205793E+00 -0.4946470740004E+00 -0.1427756329185E+01
-0.3673580730803E+00 -0.7214416374872E+00 -0.5117358626688E+00 -0.1471145303974E+01
-0.4108095063811E+00 -0.7224317569933E+00 -0.5326233924350E+00 -0.1506097035454E+01
-0.4652141582519E+00 -0.7186953486216E+00 -0.5564374668192E+00 -0.1532087135330E+01
-0.5296296399034E+00 -0.7093246909042E+00 -0.5823085340026E+00 -0.1548466087297E+01
-0.6029732065696E+00 -0.6936346924676E+00 -0.6094057110018E+00 -0.1554490002945E+01
-0.6838902519029E+00 -0.6713156816643E+00 -0.6369467871610E+00 -0.1549404383842E+01
-0.7706250214657E+00 -0.6424826194516E+00 -0.6641605895466E+00 -0.1532522297282E+01
-0.8609474351685E+00 -0.6076393166910E+00 -0.6902357716233E+00 -0.1503326198508E+01
-0.9521879712528E+00 -0.5675827816707E+00 -0.7142922520623E+00 -0.1461577838364E+01
-0.1041370477007E+01 -0.5232535068419E+00 -0.7353732705440E+00 -0.1407419178904E+01
-0.1125460956691E+01 -0.4754971225846E+00 -0.7524502953509E+00 -0.1341462440035E+01
-0.1201797429273E+01 -0.4247091013369E+00 -0.7644580674477E+00 -0.1264782619280E+01
-0.1269034855817E+01 -0.3703471516431E+00 -0.7705095415521E+00 -0.1178706792762E+01
-0.4661863320539E+00 -0.5855580605335E+00 -0.4943198632623E+00 -0.1033447750010E+01
-0.3845884747617E+00 -0.6172285761056E+00 -0.4708540127134E+00 -0.1102953527257E+01
-0.3304664226497E+00 -0.6415970234193E+00 -0.4568698184936E+00 -0.1175632972745E+01
-0.2999548218854E+00 -0.6606473797612E+00 -0.4514830336288E+00 -0.1246602307736E+01
-0.2894630336241E+00 -0.6760000781648E+00 -0.4537676613898E+00 -0.1312838209566E+01
-0.2960314509676E+00 -0.6886555736275E+00 -0.4628029003859E+00 -0.1372633776755E+01
-0.3174069352853E+00 -0.6989310536255E+00 -0.4776788535765E+00 -0.1425103144401E+01
-0.3519560560474E+00 -0.7065202870478E+00 -0.4974838799930E+00 -0.1469768167456E+01
-0.3984893351661E+00 -0.7106387041604E+00 -0.5212901771613E+00 -0.1506240778367E+01
-0.4560534319126E+00 -0.7102361256531E+00 -0.5481560906656E+00 -0.1534019677497E+01
-0.5237282215073E+00 -0.7042582461103E+00 -0.5771536383164E+00 -0.1552413620630E+01
-0.6004559619442E+00 -0.6919010819549E+00 -0.6074078090920E+00 -0.1560597812500E+01
-0.6848998499343E+00 -0.6727752064890E+00 -0.6381072749005E+00 -0.1557724008772E+01
-0.7753028951389E+00 -0.6469523547985E+00 -0.6684599657751E+00 -0.1543009386439E+01
-0.8694028532498E+00 -0.6149266957612E+00 -0.6976348862657E+00 -0.1515847905154E+01
-0.9644633392568E+00 -0.5775230822195E+00 -0.7247336162557E+00 -0.1475933688959E+01
-0.1057409782507E+01 -0.5357509077210E+00 -0.7487855225079E+00 -0.1423386076592E+01
-0.1145096993915E+01 -0.4905422331486E+00 -0.7687504347701E+00 -0.1358883490207E+01
-0.1224794052222E+01 -0.4423193680982E+00 -0.7835433055633E+00 -0.1283704141547E+01
-0.1295394207110E+01 -0.3903399035622E+00 -0.7922950300063E+00 -0.1199562874186E+01
-0.4412040123618E+00 -0.5570828863272E+00 -0.4691948411938E+00 -0.1019079255889E+01
-0.3570556271596E+00 -0.5901346745842E+00 -0.4451794406904E+00 -0.1091951327056E+01
-0.3026842273085E+00 -0.6155341688200E+00 -0.4315626450858E+00 -0.1167143523611E+01
-0.2734337513112E+00 -0.6356862701959E+00 -0.4272864090246E+00 -0.1239866492507E+01
-0.2650999272598E+00 -0.6525058542310E+00 -0.4312747162068E+00 -0.1307326458643E+01
-0.2742979973077E+00 -0.6671508523914E+00 -0.4424809582363E+00 -0.1368084934594E+01
-0.2985149593565E+00 -0.6799743796560E+00 -0.4598899881694E+00 -0.1421503448874E+01
-0.3359884973299E+00 -0.6906094657719E+00 -0.4825010414341E+00 -0.1467294448468E+01
-0.3854934999541E+00 -0.6981435168545E+00 -0.5093093966082E+00 -0.1505183343734E+01
-0.4460970473258E+00 -0.7013647438683E+00 -0.5393070404933E+00 -0.1534699119497E+01
-0.5169204606354E+00 -0.6990605283381E+00 -0.5715110633680E+00 -0.1555106565131E+01
-0.5969448899709E+00 -0.6903021722518E+00 -0.6050061177102E+00 -0.1565492336402E+01
-0.6848610156015E+00 -0.6746185780885E+00 -0.6389554074137E+00 -0.1564906032356E+01
-0.7789156038230E+00 -0.6520354312698E+00 -0.6725469847878E+00 -0.1552459744841E+01
-0.8768120957690E+00 -0.6230312017189E+00 -0.7049263480314E+00 -0.1527446765850E+01
-0.9757353425815E+00 -0.5884559671144E+00 -0.7351699136924E+00 -0.1489475917236E+01
-0.1072488191298E+01 -0.5494046143044E+00 -0.7622896166998E+00 -0.1438624006061E+01
-0.1163776304598E+01 -0.5069412220632E+00 -0.7852372355392E+00 -0.1375628888463E+01
-0.1246747026190E+01 -0.4615754120896E+00 -0.8029115439547E+00 -0.1302001221641E+01
-0.1320538206618E+01 -0.4123824153045E+00 -0.8144726902376E+00 -0.1219944064588E+01
-0.4146751752699E+00 -0.5266939465305E+00 -0.4424434861240E+00 -0.1004025682511E+01
-0.3282972764338E+00 -0.5610439752192E+00 -0.4179903872167E+00 -0.1080507375892E+01
-0.2740070562849E+00 -0.5874319078005E+00 -0.4048763120932E+00 -0.1158269303772E+01
-0.2462822982286E+00 -0.6087183813369E+00 -0.4018503183765E+00 -0.1232663446864E+01
-0.2402724809319E+00 -0.6271216889403E+00 -0.4076752588059E+00 -0.1301181353193E+01
-0.2521647176782E+00 -0.6439489142238E+00 -0.4211734059257E+00 -0.1362702875384E+01
-0.2792004840119E+00 -0.6595720062349E+00 -0.4412230692969E+00 -0.1416876211890E+01
-0.3195115933077E+00 -0.6735430459236E+00 -0.4667356792549E+00 -0.1463632279416E+01
-0.3718633076868E+00 -0.6848013959492E+00 -0.4966324094493E+00 -0.1502826676652E+01
-0.4353684753568E+00 -0.6919561704296E+00 -0.5298425821758E+00 -0.1534024779143E+01
-0.5092109849166E+00 -0.6936242316244E+00 -0.5653325503404E+00 -0.1556443623506E+01
-0.5924260295899E+00 -0.6887475858732E+00 -0.6021515977404E+00 -0.1569072389537E+01
-0.6837431690175E+00 -0.6767744562290E+00 -0.6394432822440E+00 -0.1570850495329E+01
-0.7814206832376E+00 -0.6576832564881E+00 -0.6763788499555E+00 -0.1560777917227E+01
-0.8831282761325E+00 -0.6319260641968E+00 -0.7120755381487E+00 -0.1538036961706E+01
-0.9859601368632E+00 -0.6003640023037E+00 -0.7455723435174E+00 -0.1502130346007E+01
-0.1086567602915E+01 -0.5641859064516E+00 -0.7758541474344E+00 -0.1453061627836E+01
-0.1181460693694E+01 -0.5246439222094E+00 -0.8018691674409E+00 -0.1391608439148E+01
-0.1267595389092E+01 -0.4824236265182E+00 -0.8225089352506E+00 -0.1319539523551E+01
-0.1344354592311E+01 -0.4364550749699E+00 -0.8369805414989E+00 -0.1239668825136E+01
-0.3864533839006E+00 -0.4941741937745E+00 -0.4138949604575E+00 -0.9883204058036E+00
-0.2982401802354E+00 -0.5297196392034E+00 -0.3891411141492E+00 -0.1068653029367E+01
-0.2444265859810E+00 -0.5570431608917E+00 -0.3766907800747E+00 -0.1149020608754E+01
-0.2185385513319E+00 -0.5794986131226E+00 -0.3750774663423E+00 -0.1224974883282E+01
-0.2150456246704E+00 -0.5996143119600E+00 -0.3828901692452E+00 -0.1294356787107E+01
-0.2297068536407E+00 -0.6188345048019E+00 -0.3988144374565E+00 -0.1356418568429E+01
-0.2595366835991E+00 -0.6375298415847E+00 -0.4216212657670E+00 -0.1411135622745E+01
-0.3025879244719E+00 -0.6551490386420E+00 -0.4501363715218E+00 -0.1458684984880E+01
-0.3576454024588E+00 -0.6704616888342E+00 -0.4832103316821E+00 -0.1499068260811E+01
-0.4238957865718E+00 -0.6818788732926E+00 -0.5197140888180E+00 -0.1531892084740E+01
-0.5006084406046E+00 -0.6878338203813E+00 -0.5585678612466E+00 -0.1556319961069E+01
-0.5868883625421E+00 -0.6871358507850E+00 -0.5987913787450E+00 -0.1571232534904E+01
-0.6815163751237E+00 -0.6791581133409E+00 -0.6395170079563E+00 -0.1575450889577E+01
-0.7827736562622E+00 -0.6638363326235E+00 -0.6799066930517E+00 -0.1567859308211E+01
-0.8883020559981E+00 -0.6415828939434E+00 -0.7190459246487E+00 -0.1547524272934E+01
-0.9950952506381E+00 -0.6132376327564E+00 -0.7559164532781E+00 -0.1513821123426E+01
-0.1099617731844E+01 -0.5800705709769E+00 -0.7894535003234E+00 -0.1466634998975E+01
-0.1198124560558E+01 -0.5435843746314E+00 -0.8186031974629E+00 -0.1406741176670E+01
-0.1287293360546E+01 -0.5047768018615E+00 -0.8422729741953E+00 -0.1336182990638E+01
-0.1366735829744E+01 -0.4624990184960E+00 -0.8597403764920E+00 -0.1258541760848E+01
-0.3563854083989E+00 -0.4592917354539E+00 -0.3833682566385E+00 -0.9720062451157E+00
-0.2668131196426E+00 -0.4959086283851E+00 -0.3584792206638E+00 -0.1056427124717E+01
-0.2139427354281E+00 -0.5241059985162E+00 -0.3468829040740E+00 -0.1139410764340E+01
-0.1902514793560E+00 -0.5477700085704E+00 -0.3468700984456E+00 -0.1216781567448E+01
-0.1894951544388E+00 -0.5697414492574E+00 -0.3568412028321E+00 -0.1286803222126E+01
-0.2070092594542E+00 -0.5915853380718E+00 -0.3753394598852E+00 -0.1349158364274E+01
-0.2396047799776E+00 -0.6136478651195E+00 -0.4010287421785E+00 -0.1404190887132E+01
-0.2852867188095E+00 -0.6352500965718E+00 -0.4326523021319E+00 -0.1452351046781E+01
-0.3428919335560E+00 -0.6549685134691E+00 -0.4689944089123E+00 -0.1493801267774E+01
-0.4117117980170E+00 -0.6709955822490E+00 -0.5088724674343E+00 -0.1528193045215E+01
-0.4911261537807E+00 -0.6815664728656E+00 -0.5511655331258E+00 -0.1554628277865E+01
-0.5803251270284E+00 -0.6853542619570E+00 -0.5948693113143E+00 -0.1571864750371E+01
-0.6781525289007E+00 -0.6816680719565E+00 -0.6391156807818E+00 -0.1578595259696E+01
-0.7829269073906E+00 -0.6704172864094E+00 -0.6830717693535E+00 -0.1573588469703E+01
-0.8922786153760E+00 -0.6519681082219E+00 -0.7257959582501E+00 -0.1555801207141E+01
-0.1003097821420E+01 -0.6270828479838E+00 -0.7661849126766E+00 -0.1524467189375E+01
-0.1111618577830E+01 -0.5970540448143E+00 -0.8030761306059E+00 -0.1479291415323E+01
-0.1213759886681E+01 -0.5636861329887E+00 -0.8353996271260E+00 -0.1420965676129E+01
-0.1305805354879E+01 -0.5284953983560E+00 -0.8621213518339E+00 -0.1351800413845E+01
-0.1387559360191E+01 -0.4904043389924E+00 -0.8826429363776E+00 -0.1276359484248E+01
-0.3243099207514E+00 -0.4217964834041E+00 -0.3506700090637E+00 -0.9551367197522E+00
-0.2339475698999E+00 -0.4593386852396E+00 -0.3258445390891E+00 -0.1043876134915E+01
-0.1825654104889E+00 -0.4883424125621E+00 -0.3153266760342E+00 -0.1129455212115E+01
-0.1614825326779E+00 -0.5132639180852E+00 -0.3171308310543E+00 -0.1208062168790E+01
-0.1637088940837E+00 -0.5372526605039E+00 -0.3294519298206E+00 -0.1278466859170E+01
-0.1841669790792E+00 -0.5619727524102E+00 -0.3506856729105E+00 -0.1340843551549E+01
-0.2194944086750E+00 -0.5877206882876E+00 -0.3793910946102E+00 -0.1395946008702E+01
-0.2676840484704E+00 -0.6136640427296E+00 -0.4142336018134E+00 -0.1444524008783E+01
-0.3276606311047E+00 -0.6381614743466E+00 -0.4539363884108E+00 -0.1486914585404E+01
-0.3988540847907E+00 -0.6591643361066E+00 -0.4972686565605E+00 -0.1522816570589E+01
-0.4807821020347E+00 -0.6746932876211E+00 -0.5430734317608E+00 -0.1551259747592E+01
-0.5727359054360E+00 -0.6832811207658E+00 -0.5903280008176E+00 -0.1570860733326E+01
-0.6736279810095E+00 -0.6841840146073E+00 -0.6381716363213E+00 -0.1580169266819E+01
-0.7818299116412E+00 -0.6773205806539E+00 -0.6858007296393E+00 -0.1577838925205E+01
-0.8949910462140E+00 -0.6630295251763E+00 -0.7322696666961E+00 -0.1562739514377E+01
-0.1009920209778E+01 -0.6419285782064E+00 -0.7763689283837E+00 -0.1533972869410E+01
-0.1122564264310E+01 -0.6151805064551E+00 -0.8167400401880E+00 -0.1490991668051E+01
-0.1228385813087E+01 -0.5848811955364E+00 -0.8522354918914E+00 -0.1434257749602E+01
-0.1323108479419E+01 -0.5533665468672E+00 -0.8819432601175E+00 -0.1366280789251E+01
-0.1406661136833E+01 -0.5199669582916E+00 -0.9055152024119E+00 -0.1292884885337E+01
-0.2900551654509E+00 -0.3814145922957E+00 -0.3155907853404E+00 -0.9377774587669E+00
-0.1995789272813E+00 -0.4197145322722E+00 -0.2910679252519E+00 -0.1031053707539E+01
-0.1503164906782E+00 -0.4494571251522E+00 -0.2818935987253E+00 -0.1119169729885E+01
-0.1323079589073E+00 -0.4757016734304E+00 -0.2857645264739E+00 -0.1198791648122E+01
-0.1377874817661E+00 -0.5018904670110E+00 -0.3006486351627E+00 -0.1269288785897E+01
-0.1612858914938E+00 -0.5297627920596E+00 -0.3247928804463E+00 -0.1331389983722E+01
-0.1993037610907E+00 -0.5595379493328E+00 -0.3566556029944E+00 -0.1386299605484E+01
-0.2498630709966E+00 -0.5902044643100E+00 -0.3948317405927E+00 -0.1435092299926E+01
-0.3120148205838E+00 -0.6198764178164E+00 -0.4379888809372E+00 -0.1478292699999E+01
-0.3853646814671E+00 -0.6462395462126E+00 -0.4848539857797E+00 -0.1515648555733E+01
-0.4695987760216E+00 -0.6670811323158E+00 -0.5342395555635E+00 -0.1546104665249E+01
-0.5641257160585E+00 -0.6807871667694E+00 -0.5851090534451E+00 -0.1568113726525E+01
-0.6679321583561E+00 -0.6865743930023E+00 -0.6366180775237E+00 -0.1580061780675E+01
-0.7794306926266E+00 -0.6843985836776E+00 -0.6879997581179E+00 -0.1580477981244E+01
-0.8963530295216E+00 -0.6746681274860E+00 -0.7383799419208E+00 -0.1568181959163E+01
-0.1015490307760E+01 -0.6578137014862E+00 -0.7864528823512E+00 -0.1542206401426E+01
-0.1132473771113E+01 -0.6346022637682E+00 -0.8305257342874E+00 -0.1501703996031E+01
-0.1242067789985E+01 -0.6071620697504E+00 -0.8691380318712E+00 -0.1446659521526E+01
-0.1339202561500E+01 -0.5790784272278E+00 -0.9015920624155E+00 -0.1379566390140E+01
-0.1423836675276E+01 -0.5508175172387E+00 -0.9280874681281E+00 -0.1307842110650E+01
-0.2534359745521E+00 -0.3378400736190E+00 -0.2778997419356E+00 -0.9200079744508E+00
-0.1636457931694E+00 -0.3767095807162E+00 -0.2539670250821E+00 -0.1018018577618E+01
-0.1172353275589E+00 -0.4071409745582E+00 -0.2464568613699E+00 -0.1108567093055E+01
-0.1028192659706E+00 -0.4347958044903E+00 -0.2526790824757E+00 -0.1188939314650E+01
-0.1118463733974E+00 -0.4633938827137E+00 -0.2703629196864E+00 -0.1259204274132E+01
-0.1384818246247E+00 -0.4947158072561E+00 -0.2976028862291E+00 -0.1320707964199E+01
-0.1791405102032E+00 -0.5288855192946E+00 -0.3327722330200E+00 -0.1375144689150E+01
-0.2319139406838E+00 -0.5646808530995E+00 -0.3743995521285E+00 -0.1423939048701E+01
-0.2960234094825E+00 -0.5999461020359E+00 -0.4211056693456E+00 -0.1467815344360E+01
-0.3712901000296E+00 -0.6320736411920E+00 -0.4715809571780E+00 -0.1506571721478E+01
-0.4576018943668E+00 -0.6585939022799E+00 -0.5246120230933E+00 -0.1539052722324E+01
-0.5545054575250E+00 -0.6777394869724E+00 -0.5791551224448E+00 -0.1563519712815E+01
-0.6610617366420E+00 -0.6886958501564E+00 -0.6343860641862E+00 -0.1578168313865E+01
-0.7757178069280E+00 -0.6914971243077E+00 -0.6895910159317E+00 -0.1581383255713E+01
-0.8962239582215E+00 -0.6866519321778E+00 -0.7439516666007E+00 -0.1571943170676E+01
-0.1019688854694E+01 -0.6747442853767E+00 -0.7963835738135E+00 -0.1548958912161E+01
-0.1141363903996E+01 -0.6556316948714E+00 -0.8445879293253E+00 -0.1511367365849E+01
-0.1255012742200E+01 -0.6307812664365E+00 -0.8863231818110E+00 -0.1458324636551E+01
-0.1354105738006E+01 -0.6051614887181E+00 -0.9208555942248E+00 -0.1391732188836E+01
-0.1438799700943E+01 -0.5822402921628E+00 -0.9498887943504E+00 -0.1320908642886E+01
-0.2142322605088E+00 -0.2907017569902E+00 -0.2373189876226E+00 -0.9019210177868E+00
-0.1261041679750E+00 -0.3299720947801E+00 -0.2143558429512E+00 -0.1004828440062E+01
-0.8337262287064E-01 -0.3610638912918E+00 -0.2088851611265E+00 -0.1097651210404E+01
-0.7313681074566E-01 -0.3902701329910E+00 -0.2178012630038E+00 -0.1178466920559E+01
-0.8600616938490E-01 -0.4214893940031E+00 -0.2385229141874E+00 -0.1248143637995E+01
-0.1158853215432E+00 -0.4565919563348E+00 -0.2690643199202E+00 -0.1308701463081E+01
-0.1591210183541E+00 -0.4955453421242E+00 -0.3076931886444E+00 -0.1362368899051E+01
-0.2139339703464E+00 -0.5368984649786E+00 -0.3528912437077E+00 -0.1410941916569E+01
-0.2797607629614E+00 -0.5782003791106E+00 -0.4032417357511E+00 -0.1455356785249E+01
-0.3566810219058E+00 -0.6165187597379E+00 -0.4574038962124E+00 -0.1495464952176E+01
-0.4448209091731E+00 -0.6490961237268E+00 -0.5141410041589E+00 -0.1529993253144E+01
-0.5438862066584E+00 -0.6739996613948E+00 -0.5724063565332E+00 -0.1556977806393E+01
-0.6530268895446E+00 -0.6904055032370E+00 -0.6314132230059E+00 -0.1574392527368E+01
-0.7706836024759E+00 -0.6984356317301E+00 -0.6904860383255E+00 -0.1580448828468E+01
-0.8946292290268E+00 -0.6988019169888E+00 -0.7489126367278E+00 -0.1573869875429E+01
-0.1021987511984E+01 -0.6921588909058E+00 -0.8056488073149E+00 -0.1553885336977E+01
-0.1149386721349E+01 -0.6790089062028E+00 -0.8593459427698E+00 -0.1519755658629E+01
-0.1267591032543E+01 -0.6565444331023E+00 -0.9043436665597E+00 -0.1469568239143E+01
-0.1368112758105E+01 -0.6312330391521E+00 -0.9396925223273E+00 -0.1403196035970E+01
-0.1450811268085E+01 -0.6124447592400E+00 -0.9697303303830E+00 -0.1331748239216E+01
-0.1722262867679E+00 -0.2395799414769E+00 -0.1935489267842E+00 -0.8836317781120E+00
-0.8684355638652E-01 -0.2790096882404E+00 -0.1719510245385E+00 -0.9915181789053E+00
-0.4890116656711E-01 -0.3110204319283E+00 -0.1691631508638E+00 -0.1086404908272E+01
-0.4333836531791E-01 -0.3417884687395E+00 -0.1810096115479E+00 -0.1167338603970E+01
-0.6042022205118E-01 -0.3759174734811E+00 -0.2050787163800E+00 -0.1236028133228E+01
-0.9363418704971E-01 -0.4151465413209E+00 -0.2391269417277E+00 -0.1295268490210E+01
-0.1393734545728E+00 -0.4592995096296E+00 -0.2813762924614E+00 -0.1347854916268E+01
-0.1960276244706E+00 -0.5066574501765E+00 -0.3302619842465E+00 -0.1395973770653E+01
-0.2633044378632E+00 -0.5544622459654E+00 -0.3843503404246E+00 -0.1440784506135E+01
-0.3415944503615E+00 -0.5994315561945E+00 -0.4422822219595E+00 -0.1482201413055E+01
-0.4312879314931E+00 -0.6384570517643E+00 -0.5027801408557E+00 -0.1518815559927E+01
-0.5322817971558E+00 -0.6694291182007E+00 -0.5648041287850E+00 -0.1548391942997E+01
-0.6438273982096E+00 -0.6915424525883E+00 -0.6276238282831E+00 -0.1568644483196E+01
-0.7643708679982E+00 -0.7050664025344E+00 -0.6906355153986E+00 -0.1577585524891E+01
-0.8915370137242E+00 -0.7108394937966E+00 -0.7531169566246E+00 -0.1573851973766E+01
-0.1022662491240E+01 -0.7099471496012E+00 -0.8143265291300E+00 -0.1556758600128E+01
-0.1154088992275E+01 -0.7026128187864E+00 -0.8726498489857E+00 -0.1525965030500E+01
-0.1283027297327E+01 -0.6897588648164E+00 -0.9272094938556E+00 -0.1480700258614E+01
-0.1381052820022E+01 -0.6562808135307E+00 -0.9575468053409E+00 -0.1415489628999E+01
-0.1458504759429E+01 -0.6372977859494E+00 -0.9850271938296E+00 -0.1339991030583E+01
-0.1261608588389E+00 -0.1827810613622E+00 -0.1452027021262E+00 -0.8651140815711E+00
-0.4654866816034E-01 -0.2242639082918E+00 -0.1272819106097E+00 -0.9779804308099E+00
-0.1362121211219E-01 -0.2564434746449E+00 -0.1269304024539E+00 -0.1074862487477E+01
-0.1362648149012E-01 -0.2891025784401E+00 -0.1422826578063E+00 -0.1155499567670E+01
-0.3523187275570E-01 -0.3263992599543E+00 -0.1699666319426E+00 -0.1222771462593E+01
-0.7188625298606E-01 -0.3701445447372E+00 -0.2077544744030E+00 -0.1280300890335E+01
-0.1200309677299E+00 -0.4199247779753E+00 -0.2537791998378E+00 -0.1331480970464E+01
-0.1783138380202E+00 -0.4737611844065E+00 -0.3064752597632E+00 -0.1378904221146E+01
-0.2467339052546E+00 -0.5285408233675E+00 -0.3643791215282E+00 -0.1423960346809E+01
-0.3260779582210E+00 -0.5806539772049E+00 -0.4261640085692E+00 -0.1466641091129E+01
-0.4170649427477E+00 -0.6265944949798E+00 -0.4905199344878E+00 -0.1505407798595E+01
-0.5196893008970E+00 -0.6638733996343E+00 -0.5562744678388E+00 -0.1537678578199E+01
-0.6334626596464E+00 -0.6919290197069E+00 -0.6229340877160E+00 -0.1560839002506E+01
-0.7567859634632E+00 -0.7112101343568E+00 -0.6899581642254E+00 -0.1572708893709E+01
-0.8871189012177E+00 -0.7226675118230E+00 -0.7565996122101E+00 -0.1571817787909E+01
-0.1021489466718E+01 -0.7274810638094E+00 -0.8220161472629E+00 -0.1557486760323E+01
-0.1157248268941E+01 -0.7271494721016E+00 -0.8856669360435E+00 -0.1529572149100E+01
-0.1288729960911E+01 -0.7202235241715E+00 -0.9442081355940E+00 -0.1488589773365E+01
-0.1419276818858E+01 -0.7131720654108E+00 -0.1002250973064E+01 -0.1433511397029E+01
-0.1439353865917E+01 -0.6237187000185E+00 -0.9696441035305E+00 -0.1349565825561E+01
-0.5505664153365E+01 -0.8760526206531E+01 -0.6705109452145E+01 -0.1432357639803E+01
 0.3118213775154E+00 -0.3545830661746E+01 -0.1519984359733E+01  0.2399250608129E+00
 0.1356228760072E+00 -0.2545811677534E+01 -0.1132788733845E+01  0.2719805144106E+00
 0.7525385381478E-01 -0.1971445467125E+01 -0.8912100559952E+00  0.1811069924841E+00
 0.3496030190886E-01 -0.1586985873045E+01 -0.7294520165837E+00  0.1232314214896E+00
 0.2185603079170E-01 -0.1288468488833E+01 -0.5953078537693E+00  0.8052285264761E-01
 0.1569394489577E-01 -0.1047361401612E+01 -0.4848837034266E+00  0.4828883798700E-01
 0.1201805682807E-01 -0.8467518292112E+00 -0.3923248720250E+00  0.2362568961485E-01
 0.9726933595424E-02 -0.6758599936181E+00 -0.3130825374165E+00  0.5285094788307E-02
 0.8021315321816E-02 -0.5290824233013E+00 -0.2448987201292E+00 -0.7650032856036E-02
 0.5593403969109E-02 -0.4032370494305E+00 -0.1868925128928E+00 -0.1573982096851E-01
 0.5852041717690E-02 -0.2911118191648E+00 -0.1340720950601E+00 -0.2091166599268E-01
 0.1195540137482E-01 -0.1951431524991E+00 -0.8609824281001E-01 -0.2416426419607E-01
 0.1118036573481E-01 -0.1305114471102E+00 -0.5608560810417E-01 -0.2718095647871E-01
 0.3879175033568E-02 -0.9184411799487E-01 -0.4134352308695E-01 -0.2962408879923E-01
-0.3825537349749E-02 -0.6838448520638E-01 -0.3393871051530E-01 -0.3053960914126E-01
-0.1148413024315E-01 -0.5390249624498E-01 -0.3073171437147E-01 -0.3035513265888E-01
-0.1686682930281E-01 -0.4243511073182E-01 -0.2787191174558E-01 -0.2888601648171E-01
-0.1910569953701E-01 -0.3107045738967E-01 -0.2358279369573E-01 -0.2594188083423E-01
-0.1906645793489E-01 -0.1909999165680E-01 -0.1793823126259E-01 -0.2199035940339E-01
-0.3035193248387E+01 -0.5543992247045E+01 -0.4032217172626E+01 -0.1779622399305E+01
-0.8659207777569E+00 -0.4657031423769E+01 -0.2595787528133E+01 -0.5592146017314E+00
 0.1378373179557E+00 -0.2858954906124E+01 -0.1278925263195E+01 -0.1693913413960E-01
 0.9883963596969E-01 -0.2175981276417E+01 -0.9762565685341E+00  0.4084824558729E-01
 0.6589746458248E-01 -0.1730005671695E+01 -0.7821308553590E+00  0.2241335491765E-01
 0.4204294046247E-01 -0.1407856934121E+01 -0.6419325753914E+00 -0.2522385718071E-03
 0.3037323963794E-01 -0.1151246018939E+01 -0.5268102049353E+00 -0.2018576650813E-01
 0.2272594319058E-01 -0.9398653019178E+00 -0.4310554975085E+00 -0.3619988204202E-01
 0.1703135641280E-01 -0.7613157241281E+00 -0.3498136519390E+00 -0.4815014540189E-01
 0.1220144846520E-01 -0.6085339117542E+00 -0.2802762570349E+00 -0.5597647715031E-01
 0.8182412469346E-02 -0.4763500965760E+00 -0.2200388109720E+00 -0.6006860180968E-01
 0.6275445687507E-02 -0.3607631463436E+00 -0.1666092188858E+00 -0.6160366302130E-01
 0.6870254576603E-02 -0.2648887054962E+00 -0.1212686716246E+00 -0.6063000922742E-01
 0.5173173023235E-02 -0.1928294378326E+00 -0.8819844423670E-01 -0.5883613760977E-01
-0.2032561825289E-02 -0.1432973881992E+00 -0.6830507633826E-01 -0.5751528436892E-01
-0.1177024336799E-01 -0.1102604421478E+00 -0.5735442204695E-01 -0.5607674727633E-01
-0.2157018999560E-01 -0.8691197274582E-01 -0.5098661635915E-01 -0.5416941350966E-01
-0.2971365143960E-01 -0.6821099022807E-01 -0.4602458146707E-01 -0.5137369247545E-01
-0.3496006679872E-01 -0.5124484802350E-01 -0.4051630986368E-01 -0.4742076948337E-01
-0.3805515546051E-01 -0.3602714387998E-01 -0.3481868060172E-01 -0.4274759122318E-01
-0.2475105378247E+01 -0.4471186097091E+01 -0.3264756985128E+01 -0.1754932659858E+01
-0.9125798467550E+00 -0.4192473223266E+01 -0.2399374936824E+01 -0.9563158779716E+00
-0.1931477066315E+00 -0.3218361545490E+01 -0.1603409344430E+01 -0.3861028518499E+00
 0.7787890908526E-01 -0.2360972040483E+01 -0.1073053769036E+01 -0.1503474926363E+00
 0.7320122206465E-01 -0.1871247771645E+01 -0.8450818761592E+00 -0.9869107163157E-01
 0.5588114522464E-01 -0.1520740614852E+01 -0.6884839489784E+00 -0.9226871038276E-01
 0.4091874028704E-01 -0.1250328228562E+01 -0.5684224580473E+00 -0.9620013839422E-01
 0.3053093213180E-01 -0.1029262648641E+01 -0.4694039055686E+00 -0.1018001344964E+00
 0.2214362383331E-01 -0.8436512141473E+00 -0.3861085664682E+00 -0.1062459197892E+00
 0.1494602720492E-01 -0.6850646410970E+00 -0.3149557477304E+00 -0.1083674707655E+00
 0.8816629490593E-02 -0.5480500348343E+00 -0.2534396998687E+00 -0.1078354210639E+00
 0.4431699742667E-02 -0.4290436563569E+00 -0.1995676191025E+00 -0.1048636162878E+00
 0.1806176809561E-02 -0.3295231700637E+00 -0.1540269864388E+00 -0.9970687843911E-01
-0.2341724041672E-02 -0.2517606464461E+00 -0.1194281138263E+00 -0.9409894275132E-01
-0.1042335341517E-01 -0.1939630842043E+00 -0.9606162543750E-01 -0.8929488934165E-01
-0.2131533467335E-01 -0.1519712761612E+00 -0.8144470688569E-01 -0.8509897495432E-01
-0.3299311309806E-01 -0.1205215526944E+00 -0.7215189273944E-01 -0.8103605678192E-01
-0.4339265725868E-01 -0.9493573279819E-01 -0.6501434316183E-01 -0.7642849995229E-01
-0.5122833834242E-01 -0.7271088471299E-01 -0.5825143468829E-01 -0.7087857304301E-01
-0.5698701282292E-01 -0.5411662510872E-01 -0.5221870969543E-01 -0.6459817443078E-01
-0.2180405200412E+01 -0.3810277375462E+01 -0.2815620803519E+01 -0.1688252316953E+01
-0.9816305706913E+00 -0.3783683218988E+01 -0.2239697475469E+01 -0.1166649449081E+01
-0.3456224415320E+00 -0.3198985263263E+01 -0.1665965617028E+01 -0.6709370238900E+00
-0.3698766771793E-01 -0.2521864693855E+01 -0.1202660606889E+01 -0.3697537849230E+00
 0.5430888246744E-01 -0.1995064707884E+01 -0.9121552356324E+00 -0.2413623467396E+00
 0.5587515372854E-01 -0.1626384530843E+01 -0.7381394053714E+00 -0.1963922220461E+00
 0.4551704733469E-01 -0.1342895643829E+01 -0.6097679388057E+00 -0.1800032291953E+00
 0.3442660211186E-01 -0.1113781501844E+01 -0.5072968015876E+00 -0.1731552240239E+00
 0.2452326892532E-01 -0.9220268496696E+00 -0.4218266818799E+00 -0.1690069339446E+00
 0.1550093620555E-01 -0.7584592107298E+00 -0.3491903881407E+00 -0.1647155706267E+00
 0.7424033049359E-02 -0.6172600615232E+00 -0.2866229326557E+00 -0.1589830878523E+00
 0.8961072053375E-03 -0.4946399666354E+00 -0.2320596133435E+00 -0.1511815777443E+00
-0.4512994847431E-02 -0.3911076896295E+00 -0.1859417212325E+00 -0.1417776417984E+00
-0.1102345287415E-01 -0.3078390436498E+00 -0.1498653729861E+00 -0.1325205827432E+00
-0.2051925005731E-01 -0.2430534576788E+00 -0.1238791723218E+00 -0.1244075093077E+00
-0.3259988534653E-01 -0.1932805921577E+00 -0.1061638241577E+00 -0.1173153231088E+00
-0.4574396814965E-01 -0.1543589968114E+00 -0.9404839329317E-01 -0.1107388589691E+00
-0.5801906971022E-01 -0.1223343647671E+00 -0.8476611398936E-01 -0.1038778259835E+00
-0.6803162980807E-01 -0.9498820890296E-01 -0.7661932399985E-01 -0.9618849740034E-01
-0.7575407077903E-01 -0.7217070576891E-01 -0.6952464480119E-01 -0.8774984262972E-01
-0.2001376624416E+01 -0.3357155006496E+01 -0.2518509860141E+01 -0.1614103663906E+01
-0.1035974987571E+01 -0.3425820746579E+01 -0.2097043989732E+01 -0.1283862760577E+01
-0.4627945160450E+00 -0.3077926846758E+01 -0.1664139036297E+01 -0.8782542197039E+00
-0.1381756911572E+00 -0.2567486985875E+01 -0.1271661454980E+01 -0.5704536955368E+00
 0.8514699592084E-03 -0.2092672303081E+01 -0.9831557890738E+00 -0.3958208736746E+00
 0.3993392150735E-01 -0.1717795317178E+01 -0.7885948539651E+00 -0.3113243395628E+00
 0.4106443656861E-01 -0.1427284412823E+01 -0.6515233871872E+00 -0.2713891856536E+00
 0.3324486122350E-01 -0.1192060725573E+01 -0.5446434548626E+00 -0.2501147175766E+00
 0.2340312303780E-01 -0.9956095542024E+00 -0.4569370214884E+00 -0.2362801504885E+00
 0.1339138897189E-01 -0.8280277629799E+00 -0.3828790948127E+00 -0.2248966645244E+00
 0.3826063770373E-02 -0.6832528782738E+00 -0.3193306020066E+00 -0.2135046668172E+00
-0.4517780333452E-02 -0.5572592453802E+00 -0.2640352014157E+00 -0.2006652904681E+00
-0.1229168467418E-01 -0.4498201252379E+00 -0.2171925501078E+00 -0.1869175965205E+00
-0.2102700095350E-01 -0.3614639459746E+00 -0.1797707446002E+00 -0.1739778743700E+00
-0.3207920413909E-01 -0.2904610366296E+00 -0.1515939127768E+00 -0.1625438589081E+00
-0.4541878654365E-01 -0.2338251057862E+00 -0.1312446290621E+00 -0.1524318576621E+00
-0.5984342944480E-01 -0.1881388455202E+00 -0.1165516689379E+00 -0.1430726204171E+00
-0.7364807677750E-01 -0.1500774318365E+00 -0.1051509887819E+00 -0.1335852313456E+00
-0.8540915787384E-01 -0.1176126695874E+00 -0.9542025866476E-01 -0.1233449237898E+00
-0.9481939495963E-01 -0.9038550406134E-01 -0.8704630231907E-01 -0.1123710714668E+00
-0.1872535660578E+01 -0.3017407788446E+01 -0.2298273415212E+01 -0.1544898486670E+01
-0.1080783414438E+01 -0.3123750991987E+01 -0.1976131166008E+01 -0.1348388159281E+01
-0.5575393548117E+00 -0.2918736941819E+01 -0.1633849855272E+01 -0.1027359852036E+01
-0.2313553873992E+00 -0.2544331065992E+01 -0.1304572629785E+01 -0.7404729244727E+00
-0.6242120503688E-01 -0.2142256342462E+01 -0.1036198444696E+01 -0.5459314541384E+00
 0.6974931594189E-02 -0.1789324073761E+01 -0.8377040946936E+00 -0.4320863119759E+00
 0.2629423024404E-01 -0.1500012656947E+01 -0.6926476587935E+00 -0.3689243855237E+00
 0.2555883381530E-01 -0.1262633160389E+01 -0.5814249320150E+00 -0.3321378370636E+00
 0.1801061536664E-01 -0.1063383539473E+01 -0.4913252730840E+00 -0.3077476685620E+00
 0.8135182907262E-02 -0.8930242400945E+00 -0.4158978558231E+00 -0.2887048851933E+00
-0.2266172840312E-02 -0.7454584140405E+00 -0.3514305549426E+00 -0.2712961866476E+00
-0.1199798098390E-01 -0.6165702259697E+00 -0.2954270565189E+00 -0.2532718807888E+00
-0.2172738749159E-01 -0.5056226983039E+00 -0.2478545396952E+00 -0.2350845974194E+00
-0.3245451503250E-01 -0.4126849420043E+00 -0.2092155442767E+00 -0.2183591460607E+00
-0.4505804436653E-01 -0.3361358686785E+00 -0.1791611386767E+00 -0.2035086004637E+00
-0.5965211616892E-01 -0.2733862108902E+00 -0.1565280133208E+00 -0.1902273906141E+00
-0.7523186910605E-01 -0.2215791975995E+00 -0.1395012009978E+00 -0.1778564032255E+00
-0.9029120738176E-01 -0.1778715326055E+00 -0.1260364874743E+00 -0.1654511609019E+00
-0.1034788791856E+00 -0.1404147138449E+00 -0.1146299884336E+00 -0.1523481773406E+00
-0.1143140230330E+00 -0.1087239066820E+00 -0.1048278267001E+00 -0.1385418818531E+00
-0.1770621318928E+01 -0.2749860562054E+01 -0.2124626478673E+01 -0.1483786663043E+01
-0.1114493640631E+01 -0.2867038811626E+01 -0.1871320247814E+01 -0.1381509357078E+01
-0.6371473806415E+00 -0.2751521395827E+01 -0.1592674320901E+01 -0.1133906405813E+01
-0.3162290531334E+00 -0.2480210319100E+01 -0.1314326501616E+01 -0.8795598923623E+00
-0.1294104004302E+00 -0.2151418119020E+01 -0.1071989401423E+01 -0.6831204247989E+00
-0.3632276949515E-01 -0.1834566853505E+01 -0.8793181205800E+00 -0.5518013769117E+00
 0.1185151021631E-02 -0.1557965339643E+01 -0.7316866867964E+00 -0.4697361382474E+00
 0.1067639642383E-01 -0.1323554059400E+01 -0.6170525000339E+00 -0.4180235375378E+00
 0.7621782748481E-02 -0.1124241031155E+01 -0.5248110454200E+00 -0.3828140872471E+00
-0.7380787155342E-03 -0.9526671362946E+00 -0.4481004499182E+00 -0.3557882606813E+00
-0.1116036677991E-01 -0.8033222537326E+00 -0.3828068306699E+00 -0.3321401832224E+00
-0.2175523630128E-01 -0.6722264575704E+00 -0.3261713952924E+00 -0.3088514400120E+00
-0.3299370824166E-01 -0.5583442520832E+00 -0.2779288406478E+00 -0.2861567018606E+00
-0.4541936157408E-01 -0.4614222021842E+00 -0.2382155343622E+00 -0.2655334292188E+00
-0.5946425642995E-01 -0.3799780961940E+00 -0.2065379052094E+00 -0.2471389409668E+00
-0.7524284995595E-01 -0.3117913572623E+00 -0.1819060769312E+00 -0.2305273591047E+00
-0.9184900084156E-01 -0.2544528679984E+00 -0.1627618779419E+00 -0.2149420956198E+00
-0.1079414412832E+00 -0.2055077856162E+00 -0.1473211362691E+00 -0.1993875746492E+00
-0.1222858446488E+00 -0.1632612959407E+00 -0.1342071557366E+00 -0.1831829146187E+00
-0.1343213454928E+00 -0.1271779881781E+00 -0.1229046865136E+00 -0.1663045083564E+00
-0.1684710157624E+01 -0.2531825523802E+01 -0.1981771765244E+01 -0.1431224829137E+01
-0.1137681263767E+01 -0.2647085833293E+01 -0.1778840531106E+01 -0.1395325757512E+01
-0.7039553203712E+00 -0.2588322036675E+01 -0.1547370353887E+01 -0.1209384413540E+01
-0.3932808422814E+00 -0.2393829602736E+01 -0.1309941905836E+01 -0.9911619207427E+00
-0.1965091290667E+00 -0.2130224967910E+01 -0.1093565022805E+01 -0.8039592505465E+00
-0.8584849433916E-01 -0.1854592732676E+01 -0.9120073743840E+00 -0.6653849817644E+00
-0.3202411904485E-01 -0.1598729119429E+01 -0.7664540201385E+00 -0.5702687668195E+00
-0.1132059628843E-01 -0.1373105117178E+01 -0.6506800836788E+00 -0.5059314944869E+00
-0.8118129338120E-02 -0.1176996455471E+01 -0.5570038534473E+00 -0.4605171010742E+00
-0.1360939201172E-01 -0.1006165040507E+01 -0.4792939820683E+00 -0.4255941461020E+00
-0.2313768804410E-01 -0.8562890436330E+00 -0.4133305628399E+00 -0.3956872673514E+00
-0.3399178733667E-01 -0.7238578098616E+00 -0.3561893097798E+00 -0.3671560524691E+00
-0.4625297467178E-01 -0.6077518626066E+00 -0.3073822727412E+00 -0.3399431535439E+00
-0.6003216435844E-01 -0.5075207629261E+00 -0.2667498751471E+00 -0.3153373086156E+00
-0.7533290764826E-01 -0.4218510557495E+00 -0.2336764622043E+00 -0.2932751611110E+00
-0.9216593030046E-01 -0.3488791934462E+00 -0.2072912076352E+00 -0.2731775350218E+00
-0.1096499080478E+00 -0.2865800595487E+00 -0.1862280842980E+00 -0.2541992419022E+00
-0.1265702709604E+00 -0.2328255287422E+00 -0.1689160254318E+00 -0.2353086531124E+00
-0.1418347855725E+00 -0.1860573134786E+00 -0.1541092861632E+00 -0.2158186598401E+00
-0.1548689160171E+00 -0.1457290274799E+00 -0.1412810330852E+00 -0.1956744151239E+00
-0.1609326816410E+01 -0.2349711728690E+01 -0.1860748111477E+01 -0.1386655545852E+01
-0.1151474994041E+01 -0.2456961481418E+01 -0.1695965139164E+01 -0.1397169174721E+01
-0.7593947291265E+00 -0.2434246281773E+01 -0.1501011271315E+01 -0.1262072643692E+01
-0.4625455610446E+00 -0.2296532263423E+01 -0.1296766574211E+01 -0.1079527189042E+01
-0.2616959478868E+00 -0.2087932109614E+01 -0.1104325184224E+01 -0.9078903846226E+00
-0.1385865878669E+00 -0.1853115823627E+01 -0.9361001310276E+00 -0.7698014235387E+00
-0.7110005534097E-01 -0.1622328484882E+01 -0.7959114118861E+00 -0.6674448019791E+00
-0.3947259871453E-01 -0.1410165152556E+01 -0.6813297413692E+00 -0.5937266780353E+00
-0.2911870291784E-01 -0.1220660634739E+01 -0.5873962872086E+00 -0.5395755130425E+00
-0.3064180211028E-01 -0.1052767582162E+01 -0.5092024093166E+00 -0.4973482869626E+00
-0.3839475855618E-01 -0.9038214722133E+00 -0.4428416273384E+00 -0.4614410460016E+00
-0.4887146424663E-01 -0.7710872970848E+00 -0.3853806168483E+00 -0.4278370921032E+00
-0.6164343922371E-01 -0.6535825828101E+00 -0.3361562295033E+00 -0.3961848663395E+00
-0.7639328581601E-01 -0.5507880956139E+00 -0.2947752485244E+00 -0.3675682942728E+00
-0.9270709160064E-01 -0.4615942744893E+00 -0.2605216414015E+00 -0.3417449942214E+00
-0.1104143750546E+00 -0.3844933688054E+00 -0.2326066390242E+00 -0.3180266328846E+00
-0.1285991424391E+00 -0.3178078356572E+00 -0.2098112791731E+00 -0.2955016579290E+00
-0.1461384988888E+00 -0.2596984449956E+00 -0.1907433631419E+00 -0.2731239491230E+00
-0.1620966751968E+00 -0.2087283848759E+00 -0.1742877777921E+00 -0.2502098453045E+00
-0.1759476935577E+00 -0.1643595551346E+00 -0.1599444064797E+00 -0.2266480569675E+00
-0.1541472384950E+01 -0.2194724073784E+01 -0.1756012331151E+01 -0.1349194980109E+01
-0.1157238986244E+01 -0.2291303151306E+01 -0.1620814800538E+01 -0.1391659630568E+01
-0.8046017507688E+00 -0.2291175104247E+01 -0.1455015118167E+01 -0.1297972888157E+01
-0.5240718038601E+00 -0.2195244451028E+01 -0.1278078636556E+01 -0.1148698723335E+01
-0.3236198743079E+00 -0.2031759075682E+01 -0.1107028103687E+01 -0.9957851947173E+00
-0.1923699003878E+00 -0.1834594680706E+01 -0.9526733506977E+00 -0.8636054675949E+00
-0.1140255475811E+00 -0.1630289658999E+01 -0.8198281450133E+00 -0.7590292433747E+00
-0.7252492884562E-01 -0.1434645095308E+01 -0.7083699095554E+00 -0.6794203515636E+00
-0.5485305399348E-01 -0.1254644639106E+01 -0.6154639141959E+00 -0.6185596809924E+00
-0.5173137520648E-01 -0.1091888889097E+01 -0.5375015228593E+00 -0.5700982253177E+00
-0.5698251435424E-01 -0.9454450762721E+00 -0.4711409663994E+00 -0.5287626197317E+00
-0.6648358342422E-01 -0.8135591793428E+00 -0.4136200974514E+00 -0.4904437409432E+00
-0.7925998699020E-01 -0.6955708216379E+00 -0.3641704791316E+00 -0.4545525514623E+00
-0.9458019573558E-01 -0.5910190511067E+00 -0.3222316451986E+00 -0.4219801781019E+00
-0.1116259723990E+00 -0.4990380348510E+00 -0.2870120826795E+00 -0.3923548156245E+00
-0.1299882565358E+00 -0.4184808062165E+00 -0.2577804588398E+00 -0.3649156657541E+00
-0.1486674723042E+00 -0.3479990007602E+00 -0.2334332417482E+00 -0.3387182833567E+00
-0.1665997451980E+00 -0.2860199598776E+00 -0.2127312608459E+00 -0.3127327239692E+00
-0.1830178986000E+00 -0.2312145843172E+00 -0.1946892664773E+00 -0.2862946026411E+00
-0.1975170140478E+00 -0.1830531503434E+00 -0.1788679768102E+00 -0.2592060821554E+00
-0.1479401759370E+01 -0.2060863630128E+01 -0.1663924728844E+01 -0.1317901027965E+01
-0.1156326122227E+01 -0.2145933112480E+01 -0.1552061836376E+01 -0.1381783827067E+01
-0.8406415709661E+00 -0.2159493665466E+01 -0.1410063557547E+01 -0.1321480997141E+01
-0.5780066582398E+00 -0.2094165377055E+01 -0.1255920853403E+01 -0.1202211222771E+01
-0.3813775217584E+00 -0.1967063625147E+01 -0.1103767336246E+01 -0.1069145573763E+01
-0.2455859672055E+00 -0.1803232356623E+01 -0.9629446097570E+00 -0.9464183298982E+00
-0.1590928435484E+00 -0.1624876726962E+01 -0.8384656960132E+00 -0.8436166909148E+00
-0.1091595053536E+00 -0.1447280720113E+01 -0.7315269041137E+00 -0.7613998957598E+00
-0.8454090663052E-01 -0.1278896244167E+01 -0.6408154592494E+00 -0.6960909815045E+00
-0.7651791119460E-01 -0.1123209197190E+01 -0.5638717395104E+00 -0.6428067561484E+00
-0.7877827232171E-01 -0.9808137959269E+00 -0.4980082708137E+00 -0.5969046474459E+00
-0.8681017285755E-01 -0.8509762695646E+00 -0.4407596268205E+00 -0.5544324254630E+00
-0.9913189054935E-01 -0.7334763868441E+00 -0.3913258893824E+00 -0.5146479629812E+00
-0.1146325446455E+00 -0.6280180991360E+00 -0.3490458016920E+00 -0.4782809196526E+00
-0.1321131948126E+00 -0.5340169295829E+00 -0.3130811576718E+00 -0.4448851551116E+00
-0.1508867721419E+00 -0.4506941482729E+00 -0.2827430318778E+00 -0.4136724333427E+00
-0.1698292161618E+00 -0.3770248671962E+00 -0.2570214185263E+00 -0.3837079684778E+00
-0.1879040043556E+00 -0.3116930272179E+00 -0.2348106042440E+00 -0.3540197135792E+00
-0.2045249738306E+00 -0.2534635584776E+00 -0.2152546096389E+00 -0.3239920537271E+00
-0.2195068405808E+00 -0.2017949396094E+00 -0.1980118361872E+00 -0.2933139842991E+00
-0.1422038593133E+01 -0.1943863714456E+01 -0.1581974080555E+01 -0.1291882712836E+01
-0.1149978474246E+01 -0.2017562073451E+01 -0.1488744053642E+01 -0.1369499784017E+01
-0.8685393229815E+00 -0.2038878469608E+01 -0.1366486359051E+01 -0.1335849271688E+01
-0.6246199853302E+00 -0.1995814942550E+01 -0.1231604412980E+01 -0.1243044822141E+01
-0.4343894015054E+00 -0.1897718877836E+01 -0.1096090888510E+01 -0.1129681742859E+01
-0.2970331630537E+00 -0.1762636249738E+01 -0.9680446215569E+00 -0.1018520210977E+01
-0.2048852734662E+00 -0.1608550826147E+01 -0.8523149646564E+00 -0.9204779591028E+00
-0.1481219087137E+00 -0.1449331524221E+01 -0.7508031115752E+00 -0.8384946790039E+00
-0.1172814680829E+00 -0.1293843400095E+01 -0.6632286863615E+00 -0.7709758351833E+00
-0.1044550960275E+00 -0.1146727830426E+01 -0.5880559739416E+00 -0.7144560520687E+00
-0.1034907735730E+00 -0.1009763105321E+01 -0.5232293217529E+00 -0.6650668926010E+00
-0.1097095211422E+00 -0.8831403140285E+00 -0.4666394213467E+00 -0.6191905743356E+00
-0.1212036650165E+00 -0.7671137364819E+00 -0.4175091776453E+00 -0.5760119761772E+00
-0.1365366449106E+00 -0.6616214451890E+00 -0.3751343013953E+00 -0.5361343255231E+00
-0.1541652451566E+00 -0.5663845198993E+00 -0.3386583887173E+00 -0.4990900121403E+00
-0.1731012613495E+00 -0.4809970327742E+00 -0.3074261974584E+00 -0.4641103762848E+00
-0.1920611071193E+00 -0.4047615768219E+00 -0.2805066607409E+00 -0.4303181787936E+00
-0.2100016315333E+00 -0.3366213596088E+00 -0.2569128051852E+00 -0.3968527209705E+00
-0.2265282915928E+00 -0.2754236104624E+00 -0.2359173933676E+00 -0.3631985010018E+00
-0.2418155769152E+00 -0.2205702572774E+00 -0.2173213415193E+00 -0.3289205079065E+00
-0.1368680426524E+01 -0.1840586310539E+01 -0.1508355362594E+01 -0.1270340035146E+01
-0.1139289263062E+01 -0.1903565584549E+01 -0.1430141774750E+01 -0.1356096011761E+01
-0.8892728023707E+00 -0.1928683089887E+01 -0.1324439266002E+01 -0.1343503405970E+01
-0.6642847201406E+00 -0.1901662906913E+01 -0.1205995381656E+01 -0.1273668634558E+01
-0.4823255695836E+00 -0.1826483618407E+01 -0.1085140315603E+01 -0.1179097114910E+01
-0.3458274658093E+00 -0.1715754483830E+01 -0.9689435138730E+00 -0.1080568463811E+01
-0.2502482765696E+00 -0.1583672214469E+01 -0.8619426286017E+00 -0.9893850327074E+00
-0.1882762198299E+00 -0.1442309842145E+01 -0.7663754471845E+00 -0.9099491281716E+00
-0.1521468026601E+00 -0.1300265860336E+01 -0.6826339498769E+00 -0.8422684465672E+00
-0.1348821064755E+00 -0.1162742907196E+01 -0.6098837548788E+00 -0.7841277226944E+00
-0.1306919605914E+00 -0.1032334583452E+01 -0.5466224743139E+00 -0.7324560529488E+00
-0.1349177706166E+00 -0.9099824437459E+00 -0.4911030995048E+00 -0.6840702435329E+00
-0.1453242425079E+00 -0.7963787479605E+00 -0.4426004043976E+00 -0.6381398371444E+00
-0.1602119951108E+00 -0.6917191188904E+00 -0.4004076225650E+00 -0.5951659761904E+00
-0.1777398572497E+00 -0.5960300952137E+00 -0.3636718767354E+00 -0.5546997487608E+00
-0.1966087149270E+00 -0.5092732795304E+00 -0.3317645365535E+00 -0.5160317066320E+00
-0.2153423738604E+00 -0.4310895017212E+00 -0.3038229807528E+00 -0.4783882541546E+00
-0.2328494527266E+00 -0.3607011306928E+00 -0.2789687734995E+00 -0.4410831037390E+00
-0.2489265229511E+00 -0.2970346878956E+00 -0.2566017684471E+00 -0.4037828658173E+00
-0.2643032851145E+00 -0.2393614299358E+00 -0.2367224154732E+00 -0.3659536598345E+00
-0.1318840997091E+01 -0.1748658005188E+01 -0.1441724527414E+01 -0.1252573397190E+01
-0.1125196978378E+01 -0.1801821835882E+01 -0.1375698839213E+01 -0.1342414276287E+01
-0.9037583617731E+00 -0.1828131150436E+01 -0.1283988067481E+01 -0.1346262235869E+01
-0.6974470608813E+00 -0.1812514968711E+01 -0.1179682150916E+01 -0.1296109479176E+01
-0.5250482760730E+00 -0.1755298302300E+01 -0.1071762889117E+01 -0.1218984706354E+01
-0.3913378501546E+00 -0.1664928231831E+01 -0.9664450560820E+00 -0.1133413250999E+01
-0.2942577920586E+00 -0.1552357795796E+01 -0.8679093240905E+00 -0.1050458071079E+01
-0.2286274014737E+00 -0.1427788343662E+01 -0.7785153982393E+00 -0.9753566442298E+00
-0.1882402959290E+00 -0.1299156662274E+01 -0.6990765685824E+00 -0.9092813500323E+00
-0.1670845799361E+00 -0.1171790041824E+01 -0.6292710706310E+00 -0.8510500258756E+00
-0.1598572297842E+00 -0.1048766172874E+01 -0.5680529978086E+00 -0.7983352440226E+00
-0.1620649687840E+00 -0.9315755525693E+00 -0.5140110437323E+00 -0.7484235116870E+00
-0.1712457179531E+00 -0.8212670266963E+00 -0.4664809888020E+00 -0.7005004563348E+00
-0.1855010891053E+00 -0.7182742652491E+00 -0.4247744154692E+00 -0.6549718784072E+00
-0.2027449789258E+00 -0.6228984186207E+00 -0.3880523958626E+00 -0.6114264658755E+00
-0.2213649042223E+00 -0.5354417853266E+00 -0.3556991431858E+00 -0.5692346913689E+00
-0.2396564767012E+00 -0.4558979348400E+00 -0.3269105725952E+00 -0.5277587209492E+00
-0.2564201868563E+00 -0.3838120570343E+00 -0.3009091538654E+00 -0.4865514069570E+00
-0.2716146324002E+00 -0.3182148454425E+00 -0.2772198538829E+00 -0.4455821591651E+00
-0.2867786040040E+00 -0.2581405487955E+00 -0.2561120011662E+00 -0.4043134236704E+00
-0.1272162499273E+01 -0.1666239732199E+01 -0.1381049045289E+01 -0.1237979836499E+01
-0.1108494094038E+01 -0.1710593362648E+01 -0.1324971101282E+01 -0.1328992478475E+01
-0.9128405726719E+00 -0.1736414807999E+01 -0.1245150025757E+01 -0.1345492350032E+01
-0.7245971258846E+00 -0.1728753585913E+01 -0.1153074831620E+01 -0.1312021554508E+01
-0.5625655675961E+00 -0.1685507912080E+01 -0.1056594532768E+01 -0.1250783001115E+01
-0.4331362842879E+00 -0.1611980660182E+01 -0.9612049614628E+00 -0.1177981112995E+01
-0.3361903545185E+00 -0.1516430193761E+01 -0.8707316554830E+00 -0.1104045365111E+01
-0.2683262846902E+00 -0.1407278724332E+01 -0.7875343522431E+00 -0.1034584422927E+01
-0.2247318117664E+00 -0.1291605390618E+01 -0.7126784833130E+00 -0.9715654515875E+00
-0.2003411731137E+00 -0.1174567196597E+01 -0.6462069321248E+00 -0.9146164461550E+00
-0.1904053999786E+00 -0.1059458899093E+01 -0.5874362190738E+00 -0.8620574348539E+00
-0.1906997340409E+00 -0.9481273087707E+00 -0.5352487087639E+00 -0.8116330218014E+00
-0.1986294402899E+00 -0.8418776061955E+00 -0.4890383106077E+00 -0.7625552019340E+00
-0.2121633079919E+00 -0.7413360907138E+00 -0.4481447162550E+00 -0.7151263112771E+00
-0.2290250023690E+00 -0.6470093973543E+00 -0.4117361668257E+00 -0.6689683529580E+00
-0.2472977056392E+00 -0.5594836152380E+00 -0.3791872198505E+00 -0.6235238118891E+00
-0.2649927050427E+00 -0.4790990115225E+00 -0.3497231058986E+00 -0.5782889017008E+00
-0.2807186767875E+00 -0.4058107792859E+00 -0.3226688435361E+00 -0.5331028592663E+00
-0.2944985905227E+00 -0.3388359580009E+00 -0.2976672370511E+00 -0.4883991914293E+00
-0.3089767243786E+00 -0.2768536707754E+00 -0.2753402850240E+00 -0.4438591212918E+00
-0.1228364470950E+01 -0.1591874004025E+01 -0.1325512079876E+01 -0.1226044002719E+01
-0.1089842303159E+01 -0.1628440136024E+01 -0.1277592743175E+01 -0.1316158404596E+01
-0.9172866552687E+00 -0.1652744833321E+01 -0.1207914796573E+01 -0.1342218358688E+01
-0.7462447091554E+00 -0.1650492162823E+01 -0.1126466326973E+01 -0.1322748791277E+01
-0.5949927440870E+00 -0.1618025207029E+01 -0.1040118434387E+01 -0.1275763193881E+01
-0.4709572854408E+00 -0.1558309571043E+01 -0.9537554201285E+00 -0.1215203750118E+01
-0.3754951326765E+00 -0.1477415347608E+01 -0.8708679235248E+00 -0.1150634415346E+01
-0.3066655085723E+00 -0.1382163786929E+01 -0.7937497668721E+00 -0.1087703543844E+01
-0.2608770885895E+00 -0.1278711205725E+01 -0.7236064964927E+00 -0.1028875731096E+01
-0.2339570039716E+00 -0.1171863297037E+01 -0.6607355397982E+00 -0.9743840100889E+00
-0.2217344023410E+00 -0.1064933036530E+01 -0.6047336947356E+00 -0.9230833156964E+00
-0.2203178007045E+00 -0.9599582942950E+00 -0.5547297632428E+00 -0.8731349855403E+00
-0.2270627549500E+00 -0.8584037450935E+00 -0.5101692537265E+00 -0.8237740000924E+00
-0.2398652945468E+00 -0.7610311531079E+00 -0.4704213292045E+00 -0.7751838923907E+00
-0.2563477752980E+00 -0.6684798693749E+00 -0.4346689918938E+00 -0.7270061227059E+00
-0.2742853888160E+00 -0.5814759435377E+00 -0.4022078251861E+00 -0.6787161873014E+00
-0.2913578069855E+00 -0.5006790576661E+00 -0.3722573254421E+00 -0.6298855504996E+00
-0.3058001709764E+00 -0.4265254998427E+00 -0.3441930644120E+00 -0.5806223956350E+00
-0.3175289596717E+00 -0.3586854817815E+00 -0.3178207866769E+00 -0.5320089793596E+00
-0.3305197256457E+00 -0.2953792111094E+00 -0.2941724995287E+00 -0.4843879661048E+00
-0.1187213674981E+01 -0.1524379434903E+01 -0.1274448758413E+01 -0.1216327806087E+01
-0.1069787320278E+01 -0.1554151440948E+01 -0.1233251214648E+01 -0.1304091330991E+01
-0.9177882465015E+00 -0.1576380177709E+01 -0.1172259156406E+01 -0.1337202167372E+01
-0.7628981621517E+00 -0.1577674012874E+01 -0.1100068919472E+01 -0.1329378188885E+01
-0.6225222174267E+00 -0.1553451384078E+01 -0.1022707590113E+01 -0.1295032782037E+01
-0.5046628845065E+00 -0.1504968979634E+01 -0.9445269737502E+00 -0.1245976316780E+01
-0.4117691478867E+00 -0.1436564658076E+01 -0.8687168865989E+00 -0.1190788411110E+01
-0.3430703411973E+00 -0.1353665015811E+01 -0.7974656157714E+00 -0.1134929931897E+01
-0.2960268384080E+00 -0.1261523512879E+01 -0.7320486632484E+00 -0.1081132780913E+01
-0.2672859820994E+00 -0.1164498272053E+01 -0.6729385977450E+00 -0.1030059148962E+01
-0.2532501385382E+00 -0.1065783215126E+01 -0.6199456746497E+00 -0.9809865779619E+00
-0.2503931105082E+00 -0.9674748397849E+00 -0.5723979351860E+00 -0.9324351319366E+00
-0.2560831226847E+00 -0.8711112965926E+00 -0.5297813757166E+00 -0.8836502787100E+00
-0.2681980143355E+00 -0.7775469656461E+00 -0.4915001393447E+00 -0.8346790619401E+00
-0.2843400514563E+00 -0.6874745963996E+00 -0.4567528833338E+00 -0.7851749614516E+00
-0.3021559264573E+00 -0.6016871526034E+00 -0.4248062460811E+00 -0.7346280612740E+00
-0.3187391857434E+00 -0.5207652263554E+00 -0.3945670726856E+00 -0.6825352343289E+00
-0.3318518531070E+00 -0.4458488251346E+00 -0.3655193178465E+00 -0.6291116867019E+00
-0.3407325891771E+00 -0.3773580153098E+00 -0.3375025832529E+00 -0.5761947147085E+00
-0.3508571913749E+00 -0.3134349641894E+00 -0.3122173123233E+00 -0.5255957608779E+00
-0.1148487082765E+01 -0.1462752309769E+01 -0.1227282511378E+01 -0.1208457434017E+01
-0.1048788903301E+01 -0.1486710913256E+01 -0.1191684910759E+01 -0.1292860076412E+01
-0.9149525319208E+00 -0.1506632592980E+01 -0.1138145005817E+01 -0.1330999746516E+01
-0.7750615897450E+00 -0.1510155648437E+01 -0.1074052099221E+01 -0.1332785313213E+01
-0.6453881260506E+00 -0.1492150926610E+01 -0.1004643352202E+01 -0.1309548436042E+01
-0.5342180125497E+00 -0.1452742649903E+01 -0.9338715089841E+00 -0.1271133752317E+01
-0.4447335070654E+00 -0.1394885878856E+01 -0.8646211091901E+00 -0.1225102424174E+01
-0.3770881200992E+00 -0.1322833551497E+01 -0.7989631836239E+00 -0.1176577487996E+01
-0.3296286314237E+00 -0.1241003514658E+01 -0.7381971067859E+00 -0.1128385978663E+01
-0.2997445647667E+00 -0.1153276244685E+01 -0.6829197787099E+00 -0.1081476912514E+01
-0.2843870131909E+00 -0.1062637420252E+01 -0.6331014821123E+00 -0.1035449471350E+01
-0.2804039507567E+00 -0.9711414288036E+00 -0.5882263269014E+00 -0.9891181776983E+00
-0.2852174554373E+00 -0.8803237822069E+00 -0.5478043803033E+00 -0.9417188064468E+00
-0.2967035126019E+00 -0.7910913905738E+00 -0.5112636031958E+00 -0.8931358655413E+00
-0.3125425550386E+00 -0.7041821621862E+00 -0.4778606158836E+00 -0.8430322652397E+00
-0.3303560617207E+00 -0.6203253079109E+00 -0.4468202425936E+00 -0.7909556487784E+00
-0.3473289816247E+00 -0.5401635689342E+00 -0.4171214977047E+00 -0.7363163767631E+00
-0.3590931935517E+00 -0.4637553446620E+00 -0.3867388119795E+00 -0.6788391411134E+00
-0.3644822869118E+00 -0.3943166156562E+00 -0.3566354833024E+00 -0.6208809479948E+00
-0.3690468916630E+00 -0.3301714228408E+00 -0.3286326069833E+00 -0.5670254998454E+00
-0.1112007458698E+01 -0.1406147202534E+01 -0.1183532687777E+01 -0.1202121344482E+01
-0.1027142544648E+01 -0.1425147223275E+01 -0.1152576188000E+01 -0.1282432057095E+01
-0.9094164418700E+00 -0.1443022885453E+01 -0.1105646481037E+01 -0.1323999935720E+01
-0.7831522050240E+00 -0.1447674065230E+01 -0.1048488344360E+01 -0.1333684521219E+01
-0.6638695738271E+00 -0.1434333651407E+01 -0.9861555133588E+00 -0.1320127527344E+01
-0.5596607906242E+00 -0.1402196543170E+01 -0.9220729445447E+00 -0.1291439368704E+01
-0.4742147477772E+00 -0.1353179963977E+01 -0.8588755123462E+00 -0.1254173899318E+01
-0.4083762993087E+00 -0.1290554604508E+01 -0.7984975227684E+00 -0.1213022986277E+01
-0.3612276212115E+00 -0.1218003296658E+01 -0.7422385295161E+00 -0.1170782061034E+01
-0.3308154333578E+00 -0.1138944505824E+01 -0.6907871696632E+00 -0.1128577129595E+01
-0.3146222742509E+00 -0.1056124080751E+01 -0.6442507852169E+00 -0.1086250355477E+01
-0.3098491102816E+00 -0.9714560001367E+00 -0.6022134003691E+00 -0.1042849392731E+01
-0.3140073837932E+00 -0.8864097142807E+00 -0.5641960346637E+00 -0.9975747715509E+00
-0.3249608680334E+00 -0.8019037150572E+00 -0.5296263527092E+00 -0.9501039377831E+00
-0.3404416081830E+00 -0.7186904852791E+00 -0.4977920826646E+00 -0.9000779013327E+00
-0.3582933530063E+00 -0.6375867673392E+00 -0.4680636553752E+00 -0.8471629199964E+00
-0.3757305261068E+00 -0.5589270222422E+00 -0.4392890466098E+00 -0.7909040515626E+00
-0.3898669361440E+00 -0.4835342968747E+00 -0.4104985784776E+00 -0.7306783634065E+00
-0.3887572606548E+00 -0.4076153794668E+00 -0.3742951399078E+00 -0.6666799888337E+00
-0.3836839513078E+00 -0.3435075766050E+00 -0.3417800172521E+00 -0.6078977403189E+00
-0.1076512989451E+01 -0.1352542960787E+01 -0.1141656293716E+01 -0.1196881199520E+01
-0.1005902432432E+01 -0.1369668286627E+01 -0.1116518235126E+01 -0.1272578815171E+01
-0.9013483850218E+00 -0.1384785925126E+01 -0.1074483123044E+01 -0.1316541865320E+01
-0.7876438144480E+00 -0.1389999317872E+01 -0.1023492269594E+01 -0.1332645139356E+01
-0.6782384030426E+00 -0.1380065655156E+01 -0.9674029048997E+00 -0.1327463717612E+01
-0.5810923569385E+00 -0.1353735865747E+01 -0.9093692623555E+00 -0.1307578905779E+01
-0.5001234024748E+00 -0.1312074232061E+01 -0.8517328860713E+00 -0.1278583840644E+01
-0.4366919425128E+00 -0.1257562558087E+01 -0.7962996132621E+00 -0.1244681351460E+01
-0.3904656824778E+00 -0.1193256601106E+01 -0.7443494713966E+00 -0.1208541645451E+01
-0.3600608670671E+00 -0.1122167696163E+01 -0.6966474229511E+00 -0.1171383686405E+01
-0.3434564736704E+00 -0.1046809434907E+01 -0.6534249753740E+00 -0.1133239727306E+01
-0.3382723260573E+00 -0.9689589080646E+00 -0.6143986784789E+00 -0.1093364718159E+01
-0.3420166142504E+00 -0.8897791685350E+00 -0.5789440164407E+00 -0.1050887086287E+01
-0.3525835053928E+00 -0.8102413132052E+00 -0.5465276633548E+00 -0.1005204378170E+01
-0.3677387127480E+00 -0.7311314359259E+00 -0.5164689685668E+00 -0.9558648057827E+00
-0.3852893591282E+00 -0.6532011641761E+00 -0.4880905447150E+00 -0.9026249932404E+00
-0.4032374006915E+00 -0.5772841325212E+00 -0.4608451194411E+00 -0.8452922317082E+00
-0.4183786037263E+00 -0.5030836197239E+00 -0.4330872439231E+00 -0.7837592239755E+00
-0.4287028561897E+00 -0.4338835643150E+00 -0.4054156166090E+00 -0.7175588963334E+00
-0.3842312133237E+00 -0.3362082733812E+00 -0.3386065578925E+00 -0.6483359896590E+00
-0.9194454395249E-01 -0.1345297572690E+00 -0.1064429213041E+00 -0.8475746578649E+00
-0.1011487961419E-01 -0.1699411218943E+00 -0.8462632049434E-01 -0.9662743809560E+00
 0.1784377375187E-01 -0.2003377208667E+00 -0.8577215492641E-01 -0.1064914424708E+01
 0.1302606952076E-01 -0.2327935194889E+00 -0.1032907012230E+00 -0.1144847029778E+01
-0.1300771146640E-01 -0.2723427491062E+00 -0.1341147161289E+00 -0.1210158458986E+01
-0.5316174017684E-01 -0.3204294577853E+00 -0.1755878625969E+00 -0.1265370481348E+01
-0.1038759786410E+00 -0.3761813136594E+00 -0.2256269268089E+00 -0.1314513065340E+01
-0.1639321898453E+00 -0.4369708947754E+00 -0.2824244490554E+00 -0.1360588352795E+01
-0.2336899373255E+00 -0.4990902762267E+00 -0.3444066994960E+00 -0.1405216993101E+01
-0.3142636942143E+00 -0.5583669222749E+00 -0.4101363887097E+00 -0.1448505236963E+01
-0.4068970016855E+00 -0.6110109220447E+00 -0.4784167229397E+00 -0.1488869892378E+01
-0.5119765475872E+00 -0.6544579495462E+00 -0.5482242122622E+00 -0.1523499124886E+01
-0.6285319286723E+00 -0.6879905205017E+00 -0.6187655495424E+00 -0.1549436877018E+01
-0.7545700756715E+00 -0.7118886082880E+00 -0.6892355797128E+00 -0.1564195534733E+01
-0.8872325860171E+00 -0.7269615591771E+00 -0.7586712463170E+00 -0.1566035312365E+01
-0.1023088843473E+01 -0.7344687599604E+00 -0.8260520715187E+00 -0.1554010784172E+01
-0.1158245916660E+01 -0.7352923457493E+00 -0.8899629810751E+00 -0.1527685823212E+01
-0.1291283521359E+01 -0.7323473152240E+00 -0.9511064907815E+00 -0.1486711780510E+01
-0.1419518859693E+01 -0.7221730590568E+00 -0.1006595199259E+01 -0.1429245110496E+01
-0.1636129706489E+01 -0.7730942219850E+00 -0.1132335243511E+01 -0.1353966469274E+01
-0.4097270955266E-01 -0.6997580716053E-01 -0.5214580272294E-01 -0.8307777591556E+00
 0.3473771600065E-01 -0.1042512291264E+00 -0.3267135108622E-01 -0.9569919804395E+00
 0.5569857593574E-01 -0.1329026055704E+00 -0.3628589383627E-01 -0.1057453101076E+01
 0.4299853208189E-01 -0.1665297499777E+00 -0.5805967226379E-01 -0.1135831822494E+01
 0.1014018983311E-01 -0.2098621372632E+00 -0.9386931505407E-01 -0.1197839529567E+01
-0.3555507011373E-01 -0.2642171116435E+00 -0.1408929250685E+00 -0.1249345270467E+01
-0.9063418598751E-01 -0.3281960317534E+00 -0.1968502018389E+00 -0.1295362129883E+01
-0.1543279465952E+00 -0.3985975013355E+00 -0.2598749598683E+00 -0.1339544905977E+01
-0.2275926106015E+00 -0.4711084246250E+00 -0.3283894857235E+00 -0.1383844283622E+01
-0.3122946460862E+00 -0.5410509779600E+00 -0.4010724422844E+00 -0.1428368819662E+01
-0.4103968390716E+00 -0.6041032460454E+00 -0.4768150387956E+00 -0.1471088459801E+01
-0.5226133853548E+00 -0.6572595998588E+00 -0.5545403016439E+00 -0.1508412968651E+01
-0.6479934749642E+00 -0.6999608239848E+00 -0.6335385188991E+00 -0.1536668585967E+01
-0.7839397375919E+00 -0.7324217886367E+00 -0.7126899155198E+00 -0.1552830415839E+01
-0.9266411616626E+00 -0.7552364553184E+00 -0.7904824779761E+00 -0.1554825707317E+01
-0.1071707695708E+01 -0.7695537353898E+00 -0.8653928704211E+00 -0.1541530286195E+01
-0.1215974228488E+01 -0.7771048717382E+00 -0.9367471747305E+00 -0.1512252230643E+01
-0.1357634038983E+01 -0.7788538637033E+00 -0.1004149311716E+01 -0.1465820789540E+01
-0.1514939428508E+01 -0.7849777983614E+00 -0.1080961093887E+01 -0.1401580224611E+01
-0.1666395819869E+01 -0.7734636087939E+00 -0.1146733928563E+01 -0.1335406194669E+01
 0.1246134172253E-01 -0.8810129069986E-03  0.5442754529493E-02 -0.8146768171517E+00
 0.8113216284821E-01 -0.3171748566718E-01  0.2322489821617E-01 -0.9481630566223E+00
 0.9264589611590E-01 -0.5904411414503E-01  0.1579283748625E-01 -0.1049626081988E+01
 0.7111778981949E-01 -0.9404908156451E-01 -0.1077770709282E-01 -0.1125175787724E+01
 0.3090086485229E-01 -0.1420081099962E+00 -0.5222040508518E-01 -0.1182654161892E+01
-0.2032750583564E-01 -0.2037526044403E+00 -0.1053176515626E+00 -0.1229443944662E+01
-0.7943013964406E-01 -0.2772721057588E+00 -0.1676500549141E+00 -0.1271617828963E+01
-0.1462213896350E+00 -0.3586663432253E+00 -0.2372972338425E+00 -0.1313493963878E+01
-0.2224443746161E+00 -0.4429663408374E+00 -0.3127430354699E+00 -0.1357331245992E+01
-0.3108540326870E+00 -0.5248823737330E+00 -0.3927961100211E+00 -0.1403215562736E+01
-0.4142996753274E+00 -0.5995129803074E+00 -0.4764919469398E+00 -0.1448565253166E+01
-0.5340169590481E+00 -0.6634969595993E+00 -0.5628315403367E+00 -0.1488802812308E+01
-0.6688959577547E+00 -0.7162764241848E+00 -0.6510310178603E+00 -0.1519416696040E+01
-0.8156152817787E+00 -0.7580520132871E+00 -0.7396236268050E+00 -0.1536852474776E+01
-0.9693192860695E+00 -0.7892122479630E+00 -0.8265098188989E+00 -0.1538716505825E+01
-0.1125019956587E+01 -0.8108645401528E+00 -0.9098657111598E+00 -0.1523783910735E+01
-0.1279094028572E+01 -0.8239500389560E+00 -0.9884307092311E+00 -0.1491440325769E+01
-0.1432831959347E+01 -0.8305410184786E+00 -0.1063785296880E+01 -0.1441632872328E+01
-0.1583966159454E+01 -0.8260633466703E+00 -0.1132713865006E+01 -0.1378917510176E+01
-0.1719148234768E+01 -0.8130594030109E+00 -0.1190137586738E+01 -0.1313444032959E+01
 0.6919101892708E-01  0.7415063516802E-01  0.6737057725382E-01 -0.7996489275708E+00
 0.1282745268756E+00  0.4763858059181E-01  0.8267916029996E-01 -0.9399661001938E+00
 0.1284993202263E+00  0.2202966954202E-01  0.7074862501166E-01 -0.1041205048661E+01
 0.9689347603223E-01 -0.1496477188362E-01  0.3850649085218E-01 -0.1112472217357E+01
 0.4892684435143E-01 -0.6855779323428E-01 -0.9226545951538E-02 -0.1164058585074E+01
-0.7712265003857E-02 -0.1390315459240E+00 -0.6896959096116E-01 -0.1205066275057E+01
-0.7034924174765E-01 -0.2235522766091E+00 -0.1381337132773E+00 -0.1242682098521E+01
-0.1395790231162E+00 -0.3174174919323E+00 -0.2147883615280E+00 -0.1281879505954E+01
-0.2181042858420E+00 -0.4149252264939E+00 -0.2975238700432E+00 -0.1325195873130E+01
-0.3097573547761E+00 -0.5101276505946E+00 -0.3853459515468E+00 -0.1372658995530E+01
-0.4185002409824E+00 -0.5975066613178E+00 -0.4775232428699E+00 -0.1420994092271E+01
-0.5461729508324E+00 -0.6733072804562E+00 -0.5731557072519E+00 -0.1464415123631E+01
-0.6914164751767E+00 -0.7370040349702E+00 -0.6713576380662E+00 -0.1497438953699E+01
-0.8499659566406E+00 -0.7887703045134E+00 -0.7702060407889E+00 -0.1516006760796E+01
-0.1015789209207E+01 -0.8287675390784E+00 -0.8669416694951E+00 -0.1517553024189E+01
-0.1182780755338E+01 -0.8576091812747E+00 -0.9589832677754E+00 -0.1501063489372E+01
-0.1346928515034E+01 -0.8758460296760E+00 -0.1044704033364E+01 -0.1466643762524E+01
-0.1505215289490E+01 -0.8827071408919E+00 -0.1122323539433E+01 -0.1415983791116E+01
-0.1653739186034E+01 -0.8778395287156E+00 -0.1189841992914E+01 -0.1353904623982E+01
-0.1777311639366E+01 -0.8641303353593E+00 -0.1241477724972E+01 -0.1286598756065E+01
 0.1293285478601E+00  0.1557579194453E+00  0.1339906392937E+00 -0.7860035203372E+00
 0.1758904079616E+00  0.1346139520358E+00  0.1459370488286E+00 -0.9324778402334E+00
 0.1627012488162E+00  0.1108426346897E+00  0.1285656249217E+00 -0.1031942244852E+01
 0.1198865225928E+00  0.7115039077090E-01  0.8978734905320E-01 -0.1097215652995E+01
 0.6384742807267E-01  0.1061712131527E-01  0.3499833812356E-01 -0.1141427660312E+01
 0.2087251660351E-02 -0.7014020221661E-01 -0.3198488668032E-01 -0.1175558628556E+01
-0.6343823629836E-01 -0.1672732956221E+00 -0.1084344197276E+00 -0.1207940237734E+01
-0.1343073594354E+00 -0.2751509757418E+00 -0.1924454170452E+00 -0.1244163285944E+01
-0.2143820582368E+00 -0.3872905367415E+00 -0.2827861189225E+00 -0.1286996364297E+01
-0.3087854019343E+00 -0.4970630740181E+00 -0.3787487827369E+00 -0.1336368354375E+01
-0.4228366644202E+00 -0.5982894855175E+00 -0.4799292892534E+00 -0.1388145372568E+01
-0.5590734517371E+00 -0.6868106661283E+00 -0.5855655339115E+00 -0.1435072409974E+01
-0.7157225872706E+00 -0.7621748309420E+00 -0.6946117847981E+00 -0.1470560238875E+01
-0.8872715912065E+00 -0.8245509930105E+00 -0.8045566125413E+00 -0.1490134754853E+01
-0.1066089855501E+01 -0.8737620400861E+00 -0.9117303886132E+00 -0.1491301854737E+01
-0.1244633671469E+01 -0.9099704994275E+00 -0.1012663957753E+01 -0.1473578844491E+01
-0.1417053961249E+01 -0.9328367378990E+00 -0.1104448625798E+01 -0.1437969368491E+01
-0.1578929345066E+01 -0.9421310637197E+00 -0.1184898389124E+01 -0.1386851531351E+01
-0.1724289691152E+01 -0.9383880001245E+00 -0.1251458511726E+01 -0.1324589135562E+01
-0.1839260669131E+01 -0.9244194618668E+00 -0.1298929658274E+01 -0.1255132120293E+01
 0.1930203514375E+00  0.2447013464417E+00  0.2057291974814E+00 -0.7741063646211E+00
 0.2235764242374E+00  0.2300284131941E+00  0.2131942730521E+00 -0.9257214819652E+00
 0.1947009661146E+00  0.2080484170534E+00  0.1892922096088E+00 -0.1021490079418E+01
 0.1395819177957E+00  0.1646305146095E+00  0.1429798428678E+00 -0.1078799960237E+01
 0.7531245982285E-01  0.9555073196670E-01  0.8030569993740E-01 -0.1114047119723E+01
 0.8900817327053E-02  0.2705305061205E-02  0.5454877508646E-02 -0.1140221620899E+01
-0.5868638973616E-01 -0.1087806733142E+00 -0.7870951943402E-01 -0.1166777629231E+01
-0.1302510672653E+00 -0.2322397482595E+00 -0.1703706828645E+00 -0.1199843754731E+01
-0.2110289124375E+00 -0.3603941497153E+00 -0.2685688385306E+00 -0.1242350402279E+01
-0.3076654620311E+00 -0.4859445288638E+00 -0.3729966947746E+00 -0.1294088015097E+01
-0.4271178765827E+00 -0.6020242079035E+00 -0.4836967784817E+00 -0.1349868855611E+01
-0.5726973004970E+00 -0.7040727983172E+00 -0.6000819449207E+00 -0.1400664074668E+01
-0.7419653409069E+00 -0.7917941126131E+00 -0.7208669413260E+00 -0.1438648202609E+01
-0.9277027914288E+00 -0.8653893101480E+00 -0.8427532856036E+00 -0.1459077080031E+01
-0.1120250802588E+01 -0.9243650759348E+00 -0.9609694604686E+00 -0.1459794065812E+01
-0.1310141369081E+01 -0.9683818185033E+00 -0.1070905895448E+01 -0.1441039276158E+01
-0.1490098013048E+01 -0.9968356800924E+00 -0.1168858832811E+01 -0.1404531237137E+01
-0.1654502511250E+01 -0.1009674522170E+01 -0.1252163202532E+01 -0.1352949435478E+01
-0.1796540133661E+01 -0.1007882212156E+01 -0.1318078499191E+01 -0.1290124245440E+01
-0.1903879852076E+01 -0.9932806915192E+00 -0.1361665452036E+01 -0.1218922443008E+01
 0.2604099804965E+00  0.3418564749389E+00  0.2830652333367E+00 -0.7643790329363E+00
 0.2708570523719E+00  0.3348255101276E+00  0.2846708036527E+00 -0.9196564871681E+00
 0.2238754755629E+00  0.3143244845982E+00  0.2529539806341E+00 -0.1009374083321E+01
 0.1554486692998E+00  0.2657465778656E+00  0.1979617656656E+00 -0.1056487877911E+01
 0.8298526228228E-01  0.1861236982920E+00  0.1264812111491E+00 -0.1081110478940E+01
 0.1261274881904E-01  0.7912740294690E-01  0.4311787122063E-01 -0.1098321709292E+01
-0.5601427420905E-01 -0.4855110366557E-01 -0.4914572747642E-01 -0.1118603254362E+01
-0.1271830447114E+00 -0.1891264111677E+00 -0.1486654438861E+00 -0.1148482700216E+01
-0.2077315053289E+00 -0.3345730984947E+00 -0.2548831631507E+00 -0.1190958222595E+01
-0.3060752431730E+00 -0.4769850561684E+00 -0.3680383397570E+00 -0.1245651174821E+01
-0.4311280888945E+00 -0.6088044565697E+00 -0.4887682951285E+00 -0.1306094553876E+01
-0.5870286842419E+00 -0.7250948021816E+00 -0.6166980370549E+00 -0.1361128118098E+01
-0.7703060980162E+00 -0.8258380638279E+00 -0.7501877541639E+00 -0.1401564612444E+01
-0.9714790991802E+00 -0.9113575557849E+00 -0.8849332255891E+00 -0.1422583521241E+01
-0.1178396854365E+01 -0.9808633833665E+00 -0.1014852309160E+01 -0.1422636504896E+01
-0.1379568140755E+01 -0.1033613425245E+01 -0.1134195333143E+01 -0.1402800940556E+01
-0.1566404546591E+01 -0.1068668991647E+01 -0.1238484559831E+01 -0.1365422684130E+01
-0.1732539308393E+01 -0.1085981183661E+01 -0.1324704627905E+01 -0.1313320502470E+01
-0.1870840103183E+01 -0.1086446287129E+01 -0.1389924599921E+01 -0.1249922013214E+01
-0.1970584178245E+01 -0.1070863577625E+01 -0.1429480441634E+01 -0.1177688774853E+01
 0.3316590638292E+00  0.4482723501349E+00  0.3665677636334E+00 -0.7573074640771E+00
 0.3171630853129E+00  0.4500897622530E+00  0.3606088374413E+00 -0.9141519286144E+00
 0.2495375609350E+00  0.4303695480926E+00  0.3195563404324E+00 -0.9949553809595E+00
 0.1669415965557E+00  0.3746510195069E+00  0.2545485289038E+00 -0.1029383323069E+01
 0.8656654505466E-01  0.2820148154723E+00  0.1732332390083E+00 -0.1041714435459E+01
 0.1317695048627E-01  0.1585386917889E+00  0.8070635166465E-01 -0.1049111394355E+01
-0.5525814412432E-01  0.1279072475700E-01 -0.1995968705202E-01 -0.1062883152907E+01
-0.1247964503679E+00 -0.1463108854405E+00 -0.1274204475068E+00 -0.1089739755873E+01
-0.2041121011182E+00 -0.3101374308818E+00 -0.2416972794270E+00 -0.1132627608398E+01
-0.3036499133099E+00 -0.4703162918738E+00 -0.3637641155137E+00 -0.1190990957300E+01
-0.4346451724039E+00 -0.6186237833687E+00 -0.4950364079575E+00 -0.1256826893280E+01
-0.6020884964143E+00 -0.7497926754005E+00 -0.6353841491414E+00 -0.1316424425925E+01
-0.8009841073067E+00 -0.8642524903664E+00 -0.7826611989212E+00 -0.1359120550129E+01
-0.1018930986904E+01 -0.9625503552876E+00 -0.9312962284679E+00 -0.1380276404370E+01
-0.1240893314146E+01 -0.1043617053585E+01 -0.1073719870110E+01 -0.1379253607354E+01
-0.1453287845471E+01 -0.1106227195206E+01 -0.1202972066067E+01 -0.1358104206454E+01
-0.1646411725542E+01 -0.1148956043556E+01 -0.1313822848144E+01 -0.1319774088373E+01
-0.1813465372941E+01 -0.1171490289446E+01 -0.1402929157764E+01 -0.1267167943075E+01
-0.1947413206401E+01 -0.1174397652602E+01 -0.1467251100010E+01 -0.1203448629232E+01
-0.2038995938984E+01 -0.1157503626173E+01 -0.1502354791813E+01 -0.1131034362233E+01
 0.4069637484584E+00  0.5652352883700E+00  0.4569335461504E+00 -0.7534489039081E+00
 0.3618213407200E+00  0.5770871011099E+00  0.4412869665408E+00 -0.9089455408879E+00
 0.2709357107680E+00  0.5568819319171E+00  0.3890742910752E+00 -0.9773793770158E+00
 0.1735166502556E+00  0.4913123663747E+00  0.3124696370237E+00 -0.9963986880163E+00
 0.8581431894546E-01  0.3826210555280E+00  0.2201646254441E+00 -0.9948602367621E+00
 0.1063928716794E-01  0.2400884852292E+00  0.1178420527278E+00 -0.9918615329582E+00
-0.5615471755486E-01  0.7446037512828E-01  0.8603659037685E-02 -0.9991876278872E+00
-0.1226993649687E+00 -0.1043217038514E+00 -0.1066999020748E+00 -0.1023415436334E+01
-0.1997345072347E+00 -0.2873194235201E+00 -0.2289153468742E+00 -0.1067299970181E+01
-0.2999979312473E+00 -0.4659361668417E+00 -0.3599890251887E+00 -0.1130146401837E+01
-0.4374677141385E+00 -0.6313349593689E+00 -0.5023372552744E+00 -0.1202130953275E+01
-0.6179775957835E+00 -0.7779743790492E+00 -0.6560974265073E+00 -0.1266503171665E+01
-0.8343598176978E+00 -0.9069313168262E+00 -0.8184068311505E+00 -0.1311042218920E+01
-0.1070542753457E+01 -0.1019064865852E+01 -0.9821155785844E+00 -0.1331644755057E+01
-0.1308237199663E+01 -0.1112955520546E+01 -0.1137960575612E+01 -0.1328945743892E+01
-0.1531775622746E+01 -0.1186716145616E+01 -0.1277691127889E+01 -0.1306132640508E+01
-0.1730550453251E+01 -0.1238204657523E+01 -0.1395314898525E+01 -0.1266752070786E+01
-0.1897634752293E+01 -0.1266631127915E+01 -0.1487204959926E+01 -0.1213767218367E+01
-0.2026389772363E+01 -0.1272110009236E+01 -0.1550294893420E+01 -0.1150167957177E+01
-0.2108880090913E+01 -0.1253588881386E+01 -0.1580360412972E+01 -0.1078490548787E+01
 0.4865847921606E+00  0.6943636380522E+00  0.5550457607922E+00 -0.7534381368593E+00
 0.4040439562324E+00  0.7173173261628E+00  0.5270398013890E+00 -0.9035824582560E+00
 0.2872594626519E+00  0.6945249107198E+00  0.4614386543143E+00 -0.9555049406196E+00
 0.1746486149376E+00  0.6154135751299E+00  0.3713292283899E+00 -0.9562163403269E+00
 0.8056971211094E-01  0.4869491444110E+00  0.2667338618888E+00 -0.9394655061018E+00
 0.5162963065299E-02  0.3226002567462E+00  0.1540487129207E+00 -0.9259132981204E+00
-0.5832495061204E-01  0.1355169473364E+00  0.3628023836842E-01 -0.9272563598506E+00
-0.1204142078551E+00 -0.6366205565749E-01 -0.8651584363146E-01 -0.9495029644246E+00
-0.1941184893952E+00 -0.2661990020861E+00 -0.2163492204475E+00 -0.9950745419322E+00
-0.2947258053688E+00 -0.4636408472116E+00 -0.3564323258088E+00 -0.1063259813677E+01
-0.4394496546641E+00 -0.6466031929705E+00 -0.5104448370936E+00 -0.1142108564548E+01
-0.6349165184683E+00 -0.8093149922881E+00 -0.6787888083339E+00 -0.1211267168826E+01
-0.8709465054610E+00 -0.9537109447582E+00 -0.8575889994279E+00 -0.1256938687764E+01
-0.1126938564448E+01 -0.1080993928602E+01 -0.1037728269101E+01 -0.1276040506858E+01
-0.1381030674518E+01 -0.1189220224630E+01 -0.1208017919536E+01 -0.1270909902681E+01
-0.1615550351583E+01 -0.1275563703354E+01 -0.1358823602374E+01 -0.1246033590099E+01
-0.1819234994303E+01 -0.1336910011042E+01 -0.1483388148750E+01 -0.1205548849405E+01
-0.1985331413899E+01 -0.1371833619572E+01 -0.1577867561729E+01 -0.1152434095448E+01
-0.2107855018974E+01 -0.1379965926321E+01 -0.1639275840131E+01 -0.1089535996667E+01
-0.2180103147734E+01 -0.1359483882693E+01 -0.1663605900081E+01 -0.1019546458643E+01
 0.5709004076791E+00  0.8377516346381E+00  0.6620664582098E+00 -0.7579905031502E+00
 0.4429217940708E+00  0.8725867241151E+00  0.6182890019792E+00 -0.8973227905582E+00
 0.2976484822270E+00  0.8438618148309E+00  0.5365098382564E+00 -0.9278054449093E+00
 0.1698530352496E+00  0.7461952033188E+00  0.4305426710351E+00 -0.9072450546185E+00
 0.7078816858489E-01  0.5934670756281E+00  0.3121999639883E+00 -0.8743957507605E+00
-0.2940537267547E-02  0.4045080162731E+00  0.1887367146539E+00 -0.8507599405331E+00
-0.6125795418193E-01  0.1948955224991E+00  0.6280965694978E-01 -0.8470861022236E+00
-0.1173846651060E+00 -0.2471848222131E-01 -0.6678847907442E-01 -0.8682467886494E+00
-0.1867658643766E+00 -0.2466010904964E+00 -0.2036824682737E+00 -0.9162252092569E+00
-0.2874726830659E+00 -0.4629428786140E+00 -0.3526953130950E+00 -0.9905602314900E+00
-0.4405385044618E+00 -0.6638574195284E+00 -0.5190660829588E+00 -0.1076860444306E+01
-0.6532822226601E+00 -0.8433427454269E+00 -0.7034137332168E+00 -0.1150523380095E+01
-0.9114253177499E+00 -0.1004385151880E+01 -0.9004309184424E+00 -0.1196262772342E+01
-0.1188872418593E+01 -0.1148469871668E+01 -0.1098550873636E+01 -0.1212663323008E+01
-0.1459945790410E+01 -0.1272822942201E+01 -0.1284401301069E+01 -0.1204245704793E+01
-0.1705138744186E+01 -0.1373311063019E+01 -0.1446871405716E+01 -0.1176928299089E+01
-0.1912833940170E+01 -0.1445593756963E+01 -0.1578461013649E+01 -0.1135384157655E+01
-0.2076771373527E+01 -0.1487526648087E+01 -0.1675220065910E+01 -0.1082522883885E+01
-0.2191868599129E+01 -0.1498312936134E+01 -0.1734385317175E+01 -0.1021016283916E+01
-0.2252616876186E+01 -0.1475484106156E+01 -0.1752207457257E+01 -0.9536755614093E+00
 0.6605020456342E+00  0.9981969177002E+00  0.7795885107898E+00 -0.7678967988508E+00
 0.4774267355654E+00  0.1045108546822E+01  0.7155915809071E+00 -0.8889988325530E+00
 0.3012051190485E+00  0.1005233056443E+01  0.6140259409237E+00 -0.8922284931629E+00
 0.1587099271179E+00  0.8822073944204E+00  0.4892311398821E+00 -0.8475759447473E+00
 0.5657823769467E-01  0.6999061738447E+00  0.3555476725217E+00 -0.7985325322864E+00
-0.1317204351174E-01  0.4838098045181E+00  0.2211997471119E+00 -0.7661728773465E+00
-0.6429569953151E-01  0.2514939936731E+00  0.8798319802338E-01 -0.7590437313192E+00
-0.1129957117359E+00  0.1238017464611E-01 -0.4728930231226E-01 -0.7802010036473E+00
-0.1772029969665E+00 -0.2279655233233E+00 -0.1904292040532E+00 -0.8312010283405E+00
-0.2779549440055E+00 -0.4629814574698E+00 -0.3482401078101E+00 -0.9123266339874E+00
-0.4408150829930E+00 -0.6822469893311E+00 -0.5278391726536E+00 -0.1006429990085E+01
-0.6736395922282E+00 -0.8794428501128E+00 -0.7299487460488E+00 -0.1083919015021E+01
-0.9566543743266E+00 -0.1058753372295E+01 -0.9472416385097E+00 -0.1128260329434E+01
-0.1257209943758E+01 -0.1221740184057E+01 -0.1165106557118E+01 -0.1140537923718E+01
-0.1545687472735E+01 -0.1364325397116E+01 -0.1367706045361E+01 -0.1127958184914E+01
-0.1801030854346E+01 -0.1480614696314E+01 -0.1542373404898E+01 -0.1097927112153E+01
-0.2011636899966E+01 -0.1564826548708E+01 -0.1680937816613E+01 -0.1055521970063E+01
-0.2172093257847E+01 -0.1614122241682E+01 -0.1779521280265E+01 -0.1003444488778E+01
-0.2278474705266E+01 -0.1627426718055E+01 -0.1835773664305E+01 -0.9441066221172E+00
-0.2326454278513E+01 -0.1601778518740E+01 -0.1846269410026E+01 -0.8803623434033E+00
 0.7563736811199E+00  0.1179576200649E+01  0.9098964421236E+00 -0.7839994319555E+00
 0.5064333392065E+00  0.1237641994567E+01  0.8197154047943E+00 -0.8767870594448E+00
 0.2970043739317E+00  0.1178515598349E+01  0.6934943852129E+00 -0.8459943318180E+00
 0.1408835414917E+00  0.1020911107236E+01  0.5460434835171E+00 -0.7749519756884E+00
 0.3825216213088E-01  0.8030114788273E+00  0.3953939102475E+00 -0.7109095887681E+00
-0.2478845386287E-01  0.5580836263773E+00  0.2506487304461E+00 -0.6723908545733E+00
-0.6662199374632E-01  0.3043510802867E+00  0.1117326703906E+00 -0.6640003846972E+00
-0.1066168178650E+00  0.4795982310724E-01 -0.2756878746621E-01 -0.6862724073121E+00
-0.1650470062531E+00 -0.2092022048833E+00 -0.1758971287880E+00 -0.7405985936178E+00
-0.2660183957527E+00 -0.4624336950011E+00 -0.3423724817859E+00 -0.8288259154438E+00
-0.4405300681333E+00 -0.7006079321331E+00 -0.5363348587649E+00 -0.9307257376462E+00
-0.6967671497531E+00 -0.9168855380841E+00 -0.7584167613598E+00 -0.1010858441680E+01
-0.1007670412584E+01 -0.1116707517962E+01 -0.9984576248243E+00 -0.1051907125557E+01
-0.1332901621358E+01 -0.1301280697663E+01 -0.1238065686800E+01 -0.1058488863980E+01
-0.1638943969332E+01 -0.1464535873690E+01 -0.1458635522521E+01 -0.1040967287482E+01
-0.1903623358574E+01 -0.1598299812532E+01 -0.1645903886246E+01 -0.1008157734742E+01
-0.2115810912957E+01 -0.1695235584518E+01 -0.1791191849270E+01 -0.9653032856130E+00
-0.2271342957597E+01 -0.1751991883436E+01 -0.1890967370490E+01 -0.9146987857905E+00
-0.2367707677391E+01 -0.1767475911204E+01 -0.1943536281710E+01 -0.8583727651881E+00
-0.2401734520007E+01 -0.1738417178245E+01 -0.1945871293243E+01 -0.7991306553079E+00
 0.8602466974117E+00  0.1387502969752E+01  0.1056442340887E+01 -0.8071257755209E+00
 0.5287772438323E+00  0.1453676290555E+01  0.9317531587990E+00 -0.8578282641035E+00
 0.2840826747303E+00  0.1362638676790E+01  0.7739590332514E+00 -0.7853032466971E+00
 0.1161187577271E+00  0.1158022663600E+01  0.5988464665047E+00 -0.6867893604342E+00
 0.1640879149181E-01  0.8982795876059E+00  0.4299035370855E+00 -0.6109740007218E+00
-0.3671635141138E-01  0.6246588405663E+00  0.2763329692019E+00 -0.5703899240560E+00
-0.6726214587954E-01  0.3529643396243E+00  0.1342800307194E+00 -0.5634634960146E+00
-0.9769423338105E-01  0.8302692000237E-01 -0.6893637270494E-02 -0.5877204874731E+00
-0.1500989959715E+00 -0.1885580800519E+00 -0.1591688253273E+00 -0.6450970474649E+00
-0.2516902150754E+00 -0.4594328031873E+00 -0.3342278177357E+00 -0.7402270159103E+00
-0.4401271691819E+00 -0.7174312058641E+00 -0.5440524348917E+00 -0.8494210766164E+00
-0.7236770676904E+00 -0.9548850185080E+00 -0.7889241785122E+00 -0.9303952804764E+00
-0.1065683916349E+01 -0.1178373483962E+01 -0.1054706975471E+01 -0.9658322754615E+00
-0.1416942544370E+01 -0.1387956672517E+01 -0.1318302628593E+01 -0.9651197991146E+00
-0.1740316247595E+01 -0.1574623541268E+01 -0.1558021696814E+01 -0.9421347453892E+00
-0.2013142842419E+01 -0.1727403772073E+01 -0.1758056904352E+01 -0.9068141437291E+00
-0.2225347411703E+01 -0.1837495020802E+01 -0.1909535938434E+01 -0.8641958812266E+00
-0.2374457051914E+01 -0.1901433695662E+01 -0.2009668646264E+01 -0.8159173697882E+00
-0.2459600006761E+01 -0.1918489744013E+01 -0.2057702177645E+01 -0.7634855887754E+00
-0.2478673141243E+01 -0.1885283851024E+01 -0.2051059781163E+01 -0.7095734185162E+00
 0.9753392849356E+00  0.1630554092827E+01  0.1224769884442E+01 -0.8379239973068E+00
 0.5434011620199E+00  0.1697666697491E+01  0.1053301891298E+01 -0.8275572392234E+00
 0.2613122969393E+00  0.1554528796250E+01  0.8534453116344E+00 -0.7049135424842E+00
 0.8420531237846E-01  0.1286466919939E+01  0.6442159475554E+00 -0.5803509538915E+00
-0.7919001633493E-02  0.9798100970280E+00  0.4567888136769E+00 -0.4990731571838E+00
-0.4737521487539E-01  0.6811683714464E+00  0.2978827828329E+00 -0.4622287997378E+00
-0.6515661395624E-01  0.3977279885204E+00  0.1563085456487E+00 -0.4596392483711E+00
-0.8591594769143E-01  0.1194481249689E+00  0.1576012328041E-01 -0.4860793578065E+00
-0.1324714748599E+00 -0.1635511554836E+00 -0.1391306359085E+00 -0.5453642182633E+00
-0.2351928434211E+00 -0.4514523238952E+00 -0.3227232278201E+00 -0.6465058334764E+00
-0.4402496282468E+00 -0.7308165605270E+00 -0.5504011073276E+00 -0.7618240865583E+00
-0.7556343331948E+00 -0.9927062220116E+00 -0.8217200588628E+00 -0.8410861476611E+00
-0.1132071131430E+01 -0.1244342806725E+01 -0.1116914548100E+01 -0.8682269473162E+00
-0.1510309511318E+01 -0.1483249116733E+01 -0.1406972551615E+01 -0.8588102647068E+00
-0.1850211164429E+01 -0.1696242237903E+01 -0.1666833094868E+01 -0.8303244913847E+00
-0.2129543029573E+01 -0.1869193824355E+01 -0.1879406316579E+01 -0.7932351173021E+00
-0.2340004956113E+01 -0.1992290158903E+01 -0.2036178698893E+01 -0.7518607527001E+00
-0.2481256616744E+01 -0.2062633040572E+01 -0.2135628133522E+01 -0.7069116930320E+00
-0.2554195456688E+01 -0.2080328480438E+01 -0.2178226244925E+01 -0.6592576832215E+00
-0.2557597079702E+01 -0.2042080406713E+01 -0.2161848413131E+01 -0.6113815492641E+00
 0.1108147330463E+01  0.1922885551873E+01  0.1424585451085E+01 -0.8764425148866E+00
 0.5495424126866E+00  0.1975097661940E+01  0.1186580832065E+01 -0.7784378701431E+00
 0.2270452320044E+00  0.1746859539229E+01  0.9277352401264E+00 -0.5975573014314E+00
 0.4472062936525E-01  0.1394573785747E+01  0.6764683733869E+00 -0.4533399044357E+00
-0.3269305452364E-01  0.1040990441880E+01  0.4738997708556E+00 -0.3773265096019E+00
-0.5452506783920E-01  0.7266225496501E+00  0.3158858156499E+00 -0.3513578257287E+00
-0.5931862578028E-01  0.4404413183282E+00  0.1791276650432E+00 -0.3552873224791E+00
-0.7160721455151E-01  0.1597452304775E+00  0.4142486738015E-01 -0.3829875483019E+00
-0.1126143023593E+00 -0.1308637356606E+00 -0.1144346775791E+00 -0.4420023264177E+00
-0.2169117723307E+00 -0.4350885611321E+00 -0.3064401559503E+00 -0.5473542404146E+00
-0.4417263709972E+00 -0.7383777877646E+00 -0.5546489532112E+00 -0.6666892854985E+00
-0.7941967917317E+00 -0.1029877117984E+01 -0.8573147353917E+00 -0.7407770443156E+00
-0.1208364535127E+01 -0.1316062983408E+01 -0.1186480930702E+01 -0.7567421200589E+00
-0.1613855118348E+01 -0.1589566208767E+01 -0.1505608019925E+01 -0.7377591698776E+00
-0.1968670691492E+01 -0.1831629048250E+01 -0.1786140873149E+01 -0.7045241908962E+00
-0.2252374528351E+01 -0.2025124536806E+01 -0.2010424555525E+01 -0.6670207361628E+00
-0.2459272405727E+01 -0.2160255045518E+01 -0.2171177896578E+01 -0.6282299314528E+00
-0.2591458226465E+01 -0.2235613855436E+01 -0.2268723872739E+01 -0.5877192480861E+00
-0.2651578996129E+01 -0.2252671682005E+01 -0.2304997812877E+01 -0.5456742048677E+00
-0.2638947319128E+01 -0.2208307203771E+01 -0.2278209619984E+01 -0.5043699095473E+00
 0.1272589738790E+01  0.2289909781165E+01  0.1674374770132E+01 -0.9211050814205E+00
 0.5476756670917E+00  0.2292574757294E+01  0.1334917696075E+01 -0.6972717137000E+00
 0.1766992895274E+00  0.1921340682766E+01  0.9860787844769E+00 -0.4533439823252E+00
-0.2212929570451E-02  0.1464981233808E+01  0.6875011012481E+00 -0.3056298756240E+00
-0.5428413529008E-01  0.1076426559075E+01  0.4804069379603E+00 -0.2509939715829E+00
-0.5436502034643E-01  0.7642221391404E+00  0.3336328449870E+00 -0.2424927786255E+00
-0.5024586048941E-01  0.4831421328290E+00  0.2034612474835E+00 -0.2531164656891E+00
-0.5575996908586E-01  0.2068904472176E+00  0.7103132454176E-01 -0.2801370169606E+00
-0.9129654038880E-01 -0.8614356842955E-01 -0.8339685093310E-01 -0.3356204234722E+00
-0.1972643111326E+00 -0.4055484721692E+00 -0.2833220074332E+00 -0.4420827451719E+00
-0.4455691927784E+00 -0.7370934043127E+00 -0.5558514192230E+00 -0.5618956987418E+00
-0.8413013379450E+00 -0.1066634451116E+01 -0.8967298185841E+00 -0.6262697783676E+00
-0.1296261504115E+01 -0.1396547821332E+01 -0.1265620379750E+01 -0.6284023299486E+00
-0.1728085880746E+01 -0.1710609204293E+01 -0.1616186685869E+01 -0.6001464797708E+00
-0.2095099030940E+01 -0.1983582146099E+01 -0.1916980148346E+01 -0.5640688754107E+00
-0.2380659675574E+01 -0.2196692487233E+01 -0.2151355511063E+01 -0.5281851490545E+00
-0.2582385583889E+01 -0.2341880974095E+01 -0.2314405276383E+01 -0.4935759217189E+00
-0.2704745073964E+01 -0.2420240568925E+01 -0.2408743246048E+01 -0.4586379505478E+00
-0.2751848645059E+01 -0.2434944874079E+01 -0.2437792947812E+01 -0.4229203377942E+00
-0.2723346144474E+01 -0.2383331873258E+01 -0.2400138662246E+01 -0.3884893178517E+00
 0.1507915846525E+01  0.2789144899664E+01  0.2019618545587E+01 -0.9647408395479E+00
 0.5342134649589E+00  0.2647555705830E+01  0.1495431506478E+01 -0.5591681024995E+00
 0.1023745131658E+00  0.2039413220280E+01  0.1006640232166E+01 -0.2600363263921E+00
-0.5994506204439E-01  0.1468849626694E+01  0.6621851437059E+00 -0.1440778335344E+00
-0.5774598138215E-01  0.1098072044495E+01  0.4889532484227E+00 -0.1299327260275E+00
-0.4762573657090E-01  0.7964121139374E+00  0.3519295964696E+00 -0.1394022964866E+00
-0.3940728765096E-01  0.5276157878931E+00  0.2294579945318E+00 -0.1554165093739E+00
-0.4024753611895E-01  0.2636906271603E+00  0.1050182525231E+00 -0.1795356568677E+00
-0.6941143480302E-01 -0.2335949068051E-01 -0.4360233486667E-01 -0.2271280518008E+00
-0.1764847340440E+00 -0.3555883966217E+00 -0.2500743707786E+00 -0.3294628086818E+00
-0.4529127589277E+00 -0.7229991016376E+00 -0.5526785730639E+00 -0.4438121259027E+00
-0.8996096043290E+00 -0.1105122471422E+01 -0.9422240732130E+00 -0.4927803261176E+00
-0.1397546827496E+01 -0.1491564795809E+01 -0.1357882459510E+01 -0.4796526652431E+00
-0.1852738985866E+01 -0.1851708231315E+01 -0.1741090187659E+01 -0.4445701792199E+00
-0.2227777145089E+01 -0.2154990137905E+01 -0.2059900617783E+01 -0.4090228782481E+00
-0.2512917004287E+01 -0.2385170629219E+01 -0.2302101181909E+01 -0.3772787373589E+00
-0.2708563965931E+01 -0.2537610541689E+01 -0.2465702012328E+01 -0.3485309891677E+00
-0.2820665933162E+01 -0.2616056404798E+01 -0.2555259492360E+01 -0.3202581589800E+00
-0.2855281400920E+01 -0.2626476750878E+01 -0.2576426324811E+01 -0.2914032556816E+00
-0.2811373130787E+01 -0.2566050896996E+01 -0.2527389286647E+01 -0.2638517774063E+00
 0.1903967558416E+01  0.3544102606447E+01  0.2560592970991E+01 -0.9868022232153E+00
 0.5307127493105E+00  0.3043124269005E+01  0.1679703394348E+01 -0.3070875271506E+00
-0.8160500572503E-01  0.1934557631623E+01  0.8708877319632E+00 -0.1267438968506E-01
-0.6413475442223E-01  0.1459084375304E+01  0.6556263201517E+00  0.3551239614891E-02
-0.4768218836513E-01  0.1109977946551E+01  0.4992790050810E+00 -0.2033825395761E-01
-0.3522978457104E-01  0.8264104685036E+00  0.3718549205052E+00 -0.4374692043801E-01
-0.2971167209787E-01  0.5734910392007E+00  0.2555763018901E+00 -0.6415370577114E-01
-0.2787147349469E-01  0.3320622969466E+00  0.1429696866598E+00 -0.8416606333676E-01
-0.4807515528888E-01  0.6614892495667E-01  0.8494671722316E-02 -0.1184781382787E+00
-0.1536080717169E+00 -0.2725042393341E+00 -0.2002727856860E+00 -0.2073957081562E+00
-0.4652842255873E+00 -0.6911813125794E+00 -0.5435388015597E+00 -0.3058748167462E+00
-0.9731578617152E+00 -0.1152201434272E+01 -0.9989188665801E+00 -0.3330496511057E+00
-0.1514327007816E+01 -0.1612332462564E+01 -0.1469529947351E+01 -0.3069838716159E+00
-0.1984995415547E+01 -0.2018417118504E+01 -0.1881603886232E+01 -0.2711544404632E+00
-0.2363838026416E+01 -0.2348039295295E+01 -0.2214582335587E+01 -0.2405524629025E+00
-0.2647597271825E+01 -0.2591435261074E+01 -0.2462345284217E+01 -0.2153587069083E+00
-0.2837099718471E+01 -0.2747758631175E+01 -0.2624883417676E+01 -0.1939683472621E+00
-0.2939168684151E+01 -0.2823169483963E+01 -0.2708298932144E+01 -0.1735030015223E+00
-0.2960990456427E+01 -0.2824860432173E+01 -0.2719349910744E+01 -0.1519314521882E+00
-0.2905267609103E+01 -0.2756634218661E+01 -0.2661093852299E+01 -0.1305602672054E+00
 0.3443643875541E+01  0.5590747244715E+01  0.4246163815751E+01 -0.7900281446916E+00
-0.1516862500925E+00  0.2505569772706E+01  0.1106325252822E+01  0.1892092081099E+00
-0.7046005170068E-01  0.1857964768584E+01  0.8401272148041E+00  0.1915448938402E+00
-0.4368947330831E-01  0.1436831763166E+01  0.6547768745722E+00  0.1236968378417E+00
-0.2497012564563E-01  0.1120339714478E+01  0.5148237054454E+00  0.7805430694843E-01
-0.2124790658684E-01  0.8534766376440E+00  0.3911475026048E+00  0.4405675639251E-01
-0.2176826924053E-01  0.6207858541294E+00  0.2815382641837E+00  0.1905868826827E-01
-0.2508065943055E-01  0.4083133955520E+00  0.1801193855202E+00  0.1387747927266E-02
-0.3028979388159E-01  0.1935335987087E+00  0.7672458807415E-01 -0.1507882285680E-01
-0.1215390214610E+00 -0.1270923450463E+00 -0.1168567419620E+00 -0.7253056211628E-01
-0.4839634795035E+00 -0.6350703214173E+00 -0.5259458850988E+00 -0.1340152743231E+00
-0.1075700071076E+01 -0.1235835017933E+01 -0.1086421489079E+01 -0.1365973909371E+00
-0.1641932858507E+01 -0.1770722767053E+01 -0.1603948139945E+01 -0.1104144683095E+00
-0.2118831911925E+01 -0.2213677418613E+01 -0.2036279380188E+01 -0.8273246559433E-01
-0.2500653961778E+01 -0.2563992112215E+01 -0.2380383648739E+01 -0.6073347066847E-01
-0.2783568164485E+01 -0.2815919273296E+01 -0.2631759089082E+01 -0.4379070856500E-01
-0.2967430650621E+01 -0.2972369055776E+01 -0.2791705854926E+01 -0.3084648844358E-01
-0.3060148921639E+01 -0.3042044522432E+01 -0.2868030911439E+01 -0.1929434103227E-01
-0.3069687146131E+01 -0.3030792796110E+01 -0.2867225565581E+01 -0.6204526409002E-02
-0.3000056672563E+01 -0.2943427543034E+01 -0.2793437574245E+01  0.1022677794148E-01
-0.4537665870911E+00 -0.3244393466721E+00 -0.3657567879410E+00 -0.6261360424398E+00
-0.4250753993147E+00 -0.2978880294437E+00 -0.3397928106546E+00 -0.5849912273537E+00
-0.3974404274201E+00 -0.2806731761610E+00 -0.3187133928748E+00 -0.5434299688885E+00
-0.3707633539599E+00 -0.2648441054422E+00 -0.2987355051613E+00 -0.5022457108929E+00
-0.3449780221607E+00 -0.2493672594468E+00 -0.2793422816470E+00 -0.4618537282079E+00
-0.3197998064635E+00 -0.2339276825472E+00 -0.2602519191750E+00 -0.4225316968265E+00
-0.2951060241750E+00 -0.2184883558782E+00 -0.2413893580128E+00 -0.3844503085327E+00
-0.2708462130306E+00 -0.2030563237608E+00 -0.2227341917270E+00 -0.3477185437700E+00
-0.2470180466233E+00 -0.1876460846329E+00 -0.2042921411723E+00 -0.3124093786557E+00
-0.2236424206731E+00 -0.1722678069997E+00 -0.1860778065342E+00 -0.2785736167063E+00
-0.2007487516936E+00 -0.1569267123038E+00 -0.1681074676524E+00 -0.2462464833335E+00
-0.1783647367925E+00 -0.1416241779890E+00 -0.1503947895659E+00 -0.2154503152448E+00
-0.1565089177658E+00 -0.1263590270126E+00 -0.1329479337086E+00 -0.1861949514161E+00
-0.1351841967320E+00 -0.1111278602937E+00 -0.1157666665085E+00 -0.1584763614116E+00
-0.1143727353581E+00 -0.9592509823043E-01 -0.9883998153590E-01 -0.1322735259866E+00
-0.9402532758883E-01 -0.8073548782723E-01 -0.8213758303722E-01 -0.1075422055678E+00
-0.7407378492414E-01 -0.6554579594613E-01 -0.6562120284259E-01 -0.8420671904433E-01
-0.5430147982783E-01 -0.5020936540671E-01 -0.4912009713565E-01 -0.6212733856474E-01
-0.3485034439524E-01 -0.3492233793646E-01 -0.3279316061272E-01 -0.4110338401778E-01
-0.1197074858248E-01 -0.1592559635181E-01 -0.1311128208586E-01 -0.2019276401354E-01
-0.4868981515431E+00 -0.3290217277203E+00 -0.3834823422811E+00 -0.6423714952528E+00
-0.4521370974617E+00 -0.2998246491944E+00 -0.3534220200320E+00 -0.5947068870652E+00
-0.4239068355437E+00 -0.2774711480304E+00 -0.3296476514437E+00 -0.5509199680208E+00
-0.3971902473642E+00 -0.2585098390032E+00 -0.3081790398110E+00 -0.5087899815730E+00
-0.3710944930060E+00 -0.2411652348022E+00 -0.2877620713400E+00 -0.4677986685042E+00
-0.3453564986242E+00 -0.2246674515120E+00 -0.2679112558845E+00 -0.4279398494375E+00
-0.3198848202538E+00 -0.2086622422950E+00 -0.2484171187679E+00 -0.3893141880925E+00
-0.2946672816229E+00 -0.1929944707276E+00 -0.2292010230234E+00 -0.3520314324915E+00
-0.2697254529707E+00 -0.1775903971576E+00 -0.2102384490271E+00 -0.3161829306893E+00
-0.2450970688290E+00 -0.1624109883159E+00 -0.1915287863723E+00 -0.2818382743054E+00
-0.2208249716572E+00 -0.1474313633153E+00 -0.1730804769981E+00 -0.2490467813195E+00
-0.1969499916361E+00 -0.1326322299026E+00 -0.1549036437303E+00 -0.2178390998719E+00
-0.1735058111179E+00 -0.1179958442400E+00 -0.1370057776707E+00 -0.1882276096531E+00
-0.1505156942219E+00 -0.1035036833802E+00 -0.1193891071702E+00 -0.1602053549452E+00
-0.1279895585407E+00 -0.8913244737450E-01 -0.1020473425213E+00 -0.1337432028527E+00
-0.1059294992998E+00 -0.7485391410082E-01 -0.8496820408278E-01 -0.1087855344378E+00
-0.8431121323812E-01 -0.6060253999510E-01 -0.6810946384686E-01 -0.8524097560124E-01
-0.6321656021488E-01 -0.4636075719513E-01 -0.5150133905208E-01 -0.6297941368124E-01
-0.4229991090245E-01 -0.3155645120308E-01 -0.3471249010155E-01 -0.4176036117232E-01
-0.2446047519600E-01 -0.1760001931127E-01 -0.1976843236827E-01 -0.2142699477710E-01
-0.5100613844201E+00 -0.3188492288968E+00 -0.3895879872708E+00 -0.6555514825363E+00
-0.4788669205103E+00 -0.2965914453678E+00 -0.3644654310383E+00 -0.6070567581182E+00
-0.4503347943805E+00 -0.2735335585659E+00 -0.3402181250219E+00 -0.5609874458056E+00
-0.4235577490134E+00 -0.2528157341959E+00 -0.3178955363020E+00 -0.5171637810764E+00
-0.3972917745966E+00 -0.2339378130471E+00 -0.2966779054401E+00 -0.4749825619842E+00
-0.3711704355576E+00 -0.2163581870253E+00 -0.2761384519136E+00 -0.4342093712432E+00
-0.3450839511862E+00 -0.1996874881060E+00 -0.2560425758179E+00 -0.3948091226945E+00
-0.3190332526286E+00 -0.1836884159613E+00 -0.2362791836379E+00 -0.3568293435626E+00
-0.2930626771178E+00 -0.1682197395328E+00 -0.2168027352759E+00 -0.3203396621527E+00
-0.2672330290173E+00 -0.1531935734459E+00 -0.1976005026565E+00 -0.2854057714651E+00
-0.2416096772012E+00 -0.1385502011124E+00 -0.1786751423542E+00 -0.2520793461935E+00
-0.2162565394692E+00 -0.1242440314407E+00 -0.1600352679217E+00 -0.2203942912463E+00
-0.1912330560625E+00 -0.1102357177372E+00 -0.1416903233265E+00 -0.1903650623339E+00
-0.1665929676175E+00 -0.9648673733058E-01 -0.1236474610120E+00 -0.1619852586860E+00
-0.1423868023683E+00 -0.8295588179980E-01 -0.1059110612904E+00 -0.1352259612686E+00
-0.1186624020213E+00 -0.6959008327667E-01 -0.8847866786565E-01 -0.1100334482365E+00
-0.9549948386559E-01 -0.5633792773589E-01 -0.7136358327169E-01 -0.8632939113480E-01
-0.7295028506267E-01 -0.4306480472506E-01 -0.5452709206193E-01 -0.6401050880669E-01
-0.5159299601857E-01 -0.2994061352020E-01 -0.3832079638603E-01 -0.4299897365453E-01
-0.3145255243636E-01 -0.1660221252010E-01 -0.2258573947225E-01 -0.2347557372306E-01
-0.5345439074724E+00 -0.3085959305287E+00 -0.3962757228555E+00 -0.6677682572010E+00
-0.5050980294027E+00 -0.2886585960013E+00 -0.3730656129937E+00 -0.6196444227116E+00
-0.4773207004237E+00 -0.2672393714358E+00 -0.3499432328864E+00 -0.5723958360646E+00
-0.4504866838023E+00 -0.2462836007255E+00 -0.3274820328975E+00 -0.5270052911681E+00
-0.4240415479785E+00 -0.2266709076739E+00 -0.3058348533809E+00 -0.4834263702277E+00
-0.3975666419668E+00 -0.2083574247288E+00 -0.2847843106246E+00 -0.4414796855962E+00
-0.3709237281262E+00 -0.1911472629473E+00 -0.2641733651345E+00 -0.4010810499081E+00
-0.3441021389586E+00 -0.1748465533313E+00 -0.2439058847576E+00 -0.3622272976273E+00
-0.3171537314134E+00 -0.1593059235087E+00 -0.2239360372454E+00 -0.3249567249401E+00
-0.2901566484793E+00 -0.1444149774357E+00 -0.2042486636620E+00 -0.2893198256364E+00
-0.2631987155172E+00 -0.1300897987621E+00 -0.1848456012425E+00 -0.2553627145872E+00
-0.2363697866182E+00 -0.1162622476554E+00 -0.1657370556882E+00 -0.2231186511234E+00
-0.2097586653187E+00 -0.1028721966543E+00 -0.1469365047546E+00 -0.1926038644455E+00
-0.1834532447601E+00 -0.8986202309898E-01 -0.1284581755680E+00 -0.1638155130925E+00
-0.1575422598666E+00 -0.7717106183980E-01 -0.1103152609222E+00 -0.1367307555753E+00
-0.1321249764419E+00 -0.6473457194115E-01 -0.9252398750536E-01 -0.1113072411140E+00
-0.1073067238350E+00 -0.5246785946517E-01 -0.7509405396063E-01 -0.8748573963513E-01
-0.8327978669108E-01 -0.4032360946543E-01 -0.5809359604622E-01 -0.6520322404593E-01
-0.6014134029437E-01 -0.2817015300952E-01 -0.4150640174755E-01 -0.4443958291034E-01
-0.3795136972177E-01 -0.1600812344795E-01 -0.2536096172545E-01 -0.2522606197658E-01
-0.5595927822462E+00 -0.2986924396097E+00 -0.4033940532491E+00 -0.6799166751349E+00
-0.5320539145436E+00 -0.2795717055114E+00 -0.3814640404583E+00 -0.6320391122164E+00
-0.5049438354054E+00 -0.2590884558327E+00 -0.3590951759711E+00 -0.5842085398002E+00
-0.4782774909891E+00 -0.2385676416448E+00 -0.3369172114834E+00 -0.5376775806299E+00
-0.4516664450052E+00 -0.2188180858972E+00 -0.3151277287248E+00 -0.4928045496251E+00
-0.4248362693009E+00 -0.2001743922477E+00 -0.2937550101828E+00 -0.4496191293156E+00
-0.3976415775076E+00 -0.1826516446652E+00 -0.2727378137295E+00 -0.4080931338455E+00
-0.3700622972052E+00 -0.1661635657780E+00 -0.2520261549629E+00 -0.3682242969279E+00
-0.3421489259384E+00 -0.1506010817232E+00 -0.2315925030135E+00 -0.3300392088032E+00
-0.3139896124696E+00 -0.1358616477540E+00 -0.2114300917688E+00 -0.2935788060683E+00
-0.2856903725790E+00 -0.1218544912232E+00 -0.1915460855012E+00 -0.2588845835820E+00
-0.2573649851305E+00 -0.1084985387864E+00 -0.1719558558048E+00 -0.2259894139751E+00
-0.2291305360096E+00 -0.9571865399503E-01 -0.1526791189149E+00 -0.1949123875115E+00
-0.2011063866263E+00 -0.8344169441769E-01 -0.1337375977514E+00 -0.1656564937645E+00
-0.1734166380722E+00 -0.7159345310953E-01 -0.1151547425634E+00 -0.1382083919106E+00
-0.1461914640235E+00 -0.6009301033331E-01 -0.9695370270178E-01 -0.1125399615458E+00
-0.1195799263053E+00 -0.4885718522859E-01 -0.7916544222011E-01 -0.8861213324445E-01
-0.9371402694735E-01 -0.3777391611467E-01 -0.6179933308240E-01 -0.6638242824834E-01
-0.6869500648861E-01 -0.2673369955811E-01 -0.4485149172820E-01 -0.4580067818934E-01
-0.4449270189298E-01 -0.1562542866709E-01 -0.2825552129157E-01 -0.2679265588909E-01
-0.5853554748703E+00 -0.2894189513277E+00 -0.4111439792702E+00 -0.6922904384356E+00
-0.5596084573088E+00 -0.2701772236049E+00 -0.3899992690403E+00 -0.6443575845328E+00
-0.5333788516103E+00 -0.2501134337037E+00 -0.3682413731636E+00 -0.5961161576483E+00
-0.5069896657202E+00 -0.2299341880863E+00 -0.3463542104106E+00 -0.5487308865492E+00
-0.4803068660124E+00 -0.2102970875682E+00 -0.3245838573596E+00 -0.5027463416257E+00
-0.4531449823595E+00 -0.1915836155796E+00 -0.3030224402628E+00 -0.4583694915499E+00
-0.4254007273100E+00 -0.1739473986419E+00 -0.2816936184829E+00 -0.4156742395319E+00
-0.3970570103085E+00 -0.1573994608189E+00 -0.2605945407689E+00 -0.3747020295820E+00
-0.3681659360112E+00 -0.1418875501937E+00 -0.2397251379083E+00 -0.3354953986207E+00
-0.3388230733055E+00 -0.1273349801777E+00 -0.2190942845814E+00 -0.2981010165580E+00
-0.3091493581015E+00 -0.1136582043316E+00 -0.1987195538395E+00 -0.2625638846595E+00
-0.2792796336376E+00 -0.1007729840524E+00 -0.1786247298613E+00 -0.2289210284968E+00
-0.2493563807596E+00 -0.8859576664964E-01 -0.1588375088795E+00 -0.1971972471124E+00
-0.2195272002569E+00 -0.7704329749864E-01 -0.1393881335915E+00 -0.1674032918733E+00
-0.1899443359866E+00 -0.6603101137405E-01 -0.1203084129544E+00 -0.1395362608885E+00
-0.1607673837663E+00 -0.5547227606469E-01 -0.1016326398628E+00 -0.1135818392842E+00
-0.1321590013009E+00 -0.4527129864255E-01 -0.8339224076191E-01 -0.8951762333645E-01
-0.1042840630261E+00 -0.3532152085347E-01 -0.6561462425699E-01 -0.6731231478457E-01
-0.7727405520357E-01 -0.2547206294605E-01 -0.4829067540784E-01 -0.4691005617279E-01
-0.5118146257197E-01 -0.1551086201565E-01 -0.3134539247667E-01 -0.2818102761225E-01
-0.6118077344830E+00 -0.2807250237368E+00 -0.4194903952994E+00 -0.7049918900821E+00
-0.5877808033079E+00 -0.2609248770585E+00 -0.3988916687605E+00 -0.6567295139618E+00
-0.5625646265459E+00 -0.2408307375451E+00 -0.3775958201650E+00 -0.6080526240471E+00
-0.5366186165409E+00 -0.2207857897077E+00 -0.3559800700339E+00 -0.5599293918914E+00
-0.5099687952253E+00 -0.2012457665035E+00 -0.3342708431647E+00 -0.5129551351140E+00
-0.4825342687383E+00 -0.1825593699208E+00 -0.3125940093769E+00 -0.4674483587095E+00
-0.4542566169732E+00 -0.1649209108908E+00 -0.2910134373580E+00 -0.4235778756776E+00
-0.4251387263487E+00 -0.1484036454580E+00 -0.2695649140655E+00 -0.3814469104101E+00
-0.3952414271439E+00 -0.1330029880186E+00 -0.2482748744966E+00 -0.3411340425050E+00
-0.3646702081726E+00 -0.1186714526771E+00 -0.2271705800232E+00 -0.3027073927342E+00
-0.3335607099451E+00 -0.1053390239963E+00 -0.2062828744293E+00 -0.2662262914055E+00
-0.3020676715650E+00 -0.9292416966370E-01 -0.1856461649066E+00 -0.2317389844119E+00
-0.2703574327181E+00 -0.8133949215287E-01 -0.1652975542701E+00 -0.1992802910102E+00
-0.2386033238739E+00 -0.7049467781479E-01 -0.1452760604252E+00 -0.1688707473112E+00
-0.2069836171073E+00 -0.6029841462270E-01 -0.1256225545945E+00 -0.1405176798738E+00
-0.1756803781455E+00 -0.5065875567944E-01 -0.1063793926279E+00 -0.1142181363356E+00
-0.1448818431246E+00 -0.4148381903629E-01 -0.8759186099344E-01 -0.8996259542333E-01
-0.1147862525466E+00 -0.3267618806412E-01 -0.6930734691124E-01 -0.6773718173173E-01
-0.8562995165772E-01 -0.2412526606958E-01 -0.5158495220099E-01 -0.4751844605555E-01
-0.5764912580249E-01 -0.1557141229338E-01 -0.3441365281777E-01 -0.2922734424821E-01
-0.6389343868953E+00 -0.2725558716934E+00 -0.4284004204501E+00 -0.7180410690254E+00
-0.6165635985722E+00 -0.2519806737823E+00 -0.4082158069713E+00 -0.6692333843804E+00
-0.5924583663015E+00 -0.2315497554684E+00 -0.3872838162495E+00 -0.6200048921713E+00
-0.5670921091569E+00 -0.2114041989879E+00 -0.3658932639000E+00 -0.5711341847697E+00
-0.5405898568618E+00 -0.1918489787247E+00 -0.3442462518525E+00 -0.5232002339477E+00
-0.5129495639178E+00 -0.1731666651044E+00 -0.3224746268225E+00 -0.4765804294731E+00
-0.4841616070390E+00 -0.1555505222552E+00 -0.3006647000057E+00 -0.4315163047026E+00
-0.4542545690959E+00 -0.1391000066258E+00 -0.2788766498819E+00 -0.3881725814295E+00
-0.4233054088744E+00 -0.1238413627195E+00 -0.2571589819969E+00 -0.3466734799604E+00
-0.3914338865298E+00 -0.1097502540520E+00 -0.2355565454760E+00 -0.3071200208108E+00
-0.3587927731816E+00 -0.9676966175336E-01 -0.2141143438764E+00 -0.2695959726914E+00
-0.3255580576405E+00 -0.8482191344226E-01 -0.1928785859197E+00 -0.2341686171230E+00
-0.2919208254830E+00 -0.7381666087196E-01 -0.1718966181508E+00 -0.2008881370994E+00
-0.2580810529198E+00 -0.6365656024956E-01 -0.1512166778061E+00 -0.1697876086869E+00
-0.2242430581049E+00 -0.5424174578617E-01 -0.1308878574968E+00 -0.1408845378151E+00
-0.1906132398200E+00 -0.4547419446456E-01 -0.1109610938323E+00 -0.1141843147277E+00
-0.1574011505026E+00 -0.3726185159691E-01 -0.9149161075469E-01 -0.8968591240225E-01
-0.1248315785820E+00 -0.2952458245877E-01 -0.7254739550514E-01 -0.6739068159520E-01
-0.9318160212705E-01 -0.2220080476196E-01 -0.5422973110029E-01 -0.4731846460439E-01
-0.6298321234120E-01 -0.1530616304680E-01 -0.3679600633903E-01 -0.2954377758202E-01
-0.6667278160580E+00 -0.2648728563380E+00 -0.4378523149155E+00 -0.7314300062279E+00
-0.6459793670192E+00 -0.2434123919481E+00 -0.4180141256544E+00 -0.6818995155710E+00
-0.6230466710808E+00 -0.2224286212917E+00 -0.3973733864072E+00 -0.6319658617229E+00
-0.5983682680865E+00 -0.2019744624634E+00 -0.3761610824044E+00 -0.5822575016619E+00
-0.5721120575467E+00 -0.1822538765199E+00 -0.3545519881120E+00 -0.5333138890516E+00
-0.5443292595855E+00 -0.1634898702732E+00 -0.3326749901898E+00 -0.4855392083938E+00
-0.5150500100239E+00 -0.1458565904879E+00 -0.3106261014527E+00 -0.4392272541971E+00
-0.4843297388824E+00 -0.1294598902255E+00 -0.2884811249490E+00 -0.3945975632289E+00
-0.4522648903618E+00 -0.1143416076215E+00 -0.2663050533767E+00 -0.3518226337103E+00
-0.4189933908152E+00 -0.1004921853567E+00 -0.2441582201815E+00 -0.3110434946073E+00
-0.3846884440936E+00 -0.8786355753519E-01 -0.2220994402022E+00 -0.2723766335176E+00
-0.3495502894628E+00 -0.7637989543382E-01 -0.2001871863937E+00 -0.2359160998209E+00
-0.3137978665413E+00 -0.6594610937915E-01 -0.1784796682299E+00 -0.2017337445374E+00
-0.2776611307087E+00 -0.5645488549184E-01 -0.1570345272159E+00 -0.1698795113202E+00
-0.2413743494803E+00 -0.4779313559132E-01 -0.1359087176389E+00 -0.1403829171378E+00
-0.2051706831438E+00 -0.3984854706507E-01 -0.1151590379061E+00 -0.1132565314368E+00
-0.1692792480985E+00 -0.3251731137855E-01 -0.9484438271364E-01 -0.8850251025181E-01
-0.1339277084803E+00 -0.2571565128409E-01 -0.7503237889897E-01 -0.6612512968919E-01
-0.9935645376633E-01 -0.1940070469517E-01 -0.5581586433533E-01 -0.4615737077215E-01
-0.6590997020859E-01 -0.1368469858240E-01 -0.3740949423688E-01 -0.2874838035772E-01
-0.6952799763530E+00 -0.2577070375126E+00 -0.4479038953808E+00 -0.7451601046598E+00
-0.6761423785977E+00 -0.2352807087885E+00 -0.4283688499850E+00 -0.6947815954627E+00
-0.6544500920400E+00 -0.2135892135685E+00 -0.4079784726012E+00 -0.6440096555549E+00
-0.6305664195727E+00 -0.1926505267555E+00 -0.3869119637929E+00 -0.5933601346408E+00
-0.6046640797191E+00 -0.1726112267167E+00 -0.3653193930982E+00 -0.5433304304324E+00
-0.5768211427021E+00 -0.1536506558703E+00 -0.3433217444582E+00 -0.4943352528856E+00
-0.5470946254457E+00 -0.1359229084015E+00 -0.3210182400940E+00 -0.4467065669343E+00
-0.5155616585459E+00 -0.1195317641812E+00 -0.2984939079246E+00 -0.4007119192008E+00
-0.4823373423117E+00 -0.1045260813994E+00 -0.2758258084446E+00 -0.3565720962390E+00
-0.4475786193467E+00 -0.9090472400667E-01 -0.2530871707342E+00 -0.3144726650568E+00
-0.4114808161033E+00 -0.7862471965632E-01 -0.2303496012227E+00 -0.2745696611169E+00
-0.3742706478904E+00 -0.6760971540501E-01 -0.2076837702221E+00 -0.2369914326217E+00
-0.3361976890056E+00 -0.5775792639882E-01 -0.1851591387704E+00 -0.2018387175669E+00
-0.2975252260549E+00 -0.4894968236234E-01 -0.1628432065431E+00 -0.1691845655427E+00
-0.2585208572609E+00 -0.4105497711961E-01 -0.1408006418017E+00 -0.1390752406785E+00
-0.2194468481356E+00 -0.3394150839553E-01 -0.1190925272676E+00 -0.1115329606421E+00
-0.1805498369928E+00 -0.2748407873147E-01 -0.9777594014243E-01 -0.8656147502695E-01
-0.1420459536915E+00 -0.2157567351696E-01 -0.7690216459294E-01 -0.6415614662160E-01
-0.1040971804554E+00 -0.1615009053680E-01 -0.5651621722300E-01 -0.4432348376194E-01
-0.6662291549636E-01 -0.1114091806735E-01 -0.3654900168224E-01 -0.2710820385302E-01
-0.7246172472759E+00 -0.2511065878753E+00 -0.4585902013579E+00 -0.7592922140691E+00
-0.7071298750441E+00 -0.2276991739518E+00 -0.4393696519137E+00 -0.7080376791272E+00
-0.6867753202912E+00 -0.2052129118317E+00 -0.4192344680344E+00 -0.6563688031806E+00
-0.6638213287383E+00 -0.1836695046187E+00 -0.3983206906675E+00 -0.6047230565989E+00
-0.6384157647172E+00 -0.1631894661078E+00 -0.3767544575322E+00 -0.5535613682850E+00
-0.6106401759504E+00 -0.1439265449182E+00 -0.3546463579087E+00 -0.5033019273179E+00
-0.5805629800891E+00 -0.1260207359469E+00 -0.3320943456946E+00 -0.4543061271014E+00
-0.5482740112612E+00 -0.1095732072792E+00 -0.3091881919298E+00 -0.4068842131978E+00
-0.5139020446980E+00 -0.9463698729155E-01 -0.2860133443096E+00 -0.3613045410723E+00
-0.4776205810261E+00 -0.8121672770203E-01 -0.2626535344360E+00 -0.3178003625794E+00
-0.4396463000536E+00 -0.6927282998302E-01 -0.2391919905106E+00 -0.2765729680668E+00
-0.4002331106541E+00 -0.5872743371132E-01 -0.2157114553046E+00 -0.2377919982808E+00
-0.3596634728803E+00 -0.4947124219617E-01 -0.1922933155982E+00 -0.2015942781082E+00
-0.3182378714254E+00 -0.4137096481660E-01 -0.1690161526051E+00 -0.1680824494158E+00
-0.2762627790354E+00 -0.3427744749178E-01 -0.1459539060976E+00 -0.1373243962446E+00
-0.2340369470124E+00 -0.2803465156365E-01 -0.1231736510183E+00 -0.1093541325523E+00
-0.1918343556243E+00 -0.2248928021434E-01 -0.1007321085887E+00 -0.8417441337570E-01
-0.1498805958519E+00 -0.1750191276644E-01 -0.7866977885107E-01 -0.6176060172772E-01
-0.1082978590582E+00 -0.1294864362843E-01 -0.5698585611818E-01 -0.4206148734194E-01
-0.6702577514726E-01 -0.8727978071866E-02 -0.3560426392269E-01 -0.2497143476517E-01
-0.7547106683048E+00 -0.2451121594463E+00 -0.4699167278511E+00 -0.7738757480804E+00
-0.7389673463608E+00 -0.2207573279639E+00 -0.4510705957885E+00 -0.7217971206431E+00
-0.7200797975341E+00 -0.1974431266561E+00 -0.4312357732756E+00 -0.6692390732311E+00
-0.6982176101909E+00 -0.1752211750578E+00 -0.4105162280257E+00 -0.6165898477446E+00
-0.6734834340553E+00 -0.1542096687264E+00 -0.3890157573207E+00 -0.5642827452280E+00
-0.6459418833442E+00 -0.1345530619059E+00 -0.3668326233372E+00 -0.5127374108372E+00
-0.6156567400527E+00 -0.1163861379797E+00 -0.3440601518026E+00 -0.4623395435741E+00
-0.5827189002257E+00 -0.9981124513509E-01 -0.3207891675059E+00 -0.4134382755778E+00
-0.5472626708353E+00 -0.8488695850310E-01 -0.2971103250355E+00 -0.3663487835497E+00
-0.5094726161723E+00 -0.7162438949407E-01 -0.2731155919705E+00 -0.3213544736712E+00
-0.4695835776478E+00 -0.5998804106163E-01 -0.2488986601621E+00 -0.2787069594513E+00
-0.4278758117053E+00 -0.4989933024317E-01 -0.2245543161462E+00 -0.2386239263667E+00
-0.3846664760402E+00 -0.4124191204975E-01 -0.2001769418946E+00 -0.2012857226116E+00
-0.3402981799929E+00 -0.3386851693925E-01 -0.1758583471121E+00 -0.1668316816445E+00
-0.2951249927545E+00 -0.2760922820948E-01 -0.1516850834683E+00 -0.1353570454269E+00
-0.2494958916273E+00 -0.2228099221224E-01 -0.1277351350806E+00 -0.1069109843050E+00
-0.2037353036974E+00 -0.1769810548891E-01 -0.1040737020536E+00 -0.8149548039602E-01
-0.1581178262378E+00 -0.1368157762852E-01 -0.8074571961239E-01 -0.5906319591875E-01
-0.1128417249104E+00 -0.1006932024352E-01 -0.5776819107581E-01 -0.3950783718375E-01
-0.6803076375963E-01 -0.6732228281933E-02 -0.3513860617041E-01 -0.2263740319188E-01
-0.7855212072137E+00 -0.2397810705918E+00 -0.4818920693463E+00 -0.7889382189244E+00
-0.7716539881947E+00 -0.2145293114999E+00 -0.4635061496809E+00 -0.7361336797918E+00
-0.7543908118960E+00 -0.1903856621435E+00 -0.4440449416723E+00 -0.6827384195541E+00
-0.7338051402880E+00 -0.1674418762585E+00 -0.4235860967025E+00 -0.6291117085822E+00
-0.7099414572312E+00 -0.1458301093451E+00 -0.4022126352707E+00 -0.5756679290489E+00
-0.6828304905607E+00 -0.1256990584113E+00 -0.3800088870530E+00 -0.5228285011307E+00
-0.6525156505674E+00 -0.1071876469547E+00 -0.3570605489298E+00 -0.4710004301197E+00
-0.6190756783756E+00 -0.9040541675904E-01 -0.3334561138675E+00 -0.4205689828165E+00
-0.5826397280505E+00 -0.7542055953796E-01 -0.3092883343821E+00 -0.3718955340247E+00
-0.5433951536094E+00 -0.6225388330259E-01 -0.2846550466266E+00 -0.3253158100725E+00
-0.5015892036679E+00 -0.5087689834126E-01 -0.2596590672857E+00 -0.2811366098520E+00
-0.4575256673501E+00 -0.4121284132740E-01 -0.2344070984839E+00 -0.2396306964843E+00
-0.4115571637579E+00 -0.3314010208814E-01 -0.2090077144175E+00 -0.2010303648704E+00
-0.3640735483667E+00 -0.2649792430813E-01 -0.1835685916916E+00 -0.1655205325041E+00
-0.3154868656632E+00 -0.2109433902415E-01 -0.1581931658018E+00 -0.1332322317313E+00
-0.2662134634782E+00 -0.1671614854141E-01 -0.1329769173119E+00 -0.1042371129256E+00
-0.2166540573958E+00 -0.1314021082189E-01 -0.1080033057884E+00 -0.7854289932881E-01
-0.1671747847637E+00 -0.1014553487583E-01 -0.8334055001918E-01 -0.5608843779191E-01
-0.1180977879021E+00 -0.7525536282654E-02 -0.5904296221706E-01 -0.3673612939590E-01
-0.6971348241004E-01 -0.5095780843176E-02 -0.3516035363983E-01 -0.2026276997575E-01
-0.8170056076225E+00 -0.2351880951157E+00 -0.4945310390326E+00 -0.8044998993541E+00
-0.8051741499230E+00 -0.2090957280295E+00 -0.4767068414285E+00 -0.7510934718703E+00
-0.7897167211970E+00 -0.1841386243131E+00 -0.4577120112288E+00 -0.6969429245027E+00
-0.7706136252710E+00 -0.1604501625772E+00 -0.4375999791787E+00 -0.6423901609908E+00
-0.7478422168231E+00 -0.1381855854804E+00 -0.4164330660264E+00 -0.5878368382762E+00
-0.7213853430870E+00 -0.1175078882162E+00 -0.3942798177125E+00 -0.5337067428705E+00
-0.6912510568851E+00 -0.9856858274418E-01 -0.3712152296842E+00 -0.4804259458628E+00
-0.6574917229959E+00 -0.8149111997833E-01 -0.3473219353170E+00 -0.4284134535029E+00
-0.6202185138937E+00 -0.6635890932446E-01 -0.3226913880941E+00 -0.3780760851637E+00
-0.5796105258129E+00 -0.5320753448593E-01 -0.2974244875861E+00 -0.3298037403296E+00
-0.5359186959636E+00 -0.4202031264550E-01 -0.2716313333573E+00 -0.2839631999959E+00
-0.4894647589926E+00 -0.3272663977008E-01 -0.2454299567959E+00 -0.2408899197824E+00
-0.4406353370603E+00 -0.2520300391545E-01 -0.2189440197033E+00 -0.2008780882674E+00
-0.3898712365653E+00 -0.1927685426301E-01 -0.1922996022016E+00 -0.1641697269642E+00
-0.3376522867270E+00 -0.1473357467487E-01 -0.1656213544388E+00 -0.1309438789745E+00
-0.2844786233971E+00 -0.1132652987263E-01 -0.1390284216841E+00 -0.1013069511571E+00
-0.2308505127789E+00 -0.8789725435637E-02 -0.1126309116752E+00 -0.7528497670422E-01
-0.1772506538348E+00 -0.6851890959499E-02 -0.8652819583386E-01 -0.5281818389978E-01
-0.1241343736405E+00 -0.5249460089296E-02 -0.6081040169879E-01 -0.3375867965966E-01
-0.7193153974179E-01 -0.3734394031650E-02 -0.3556298878331E-01 -0.1787418853302E-01
-0.8491168042833E+00 -0.2314220437337E+00 -0.5078532572799E+00 -0.8205805945814E+00
-0.8395016331755E+00 -0.2045506905808E+00 -0.4907045909209E+00 -0.7667128812321E+00
-0.8260526956089E+00 -0.1788087040350E+00 -0.4722848566347E+00 -0.7119118580995E+00
-0.8086596475134E+00 -0.1543685048612E+00 -0.4526232304680E+00 -0.6565070503990E+00
-0.7872260184566E+00 -0.1314124788067E+00 -0.4317600926186E+00 -0.6008903175949E+00
-0.7616749009753E+00 -0.1101244212438E+00 -0.4097456804037E+00 -0.5454872844859E+00
-0.7319648086325E+00 -0.9067516687475E-01 -0.3866407875077E+00 -0.4907404436932E+00
-0.6981068135033E+00 -0.7320845834241E-01 -0.3625181768480E+00 -0.4370996868115E+00
-0.6601793140379E+00 -0.5782912275922E-01 -0.3374639644387E+00 -0.3850158477607E+00
-0.6183391752793E+00 -0.4459381031879E-01 -0.3115785024408E+00 -0.3349341633857E+00
-0.5728287415285E+00 -0.3350406983866E-01 -0.2849764206198E+00 -0.2872858771897E+00
-0.5239782713617E+00 -0.2450169408844E-01 -0.2577855831077E+00 -0.2424772343206E+00
-0.4722032214327E+00 -0.1746663256823E-01 -0.2301448307967E+00 -0.2008759014328E+00
-0.4179958302327E+00 -0.1221809351887E-01 -0.2022005436504E+00 -0.1627955054254E+00
-0.3619108291443E+00 -0.8519565394766E-02 -0.1741022849918E+00 -0.1284795684472E+00
-0.3045460011942E+00 -0.6088272499127E-02 -0.1459981082656E+00 -0.9808657635715E-01
-0.2465196259748E+00 -0.4608853587428E-02 -0.1180303850949E+00 -0.7167816545652E-01
-0.1884481732916E+00 -0.3749863883376E-02 -0.9033307724314E-01 -0.4921246608885E-01
-0.1309278201283E+00 -0.3180354331214E-02 -0.6303084183610E-01 -0.3054468486594E-01
-0.7452159941423E-01 -0.2583494362282E-02 -0.3623939398304E-01 -0.1543709557612E-01
-0.8818028220466E+00 -0.2285834587755E+00 -0.5218815506627E+00 -0.8372016831713E+00
-0.8746003335807E+00 -0.2010035591904E+00 -0.5055338283202E+00 -0.7830271432223E+00
-0.8633817361633E+00 -0.1745185001219E+00 -0.4878131098168E+00 -0.7277010229856E+00
-0.8479477385204E+00 -0.1493351481235E+00 -0.4687229555338E+00 -0.6715409972977E+00
-0.8281228212251E+00 -0.1256636143046E+00 -0.4482796235620E+00 -0.6149289915985E+00
-0.8037600951440E+00 -0.1037118397658E+00 -0.4265118083258E+00 -0.5582901436067E+00
-0.7747551381318E+00 -0.8367457326661E-01 -0.4034619633339E+00 -0.5020794587819E+00
-0.7410623276210E+00 -0.6572113844864E-01 -0.3791882280910E+00 -0.4467735979199E+00
-0.7027106553835E+00 -0.4998378894558E-01 -0.3537663879374E+00 -0.3928645675807E+00
-0.6598176554166E+00 -0.3654712564255E-01 -0.3272914462677E+00 -0.3408527124875E+00
-0.6126005551067E+00 -0.2543866635298E-01 -0.2998784333255E+00 -0.2912372258896E+00
-0.5613836584488E+00 -0.1662080812712E-01 -0.2716620986017E+00 -0.2445031351537E+00
-0.5066006820617E+00 -0.9984815237358E-02 -0.2427951831147E+00 -0.2011044243027E+00
-0.4487906024105E+00 -0.5347914291807E-02 -0.2134451023087E+00 -0.1614437329911E+00
-0.3885858223606E+00 -0.2454905733638E-02 -0.1837891417381E+00 -0.1258499945540E+00
-0.3266923366743E+00 -0.9856618851705E-03 -0.1540086589323E+00 -0.9455640281073E-01
-0.2638631429132E+00 -0.5692597912927E-03 -0.1242832289559E+00 -0.6768202665405E-01
-0.2008676614674E+00 -0.8038560819745E-03 -0.9478561300778E-01 -0.4522079765019E-01
-0.1384607350567E+00 -0.1279608422787E-02 -0.6567796126876E-01 -0.2704102070672E-01
-0.7735375823366E-01 -0.1600930429351E-02 -0.3710870357750E-01 -0.1289687441012E-01
-0.9150049126633E+00 -0.2267821740233E+00 -0.5366399293816E+00 -0.8543849440410E+00
-0.9104237036052E+00 -0.1985780020291E+00 -0.5212308003261E+00 -0.8000719482858E+00
-0.9016740958270E+00 -0.1714084644471E+00 -0.5043488020496E+00 -0.7443669394247E+00
-0.8884693871176E+00 -0.1455091783889E+00 -0.4859699245555E+00 -0.6875734085787E+00
-0.8705510444680E+00 -0.1211159582969E+00 -0.4660834901174E+00 -0.6300606782766E+00
-0.8476935201453E+00 -0.9846142046937E-01 -0.4446928209610E+00 -0.5722490915570E+00
-0.8197170010831E+00 -0.7776641787450E-01 -0.4218172058402E+00 -0.5146004648909E+00
-0.7865035862158E+00 -0.5922941218890E-01 -0.3974945082420E+00 -0.4576121576045E+00
-0.7480146217013E+00 -0.4301512883393E-01 -0.3717839818086E+00 -0.4018122700034E+00
-0.7043079978287E+00 -0.2924288464645E-01 -0.3447689138889E+00 -0.3477536569285E+00
-0.6555544362677E+00 -0.1797473499208E-01 -0.3165587096892E+00 -0.2960048463804E+00
-0.6020514569229E+00 -0.9203762863327E-02 -0.2872899525708E+00 -0.2471363911167E+00
-0.5442331104587E+00 -0.2843302348075E-02 -0.2571259133670E+00 -0.2017017056040E+00
-0.4826729536541E+00  0.1281459612194E-02 -0.2262540016258E+00 -0.1602122111904E+00
-0.4180774829126E+00  0.3437357812320E-02 -0.1948808583028E+00 -0.1231077983206E+00
-0.3512677675536E+00  0.3979966404067E-02 -0.1632252661263E+00 -0.9072527237866E-01
-0.2831486269851E+00  0.3340761902384E-02 -0.1315096962553E+00 -0.6326934133588E-01
-0.2146678321283E+00  0.2003429178311E-02 -0.9995226913298E-01 -0.4079215100174E-01
-0.1467698039938E+00  0.4720813849806E-03 -0.6875992945173E-01 -0.2318689360397E-01
-0.8034921595874E-01 -0.7627096066216E-03 -0.3812260491903E-01 -0.1019760859088E-01
-0.9486563035608E+00 -0.2261367474235E+00 -0.5521527325622E+00 -0.8721520471233E+00
-0.9469134581507E+00 -0.1974119356246E+00 -0.5378329337103E+00 -0.8178844481405E+00
-0.9408855644839E+00 -0.1696385847672E+00 -0.5219463488242E+00 -0.7619693806345E+00
-0.9302004642896E+00 -0.1430743858780E+00 -0.5044391782994E+00 -0.7046921827204E+00
-0.9145141823424E+00 -0.1179767510170E+00 -0.4852707374481E+00 -0.6464050284367E+00
-0.8935156282787E+00 -0.9460087583101E-01 -0.4644147557536E+00 -0.5875173275918E+00
-0.8669385044978E+00 -0.7319323100315E-01 -0.4418619145647E+00 -0.5284900021424E+00
-0.8345774453323E+00 -0.5398261185777E-01 -0.4176232258201E+00 -0.4698325806071E+00
-0.7963068399310E+00 -0.3716943721756E-01 -0.3917338492662E+00 -0.4121011371393E+00
-0.7521016441185E+00 -0.2291346545638E-01 -0.3642571005763E+00 -0.3558949220134E+00
-0.7020594554822E+00 -0.1131989114107E-01 -0.3352882920625E+00 -0.3018495769901E+00
-0.6464225896726E+00 -0.2423984028133E-02 -0.3049578888658E+00 -0.2506249133240E+00
-0.5855979023543E+00  0.3825060594514E-02 -0.2734332349336E+00 -0.2028854197888E+00
-0.5201708201476E+00  0.7579539830464E-02 -0.2409179011380E+00 -0.1592721863566E+00
-0.4509088016303E+00  0.9105234691638E-02 -0.2076476759345E+00 -0.1203661098161E+00
-0.3787489377368E+00  0.8785941351956E-02 -0.1738826078599E+00 -0.8664441788009E-01
-0.3047656278492E+00  0.7115563199549E-02 -0.1398955300305E+00 -0.5843572688348E-01
-0.2301177336306E+00  0.4673561647288E-02 -0.1059587605634E+00 -0.3588232127248E-01
-0.1559838462042E+00  0.2080625793800E-02 -0.7233451340944E-01 -0.1892053325040E-01
-0.8349505914423E-01 -0.5407939259472E-04 -0.3926809501271E-01 -0.7286172624687E-02
-0.9826803650827E+00 -0.2267734376906E+00 -0.5684432858617E+00 -0.8905227009853E+00
-0.9839974851807E+00 -0.1976570068557E+00 -0.5553776098485E+00 -0.8365016612512E+00
-0.9809542795837E+00 -0.1693888333602E+00 -0.5406612617123E+00 -0.7805704041379E+00
-0.9730966115031E+00 -0.1422413430721E+00 -0.5242088373208E+00 -0.7229913243430E+00
-0.9599947064509E+00 -0.1164877631570E+00 -0.5059467594324E+00 -0.6640937407114E+00
-0.9412472932306E+00 -0.9240111689820E-01 -0.4858147515283E+00 -0.6042686028223E+00
-0.9164926565927E+00 -0.7025004532665E-01 -0.4637690687258E+00 -0.5439663355007E+00
-0.8854241543494E+00 -0.5029182022433E-01 -0.4397865069342E+00 -0.4836974145578E+00
-0.8478098824233E+00 -0.3276294624579E-01 -0.4138692284247E+00 -0.4240340708072E+00
-0.8035164274937E+00 -0.1786708279410E-01 -0.3860502488561E+00 -0.3656111215964E+00
-0.7525366444580E+00 -0.5759920195015E-02 -0.3563993844830E+00 -0.3091236601226E+00
-0.6950207656314E+00  0.3469240063187E-02 -0.3250292161926E+00 -0.2553190235697E+00
-0.6313088883925E+00  0.9819005290456E-02 -0.2921002443171E+00 -0.2049801400462E+00
-0.5619608534565E+00  0.1339943634001E-01 -0.2578238653908E+00 -0.1588972573658E+00
-0.4877768827843E+00  0.1445495488333E-01 -0.2224613055492E+00 -0.1178256898232E+00
-0.4097997189059E+00  0.1338162033003E-01 -0.1863165058581E+00 -0.8242934476565E-01
-0.3292881972070E+00  0.1073092034527E-01 -0.1497219197453E+00 -0.5321417579950E-01
-0.2476555447757E+00  0.7190435030769E-02 -0.1130186012935E+00 -0.3046224414450E-01
-0.1663729823160E+00  0.3534931709789E-02 -0.7653388359080E-01 -0.1418409290372E-01
-0.8687535850382E-01  0.5336449444570E-03 -0.4058060526997E-01 -0.4112244471950E-02
-0.1016989773643E+01 -0.2288263425655E+00 -0.5855335731331E+00 -0.9095130853895E+00
-0.1021587633172E+01 -0.1994785519951E+00 -0.5739011055729E+00 -0.8559592099648E+00
-0.1021796999376E+01 -0.1708593076513E+00 -0.5605484628809E+00 -0.8002334184850E+00
-0.1017088056945E+01 -0.1432490546827E+00 -0.5453584410817E+00 -0.7425702390743E+00
-0.1006946902155E+01 -0.1169289639249E+00 -0.5282216557179E+00 -0.6832702305893E+00
-0.9908806747912E+00 -0.9218266673465E-01 -0.5090397692261E+00 -0.6226976507696E+00
-0.9684265455752E+00 -0.6929422894507E-01 -0.4877287627875E+00 -0.5612813913221E+00
-0.9391656516701E+00 -0.4854379797752E-01 -0.4642234401570E+00 -0.4995191044996E+00
-0.9027421783730E+00 -0.3020038235567E-01 -0.4384830024303E+00 -0.4379833351882E+00
-0.8588885313365E+00 -0.1451117411174E-01 -0.4104978605195E+00 -0.3773279001796E+00
-0.8074575230542E+00 -0.1686586455327E-02 -0.3802977305049E+00 -0.3182922639412E+00
-0.7484620998979E+00  0.8119829187458E-02 -0.3479608663513E+00 -0.2617009821233E+00
-0.6821219577085E+00  0.1483721801550E-01 -0.3136238268603E+00 -0.2084543432923E+00
-0.6089139953419E+00  0.1850898681750E-01 -0.2774903533026E+00 -0.1595052554559E+00
-0.5296193088315E+00  0.1932865194632E-01 -0.2398366081277E+00 -0.1158166818815E+00
-0.4453537709139E+00  0.1767527003565E-01 -0.2010088949029E+00 -0.7829475599855E-01
-0.3575633897046E+00  0.1413884169222E-01 -0.1614095371564E+00 -0.4769704027450E-01
-0.2679651224319E+00  0.9519363293412E-02 -0.1214695064870E+00 -0.2452521898965E-01
-0.1784219173531E+00  0.4781344250538E-02 -0.8161106915122E-01 -0.8925637219463E-02
-0.9074705353336E-01  0.9605764155290E-03 -0.4219964413835E-01 -0.6371559615166E-03
-0.1051480790638E+01 -0.2324331231711E+00 -0.6034395379596E+00 -0.9291329836016E+00
-0.1059570468316E+01 -0.2030468634779E+00 -0.5934301444378E+00 -0.8762866414543E+00
-0.1063299378035E+01 -0.1742622579498E+00 -0.5816539674377E+00 -0.8210162298468E+00
-0.1062066963580E+01 -0.1463573871548E+00 -0.5679594434049E+00 -0.7635248734236E+00
-0.1055280827263E+01 -0.1196127921403E+00 -0.5521999997187E+00 -0.7040791694425E+00
-0.1042358947229E+01 -0.9431294222968E-01 -0.5342357866906E+00 -0.6430087640012E+00
-0.1022736361057E+01 -0.7074722676023E-01 -0.5139372849707E+00 -0.5807094810441E+00
-0.9958758405625E+00 -0.4920873821101E-01 -0.4911897507777E+00 -0.5176505685803E+00
-0.9612843212224E+00 -0.2999027974322E-01 -0.4658990612721E+00 -0.4543853364024E+00
-0.9185368701234E+00 -0.1337653392518E-01 -0.4379992987919E+00 -0.3915638440481E+00
-0.8673103727839E+00  0.3688377219278E-03 -0.4074625204457E+00 -0.3299457357161E+00
-0.8074292302057E+00  0.1102265004191E-01 -0.3743110917276E+00 -0.2704104276623E+00
-0.7389249091313E+00  0.1842985605060E-01 -0.3386326740890E+00 -0.2139603794920E+00
-0.6621093487879E+00  0.2254100343200E-01 -0.3005971215549E+00 -0.1617109571522E+00
-0.5776576810508E+00  0.2346030446090E-01 -0.2604727663366E+00 -0.1148575169282E+00
-0.4866859755507E+00  0.2150315805611E-01 -0.2186359236679E+00 -0.7460775874208E-01
-0.3907971206235E+00  0.1725416288172E-01 -0.1755651896934E+00 -0.4206851244251E-01
-0.2920537892446E+00  0.1160597392939E-01 -0.1318104728638E+00 -0.1808624509066E-01
-0.1928433273831E+00  0.5740614844260E-02 -0.8793827467019E-01 -0.3064643676791E-02
-0.9560675610305E-01  0.1028227140147E-02 -0.4445190849982E-01  0.3189916489110E-02
-0.1086014755609E+01 -0.2377121087134E+00 -0.6221516246534E+00 -0.9493802813188E+00
-0.1097795562640E+01 -0.2085179442113E+00 -0.6139673466628E+00 -0.8974906371956E+00
-0.1105298880288E+01 -0.1797972491279E+00 -0.6039951792937E+00 -0.8429444984288E+00
-0.1107865697647E+01 -0.1518198867581E+00 -0.5920522231687E+00 -0.7859111887666E+00
-0.1104833003166E+01 -0.1248557978012E+00 -0.5779537349885E+00 -0.7266199953567E+00
-0.1095536813097E+01 -0.9917898326560E-01 -0.5615164228662E+00 -0.6653598450113E+00
-0.1079314808543E+01 -0.7507106451096E-01 -0.5425613589592E+00 -0.6024832008304E+00
-0.1055512130964E+01 -0.5282382213965E-01 -0.5209178966375E+00 -0.5384153663783E+00
-0.1023492535196E+01 -0.3273929289382E-01 -0.4964289579429E+00 -0.4736688895580E+00
-0.9826575978481E+00 -0.1512621272377E-01 -0.4689583897793E+00 -0.4088622981578E+00
-0.9324772687358E+00 -0.2912842217375E-03 -0.4384012187781E+00 -0.3447420094892E+00
-0.8725359992523E+00  0.1147671192711E-01 -0.4046978640164E+00 -0.2822054699796E+00
-0.8025996105479E+00  0.1993256958864E-01 -0.3678535083178E+00 -0.2223219653004E+00
-0.7227082936760E+00  0.2491336102731E-01 -0.3279636175130E+00 -0.1663445547184E+00
-0.6332987678509E+00  0.2639409069918E-01 -0.2852451975378E+00 -0.1157015395955E+00
-0.5353499207654E+00  0.2456389375326E-01 -0.2400694320868E+00 -0.7194829043617E-01
-0.4305200840620E+00  0.1992598180297E-01 -0.1929792275723E+00 -0.3665184221652E-01
-0.3212162543830E+00  0.1340045969717E-01 -0.1446734231354E+00 -0.1118260086361E-01
-0.2104981949134E+00  0.6386623240762E-02 -0.9593243844283E-01  0.3584817983449E-02
-0.1017880640207E+00  0.6691356577818E-03 -0.4752589621001E-01  0.7596625890364E-02
-0.1120466361942E+01 -0.2447987098530E+00 -0.6416745821161E+00 -0.9702424530020E+00
-0.1136108682019E+01 -0.2160591509266E+00 -0.6355188798724E+00 -0.9195555774176E+00
-0.1147618435616E+01 -0.1876775019391E+00 -0.6275890890591E+00 -0.8660079825894E+00
-0.1154286368122E+01 -0.1599078047139E+00 -0.6176712596662E+00 -0.8097346216692E+00
-0.1155390190025E+01 -0.1330007934350E+00 -0.6055437606904E+00 -0.7509272172842E+00
-0.1150195585966E+01 -0.1072080617329E+00 -0.5909797129196E+00 -0.6898312939887E+00
-0.1137954286589E+01 -0.8278862296438E-01 -0.5737491660349E+00 -0.6267490348846E+00
-0.1117903142949E+01 -0.6001526060637E-01 -0.5536216482670E+00 -0.5620490300804E+00
-0.1089267397727E+01 -0.3917918346445E-01 -0.5303698918149E+00 -0.4961828630113E+00
-0.1051271151542E+01 -0.2059167986405E-01 -0.5037755294829E+00 -0.4297083560780E+00
-0.1003158916847E+01 -0.4581292816545E-02 -0.4736378973406E+00 -0.3633193753029E+00
-0.9442338665598E+00  0.8515607512406E-02 -0.4397875806368E+00 -0.2978818391171E+00
-0.8739210119227E+00  0.1837400416983E-01 -0.4021070926240E+00 -0.2344745002873E+00
-0.7918669983632E+00  0.2471373632120E-01 -0.3605620322452E+00 -0.1744303891963E+00
-0.6980916423979E+00  0.2735375091792E-01 -0.3152468081960E+00 -0.1193690440487E+00
-0.5932058310307E+00  0.2629612072895E-01 -0.2664475631660E+00 -0.7119822010356E-01
-0.4786946556001E+00  0.2185162189824E-01 -0.2147162252953E+00 -0.3204260274434E-01
-0.3571768730161E+00  0.1483751181553E-01 -0.1608994993561E+00 -0.4028119798010E-02
-0.2325002989439E+00  0.6778830627456E-02 -0.1060890898396E+00  0.1114121343094E-01
-0.1094250397155E+00  0.1003085583029E-04 -0.5142505403360E-01  0.1278217636472E-01
-0.1154704132303E+01 -0.2538247092202E+00 -0.6620085538369E+00 -0.9916955473587E+00
-0.1174346499613E+01 -0.2258402375897E+00 -0.6580877648160E+00 -0.9424521841271E+00
-0.1190061941423E+01 -0.1981219903840E+00 -0.6524464462944E+00 -0.8901772338663E+00
-0.1201100131134E+01 -0.1709052525097E+00 -0.6448425286768E+00 -0.8349744990313E+00
-0.1206692208580E+01 -0.1444145163052E+00 -0.6350201590854E+00 -0.7770019428855E+00
-0.1206049492525E+01 -0.1188682516292E+00 -0.6227113381731E+00 -0.7164637508509E+00
-0.1198355783648E+01 -0.9448806857131E-01 -0.6076366090018E+00 -0.6536101813792E+00
-0.1182758494436E+01 -0.7150867397770E-01 -0.5895055676594E+00 -0.5887459025718E+00
-0.1158361958561E+01 -0.5018678433056E-01 -0.5680179077185E+00 -0.5222465658956E+00
-0.1124225687494E+01 -0.3080797100802E-01 -0.5428658181190E+00 -0.4545838187431E+00
-0.1079371062550E+01 -0.1369036661599E-01 -0.5137388704050E+00 -0.3863597383528E+00
-0.1022802046428E+01  0.8165086726732E-03 -0.4803332015268E+00 -0.3183523380410E+00
-0.9535493378686E+00  0.1234080299173E-01 -0.4423680102701E+00 -0.2515740006242E+00
-0.8707538448744E+00  0.2051022015108E-01 -0.3996145026064E+00 -0.1873437874551E+00
-0.7738159327242E+00  0.2499440427201E-01 -0.3519461174798E+00 -0.1273710124400E+00
-0.6626524133827E+00  0.2557960283080E-01 -0.2994242201999E+00 -0.7383736817553E-01
-0.5381208498510E+00  0.2229305286897E-01 -0.2424390639666E+00 -0.2943930471242E-01
-0.4026524202469E+00  0.1561048013732E-01 -0.1819097113901E+00  0.2712967899988E-02
-0.2607575210940E+00  0.6938874176647E-02 -0.1192947637486E+00  0.1955432942239E-01
-0.1190527557393E+00 -0.9363906848406E-03 -0.5639489867629E-01  0.1903385473704E-01
-0.1188586497043E+01 -0.2649134717152E+00 -0.6831449835838E+00 -0.1013702289301E+01
-0.1212330663783E+01 -0.2380229918220E+00 -0.6816662164054E+00 -0.9661348563278E+00
-0.1232410356986E+01 -0.2113448831475E+00 -0.6785649611416E+00 -0.9154009636207E+00
-0.1248042908486E+01 -0.1850969457416E+00 -0.6735757297785E+00 -0.8615806079317E+00
-0.1258426849360E+01 -0.1594739474493E+00 -0.6664133728102E+00 -0.8048066485321E+00
-0.1262738269957E+01 -0.1346534578018E+00 -0.6567741103807E+00 -0.7452496219466E+00
-0.1260116805811E+01 -0.1108075834952E+00 -0.6443344613397E+00 -0.6831130023505E+00
-0.1249648256623E+01 -0.8811583365956E-01 -0.6287491208379E+00 -0.6186385231937E+00
-0.1230347129512E+01 -0.6677716306706E-01 -0.6096484159657E+00 -0.5521205078635E+00
-0.1201140874189E+01 -0.4702065954998E-01 -0.5866359193693E+00 -0.4839292753887E+00
-0.1160857733998E+01 -0.2911459840130E-01 -0.5592869948091E+00 -0.4145452800103E+00
-0.1108221825231E+01 -0.1337303326959E-01 -0.5271495821583E+00 -0.3446073833607E+00
-0.1041862752825E+01 -0.1578240088795E-03 -0.4897496698697E+00 -0.2749805388786E+00
-0.9603543347731E+00  0.1012808254195E-01 -0.4466063374159E+00 -0.2068501447354E+00
-0.8623110588270E+00  0.1706370639665E-01 -0.3972662546346E+00 -0.1418518518062E+00
-0.7466002889922E+00  0.2026112131575E-01 -0.3413794079421E+00 -0.8224447159883E-01
-0.6127842794509E+00  0.1946410887024E-01 -0.2788604794656E+00 -0.3112140380544E-01
-0.4620427486924E+00  0.1470212544872E-01 -0.2102500923913E+00  0.7394950752605E-02
-0.2988953246655E+00  0.6570043994459E-02 -0.1373928815669E+00  0.2826325860596E-01
-0.1320715633874E+00 -0.2203708949527E-02 -0.6310937783827E-01  0.2671404062094E-01
-0.1221964189083E+01 -0.2781774199009E+00 -0.7050665544340E+00 -0.1036210591745E+01
-0.1249869950497E+01 -0.2527557364770E+00 -0.7062340710866E+00 -0.9905375591076E+00
-0.1274423811937E+01 -0.2275466477387E+00 -0.7059261142573E+00 -0.9415987577977E+00
-0.1294817308733E+01 -0.2027561022218E+00 -0.7038595013634E+00 -0.8894619104391E+00
-0.1310230321977E+01 -0.1785501085837E+00 -0.6997268005885E+00 -0.8342482722780E+00
-0.1319824482175E+01 -0.1550625131195E+00 -0.6931968860304E+00 -0.7761081002934E+00
-0.1322722574232E+01 -0.1324096488178E+00 -0.6839121430985E+00 -0.7152105077696E+00
-0.1317983030885E+01 -0.1107053223678E+00 -0.6714835243257E+00 -0.6517451170148E+00
-0.1304572614529E+01 -0.9007419372193E-01 -0.6554839982154E+00 -0.5859327850703E+00
-0.1281337516543E+01 -0.7066370273708E-01 -0.6354405714501E+00 -0.5180445942064E+00
-0.1246972281568E+01 -0.5265526818256E-01 -0.6108249468336E+00 -0.4484306263504E+00
-0.1199986454002E+01 -0.3627513548841E-01 -0.5810429455866E+00 -0.3775626168790E+00
-0.1138670758960E+01 -0.2180421676659E-01 -0.5454232372081E+00 -0.3060978217082E+00
-0.1061069044603E+01 -0.9584290500944E-02 -0.5032070662228E+00 -0.2349760995093E+00
-0.9649727302209E+00 -0.1466998258959E-04 -0.4535440769453E+00 -0.1655694916091E+00
-0.8479785562086E+00  0.6473237663260E-02 -0.3955074987132E+00 -0.9991521719776E-01
-0.7077210502377E+00  0.9480250436601E-02 -0.3281731750742E+00 -0.4108055811209E-01
-0.5425532052693E+00  0.8782745801641E-02 -0.2508721153135E+00  0.6272288527476E-02
-0.3538467015193E+00  0.4318324084206E-02 -0.1642783369778E+00  0.3509314160608E-01
-0.1520357776582E+00 -0.4052025804315E-02 -0.7336126744132E-01  0.3586379019877E-01
-0.1254681609376E+01 -0.2937125965677E+00 -0.7277452749479E+00 -0.1059152119785E+01
-0.1286763297998E+01 -0.2701657409675E+00 -0.7317566464577E+00 -0.1015569902141E+01
-0.1315845339197E+01 -0.2469029208746E+00 -0.7344916803705E+00 -0.9686539301882E+00
-0.1341096998652E+01 -0.2241286941678E+00 -0.7356560737592E+00 -0.9184752342961E+00
-0.1361691988453E+01 -0.2019860313692E+00 -0.7349286674522E+00 -0.8651609866436E+00
-0.1376797754538E+01 -0.1805686863482E+00 -0.7319622253600E+00 -0.8088588833929E+00
-0.1385547736523E+01 -0.1599399329288E+00 -0.7263792027998E+00 -0.7497220164827E+00
-0.1387008804910E+01 -0.1401493218106E+00 -0.7177643177384E+00 -0.6879078246636E+00
-0.1380146648082E+01 -0.1212456441171E+00 -0.7056543755439E+00 -0.6235857506479E+00
-0.1363787598263E+01 -0.1032870946207E+00 -0.6895251039064E+00 -0.5569512033709E+00
-0.1336573509718E+01 -0.8635033890824E-01 -0.6687742071582E+00 -0.4882463364787E+00
-0.1296905293275E+01 -0.7053994070711E-01 -0.6426992583414E+00 -0.4177910158822E+00
-0.1242869812303E+01 -0.5599880104597E-01 -0.6104682467258E+00 -0.3460308931818E+00
-0.1172143980722E+01 -0.4291882950313E-01 -0.5710795193572E+00 -0.2736150512908E+00
-0.1081869209904E+01 -0.3154780042260E-01 -0.5233059935264E+00 -0.2015257111852E+00
-0.9684927826834E+00 -0.2218236801654E-01 -0.4656173196480E+00 -0.1313021260207E+00
-0.8275827108372E+00 -0.1511698306366E-01 -0.3960688551288E+00 -0.6544282526787E-01
-0.6537195397384E+00 -0.1050540652658E-01 -0.3121857239527E+00 -0.8165094190659E-02
-0.4407211219859E+00 -0.7858481610219E-02 -0.2108324131554E+00  0.3301570746397E-01
-0.1883309512762E+00 -0.7570243894940E-02 -0.9207356149689E-01  0.4386205532002E-01
-0.1286580975860E+01 -0.3115944842754E+00 -0.7511424643585E+00 -0.1082440954363E+01
-0.1322805316657E+01 -0.2903515545554E+00 -0.7581837275467E+00 -0.1041113372096E+01
-0.1356408447157E+01 -0.2695532466043E+00 -0.7642019941294E+00 -0.9964067979006E+00
-0.1386536527371E+01 -0.2494165767649E+00 -0.7688979569936E+00 -0.9484149200720E+00
-0.1412367279020E+01 -0.2300712941512E+00 -0.7719461274327E+00 -0.8972905636145E+00
-0.1433091648614E+01 -0.2115814887892E+00 -0.7729963726191E+00 -0.8431978164316E+00
-0.1447877469225E+01 -0.1939711654428E+00 -0.7716688563366E+00 -0.7862939067834E+00
-0.1455830840496E+01 -0.1772435636632E+00 -0.7675449680080E+00 -0.7267283886374E+00
-0.1455957538470E+01 -0.1613931918293E+00 -0.7601548413124E+00 -0.6646507687335E+00
-0.1447121235427E+01 -0.1464127668139E+00 -0.7489609791536E+00 -0.6002223640786E+00
-0.1427992879677E+01 -0.1322977601342E+00 -0.7333365988511E+00 -0.5336317660004E+00
-0.1396983602155E+01 -0.1190507922701E+00 -0.7125361635727E+00 -0.4651160971547E+00
-0.1352150434858E+01 -0.1066874517891E+00 -0.6856538049849E+00 -0.3949931978647E+00
-0.1291058213218E+01 -0.9524420972062E-01 -0.6515621371285E+00 -0.3237143351786E+00
-0.1210569865905E+01 -0.8478770165010E-01 -0.6088180552069E+00 -0.2519553932508E+00
-0.1106512674606E+01 -0.7541908751905E-01 -0.5555079267896E+00 -0.1807820602912E+00
-0.9731174238649E+00 -0.6725510095131E-01 -0.4889750854234E+00 -0.1119643331676E+00
-0.8019714109789E+00 -0.6029727010684E-01 -0.4052662790824E+00 -0.4862148095583E-01
-0.5797754594842E+00 -0.5390457303592E-01 -0.2978296145290E+00  0.3323511206095E-02
-0.2807964207420E+00 -0.4282269656198E-01 -0.1521009847471E+00  0.3044656658962E-01
-0.1317504174493E+01 -0.3318696534138E+00 -0.7752056971500E+00 -0.1105972232750E+01
-0.1357791911201E+01 -0.3133720961694E+00 -0.7854470814721E+00 -0.1067017102286E+01
-0.1395845745795E+01 -0.2955860823061E+00 -0.7949729571911E+00 -0.1024647688111E+01
-0.1430784145410E+01 -0.2787559641405E+00 -0.8034838494508E+00 -0.9790031687256E+00
-0.1461796885973E+01 -0.2630094970512E+00 -0.8106589979654E+00 -0.9302811424110E+00
-0.1488112552960E+01 -0.2483966302074E+00 -0.8161593140185E+00 -0.8786771142439E+00
-0.1508950316859E+01 -0.2349263565932E+00 -0.8196220344436E+00 -0.8243667628115E+00
-0.1523475274114E+01 -0.2225909198898E+00 -0.8206511091004E+00 -0.7675093509198E+00
-0.1530758313261E+01 -0.2113786310530E+00 -0.8188043617509E+00 -0.7082591481266E+00
-0.1529735362495E+01 -0.2012797729668E+00 -0.8135771116035E+00 -0.6467790562536E+00
-0.1519158768850E+01 -0.1922899895115E+00 -0.8043809143896E+00 -0.5832551801413E+00
-0.1497531743351E+01 -0.1844147429000E+00 -0.7905148465328E+00 -0.5179137832559E+00
-0.1463013216812E+01 -0.1776779639458E+00 -0.7711248530001E+00 -0.4510440109204E+00
-0.1413273056728E+01 -0.1721385404505E+00 -0.7451434487837E+00 -0.3830319678104E+00
-0.1345261763398E+01 -0.1679196655418E+00 -0.7111952697980E+00 -0.3144153594471E+00
-0.1254826411408E+01 -0.1652602584536E+00 -0.6674407331420E+00 -0.2459747165000E+00
-0.1136023661737E+01 -0.1645996128343E+00 -0.6112929374982E+00 -0.1788906496457E+00
-0.9797676715768E+00 -0.1667094079417E+00 -0.5388442260070E+00 -0.1150234012916E+00
-0.7708586937783E+00 -0.1729018898625E+00 -0.4435674731862E+00 -0.5742136809009E-01
-0.4764819331561E+00 -0.1833860263668E+00 -0.3101379401892E+00 -0.1110025596337E-01
-0.1347297946646E+01 -0.3545484141378E+00 -0.7998677875397E+00 -0.1129620531830E+01
-0.1391529041549E+01 -0.3392360330389E+00 -0.8134595829928E+00 -0.1093092469626E+01
-0.1433901885386E+01 -0.3250245147456E+00 -0.8266954059651E+00 -0.1053108960370E+01
-0.1473500284810E+01 -0.3121961565112E+00 -0.8392773252922E+00 -0.1009881261967E+01
-0.1509534302057E+01 -0.3008843349266E+00 -0.8508967572240E+00 -0.9636671838313E+00
-0.1541282144957E+01 -0.2911406360504E+00 -0.8612387048888E+00 -0.9146992011423E+00
-0.1568024882681E+01 -0.2829882342846E+00 -0.8699761627672E+00 -0.8631718233337E+00
-0.1588994792746E+01 -0.2764535385438E+00 -0.8767607134822E+00 -0.8092528960518E+00
-0.1603334757466E+01 -0.2715822500317E+00 -0.8812109912886E+00 -0.7531005950258E+00
-0.1610060728763E+01 -0.2684483865564E+00 -0.8828992819607E+00 -0.6948788815491E+00
-0.1608018542880E+01 -0.2671635731308E+00 -0.8813355922898E+00 -0.6347697259112E+00
-0.1595825742076E+01 -0.2678925511593E+00 -0.8759475955991E+00 -0.5729825922884E+00
-0.1571786794154E+01 -0.2708810002744E+00 -0.8660538611845E+00 -0.5097619728699E+00
-0.1533764418547E+01 -0.2765040151454E+00 -0.8508261616773E+00 -0.4453927298907E+00
-0.1478978777974E+01 -0.2853499207212E+00 -0.8292344862833E+00 -0.3802001599983E+00
-0.1403682915383E+01 -0.2983661902675E+00 -0.7999630776268E+00 -0.3145345998415E+00
-0.1302624791534E+01 -0.3171291430903E+00 -0.7612843473426E+00 -0.2487110112190E+00
-0.1168127372190E+01 -0.3443819984215E+00 -0.7108794023845E+00 -0.1828097963718E+00
-0.9884422136594E+00 -0.3852185834629E+00 -0.6456205730099E+00 -0.1160354276181E+00
-0.7489659023757E+00 -0.4535507956903E+00 -0.5651828466575E+00 -0.4362207982179E-01
-0.1375820501752E+01 -0.3795953455351E+00 -0.8250454461325E+00 -0.1153237755235E+01
-0.1423846875303E+01 -0.3678914845073E+00 -0.8421170269748E+00 -0.1119106843907E+01
-0.1470354711194E+01 -0.3578146747568E+00 -0.8592396092176E+00 -0.1081457031586E+01
-0.1514387213744E+01 -0.3496838287699E+00 -0.8761133877593E+00 -0.1040603940748E+01
-0.1555187443854E+01 -0.3436346018220E+00 -0.8924463592043E+00 -0.9968753986858E+00
-0.1592096686018E+01 -0.3397288349512E+00 -0.9079579925526E+00 -0.9505340977958E+00
-0.1624466333805E+01 -0.3380284453122E+00 -0.9223725438454E+00 -0.9017776546581E+00
-0.1651598951445E+01 -0.3386339008304E+00 -0.9354094381970E+00 -0.8507617752980E+00
-0.1672709018616E+01 -0.3417025217923E+00 -0.9467734215906E+00 -0.7976230304376E+00
-0.1686891262148E+01 -0.3474609004009E+00 -0.9561455139726E+00 -0.7424934783390E+00
-0.1693086341576E+01 -0.3562216824485E+00 -0.9631747688483E+00 -0.6855055620830E+00
-0.1690035536405E+01 -0.3684126210466E+00 -0.9674706315484E+00 -0.6267868702980E+00
-0.1676216245538E+01 -0.3846256653757E+00 -0.9685956956728E+00 -0.5664426392659E+00
-0.1649748982949E+01 -0.4056970902217E+00 -0.9660596519398E+00 -0.5045196791851E+00
-0.1608263872352E+01 -0.4328369206474E+00 -0.9593173702767E+00 -0.4409374021051E+00
-0.1548715880965E+01 -0.4678434933096E+00 -0.9477829035052E+00 -0.3753554183952E+00
-0.1467143354640E+01 -0.5134680346412E+00 -0.9308873506010E+00 -0.3069115970589E+00
-0.1358474870367E+01 -0.5741046971441E+00 -0.9083123944263E+00 -0.2336812243301E+00
-0.1216849396800E+01 -0.6572146072920E+00 -0.8808100796893E+00 -0.1514602895174E+00
-0.1039819544030E+01 -0.7764344898813E+00 -0.8536393937731E+00 -0.5134227381529E-01
-0.1402954777589E+01 -0.4069217059737E+00 -0.8506419451171E+00 -0.1176650679415E+01
-0.1454625814806E+01 -0.3992220540163E+00 -0.8713084961363E+00 -0.1144776129801E+01
-0.1505053523593E+01 -0.3938281742191E+00 -0.8924743957079E+00 -0.1109282902734E+01
-0.1553240627849E+01 -0.3910719662159E+00 -0.9138269168927E+00 -0.1070633127771E+01
-0.1598484756724E+01 -0.3910682049527E+00 -0.9350898896164E+00 -0.1029227152975E+01
-0.1640208691695E+01 -0.3938853035970E+00 -0.9560241753623E+00 -0.9853379264348E+00
-0.1677843792713E+01 -0.3996378860703E+00 -0.9764163865516E+00 -0.9391371524558E+00
-0.1710766045105E+01 -0.4085253311339E+00 -0.9960669443058E+00 -0.8907358373298E+00
-0.1738262608450E+01 -0.4208459578697E+00 -0.1014781023596E+01 -0.8402131670758E+00
-0.1759510517315E+01 -0.4370069199950E+00 -0.1032363192917E+01 -0.7876280491614E+00
-0.1773556857815E+01 -0.4575425818815E+00 -0.1048616733998E+01 -0.7330137564969E+00
-0.1779293871866E+01 -0.4831483103462E+00 -0.1063347822943E+01 -0.6763557635437E+00
-0.1775426246015E+01 -0.5147358219709E+00 -0.1076376169224E+01 -0.6175494155890E+00
-0.1760431230402E+01 -0.5535179254927E+00 -0.1087556100512E+01 -0.5563283623303E+00
-0.1732518718579E+01 -0.6011353060895E+00 -0.1096817388812E+01 -0.4921454687730E+00
-0.1689611589582E+01 -0.6598442583216E+00 -0.1104244245714E+01 -0.4239726055894E+00
-0.1629417429509E+01 -0.7328046406960E+00 -0.1110244370180E+01 -0.3499587705815E+00
-0.1549711286053E+01 -0.8244655268482E+00 -0.1115863099234E+01 -0.2668465534979E+00
-0.1449503922862E+01 -0.9411739354528E+00 -0.1123618590558E+01 -0.1690304668183E+00
-0.1327976146734E+01 -0.1088350223938E+01 -0.1135673391335E+01 -0.4780420828227E-01
-0.1428652713297E+01 -0.4363933649261E+00 -0.8765716545416E+00 -0.1199674909212E+01
-0.1483862992371E+01 -0.4330729516772E+00 -0.9009598914172E+00 -0.1169784759145E+01
-0.1538006180832E+01 -0.4329199746183E+00 -0.9263352907121E+00 -0.1136134865876E+01
-0.1590056750016E+01 -0.4362060934406E+00 -0.9523435340091E+00 -0.1099390063703E+01
-0.1639405585044E+01 -0.4429780331616E+00 -0.9787202980743E+00 -0.1060012502641E+01
-0.1685581911420E+01 -0.4532967383689E+00 -0.1005272962851E+01 -0.1018249625368E+01
-0.1728107154491E+01 -0.4673360719399E+00 -0.1031858313805E+01 -0.9742073370600E+00
-0.1766433804794E+01 -0.4854080584049E+00 -0.1058365673019E+01 -0.9279145844156E+00
-0.1799923112039E+01 -0.5079600419357E+00 -0.1084705079617E+01 -0.8793579463888E+00
-0.1827839929534E+01 -0.5355744296285E+00 -0.1110804745989E+01 -0.8284879754431E+00
-0.1849351426483E+01 -0.5689804947262E+00 -0.1136616000085E+01 -0.7752028291128E+00
-0.1863526901935E+01 -0.6090825988239E+00 -0.1162126462409E+01 -0.7193117330488E+00
-0.1869340676381E+01 -0.6570054286039E+00 -0.1187382666331E+01 -0.6604760627313E+00
-0.1865686565684E+01 -0.7141570975435E+00 -0.1212526518641E+01 -0.5981204282694E+00
-0.1851422990886E+01 -0.7823110839535E+00 -0.1237855012035E+01 -0.5313000285360E+00
-0.1825485565610E+01 -0.8637039786019E+00 -0.1263919082574E+01 -0.4585026217722E+00
-0.1787124551316E+01 -0.9611220045997E+00 -0.1291675878004E+01 -0.3773586515173E+00
-0.1736425187796E+01 -0.1077946294694E+01 -0.1322754593415E+01 -0.2842399363221E+00
-0.1674721935832E+01 -0.1217519174392E+01 -0.1359353318358E+01 -0.1738552054135E+00
-0.1606622920795E+01 -0.1383577077085E+01 -0.1405393995439E+01 -0.3880062390417E-01
-0.1452932882398E+01 -0.4678211032910E+00 -0.9027543709841E+00 -0.1222150280732E+01
-0.1511676945176E+01 -0.4693011720077E+00 -0.9310597127151E+00 -0.1193844142930E+01
-0.1569354628553E+01 -0.4750141074983E+00 -0.9608533035070E+00 -0.1161629487804E+01
-0.1624987911451E+01 -0.4850300878297E+00 -0.9917084571467E+00 -0.1126429958722E+01
-0.1678127278651E+01 -0.4992577968506E+00 -0.1023370982890E+01 -0.1088730392797E+01
-0.1728437564558E+01 -0.5177351612039E+00 -0.1055701178431E+01 -0.1048695071495E+01
-0.1775541571549E+01 -0.5407093458612E+00 -0.1088637928422E+01 -0.1006316150177E+01
-0.1818968745620E+01 -0.5686142443578E+00 -0.1122164002443E+01 -0.9615059608779E+00
-0.1858156521876E+01 -0.6020404383162E+00 -0.1156292568357E+01 -0.9141333253594E+00
-0.1892463620934E+01 -0.6417153906085E+00 -0.1191064132404E+01 -0.8640214578599E+00
-0.1921189989562E+01 -0.6885049656755E+00 -0.1226556625851E+01 -0.8109212608662E+00
-0.1943600316746E+01 -0.7434289616475E+00 -0.1262903757642E+01 -0.7544663552867E+00
-0.1958957560016E+01 -0.8076856106932E+00 -0.1300322286935E+01 -0.6941098245111E+00
-0.1966578731772E+01 -0.8826792339788E+00 -0.1339151240507E+01 -0.6290391785168E+00
-0.1965931225249E+01 -0.9700399235638E+00 -0.1379906436442E+01 -0.5580644550260E+00
-0.1956805726506E+01 -0.1071619089848E+01 -0.1423359660076E+01 -0.4794763011626E+00
-0.1939604319187E+01 -0.1189415068336E+01 -0.1470639108406E+01 -0.3908762815618E+00
-0.1915726645250E+01 -0.1325302119243E+01 -0.1523283515448E+01 -0.2890170882357E+00
-0.1888263732864E+01 -0.1480714521762E+01 -0.1583419775658E+01 -0.1696945518027E+00
-0.1862587564526E+01 -0.1655640227429E+01 -0.1653567058025E+01 -0.2782902733381E-01
-0.1475706350980E+01 -0.5009324114751E+00 -0.9290202159977E+00 -0.1243901297123E+01
-0.1537984315766E+01 -0.5077489447550E+00 -0.9614946300064E+00 -0.1216632160905E+01
-0.1598938288726E+01 -0.5200447587091E+00 -0.9959220297687E+00 -0.1185414086836E+01
-0.1657812565756E+01 -0.5374595209003E+00 -0.1031777878112E+01 -0.1151435442157E+01
-0.1714397327042E+01 -0.5596758784469E+00 -0.1068814403869E+01 -0.1115104908237E+01
-0.1768532164673E+01 -0.5867364224703E+00 -0.1106976233150E+01 -0.1076420723785E+01
-0.1819938972756E+01 -0.6189887216217E+00 -0.1146296013450E+01 -0.1035215294795E+01
-0.1868225957588E+01 -0.6570047324341E+00 -0.1186858421300E+01 -0.9912656961456E+00
-0.1912906843313E+01 -0.7014960582121E+00 -0.1228769360600E+01 -0.9443190694332E+00
-0.1953440978960E+01 -0.7532846247496E+00 -0.1272161030517E+01 -0.8940760498730E+00
-0.1989270385822E+01 -0.8132946088746E+00 -0.1317205544166E+01 -0.8401559905495E+00
-0.2019861415646E+01 -0.8825550191211E+00 -0.1364135720881E+01 -0.7820509406859E+00
-0.2044758081084E+01 -0.9622019419205E+00 -0.1413271207228E+01 -0.7190696806907E+00
-0.2063656576338E+01 -0.1053470038977E+01 -0.1465049505482E+01 -0.6502721351239E+00
-0.2076517959998E+01 -0.1157662628296E+01 -0.1520064872643E+01 -0.5743971554120E+00
-0.2083722348771E+01 -0.1276066728742E+01 -0.1579100862426E+01 -0.4897933328574E+00
-0.2086320055487E+01 -0.1409807266020E+01 -0.1643179836941E+01 -0.3943779941574E+00
-0.2086333031612E+01 -0.1559552815263E+01 -0.1713566343685E+01 -0.2856465857303E+00
-0.2087126304611E+01 -0.1725068482314E+01 -0.1791731545310E+01 -0.1607904284283E+00
-0.2093530414952E+01 -0.1904444801567E+01 -0.1879048346998E+01 -0.1701701293946E-01
-0.1496875549720E+01 -0.5353562583702E+00 -0.9551489473796E+00 -0.1264699462104E+01
-0.1562627066868E+01 -0.5483002245662E+00 -0.9921358244576E+00 -0.1237747382952E+01
-0.1626493762277E+01 -0.5680438161137E+00 -0.1031432659228E+01 -0.1207145897646E+01
-0.1688170280331E+01 -0.5933949869149E+00 -0.1072335672886E+01 -0.1174187616219E+01
-0.1747835929722E+01 -0.6238711817637E+00 -0.1114702339571E+01 -0.1139013945401E+01
-0.1805476595833E+01 -0.6595787999294E+00 -0.1158576033070E+01 -0.1101359919268E+01
-0.1860927987515E+01 -0.7010702897381E+00 -0.1204139187255E+01 -0.1060878799757E+01
-0.1913861240573E+01 -0.7490540684709E+00 -0.1251570192076E+01 -0.1017227538214E+01
-0.1963867951556E+01 -0.8043247072552E+00 -0.1301050546341E+01 -0.9700537669482E+00
-0.2010512006055E+01 -0.8677328633996E+00 -0.1352775085213E+01 -0.9189622712256E+00
-0.2053378751224E+01 -0.9401789389200E+00 -0.1406972110799E+01 -0.8634769623576E+00
-0.2092125304710E+01 -0.1022606635306E+01 -0.1463924008095E+01 -0.8030015095392E+00
-0.2126540373167E+01 -0.1115987343784E+01 -0.1523988023102E+01 -0.7367786483331E+00
-0.2156620706650E+01 -0.1221288088297E+01 -0.1587617129598E+01 -0.6638503880765E+00
-0.2182661470112E+01 -0.1339406297760E+01 -0.1655371846701E+01 -0.5830264655810E+00
-0.2205384618673E+01 -0.1471075872046E+01 -0.1727936426255E+01 -0.4928760527405E+00
-0.2226005989111E+01 -0.1616647354527E+01 -0.1806047066929E+01 -0.3917708354471E+00
-0.2246556739109E+01 -0.1775975612501E+01 -0.1890590200461E+01 -0.2780314994666E+00
-0.2269895483946E+01 -0.1947891759366E+01 -0.1982359999329E+01 -0.1501386675172E+00
-0.2300019033385E+01 -0.2130084781065E+01 -0.2082148787511E+01 -0.7034481967415E-02
-0.1516307777035E+01 -0.5706082883645E+00 -0.9808505482499E+00 -0.1284179230139E+01
-0.1585485767684E+01 -0.5911637106947E+00 -0.1023025252243E+01 -0.1256703058349E+01
-0.1651684449531E+01 -0.6192246511691E+00 -0.1067327274622E+01 -0.1226569264122E+01
-0.1715763300984E+01 -0.6528249710088E+00 -0.1113236485013E+01 -0.1194654311543E+01
-0.1778087007944E+01 -0.6912976394608E+00 -0.1160610781337E+01 -0.1160521771729E+01
-0.1838929735555E+01 -0.7352968904062E+00 -0.1209886511133E+01 -0.1123600638973E+01
-0.1898160865359E+01 -0.7856005935155E+00 -0.1261367882472E+01 -0.1083425984569E+01
-0.1955513584885E+01 -0.8430266363112E+00 -0.1315313900626E+01 -0.1039587943793E+01
-0.2010658238084E+01 -0.9083837566085E+00 -0.1371949734026E+01 -0.9916759225415E+00
-0.2063265844625E+01 -0.9824780521840E+00 -0.1431499627869E+01 -0.9392355436716E+00
-0.2113056462779E+01 -0.1066113168511E+01 -0.1494209722916E+01 -0.8817372532322E+00
-0.2159849967380E+01 -0.1160079347551E+01 -0.1560366774060E+01 -0.8185505919769E+00
-0.2203623639505E+01 -0.1265127464100E+01 -0.1630313014560E+01 -0.7489222575706E+00
-0.2244575209252E+01 -0.1381922994045E+01 -0.1704454151227E+01 -0.6719606444078E+00
-0.2283196146961E+01 -0.1510983021073E+01 -0.1783264204453E+01 -0.5866339603028E+00
-0.2320304947234E+01 -0.1652557165263E+01 -0.1867245188138E+01 -0.4917970634301E+00
-0.2357171333112E+01 -0.1806582689187E+01 -0.1956964385517E+01 -0.3862637769037E+00
-0.2395024051963E+01 -0.1972154893244E+01 -0.2052574099041E+01 -0.2689824057816E+00
-0.2436141725127E+01 -0.2148254059353E+01 -0.2154666013241E+01 -0.1394558360343E+00
-0.2483132489472E+01 -0.2332472196920E+01 -0.2263334196864E+01  0.2092603127833E-02
-0.1534167423536E+01 -0.6066056285223E+00 -0.1006163331915E+01 -0.1301652537638E+01
-0.1606105771270E+01 -0.6369557527917E+00 -0.1054238913635E+01 -0.1272980734439E+01
-0.1674556216453E+01 -0.6746102694570E+00 -0.1104108245577E+01 -0.1243787140231E+01
-0.1740282406505E+01 -0.7154487306131E+00 -0.1154193631518E+01 -0.1213155387357E+01
-0.1804932401573E+01 -0.7610908855423E+00 -0.1206030941885E+01 -0.1179886296890E+01
-0.1868645478432E+01 -0.8126359972305E+00 -0.1260202290365E+01 -0.1143338413508E+01
-0.1931342022511E+01 -0.8710420796395E+00 -0.1317120524670E+01 -0.1103058096987E+01
-0.1992815239693E+01 -0.9371128257149E+00 -0.1377066187249E+01 -0.1058636325336E+01
-0.2052827888536E+01 -0.1011579448739E+01 -0.1440271444866E+01 -0.1009640537199E+01
-0.2111157916942E+01 -0.1095131864611E+01 -0.1506956193507E+01 -0.9555863268921E+00
-0.2167642272149E+01 -0.1188423519277E+01 -0.1577350917970E+01 -0.8959237677643E+00
-0.2222223202416E+01 -0.1292055321614E+01 -0.1651710902105E+01 -0.8300294148460E+00
-0.2274998251995E+01 -0.1406543367763E+01 -0.1730324556898E+01 -0.7572023665404E+00
-0.2326273118890E+01 -0.1532274520211E+01 -0.1813517385778E+01 -0.6766668125121E+00
-0.2376599039491E+01 -0.1669441545682E+01 -0.1901639070208E+01 -0.5875872345421E+00
-0.2426829374495E+01 -0.1818006198874E+01 -0.1995072714423E+01 -0.4891006228436E+00
-0.2477947442235E+01 -0.1977506697582E+01 -0.2094063440403E+01 -0.3803870776630E+00
-0.2531565593879E+01 -0.2147581625831E+01 -0.2199199187685E+01 -0.2607381938106E+00
-0.2586353467616E+01 -0.2325456863095E+01 -0.2308550849579E+01 -0.1298793093759E+00
-0.2644956929874E+01 -0.2511618576556E+01 -0.2423590481875E+01  0.1066603130142E-01
-0.1548720366824E+01 -0.6429274375413E+00 -0.1030074465439E+01 -0.1315356046302E+01
-0.1626503593939E+01 -0.6909651799703E+00 -0.1089210320975E+01 -0.1286857173448E+01
-0.1694615599092E+01 -0.7340378664748E+00 -0.1141467125921E+01 -0.1259811742838E+01
-0.1761755215233E+01 -0.7802253737889E+00 -0.1194730873810E+01 -0.1230292405269E+01
-0.1828321736613E+01 -0.8318130081770E+00 -0.1250263326880E+01 -0.1197395877306E+01
-0.1894477348020E+01 -0.8900606669707E+00 -0.1308732863726E+01 -0.1160732092043E+01
-0.1960185633936E+01 -0.9557650105687E+00 -0.1370496799441E+01 -0.1119956357268E+01
-0.2025342570155E+01 -0.1029556648718E+01 -0.1435802629228E+01 -0.1074679077619E+01
-0.2089816946090E+01 -0.1112000999316E+01 -0.1504854430524E+01 -0.1024450611374E+01
-0.2153487696846E+01 -0.1203623482147E+01 -0.1577842250125E+01 -0.9687656818874E+00
-0.2216281788304E+01 -0.1304901909430E+01 -0.1654956333737E+01 -0.9070703566081E+00
-0.2278215245319E+01 -0.1416242517859E+01 -0.1736395144290E+01 -0.8387696456121E+00
-0.2339436430002E+01 -0.1537946551303E+01 -0.1822369996591E+01 -0.7632369611957E+00
-0.2400265329608E+01 -0.1670168708306E+01 -0.1913103992967E+01 -0.6798280512892E+00
-0.2461233542789E+01 -0.1812883187480E+01 -0.2008834858131E+01 -0.5879010695204E+00
-0.2523065612732E+01 -0.1965817689198E+01 -0.2109775146556E+01 -0.4868477962367E+00
-0.2586836956409E+01 -0.2128611791288E+01 -0.2216260905796E+01 -0.3761106217073E+00
-0.2653126099227E+01 -0.2300164266768E+01 -0.2328046466113E+01 -0.2552500311645E+00
-0.2726023462749E+01 -0.2482780866657E+01 -0.2448138028611E+01 -0.1234995192793E+00
-0.2789538289796E+01 -0.2665612684050E+01 -0.2563920951205E+01  0.1930990205685E-01
-0.1580653609340E+01 -0.7044932621864E+00 -0.1074019026893E+01 -0.1321409424100E+01
-0.1644495407134E+01 -0.7510012920836E+00 -0.1125883445777E+01 -0.1301402293288E+01
-0.1712461318939E+01 -0.7949053352573E+00 -0.1178462324483E+01 -0.1275881149826E+01
-0.1780490486776E+01 -0.8447411962885E+00 -0.1233858887911E+01 -0.1246336982593E+01
-0.1848342784984E+01 -0.9015718950550E+00 -0.1292459896340E+01 -0.1212992483546E+01
-0.1916244437385E+01 -0.9659415188783E+00 -0.1354627396008E+01 -0.1175719629127E+01
-0.1984294246988E+01 -0.1038219492516E+01 -0.1420581453964E+01 -0.1134196387828E+01
-0.2052514529962E+01 -0.1118781402967E+01 -0.1490509084696E+01 -0.1087995609550E+01
-0.2120878522266E+01 -0.1208001678808E+01 -0.1564573690537E+01 -0.1036626816419E+01
-0.2189348387679E+01 -0.1306233814737E+01 -0.1642923630968E+01 -0.9795594488186E+00
-0.2257909129212E+01 -0.1413783011722E+01 -0.1725695301862E+01 -0.9162390396223E+00
-0.2326602871396E+01 -0.1530877145707E+01 -0.1813015603440E+01 -0.8461024352811E+00
-0.2395563433748E+01 -0.1657636272438E+01 -0.1905003857076E+01 -0.7685950018776E+00
-0.2465051643242E+01 -0.1794044615879E+01 -0.2001775236709E+01 -0.6831907809400E+00
-0.2535478673197E+01 -0.1939920066324E+01 -0.2103437402239E+01 -0.5894162891428E+00
-0.2607460033687E+01 -0.2094932260387E+01 -0.2210124372609E+01 -0.4868706575733E+00
-0.2681693694228E+01 -0.2258473661569E+01 -0.2321878651335E+01 -0.3752540481687E+00
-0.2759835979454E+01 -0.2430524234395E+01 -0.2439469294322E+01 -0.2542576971690E+00
-0.2840852792586E+01 -0.2608010764048E+01 -0.2560965865122E+01 -0.1237836940011E+00
-0.2951456301398E+01 -0.2813910158146E+01 -0.2709722229113E+01  0.2040837622701E-01
</DataArray>
<DataArray type="Float64" Name="S_Mises" NumberOfComponents="1" ComponentName0="S_Mises" format="ascii">
 0.1729372522984E+02
 0.1550532550850E+02
 0.1408008056139E+02
 0.1352186898519E+02
 0.1308351567700E+02
 0.1275302907612E+02
 0.1246967333932E+02
 0.1221589352547E+02
 0.1197939210735E+02
 0.1175402433480E+02
 0.1153635394384E+02
 0.1132492636239E+02
 0.1111979113134E+02
 0.1092262396192E+02
 0.1073787366002E+02
 0.1057593094950E+02
 0.1043673277670E+02
 0.1028944750268E+02
 0.1010481786163E+02
 0.9882540356804E+01
 0.9635389035819E+01
 0.9376803218480E+01
 0.9117323834539E+01
 0.8864705537468E+01
 0.8624665399315E+01
 0.8401055989646E+01
 0.8195207346141E+01
 0.8010463509588E+01
 0.7856681882390E+01
 0.7744959069069E+01
 0.7684069302374E+01
 0.7681807724977E+01
 0.7744754961982E+01
 0.7876592226791E+01
 0.8078792110951E+01
 0.8360545274040E+01
 0.8818235660180E+01
 0.9511303734943E+01
 0.1099379804103E+02
 0.1160877975095E+02
 0.2017500567717E+02
 0.1468682124567E+02
 0.1512284036256E+02
 0.1401334586075E+02
 0.1332707472820E+02
 0.1288537958605E+02
 0.1253142595946E+02
 0.1223701859846E+02
 0.1197538318347E+02
 0.1173462208974E+02
 0.1150733323443E+02
 0.1128952311007E+02
 0.1107921793397E+02
 0.1087599673124E+02
 0.1068098611632E+02
 0.1049670352774E+02
 0.1032433402457E+02
 0.1015843710506E+02
 0.9986108685541E+01
 0.9794930742987E+01
 0.9580913727802E+01
 0.9348414179644E+01
 0.9105280849517E+01
 0.8859189178030E+01
 0.8616459880012E+01
 0.8381901670086E+01
 0.8158995082484E+01
 0.7950715463435E+01
 0.7760975505902E+01
 0.7595301215352E+01
 0.7459896361255E+01
 0.7360169954574E+01
 0.7299858707202E+01
 0.7280522196103E+01
 0.7301717602944E+01
 0.7363636516685E+01
 0.7478899266292E+01
 0.7653389931806E+01
 0.7918389359676E+01
 0.8061092132075E+01
 0.6904664947019E+01
 0.1376605961234E+02
 0.1313738498428E+02
 0.1412519480182E+02
 0.1371110277323E+02
 0.1308011132253E+02
 0.1264169787957E+02
 0.1228953616828E+02
 0.1199105887030E+02
 0.1172692636436E+02
 0.1148459687898E+02
 0.1125697022335E+02
 0.1103977312544E+02
 0.1083073829426E+02
 0.1062900859200E+02
 0.1043483548866E+02
 0.1024822959372E+02
 0.1006633423173E+02
 0.9883842328851E+01
 0.9696108478720E+01
 0.9499035022379E+01
 0.9289215933197E+01
 0.9066734582843E+01
 0.8835231552214E+01
 0.8599675225984E+01
 0.8364802513880E+01
 0.8134505649221E+01
 0.7912000672463E+01
 0.7700524046693E+01
 0.7503424629143E+01
 0.7323751505428E+01
 0.7164327089974E+01
 0.7027374453497E+01
 0.6913427601283E+01
 0.6820764139359E+01
 0.6746016803679E+01
 0.6687477489013E+01
 0.6642529102388E+01
 0.6587911761291E+01
 0.6457661967959E+01
 0.5872989016780E+01
 0.5156412358628E+01
 0.1171677027704E+02
 0.1206972344173E+02
 0.1314339423397E+02
 0.1319084869341E+02
 0.1276065823150E+02
 0.1235861957745E+02
 0.1202335177423E+02
 0.1173096570832E+02
 0.1146930243094E+02
 0.1122853495109E+02
 0.1100231624989E+02
 0.1078666315847E+02
 0.1057921218206E+02
 0.1037873932308E+02
 0.1018453131767E+02
 0.9994825148779E+01
 0.9805456470617E+01
 0.9612433965487E+01
 0.9415178128011E+01
 0.9213723921452E+01
 0.9005962258241E+01
 0.8790194101202E+01
 0.8567242251867E+01
 0.8339777760017E+01
 0.8111001984147E+01
 0.7883895015886E+01
 0.7661223807609E+01
 0.7445844788764E+01
 0.7240226687805E+01
 0.7045726341729E+01
 0.6862839092877E+01
 0.6691292078503E+01
 0.6529281533680E+01
 0.6373016257356E+01
 0.6217508579445E+01
 0.6057657287831E+01
 0.5881706213096E+01
 0.5652750102642E+01
 0.5266633475717E+01
 0.4575148466757E+01
 0.4733172028533E+01
 0.1068969498201E+02
 0.1126043167032E+02
 0.1227804743482E+02
 0.1258339002553E+02
 0.1236471461775E+02
 0.1203876618274E+02
 0.1173331722527E+02
 0.1145596900750E+02
 0.1120198874252E+02
 0.1096588454789E+02
 0.1074295223032E+02
 0.1052988816122E+02
 0.1032448343202E+02
 0.1012525169515E+02
 0.9930719721372E+01
 0.9738182384238E+01
 0.9543431739575E+01
 0.9343823059343E+01
 0.9140818377746E+01
 0.8936463378545E+01
 0.8729766114063E+01
 0.8518471046710E+01
 0.8301690191195E+01
 0.8080303899675E+01
 0.7856140904942E+01
 0.7631276765489E+01
 0.7407867596063E+01
 0.7188118644891E+01
 0.6973581731987E+01
 0.6764372206353E+01
 0.6559400587031E+01
 0.6356663431841E+01
 0.6152854646293E+01
 0.5943171875258E+01
 0.5721919898090E+01
 0.5482225567500E+01
 0.5210095634096E+01
 0.4868783880416E+01
 0.4393993718447E+01
 0.3900194152128E+01
 0.4799559693402E+01
 0.1000116572189E+02
 0.1060522827244E+02
 0.1152747186801E+02
 0.1196271018559E+02
 0.1191694933663E+02
 0.1168455929621E+02
 0.1142150291836E+02
 0.1116630931436E+02
 0.1092485534508E+02
 0.1069641021850E+02
 0.1047863985884E+02
 0.1026928160989E+02
 0.1006650633374E+02
 0.9868734497838E+01
 0.9674050689344E+01
 0.9479433565622E+01
 0.9281156700613E+01
 0.9077675365379E+01
 0.8871453471690E+01
 0.8665446313740E+01
 0.8459445793926E+01
 0.8251178394527E+01
 0.8038803508985E+01
 0.7821899025823E+01
 0.7601135147756E+01
 0.7377720946199E+01
 0.7153121514953E+01
 0.6928809817193E+01
 0.6705497926570E+01
 0.6482386853128E+01
 0.6257361378116E+01
 0.6027378983210E+01
 0.5788409402353E+01
 0.5535520482669E+01
 0.5263371061905E+01
 0.4965831114310E+01
 0.4632163558962E+01
 0.4241139728389E+01
 0.3799126341063E+01
 0.3606782795074E+01
 0.4982831437654E+01
 0.9465464698862E+01
 0.1004920485955E+02
 0.1087175219947E+02
 0.1136233049039E+02
 0.1144315397217E+02
 0.1130317548191E+02
 0.1109046117477E+02
 0.1086310763112E+02
 0.1063819735739E+02
 0.1042014937344E+02
 0.1020932579152E+02
 0.1000480507761E+02
 0.9805336122619E+01
 0.9609443445333E+01
 0.9415083682698E+01
 0.9219326751011E+01
 0.9019104000972E+01
 0.8813702231841E+01
 0.8606035210707E+01
 0.8399390453532E+01
 0.8194052140537E+01
 0.7987931058232E+01
 0.7778711196979E+01
 0.7565075587634E+01
 0.7346761212050E+01
 0.7124184688011E+01
 0.6898114815329E+01
 0.6669313232546E+01
 0.6437779295242E+01
 0.6202070913245E+01
 0.5959488860381E+01
 0.5706537329372E+01
 0.5439135942328E+01
 0.5152981360429E+01
 0.4844191997706E+01
 0.4509590008438E+01
 0.4146141527539E+01
 0.3757017585870E+01
 0.3417053011076E+01
 0.3525610840337E+01
 0.5151822897711E+01
 0.9017996315348E+01
 0.9560877911585E+01
 0.1029109759778E+02
 0.1079497170458E+02
 0.1096228959793E+02
 0.1090370490126E+02
 0.1074367303413E+02
 0.1054797943633E+02
 0.1034271565904E+02
 0.1013738208835E+02
 0.9935126276599E+01
 0.9736538289846E+01
 0.9541110455857E+01
 0.9347659786295E+01
 0.9154274440337E+01
 0.8958358477541E+01
 0.8757521310310E+01
 0.8551659091949E+01
 0.8343839320970E+01
 0.8137381527100E+01
 0.7932848262590E+01
 0.7728384078510E+01
 0.7521481413402E+01
 0.7310241069658E+01
 0.7093678785892E+01
 0.6871520407861E+01
 0.6643887793271E+01
 0.6410907807557E+01
 0.6172014415964E+01
 0.5925359167824E+01
 0.5668016107027E+01
 0.5396513570847E+01
 0.5107274346730E+01
 0.4797262089741E+01
 0.4464984427020E+01
 0.4111840117816E+01
 0.3745206027876E+01
 0.3394366297184E+01
 0.3186957120798E+01
 0.3548578976472E+01
 0.5271842707885E+01
 0.8629590752058E+01
 0.9120982797231E+01
 0.9769402231695E+01
 0.1026354626138E+02
 0.1048642190418E+02
 0.1049465975977E+02
 0.1038522122646E+02
 0.1022290480761E+02
 0.1003940740228E+02
 0.9848602323923E+01
 0.9656304939579E+01
 0.9464664669709E+01
 0.9274030588553E+01
 0.9083668587772E+01
 0.8891989638971E+01
 0.8696863896297E+01
 0.8496535535274E+01
 0.8291343404278E+01
 0.8084352257417E+01
 0.7878763495687E+01
 0.7675273802598E+01
 0.7472248285009E+01
 0.7267148837426E+01
 0.7057721826407E+01
 0.6842448180287E+01
 0.6620479760914E+01
 0.6391375490066E+01
 0.6154732815579E+01
 0.5909571975585E+01
 0.5653846224889E+01
 0.5384691997663E+01
 0.5099037085754E+01
 0.4794237868645E+01
 0.4469013344173E+01
 0.4124910972292E+01
 0.3768843410093E+01
 0.3419414307731E+01
 0.3129175600689E+01
 0.3059700785503E+01
 0.3612770729498E+01
 0.5341076031438E+01
 0.8283976222260E+01
 0.8717098789813E+01
 0.9294266637143E+01
 0.9766641618749E+01
 0.1002248308119E+02
 0.1008291113748E+02
 0.1001922223497E+02
 0.9890086563220E+01
 0.9729471324697E+01
 0.9554471640479E+01
 0.9373248893974E+01
 0.9189453740565E+01
 0.9004345320730E+01
 0.8817749690166E+01
 0.8628527726234E+01
 0.8435076257431E+01
 0.8236210021670E+01
 0.8032591418380E+01
 0.7827204031040E+01
 0.7623063302983E+01
 0.7420908669942E+01
 0.7219292237454E+01
 0.7015732306484E+01
 0.6807781761650E+01
 0.6593543885590E+01
 0.6371717127307E+01
 0.6141399867114E+01
 0.5901777631858E+01
 0.5651603270623E+01
 0.5388811872071E+01
 0.5110831936558E+01
 0.4815272824093E+01
 0.4500733907236E+01
 0.4168010807156E+01
 0.3822036571217E+01
 0.3475509413868E+01
 0.3157620416583E+01
 0.2939253958671E+01
 0.2998168460335E+01
 0.3684719933712E+01
 0.5366964500823E+01
 0.7970612413930E+01
 0.8340861661775E+01
 0.8856285618531E+01
 0.9301159176568E+01
 0.9573991396285E+01
 0.9673519411100E+01
 0.9649402157479E+01
 0.9551774758179E+01
 0.9414223232521E+01
 0.9255769308927E+01
 0.9086441404140E+01
 0.8911242908880E+01
 0.8732337883074E+01
 0.8550175154162E+01
 0.8364138072377E+01
 0.8173165728604E+01
 0.7976576783224E+01
 0.7775274225742E+01
 0.7572126041988E+01
 0.7369939072210E+01
 0.7169441476923E+01
 0.6969337101444E+01
 0.6767244885088E+01
 0.6560636070614E+01
 0.6347365291440E+01
 0.6125793708519E+01
 0.5894667803345E+01
 0.5652879933334E+01
 0.5399050377180E+01
 0.5131247751526E+01
 0.4847368599925E+01
 0.4545901953719E+01
 0.4226884884733E+01
 0.3893346282870E+01
 0.3553667788166E+01
 0.3226070763200E+01
 0.2948828259435E+01
 0.2805618219017E+01
 0.2975717350856E+01
 0.3748139032256E+01
 0.5358173756306E+01
 0.7682061465744E+01
 0.7986426797559E+01
 0.8448320317437E+01
 0.8863549010189E+01
 0.9142331241504E+01
 0.9269954714884E+01
 0.9278884294674E+01
 0.9210109285747E+01
 0.9095015520609E+01
 0.8953344721877E+01
 0.8796433303173E+01
 0.8630419433379E+01
 0.8458315226253E+01
 0.8281209304604E+01
 0.8099036148981E+01
 0.7911264481156E+01
 0.7717654771963E+01
 0.7519293531017E+01
 0.7318923271733E+01
 0.7119143954759E+01
 0.6920643760577E+01
 0.6722248557682E+01
 0.6521698643511E+01
 0.6316460854310E+01
 0.6104245287235E+01
 0.5883182372114E+01
 0.5651773107211E+01
 0.5408729482951E+01
 0.5152658553228E+01
 0.4881885469156E+01
 0.4594901909844E+01
 0.4291200034639E+01
 0.3972345911569E+01
 0.3643611741324E+01
 0.3316661314641E+01
 0.3014620347482E+01
 0.2782944228722E+01
 0.2712736447718E+01
 0.2974087565221E+01
 0.3796033657006E+01
 0.5322213416663E+01
 0.7412825175047E+01
 0.7649578089894E+01
 0.8064911462545E+01
 0.8450360175386E+01
 0.8727616301557E+01
 0.8874429984031E+01
 0.8910136637878E+01
 0.8867010810663E+01
 0.8773166077075E+01
 0.8648073835525E+01
 0.8503815457865E+01
 0.8347403217825E+01
 0.8182598969768E+01
 0.8011109331273E+01
 0.7833414562027E+01
 0.7649482648294E+01
 0.7459460042256E+01
 0.7264577420841E+01
 0.7067455126574E+01
 0.6870500462466E+01
 0.6674349534270E+01
 0.6477928005541E+01
 0.6279106061016E+01
 0.6075399585464E+01
 0.5864457260194E+01
 0.5644273091953E+01
 0.5413201270346E+01
 0.5169875635795E+01
 0.4912991579183E+01
 0.4641225585918E+01
 0.4353747465828E+01
 0.4051111184521E+01
 0.3736414930563E+01
 0.3417065569580E+01
 0.3107680477837E+01
 0.2835478389491E+01
 0.2651101668920E+01
 0.2648303245561E+01
 0.2981278152655E+01
 0.3826177597540E+01
 0.5265005133716E+01
 0.7158731129708E+01
 0.7327188771390E+01
 0.7701839899429E+01
 0.8058460741821E+01
 0.8329243454724E+01
 0.8488223347358E+01
 0.8545012445809E+01
 0.8524123062653E+01
 0.8449902970865E+01
 0.8340821257228E+01
 0.8209193684690E+01
 0.8062630983749E+01
 0.7905517469739E+01
 0.7740125524094E+01
 0.7567450506346E+01
 0.7387918188814E+01
 0.7202011073928E+01
 0.7011076285652E+01
 0.6817621721739E+01
 0.6623881906276E+01
 0.6430439278639E+01
 0.6236304197160E+01
 0.6039479471903E+01
 0.5837567340480E+01
 0.5628220892454E+01
 0.5409378774459E+01
 0.5179336041118E+01
 0.4936737266655E+01
 0.4680448931933E+01
 0.4409566748586E+01
 0.4123982668220E+01
 0.3825316759526E+01
 0.3518131846925E+01
 0.3211774257748E+01
 0.2923389955545E+01
 0.2683408251207E+01
 0.2545735800828E+01
 0.2602833774708E+01
 0.2989705451470E+01
 0.3838667798354E+01
 0.5191054128142E+01
 0.6916558868417E+01
 0.7016882919867E+01
 0.7355805920709E+01
 0.7685101673879E+01
 0.7946237094741E+01
 0.8111946683961E+01
 0.8184833746265E+01
 0.8182796061041E+01
 0.8126327409739E+01
 0.8032409524450E+01
 0.7913166982340E+01
 0.7776542201987E+01
 0.7627398732615E+01
 0.7468500842249E+01
 0.7301310387050E+01
 0.7126662670241E+01
 0.6945331152646E+01
 0.6758758975043E+01
 0.6569353723521E+01
 0.6379198729109E+01
 0.6188827471910E+01
 0.5997325802802E+01
 0.5802829523550E+01
 0.5603053547442E+01
 0.5395707077321E+01
 0.5178741283707E+01
 0.4950467138538E+01
 0.4709614166778E+01
 0.4455283878581E+01
 0.4187034226282E+01
 0.3905489805988E+01
 0.3613297344432E+01
 0.3316364380989E+01
 0.3025726362971E+01
 0.2760590447208E+01
 0.2553720135988E+01
 0.2460530659063E+01
 0.2569196741560E+01
 0.2994774944285E+01
 0.3834648812207E+01
 0.5103753718735E+01
 0.6683790514274E+01
 0.6716815943016E+01
 0.7024196948602E+01
 0.7327910121452E+01
 0.7577457504557E+01
 0.7745753244444E+01
 0.7830486986698E+01
 0.7844096777359E+01
 0.7803393720431E+01
 0.7723596361300E+01
 0.7616309615124E+01
 0.7489567008688E+01
 0.7348564086340E+01
 0.7196469839306E+01
 0.7035152318916E+01
 0.6865804325815E+01
 0.6689448951121E+01
 0.6507609225073E+01
 0.6322604605180E+01
 0.6136388270364E+01
 0.5949452888553E+01
 0.5760955068850E+01
 0.5569163268385E+01
 0.5371923816247E+01
 0.5167042205492E+01
 0.4952537518356E+01
 0.4726798600813E+01
 0.4488699194915E+01
 0.4237621753646E+01
 0.3973607209955E+01
 0.3697995497171E+01
 0.3414387250672E+01
 0.3129879614044E+01
 0.2856918910955E+01
 0.2616302431630E+01
 0.2442301298731E+01
 0.2390306526339E+01
 0.2542151298029E+01
 0.2993852067646E+01
 0.3815665097798E+01
 0.5005673979548E+01
 0.6458435300036E+01
 0.6425528066908E+01
 0.6704918932640E+01
 0.6984853875195E+01
 0.7221723237625E+01
 0.7389491199782E+01
 0.7482514474953E+01
 0.7508835509195E+01
 0.7481903070167E+01
 0.7415059740072E+01
 0.7319157266412E+01
 0.7202116218731E+01
 0.7069322617303E+01
 0.6924257110951E+01
 0.6769127111177E+01
 0.6605429309302E+01
 0.6434398022210E+01
 0.6257622373484E+01
 0.6077344598749E+01
 0.5895406983105E+01
 0.5712271049079E+01
 0.5527162558921E+01
 0.5338482264797E+01
 0.5144221251889E+01
 0.4942312009644E+01
 0.4730885430205E+01
 0.4508457391007E+01
 0.4274090642068E+01
 0.4027477842231E+01
 0.3769144358371E+01
 0.3501106044662E+01
 0.3227821159294E+01
 0.2957401318064E+01
 0.2703418835518E+01
 0.2487810932008E+01
 0.2345602281409E+01
 0.2330883398715E+01
 0.2517928909893E+01
 0.2985552226672E+01
 0.3783338745141E+01
 0.4898801893349E+01
 0.6238902278758E+01
 0.6141844005717E+01
 0.6396273221171E+01
 0.6654196961867E+01
 0.6877880053663E+01
 0.7042813841553E+01
 0.7141194313580E+01
 0.7177599390347E+01
 0.7162507100863E+01
 0.7107389836082E+01
 0.7022197169574E+01
 0.6914573452262E+01
 0.6789966416837E+01
 0.6652075475384E+01
 0.6503378229547E+01
 0.6345621786303E+01
 0.6180215658520E+01
 0.6008802367275E+01
 0.5833555879569E+01
 0.5656224439512E+01
 0.5477248342173E+01
 0.5295922890001E+01
 0.5110780895348E+01
 0.4919967518914E+01
 0.4721565101235E+01
 0.4513849902108E+01
 0.4295501978878E+01
 0.4065804404072E+01
 0.3824774431860E+01
 0.3573407213157E+01
 0.3314338468757E+01
 0.3052772958839E+01
 0.2797654038270E+01
 0.2563403460538E+01
 0.2372682565982E+01
 0.2260599542327E+01
 0.2278937481055E+01
 0.2493884251843E+01
 0.2969263759464E+01
 0.3739200982800E+01
 0.4784740998493E+01
 0.6023902079621E+01
 0.5864802654798E+01
 0.6096865866910E+01
 0.6334455524015E+01
 0.6544837150585E+01
 0.6705256865177E+01
 0.6806606651942E+01
 0.6850787443401E+01
 0.6845717969758E+01
 0.6801086572959E+01
 0.6725861866476E+01
 0.6627289298126E+01
 0.6510766677803E+01
 0.6380124087061E+01
 0.6238041120072E+01
 0.6086463308290E+01
 0.5926941415859E+01
 0.5761159061294E+01
 0.5591228676957E+01
 0.5418818667019E+01
 0.5244357452815E+01
 0.5067211345740E+01
 0.4886045002758E+01
 0.4699163824963E+01
 0.4504816288251E+01
 0.4301448422952E+01
 0.4087930691770E+01
 0.3863785663467E+01
 0.3629356717997E+01
 0.3386081243272E+01
 0.3137147169321E+01
 0.2888387181053E+01
 0.2649395463019E+01
 0.2435184465548E+01
 0.2268764183843E+01
 0.2184746646769E+01
 0.2231863191292E+01
 0.2468209307678E+01
 0.2944867568813E+01
 0.3684538292767E+01
 0.4664906657715E+01
 0.5812378581943E+01
 0.5593606789630E+01
 0.5805540168452E+01
 0.6024357782386E+01
 0.6221583732030E+01
 0.6376291469653E+01
 0.6478686692301E+01
 0.6528643888717E+01
 0.6531921978000E+01
 0.6496561364121E+01
 0.6430526075778E+01
 0.6340577357090E+01
 0.6231970657001E+01
 0.6108586650277E+01
 0.5973242186895E+01
 0.5828031782760E+01
 0.5674615498332E+01
 0.5514705803489E+01
 0.5350358103074E+01
 0.5183172495086E+01
 0.5013573817164E+01
 0.4841001244026E+01
 0.4664250876883E+01
 0.4481791919632E+01
 0.4292049727384E+01
 0.4093656511655E+01
 0.3885689684767E+01
 0.3667919868852E+01
 0.3441007354386E+01
 0.3206794403560E+01
 0.2968946344524E+01
 0.2733803676135E+01
 0.2511438954076E+01
 0.2317219358340E+01
 0.2174170534070E+01
 0.2115919926479E+01
 0.2187650630289E+01
 0.2439699604983E+01
 0.2912580508167E+01
 0.3620372457782E+01
 0.4540327996166E+01
 0.5603696517279E+01
 0.5327586396192E+01
 0.5521325977672E+01
 0.5722809294820E+01
 0.5907194026384E+01
 0.6055360079650E+01
 0.6157266033465E+01
 0.6211288026113E+01
 0.6221394717412E+01
 0.6194141760516E+01
 0.6136506078333E+01
 0.6054711947509E+01
 0.5953799486142E+01
 0.5837629856666E+01
 0.5709097639647E+01
 0.5570400259929E+01
 0.5423277138185E+01
 0.5269457301117E+01
 0.5110941556044E+01
 0.4949270685612E+01
 0.4784872891511E+01
 0.4617261943327E+01
 0.4445364586488E+01
 0.4267815156375E+01
 0.4083221938938E+01
 0.3890412853533E+01
 0.3688680425800E+01
 0.3478042871276E+01
 0.3259459528870E+01
 0.3035133202220E+01
 0.2809128420537E+01
 0.2588176353567E+01
 0.2382668050104E+01
 0.2208114269781E+01
 0.2087264844584E+01
 0.2052366866037E+01
 0.2144766124821E+01
 0.2407621083507E+01
 0.2872690651964E+01
 0.3548047903951E+01
 0.4409978669952E+01
 0.5403008769945E+01
 0.5066171479338E+01
 0.5243401208909E+01
 0.5428863529066E+01
 0.5600825761743E+01
 0.5741899781690E+01
 0.5842104286059E+01
 0.5898740031615E+01
 0.5914316326137E+01
 0.5894077915964E+01
 0.5844061025063E+01
 0.5769927218490E+01
 0.5676446779483E+01
 0.5567402125799E+01
 0.5445712361544E+01
 0.5313635686764E+01
 0.5172963057068E+01
 0.5025427758237E+01
 0.4872976592227E+01
 0.4717097680263E+01
 0.4558228069257E+01
 0.4395957381083E+01
 0.4229341624484E+01
 0.4057179630093E+01
 0.3878264691957E+01
 0.3691624118238E+01
 0.3496766624085E+01
 0.3293950131250E+01
 0.3084408516729E+01
 0.2870656353291E+01
 0.2657078848581E+01
 0.2450686837357E+01
 0.2262044792019E+01
 0.2106620524867E+01
 0.2006637227964E+01
 0.1992652586509E+01
 0.2102068288015E+01
 0.2371530360506E+01
 0.2825731395359E+01
 0.3468116833483E+01
 0.4276103234986E+01
 0.5200097403911E+01
 0.4808871583774E+01
 0.4971062311898E+01
 0.5141697264202E+01
 0.5301715151283E+01
 0.5435357190393E+01
 0.5532912849491E+01
 0.5590942625193E+01
 0.5610785971170E+01
 0.5596550016966E+01
 0.5553395625784E+01
 0.5486417407716E+01
 0.5400077963564E+01
 0.5298032693862E+01
 0.5183178903490E+01
 0.5057797734328E+01
 0.4923706069032E+01
 0.4782629277978E+01
 0.4636459194798E+01
 0.4486635846164E+01
 0.4333609121774E+01
 0.4177045055668E+01
 0.4016126829745E+01
 0.3849815388684E+01
 0.3677087761454E+01
 0.3497169441841E+01
 0.3309780564251E+01
 0.3115404961602E+01
 0.2915521726867E+01
 0.2712906163726E+01
 0.2512187673879E+01
 0.2320553935144E+01
 0.2148613293546E+01
 0.2011627650228E+01
 0.1931080852152E+01
 0.1935615589322E+01
 0.2058714502586E+01
 0.2331244094228E+01
 0.2772144943525E+01
 0.3381680777533E+01
 0.4138163336528E+01
 0.4998216898267E+01
 0.4555260149704E+01
 0.4703701393151E+01
 0.4860590169163E+01
 0.5009170225921E+01
 0.5135197409447E+01
 0.5229372520705E+01
 0.5287778895614E+01
 0.5310835060904E+01
 0.5301676044133E+01
 0.5264663753137E+01
 0.5204337987834E+01
 0.5124830235284E+01
 0.5029631062434E+01
 0.4921576668430E+01
 0.4802937765872E+01
 0.4675533861364E+01
 0.4541070519237E+01
 0.4401382381646E+01
 0.4257864128936E+01
 0.4110981063956E+01
 0.3960475373388E+01
 0.3805654542008E+01
 0.3645637702762E+01
 0.3479581550573E+01
 0.3306904559947E+01
 0.3127528828286E+01
 0.2942145804202E+01
 0.2752447298809E+01
 0.2561417842567E+01
 0.2373858314805E+01
 0.2197039702905E+01
 0.2041499968208E+01
 0.1922153850155E+01
 0.1859569598243E+01
 0.1880322590419E+01
 0.2014106984633E+01
 0.2286716746858E+01
 0.2712485132003E+01
 0.3289396681431E+01
 0.3996935330977E+01
 0.4797477187224E+01
 0.4304962404232E+01
 0.4440788315718E+01
 0.4584907898175E+01
 0.4722563595017E+01
 0.4840908974089E+01
 0.4931146330598E+01
 0.4989086721005E+01
 0.5014438957711E+01
 0.5009519421568E+01
 0.4977972580822E+01
 0.4923807465796E+01
 0.4850813044214E+01
 0.4762286793781E+01
 0.4660971318173E+01
 0.4549097983869E+01
 0.4428467970828E+01
 0.4300755593484E+01
 0.4167735105435E+01
 0.4030757040555E+01
 0.3890303363194E+01
 0.3746191290792E+01
 0.3597848943831E+01
 0.3444548369486E+01
 0.3285619564943E+01
 0.3120665582311E+01
 0.2949797402204E+01
 0.2773892563171E+01
 0.2594821336428E+01
 0.2415726945977E+01
 0.2241513968586E+01
 0.2079452856702E+01
 0.1939911319282E+01
 0.1837335576776E+01
 0.1791235746903E+01
 0.1826032823987E+01
 0.1967831092463E+01
 0.2238024326350E+01
 0.2647263511274E+01
 0.3191950031842E+01
 0.3852980758400E+01
 0.4597566490329E+01
 0.4057645875235E+01
 0.4181856562295E+01
 0.4314088102711E+01
 0.4441325251486E+01
 0.4552006100510E+01
 0.4637888738027E+01
 0.4694670273451E+01
 0.4721527139663E+01
 0.4720096267159E+01
 0.4693386963544E+01
 0.4644909633607E+01
 0.4578108998439E+01
 0.4496069626987E+01
 0.4401414417010E+01
 0.4296310778763E+01
 0.4182522965810E+01
 0.4061683190783E+01
 0.3935501412151E+01
 0.3805283929710E+01
 0.3671529431567E+01
 0.3534128198315E+01
 0.3392624552103E+01
 0.3246437030718E+01
 0.3095060732425E+01
 0.2938272411604E+01
 0.2776356184350E+01
 0.2610352043090E+01
 0.2442273892162E+01
 0.2275375185001E+01
 0.2114602054764E+01
 0.1967150134396E+01
 0.1843130194309E+01
 0.1756416545964E+01
 0.1725349901598E+01
 0.1772164262125E+01
 0.1919616425486E+01
 0.2185314084210E+01
 0.2576975860761E+01
 0.3089962906969E+01
 0.3706648236309E+01
 0.4398268332211E+01
 0.3813012875303E+01
 0.3926491968838E+01
 0.4047628840591E+01
 0.4164935752082E+01
 0.4268029163641E+01
 0.4349252072576E+01
 0.4404309082192E+01
 0.4431991867565E+01
 0.4433382072459E+01
 0.4410933840574E+01
 0.4367696100895E+01
 0.4306775096783E+01
 0.4231029877361E+01
 0.4142943308631E+01
 0.4044598285550E+01
 0.3937705833873E+01
 0.3823845920635E+01
 0.3704659827929E+01
 0.3581408490790E+01
 0.3454606350473E+01
 0.3324213997640E+01
 0.3189886822944E+01
 0.3051182483902E+01
 0.2907751560104E+01
 0.2759531811465E+01
 0.2606962919754E+01
 0.2451222551761E+01
 0.2294433823626E+01
 0.2139914821093E+01
 0.1992597058576E+01
 0.1859536145950E+01
 0.1750511042028E+01
 0.1678736969350E+01
 0.1661302313611E+01
 0.1718265835379E+01
 0.1869301946127E+01
 0.2128779820552E+01
 0.2502094606262E+01
 0.2983966406564E+01
 0.3558206826594E+01
 0.4199440785548E+01
 0.3570794483078E+01
 0.3674323666602E+01
 0.3785078946010E+01
 0.3892919931856E+01
 0.3988544039397E+01
 0.4064890918322E+01
 0.4117765087672E+01
 0.4145695475023E+01
 0.4149317727003E+01
 0.4130606509879E+01
 0.4092188973811E+01
 0.4036844200415E+01
 0.3967199077509E+01
 0.3885581212967E+01
 0.3793972144832E+01
 0.3694015568861E+01
 0.3587229853136E+01
 0.3475182949032E+01
 0.3359088476562E+01
 0.3239474787244E+01
 0.3116369333873E+01
 0.2989532839487E+01
 0.2858653967438E+01
 0.2723528123869E+01
 0.2584240134753E+01
 0.2441366593520E+01
 0.2296197736465E+01
 0.2150932650367E+01
 0.2008911863363E+01
 0.1875002101942E+01
 0.1756062128676E+01
 0.1661474654114E+01
 0.1603723192405E+01
 0.1598586180804E+01
 0.1663993583692E+01
 0.1816809175432E+01
 0.2068644190181E+01
 0.2423059785086E+01
 0.2874419536962E+01
 0.3407891959387E+01
 0.4000994259636E+01
 0.3330745674819E+01
 0.3425016737022E+01
 0.3526030000012E+01
 0.3624841209909E+01
 0.3713140746351E+01
 0.3784464969647E+01
 0.3834788063792E+01
 0.3862476428578E+01
 0.3867814862080E+01
 0.3852368672300E+01
 0.3818383576176E+01
 0.3768326668881E+01
 0.3704590818020E+01
 0.3629337523468E+01
 0.3544433458469E+01
 0.3451442947796E+01
 0.3351814245882E+01
 0.3247037213563E+01
 0.3138275586262E+01
 0.3026069071278E+01
 0.2910507950937E+01
 0.2791452057416E+01
 0.2668712405934E+01
 0.2542217889230E+01
 0.2412185727207E+01
 0.2279310321673E+01
 0.2144969727479E+01
 0.2011407537352E+01
 0.1881948267144E+01
 0.1761349522279E+01
 0.1656223952155E+01
 0.1575502700140E+01
 0.1530877975070E+01
 0.1536782792789E+01
 0.1609090599676E+01
 0.1762121624390E+01
 0.2005145197407E+01
 0.2340278326853E+01
 0.2761727707964E+01
 0.3255922286435E+01
 0.3802878496923E+01
 0.3092641348014E+01
 0.3178266204954E+01
 0.3270109606179E+01
 0.3360296485074E+01
 0.3441431681078E+01
 0.3507640762641E+01
 0.3555119728765E+01
 0.3582154313961E+01
 0.3588760529323E+01
 0.3576158186473E+01
 0.3546251136692E+01
 0.3501212098757E+01
 0.3443201748298E+01
 0.3374208282709E+01
 0.3295972926387E+01
 0.3209970485833E+01
 0.3117571442661E+01
 0.3020182836800E+01
 0.2918915506499E+01
 0.2814317404128E+01
 0.2706537145304E+01
 0.2595527088569E+01
 0.2481211604959E+01
 0.2363641365576E+01
 0.2243151025260E+01
 0.2120533781267E+01
 0.1997231663907E+01
 0.1875503527068E+01
 0.1758623314547E+01
 0.1651200699051E+01
 0.1559559639973E+01
 0.1492132285041E+01
 0.1459771520083E+01
 0.1475548441447E+01
 0.1553370394139E+01
 0.1705268802831E+01
 0.1938527146998E+01
 0.2254126737638E+01
 0.2646255941793E+01
 0.3102506134831E+01
 0.3605074032649E+01
 0.2856273042660E+01
 0.2933792084766E+01
 0.3016975730829E+01
 0.3098911588242E+01
 0.3173049643333E+01
 0.3234092586483E+01
 0.3278496811499E+01
 0.3304533901283E+01
 0.3312021255216E+01
 0.3301890506706E+01
 0.3275741390163E+01
 0.3235471116544E+01
 0.3183012702979E+01
 0.3120176814387E+01
 0.3048571149998E+01
 0.2969572557357E+01
 0.2884466931601E+01
 0.2794573895752E+01
 0.2700948087805E+01
 0.2604142184538E+01
 0.2504358299813E+01
 0.2401634508742E+01
 0.2295999389468E+01
 0.2187613599691E+01
 0.2076914369654E+01
 0.1964775223230E+01
 0.1852679675781E+01
 0.1742875134666E+01
 0.1638554338588E+01
 0.1544145329870E+01
 0.1465646617391E+01
 0.1410950687441E+01
 0.1390033293070E+01
 0.1414603004181E+01
 0.1496703162941E+01
 0.1646313944322E+01
 0.1869034905734E+01
 0.2164954595254E+01
 0.2528337835149E+01
 0.2947844304652E+01
 0.3407586534949E+01
 0.2621446212214E+01
 0.2691335259516E+01
 0.2766311911735E+01
 0.2840337242197E+01
 0.2907645779367E+01
 0.2963502803025E+01
 0.3004653293073E+01
 0.3029408432185E+01
 0.3037446528087E+01
 0.3029461799852E+01
 0.3006785061390E+01
 0.2971057190869E+01
 0.2923989926180E+01
 0.2867214492690E+01
 0.2802199089294E+01
 0.2730215673281E+01
 0.2652459553653E+01
 0.2570158553206E+01
 0.2484307645832E+01
 0.2395460436515E+01
 0.2303867486530E+01
 0.2209645682332E+01
 0.2112918685429E+01
 0.2013945518242E+01
 0.1913251558810E+01
 0.1811773111727E+01
 0.1711014393446E+01
 0.1613187412018E+01
 0.1521376934376E+01
 0.1439800326236E+01
 0.1374098849109E+01
 0.1331590386369E+01
 0.1321344647420E+01
 0.1353720061096E+01
 0.1439004516878E+01
 0.1585344681572E+01
 0.1796910358207E+01
 0.2073087902894E+01
 0.2408281805955E+01
 0.2792131691756E+01
 0.3210442970743E+01
 0.2387977930190E+01
 0.2450654022513E+01
 0.2517823175621E+01
 0.2584245473612E+01
 0.2644887525029E+01
 0.2695561745168E+01
 0.2733322002794E+01
 0.2756562259625E+01
 0.2764871783224E+01
 0.2758751755622E+01
 0.2739296218715E+01
 0.2707908442918E+01
 0.2666086375016E+01
 0.2615281636028E+01
 0.2556818665511E+01
 0.2491858909657E+01
 0.2421501858284E+01
 0.2346879418786E+01
 0.2268923384557E+01
 0.2188184337653E+01
 0.2104956136751E+01
 0.2019427604722E+01
 0.1931808550751E+01
 0.1842445133444E+01
 0.1751937167943E+01
 0.1661267433132E+01
 0.1571942051232E+01
 0.1486116578023E+01
 0.1406744785730E+01
 0.1337808475211E+01
 0.1284563999209E+01
 0.1253724452731E+01
 0.1253432242776E+01
 0.1292718398476E+01
 0.1380226284554E+01
 0.1522465998988E+01
 0.1722390273122E+01
 0.1978832069981E+01
 0.2286375727222E+01
 0.2635558658193E+01
 0.3013689085116E+01
 0.2155694943627E+01
 0.2211521147372E+01
 0.2271232533860E+01
 0.2330326421176E+01
 0.2384456598697E+01
 0.2429967321724E+01
 0.2464235716004E+01
 0.2485772959153E+01
 0.2494120957886E+01
 0.2489626120634E+01
 0.2473174502101E+01
 0.2445949449928E+01
 0.2409243096684E+01
 0.2364328522965E+01
 0.2312383511337E+01
 0.2254454493165E+01
 0.2191540614678E+01
 0.2124674057077E+01
 0.2054719952435E+01
 0.1982221859011E+01
 0.1907511789978E+01
 0.1830843775563E+01
 0.1752505171345E+01
 0.1672918632316E+01
 0.1592745662272E+01
 0.1513000716251E+01
 0.1435175247862E+01
 0.1361350305482E+01
 0.1294329225832E+01
 0.1237836999579E+01
 0.1196720727956E+01
 0.1177062365284E+01
 0.1186062235100E+01
 0.1231454753559E+01
 0.1320349038897E+01
 0.1457794915253E+01
 0.1645705084525E+01
 0.1882474544897E+01
 0.2162890646396E+01
 0.2478312516853E+01
 0.2817387982302E+01
 0.1924432003439E+01
 0.1973721380488E+01
 0.2026277949186E+01
 0.2078285486362E+01
 0.2126047073538E+01
 0.2166424426017E+01
 0.2197127877072E+01
 0.2216813022686E+01
 0.2225008695624E+01
 0.2221939004030E+01
 0.2208307252269E+01
 0.2185093058444E+01
 0.2153390694333E+01
 0.2114296548344E+01
 0.2068839891046E+01
 0.2017948570364E+01
 0.1962517509339E+01
 0.1903475676870E+01
 0.1841618167477E+01
 0.1777477553118E+01
 0.1711418957787E+01
 0.1643755137251E+01
 0.1574842854420E+01
 0.1505171380068E+01
 0.1435452336156E+01
 0.1366718803598E+01
 0.1300433421680E+01
 0.1238587751393E+01
 0.1183818649864E+01
 0.1139576149768E+01
 0.1110276239689E+01
 0.1101346309620E+01
 0.1119035216958E+01
 0.1169817664714E+01
 0.1259376043327E+01
 0.1391456473631E+01
 0.1567078283741E+01
 0.1784287195691E+01
 0.2038084032018E+01
 0.2320579333621E+01
 0.2621619812196E+01
 0.1694030415832E+01
 0.1737049270945E+01
 0.1782709684899E+01
 0.1827840777863E+01
 0.1869363546834E+01
 0.1904644226944E+01
 0.1931733058514E+01
 0.1949451247292E+01
 0.1957342295868E+01
 0.1955535030426E+01
 0.1944571601897E+01
 0.1925242261828E+01
 0.1898450936481E+01
 0.1865119578817E+01
 0.1826127856145E+01
 0.1782282233319E+01
 0.1734370109429E+01
 0.1683214086256E+01
 0.1629535999154E+01
 0.1573853578027E+01
 0.1516560186709E+01
 0.1458021154607E+01
 0.1398655082985E+01
 0.1339008887585E+01
 0.1279834117005E+01
 0.1222171411644E+01
 0.1167443095438E+01
 0.1117539421333E+01
 0.1074917913028E+01
 0.1042737984542E+01
 0.1024964219348E+01
 0.1026348035919E+01
 0.1052181898808E+01
 0.1107722307081E+01
 0.1197328361840E+01
 0.1323580721788E+01
 0.1486726235121E+01
 0.1684528545588E+01
 0.1912202857966E+01
 0.2162546252935E+01
 0.2426482776208E+01
 0.1464336769696E+01
 0.1501307268953E+01
 0.1540287963070E+01
 0.1578720807206E+01
 0.1614119421823E+01
 0.1644343418226E+01
 0.1667787274312E+01
 0.1683453956081E+01
 0.1690923548084E+01
 0.1690251475389E+01
 0.1681836661531E+01
 0.1666292276997E+01
 0.1644338652198E+01
 0.1616725660811E+01
 0.1584182802388E+01
 0.1547392980784E+01
 0.1507033283392E+01
 0.1463817114875E+01
 0.1418390013381E+01
 0.1371251161373E+01
 0.1322817511974E+01
 0.1273501203981E+01
 0.1223775764948E+01
 0.1174237834960E+01
 0.1125670288287E+01
 0.1079112516561E+01
 0.1035937944664E+01
 0.9979269775063E+00
 0.9673478945103E+00
 0.9470555626182E+00
 0.9405433569199E+00
 0.9518663953230E+00
 0.9853595489451E+00
 0.1045106217253E+01
 0.1134240924213E+01
 0.1254300442798E+01
 0.1404858299816E+01
 0.1583445970153E+01
 0.1785486794751E+01
 0.2004404651863E+01
 0.2232095941629E+01
 0.1235201803026E+01
 0.1266304036164E+01
 0.1298780870564E+01
 0.1330662403573E+01
 0.1360035331246E+01
 0.1385243529635E+01
 0.1405028319574E+01
 0.1418586275510E+01
 0.1425550711678E+01
 0.1425920672118E+01
 0.1419966113213E+01
 0.1408133158432E+01
 0.1390964277285E+01
 0.1369039475260E+01
 0.1342937852494E+01
 0.1313217068601E+01
 0.1280441558638E+01
 0.1245213002293E+01
 0.1208097786815E+01
 0.1169572999795E+01
 0.1130074762050E+01
 0.1090056667102E+01
 0.1050040979413E+01
 0.1010667344192E+01
 0.9727432239091E+00
 0.9373006021699E+00
 0.9056587491254E+00
 0.8794831532741E+00
 0.8608455226907E+00
 0.8522829151147E+00
 0.8567967914278E+00
 0.8777257634602E+00
 0.9184492590612E+00
 0.9819258433980E+00
 0.1070159381292E+01
 0.1183749458021E+01
 0.1321677196780E+01
 0.1481277972867E+01
 0.1658171810776E+01
 0.1846354629624E+01
 0.2038604792034E+01
 0.1006479377772E+01
 0.1031852920593E+01
 0.1057962463015E+01
 0.1083408839457E+01
 0.1106837789739E+01
 0.1127070521993E+01
 0.1143196507140E+01
 0.1154613982629E+01
 0.1161021282456E+01
 0.1162373441066E+01
 0.1158822061724E+01
 0.1150653889147E+01
 0.1138238075967E+01
 0.1121986645350E+01
 0.1102328249285E+01
 0.1079694006569E+01
 0.1054533734518E+01
 0.1027335111215E+01
 0.9985826563628E+00
 0.9687279170148E+00
 0.9382219278792E+00
 0.9075547563284E+00
 0.8772919865414E+00
 0.8481109672092E+00
 0.8208393279691E+00
 0.7964988115130E+00
 0.7763533084266E+00
 0.7619520751915E+00
 0.7551648304211E+00
 0.7581964972060E+00
 0.7735330806138E+00
 0.8037757310827E+00
 0.8513541898458E+00
 0.9181539038357E+00
 0.1005137626313E+01
 0.1112061365500E+01
 0.1237379561865E+01
 0.1378256686384E+01
 0.1530494602369E+01
 0.1688611705954E+01
 0.1846191241969E+01
 0.7780255379960E+00
 0.7977705563848E+00
 0.8176110320817E+00
 0.8367082348183E+00
 0.8542583869824E+00
 0.8695553494532E+00
 0.8820369314102E+00
 0.8913075167884E+00
 0.8971375801933E+00
 0.8994459725236E+00
 0.8982729211614E+00
 0.8937510328449E+00
 0.8860793971329E+00
 0.8755035068618E+00
 0.8623015971679E+00
 0.8467772396907E+00
 0.8292639443396E+00
 0.8101332446705E+00
 0.7897850595884E+00
 0.7686418552593E+00
 0.7471652842098E+00
 0.7258771377171E+00
 0.7053817386904E+00
 0.6863907027164E+00
 0.6697506826586E+00
 0.6564750620934E+00
 0.6477764710557E+00
 0.6450906687549E+00
 0.6500802948225E+00
 0.6645995771231E+00
 0.6905898868294E+00
 0.7298927781119E+00
 0.7839991089072E+00
 0.8537776077193E+00
 0.9392358995200E+00
 0.1039368608642E+01
 0.1152156692436E+01
 0.1274610811468E+01
 0.1402698511024E+01
 0.1531417286388E+01
 0.1655091406304E+01
 0.5496976339633E+00
 0.5638755563219E+00
 0.5775075456618E+00
 0.5903126567416E+00
 0.6020349174192E+00
 0.6124384093288E+00
 0.6213080529412E+00
 0.6284549260631E+00
 0.6337238089775E+00
 0.6370004872185E+00
 0.6382170945204E+00
 0.6373549158312E+00
 0.6344449630967E+00
 0.6295672234245E+00
 0.6228495884201E+00
 0.6144672554356E+00
 0.6046358073026E+00
 0.5936083067199E+00
 0.5816968654862E+00
 0.5692906474518E+00
 0.5568569856621E+00
 0.5449445160609E+00
 0.5341928207341E+00
 0.5253475294675E+00
 0.5192790209260E+00
 0.5170022543878E+00
 0.5196906551431E+00
 0.5286729556459E+00
 0.5453956023276E+00
 0.5713329133557E+00
 0.6078428844466E+00
 0.6559853349720E+00
 0.7163318289044E+00
 0.7887979069206E+00
 0.8725194404720E+00
 0.9658017925827E+00
 0.1066195493476E+01
 0.1170569328763E+01
 0.1275042049010E+01
 0.1375055790931E+01
 0.1465627664904E+01
 0.3213535301115E+00
 0.3299872882552E+00
 0.3374345652282E+00
 0.3439809181154E+00
 0.3499239730995E+00
 0.3554976334849E+00
 0.3608289190335E+00
 0.3659291590893E+00
 0.3707121294633E+00
 0.3750275146069E+00
 0.3786985192927E+00
 0.3815557505874E+00
 0.3834633895680E+00
 0.3843370003601E+00
 0.3841544656682E+00
 0.3829617676377E+00
 0.3808543658282E+00
 0.3779632543906E+00
 0.3745074583961E+00
 0.3708359274203E+00
 0.3674142548218E+00
 0.3648122713599E+00
 0.3637043497387E+00
 0.3648786446977E+00
 0.3692488245073E+00
 0.3778590104322E+00
 0.3918681517962E+00
 0.4125030713944E+00
 0.4409669120027E+00
 0.4783002967960E+00
 0.5252255854372E+00
 0.5820051221177E+00
 0.6483277345301E+00
 0.7232301521417E+00
 0.8050577164082E+00
 0.8914891822366E+00
 0.9796796797069E+00
 0.1066366550802E+01
 0.1147812061148E+01
 0.1219884102975E+01
 0.1278268780400E+01
 0.9285168174446E-01
 0.9592518281882E-01
 0.9718271560342E-01
 0.9754952510273E-01
 0.9793150209418E-01
 0.9903102483407E-01
 0.1012639654088E+00
 0.1047677986756E+00
 0.1094640401542E+00
 0.1151349915851E+00
 0.1214917447845E+00
 0.1282276256935E+00
 0.1350583084122E+00
 0.1417505556469E+00
 0.1481414985391E+00
 0.1541496346054E+00
 0.1597456245873E+00
 0.1649288105630E+00
 0.1698099151825E+00
 0.1746786219506E+00
 0.1799834545603E+00
 0.1863146894355E+00
 0.1944067076369E+00
 0.2051472082211E+00
 0.2195733373981E+00
 0.2388333076343E+00
 0.2641014124686E+00
 0.2964610824044E+00
 0.3367721835233E+00
 0.3855340705681E+00
 0.4427743107576E+00
 0.5079711053419E+00
 0.5799997931683E+00
 0.6571069120243E+00
 0.7369243570040E+00
 0.8165563285736E+00
 0.8927913510381E+00
 0.9622495312401E+00
 0.1021345401373E+01
 0.1066385037602E+01
 0.1093749054027E+01
 0.1359579670133E+00
 0.1384974449865E+00
 0.1435236664237E+00
 0.1497163367585E+00
 0.1557265220103E+00
 0.1603607613004E+00
 0.1627512290804E+00
 0.1624351101633E+00
 0.1593361739702E+00
 0.1536814573975E+00
 0.1458929348535E+00
 0.1364840296484E+00
 0.1259769555082E+00
 0.1148453503959E+00
 0.1034794836656E+00
 0.9217070196845E-01
 0.8115539054722E-01
 0.7065256835501E-01
 0.6079130075085E-01
 0.5166579736962E-01
 0.4373619988288E-01
 0.3866488607480E-01
 0.4000579717956E-01
 0.5087618874188E-01
 0.7115571330244E-01
 0.9975756489044E-01
 0.1362740526489E+00
 0.1807294848962E+00
 0.2331704689100E+00
 0.2933885940275E+00
 0.3607382744216E+00
 0.4340210846287E+00
 0.5114191133678E+00
 0.5904844930117E+00
 0.6681981109126E+00
 0.7411257801580E+00
 0.8057131739770E+00
 0.8584897584581E+00
 0.8960669903838E+00
 0.9152706679195E+00
 0.9133220966121E+00
 0.3652119799870E+00
 0.3734609584282E+00
 0.3848272740939E+00
 0.3973521259838E+00
 0.4090859072743E+00
 0.4183553466161E+00
 0.4239644378666E+00
 0.4252730694617E+00
 0.4221578708736E+00
 0.4148962996251E+00
 0.4040219743245E+00
 0.3901877716746E+00
 0.3740563750429E+00
 0.3562233994473E+00
 0.3371685964632E+00
 0.3172289143323E+00
 0.2966485553877E+00
 0.2756203053636E+00
 0.2541350016341E+00
 0.2318661863895E+00
 0.2082311411844E+00
 0.1824661069799E+00
 0.1536869776063E+00
 0.1209498424746E+00
 0.8333477970229E-01
 0.4019589007247E-01
 0.1345672206218E-01
 0.6836417280323E-01
 0.1323790610892E+00
 0.2032582297991E+00
 0.2798851533696E+00
 0.3605300523319E+00
 0.4427574684894E+00
 0.5234563786987E+00
 0.5989655100007E+00
 0.6653168483785E+00
 0.7186316335039E+00
 0.7554030097635E+00
 0.7725612735718E+00
 0.7676969478066E+00
 0.7393505286291E+00
 0.5950643334199E+00
 0.6091587652089E+00
 0.6270028759275E+00
 0.6460051327862E+00
 0.6636121648035E+00
 0.6776583476329E+00
 0.6866121842138E+00
 0.6896621666511E+00
 0.6866559063230E+00
 0.6779471228508E+00
 0.6642110032721E+00
 0.6462727636291E+00
 0.6249727760069E+00
 0.6010735411316E+00
 0.5752020989962E+00
 0.5478197073818E+00
 0.5192863363295E+00
 0.4899155109036E+00
 0.4597938354214E+00
 0.4286422805255E+00
 0.3958942735927E+00
 0.3607922423512E+00
 0.3224684016396E+00
 0.2800296470949E+00
 0.2326766892464E+00
 0.1799325199150E+00
 0.1223361746883E+00
 0.6578128287046E-01
 0.5733581928351E-01
 0.1213719265473E+00
 0.2025139195123E+00
 0.2884094629854E+00
 0.3743796346776E+00
 0.4561807082033E+00
 0.5293267337995E+00
 0.5892454132984E+00
 0.6317423245585E+00
 0.6533857065925E+00
 0.6517166442017E+00
 0.6257474597733E+00
 0.5768118275627E+00
 0.8256672800850E+00
 0.8457866402812E+00
 0.8702830341892E+00
 0.8959024116084E+00
 0.9194643561026E+00
 0.9382998296849E+00
 0.9505456641704E+00
 0.9552349245722E+00
 0.9522083081967E+00
 0.9419179886273E+00
 0.9251989724258E+00
 0.9030615576569E+00
 0.8765313633380E+00
 0.8465414676860E+00
 0.8138675339465E+00
 0.7790952600983E+00
 0.7426995762119E+00
 0.7051122445697E+00
 0.6665107143561E+00
 0.6266554754991E+00
 0.5849837375846E+00
 0.5407244891810E+00
 0.4929934438565E+00
 0.4408880574751E+00
 0.3836068436716E+00
 0.3206306202075E+00
 0.2520645648834E+00
 0.1795635366404E+00
 0.1107017390900E+00
 0.8292289894983E-01
 0.1365385392441E+00
 0.2199619485470E+00
 0.3070599531106E+00
 0.3889387449429E+00
 0.4594080770510E+00
 0.5130237984890E+00
 0.5452594456142E+00
 0.5529871695783E+00
 0.5350421074418E+00
 0.4936164968917E+00
 0.4373648096538E+00
 0.1057178539095E+01
 0.1083548001140E+01
 0.1114913830820E+01
 0.1147317239682E+01
 0.1176919404940E+01
 0.1200535735572E+01
 0.1215979507808E+01
 0.1222151027223E+01
 0.1218912736768E+01
 0.1206842352988E+01
 0.1186955656212E+01
 0.1160461416562E+01
 0.1128577133390E+01
 0.1092408246133E+01
 0.1052878045746E+01
 0.1010694537501E+01
 0.9664452596367E+00
 0.9206777905446E+00
 0.8736575822105E+00
 0.8251807964260E+00
 0.7746827764097E+00
 0.7213706928110E+00
 0.6643316702492E+00
 0.6026374349337E+00
 0.5354676436272E+00
 0.4622772825083E+00
 0.3830502631931E+00
 0.2987553547345E+00
 0.2126478003243E+00
 0.1358889109748E+00
 0.1088400177476E+00
 0.1615662898589E+00
 0.2425409597765E+00
 0.3222685227587E+00
 0.3893894030245E+00
 0.4367608538019E+00
 0.4594347661395E+00
 0.4550671522279E+00
 0.4254221378191E+00
 0.3805998766193E+00
 0.3481788340768E+00
 0.1289762004637E+01
 0.1322655371554E+01
 0.1361153130845E+01
 0.1400538569136E+01
 0.1436276111973E+01
 0.1464652633286E+01
 0.1483170258771E+01
 0.1490626041538E+01
 0.1486939691551E+01
 0.1472846846180E+01
 0.1449568181034E+01
 0.1418525565321E+01
 0.1381134864255E+01
 0.1338674742212E+01
 0.1292213956488E+01
 0.1242579661193E+01
 0.1190469065690E+01
 0.1136543241377E+01
 0.1081153633022E+01
 0.1024129772947E+01
 0.9649019112510E+00
 0.9026506833730E+00
 0.8364280524595E+00
 0.7652717930391E+00
 0.6883352556529E+00
 0.6050528497841E+00
 0.5153625237346E+00
 0.4200149155827E+00
 0.3212063511013E+00
 0.2244843508331E+00
 0.1462325219139E+00
 0.1302255527630E+00
 0.1850915445374E+00
 0.2573013881293E+00
 0.3195695517469E+00
 0.3605627185707E+00
 0.3746004761802E+00
 0.3611776090628E+00
 0.3290127391410E+00
 0.3069895554793E+00
 0.3483682956323E+00
 0.1523589007951E+01
 0.1563332320603E+01
 0.1609272637930E+01
 0.1655870368547E+01
 0.1697847785998E+01
 0.1730950040706E+01
 0.1752385870280E+01
 0.1760886468852E+01
 0.1756471880381E+01
 0.1740073563013E+01
 0.1713144271816E+01
 0.1677334579067E+01
 0.1634264790195E+01
 0.1585386555334E+01
 0.1531910686527E+01
 0.1474779284376E+01
 0.1414795654028E+01
 0.1352731880860E+01
 0.1289023647276E+01
 0.1223532107013E+01
 0.1155680016418E+01
 0.1084617907781E+01
 0.1009357542155E+01
 0.9288962840662E+00
 0.8423544358922E+00
 0.7491438540259E+00
 0.6491794782230E+00
 0.5431274965581E+00
 0.4328050034942E+00
 0.3220846708315E+00
 0.2194850347231E+00
 0.1472493573230E+00
 0.1453772318405E+00
 0.1967059986633E+00
 0.2505421427578E+00
 0.2845358976870E+00
 0.2912816951022E+00
 0.2745964403674E+00
 0.2593962859612E+00
 0.3013121665413E+00
 0.4364606946602E+00
 0.1758839798331E+01
 0.1805815710055E+01
 0.1859560553686E+01
 0.1913633573980E+01
 0.1961962100909E+01
 0.1999737125371E+01
 0.2023898742106E+01
 0.2033159060374E+01
 0.2027689946944E+01
 0.2008662298497E+01
 0.1977790916033E+01
 0.1936971165373E+01
 0.1888032957413E+01
 0.1832599187872E+01
 0.1772017795617E+01
 0.1707340432813E+01
 0.1639472204570E+01
 0.1569293482096E+01
 0.1497322513799E+01
 0.1423450574627E+01
 0.1347090858373E+01
 0.1267360631719E+01
 0.1183226892643E+01
 0.1093640552431E+01
 0.9976817810285E+00
 0.8947340533230E+00
 0.7846935626260E+00
 0.6681890349058E+00
 0.5468809377047E+00
 0.4240060995274E+00
 0.3054554071699E+00
 0.2028296648949E+00
 0.1417353762759E+00
 0.1474463928536E+00
 0.1837558744516E+00
 0.2087992603060E+00
 0.2105571903988E+00
 0.2032795570412E+00
 0.2390842438929E+00
 0.3651876179398E+00
 0.5722473928358E+00
 0.1995705266545E+01
 0.2050358309800E+01
 0.2112324693863E+01
 0.2174168771338E+01
 0.2228962351206E+01
 0.2271331943688E+01
 0.2297982887267E+01
 0.2307666224847E+01
 0.2300766545336E+01
 0.2278743632967E+01
 0.2243606635454E+01
 0.2197511628226E+01
 0.2142501749814E+01
 0.2080367406807E+01
 0.2012586894838E+01
 0.1940314655359E+01
 0.1864552511140E+01
 0.1786286126186E+01
 0.1706114705137E+01
 0.1623958321149E+01
 0.1539218718750E+01
 0.1450976909678E+01
 0.1358150749370E+01
 0.1259638770636E+01
 0.1154473589994E+01
 0.1042002335754E+01
 0.9220981779913E+00
 0.7953667573317E+00
 0.6633983862954E+00
 0.5291645413538E+00
 0.3975521143892E+00
 0.2763076467356E+00
 0.1784932757776E+00
 0.1257439083284E+00
 0.1237321450030E+00
 0.1335417237771E+00
 0.1355930481932E+00
 0.1656366047847E+00
 0.2770951605179E+00
 0.4698157864474E+00
 0.7287909825999E+00
 0.2234388967852E+01
 0.2297231872428E+01
 0.2367896118704E+01
 0.2437839336856E+01
 0.2499209106195E+01
 0.2546061155629E+01
 0.2574911871356E+01
 0.2584622723850E+01
 0.2575862375764E+01
 0.2550434743438E+01
 0.2510677299771E+01
 0.2459021733256E+01
 0.2397725737905E+01
 0.2328740943488E+01
 0.2253667035461E+01
 0.2173752936307E+01
 0.2090091270822E+01
 0.2003769766591E+01
 0.1915467083849E+01
 0.1825130969393E+01
 0.1732149990844E+01
 0.1635566034739E+01
 0.1534243566034E+01
 0.1427022944672E+01
 0.1312881703694E+01
 0.1191121527268E+01
 0.1061583827987E+01
 0.9248502780270E+00
 0.7824733056220E+00
 0.6373118067412E+00
 0.4938552582007E+00
 0.3584515560703E+00
 0.2393916301975E+00
 0.1464249952496E+00
 0.8725526680046E-01
 0.5953044457991E-01
 0.8056294869641E-01
 0.1811619887479E+00
 0.3533965759326E+00
 0.5929175254364E+00
 0.8946803722893E+00
 0.2475109521323E+01
 0.2546730784277E+01
 0.2626633383316E+01
 0.2705035006718E+01
 0.2773081980256E+01
 0.2824259616887E+01
 0.2854956596762E+01
 0.2864232394685E+01
 0.2853122572853E+01
 0.2823835948106E+01
 0.2779073052214E+01
 0.2721554042953E+01
 0.2653749341984E+01
 0.2577762355786E+01
 0.2495302628896E+01
 0.2407703539097E+01
 0.2316141738828E+01
 0.2221803616321E+01
 0.2125445984117E+01
 0.2027043401889E+01
 0.1925969720068E+01
 0.1821224964269E+01
 0.1711616140301E+01
 0.1595919904228E+01
 0.1473051367238E+01
 0.1342257256222E+01
 0.1203336092012E+01
 0.1056836507734E+01
 0.9042791613386E+00
 0.7484733956898E+00
 0.5937667733509E+00
 0.4460399501377E+00
 0.3121621064827E+00
 0.1981182596361E+00
 0.1044914237231E+00
 0.2388980255052E-01
 0.8969819910523E-01
 0.2374811274547E+00
 0.4472636614178E+00
 0.7241572970690E+00
 0.1065124085413E+01
 0.2718103484724E+01
 0.2799176442711E+01
 0.2888927545497E+01
 0.2976175900311E+01
 0.3050981374221E+01
 0.3106269549206E+01
 0.3138382527613E+01
 0.3146684428509E+01
 0.3132672910826E+01
 0.3099027364647E+01
 0.3048845613858E+01
 0.2985145844542E+01
 0.2910605261303E+01
 0.2827465808014E+01
 0.2737532430527E+01
 0.2642211063621E+01
 0.2542754753518E+01
 0.2440445065848E+01
 0.2336115977966E+01
 0.2229768354088E+01
 0.2120760022043E+01
 0.2008046586622E+01
 0.1890373795946E+01
 0.1766449526818E+01
 0.1635119666389E+01
 0.1495566666527E+01
 0.1347533905951E+01
 0.1191523204934E+01
 0.1029015092311E+01
 0.8627883901503E+00
 0.6971578904897E+00
 0.5379203807045E+00
 0.3917446269325E+00
 0.2645500853499E+00
 0.1597404016776E+00
 0.9348769873869E-01
 0.1495349270637E+00
 0.3113342508749E+00
 0.5482779827962E+00
 0.8589209999566E+00
 0.1237942520792E+01
 0.2963628833923E+01
 0.3054922552307E+01
 0.3155208101695E+01
 0.3251717031429E+01
 0.3333330049477E+01
 0.3392439035687E+01
 0.3425446074420E+01
 0.3432148948678E+01
 0.3414615601802E+01
 0.3376065464817E+01
 0.3320025723739E+01
 0.3249817377618E+01
 0.3168313311394E+01
 0.3077876337307E+01
 0.2980389076228E+01
 0.2877316119301E+01
 0.2769978440503E+01
 0.2659749343340E+01
 0.2547539442081E+01
 0.2433375850305E+01
 0.2316599351883E+01
 0.2196118792088E+01
 0.2070615243357E+01
 0.1938723413806E+01
 0.1799214085143E+01
 0.1651196900823E+01
 0.1494347708290E+01
 0.1329105096759E+01
 0.1156892332567E+01
 0.9804520297842E+00
 0.8041039467495E+00
 0.6337192703804E+00
 0.4762157174650E+00
 0.3384490943955E+00
 0.2275590030357E+00
 0.1669829202683E+00
 0.2206099182636E+00
 0.3911641916929E+00
 0.6516972763337E+00
 0.9949370456549E+00
 0.1412094426033E+01
 0.3211969215994E+01
 0.3314361589952E+01
 0.3425950061170E+01
 0.3532153332986E+01
 0.3620574353279E+01
 0.3683119554451E+01
 0.3716389869866E+01
 0.3720771702918E+01
 0.3699024579380E+01
 0.3654979458004E+01
 0.3592620648503E+01
 0.3515570270991E+01
 0.3426879543974E+01
 0.3329009444170E+01
 0.3223898973828E+01
 0.3113055381465E+01
 0.2997858328036E+01
 0.2879769613837E+01
 0.2759776587887E+01
 0.2637933115705E+01
 0.2513562238203E+01
 0.2385523959560E+01
 0.2252431757296E+01
 0.2112843727832E+01
 0.1965451013714E+01
 0.1809283310266E+01
 0.1643937276176E+01
 0.1469770669170E+01
 0.1288126824847E+01
 0.1101691019232E+01
 0.9147857669841E+00
 0.7334084858936E+00
 0.5648791011187E+00
 0.4171773898014E+00
 0.3003522314910E+00
 0.2405569461451E+00
 0.2935070468971E+00
 0.4723009714216E+00
 0.7551185024876E+00
 0.1130921867223E+01
 0.1587108958389E+01
 0.3463439200600E+01
 0.3577932766354E+01
 0.3701682415859E+01
 0.3818025194739E+01
 0.3913184834747E+01
 0.3978662190701E+01
 0.4011436641617E+01
 0.4012667709684E+01
 0.3985940220956E+01
 0.3935767512884E+01
 0.3866611776362E+01
 0.3782386181849E+01
 0.3686295613452E+01
 0.3580870945317E+01
 0.3468082467759E+01
 0.3349461933734E+01
 0.3226437763003E+01
 0.3100557394265E+01
 0.2972885820289E+01
 0.2843504819459E+01
 0.2711719329108E+01
 0.2576338703959E+01
 0.2435906526001E+01
 0.2288902071961E+01
 0.2133934132131E+01
 0.1969947359924E+01
 0.1796449157513E+01
 0.1613698894511E+01
 0.1422933949575E+01
 0.1226750775701E+01
 0.1029447264242E+01
 0.8371409400394E+00
 0.6575787287152E+00
 0.4998199972743E+00
 0.3761230925588E+00
 0.3140618833428E+00
 0.3659759059534E+00
 0.5526161986775E+00
 0.8571163359595E+00
 0.1265993370723E+01
 0.1762860633540E+01
 0.3718390831313E+01
 0.3846131916919E+01
 0.3982998320052E+01
 0.4109924463206E+01
 0.4211655871479E+01
 0.4279412062399E+01
 0.4310781347721E+01
 0.4307913719516E+01
 0.4275363513538E+01
 0.4218392882386E+01
 0.4141952359164E+01
 0.4050225671720E+01
 0.3946538391781E+01
 0.3833457066259E+01
 0.3712954240453E+01
 0.3586565853409E+01
 0.3455758581429E+01
 0.3322163236507E+01
 0.3186924375838E+01
 0.3050153597437E+01
 0.2911137694609E+01
 0.2768633825005E+01
 0.2621114112097E+01
 0.2466978358461E+01
 0.2304752632620E+01
 0.2133294205184E+01
 0.1952013635522E+01
 0.1761055553788E+01
 0.1561523732771E+01
 0.1355887216764E+01
 0.1148374479164E+01
 0.9451807563461E+00
 0.7544392639456E+00
 0.5861747403295E+00
 0.4543780785026E+00
 0.3876289428540E+00
 0.4372547969682E+00
 0.6309548666252E+00
 0.9567514132871E+00
 0.1399324432306E+01
 0.1939480369709E+01
 0.3977221887323E+01
 0.4119523899840E+01
 0.4270567359388E+01
 0.4408500764522E+01
 0.4516503753727E+01
 0.4585700358187E+01
 0.4614581197215E+01
 0.4606539383403E+01
 0.4567249727104E+01
 0.4502780051603E+01
 0.4418565504607E+01
 0.4319027377480E+01
 0.4207569849055E+01
 0.4086754764739E+01
 0.3958523930410E+01
 0.3824395018742E+01
 0.3685862016030E+01
 0.3544637666110E+01
 0.3401949232353E+01
 0.3257940847923E+01
 0.3111881375885E+01
 0.2962474441572E+01
 0.2808120004101E+01
 0.2647139644814E+01
 0.2477979261424E+01
 0.2299409919696E+01
 0.2110741177148E+01
 0.1911988959614E+01
 0.1704095760195E+01
 0.1489360013919E+01
 0.1271883269647E+01
 0.1057870366273E+01
 0.8557595678623E+00
 0.6763995076951E+00
 0.5351784427053E+00
 0.4615204832616E+00
 0.5070754267093E+00
 0.7065206097284E+00
 0.1053473992998E+01
 0.1530035367474E+01
 0.2117002622393E+01
 0.4240386421603E+01
 0.4398758279759E+01
 0.4565150360175E+01
 0.4714467861268E+01
 0.4828262426317E+01
 0.4897833215719E+01
 0.4922943144244E+01
 0.4908517075842E+01
 0.4861501736764E+01
 0.4788811087803E+01
 0.4696342554292E+01
 0.4588707549884E+01
 0.4469337220597E+01
 0.4340742275939E+01
 0.4204796948581E+01
 0.4062976123737E+01
 0.3916789836218E+01
 0.3768032383048E+01
 0.3618018305470E+01
 0.3466927819425E+01
 0.3314012196571E+01
 0.3157920317469E+01
 0.2996980254898E+01
 0.2829438927995E+01
 0.2653668169706E+01
 0.2468358360539E+01
 0.2272718327178E+01
 0.2066624951988E+01
 0.1850833364521E+01
 0.1627425833728E+01
 0.1400310212580E+01
 0.1175613027178E+01
 0.9619657772146E+00
 0.7708804146706E+00
 0.6188785219514E+00
 0.5361365431147E+00
 0.5753805179597E+00
 0.7788554745582E+00
 0.1146266437511E+01
 0.1659657916623E+01
 0.2288144827435E+01
 0.4508408367663E+01
 0.4684589355893E+01
 0.4867617260317E+01
 0.5028609507540E+01
 0.5147475741522E+01
 0.5216076466248E+01
 0.5235908436679E+01
 0.5213750417210E+01
 0.5157963239366E+01
 0.5076322440872E+01
 0.4975142016598E+01
 0.4859160041832E+01
 0.4731773478849E+01
 0.4595389863991E+01
 0.4451775470460E+01
 0.4302335887786E+01
 0.4148585724850E+01
 0.3992401746497E+01
 0.3835191967981E+01
 0.3677177031400E+01
 0.3517590870478E+01
 0.3355026399276E+01
 0.3187741214509E+01
 0.3013913897217E+01
 0.2831852572191E+01
 0.2640177666101E+01
 0.2438003024590E+01
 0.2225061078103E+01
 0.2001896809817E+01
 0.1770330722938E+01
 0.1534004088076E+01
 0.1298861474214E+01
 0.1073589654159E+01
 0.8701807572207E+00
 0.7060526537022E+00
 0.6120271572759E+00
 0.6423390348775E+00
 0.8474501129791E+00
 0.1234936603664E+01
 0.1785949491662E+01
 0.2463589177297E+01
 0.4781899340485E+01
 0.4977901987610E+01
 0.5178968611950E+01
 0.5351783860921E+01
 0.5474684588451E+01
 0.5540635040090E+01
 0.5553433840799E+01
 0.5522061690739E+01
 0.5456412240219E+01
 0.5365102512953E+01
 0.5254789246879E+01
 0.5130256825871E+01
 0.4994798112701E+01
 0.4850660744197E+01
 0.4699459563641E+01
 0.4542502437126E+01
 0.4381296894743E+01
 0.4217804572784E+01
 0.4053534940452E+01
 0.3888754081671E+01
 0.3722678448371E+01
 0.3553843588404E+01
 0.3380439361651E+01
 0.3200585642265E+01
 0.3012542212026E+01
 0.2814876386229E+01
 0.2606619327044E+01
 0.2387359891492E+01
 0.2157415268506E+01
 0.1918301086946E+01
 0.1673316380641E+01
 0.1428108284632E+01
 0.1191257177093E+01
 0.9750244677357E+00
 0.7974793914125E+00
 0.6899433713925E+00
 0.7082920402600E+00
 0.9120532157875E+00
 0.1318553311155E+01
 0.1909601594914E+01
 0.2641175226863E+01
 0.5061582258527E+01
 0.5279745230878E+01
 0.5500361277137E+01
 0.5684924855921E+01
 0.5810406596038E+01
 0.5871625596387E+01
 0.5875369300086E+01
 0.5833178583074E+01
 0.5756555351553E+01
 0.5654890392253E+01
 0.5535077088582E+01
 0.5401849115642E+01
 0.5258318199897E+01
 0.5106512118808E+01
 0.4947848392341E+01
 0.4783506826674E+01
 0.4614975952149E+01
 0.4444306291464E+01
 0.4273118624521E+01
 0.4101729916505E+01
 0.3929338160725E+01
 0.3754419774345E+01
 0.3575101238128E+01
 0.3389457315433E+01
 0.3195720637262E+01
 0.2992429258470E+01
 0.2778551551271E+01
 0.2553541336217E+01
 0.2317477445714E+01
 0.2071532840246E+01
 0.1818589779160E+01
 0.1563875163116E+01
 0.1315680713143E+01
 0.1086292894446E+01
 0.8941559696930E+00
 0.7708756943869E+00
 0.7738585822076E+00
 0.9724454632919E+00
 0.1396430778733E+01
 0.2030149953356E+01
 0.2821088045023E+01
 0.5348323181160E+01
 0.5591376599315E+01
 0.5833138731371E+01
 0.6029037890088E+01
 0.6155105203309E+01
 0.6209040757311E+01
 0.6201432075911E+01
 0.6146721012224E+01
 0.6058023635980E+01
 0.5945376213085E+01
 0.5815767697096E+01
 0.5673769152502E+01
 0.5522229733738E+01
 0.5362896239052E+01
 0.5196941413502E+01
 0.5025384656677E+01
 0.4849683017821E+01
 0.4671981524335E+01
 0.4494023979342E+01
 0.4316183665671E+01
 0.4137637726968E+01
 0.3956801155724E+01
 0.3771743483536E+01
 0.3580512742026E+01
 0.3381342300845E+01
 0.3172772661602E+01
 0.2953737863701E+01
 0.2723574218503E+01
 0.2482120752402E+01
 0.2230178412672E+01
 0.1970143830594E+01
 0.1706699353474E+01
 0.1447650024934E+01
 0.1205027481411E+01
 0.9973218686233E+00
 0.8561207794272E+00
 0.8399897522108E+00
 0.1028610957356E+01
 0.1467748831276E+01
 0.2146880938226E+01
 0.3004060834680E+01
 0.5643174955955E+01
 0.5914320911379E+01
 0.6178865947578E+01
 0.6385185485053E+01
 0.6509143705866E+01
 0.6552703292368E+01
 0.6531177945784E+01
 0.6462189255847E+01
 0.6360370924190E+01
 0.6236203642725E+01
 0.6096595753878E+01
 0.5945832691509E+01
 0.5786419128725E+01
 0.5619761360447E+01
 0.5446739435023E+01
 0.5268177710819E+01
 0.5085488113143E+01
 0.4900917172654E+01
 0.4716345074248E+01
 0.4532206170893E+01
 0.4347652207328E+01
 0.4161033861580E+01
 0.3970372946183E+01
 0.3773714959424E+01
 0.3569329495320E+01
 0.3355799791577E+01
 0.3132063381814E+01
 0.2897366803327E+01
 0.2651318979593E+01
 0.2394331352691E+01
 0.2128257082842E+01
 0.1857115502255E+01
 0.1588019139084E+01
 0.1332431180168E+01
 0.1108490377259E+01
 0.9473518958329E+00
 0.9080910365477E+00
 0.1080830387122E+01
 0.1531551200196E+01
 0.2258988408851E+01
 0.3191075237723E+01
 0.5947438189934E+01
 0.6250449335260E+01
 0.6539367790835E+01
 0.6754455897653E+01
 0.6872718420154E+01
 0.6902208912446E+01
 0.6863970924491E+01
 0.6778955162770E+01
 0.6663075709719E+01
 0.6526974995140E+01
 0.6377273247911E+01
 0.6217842193295E+01
 0.6050764794205E+01
 0.5877052407642E+01
 0.5697245353636E+01
 0.5511935510197E+01
 0.5322473822784E+01
 0.5131216136993E+01
 0.4940193506242E+01
 0.4749904378937E+01
 0.4559467484204E+01
 0.4367165868319E+01
 0.4170986821671E+01
 0.3969004652006E+01
 0.3759569141002E+01
 0.3541355631849E+01
 0.3313352887770E+01
 0.3074756626149E+01
 0.2824968486809E+01
 0.2564008362538E+01
 0.2293145131834E+01
 0.2015631615250E+01
 0.1737685837500E+01
 0.1469864116925E+01
 0.1229480351232E+01
 0.1046703504433E+01
 0.9801756530636E+00
 0.1129845800354E+01
 0.1586825908778E+01
 0.2365443107316E+01
 0.3383373447239E+01
 0.6262748206531E+01
 0.6602086601645E+01
 0.6916767606095E+01
 0.7137903407062E+01
 0.7245763461625E+01
 0.7256857335525E+01
 0.7198954355533E+01
 0.7096258871049E+01
 0.6965547809364E+01
 0.6817259404572E+01
 0.6657495947257E+01
 0.6489590697099E+01
 0.6315138626141E+01
 0.6134711099019E+01
 0.5948464312210E+01
 0.5756716625664E+01
 0.5560738246971E+01
 0.5363001849255E+01
 0.5165703947890E+01
 0.4969406823110E+01
 0.4773184462554E+01
 0.4575249172471E+01
 0.4373572729110E+01
 0.4166298427155E+01
 0.3951909452696E+01
 0.3729231820793E+01
 0.3497363303398E+01
 0.3255499668163E+01
 0.3002872990650E+01
 0.2739128687659E+01
 0.2464934151695E+01
 0.2182697824513E+01
 0.1897560858539E+01
 0.1618827598994E+01
 0.1362442027903E+01
 0.1156867606375E+01
 0.1059051934610E+01
 0.1177141953051E+01
 0.1632589871828E+01
 0.2464863433250E+01
 0.3582523296483E+01
 0.6591201953685E+01
 0.6972157672691E+01
 0.7313518041278E+01
 0.7536442365135E+01
 0.7627818198577E+01
 0.7615573554429E+01
 0.7535028207041E+01
 0.7413214040940E+01
 0.7267140894632E+01
 0.7106604345813E+01
 0.6936951612277E+01
 0.6760866325969E+01
 0.6579407234935E+01
 0.6392675201670E+01
 0.6200402906145E+01
 0.6002589511899E+01
 0.5800398259267E+01
 0.5596423882276E+01
 0.5393041205811E+01
 0.5190870486360E+01
 0.4988924070749E+01
 0.4785342121469E+01
 0.4578108575959E+01
 0.4365486849637E+01
 0.4146156520587E+01
 0.3919161560020E+01
 0.3683776135037E+01
 0.3439259113296E+01
 0.3184727118921E+01
 0.2919490898118E+01
 0.2643629653127E+01
 0.2358666982693E+01
 0.2068523893380E+01
 0.1780929784691E+01
 0.1509867436196E+01
 0.1281194465306E+01
 0.1148554473884E+01
 0.1225359856994E+01
 0.1668069661319E+01
 0.2555360426832E+01
 0.3790511288605E+01
 0.6935548037176E+01
 0.7364389642316E+01
 0.7732406761913E+01
 0.7950666936312E+01
 0.8017848241337E+01
 0.7976825669193E+01
 0.7870839965358E+01
 0.7728824876859E+01
 0.7567171658235E+01
 0.7394550566024E+01
 0.7215329921823E+01
 0.7031457368612E+01
 0.6843432714286E+01
 0.6650876493887E+01
 0.6453066908254E+01
 0.6249632500896E+01
 0.6041593088620E+01
 0.5831665038206E+01
 0.5622409341785E+01
 0.5414489427556E+01
 0.5206833112819E+01
 0.4997511712492E+01
 0.4784561981083E+01
 0.4566432117476E+01
 0.4342070857558E+01
 0.4110814761731E+01
 0.3872190170888E+01
 0.3625593985092E+01
 0.3370098982783E+01
 0.3104747219844E+01
 0.2829080444019E+01
 0.2543746497924E+01
 0.2251363889529E+01
 0.1957825678195E+01
 0.1674570296257E+01
 0.1423785930361E+01
 0.1253815673253E+01
 0.1278887596978E+01
 0.1693084932205E+01
 0.2634345391167E+01
 0.4009873875599E+01
 0.7299479586435E+01
 0.7783590148294E+01
 0.8176500864758E+01
 0.8380553495484E+01
 0.8414014234072E+01
 0.8338553470339E+01
 0.8204799211162E+01
 0.8042017723366E+01
 0.7864945740100E+01
 0.7680650226183E+01
 0.7492333999768E+01
 0.7301157907822E+01
 0.7107072785664E+01
 0.6909236909313E+01
 0.6706456743086E+01
 0.6497932386524E+01
 0.6284488246661E+01
 0.6068950536650E+01
 0.5854063669005E+01
 0.5640505659517E+01
 0.5427090949219E+01
 0.5211835527815E+01
 0.4992888918734E+01
 0.4768965223759E+01
 0.4539363990967E+01
 0.4303793705975E+01
 0.4062114807084E+01
 0.3813948052503E+01
 0.3558412105130E+01
 0.3294375696685E+01
 0.3020938025282E+01
 0.2737941378172E+01
 0.2446702170487E+01
 0.2151124114649E+01
 0.1859615103878E+01
 0.1589553831909E+01
 0.1381570935950E+01
 0.1344664722025E+01
 0.1708822010321E+01
 0.2698313408726E+01
 0.4243884131863E+01
 0.7688100485387E+01
 0.8236028550768E+01
 0.8648955926033E+01
 0.8824982363154E+01
 0.8813394872579E+01
 0.8698134376570E+01
 0.8535127437081E+01
 0.8351688249363E+01
 0.8159789712718E+01
 0.7964487783364E+01
 0.7767693333536E+01
 0.7569774042846E+01
 0.7370180264555E+01
 0.7167662239794E+01
 0.6960559580118E+01
 0.6747580682465E+01
 0.6529279820721E+01
 0.6308560290149E+01
 0.6088326835278E+01
 0.5869222882269E+01
 0.5649916829168E+01
 0.5428402766227E+01
 0.5203031115208E+01
 0.4972882408563E+01
 0.4737695213868E+01
 0.4497629576948E+01
 0.4252964500057E+01
 0.4003639494864E+01
 0.3748927118166E+01
 0.3487650571547E+01
 0.3218611927489E+01
 0.2940989142518E+01
 0.2654898425101E+01
 0.2362256550144E+01
 0.2068170564419E+01
 0.1784191599868E+01
 0.1540474322216E+01
 0.1433203778940E+01
 0.1719332872782E+01
 0.2742684794511E+01
 0.4496827770812E+01
 0.8108695524235E+01
 0.8729944336222E+01
 0.9152539136857E+01
 0.9280993360548E+01
 0.9211701842181E+01
 0.9052429972954E+01
 0.8859951944853E+01
 0.8656762002251E+01
 0.8451087780071E+01
 0.8245702866970E+01
 0.8041177748620E+01
 0.7837130905749E+01
 0.7632602052277E+01
 0.7426032727087E+01
 0.7215336358449E+01
 0.6998666023314E+01
 0.6776199147152E+01
 0.6550845886329E+01
 0.6325610821395E+01
 0.6101023761565E+01
 0.5875577398910E+01
 0.5647313537176E+01
 0.5414911586537E+01
 0.5177940666415E+01
 0.4936668657408E+01
 0.4691780382496E+01
 0.4444055007753E+01
 0.4193851925999E+01
 0.3940723689796E+01
 0.3683611345759E+01
 0.3421221753987E+01
 0.3152288002026E+01
 0.2875941617700E+01
 0.2592307305597E+01
 0.2303263952218E+01
 0.2013973447683E+01
 0.1741347777832E+01
 0.1559786868881E+01
 0.1734310750284E+01
 0.2761980751139E+01
 0.4774443249621E+01
 0.8572058034820E+01
 0.9276177148356E+01
 0.9688560615743E+01
 0.9742683398626E+01
 0.9603093553161E+01
 0.9397970542090E+01
 0.9177440953446E+01
 0.8956262755024E+01
 0.8738321800314E+01
 0.8524013946595E+01
 0.8312611959510E+01
 0.8103080898430E+01
 0.7894178362130E+01
 0.7684189992803E+01
 0.7470701189037E+01
 0.7251260063444E+01
 0.7025517865550E+01
 0.6796255027482E+01
 0.6566447636226E+01
 0.6336391402120E+01
 0.6104393360659E+01
 0.5868675206614E+01
 0.5628427581194E+01
 0.5383852036580E+01
 0.5135830890132E+01
 0.4885630951179E+01
 0.4634602323181E+01
 0.4383627488381E+01
 0.4132683122404E+01
 0.3881030999922E+01
 0.3627546891159E+01
 0.3370820468038E+01
 0.3109329950984E+01
 0.2841812013036E+01
 0.2567427470361E+01
 0.2285264646163E+01
 0.1997148153929E+01
 0.1745772103870E+01
 0.1773868125224E+01
 0.2751146856473E+01
 0.5084720043447E+01
 0.9094896752622E+01
 0.9888782118409E+01
 0.1025459174039E+02
 0.1019972873121E+02
 0.9980327545893E+01
 0.9731321600748E+01
 0.9485953528173E+01
 0.9249384036436E+01
 0.9021113154685E+01
 0.8799240833395E+01
 0.8581890165142E+01
 0.8367513756324E+01
 0.8154743807912E+01
 0.7941920323644E+01
 0.7726489233649E+01
 0.7505392109521E+01
 0.7277553336408E+01
 0.7045368295228E+01
 0.6811532944879E+01
 0.6575935252424E+01
 0.6336743298326E+01
 0.6092594167270E+01
 0.5843440150053E+01
 0.5590276351190E+01
 0.5334669252453E+01
 0.5078495979748E+01
 0.4823725590521E+01
 0.4571862822250E+01
 0.4323471904904E+01
 0.4078383865609E+01
 0.3835974943169E+01
 0.3595075092771E+01
 0.3353946243264E+01
 0.3110537484430E+01
 0.2862260165539E+01
 0.2603640088949E+01
 0.2322164661843E+01
 0.2019873082522E+01
 0.1875774693072E+01
 0.2710306717086E+01
 0.5439622449145E+01
 0.9704475420080E+01
 0.1058500914766E+02
 0.1083972860916E+02
 0.1063587891695E+02
 0.1033568571780E+02
 0.1004957235097E+02
 0.9784159533583E+01
 0.9535569228644E+01
 0.9299261374901E+01
 0.9071324151250E+01
 0.8848990034684E+01
 0.8630368890135E+01
 0.8414133529363E+01
 0.8198936015835E+01
 0.7982407133783E+01
 0.7761003476284E+01
 0.7532674425342E+01
 0.7298957274469E+01
 0.7061788975495E+01
 0.6820420319790E+01
 0.6573061140335E+01
 0.6319161103874E+01
 0.6059759709723E+01
 0.5796812011108E+01
 0.5532610991191E+01
 0.5269627533768E+01
 0.5010455983890E+01
 0.4757308744557E+01
 0.4511525998859E+01
 0.4273813675191E+01
 0.4044450233382E+01
 0.3822968419513E+01
 0.3607938385827E+01
 0.3397259598311E+01
 0.3187964876716E+01
 0.2972649904688E+01
 0.2729625390254E+01
 0.2418545130004E+01
 0.2104535821167E+01
 0.2659129339918E+01
 0.5859623878429E+01
 0.1044828366941E+02
 0.1138221918213E+02
 0.1141510603488E+02
 0.1102904347203E+02
 0.1066313024636E+02
 0.1035061190682E+02
 0.1007114886906E+02
 0.9814604248519E+01
 0.9572767544942E+01
 0.9340343372081E+01
 0.9113983962691E+01
 0.8891649923303E+01
 0.8672199466066E+01
 0.8454861001554E+01
 0.8237957330114E+01
 0.8017863455352E+01
 0.7791307931433E+01
 0.7558081774641E+01
 0.7318455610476E+01
 0.7070795006638E+01
 0.6813821612422E+01
 0.6548427942447E+01
 0.6277127425857E+01
 0.6002984160093E+01
 0.5729022691028E+01
 0.5458229099446E+01
 0.5193754930659E+01
 0.4938574228469E+01
 0.4695034523211E+01
 0.4465102220666E+01
 0.4250425364686E+01
 0.4051766101328E+01
 0.3868615778052E+01
 0.3699570187256E+01
 0.3542901748169E+01
 0.3392595322586E+01
 0.3227023611721E+01
 0.2981761518029E+01
 0.2561494257628E+01
 0.2675980750307E+01
 0.6387667617532E+01
 0.1141643096383E+02
 0.1228200157734E+02
 0.1191695469554E+02
 0.1135821511140E+02
 0.1096074550723E+02
 0.1063273367805E+02
 0.1034676269848E+02
 0.1008663172039E+02
 0.9841859057334E+01
 0.9606528961775E+01
 0.9377046480003E+01
 0.9151438965491E+01
 0.8928842705486E+01
 0.8709238369840E+01
 0.8492325554142E+01
 0.8275407440879E+01
 0.8053947467988E+01
 0.7824263405147E+01
 0.7583219395820E+01
 0.7328204706414E+01
 0.7059506310356E+01
 0.6780375465847E+01
 0.6495193171780E+01
 0.6208229474890E+01
 0.5923207710306E+01
 0.5643479424312E+01
 0.5372548333800E+01
 0.5114134047902E+01
 0.4871918957394E+01
 0.4649639810419E+01
 0.4450820094063E+01
 0.4278005918275E+01
 0.4132342318921E+01
 0.4013819408925E+01
 0.3923098660072E+01
 0.3859825760641E+01
 0.3810589075294E+01
 0.3735011542207E+01
 0.3394516068884E+01
 0.2987111953201E+01
 0.7141646800132E+01
 0.1280186461830E+02
 0.1319745951796E+02
 0.1223263563330E+02
 0.1162732403370E+02
 0.1122640142845E+02
 0.1089562504773E+02
 0.1061170074026E+02
 0.1035212079846E+02
 0.1010702597009E+02
 0.9870257697753E+01
 0.9638462166568E+01
 0.9409903369189E+01
 0.9184060678389E+01
 0.8961603841720E+01
 0.8744229112175E+01
 0.8532400702856E+01
 0.8321174405171E+01
 0.8099820365231E+01
 0.7858377640332E+01
 0.7593963663832E+01
 0.7310545016715E+01
 0.7014871142779E+01
 0.6713492539076E+01
 0.6411877767615E+01
 0.6114393952914E+01
 0.5824571014707E+01
 0.5545792288991E+01
 0.5282334723095E+01
 0.5039797656147E+01
 0.4824404785814E+01
 0.4641988571030E+01
 0.4497437511337E+01
 0.4394382632949E+01
 0.4335201510427E+01
 0.4322291282816E+01
 0.4364924800104E+01
 0.4466846179184E+01
 0.4647603794026E+01
 0.4772830119996E+01
 0.4103354630466E+01
 0.8543510861896E+01
 0.1510182769168E+02
 0.1358276979903E+02
 0.1234847292253E+02
 0.1185429087664E+02
 0.1145487512699E+02
 0.1114280821170E+02
 0.1086669001674E+02
 0.1061213070555E+02
 0.1036894460536E+02
 0.1013206855575E+02
 0.9898622288428E+01
 0.9667301850386E+01
 0.9437965798707E+01
 0.9211715831362E+01
 0.8991801935380E+01
 0.8786146574262E+01
 0.8593743297019E+01
 0.8388575985567E+01
 0.8146950394412E+01
 0.7869459099295E+01
 0.7567229312441E+01
 0.7251618153026E+01
 0.6931425221470E+01
 0.6613139310936E+01
 0.6301688126256E+01
 0.6000767185405E+01
 0.5712616480769E+01
 0.5441369916955E+01
 0.5195918629681E+01
 0.4985968581366E+01
 0.4819714226706E+01
 0.4704925064208E+01
 0.4648878875597E+01
 0.4657277479927E+01
 0.4734415504377E+01
 0.4888036731762E+01
 0.5176714048195E+01
 0.5632745991148E+01
 0.6606974722171E+01
 0.7050384981770E+01
 0.1262047046282E+02
 0.2352425195481E+00
 0.2992913918364E+00
 0.3898333307706E+00
 0.4830784049630E+00
 0.5634846797396E+00
 0.6227542609123E+00
 0.6576254527402E+00
 0.6681765653057E+00
 0.6565134519201E+00
 0.6257708111917E+00
 0.5793802177076E+00
 0.5205766682230E+00
 0.4522795838758E+00
 0.3772180599610E+00
 0.2980744081483E+00
 0.2176027033556E+00
 0.1387089661844E+00
 0.6551178972126E-01
 0.2852171824699E-01
 0.8466029977614E-01
 0.2243177192095E+00
 0.2812695960888E+00
 0.3639478087853E+00
 0.4508545353207E+00
 0.5273046205806E+00
 0.5848706995921E+00
 0.6198150827556E+00
 0.6316279368940E+00
 0.6218618412793E+00
 0.5932032668290E+00
 0.5487728739665E+00
 0.4916227366882E+00
 0.4245406142673E+00
 0.3502631491018E+00
 0.2715861411215E+00
 0.1914665186693E+00
 0.1131977130078E+00
 0.4376817630419E-01
 0.4900027532985E-01
 0.1191616240212E+00
 0.2147562017680E+00
 0.2656356430003E+00
 0.3413003516634E+00
 0.4222941850156E+00
 0.4947636121612E+00
 0.5503218650877E+00
 0.5848787054066E+00
 0.5974400258198E+00
 0.5890724403507E+00
 0.5620511153055E+00
 0.5191881373856E+00
 0.4633350956726E+00
 0.3972008213436E+00
 0.3235249822572E+00
 0.2451922465963E+00
 0.1653208203610E+00
 0.8776908832058E-01
 0.2964701571091E-01
 0.7724779851615E-01
 0.1482299859596E+00
 0.2061719696247E+00
 0.2521546842906E+00
 0.3216011281207E+00
 0.3970983656453E+00
 0.4656283597607E+00
 0.5189423737497E+00
 0.5527172456254E+00
 0.5655666266278E+00
 0.5581365572409E+00
 0.5323262918345E+00
 0.4906520233919E+00
 0.4357776027322E+00
 0.3703384453203E+00
 0.2970763440985E+00
 0.2189383555930E+00
 0.1392075413948E+00
 0.6287043992960E-01
 0.3859830625340E-01
 0.1062524124389E+00
 0.1760910461546E+00
 0.1983964982386E+00
 0.2405106476392E+00
 0.3045609425927E+00
 0.3749927461181E+00
 0.4396702183568E+00
 0.4905670308275E+00
 0.5232255405808E+00
 0.5359531432334E+00
 0.5290368112196E+00
 0.5040376455631E+00
 0.4631980606310E+00
 0.4090050548372E+00
 0.3440208528795E+00
 0.2709798820344E+00
 0.1928795176518E+00
 0.1132406793939E+00
 0.4122877538577E-01
 0.6188576710051E-01
 0.1351750271461E+00
 0.2038502785029E+00
 0.1913116269384E+00
 0.2304659288810E+00
 0.2898999691332E+00
 0.3557183794800E+00
 0.4166709853303E+00
 0.4650317580651E+00
 0.4962948014786E+00
 0.5085386260964E+00
 0.5017502114083E+00
 0.4771921884615E+00
 0.4368575340262E+00
 0.3830671835029E+00
 0.3183074335860E+00
 0.2452975870588E+00
 0.1670958143736E+00
 0.8782921522284E-01
 0.3199469469383E-01
 0.8869025710560E-01
 0.1639677065903E+00
 0.2318583407843E+00
 0.1848292212536E+00
 0.2218291066528E+00
 0.2773738519244E+00
 0.3390328952113E+00
 0.3964227608309E+00
 0.4421758603439E+00
 0.4718142829513E+00
 0.4832578594587E+00
 0.4762496730197E+00
 0.4517936752313E+00
 0.4116583740755E+00
 0.3580091548634E+00
 0.2932545636537E+00
 0.2200987941410E+00
 0.1417322496603E+00
 0.6388273733329E-01
 0.4391699497046E-01
 0.1163965161814E+00
 0.1926787168016E+00
 0.2601993071543E+00
 0.1788794038701E+00
 0.2144441088234E+00
 0.2667703226258E+00
 0.3247152256024E+00
 0.3787287478243E+00
 0.4218430669076E+00
 0.4496728145006E+00
 0.4600426642697E+00
 0.4525044730397E+00
 0.4278422636580E+00
 0.3876248327830E+00
 0.3338730101166E+00
 0.2689193311421E+00
 0.1954697756440E+00
 0.1170094176870E+00
 0.4379670788787E-01
 0.6618710356829E-01
 0.1443079572536E+00
 0.2213336231584E+00
 0.2888549984870E+00
 0.1734047710964E+00
 0.2081810717881E+00
 0.2579050519330E+00
 0.3125651269102E+00
 0.3634043497829E+00
 0.4038823089474E+00
 0.4297597502152E+00
 0.4388226812959E+00
 0.4304805575033E+00
 0.4053344723660E+00
 0.3647777825744E+00
 0.3106989885167E+00
 0.2453624181376E+00
 0.1715146942807E+00
 0.9326333099172E-01
 0.3447160730285E-01
 0.9123374189853E-01
 0.1721659582361E+00
 0.2499277955773E+00
 0.3177688869903E+00
 0.1683568202119E+00
 0.2029301052925E+00
 0.2506170089471E+00
 0.3024014586373E+00
 0.3502770878535E+00
 0.3881482590406E+00
 0.4119655771823E+00
 0.4195258939542E+00
 0.4101408367231E+00
 0.3842633918543E+00
 0.3431351917160E+00
 0.2885264773919E+00
 0.2226483495019E+00
 0.1483556438435E+00
 0.7110277392112E-01
 0.4278959261140E-01
 0.1169869097388E+00
 0.1998367190234E+00
 0.2784318623533E+00
 0.3468780059205E+00
 0.1636935997918E+00
 0.1985966778212E+00
 0.2447643195636E+00
 0.2940598461090E+00
 0.3391858335412E+00
 0.3745013648487E+00
 0.3961822261759E+00
 0.4020789382974E+00
 0.3914454197961E+00
 0.3646189122271E+00
 0.3227124372944E+00
 0.2673940551715E+00
 0.2008443497606E+00
 0.1261405167688E+00
 0.5189321477547E-01
 0.6138055967545E-01
 0.1427699857837E+00
 0.2272254240540E+00
 0.3067951215572E+00
 0.3761130941229E+00
 0.1593780548189E+00
 0.1950981211771E+00
 0.2402206634580E+00
 0.2873902223020E+00
 0.3299796201256E+00
 0.3628075083310E+00
 0.3823031263055E+00
 0.3864072779734E+00
 0.3743517981849E+00
 0.3463878939704E+00
 0.3035223369713E+00
 0.2473389296901E+00
 0.1800196872586E+00
 0.1050642698999E+00
 0.3903789847368E-01
 0.8309511734524E-01
 0.1682800814762E+00
 0.2542481286985E+00
 0.3349488433881E+00
 0.4053852534920E+00
 0.1553768050881E+00
 0.1923608920195E+00
 0.2368721610995E+00
 0.2822544110543E+00
 0.3225162196313E+00
 0.3529373689994E+00
 0.3702230229504E+00
 0.3724352205081E+00
 0.3588149152207E+00
 0.3295541820730E+00
 0.2855748985520E+00
 0.2283962009363E+00
 0.1602459376105E+00
 0.8541634790890E-01
 0.3808386864798E-01
 0.1055293589955E+00
 0.1933391526734E+00
 0.2808214012097E+00
 0.3628108967368E+00
 0.4345913630592E+00
 0.1516592073740E+00
 0.1903183679634E+00
 0.2346146734527E+00
 0.2785238302079E+00
 0.3166606112884E+00
 0.3447655927298E+00
 0.3598376168970E+00
 0.3600858042101E+00
 0.3447871342186E+00
 0.3140985036002E+00
 0.2688769625824E+00
 0.2105981939909E+00
 0.1415983134973E+00
 0.6768561865798E-01
 0.4861721002377E-01
 0.1278470332374E+00
 0.2178176426597E+00
 0.3068585640444E+00
 0.3902889529954E+00
 0.4636200323565E+00
 0.1481966108503E+00
 0.1889090288625E+00
 0.2333514408165E+00
 0.2760773357360E+00
 0.3122834078974E+00
 0.3381698251102E+00
 0.3510430550414E+00
 0.3492805602747E+00
 0.3322181049277E+00
 0.2999982851710E+00
 0.2534318256468E+00
 0.1939738840854E+00
 0.1241580932037E+00
 0.5278626154171E-01
 0.6439640470359E-01
 0.1496730516333E+00
 0.2416065265253E+00
 0.3322684900128E+00
 0.4172820037370E+00
 0.4923531053098E+00
 0.1449617482717E+00
 0.1880749227499E+00
 0.2329910013171E+00
 0.2747992097616E+00
 0.3092592797722E+00
 0.3330296524568E+00
 0.3437353004046E+00
 0.3399391634039E+00
 0.3210545442058E+00
 0.2872274274191E+00
 0.2392388863691E+00
 0.1785483570098E+00
 0.1080162447177E+00
 0.4241234824493E-01
 0.8171160376514E-01
 0.1707940267397E+00
 0.2646058406923E+00
 0.3569554085725E+00
 0.4436811542595E+00
 0.5206652863750E+00
 0.1419282242477E+00
 0.1877603466675E+00
 0.2334453420258E+00
 0.2745772877267E+00
 0.3074654009824E+00
 0.3292254832120E+00
 0.3378094084539E+00
 0.3319789918516E+00
 0.3112399548187E+00
 0.2757560686276E+00
 0.2262933367278E+00
 0.1643422423106E+00
 0.9327831990043E-01
 0.3878209079603E-01
 0.9912103807853E-01
 0.1910633913504E+00
 0.2867196989488E+00
 0.3808192132340E+00
 0.4693702639850E+00
 0.5484234638791E+00
 0.1390700742552E+00
 0.1879106931326E+00
 0.2346282455373E+00
 0.2753012171363E+00
 0.3067799337444E+00
 0.3266373944580E+00
 0.3331587327010E+00
 0.3253146156555E+00
 0.3027142996400E+00
 0.2655503536480E+00
 0.2145859064088E+00
 0.1513710650901E+00
 0.8007021743029E-01
 0.4227264914049E-01
 0.1160166837804E+00
 0.2103661264761E+00
 0.3078541794886E+00
 0.4037561023200E+00
 0.4942266685580E+00
 0.5754860514028E+00
 0.1363613753296E+00
 0.1884714257011E+00
 0.2364538003467E+00
 0.2768608373353E+00
 0.3070805594836E+00
 0.3251439605781E+00
 0.3296740757822E+00
 0.3198572238894E+00
 0.2954136355122E+00
 0.2565722056541E+00
 0.2041026560769E+00
 0.1396444807600E+00
 0.6854275143885E-01
 0.5033349211989E-01
 0.1320919036482E+00
 0.2286040276248E+00
 0.3279166236495E+00
 0.4256594912846E+00
 0.5181221074862E+00
 0.6017025168660E+00
 0.1337758944551E+00
 0.1893871557762E+00
 0.2388350474678E+00
 0.2791446687215E+00
 0.3082430622229E+00
 0.3246210794374E+00
 0.3272428026462E+00
 0.3155140028369E+00
 0.2892697106265E+00
 0.2487790970133E+00
 0.1948248233592E+00
 0.1291654119429E+00
 0.5886880046094E-01
 0.6026580926333E-01
 0.1471638669803E+00
 0.2456891018719E+00
 0.3468156849267E+00
 0.4464210724735E+00
 0.5409239693428E+00
 0.6269135295422E+00
 0.1312867639486E+00
 0.1906007981027E+00
 0.2416827377371E+00
 0.2820384977692E+00
 0.3101399661519E+00
 0.3249408080216E+00
 0.3257479299361E+00
 0.3121874743392E+00
 0.2842095250512E+00
 0.2421238093640E+00
 0.1867287226435E+00
 0.1199291696775E+00
 0.5121940136636E-01
 0.7053437889756E-01
 0.1611079577209E+00
 0.2615405627143E+00
 0.3644618303647E+00
 0.4659319415159E+00
 0.5624966104714E+00
 0.6509523959026E+00
 0.1288661753117E+00
 0.1920527856256E+00
 0.2449041753967E+00
 0.2854240425074E+00
 0.3126392261367E+00
 0.3259702168793E+00
 0.3250672043063E+00
 0.3097748030080E+00
 0.2801548531163E+00
 0.2365541699211E+00
 0.1797856942341E+00
 0.1119227196650E+00
 0.4570080635225E-01
 0.8038086806429E-01
 0.1738306677169E+00
 0.2760835671762E+00
 0.3807681270441E+00
 0.4840838938100E+00
 0.5827024241098E+00
 0.6736474239882E+00
 0.1264850843287E+00
 0.1936803260980E+00
 0.2484021241681E+00
 0.2891776816719E+00
 0.3156029673384E+00
 0.3275702705162E+00
 0.3250721815719E+00
 0.3081670815411E+00
 0.2770217274142E+00
 0.2320127498140E+00
 0.1739620879480E+00
 0.1051243274056E+00
 0.4225562440695E-01
 0.8941601460185E-01
 0.1852573293134E+00
 0.2892488433740E+00
 0.3956512471361E+00
 0.5007708680427E+00
 0.6014033274765E+00
 0.6948214754250E+00
 0.1241129208826E+00
 0.1954166834443E+00
 0.2520737523496E+00
 0.2931692298309E+00
 0.3188862682312E+00
 0.3295947392583E+00
 0.3256273182499E+00
 0.3072486047217E+00
 0.2747198866423E+00
 0.2284365108216E+00
 0.1692192521004E+00
 0.9950384368954E-01
 0.4059021468794E-01
 0.9742299120252E-01
 0.1953261685272E+00
 0.3009727877393E+00
 0.4090326038721E+00
 0.5158906638262E+00
 0.6184623666695E+00
 0.7142932559352E+00
 0.1217172971104E+00
 0.1971904665782E+00
 0.2558095935377E+00
 0.2972607403954E+00
 0.3223359803456E+00
 0.3318891472802E+00
 0.3265890873010E+00
 0.3068961445916E+00
 0.2731521928359E+00
 0.2257563890309E+00
 0.1655134837161E+00
 0.9502382255967E-01
 0.4021393983041E-01
 0.1042713430841E+00
 0.2039852593122E+00
 0.3111977848467E+00
 0.4208395906902E+00
 0.5293468160949E+00
 0.6337460656791E+00
 0.7318799881847E+00
 0.1192637069825E+00
 0.1989249071116E+00
 0.2594924991547E+00
 0.3013053184021E+00
 0.3257895780057E+00
 0.3342897616582E+00
 0.3278051310261E+00
 0.3069782421521E+00
 0.2722140281939E+00
 0.2238968086239E+00
 0.1627958851405E+00
 0.9164146585847E-01
 0.4057903786511E-01
 0.1098780467275E+00
 0.2111908581395E+00
 0.3198725919227E+00
 0.4310068541736E+00
 0.5410507132479E+00
 0.6471272248373E+00
 0.7474002417835E+00
 0.1167152091985E+00
 0.2005371050641E+00
 0.2629965578966E+00
 0.3051459251679E+00
 0.3290740321487E+00
 0.3366226284294E+00
 0.3291134660332E+00
 0.3073545347731E+00
 0.2717926878400E+00
 0.2227751264037E+00
 0.1610120701021E+00
 0.8931108749361E-01
 0.4121371982445E-01
 0.1141887992823E+00
 0.2169063734465E+00
 0.3269526490648E+00
 0.4394775474645E+00
 0.5509239278813E+00
 0.6584879823924E+00
 0.7606771237564E+00
 0.1140320831616E+00
 0.2019372177609E+00
 0.2661859552064E+00
 0.3086141573304E+00
 0.3320047039970E+00
 0.3387026635471E+00
 0.3303417576440E+00
 0.3078751430678E+00
 0.2717667928631E+00
 0.2223010185424E+00
 0.1601016716142E+00
 0.8798649023788E-01
 0.4178247338192E-01
 0.1171684979545E+00
 0.2211015615328E+00
 0.3324001744448E+00
 0.4462044652074E+00
 0.5589006959515E+00
 0.6677232872338E+00
 0.7715419512811E+00
 0.1111714449463E+00
 0.2030275615501E+00
 0.2689137433513E+00
 0.3115289841834E+00
 0.3343842577346E+00
 0.3403328096698E+00
 0.3313066837247E+00
 0.3083801458441E+00
 0.2720057583660E+00
 0.2223758373838E+00
 0.1599976270945E+00
 0.8762249556270E-01
 0.4208936687591E-01
 0.1187962222574E+00
 0.2237517031492E+00
 0.3361838736207E+00
 0.4511509056234E+00
 0.5649305262705E+00
 0.6747448950491E+00
 0.7798387708029E+00
 0.1080868025704E+00
 0.2037015863950E+00
 0.2710204876534E+00
 0.3136954286837E+00
 0.3360015956607E+00
 0.3413032727985E+00
 0.3318134089323E+00
 0.3086991747005E+00
 0.2723693632138E+00
 0.2228919909823E+00
 0.1606252568354E+00
 0.8817497182204E-01
 0.4206196344441E-01
 0.1190626937597E+00
 0.2248366006554E+00
 0.3382780246613E+00
 0.4542910204924E+00
 0.5689808744026E+00
 0.6794860661640E+00
 0.7854298180127E+00
 0.1047275236209E+00
 0.2038426705731E+00
 0.2723327505255E+00
 0.3149031834230E+00
 0.3366308283309E+00
 0.3413908576938E+00
 0.3316551888903E+00
 0.3086511567441E+00
 0.2727074754213E+00
 0.2237324283017E+00
 0.1619012109028E+00
 0.8959905822024E-01
 0.4173783734147E-01
 0.1179694560687E+00
 0.2243393271918E+00
 0.3386606135641E+00
 0.4556092670526E+00
 0.5710397637508E+00
 0.6819071614948E+00
 0.7882023335921E+00
 0.1010381717005E+00
 0.2033226610069E+00
 0.2726613698229E+00
 0.3149251646857E+00
 0.3360303077665E+00
 0.3403584290593E+00
 0.3306131208245E+00
 0.3080442239620E+00
 0.2728599854507E+00
 0.2247703468194E+00
 0.1637324512026E+00
 0.9184577845871E-01
 0.4125929881356E-01
 0.1155297856246E+00
 0.2222448296676E+00
 0.3373100447177E+00
 0.4550983039176E+00
 0.5711181290684E+00
 0.6820024433064E+00
 0.7880769665339E+00
 0.9695764102372E-01
 0.2020000512585E+00
 0.2717994860320E+00
 0.3135160309869E+00
 0.3339417766787E+00
 0.3379545338036E+00
 0.3284560490934E+00
 0.3066757873810E+00
 0.2726569742624E+00
 0.2258692513414E+00
 0.1660155496703E+00
 0.9485775253974E-01
 0.4087129479971E-01
 0.1117719901379E+00
 0.2185389027729E+00
 0.3341997780268E+00
 0.4527539696023E+00
 0.5692515581668E+00
 0.6798084197859E+00
 0.7850125148478E+00
 0.9241796600901E-01
 0.1997176360628E+00
 0.2695202806959E+00
 0.3104107476114E+00
 0.3300897298948E+00
 0.3339132345795E+00
 0.3249406226954E+00
 0.3043327514701E+00
 0.2719190997217E+00
 0.2268834291046E+00
 0.1686366616284E+00
 0.9856515300350E-01
 0.4090807101729E-01
 0.1067464269761E+00
 0.2132090129570E+00
 0.3292904272673E+00
 0.4485644882347E+00
 0.5655000416211E+00
 0.6754156275591E+00
 0.7789989872836E+00
 0.8734259987480E-01
 0.1962993821650E+00
 0.2655744469187E+00
 0.3053233726189E+00
 0.3241811553740E+00
 0.3279541947597E+00
 0.3198114778836E+00
 0.3007918123692E+00
 0.2704581509450E+00
 0.2276588082333E+00
 0.1714723652826E+00
 0.1028834509539E+00
 0.4174758184319E-01
 0.1005378460735E+00
 0.2062505658077E+00
 0.3225199603930E+00
 0.4424889712938E+00
 0.5599399863932E+00
 0.6689888078062E+00
 0.7700718350878E+00
 0.8164369638446E-01
 0.1915461704554E+00
 0.2596874948319E+00
 0.2979465397494E+00
 0.3159058515092E+00
 0.3197830720611E+00
 0.3128014697733E+00
 0.2958197765023E+00
 0.2680776967639E+00
 0.2280341156985E+00
 0.1743912210252E+00
 0.1077137314811E+00
 0.4372492439771E-01
 0.9328366945443E-01
 0.1976852137810E+00
 0.3137982917158E+00
 0.4344160799672E+00
 0.5526360840564E+00
 0.6607975080517E+00
 0.7583740312447E+00
 0.7521758842250E-01
 0.1852293678951E+00
 0.2515580183513E+00
 0.2879521550256E+00
 0.3049377800807E+00
 0.3090919493155E+00
 0.3036319307101E+00
 0.2891737721222E+00
 0.2645736902511E+00
 0.2278422842568E+00
 0.1772558723248E+00
 0.1129449178223E+00
 0.4703609562252E-01
 0.8518973165088E-01
 0.1876040304210E+00
 0.3030248511777E+00
 0.4240968148083E+00
 0.5435524803488E+00
 0.6512625982966E+00
 0.7442759288448E+00
 0.6793489871303E-01
 0.1770841712335E+00
 0.2408570153966E+00
 0.2749971444762E+00
 0.2909356322123E+00
 0.2955600031753E+00
 0.2920132248512E+00
 0.2806010032884E+00
 0.2597347512507E+00
 0.2269121935959E+00
 0.1799257112635E+00
 0.1184569745625E+00
 0.5169332872662E-01
 0.7653304713604E-01
 0.1761998093699E+00
 0.2902320757144E+00
 0.4110355148758E+00
 0.5323208880387E+00
 0.6409691378639E+00
 0.7286804001480E+00
 0.5962392176625E-01
 0.1667822844918E+00
 0.2272585997619E+00
 0.2587234790183E+00
 0.2735420228860E+00
 0.2788559081800E+00
 0.2776455995330E+00
 0.2698380184140E+00
 0.2533407193411E+00
 0.2250710040679E+00
 0.1822613570497E+00
 0.1241238859660E+00
 0.5755376888527E-01
 0.6768372164137E-01
 0.1637056654160E+00
 0.2757624093994E+00
 0.3949375382532E+00
 0.5171830157262E+00
 0.6306397559959E+00
 0.7139599566934E+00
 0.4990276651858E-01
 0.1541201980368E+00
 0.2104462635280E+00
 0.2387421001730E+00
 0.2523916300195E+00
 0.2586394373761E+00
 0.2602203298651E+00
 0.2566116375904E+00
 0.2451577047118E+00
 0.2221410782870E+00
 0.1841392884248E+00
 0.1298172925545E+00
 0.6437960362583E-01
 0.5913863874051E-01
 0.1503843936610E+00
 0.2599686790353E+00
 0.3767420747641E+00
 0.4960161100651E+00
 0.6148418877042E+00
 0.7090671228901E+00
 0.2851099265557E+01
 0.3342233142258E+01
 0.2323315854154E+01
 0.1773406205972E+01
 0.1405418069844E+01
 0.1135410338410E+01
 0.9211530309057E+00
 0.7441380183470E+00
 0.5940719115011E+00
 0.4654080723000E+00
 0.3542584694166E+00
 0.2573205915489E+00
 0.1794367862001E+00
 0.1227609192202E+00
 0.8294079617282E-01
 0.5595164135449E-01
 0.3678771807052E-01
 0.2221413535924E-01
 0.1047055180429E-01
 0.1145361765583E-02
 0.2187874881798E+01
 0.3287376256353E+01
 0.2596581745120E+01
 0.1971037976179E+01
 0.1556098771569E+01
 0.1256318485875E+01
 0.1023864627028E+01
 0.8340824054448E+00
 0.6744380599266E+00
 0.5378701904377E+00
 0.4198524468661E+00
 0.3180425937135E+00
 0.2354774202733E+00
 0.1715676799930E+00
 0.1224165923978E+00
 0.8537354263597E-01
 0.5668115182531E-01
 0.3346885317624E-01
 0.1433819144075E-01
 0.2832665174109E-02
 0.1741171889646E+01
 0.2844596778629E+01
 0.2621910302583E+01
 0.2113217151372E+01
 0.1684805950648E+01
 0.1366101519965E+01
 0.1118841121520E+01
 0.9182970891785E+00
 0.7502052475173E+00
 0.6065602648505E+00
 0.4825319230859E+00
 0.3756167315955E+00
 0.2871080121961E+00
 0.2161375958917E+00
 0.1590682904318E+00
 0.1132707230985E+00
 0.7594162812754E-01
 0.4483009867899E-01
 0.1897234007528E-01
 0.4157999715103E-02
 0.1422906157401E+01
 0.2430856161614E+01
 0.2473371659220E+01
 0.2153335396450E+01
 0.1775764332548E+01
 0.1457641274340E+01
 0.1203030433098E+01
 0.9949044646980E+00
 0.8201785212540E+00
 0.6706396350653E+00
 0.5413015550680E+00
 0.4294023813097E+00
 0.3350111306954E+00
 0.2572277729278E+00
 0.1928824219345E+00
 0.1393184731137E+00
 0.9425473684750E-01
 0.5596085695569E-01
 0.2385185087802E-01
 0.5415158882893E-02
 0.1185092293097E+01
 0.2073991061786E+01
 0.2267260652912E+01
 0.2105410547844E+01
 0.1814130503709E+01
 0.1523070173884E+01
 0.1272307236091E+01
 0.1061715076966E+01
 0.8829727029530E+00
 0.7291000693873E+00
 0.5953768245406E+00
 0.4789847382674E+00
 0.3791642715688E+00
 0.2950502576748E+00
 0.2239743456616E+00
 0.1633795742733E+00
 0.1113558756047E+00
 0.6652918556929E-01
 0.2854637812657E-01
 0.6753910940046E-02
 0.1002282163778E+01
 0.1773752432576E+01
 0.2047514732971E+01
 0.2004825767899E+01
 0.1802404003624E+01
 0.1556559243757E+01
 0.1322559713953E+01
 0.1116224116457E+01
 0.9370397605040E+00
 0.7808783228415E+00
 0.6440141407044E+00
 0.5239143897388E+00
 0.4193641522486E+00
 0.3295598844416E+00
 0.2523400538647E+00
 0.1853686071514E+00
 0.1270529124128E+00
 0.7627224370289E-01
 0.3281352757605E-01
 0.8258836507264E-02
 0.8588209380958E+00
 0.1522441550280E+01
 0.1833921447707E+01
 0.1875939566190E+01
 0.1752446396259E+01
 0.1558336146245E+01
 0.1351071388817E+01
 0.1156148548000E+01
 0.9807941817240E+00
 0.8248907693847E+00
 0.6864673227095E+00
 0.5637091952783E+00
 0.4553126486119E+00
 0.3605897559538E+00
 0.2778860193446E+00
 0.2051858015852E+00
 0.1412017907297E+00
 0.8501658098845E-01
 0.3650512518552E-01
 0.9990714766466E-02
 0.7444491855196E+00
 0.1312104657672E+01
 0.1634895600057E+01
 0.1734542502778E+01
 0.1676101140097E+01
 0.1532883203867E+01
 0.1357688049359E+01
 0.1180071092027E+01
 0.1012902489383E+01
 0.8601226554966E+00
 0.7220124225274E+00
 0.5978739409170E+00
 0.4866679576355E+00
 0.3879103493100E+00
 0.3004639628049E+00
 0.2227135903828E+00
 0.1536863925737E+00
 0.9264925078327E-01
 0.3954093947101E-01
 0.1199901619256E-01
 0.6520996491731E+00
 0.1135755237669E+01
 0.1453624849091E+01
 0.1590434430688E+01
 0.1583136938487E+01
 0.1486027612844E+01
 0.1344363477958E+01
 0.1187850942950E+01
 0.1032586502493E+01
 0.8857833996378E+00
 0.7500143611158E+00
 0.6259407967875E+00
 0.5130831859994E+00
 0.4112685832120E+00
 0.3198981717682E+00
 0.2378232777433E+00
 0.1644058955065E+00
 0.9909656550122E-01
 0.4188851123145E-01
 0.1431579000713E-01
 0.5767292044813E+00
 0.9875623257784E+00
 0.1290755865004E+01
 0.1449575360516E+01
 0.1480978621671E+01
 0.1423507779741E+01
 0.1314165519972E+01
 0.1180496893858E+01
 0.1039792379127E+01
 0.9014559450958E+00
 0.7700186153504E+00
 0.6475248931941E+00
 0.5342467690355E+00
 0.4304203696037E+00
 0.3360084807016E+00
 0.2503831062971E+00
 0.1732680106714E+00
 0.1043085274938E+00
 0.4355020198321E-01
 0.1694853416454E-01
 0.5146392546052E+00
 0.8627316625674E+00
 0.1145700164228E+01
 0.1315476871343E+01
 0.1375050534523E+01
 0.1350360913616E+01
 0.1270533780570E+01
 0.1159787284278E+01
 0.1035150505548E+01
 0.9071755049921E+00
 0.7818321599170E+00
 0.6623849837147E+00
 0.5499260113173E+00
 0.4451628047018E+00
 0.3486320631509E+00
 0.2602672794575E+00
 0.1801851071168E+00
 0.1082470744562E+00
 0.4455352917100E-01
 0.1987534303359E-01
 0.4630577310153E+00
 0.7573347732236E+00
 0.1017289565265E+01
 0.1190088954578E+01
 0.1269210275619E+01
 0.1270752659001E+01
 0.1216826788623E+01
 0.1127899161948E+01
 0.1019811566463E+01
 0.9034147732956E+00
 0.7855651184568E+00
 0.6704726462166E+00
 0.5600089842110E+00
 0.4553667602727E+00
 0.3576462227631E+00
 0.2673666297372E+00
 0.1850721345009E+00
 0.1108753069885E+00
 0.4494245558847E-01
 0.2304220722656E-01
 0.4198700119723E+00
 0.6681480310626E+00
 0.9041167500844E+00
 0.1074362258179E+01
 0.1166133862566E+01
 0.1188002581838E+01
 0.1156088874954E+01
 0.1087126107877E+01
 0.9952545304542E+00
 0.8910043866181E+00
 0.7816245468790E+00
 0.6719572683884E+00
 0.5645370678141E+00
 0.4610076734545E+00
 0.3629929618742E+00
 0.2716022642684E+00
 0.1878462247899E+00
 0.1121454892533E+00
 0.4476676168140E-01
 0.2636062316465E-01
 0.3834391622230E+00
 0.5925171678377E+00
 0.8047146625512E+00
 0.9686084080807E+00
 0.1067621809496E+01
 0.1104685363670E+01
 0.1090954034327E+01
 0.1039692053426E+01
 0.9631160338499E+00
 0.8710270522297E+00
 0.7706711525742E+00
 0.6672228627938E+00
 0.5637218727609E+00
 0.4621910555973E+00
 0.3647056388818E+00
 0.2729444928972E+00
 0.1884295426507E+00
 0.1119840348594E+00
 0.4406578999871E-01
 0.2970432410630E-01
 0.3524818245767E+00
 0.5282472680420E+00
 0.7176507437382E+00
 0.8727340284052E+00
 0.9748323358767E+00
 0.1022751093970E+01
 0.1023627638086E+01
 0.9876418287809E+00
 0.9250587958412E+00
 0.8447121370509E+00
 0.7535558592724E+00
 0.6568406447867E+00
 0.5579431348315E+00
 0.4591689455291E+00
 0.3629378852309E+00
 0.2714421451254E+00
 0.1867603762307E+00
 0.1102733695820E+00
 0.4284102041485E-01
 0.3290585784992E-01
 0.3259796873979E+00
 0.4735143854005E+00
 0.6415750968418E+00
 0.7863952609088E+00
 0.8884561154794E+00
 0.9436404911967E+00
 0.9559085049440E+00
 0.9327857954616E+00
 0.8826794529035E+00
 0.8133448584193E+00
 0.7312509243965E+00
 0.6415253630318E+00
 0.5477262073621E+00
 0.4523405835186E+00
 0.3579936072647E+00
 0.2672706913360E+00
 0.1828281425006E+00
 0.1068345665508E+00
 0.4101138732816E-01
 0.3575914401321E-01
 0.3031138832972E+00
 0.4267938620663E+00
 0.5752445461276E+00
 0.7091016964288E+00
 0.8088468398491E+00
 0.8683858425012E+00
 0.8892294881493E+00
 0.8766796548678E+00
 0.8374492451918E+00
 0.7781949791765E+00
 0.7047860417357E+00
 0.6220848310824E+00
 0.5337023998908E+00
 0.4422233485876E+00
 0.3503399454835E+00
 0.2608149836882E+00
 0.1767630667209E+00
 0.1014436729289E+00
 0.3834260190782E-01
 0.3804567003426E-01
 0.2832113860956E+00
 0.3868044065807E+00
 0.5175341906350E+00
 0.6402909126011E+00
 0.7361165644902E+00
 0.7976959594720E+00
 0.8247047514070E+00
 0.8206257224126E+00
 0.7906790311644E+00
 0.7404643064618E+00
 0.6751950085268E+00
 0.5993733619784E+00
 0.5165619933338E+00
 0.4293943391279E+00
 0.3405386068048E+00
 0.2527351151436E+00
 0.1691087293075E+00
 0.9394145091419E-01
 0.3443491857096E-01
 0.3966726885329E-01
 0.2656983905473E+00
 0.3524459478871E+00
 0.4674745464519E+00
 0.5793711285852E+00
 0.6702039857706E+00
 0.7320272309091E+00
 0.7631777794167E+00
 0.7656870453545E+00
 0.7435004989700E+00
 0.7012479043312E+00
 0.6434747453702E+00
 0.5742563244342E+00
 0.4970213497951E+00
 0.4144257484713E+00
 0.3291105354753E+00
 0.2437133726961E+00
 0.1611115870107E+00
 0.8524510335910E-01
 0.2893976456280E-01
 0.4106741551954E-01
 0.2499093650846E+00
 0.3229910223664E+00
 0.4242495266180E+00
 0.5257299985434E+00
 0.6109288609948E+00
 0.6716417931245E+00
 0.7052685777232E+00
 0.7127095301183E+00
 0.6968588832026E+00
 0.6615001252722E+00
 0.6105477840147E+00
 0.5475966963147E+00
 0.4758134621691E+00
 0.3978755424606E+00
 0.3164292457622E+00
 0.2341007643098E+00
 0.1535723899130E+00
 0.7839252661072E-01
 0.2626365654824E-01
 0.4686983951612E-01
 0.3750049128717E-01
 0.1385189479482E+00
 0.1890300163586E+00
 0.2129880764690E+00
 0.2247538180173E+00
 0.2317318234762E+00
 0.2362626845898E+00
 0.2371446328376E+00
 0.2308923452874E+00
 0.2130143781303E+00
 0.1793861542162E+00
 0.1282584305921E+00
 0.6489531149456E-01
 0.5746069841124E-01
 0.1470039529542E+00
 0.2554530730538E+00
 0.3706672780973E+00
 0.4878450940367E+00
 0.6073273700598E+00
 0.7508972033463E+00
 0.2533699607380E-01
 0.1203860210599E+00
 0.1633498352174E+00
 0.1814946547528E+00
 0.1906217928763E+00
 0.1982312386046E+00
 0.2061179269532E+00
 0.2121929910423E+00
 0.2119300087706E+00
 0.1997560348526E+00
 0.1704931627107E+00
 0.1218609561954E+00
 0.6050402355206E-01
 0.6371806269245E-01
 0.1567817633103E+00
 0.2674396779395E+00
 0.3847464910491E+00
 0.5053196921765E+00
 0.6359195262129E+00
 0.7767583750664E+00
 0.1156003952928E-01
 0.9774190507146E-01
 0.1313712700006E+00
 0.1430403607792E+00
 0.1497806580510E+00
 0.1589929740851E+00
 0.1716700192780E+00
 0.1846051575884E+00
 0.1920180915942E+00
 0.1870419951108E+00
 0.1632574985120E+00
 0.1177473508680E+00
 0.5839960497730E-01
 0.6865809105057E-01
 0.1646575201543E+00
 0.2781961599849E+00
 0.3991836089996E+00
 0.5260003374228E+00
 0.6603331913762E+00
 0.7883645075117E+00
 0.6077869135770E-02
 0.7003190527369E-01
 0.9231594103040E-01
 0.9690326001684E-01
 0.1017463851360E+00
 0.1138110079431E+00
 0.1329703640534E+00
 0.1546216414068E+00
 0.1715066056020E+00
 0.1752603261229E+00
 0.1579921421710E+00
 0.1160205682803E+00
 0.5826676574441E-01
 0.7228825597424E-01
 0.1711577626181E+00
 0.2881827314670E+00
 0.4133832185401E+00
 0.5438467181949E+00
 0.6762271887750E+00
 0.7947984430813E+00
 0.2443421028109E-01
 0.3694023590967E-01
 0.4565446889713E-01
 0.4259405478904E-01
 0.4615289417486E-01
 0.6258411862577E-01
 0.9018977044123E-01
 0.1225911241409E+00
 0.1508271043294E+00
 0.1648357181863E+00
 0.1550038649534E+00
 0.1167672966973E+00
 0.5986752929336E-01
 0.7475097452200E-01
 0.1764347316853E+00
 0.2969472454708E+00
 0.4252287944213E+00
 0.5566454974443E+00
 0.6852824007051E+00
 0.7966021350133E+00
 0.4664369414494E-01
 0.1471063389278E-01
 0.1672130992483E-01
 0.2353433326016E-01
 0.1826103923363E-01
 0.5376756555400E-02
 0.4367285922503E-01
 0.8899172955840E-01
 0.1304850661494E+00
 0.1562190911316E+00
 0.1545878026071E+00
 0.1200490270012E+00
 0.6308213923692E-01
 0.7619638474514E-01
 0.1803907492379E+00
 0.3037633853910E+00
 0.4336440389899E+00
 0.5641280062822E+00
 0.6881600792347E+00
 0.7933771545105E+00
 0.7281209386951E-01
 0.5830213501101E-01
 0.7997787647047E-01
 0.9635292616616E-01
 0.8968461635909E-01
 0.5766909086170E-01
 0.7184338043824E-02
 0.5447735307268E-01
 0.1110462840155E+00
 0.1498649000487E+00
 0.1570031290428E+00
 0.1258816549566E+00
 0.6786573634213E-01
 0.7682132985760E-01
 0.1829228491845E+00
 0.3082281623210E+00
 0.4382405318829E+00
 0.5662841239593E+00
 0.6850738888166E+00
 0.7845050886089E+00
 0.1036651226797E+00
 0.1173964878637E+00
 0.1579278380363E+00
 0.1806139352697E+00
 0.1696239570757E+00
 0.1259923192645E+00
 0.5894581877187E-01
 0.2032984164724E-01
 0.9310765411914E-01
 0.1461929638137E+00
 0.1624331708507E+00
 0.1341909755932E+00
 0.7414767732834E-01
 0.7692674096453E-01
 0.1840802310605E+00
 0.3102165811319E+00
 0.4388955343613E+00
 0.5631322853329E+00
 0.6759703530807E+00
 0.7693941593305E+00
 0.1401358776245E+00
 0.1885415204037E+00
 0.2488788559434E+00
 0.2759409099401E+00
 0.2574260431781E+00
 0.1988511474621E+00
 0.1131173214626E+00
 0.1731151448929E-01
 0.7724530772698E-01
 0.1455321720598E+00
 0.1709283092441E+00
 0.1447516557948E+00
 0.8172424618701E-01
 0.7692394944985E-01
 0.1840574851454E+00
 0.3097591166406E+00
 0.4355863218413E+00
 0.5546489898168E+00
 0.6606781079344E+00
 0.7475412152257E+00
 0.1833963248681E+00
 0.2733804296831E+00
 0.3539298934276E+00
 0.3824488084468E+00
 0.3523464944592E+00
 0.2750845550512E+00
 0.1678879798989E+00
 0.4945807062983E-01
 0.6393280238778E-01
 0.1480433265753E+00
 0.1823348598543E+00
 0.1571252528819E+00
 0.9018814709732E-01
 0.7726999304674E-01
 0.1831365821001E+00
 0.3069460502417E+00
 0.4283026604938E+00
 0.5407662710398E+00
 0.6389955435875E+00
 0.7185664849021E+00
 0.2349320192263E+00
 0.3741877477971E+00
 0.4742725954674E+00
 0.4998829373152E+00
 0.4530916479687E+00
 0.3530663870216E+00
 0.2218716426514E+00
 0.8036442038169E-01
 0.5342487204340E-01
 0.1536201593159E+00
 0.1962172897029E+00
 0.1706111062083E+00
 0.9891635412657E-01
 0.7836534197545E-01
 0.1816106913892E+00
 0.3018466101566E+00
 0.4169966131120E+00
 0.5213835527719E+00
 0.6107538702414E+00
 0.6822465616811E+00
 0.2966555649022E+00
 0.4937441458966E+00
 0.6109644877012E+00
 0.6273448787993E+00
 0.5576003648785E+00
 0.4306304307420E+00
 0.2735395522304E+00
 0.1086206509047E+00
 0.4561108363310E-01
 0.1617720498997E+00
 0.2117832989525E+00
 0.1842202335654E+00
 0.1071159926285E+00
 0.8046274101734E-01
 0.1796956033767E+00
 0.2944353312437E+00
 0.4015490009049E+00
 0.4963875776177E+00
 0.5758715756711E+00
 0.6385562859485E+00
 0.3710773388664E+00
 0.6354031730844E+00
 0.7646933846357E+00
 0.7629227861156E+00
 0.6627816846204E+00
 0.5050355035341E+00
 0.3213512561885E+00
 0.1338788632670E+00
 0.3985370007172E-01
 0.1714987042976E+00
 0.2278208681009E+00
 0.1966788406123E+00
 0.1139232264173E+00
 0.8363574265034E-01
 0.1774318657416E+00
 0.2845241132305E+00
 0.3817517178388E+00
 0.4656851465860E+00
 0.5344140717255E+00
 0.5877237391950E+00
 0.4615696302969E+00
 0.8031910078353E+00
 0.9353623947255E+00
 0.9031245233333E+00
 0.7642153264538E+00
 0.5730392370343E+00
 0.3640277290457E+00
 0.1565097283790E+00
 0.3482162579572E-01
 0.1811708132541E+00
 0.2426501471635E+00
 0.2064670705028E+00
 0.1185597680544E+00
 0.8781144454600E-01
 0.1745866509984E+00
 0.2717124092122E+00
 0.3573207645725E+00
 0.4292647673572E+00
 0.4866735472451E+00
 0.5303044854032E+00
 0.5727926728865E+00
 0.1001881650584E+01
 0.1121282407242E+01
 0.1042000766807E+01
 0.8558952590100E+00
 0.6312236864183E+00
 0.4009939647459E+00
 0.1778533489171E+00
 0.2834301280614E-01
 0.1884156459325E+00
 0.2540789505563E+00
 0.2119040721560E+00
 0.1205666043891E+00
 0.9281407916305E-01
 0.1705855275588E+00
 0.2553961421420E+00
 0.3279803185537E+00
 0.3873196551531E+00
 0.4332936254241E+00
 0.4672894298949E+00
 0.7114191605709E+00
 0.1236888133065E+01
 0.1317529246982E+01
 0.1169804286864E+01
 0.9303290735913E+00
 0.6767940926063E+00
 0.4329558064837E+00
 0.2003745414096E+00
 0.1741076579597E-01
 0.1899563828897E+00
 0.2593355522199E+00
 0.2113135902869E+00
 0.1201444053801E+00
 0.9837774880322E-01
 0.1645702291436E+00
 0.2349451398276E+00
 0.2937083047714E+00
 0.3404988639582E+00
 0.3754887387244E+00
 0.4002929829083E+00
 0.8874836983956E+00
 0.1513527319557E+01
 0.1512214200475E+01
 0.1271384975900E+01
 0.9797041918146E+00
 0.7092370624197E+00
 0.4621100765401E+00
 0.2275071147661E+00
 0.6946318107983E-02
 0.1812836555142E+00
 0.2549482227233E+00
 0.2033653270754E+00
 0.1186132768339E+00
 0.1042652291501E+00
 0.1558816506933E+00
 0.2103327930403E+00
 0.2553535064455E+00
 0.2904239004895E+00
 0.3154893758588E+00
 0.3319301502984E+00
 0.1117040363741E+01
 0.1832695517690E+01
 0.1678754819561E+01
 0.1324649542801E+01
 0.1001454208773E+01
 0.7313033110777E+00
 0.4912747591240E+00
 0.2633035120544E+00
 0.3997914417376E-01
 0.1559274931388E+00
 0.2365469643034E+00
 0.1878662019068E+00
 0.1189193161184E+00
 0.1111370059392E+00
 0.1458123685981E+00
 0.1839333852031E+00
 0.2160761883725E+00
 0.2408338664707E+00
 0.2575041422020E+00
 0.2667625744354E+00
 0.1429771154985E+01
 0.2178452160150E+01
 0.1746932719230E+01
 0.1319810093920E+01
 0.1003069472226E+01
 0.7465797442476E+00
 0.5226435301520E+00
 0.3118453433772E+00
 0.9892244121540E-01
 0.1037575951436E+00
 0.1986851575135E+00
 0.1676540721299E+00
 0.1264998105485E+00
 0.1235408416022E+00
 0.1420169378002E+00
 0.1645246068057E+00
 0.1845479697732E+00
 0.1999398665989E+00
 0.2098261267730E+00
 0.2131204704743E+00
 0.1879094958989E+01
 0.2302334439062E+01
 0.1670925603265E+01
 0.1282849995039E+01
 0.9924116200353E+00
 0.7579449950057E+00
 0.5567582877522E+00
 0.3755063059100E+00
 0.1938985997647E+00
 0.8874984919643E-02
 0.1350998568737E+00
 0.1550524953255E+00
 0.1513992332127E+00
 0.1537541132330E+00
 0.1615375147749E+00
 0.1703049662603E+00
 0.1782453138361E+00
 0.1837360007248E+00
 0.1860882867961E+00
 0.1849260674406E+00
 0.1144080216022E+00
 0.1122625442247E+00
 0.1031493941391E+00
 0.9368971444087E-01
 0.8469938115308E-01
 0.7620019022435E-01
 0.6811829129388E-01
 0.6040469422496E-01
 0.5304537711012E-01
 0.4604979507360E-01
 0.3943877438700E-01
 0.3323484794979E-01
 0.2745495923887E-01
 0.2210504835907E-01
 0.1717670372304E-01
 0.1264721673712E-01
 0.8490536674865E-02
 0.4731735009737E-02
 0.2094108910842E-02
 0.3525762494721E-02
 0.1388988001077E+00
 0.1338215725693E+00
 0.1285507523765E+00
 0.1217010276089E+00
 0.1140113367465E+00
 0.1059094857235E+00
 0.9761799118721E-01
 0.8925834952408E-01
 0.8091188861586E-01
 0.7264432173139E-01
 0.6451370222057E-01
 0.5657157289888E-01
 0.4886198130177E-01
 0.4142064867822E-01
 0.3427585284740E-01
 0.2745329446963E-01
 0.2098751743296E-01
 0.1496312273828E-01
 0.9564294596324E-02
 0.6073842936285E-02
 0.1674513358813E+00
 0.1595602199212E+00
 0.1546466767500E+00
 0.1492526707653E+00
 0.1427304918615E+00
 0.1352249797209E+00
 0.1269732135427E+00
 0.1181783601000E+00
 0.1089991863960E+00
 0.9956319981877E-01
 0.8997783670925E-01
 0.8033724421752E-01
 0.7072638614940E-01
 0.6122460687315E-01
 0.5191076127472E-01
 0.4287148762485E-01
 0.3421943526900E-01
 0.2611455538914E-01
 0.1891037302391E-01
 0.1294132069296E-01
 0.1973047454380E+00
 0.1889485800840E+00
 0.1833018176729E+00
 0.1780761475739E+00
 0.1720391272384E+00
 0.1648651737611E+00
 0.1566014511934E+00
 0.1474040940392E+00
 0.1374454811333E+00
 0.1268875221237E+00
 0.1158779360826E+00
 0.1045527623361E+00
 0.9304032536985E-01
 0.8146605855472E-01
 0.6995876226168E-01
 0.5865985237335E-01
 0.4773312174561E-01
 0.3738549039482E-01
 0.2781432438016E-01
 0.1907223131142E-01
 0.2274087285340E+00
 0.2200075271164E+00
 0.2141471961017E+00
 0.2087057478629E+00
 0.2026533082439E+00
 0.1954643030661E+00
 0.1869988493096E+00
 0.1773127290616E+00
 0.1665426515882E+00
 0.1548525376462E+00
 0.1424118343433E+00
 0.1293885027784E+00
 0.1159483592000E+00
 0.1022575459298E+00
 0.8848727423511E-01
 0.7481982193808E-01
 0.6145578520826E-01
 0.4860588619158E-01
 0.3645215267007E-01
 0.2506476348466E-01
 0.2576286606662E+00
 0.2518879099528E+00
 0.2464385256515E+00
 0.2409534278522E+00
 0.2347513595580E+00
 0.2273430644249E+00
 0.2185060153815E+00
 0.2082149984344E+00
 0.1965593295614E+00
 0.1836871883513E+00
 0.1697748009154E+00
 0.1550111736712E+00
 0.1395914459538E+00
 0.1237150175578E+00
 0.1075865003507E+00
 0.9141869838385E-01
 0.7543499199570E-01
 0.5986998342847E-01
 0.4496760934780E-01
 0.3095637071586E-01
 0.2879735653238E+00
 0.2842083190962E+00
 0.2796702008524E+00
 0.2744614293690E+00
 0.2682119962288E+00
 0.2605509922557E+00
 0.2512596383584E+00
 0.2402764752056E+00
 0.2276573899131E+00
 0.2135340676349E+00
 0.1980838790654E+00
 0.1815107985795E+00
 0.1640340149321E+00
 0.1458813733274E+00
 0.1272859269209E+00
 0.1084846119495E+00
 0.8971968839410E-01
 0.7124687833717E-01
 0.5336629413656E-01
 0.3650651453479E-01
 0.3184692220654E+00
 0.3168114014331E+00
 0.3135320709672E+00
 0.3089188695682E+00
 0.3028167268900E+00
 0.2949796496540E+00
 0.2852319096085E+00
 0.2735117207667E+00
 0.2598624036999E+00
 0.2444080984969E+00
 0.2273298630310E+00
 0.2088468072612E+00
 0.1892021603817E+00
 0.1686529753741E+00
 0.1474623106272E+00
 0.1258934883859E+00
 0.1042074501886E+00
 0.8266807652432E-01
 0.6156855517818E-01
 0.4135628218509E-01
 0.3491370051746E+00
 0.3496527463796E+00
 0.3478713297137E+00
 0.3441257481442E+00
 0.3383847103403E+00
 0.3304994515929E+00
 0.3203450539402E+00
 0.3078774449017E+00
 0.2931433905406E+00
 0.2762700529657E+00
 0.2574485090870E+00
 0.2369173337128E+00
 0.2149480288235E+00
 0.1918322766409E+00
 0.1678705478486E+00
 0.1433617365038E+00
 0.1185939297381E+00
 0.9383669003055E-01
 0.6933530337839E-01
 0.4529140125835E-01
 0.3800262142179E+00
 0.3827752366982E+00
 0.3826837842023E+00
 0.3800495552708E+00
 0.3748946413269E+00
 0.3671310064213E+00
 0.3566742174065E+00
 0.3435007528984E+00
 0.3276674831122E+00
 0.3093107961476E+00
 0.2886365687437E+00
 0.2659068033700E+00
 0.2414253652492E+00
 0.2155235278944E+00
 0.1885452939962E+00
 0.1608320813829E+00
 0.1327056708143E+00
 0.1044457329867E+00
 0.7624979629785E-01
 0.4810542092007E-01
 0.4111156671727E+00
 0.4161452423621E+00
 0.4179029118031E+00
 0.4166002248520E+00
 0.4122600393743E+00
 0.4048192731661E+00
 0.3942154529075E+00
 0.3804382778566E+00
 0.3635528559592E+00
 0.3437049322367E+00
 0.3211159904621E+00
 0.2960729232070E+00
 0.2689146092873E+00
 0.2400163528891E+00
 0.2097724176999E+00
 0.1785763777017E+00
 0.1467980145856E+00
 0.1147532222526E+00
 0.8265491701242E-01
 0.5053849647850E-01
 0.4423433749507E+00
 0.4497056612346E+00
 0.4534528430331E+00
 0.4536855289806E+00
 0.4503892770186E+00
 0.4434942504545E+00
 0.4329383890426E+00
 0.4187112551646E+00
 0.4008779444957E+00
 0.3795882092283E+00
 0.3550757372772E+00
 0.3276508928690E+00
 0.2976887326328E+00
 0.2656131669454E+00
 0.2318776721833E+00
 0.1969427183208E+00
 0.1612498335525E+00
 0.1251915970344E+00
 0.8907986183394E-01
 0.5313344891558E-01
 0.4736246856954E+00
 0.4833903503968E+00
 0.4892644470035E+00
 0.4912296120513E+00
 0.4892088716893E+00
 0.4830992885441E+00
 0.4728175206934E+00
 0.4583363516635E+00
 0.4397080880753E+00
 0.4170765172015E+00
 0.3906800270886E+00
 0.3608478113292E+00
 0.3279902201723E+00
 0.2925837793651E+00
 0.2551512845949E+00
 0.2162376629430E+00
 0.1763829333564E+00
 0.1360953240882E+00
 0.9583251128865E-01
 0.5600555597903E-01
 0.5048565280386E+00
 0.5171150577054E+00
 0.5252591536066E+00
 0.5291547791206E+00
 0.5286468073308E+00
 0.5235784116008E+00
 0.5138246977003E+00
 0.4993235495393E+00
 0.4800985273005E+00
 0.4562734868638E+00
 0.4280798079272E+00
 0.3958569156323E+00
 0.3600462781451E+00
 0.3211787805906E+00
 0.2798555505429E+00
 0.2367230455061E+00
 0.1924446145262E+00
 0.1476729771042E+00
 0.1030304962744E+00
 0.5910406765060E-01
 0.5359206291729E+00
 0.5507749680529E+00
 0.5613397904414E+00
 0.5673688002359E+00
 0.5686194299980E+00
 0.5648650736552E+00
 0.5559211872146E+00
 0.5416723181762E+00
 0.5220951036361E+00
 0.4972759194057E+00
 0.4674229366181E+00
 0.4328722510167E+00
 0.3940873289837E+00
 0.3516507562069E+00
 0.3062475074024E+00
 0.2586399160166E+00
 0.2096362929319E+00
 0.1600573184934E+00
 0.1107056808239E+00
 0.6234315435725E-01
 0.5666844928404E+00
 0.5842436925592E+00
 0.5973850782908E+00
 0.6057555443472E+00
 0.6090200660190E+00
 0.6068705172719E+00
 0.5990471365560E+00
 0.5853632214242E+00
 0.5657288800316E+00
 0.5401722378240E+00
 0.5088572465595E+00
 0.4720970266681E+00
 0.4303610855128E+00
 0.3842742261228E+00
 0.3346048941038E+00
 0.2822414995939E+00
 0.2281571469801E+00
 0.1733659393675E+00
 0.1188762834086E+00
 0.6564661948101E-01
 0.5970018538960E+00
 0.6173735688642E+00
 0.6332474042003E+00
 0.6441697015528E+00
 0.6497113008549E+00
 0.6494745897316E+00
 0.6431119108203E+00
 0.6303487376685E+00
 0.6110084852208E+00
 0.5850375778724E+00
 0.5525298037496E+00
 0.5137485386255E+00
 0.4691444943802E+00
 0.4193655560487E+00
 0.3652544380508E+00
 0.3078299243175E+00
 0.2482490496692E+00
 0.1877512453856E+00
 0.1275907219598E+00
 0.6896687774211E-01
 0.6267120604319E+00
 0.6499945629323E+00
 0.6687498526185E+00
 0.6824311867014E+00
 0.6905167220842E+00
 0.6925152150905E+00
 0.6879819273583E+00
 0.6765403208010E+00
 0.6579076011361E+00
 0.6319233605007E+00
 0.5985807200612E+00
 0.5580587377442E+00
 0.5107535468679E+00
 0.4573038450528E+00
 0.3986042606100E+00
 0.3357985218094E+00
 0.2702446003322E+00
 0.2034476758888E+00
 0.1369656911925E+00
 0.7230546479783E-01
 0.6556393543062E+00
 0.6819128885671E+00
 0.7036830362971E+00
 0.7203193311138E+00
 0.7312119430632E+00
 0.7357760933288E+00
 0.7334652090967E+00
 0.7237903837681E+00
 0.7063455236926E+00
 0.6808383607379E+00
 0.6471275911896E+00
 0.6052657558766E+00
 0.5555459987964E+00
 0.4985483176113E+00
 0.4351772562692E+00
 0.3666786972233E+00
 0.2946202319899E+00
 0.2208209595892E+00
 0.1472256399069E+00
 0.7574272120639E-01
 0.6835920184535E+00
 0.7129091165692E+00
 0.7378017366879E+00
 0.7575669577625E+00
 0.7715152202874E+00
 0.7789732382625E+00
 0.7792935070619E+00
 0.7718701171422E+00
 0.7561615125418E+00
 0.7317215217834E+00
 0.6982401768148E+00
 0.6555954984692E+00
 0.6039162289033E+00
 0.5436528480546E+00
 0.4756492979594E+00
 0.4012001216290E+00
 0.3220684057862E+00
 0.2404336595775E+00
 0.1587441723106E+00
 0.7946680120676E-01
 0.7103611072891E+00
 0.7427377037831E+00
 0.7708233608938E+00
 0.7938559578682E+00
 0.8110785051869E+00
 0.8217397650562E+00
 0.8250991574783E+00
 0.8204370382199E+00
 0.8070723676612E+00
 0.7843902358300E+00
 0.7518821970060E+00
 0.7092026842538E+00
 0.6562445291995E+00
 0.5932349631697E+00
 0.5208488702687E+00
 0.4403259045308E+00
 0.3535604168948E+00
 0.2631116202549E+00
 0.1720703148947E+00
 0.8373643519267E-01
 0.7357241760353E+00
 0.7711334654785E+00
 0.8024345935554E+00
 0.8288219480061E+00
 0.8494865587376E+00
 0.8636152529643E+00
 0.8703898375070E+00
 0.8689899028782E+00
 0.8586023838400E+00
 0.8384412628509E+00
 0.8077815817482E+00
 0.7660131434804E+00
 0.7127206335523E+00
 0.6477976767186E+00
 0.5716008228662E+00
 0.4851416513907E+00
 0.3902921629589E+00
 0.2899336726223E+00
 0.1879275489188E+00
 0.8878237921512E-01
 0.7594556811719E+00
 0.7978181979258E+00
 0.8322978198672E+00
 0.8620591286793E+00
 0.8862584357891E+00
 0.9040410330471E+00
 0.9145338295011E+00
 0.9168390378873E+00
 0.9100329641882E+00
 0.8931736287092E+00
 0.8653218706243E+00
 0.8255826319125E+00
 0.7731762809827E+00
 0.7075540572635E+00
 0.6285762996102E+00
 0.5367739274184E+00
 0.4337023944535E+00
 0.3223375614383E+00
 0.2073324179985E+00
 0.9483037743157E-01
 0.7813279461854E+00
 0.8225038404604E+00
 0.8600540675760E+00
 0.8931238855764E+00
 0.9208519762713E+00
 0.9423651916156E+00
 0.9567639469139E+00
 0.9631059081073E+00
 0.9603924686024E+00
 0.9475613012446E+00
 0.9234889356725E+00
 0.8870097061647E+00
 0.8369618326885E+00
 0.7722786725368E+00
 0.6921546981870E+00
 0.5963327567091E+00
 0.4855793213008E+00
 0.3624123503775E+00
 0.2319568958885E+00
 0.1023550898931E+00
 0.8011119081523E+00
 0.8448962972080E+00
 0.8853287597394E+00
 0.9215416923778E+00
 0.9526712491780E+00
 0.9778491401936E+00
 0.9961803334853E+00
 0.1006716856325E+01
 0.1008432237940E+01
 0.1000198589772E+01
 0.9807682318294E+00
 0.9487637142928E+00
 0.9026843829999E+00
 0.8409457347179E+00
 0.7619829277046E+00
 0.6644788399416E+00
 0.5478324053655E+00
 0.4130912230356E+00
 0.2646860919217E+00
 0.1125409773255E+00
 0.8185813837274E+00
 0.8647020657845E+00
 0.9077412470454E+00
 0.9468192608646E+00
 0.9810809852660E+00
 0.1009683413778E+01
 0.1031765144917E+01
 0.1046411312356E+01
 0.1052618328975E+01
 0.1049258514035E+01
 0.1035043465299E+01
 0.1008485762508E+01
 0.9678611402737E+00
 0.9111788023611E+00
 0.8361794808503E+00
 0.7404074683374E+00
 0.6214676705144E+00
 0.4777393829704E+00
 0.3103572010778E+00
 0.1282432071240E+00
 0.8335189589990E+00
 0.8816374368881E+00
 0.9269176793830E+00
 0.9684619679749E+00
 0.1005429764032E+01
 0.1037017762176E+01
 0.1062419665324E+01
 0.1080783474551E+01
 0.1091170272887E+01
 0.1092512341923E+01
 0.1083566206477E+01
 0.1062855540249E+01
 0.1028598780794E+01
 0.9786167899558E+00
 0.9102181195710E+00
 0.8200675851899E+00
 0.7040699877515E+00
 0.5573960810819E+00
 0.3751115172637E+00
 0.1566536451951E+00
 0.8457232068375E+00
 0.8954399063735E+00
 0.9425073191767E+00
 0.9859969802408E+00
 0.1025083260565E+01
 0.1059008856368E+01
 0.1087031215944E+01
 0.1108372368547E+01
 0.1122175065187E+01
 0.1127460556285E+01
 0.1123080780029E+01
 0.1107656410787E+01
 0.1079490119908E+01
 0.1036440060652E+01
 0.9757301200853E+00
 0.8936569562866E+00
 0.7851204039028E+00
 0.6428293358524E+00
 0.4558141477449E+00
 0.2063198401932E+00
 0.8550175130801E+00
 0.9058824829684E+00
 0.9542029883606E+00
 0.9990029893278E+00
 0.1039469030056E+01
 0.1074888642971E+01
 0.1104576744270E+01
 0.1127816008911E+01
 0.1143810996889E+01
 0.1151647716224E+01
 0.1150248546864E+01
 0.1138311575291E+01
 0.1114220676160E+01
 0.1075905824289E+01
 0.1020618223400E+01
 0.9445532186843E+00
 0.8421822671034E+00
 0.7049686332508E+00
 0.5186191957602E+00
 0.2545992755591E+00
 0.8612609237978E+00
 0.9127904606217E+00
 0.9617646320349E+00
 0.1007144626969E+01
 0.1048129720786E+01
 0.1084049048882E+01
 0.1114258953583E+01
 0.1138070874754E+01
 0.1154702272644E+01
 0.1163236293566E+01
 0.1162576326462E+01
 0.1151382222024E+01
 0.1127972870150E+01
 0.1090172993761E+01
 0.1035067126835E+01
 0.9585932773418E+00
 0.8548464760072E+00
 0.7148260256205E+00
 0.5240298758111E+00
 0.2583679659228E+00
 0.8643620525844E+00
 0.9160625712564E+00
 0.9650476582632E+00
 0.1010211743271E+01
 0.1050780752432E+01
 0.1086129679603E+01
 0.1115642450864E+01
 0.1138627613626E+01
 0.1154268508493E+01
 0.1161585124139E+01
 0.1159389940856E+01
 0.1146223728614E+01
 0.1120257574320E+01
 0.1079143737810E+01
 0.1019789621734E+01
 0.9380158312241E+00
 0.8280416665780E+00
 0.6817542109548E+00
 0.4879080115907E+00
 0.2345158121359E+00
 0.8642971119039E+00
 0.9156969480623E+00
 0.9640339774136E+00
 0.1008156394191E+01
 0.1047355496615E+01
 0.1081071355475E+01
 0.1108711906788E+01
 0.1129564258689E+01
 0.1142753494229E+01
 0.1147215779182E+01
 0.1141665540095E+01
 0.1124545138275E+01
 0.1093949549751E+01
 0.1047520271491E+01
 0.9823047729336E+00
 0.8945856673880E+00
 0.7797165856867E+00
 0.6321068761073E+00
 0.4460306480990E+00
 0.2198185783578E+00
 0.8611414043336E+00
 0.9118261684939E+00
 0.9588575168240E+00
 0.1001111217874E+01
 0.1038018234362E+01
 0.1069117572023E+01
 0.1093844489019E+01
 0.1111455772915E+01
 0.1121012989867E+01
 0.1121378502903E+01
 0.1111204656639E+01
 0.1088910143497E+01
 0.1052645119395E+01
 0.1000252528848E+01
 0.9292432955444E+00
 0.8368252103708E+00
 0.7200748080202E+00
 0.5764758956101E+00
 0.4053447016743E+00
 0.2129771193376E+00
 0.8550755987347E+00
 0.9046780015664E+00
 0.9497091036161E+00
 0.9892597426394E+00
 0.1023018497814E+01
 0.1050662169872E+01
 0.1071651289395E+01
 0.1085205179589E+01
 0.1090329319124E+01
 0.1085844468210E+01
 0.1070403537717E+01
 0.1042500156079E+01
 0.1000479489800E+01
 0.9425683187061E+00
 0.8669530253274E+00
 0.7719590391510E+00
 0.6564294485049E+00
 0.5204850450698E+00
 0.3671338767352E+00
 0.2079916711085E+00
 0.8462591599805E+00
 0.8943182946678E+00
 0.9365092190662E+00
 0.9724867643132E+00
 0.1002342499500E+01
 0.1025901283613E+01
 0.1042623930844E+01
 0.1051680442762E+01
 0.1052040237092E+01
 0.1042533061146E+01
 0.1021889526824E+01
 0.9887775277227E+00
 0.9418510891853E+00
 0.8798309277337E+00
 0.8016453535484E+00
 0.7066753608356E+00
 0.5951913828608E+00
 0.4691335454337E+00
 0.3337573178795E+00
 0.2029789478837E+00
 0.8349290272430E+00
 0.8807125638970E+00
 0.9190057738715E+00
 0.9505707200101E+00
 0.9759790272094E+00
 0.9951282167245E+00
 0.1007402531982E+01
 0.1011910973254E+01
 0.1007621954722E+01
 0.9934354490527E+00
 0.9682332446814E+00
 0.9309318118948E+00
 0.8805541760984E+00
 0.8163360656469E+00
 0.7378847676886E+00
 0.6454236810517E+00
 0.5401646475481E+00
 0.4250266327710E+00
 0.3062279486942E+00
 0.1982964367144E+00
 0.8213892738907E+00
 0.8635805045027E+00
 0.8967280814846E+00
 0.9232700632869E+00
 0.9440982064941E+00
 0.9588889777197E+00
 0.9668635309030E+00
 0.9670930944089E+00
 0.9586060194598E+00
 0.9404390411808E+00
 0.9116820193315E+00
 0.8715364063445E+00
 0.8193963113749E+00
 0.7549589224176E+00
 0.6783738282669E+00
 0.5904410185636E+00
 0.4929138415148E+00
 0.3889457187792E+00
 0.2847358404200E+00
 0.1946662223362E+00
 0.8058553104239E+00
 0.8420017883580E+00
 0.8688415551414E+00
 0.8905844158408E+00
 0.9072650447209E+00
 0.9180617419985E+00
 0.9220873050815E+00
 0.9184806592384E+00
 0.9064216837669E+00
 0.8851462984974E+00
 0.8539841246323E+00
 0.8124188291333E+00
 0.7601702370245E+00
 0.6972982740467E+00
 0.6243293937762E+00
 0.5424168247845E+00
 0.4535379477331E+00
 0.3609539363791E+00
 0.2697472392183E+00
 0.1930429566422E+00
 0.7871903273583E+00
 0.8131775259801E+00
 0.8350692831207E+00
 0.8534436838357E+00
 0.8666838639709E+00
 0.8738523554888E+00
 0.8742414331505E+00
 0.8672320162338E+00
 0.8522437998591E+00
 0.8287488742085E+00
 0.7963157820668E+00
 0.7546733429020E+00
 0.7037898899692E+00
 0.6439661469701E+00
 0.5759426231580E+00
 0.5010279469471E+00
 0.4212951925387E+00
 0.3398795669636E+00
 0.2622855326613E+00
 0.1957063460413E+00
 0.7618677197638E+00
 0.7771186296988E+00
 0.7981791381805E+00
 0.8142006563062E+00
 0.8240674527771E+00
 0.8275161778383E+00
 0.8243270660452E+00
 0.8142140818971E+00
 0.7968572007186E+00
 0.7719557616993E+00
 0.7392867295550E+00
 0.6987679949958E+00
 0.6505289830564E+00
 0.5949905337275E+00
 0.5329576123742E+00
 0.4657411130056E+00
 0.3953493732526E+00
 0.3249315716215E+00
 0.2595817067257E+00
 0.2100112232517E+00
</DataArray>
<DataArray type="Float64" Name="S_Hyd" NumberOfComponents="1" ComponentName0="S_Hyd" format="ascii">
 0.9349941490608E+01
 0.6496090294407E+01
 0.6196280425370E+01
 0.5892628585879E+01
 0.5712669968659E+01
 0.5565645276899E+01
 0.5442456298681E+01
 0.5331500326090E+01
 0.5228284526147E+01
 0.5129903655531E+01
 0.5034904126671E+01
 0.4942637164090E+01
 0.4853131414181E+01
 0.4767119986527E+01
 0.4686611501874E+01
 0.4617522790367E+01
 0.4561059108651E+01
 0.4501379876558E+01
 0.4423746788197E+01
 0.4329023014114E+01
 0.4223748852742E+01
 0.4114191638597E+01
 0.4005087797051E+01
 0.3899925711301E+01
 0.3801383899679E+01
 0.3711464518680E+01
 0.3630699690570E+01
 0.3560208134250E+01
 0.3504688569871E+01
 0.3469915891836E+01
 0.3460737544486E+01
 0.3481970385844E+01
 0.3538338667607E+01
 0.3633678696660E+01
 0.3768109544663E+01
 0.3942521355774E+01
 0.4174494707749E+01
 0.4583794372014E+01
 0.5034373339879E+01
 0.7039585962266E+01
 0.1815151114250E+01
 0.8285148269213E+01
 0.6855642089750E+01
 0.6117114577047E+01
 0.5846292349421E+01
 0.5630876496893E+01
 0.5474885394146E+01
 0.5343562654963E+01
 0.5228314664934E+01
 0.5122542615348E+01
 0.5023002611211E+01
 0.4927798856183E+01
 0.4836038371284E+01
 0.4747556594277E+01
 0.4662898505050E+01
 0.4583997609049E+01
 0.4513893610767E+01
 0.4451004720705E+01
 0.4385481238822E+01
 0.4307791210110E+01
 0.4216682749110E+01
 0.4116358527255E+01
 0.4011759262789E+01
 0.3907000123815E+01
 0.3805246687765E+01
 0.3708934613312E+01
 0.3619752415419E+01
 0.3538677634892E+01
 0.3467227773024E+01
 0.3408685880753E+01
 0.3367218993544E+01
 0.3346573797226E+01
 0.3349911067040E+01
 0.3379670781212E+01
 0.3436482391927E+01
 0.3518518861824E+01
 0.3622377204247E+01
 0.3765845829561E+01
 0.3931460818946E+01
 0.4243991024208E+01
 0.4077320447712E+01
-0.7494107195300E+00
 0.7676024301674E+01
 0.6781352729272E+01
 0.6106047293990E+01
 0.5766636136312E+01
 0.5548169641033E+01
 0.5379644459315E+01
 0.5242954944303E+01
 0.5123832927364E+01
 0.5016010326687E+01
 0.4915531505954E+01
 0.4820243858758E+01
 0.4729012568563E+01
 0.4641478323837E+01
 0.4558026578741E+01
 0.4479990334112E+01
 0.4408574323462E+01
 0.4341547894874E+01
 0.4272257827820E+01
 0.4194270691147E+01
 0.4105929407233E+01
 0.4009737553300E+01
 0.3909468890262E+01
 0.3808592038027E+01
 0.3709910322612E+01
 0.3615583505902E+01
 0.3527143532492E+01
 0.3445720006789E+01
 0.3372780763611E+01
 0.3310703302511E+01
 0.3262368966794E+01
 0.3230307974558E+01
 0.3216210945289E+01
 0.3220468463971E+01
 0.3241384644419E+01
 0.3274112158545E+01
 0.3313930408381E+01
 0.3350884763615E+01
 0.3367787427706E+01
 0.3270169198982E+01
 0.2266394017089E+01
-0.1731998061832E+01
 0.7232077538048E+01
 0.6603877618622E+01
 0.6039863469655E+01
 0.5685512605704E+01
 0.5455432806471E+01
 0.5281482459297E+01
 0.5139829978101E+01
 0.5017953975017E+01
 0.4908502535150E+01
 0.4807382149006E+01
 0.4712153440557E+01
 0.4621497222612E+01
 0.4534873929940E+01
 0.4452436544858E+01
 0.4374880733234E+01
 0.4302350452503E+01
 0.4232588228397E+01
 0.4160884120826E+01
 0.4082749931957E+01
 0.3996606353205E+01
 0.3903894463966E+01
 0.3807407650750E+01
 0.3709995507817E+01
 0.3614077704811E+01
 0.3521546972878E+01
 0.3433791680250E+01
 0.3351920155978E+01
 0.3277192503792E+01
 0.3211279398035E+01
 0.3156016908361E+01
 0.3112794371514E+01
 0.3081956480697E+01
 0.3062210029805E+01
 0.3049734103538E+01
 0.3037617011686E+01
 0.3015110522919E+01
 0.2961503220731E+01
 0.2828218863916E+01
 0.2428676118772E+01
 0.1137153866198E+01
-0.2038458893780E+01
 0.6869464383636E+01
 0.6397964801922E+01
 0.5930834639195E+01
 0.5591552880596E+01
 0.5356315600305E+01
 0.5178839268893E+01
 0.5034287653519E+01
 0.4910413742098E+01
 0.4799910436146E+01
 0.4698451032117E+01
 0.4603456531177E+01
 0.4513445428905E+01
 0.4427714316294E+01
 0.4346154197420E+01
 0.4268937548409E+01
 0.4195607004509E+01
 0.4124068506787E+01
 0.4050882091343E+01
 0.3972836362327E+01
 0.3888549883625E+01
 0.3798810314703E+01
 0.3705640448739E+01
 0.3611323382812E+01
 0.3517899563425E+01
 0.3427000606778E+01
 0.3339851785878E+01
 0.3257442421435E+01
 0.3180761854967E+01
 0.3110882452703E+01
 0.3048770021744E+01
 0.2994797566070E+01
 0.2948131761714E+01
 0.2906041811086E+01
 0.2863040899915E+01
 0.2809899478154E+01
 0.2731392969998E+01
 0.2597919628044E+01
 0.2338320055304E+01
 0.1757441011640E+01
 0.4256084563614E+00
-0.2122501174313E+01
 0.6555164066171E+01
 0.6185470895607E+01
 0.5795567814779E+01
 0.5482713376353E+01
 0.5250431260689E+01
 0.5071865634047E+01
 0.4926035704069E+01
 0.4801126020719E+01
 0.4690117156164E+01
 0.4588661635187E+01
 0.4494093552945E+01
 0.4404820096690E+01
 0.4319986967300E+01
 0.4239240233018E+01
 0.4162360710145E+01
 0.4088555676650E+01
 0.4015941113551E+01
 0.3941945280376E+01
 0.3864223494604E+01
 0.3781598917093E+01
 0.3694450821933E+01
 0.3604213256311E+01
 0.3512672707253E+01
 0.3421509455919E+01
 0.3332098404919E+01
 0.3245481145443E+01
 0.3162474084353E+01
 0.3083773649410E+01
 0.3009930435990E+01
 0.2941175279036E+01
 0.2877004212958E+01
 0.2815573201676E+01
 0.2752978122304E+01
 0.2682348027550E+01
 0.2592520006434E+01
 0.2465007990403E+01
 0.2263970391816E+01
 0.1910658708962E+01
 0.1236665044064E+01
-0.3861477714842E-01
-0.2123303630706E+01
 0.6272992673512E+01
 0.5973916119770E+01
 0.5644872589116E+01
 0.5361122074347E+01
 0.5137487251613E+01
 0.4960644876455E+01
 0.4814999039830E+01
 0.4689997822421E+01
 0.4579051258861E+01
 0.4477950763413E+01
 0.4384019578617E+01
 0.4295594329154E+01
 0.4211694707696E+01
 0.4131760320836E+01
 0.4055292986061E+01
 0.3981319845430E+01
 0.3908163000253E+01
 0.3833862842337E+01
 0.3756677937296E+01
 0.3675609186158E+01
 0.3590773465636E+01
 0.3503157915625E+01
 0.3414125825877E+01
 0.3325024972719E+01
 0.3236979984459E+01
 0.3150835308039E+01
 0.3067207047745E+01
 0.2986497751094E+01
 0.2908799219986E+01
 0.2833720258203E+01
 0.2760014987946E+01
 0.2685000045028E+01
 0.2603832624562E+01
 0.2508559446988E+01
 0.2386613962685E+01
 0.2217402500970E+01
 0.1962360619547E+01
 0.1545863061550E+01
 0.8342353484021E+00
-0.3513809642206E+00
-0.2093492350677E+01
 0.6013780437072E+01
 0.5766040344412E+01
 0.5485279049439E+01
 0.5229684150046E+01
 0.5017913943353E+01
 0.4845264347627E+01
 0.4701198431599E+01
 0.4576985681955E+01
 0.4466665344384E+01
 0.4366275344278E+01
 0.4273202010632E+01
 0.4185752108734E+01
 0.4102849818459E+01
 0.4023774128758E+01
 0.3947835669856E+01
 0.3873973489454E+01
 0.3800695126833E+01
 0.3726482374285E+01
 0.3650021567532E+01
 0.3570457848224E+01
 0.3487733836953E+01
 0.3402495895811E+01
 0.3315752214041E+01
 0.3228549859868E+01
 0.3141773276605E+01
 0.3056064507315E+01
 0.2971828924092E+01
 0.2889186400712E+01
 0.2807826480779E+01
 0.2726834160068E+01
 0.2644349038246E+01
 0.2557012330173E+01
 0.2459261519016E+01
 0.2342374301964E+01
 0.2192921415238E+01
 0.1989375827223E+01
 0.1693545676682E+01
 0.1238277940001E+01
 0.5218711631571E+00
-0.5678825187426E+00
-0.2052725317288E+01
 0.5771804763602E+01
 0.5562753349903E+01
 0.5320740512269E+01
 0.5090993688994E+01
 0.4892558427189E+01
 0.4725942466296E+01
 0.4584708080476E+01
 0.4462094260609E+01
 0.4352937792301E+01
 0.4253610106667E+01
 0.4161620873796E+01
 0.4075286898958E+01
 0.3993469699975E+01
 0.3915332461776E+01
 0.3840060923856E+01
 0.3766561408051E+01
 0.3693502483392E+01
 0.3619689777330E+01
 0.3544117192405E+01
 0.3466042955456E+01
 0.3385289735435E+01
 0.3302241485011E+01
 0.3217610503809E+01
 0.3132175878816E+01
 0.3046595554040E+01
 0.2961311117142E+01
 0.2876518027122E+01
 0.2792072111790E+01
 0.2707313360153E+01
 0.2620890657620E+01
 0.2530446809087E+01
 0.2432100392230E+01
 0.2319774669371E+01
 0.2184279358888E+01
 0.2011834532670E+01
 0.1781033373414E+01
 0.1456145398702E+01
 0.9802283758090E+00
 0.2776982079652E+00
-0.7207141262466E+00
-0.2008303474105E+01
 0.5543247139838E+01
 0.5364208132556E+01
 0.5153686187900E+01
 0.4947111533271E+01
 0.4762389839776E+01
 0.4603023688232E+01
 0.4465655272339E+01
 0.4345365918324E+01
 0.4237872440205E+01
 0.4139946332050E+01
 0.4049267982428E+01
 0.3964200202262E+01
 0.3883574232412E+01
 0.3806477596519E+01
 0.3732020621294E+01
 0.3659110627759E+01
 0.3586554054828E+01
 0.3513397429811E+01
 0.3438858055661E+01
 0.3362280995816E+01
 0.3283403254728E+01
 0.3202404303717E+01
 0.3119750387418E+01
 0.3035984281729E+01
 0.2951553872942E+01
 0.2866707930684E+01
 0.2781440406484E+01
 0.2695366246271E+01
 0.2607525685860E+01
 0.2516210712440E+01
 0.2418674690468E+01
 0.2310653600558E+01
 0.2185744895274E+01
 0.2034564061157E+01
 0.1843430525221E+01
 0.1591867170192E+01
 0.1247726555035E+01
 0.7640715430396E+00
 0.8551254475836E-01
-0.8297580727100E+00
-0.1962729330382E+01
 0.5325432001233E+01
 0.5170238612630E+01
 0.4985628290115E+01
 0.4799604025857E+01
 0.4628337709133E+01
 0.4476925405078E+01
 0.4344215569447E+01
 0.4226874084468E+01
 0.4121495548172E+01
 0.4025290647973E+01
 0.3936145791384E+01
 0.3852500192440E+01
 0.3773184430725E+01
 0.3697244650740E+01
 0.3623752560134E+01
 0.3551637204826E+01
 0.3479822670092E+01
 0.3407536780728E+01
 0.3334160290399E+01
 0.3259103998147E+01
 0.3182041534558E+01
 0.3102991101728E+01
 0.3022214237259E+01
 0.2940046978437E+01
 0.2856745334029E+01
 0.2772377062330E+01
 0.2686748089204E+01
 0.2599258261032E+01
 0.2508695160909E+01
 0.2413065604663E+01
 0.2309330347386E+01
 0.2192968770600E+01
 0.2057420036751E+01
 0.1893342064817E+01
 0.1687515280378E+01
 0.1420926401375E+01
 0.1065422756470E+01
 0.5829991455892E+00
-0.6655356769237E-01
-0.9075503632159E+00
-0.1916679128148E+01
 0.5116412817228E+01
 0.4980551686442E+01
 0.4817514483559E+01
 0.4649639752143E+01
 0.4491223743103E+01
 0.4348086929444E+01
 0.4220599255171E+01
 0.4106717641054E+01
 0.4003852251067E+01
 0.3909663307023E+01
 0.3822266160271E+01
 0.3740200546645E+01
 0.3662321848797E+01
 0.3587663135898E+01
 0.3515284818067E+01
 0.3444150441343E+01
 0.3373284769419E+01
 0.3302053463392E+01
 0.3229957460016E+01
 0.3156456795520E+01
 0.3081176742538E+01
 0.3004006933872E+01
 0.2925038392200E+01
 0.2844427471248E+01
 0.2762257316052E+01
 0.2678429313903E+01
 0.2592578116264E+01
 0.2503915509530E+01
 0.2411020725517E+01
 0.2311680168423E+01
 0.2202648308880E+01
 0.2079258938517E+01
 0.1934936963100E+01
 0.1760576213810E+01
 0.1543681238469E+01
 0.1266994019160E+01
 0.9063215254235E+00
 0.4312432105089E+00
-0.1872114141904E+00
-0.9622603685540E+00
-0.1870168437002E+01
 0.4914729944538E+01
 0.4794814793707E+01
 0.4649937327100E+01
 0.4498083352541E+01
 0.4351743474890E+01
 0.4216934369206E+01
 0.4095035131952E+01
 0.3985014576799E+01
 0.3885003005089E+01
 0.3793096155333E+01
 0.3707649045108E+01
 0.3627319483800E+01
 0.3551008365463E+01
 0.3477758365379E+01
 0.3406638811011E+01
 0.3336655565401E+01
 0.3266920126010E+01
 0.3196903929650E+01
 0.3126196556687E+01
 0.3054294640373E+01
 0.2980785656361E+01
 0.2905455859767E+01
 0.2828254128685E+01
 0.2749181611733E+01
 0.2668167734795E+01
 0.2584963889986E+01
 0.2499052135361E+01
 0.2409483490245E+01
 0.2314670144862E+01
 0.2212236180983E+01
 0.2098805714025E+01
 0.1969662518242E+01
 0.1818336566159E+01
 0.1636105958862E+01
 0.1411369052096E+01
 0.1128729348541E+01
 0.7676720689595E+00
 0.3040318174294E+00
-0.2829114773764E+00
-0.9993837121794E+00
-0.1823007364570E+01
 0.4719260862058E+01
 0.4612695997690E+01
 0.4483261937018E+01
 0.4345571816597E+01
 0.4210471019719E+01
 0.4083860620788E+01
 0.3967756205093E+01
 0.3861895198705E+01
 0.3765020005682E+01
 0.3675630499603E+01
 0.3592321160367E+01
 0.3513878952716E+01
 0.3439266138470E+01
 0.3367552614221E+01
 0.3297831443619E+01
 0.3229155459325E+01
 0.3160711547554E+01
 0.3092053045619E+01
 0.3022835022031E+01
 0.2952581199847E+01
 0.2880849067811E+01
 0.2807341307387E+01
 0.2731888367277E+01
 0.2654358218939E+01
 0.2574545340755E+01
 0.2492068376963E+01
 0.2406276396774E+01
 0.2316086447760E+01
 0.2219781805212E+01
 0.2114875860619E+01
 0.1997928139638E+01
 0.1864252612536E+01
 0.1707579075311E+01
 0.1519675166746E+01
 0.1289923593184E+01
 0.1004768459566E+01
 0.6469789320390E+00
 0.1974576850259E+00
-0.3584872271226E+00
-0.1022729547327E+01
-0.1774971520617E+01
 0.4529123422257E+01
 0.4433881550661E+01
 0.4317705634029E+01
 0.4192572796241E+01
 0.4067872922070E+01
 0.3949216180814E+01
 0.3838988975025E+01
 0.3737495726289E+01
 0.3643983645539E+01
 0.3557314981966E+01
 0.3476314661486E+01
 0.3399903916951E+01
 0.3327117607762E+01
 0.3257066020360E+01
 0.3188876617805E+01
 0.3121651777890E+01
 0.3054644573465E+01
 0.2987472319920E+01
 0.2919838493453E+01
 0.2851286898344E+01
 0.2781351133682E+01
 0.2709666213772E+01
 0.2635964173657E+01
 0.2559999590526E+01
 0.2481450053759E+01
 0.2399818921038E+01
 0.2314342046177E+01
 0.2223828244831E+01
 0.2126466675554E+01
 0.2019705424971E+01
 0.1900095410218E+01
 0.1763046222045E+01
 0.1602559044031E+01
 0.1410958132101E+01
 0.1178639601414E+01
 0.8937880518734E+00
 0.5420301130445E+00
 0.1083306414213E+00
-0.4176091300033E+00
-0.1035011971246E+01
-0.1725859823744E+01
 0.4343611120754E+01
 0.4258082558009E+01
 0.4153388646281E+01
 0.4039428082322E+01
 0.3924324333131E+01
 0.3813306739298E+01
 0.3708946373007E+01
 0.3611952868690E+01
 0.3521979186109E+01
 0.3438203534721E+01
 0.3359665883590E+01
 0.3285421703515E+01
 0.3214585488056E+01
 0.3146317253516E+01
 0.3079786282957E+01
 0.3014145665211E+01
 0.2948707177279E+01
 0.2883138562405E+01
 0.2817179073435E+01
 0.2750387556822E+01
 0.2682278740824E+01
 0.2612433027109E+01
 0.2540501108896E+01
 0.2466141933031E+01
 0.2388933328247E+01
 0.2308280555295E+01
 0.2223325636144E+01
 0.2132793435330E+01
 0.2034810384473E+01
 0.1926798653767E+01
 0.1805347282797E+01
 0.1666013107339E+01
 0.1503119389703E+01
 0.1309582289076E+01
 0.1076796035520E+01
 0.7945421729195E+00
 0.4508907660816E+00
 0.3404176432807E-01
-0.4631040817559E+00
-0.1038214144520E+01
-0.1675507107588E+01
 0.4162148510352E+01
 0.4085036371712E+01
 0.3990366942953E+01
 0.3886385718860E+01
 0.3780124518260E+01
 0.3676394630695E+01
 0.3577823689720E+01
 0.3485399626218E+01
 0.3399093812326E+01
 0.3318353479795E+01
 0.3242414160759E+01
 0.3170461398816E+01
 0.3101692725872E+01
 0.3035323988985E+01
 0.2970571156402E+01
 0.2906638202312E+01
 0.2842889479710E+01
 0.2779032844750E+01
 0.2714833981645E+01
 0.2649863278225E+01
 0.2583620918994E+01
 0.2515643629588E+01
 0.2445515474688E+01
 0.2372815732992E+01
 0.2297038542395E+01
 0.2217507636765E+01
 0.2133289796055E+01
 0.2043048478472E+01
 0.1944875361116E+01
 0.1836200397857E+01
 0.1713688901007E+01
 0.1573084095321E+01
 0.1409063994735E+01
 0.1215146988348E+01
 0.9836802315537E+00
 0.7058802651511E+00
 0.3718810583543E+00
-0.2755199068991E-01
-0.4971825411521E+00
-0.1033818484941E+01
-0.1623778512279E+01
 0.3984259722127E+01
 0.3914505516797E+01
 0.3828653801673E+01
 0.3733623676088E+01
 0.3635510543649E+01
 0.3538702247359E+01
 0.3445796706771E+01
 0.3357962295660E+01
 0.3275414175484E+01
 0.3197823828427E+01
 0.3124600744679E+01
 0.3055053285995E+01
 0.2988462416051E+01
 0.2924103224351E+01
 0.2861241205423E+01
 0.2799130671520E+01
 0.2737183475511E+01
 0.2675139678545E+01
 0.2612784491745E+01
 0.2549697534497E+01
 0.2485368316199E+01
 0.2419299221321E+01
 0.2351020489146E+01
 0.2280046086378E+01
 0.2205801404959E+01
 0.2127544362651E+01
 0.2044284012876E+01
 0.1954643043670E+01
 0.1856702992747E+01
 0.1747929976720E+01
 0.1625095933712E+01
 0.1484158643550E+01
 0.1320168657935E+01
 0.1127238141927E+01
 0.8986042373179E+00
 0.6267522699913E+00
 0.3035492280138E+00
-0.7822139744954E-01
-0.5216033723679E+00
-0.1022960692207E+01
-0.1570544656061E+01
 0.3809545758847E+01
 0.3746275564150E+01
 0.3668234142213E+01
 0.3581267328323E+01
 0.3490668859653E+01
 0.3400416266582E+01
 0.3313021330952E+01
 0.3229758520620E+01
 0.3151024456210E+01
 0.3076673818742E+01
 0.3006267837786E+01
 0.2939228324202E+01
 0.2874917683052E+01
 0.2812671473848E+01
 0.2751805956698E+01
 0.2691624695446E+01
 0.2631582775894E+01
 0.2571446353984E+01
 0.2511015083287E+01
 0.2449876417997E+01
 0.2387512740723E+01
 0.2323400191738E+01
 0.2257026419629E+01
 0.2187852999775E+01
 0.2115250374571E+01
 0.2038425341172E+01
 0.1956345484665E+01
 0.1867611363711E+01
 0.1770315755294E+01
 0.1661984417582E+01
 0.1539519317030E+01
 0.1399111592552E+01
 0.1236190185591E+01
 0.1045439559594E+01
 0.8209138114776E+00
 0.5562099287035E+00
 0.2446338174288E+00
-0.1194175333392E+00
-0.5378227488454E+00
-0.1006515165922E+01
-0.1515681515665E+01
 0.3637667803484E+01
 0.3580152659889E+01
 0.3509074141592E+01
 0.3429402401487E+01
 0.3345744878751E+01
 0.3261692033287E+01
 0.3179634186434E+01
 0.3100896179925E+01
 0.3026004923893E+01
 0.2954961707426E+01
 0.2887457751383E+01
 0.2823017673617E+01
 0.2761081536869E+01
 0.2701044870397E+01
 0.2642274681347E+01
 0.2584122290223E+01
 0.2526082367519E+01
 0.2467942399980E+01
 0.2409512758560E+01
 0.2350388027104E+01
 0.2290046768457E+01
 0.2227945995119E+01
 0.2163540691512E+01
 0.2096251673283E+01
 0.2025407086947E+01
 0.1950176197308E+01
 0.1869500016165E+01
 0.1781973600678E+01
 0.1685719281426E+01
 0.1578341492119E+01
 0.1456889566414E+01
 0.1317799003354E+01
 0.1156873909241E+01
 0.9693406912462E+00
 0.7499948682294E+00
 0.4933965840039E+00
 0.1940538436243E+00
-0.1523952376746E+00
-0.5468673164331E+00
-0.9856788227994E+00
-0.1458154396027E+01
 0.3468334740426E+01
 0.3415961059335E+01
 0.3351127728845E+01
 0.3278084605389E+01
 0.3200850790459E+01
 0.3122657746174E+01
 0.3045753771084E+01
 0.2971472910334E+01
 0.2900430935954E+01
 0.2832743812668E+01
 0.2768212193719E+01
 0.2706452271057E+01
 0.2646976714886E+01
 0.2589239200678E+01
 0.2532656491479E+01
 0.2476625861035E+01
 0.2420678388777E+01
 0.2364619138359E+01
 0.2308266488126E+01
 0.2251221961980E+01
 0.2192963411555E+01
 0.2132935040427E+01
 0.2070567986151E+01
 0.2005252772308E+01
 0.1936286786195E+01
 0.1862814197923E+01
 0.1783762932005E+01
 0.1697737196417E+01
 0.1602904335577E+01
 0.1496962526840E+01
 0.1377120613617E+01
 0.1240063169614E+01
 0.1081959468193E+01
 0.8985426126536E+00
 0.6852738311486E+00
 0.4375465593978E+00
 0.1508557693998E+00
-0.1781462895679E+00
-0.5498490507417E+00
-0.9602688643164E+00
-0.1401825985387E+01
 0.3301293682813E+01
 0.3253540825467E+01
 0.3194340991548E+01
 0.3127346832423E+01
 0.3056071889046E+01
 0.2983418277767E+01
 0.2911481905658E+01
 0.2841576085733E+01
 0.2774372305395E+01
 0.2710073790457E+01
 0.2648571686405E+01
 0.2589562459348E+01
 0.2532625519512E+01
 0.2477269893035E+01
 0.2422960374135E+01
 0.2369138158965E+01
 0.2315367922746E+01
 0.2261469311464E+01
 0.2207266757085E+01
 0.2152368910080E+01
 0.2096255841994E+01
 0.2038364599802E+01
 0.1978110335505E+01
 0.1914862691740E+01
 0.1847898755483E+01
 0.1776348882335E+01
 0.1699139986737E+01
 0.1614898183149E+01
 0.1521848673834E+01
 0.1417794961438E+01
 0.1300113188504E+01
 0.1165736750437E+01
 0.1011185461481E+01
 0.8326611576511E+00
 0.6262195867512E+00
 0.3879683554139E+00
 0.1142273262763E+00
-0.1975883101459E+00
-0.5473555965272E+00
-0.9316349707401E+00
-0.1342649472890E+01
 0.3136322681430E+01
 0.3092745754807E+01
 0.3038655170862E+01
 0.2977204562884E+01
 0.2911471676453E+01
 0.2844058565578E+01
 0.2776905297940E+01
 0.2711283110116E+01
 0.2647892964645E+01
 0.2587002119033E+01
 0.2528575103922E+01
 0.2472377673514E+01
 0.2418049661561E+01
 0.2365151975669E+01
 0.2313195183679E+01
 0.2261662214527E+01
 0.2210148807985E+01
 0.2158486769896E+01
 0.2106505193063E+01
 0.2053820307032E+01
 0.1999917165416E+01
 0.1944230739340E+01
 0.1886167219969E+01
 0.1825083816509E+01
 0.1760246745051E+01
 0.1690782689531E+01
 0.1615628257512E+01
 0.1533442438474E+01
 0.1442518772743E+01
 0.1340774655485E+01
 0.1225757732882E+01
 0.1094646212154E+01
 0.9442927180417E+00
 0.7713295773989E+00
 0.5723399073359E+00
 0.3440452505451E+00
 0.8344060574401E-01
-0.2114306408548E+00
-0.5401982363814E+00
-0.8995178182134E+00
-0.1283181912986E+01
 0.2973225040814E+01
 0.2933441544104E+01
 0.2884008694077E+01
 0.2827659942165E+01
 0.2767095969927E+01
 0.2704646569787E+01
 0.2642097109182E+01
 0.2580661913951E+01
 0.2521050858738E+01
 0.2463575761607E+01
 0.2408259326496E+01
 0.2354926183972E+01
 0.2303270116522E+01
 0.2252900018093E+01
 0.2203369607766E+01
 0.2154201258389E+01
 0.2105019467107E+01
 0.2055666209729E+01
 0.2005974260599E+01
 0.1955568060363E+01
 0.1903940239582E+01
 0.1850528272587E+01
 0.1794735672323E+01
 0.1735914779859E+01
 0.1673329394537E+01
 0.1606111573845E+01
 0.1533217007591E+01
 0.1453346871580E+01
 0.1364871419309E+01
 0.1265827937234E+01
 0.1153936901819E+01
 0.1026614546409E+01
 0.8810268739312E+00
 0.7141991098900E+00
 0.5231811866654E+00
 0.3052190360875E+00
 0.5787037941980E-01
-0.2203413186211E+00
-0.5288376667511E+00
-0.8645801073079E+00
-0.1222316837767E+01
 0.2811824835902E+01
 0.2775504187208E+01
 0.2730338545886E+01
 0.2678704869168E+01
 0.2622976207011E+01
 0.2565235822742E+01
 0.2507118454991E+01
 0.2449771571459E+01
 0.2393898009256E+01
 0.2339837976299E+01
 0.2287658993462E+01
 0.2237234894242E+01
 0.2188306997973E+01
 0.2140528064823E+01
 0.2093492117226E+01
 0.2046758635861E+01
 0.1999978751817E+01
 0.1953002949963E+01
 0.1905667008982E+01
 0.1857604324678E+01
 0.1808317530722E+01
 0.1757250734600E+01
 0.1703810387720E+01
 0.1647350718318E+01
 0.1587140645496E+01
 0.1522325601353E+01
 0.1451888510297E+01
 0.1374580530931E+01
 0.1288855154953E+01
 0.1192873407794E+01
 0.1084527658492E+01
 0.9614634640061E+00
 0.8211399833215E+00
 0.6609396295680E+00
 0.4783241831131E+00
 0.2709888330636E+00
 0.3695567682007E-01
-0.2248680453458E+00
-0.5137813488590E+00
-0.8270336500607E+00
-0.1160081489573E+01
 0.2651963336772E+01
 0.2618818581319E+01
 0.2577581183041E+01
 0.2530323345288E+01
 0.2479132106781E+01
 0.2425867610415E+01
 0.2372019804178E+01
 0.2318662980443E+01
 0.2266480701784E+01
 0.2215828245395E+01
 0.2166806344659E+01
 0.2119329190654E+01
 0.2073179452145E+01
 0.2028049569464E+01
 0.1983570909085E+01
 0.1939337721531E+01
 0.1895025805001E+01
 0.1850492744919E+01
 0.1805576865284E+01
 0.1759921320985E+01
 0.1713041003854E+01
 0.1664390376061E+01
 0.1613383840954E+01
 0.1559383524144E+01
 0.1501670142861E+01
 0.1439409523258E+01
 0.1371618828418E+01
 0.1297105629192E+01
 0.1214411576502E+01
 0.1121823509426E+01
 0.1017403026752E+01
 0.8990150582523E+00
 0.7643917022461E+00
 0.6112390901627E+00
 0.4373821468586E+00
 0.2409005453639E+00
 0.2020223939973E-01
-0.2255020168933E+00
-0.4954408097587E+00
-0.7871186876221E+00
-0.1096551386640E+01
 0.2493496128158E+01
 0.2463277318224E+01
 0.2425673132209E+01
 0.2382493267458E+01
 0.2335573815729E+01
 0.2286572829954E+01
 0.2236842258340E+01
 0.2187379563601E+01
 0.2138839758540E+01
 0.2091582298311E+01
 0.2045731136558E+01
 0.2001232839662E+01
 0.1957905575204E+01
 0.1915477334319E+01
 0.1873613848727E+01
 0.1831941837851E+01
 0.1790159939208E+01
 0.1748131626455E+01
 0.1705697465135E+01
 0.1662511193113E+01
 0.1618102042309E+01
 0.1571938175224E+01
 0.1523446410212E+01
 0.1472002094331E+01
 0.1416903623067E+01
 0.1357343322494E+01
 0.1292378544711E+01
 0.1220878483316E+01
 0.1141476496753E+01
 0.1052585879151E+01
 0.9524335241928E+00
 0.8390930880053E+00
 0.7105499039978E+00
 0.5648030019081E+00
 0.3999974101710E+00
 0.2145424923584E+00
 0.7167653266105E-02
-0.2226755752357E+00
-0.4741782114077E+00
-0.7450697815557E+00
-0.1031829893872E+01
 0.2336290766095E+01
 0.2308779636224E+01
 0.2274551367508E+01
 0.2235187801298E+01
 0.2192303641523E+01
 0.2147373567087E+01
 0.2101618707641E+01
 0.2055957963842E+01
 0.2011010866587E+01
 0.1967132206414E+01
 0.1924460620632E+01
 0.1882967927876E+01
 0.1842502353695E+01
 0.1802823459120E+01
 0.1763628415573E+01
 0.1724574180420E+01
 0.1685380530991E+01
 0.1645915772096E+01
 0.1606022515389E+01
 0.1565365895566E+01
 0.1523491392436E+01
 0.1479883865568E+01
 0.1433986506363E+01
 0.1385192575290E+01
 0.1332823287264E+01
 0.1276102731158E+01
 0.1214133441414E+01
 0.1145850369913E+01
 0.1069980972111E+01
 0.9850645035858E+00
 0.8894883278598E+00
 0.7815239075132E+00
 0.6593910020181E+00
 0.5213534658992E+00
 0.3658387344884E+00
 0.1915395844469E+00
-0.2545756991248E-02
-0.2167734664571E+00
-0.4503186217405E+00
-0.7011111648425E+00
-0.9660264829069E+00
 0.2180224853782E+01
 0.2155230510225E+01
 0.2124153534675E+01
 0.2088376435659E+01
 0.2049317457234E+01
 0.2008284434020E+01
 0.1966374865857E+01
 0.1924428716006E+01
 0.1883024939204E+01
 0.1842506531448E+01
 0.1803019572594E+01
 0.1764554839696E+01
 0.1726985627635E+01
 0.1690099301135E+01
 0.1653621655326E+01
 0.1617237751815E+01
 0.1580686930451E+01
 0.1543841395811E+01
 0.1506545683956E+01
 0.1468477108083E+01
 0.1429199129900E+01
 0.1388215976997E+01
 0.1344990706637E+01
 0.1298938602323E+01
 0.1249408158420E+01
 0.1195659717400E+01
 0.1136845128121E+01
 0.1071968298306E+01
 0.9998522053283E+00
 0.9191606968183E+00
 0.8284362040250E+00
 0.7261371293428E+00
 0.6106999866070E+00
 0.4806281360791E+00
 0.3345986045414E+00
 0.1715486125037E+00
-0.9297631475561E-02
-0.2081415912705E+00
-0.4241571760830E+00
-0.6554544793733E+00
-0.8992523680216E+00
 0.2025184447399E+01
 0.2002539859792E+01
 0.1974418068627E+01
 0.1942025794443E+01
 0.1906605841957E+01
 0.1869313704270E+01
 0.1831130192204E+01
 0.1792816884555E+01
 0.1754908493932E+01
 0.1717730512748E+01
 0.1681430362446E+01
 0.1646012267444E+01
 0.1611370075047E+01
 0.1577315447847E+01
 0.1543600140707E+01
 0.1509935305080E+01
 0.1476078385238E+01
 0.1441904658760E+01
 0.1407260512876E+01
 0.1371836172911E+01
 0.1335214644388E+01
 0.1296921888532E+01
 0.1256443891459E+01
 0.1213221533026E+01
 0.1166634421521E+01
 0.1115982941205E+01
 0.1060471618688E+01
 0.9991757048929E+00
 0.9310143333535E+00
 0.8547739203329E+00
 0.7691462399877E+00
 0.6727660643252E+00
 0.5642702748498E+00
 0.4423790942580E+00
 0.3059907225294E+00
 0.1542541180232E+00
-0.1341534863074E-01
-0.1970937351614E+00
-0.3959639657705E+00
-0.6082990653461E+00
-0.8316190261882E+00
 0.1871062723579E+01
 0.1850621857516E+01
 0.1825284237166E+01
 0.1796100262789E+01
 0.1764155010402E+01
 0.1730464276420E+01
 0.1695898709711E+01
 0.1661142661827E+01
 0.1626684035474E+01
 0.1592826281442E+01
 0.1559713056682E+01
 0.1527357249149E+01
 0.1495669216295E+01
 0.1464481702612E+01
 0.1433569941778E+01
 0.1402669297399E+01
 0.1371553978146E+01
 0.1340101597622E+01
 0.1308160351341E+01
 0.1275434051387E+01
 0.1241526639898E+01
 0.1205987890510E+01
 0.1168329383251E+01
 0.1128020673896E+01
 0.1084475746444E+01
 0.1037038179235E+01
 0.9849678587613E+00
 0.9274130735850E+00
 0.8633891105455E+00
 0.7918024645762E+00
 0.7114884083604E+00
 0.6212479863041E+00
 0.5199034219520E+00
 0.4063717000579E+00
 0.2797477030423E+00
 0.1393647618668E+00
-0.1519888069370E-01
-0.1839168318678E+00
-0.3659879423162E+00
-0.5598331167119E+00
-0.7632380322775E+00
 0.1717758855710E+01
 0.1699394322382E+01
 0.1676692133865E+01
 0.1650562470843E+01
 0.1621947573462E+01
 0.1591734494453E+01
 0.1560689730895E+01
 0.1529421924959E+01
 0.1498370435340E+01
 0.1467813092481E+01
 0.1437885545354E+01
 0.1408605229501E+01
 0.1379895436309E+01
 0.1351607083095E+01
 0.1323536606336E+01
 0.1295441854070E+01
 0.1267112577393E+01
 0.1238428068473E+01
 0.1209238305843E+01
 0.1179261296906E+01
 0.1148123148150E+01
 0.1115399254548E+01
 0.1080629086094E+01
 0.1043313499560E+01
 0.1002903593432E+01
 0.9587887194409E+00
 0.9102862063066E+00
 0.8566184877334E+00
 0.7968964978346E+00
 0.7301440102073E+00
 0.6553339918160E+00
 0.5714242588808E+00
 0.4774087362954E+00
 0.3723834512147E+00
 0.2556189630892E+00
 0.1266101456695E+00
-0.1492485949241E-01
-0.1688752135007E+00
-0.3344601815695E+00
-0.5102351347786E+00
-0.6942212187150E+00
 0.1565177057751E+01
 0.1548778184966E+01
 0.1528582636352E+01
 0.1505373667994E+01
 0.1479963163360E+01
 0.1453118848391E+01
 0.1425508501560E+01
 0.1397666751964E+01
 0.1369983302901E+01
 0.1342707567551E+01
 0.1315963687995E+01
 0.1289770139974E+01
 0.1264060022674E+01
 0.1238699831891E+01
 0.1213505150322E+01
 0.1188254742517E+01
 0.1162752798574E+01
 0.1136879704329E+01
 0.1110487205028E+01
 0.1083308041754E+01
 0.1054991552902E+01
 0.1025140309626E+01
 0.9933236252523E+00
 0.9590758642154E+00
 0.9218875013920E+00
 0.8811957266669E+00
 0.8363768680384E+00
 0.7867281194067E+00
 0.7314551682489E+00
 0.6696960857907E+00
 0.6005558925427E+00
 0.5231403548672E+00
 0.4366028307482E+00
 0.3402028757960E+00
 0.2333688000066E+00
 0.1157380359336E+00
-0.1285000232807E-01
-0.1522141208736E+00
-0.3015966631958E+00
-0.4596753849386E+00
-0.6246808874867E+00
 0.1413225762926E+01
 0.1398697013170E+01
 0.1380897341398E+01
 0.1360494012711E+01
 0.1338178950327E+01
 0.1314608575493E+01
 0.1290356773262E+01
 0.1265885898985E+01
 0.1241535344696E+01
 0.1217523943702E+01
 0.1193961473514E+01
 0.1170864494569E+01
 0.1148173217554E+01
 0.1125767438415E+01
 0.1103480057878E+01
 0.1081109355839E+01
 0.1058472977245E+01
 0.1035451884679E+01
 0.1011899577107E+01
 0.9875639955677E+00
 0.9621186232514E+00
 0.9351945228775E+00
 0.9063924857264E+00
 0.8752822050683E+00
 0.8413953595263E+00
 0.8042185808062E+00
 0.7631882950717E+00
 0.7176766620607E+00
 0.6669829388643E+00
 0.6103564372047E+00
 0.5470288473118E+00
 0.4762457935387E+00
 0.3973091345010E+00
 0.3096284695613E+00
 0.2127746463138E+00
 0.1065119364697E+00
-0.9214024003630E-02
-0.1341626499726E+00
-0.2676006499268E+00
-0.4083172375061E+00
-0.5547299861001E+00
 0.1261816911216E+01
 0.1249076588744E+01
 0.1233578484796E+01
 0.1215882797350E+01
 0.1196570072572E+01
 0.1176192179257E+01
 0.1155233314296E+01
 0.1134085241772E+01
 0.1113036710408E+01
 0.1092274324050E+01
 0.1071891190192E+01
 0.1051899498126E+01
 0.1032244281503E+01
 0.1012816671012E+01
 0.9934652904102E+00
 0.9740067052075E+00
 0.9542711510466E+00
 0.9341397154171E+00
 0.9134676379188E+00
 0.8920184535000E+00
 0.8694905542124E+00
 0.8455445838333E+00
 0.8198141491339E+00
 0.7919057376941E+00
 0.7613936630339E+00
 0.7278151893789E+00
 0.6906675413466E+00
 0.6493977126861E+00
 0.6033971387203E+00
 0.5520233225169E+00
 0.4946295660665E+00
 0.4305940159506E+00
 0.3593573833186E+00
 0.2804676857890E+00
 0.1936254869447E+00
 0.9870895737935E-01
-0.4242134660068E-02
-0.1149362543111E+00
-0.2326647288934E+00
-0.3563183536608E+00
-0.4844822322071E+00
 0.1110865324558E+01
 0.1099844526222E+01
 0.1086568851614E+01
 0.1071498622921E+01
 0.1055109997125E+01
 0.1037855880948E+01
 0.1020134368410E+01
 0.1002268185004E+01
 0.9844953251259E+00
 0.9669689280443E+00
 0.9497636027688E+00
 0.9328851645913E+00
 0.9162815672984E+00
 0.8998536180778E+00
 0.8834643038016E+00
 0.8669474202429E+00
 0.8501450502309E+00
 0.8329380177107E+00
 0.8151832879372E+00
 0.7966603123371E+00
 0.7770930130624E+00
 0.7561724910078E+00
 0.7335662283634E+00
 0.7089186434364E+00
 0.6818477538074E+00
 0.6519422765991E+00
 0.6187605885439E+00
 0.5818241094324E+00
 0.5406149216587E+00
 0.4945957446264E+00
 0.4432368092545E+00
 0.3860422145383E+00
 0.3225831011800E+00
 0.2525359804453E+00
 0.1757204223047E+00
 0.9211793428546E-01
 0.1852798492514E-02
-0.9473889048965E-01
-0.1969725674379E+00
-0.3038317152585E+00
-0.4140521932202E+00
 0.9602881524650E+00
 0.9509299269585E+00
 0.9398116806697E+00
 0.9272995355273E+00
 0.9137708259775E+00
 0.8995840162679E+00
 0.8850540696561E+00
 0.8704360433942E+00
 0.8559172083413E+00
 0.8416163397283E+00
 0.8275881342989E+00
 0.8138304430554E+00
 0.8002926020852E+00
 0.7868837369797E+00
 0.7734800728522E+00
 0.7599317564486E+00
 0.7460920954735E+00
 0.7318413244066E+00
 0.7170381166507E+00
 0.7014780930235E+00
 0.6849111901143E+00
 0.6670596398947E+00
 0.6476255995856E+00
 0.6262922490800E+00
 0.6027220472222E+00
 0.5765556511611E+00
 0.5474126412619E+00
 0.5148882305322E+00
 0.4785535324113E+00
 0.4379736326138E+00
 0.3927314168274E+00
 0.3424511299223E+00
 0.2868270824690E+00
 0.2256559123758E+00
 0.1588673600662E+00
 0.8653775756608E-01
 0.8868363493784E-02
-0.7376487422391E-01
-0.1607004295279E+00
-0.2510065128660E+00
-0.3435553327925E+00
 0.8100043737177E+00
 0.8022630618848E+00
 0.7932505658360E+00
 0.7832431337338E+00
 0.7725235593723E+00
 0.7613593880088E+00
 0.7499848211373E+00
 0.7385883987039E+00
 0.7273067807771E+00
 0.7162237531667E+00
 0.7053730510686E+00
 0.6947433497074E+00
 0.6842841762588E+00
 0.6739119095275E+00
 0.6635151218882E+00
 0.6529596086664E+00
 0.6421094017976E+00
 0.6308438826403E+00
 0.6190234128735E+00
 0.6064599681856E+00
 0.5929298527255E+00
 0.5781869115465E+00
 0.5619685313174E+00
 0.5439971991622E+00
 0.5239802462249E+00
 0.5016104550678E+00
 0.4765683962418E+00
 0.4485222601423E+00
 0.4171305336386E+00
 0.3820579815121E+00
 0.3429962998295E+00
 0.2996848251679E+00
 0.2519348809564E+00
 0.1996562959941E+00
 0.1428818189649E+00
 0.8177587683640E-01
 0.1661093962010E-01
-0.5220050089298E-01
-0.1240184934806E+00
-0.1979889119272E+00
-0.2731080336001E+00
 0.6599343419598E+00
 0.6537750773094E+00
 0.6468293559305E+00
 0.6392866542555E+00
 0.6313383261740E+00
 0.6231635841786E+00
 0.6149176447430E+00
 0.6067234367873E+00
 0.5986671605576E+00
 0.5907972147235E+00
 0.5831256493277E+00
 0.5756311041920E+00
 0.5682624376427E+00
 0.5609425027601E+00
 0.5535715604675E+00
 0.5460305294988E+00
 0.5381937874683E+00
 0.5299396613729E+00
 0.5211301796432E+00
 0.5115937933684E+00
 0.5011334014688E+00
 0.4895347610350E+00
 0.4765708103495E+00
 0.4620036213890E+00
 0.4455855440337E+00
 0.4270613958908E+00
 0.4061722893847E+00
 0.3826584264671E+00
 0.3562640010436E+00
 0.3267509591341E+00
 0.2939164038523E+00
 0.2576104455974E+00
 0.2177563095832E+00
 0.1743714025155E+00
 0.1275858286256E+00
 0.7764695048314E-01
 0.2489421517343E-01
-0.3022547532200E-01
-0.8709200683922E-01
-0.1449227172697E+00
-0.2028276037247E+00
 0.5099993647179E+00
 0.5053977186738E+00
 0.5004920543119E+00
 0.4953870420206E+00
 0.4901845897734E+00
 0.4849772699465E+00
 0.4798425084641E+00
 0.4748382687972E+00
 0.4700004505382E+00
 0.4653418623182E+00
 0.4608524429607E+00
 0.4565002690801E+00
 0.4522329896485E+00
 0.4479794338444E+00
 0.4436511230717E+00
 0.4391437516010E+00
 0.4343417866970E+00
 0.4291223626193E+00
 0.4233491524412E+00
 0.4168671407995E+00
 0.4095059274947E+00
 0.4010833051794E+00
 0.3914078644246E+00
 0.3802812857016E+00
 0.3675008168220E+00
 0.3528629648697E+00
 0.3361687242342E+00
 0.3172292172909E+00
 0.2958726931406E+00
 0.2719559876634E+00
 0.2453786522741E+00
 0.2160979705850E+00
 0.1841449534322E+00
 0.1496402048890E+00
 0.1128069103610E+00
 0.7397161374031E-01
 0.3353785149215E-01
-0.8014188728458E-02
-0.5008230981647E-01
-0.9194995474738E-01
-0.1328322709026E+00
 0.3601213065773E+00
 0.3570630676095E+00
 0.3541827188953E+00
 0.3515010096630E+00
 0.3490313368851E+00
 0.3467804609323E+00
 0.3447486374222E+00
 0.3429292406197E+00
 0.3413080188095E+00
 0.3398621620699E+00
 0.3385593515026E+00
 0.3373568913797E+00
 0.3362009922047E+00
 0.3350262379093E+00
 0.3337552116651E+00
 0.3322982127394E+00
 0.3305496650127E+00
 0.3283854351691E+00
 0.3256708195300E+00
 0.3222673345672E+00
 0.3180312701941E+00
 0.3128124090104E+00
 0.3064548816301E+00
 0.2987997575971E+00
 0.2896888078029E+00
 0.2789696432699E+00
 0.2665022855246E+00
 0.2521675778057E+00
 0.2358762018015E+00
 0.2175778069492E+00
 0.1972718761171E+00
 0.1750199624793E+00
 0.1509576970843E+00
 0.1253056610667E+00
 0.9837712476302E-01
 0.7057534163791E-01
 0.4236626221483E-01
 0.1426312431195E-01
-0.1314775495719E-01
-0.3921138660996E-01
-0.6324116678395E-01
 0.2102222080943E+00
 0.2087032879567E+00
 0.2078453630247E+00
 0.2075850908403E+00
 0.2078472558371E+00
 0.2085527847574E+00
 0.2096248144332E+00
 0.2109922345461E+00
 0.2125907745150E+00
 0.2143621429458E+00
 0.2162518881029E+00
 0.2182066451525E+00
 0.2201712643270E+00
 0.2220861376646E+00
 0.2238849400027E+00
 0.2254925825010E+00
 0.2268134361569E+00
 0.2277220896299E+00
 0.2280854432513E+00
 0.2277814861608E+00
 0.2266930743286E+00
 0.2247017704887E+00
 0.2216869265164E+00
 0.2175285463539E+00
 0.2121123041574E+00
 0.2053360993966E+00
 0.1971179412950E+00
 0.1874070954141E+00
 0.1761950892998E+00
 0.1635225258328E+00
 0.1494867365317E+00
 0.1342513168501E+00
 0.1180542667528E+00
 0.1012140299801E+00
 0.8413217268721E-01
 0.6728738531429E-01
 0.5120748018431E-01
 0.3643931975766E-01
 0.2355545241614E-01
 0.1315302490871E-01
 0.5825698465867E-02
 0.6022391256064E-01
 0.6025037662150E-01
 0.6142385748227E-01
 0.6359569137026E-01
 0.6660091048470E-01
 0.7027373739154E-01
 0.7445967570533E-01
 0.7902296714080E-01
 0.8384944118366E-01
 0.8884563015147E-01
 0.9393534716566E-01
 0.9905497439794E-01
 0.1041483872548E+00
 0.1091621136804E+00
 0.1140411785727E+00
 0.1187252895446E+00
 0.1231288793732E+00
 0.1271253136421E+00
 0.1305830811632E+00
 0.1333965293626E+00
 0.1354748458426E+00
 0.1367310030414E+00
 0.1370790529874E+00
 0.1364372488276E+00
 0.1347343082452E+00
 0.1319173786308E+00
 0.1279612369870E+00
 0.1228821759944E+00
 0.1167510172692E+00
 0.1096976673690E+00
 0.1019156453204E+00
 0.9366901762626E-01
 0.8529678708437E-01
 0.7721421450460E-01
 0.6991053685486E-01
 0.6393976171484E-01
 0.5989208670075E-01
 0.5834934234698E-01
 0.5987247076514E-01
 0.6500369314899E-01
 0.7424747220945E-01
-0.8995230702481E-01
-0.8836408475550E-01
-0.8513816613309E-01
-0.8051085799287E-01
-0.7473908433150E-01
-0.6807705934695E-01
-0.6075799284145E-01
-0.5298271277630E-01
-0.4491517019869E-01
-0.3668352195494E-01
-0.2838500855742E-01
-0.2009276458811E-01
-0.1186319288845E-01
-0.3743025779784E-02
 0.4224599066941E-02
 0.1199454828901E-01
 0.1949155597058E-01
 0.2658788613426E-01
 0.3315360591382E-01
 0.3909925350101E-01
 0.4436000559201E-01
 0.4887971550195E-01
 0.5260641402196E-01
 0.5549568949651E-01
 0.5751820453485E-01
 0.5866908881887E-01
 0.5897848485126E-01
 0.5852821597606E-01
 0.5746687276274E-01
 0.5601221349806E-01
 0.5445268854089E-01
 0.5315190031117E-01
 0.5254935226259E-01
 0.5315712572576E-01
 0.5555265177057E-01
 0.6036627768002E-01
 0.6825217923598E-01
 0.7982926332010E-01
 0.9564907529156E-01
 0.1162010105585E+00
 0.1419025081156E+00
-0.2403861284536E+00
-0.2372091813326E+00
-0.2318974103908E+00
-0.2247782432631E+00
-0.2162038798126E+00
-0.2065195927592E+00
-0.1960389531463E+00
-0.1850285221318E+00
-0.1737018861864E+00
-0.1622211966629E+00
-0.1507037616522E+00
-0.1392311621784E+00
-0.1278590639523E+00
-0.1166265764751E+00
-0.1055642827145E+00
-0.9470161605705E-01
-0.8410317595223E-01
-0.7389761050614E-01
-0.6421327724130E-01
-0.5512366590856E-01
-0.4666805976501E-01
-0.3887241096023E-01
-0.3175563170745E-01
-0.2532594258006E-01
-0.1957207634532E-01
-0.1445241671168E-01
-0.9883048084849E-02
-0.5718225548855E-02
-0.1733103556943E-02
 0.2376654543905E-02
 0.6993558059300E-02
 0.1258042634656E-01
 0.1967761103642E-01
 0.2889506295738E-01
 0.4090008997004E-01
 0.5640156989491E-01
 0.7612035430912E-01
 0.1007153334299E+00
 0.1307309275593E+00
 0.1666049701161E+00
 0.2086684308510E+00
-0.3911585762622E+00
-0.3863549239155E+00
-0.3789110049660E+00
-0.3692500992461E+00
-0.3578241964433E+00
-0.3450731800977E+00
-0.3313932008803E+00
-0.3171174336904E+00
-0.3025088918140E+00
-0.2877627807563E+00
-0.2730151548232E+00
-0.2583546165542E+00
-0.2438347491941E+00
-0.2294858725500E+00
-0.2153250666094E+00
-0.2013653452008E+00
-0.1876601497209E+00
-0.1743387814676E+00
-0.1615280163730E+00
-0.1492856401266E+00
-0.1376259504785E+00
-0.1265455493392E+00
-0.1160314162792E+00
-0.1060569592520E+00
-0.9657189506954E-01
-0.8748985628685E-01
-0.7867495031448E-01
-0.6991925052758E-01
-0.6092318212071E-01
-0.5129695110588E-01
-0.4056450404606E-01
-0.2816352819103E-01
-0.1345163450205E-01
 0.4281104209468E-02
 0.2579475278091E-01
 0.5188014213135E-01
 0.8332868193468E-01
 0.1208430267529E+00
 0.1649628421403E+00
 0.2160747953967E+00
 0.2744222208551E+00
-0.5423524417410E+00
-0.5358725194257E+00
-0.5262365968726E+00
-0.5139699271886E+00
-0.4996301066033E+00
-0.4837561682306E+00
-0.4668296338222E+00
-0.4492513543356E+00
-0.4313334454805E+00
-0.4133029289091E+00
-0.3953129072372E+00
-0.3774571979725E+00
-0.3597856124046E+00
-0.3423182246492E+00
-0.3250574315544E+00
-0.3079989292675E+00
-0.2911843823291E+00
-0.2747434148808E+00
-0.2588012033774E+00
-0.2434001447601E+00
-0.2285302108112E+00
-0.2141596571714E+00
-0.2002448620124E+00
-0.1867260406186E+00
-0.1735157412801E+00
-0.1604848350184E+00
-0.1474474713006E+00
-0.1341354373538E+00
-0.1201759970765E+00
-0.1050949016954E+00
-0.8832274310090E-01
-0.6919686601355E-01
-0.4697081612524E-01
-0.2083149782202E-01
 0.1007805383878E-01
 0.4663538068279E-01
 0.8970764689867E-01
 0.1400460494292E+00
 0.1981880300011E+00
 0.2644685705798E+00
 0.3390403250029E+00
-0.6940527365404E+00
-0.6858346576005E+00
-0.6739324369475E+00
-0.6589809925451E+00
-0.6416507888261E+00
-0.6225856044547E+00
-0.6023556966326E+00
-0.5814307876363E+00
-0.5601715859648E+00
-0.5388353263848E+00
-0.5175900331244E+00
-0.4965325172672E+00
-0.4757067679034E+00
-0.4551208628995E+00
-0.4347611038041E+00
-0.4146047931299E+00
-0.3946810717918E+00
-0.3751194826513E+00
-0.3560435701813E+00
-0.3374807029925E+00
-0.3193972913681E+00
-0.3017344112875E+00
-0.2844193840398E+00
-0.2673611036780E+00
-0.2504370702140E+00
-0.2334776558549E+00
-0.2162493190340E+00
-0.1984256438964E+00
-0.1795623817719E+00
-0.1591017554764E+00
-0.1363809059127E+00
-0.1106354400101E+00
-0.8101197170115E-01
-0.4658991862671E-01
-0.6409916408481E-02
 0.4049852785812E-01
 0.9508502990251E-01
 0.1581552848243E+00
 0.2302472965961E+00
 0.3116428628446E+00
 0.4023987999641E+00
-0.8463471907572E+00
-0.8363158189544E+00
-0.8220574609813E+00
-0.8043261961942E+00
-0.7839142447606E+00
-0.7615768698849E+00
-0.7379769955157E+00
-0.7136544768196E+00
-0.6890178300420E+00
-0.6643524501539E+00
-0.6398386636389E+00
-0.6155735998889E+00
-0.5915929966740E+00
-0.5678908858750E+00
-0.5444358309136E+00
-0.5211854885595E+00
-0.4981556006716E+00
-0.4754751479147E+00
-0.4532659918426E+00
-0.4315408755816E+00
-0.4102435175454E+00
-0.3892891474854E+00
-0.3685777960537E+00
-0.3479891718123E+00
-0.3273681371314E+00
-0.3065071245610E+00
-0.2851274467198E+00
-0.2628467940559E+00
-0.2391511818979E+00
-0.2134002067325E+00
-0.1848372251274E+00
-0.1525941975682E+00
-0.1157071005022E+00
-0.7314236720798E-01
-0.2383125696067E-01
 0.3329759188133E-01
 0.9928469820451E-01
 0.1749976421915E+00
 0.2609781700854E+00
 0.3574523299140E+00
 0.4643735021695E+00
-0.9993268082091E+00
-0.9873926095873E+00
-0.9706713631007E+00
-0.9500479108494E+00
-0.9264469682483E+00
-0.9007432656920E+00
-0.8736968757729E+00
-0.8459190243419E+00
-0.8178648595602E+00
-0.7898453290185E+00
-0.7620498733823E+00
-0.7345727670395E+00
-0.7074386700100E+00
-0.6806252166620E+00
-0.6540813624381E+00
-0.6277436931403E+00
-0.6016135468272E+00
-0.5758187802958E+00
-0.5504794977936E+00
-0.5255942588093E+00
-0.5010850650713E+00
-0.4768428057504E+00
-0.4527422193921E+00
-0.4286362447175E+00
-0.4043398284816E+00
-0.3796103467340E+00
-0.3541268256884E+00
-0.3274536437472E+00
-0.2990090408974E+00
-0.2680709279170E+00
-0.2337883668377E+00
-0.1951872916078E+00
-0.1511884983006E+00
-0.1006386963653E+00
-0.4235116488439E-01
 0.2485616962329E-01
 0.1021252704872E+00
 0.1903947692659E+00
 0.2902139303644E+00
 0.4017493089954E+00
 0.5248403398180E+00
-0.1153086494033E+01
-0.1139144129117E+01
-0.1119834657890E+01
-0.1096187772274E+01
-0.1069273553792E+01
-0.1040095541014E+01
-0.1009515954695E+01
-0.9782184844159E+00
-0.9467031973909E+00
-0.9153033039594E+00
-0.8842135134886E+00
-0.8535215257566E+00
-0.8232376821521E+00
-0.7933205671174E+00
-0.7636974382224E+00
-0.7342822168193E+00
-0.7050607024121E+00
-0.6761589801947E+00
-0.6476952925651E+00
-0.6196544916731E+00
-0.5919379437095E+00
-0.5644138817316E+00
-0.5369339957130E+00
-0.5093271684800E+00
-0.4813814888599E+00
-0.4528225151026E+00
-0.4232902017299E+00
-0.3922985221936E+00
-0.3592001520104E+00
-0.3231923707980E+00
-0.2833293333595E+00
-0.2385281506033E+00
-0.1875890672267E+00
-0.1292310189095E+00
-0.6213889738696E-01
 0.1499215647187E-01
 0.1034186140488E+00
 0.2041615789572E+00
 0.3177825026651E+00
 0.4443833865959E+00
 0.5836756210781E+00
-0.1307725772944E+01
-0.1291652378876E+01
-0.1269608726191E+01
-0.1242786412060E+01
-0.1212416228923E+01
-0.1179641349584E+01
-0.1145431601656E+01
-0.1110543925171E+01
-0.1075520872426E+01
-0.1040713790724E+01
-0.1006318053784E+01
-0.9724104701402E+00
-0.9389833934988E+00
-0.9059734113578E+00
-0.8732837850413E+00
-0.8408040168679E+00
-0.8085031021238E+00
-0.7765046133735E+00
-0.7449247874295E+00
-0.7137352737368E+00
-0.6828179903116E+00
-0.6520203852812E+00
-0.6211736035943E+00
-0.5900855056066E+00
-0.5585207429367E+00
-0.5261766854910E+00
-0.4926578321706E+00
-0.4574310444288E+00
-0.4197859710765E+00
-0.3788405187985E+00
-0.3335533118062E+00
-0.2827294979409E+00
-0.2250425931044E+00
-0.1590743287955E+00
-0.8336879741738E-01
 0.3516315839476E-02
 0.1029681239285E+00
 0.2161045248561E+00
 0.3435051667173E+00
 0.4852009576750E+00
 0.6407565555781E+00
-0.1463349620722E+01
-0.1445002718550E+01
-0.1420055837362E+01
-0.1389883114962E+01
-0.1355894291465E+01
-0.1319384619980E+01
-0.1281437356690E+01
-0.1242882957670E+01
-0.1204303074833E+01
-0.1166062047687E+01
-0.1128350437261E+01
-0.1091229196296E+01
-0.1054668586057E+01
-0.1018579969422E+01
-0.9828401221829E+00
-0.9473122219017E+00
-0.9119470616690E+00
-0.8768648571878E+00
-0.8421796445513E+00
-0.8078503952151E+00
-0.7737408725486E+00
-0.7396798069761E+00
-0.7054805794927E+00
-0.6709334049232E+00
-0.6357833116926E+00
-0.5997035400270E+00
-0.5622672011860E+00
-0.5228977909513E+00
-0.4808248839708E+00
-0.4350885819692E+00
-0.3845514575778E+00
-0.3279033086001E+00
-0.2636839800766E+00
-0.1903271236434E+00
-0.1062213912543E+00
-0.9769319773459E-02
 0.1005667240428E+00
 0.2260195361501E+00
 0.3671950105228E+00
 0.5240447924660E+00
 0.6959620287788E+00
-0.1620069437015E+01
-0.1599284380674E+01
-0.1571239137710E+01
-0.1537515378713E+01
-0.1499723428162E+01
-0.1459324821868E+01
-0.1417522278380E+01
-0.1375219229897E+01
-0.1333031804166E+01
-0.1291330953291E+01
-0.1250295950948E+01
-0.1209966233962E+01
-0.1170285432845E+01
-0.1131136201882E+01
-0.1092366176347E+01
-0.1053810165437E+01
-0.1015399227375E+01
-0.9772492599038E+00
-0.9394718354059E+00
-0.9020137810677E+00
-0.8647221048107E+00
-0.8274090936513E+00
-0.7898734435840E+00
-0.7518914713702E+00
-0.7131928224592E+00
-0.6734311363946E+00
-0.6321527110763E+00
-0.5887419505961E+00
-0.5423718223420E+00
-0.4920066251906E+00
-0.4364126001640E+00
-0.3741606883044E+00
-0.3036494284554E+00
-0.2231520218810E+00
-0.1308845648904E+00
-0.2507324227305E-01
 0.9599452291268E-01
 0.2336894861658E+00
 0.3886550117642E+00
 0.5607536507239E+00
 0.7491738649819E+00
-0.1778004194945E+01
-0.1754591053844E+01
-0.1723222590603E+01
-0.1685718347589E+01
-0.1643914885495E+01
-0.1599456107661E+01
-0.1553670211595E+01
-0.1507531885224E+01
-0.1461685514813E+01
-0.1416500798938E+01
-0.1372138118260E+01
-0.1328608998193E+01
-0.1285825482942E+01
-0.1243637815936E+01
-0.1201861705915E+01
-0.1160301429244E+01
-0.1118866637821E+01
-0.1077667814667E+01
-0.1036813715468E+01
-0.9962395511237E+00
-0.9557770779535E+00
-0.9152246340928E+00
-0.8743696310933E+00
-0.8329786358336E+00
-0.7907706124538E+00
-0.7473846422040E+00
-0.7023453475367E+00
-0.6550029228925E+00
-0.6044778212081E+00
-0.5496611194092E+00
-0.4892228566629E+00
-0.4216116570154E+00
-0.3450765367038E+00
-0.2577163626821E+00
-0.1575548264460E+00
-0.4261647740533E-01
 0.8901606078439E-01
 0.2388810168843E+00
 0.4076755327649E+00
 0.5951619965379E+00
 0.8002790548969E+00
-0.1937281812746E+01
-0.1911021547128E+01
-0.1876070847670E+01
-0.1834524081999E+01
-0.1788474456271E+01
-0.1739766305710E+01
-0.1689858965842E+01
-0.1639794986934E+01
-0.1590238765676E+01
-0.1541549105091E+01
-0.1493858618949E+01
-0.1447143764851E+01
-0.1401279663781E+01
-0.1356080283134E+01
-0.1311326534244E+01
-0.1266789896455E+01
-0.1222356798318E+01
-0.1178131049861E+01
-0.1134218117469E+01
-0.1090542098558E+01
-0.1046921104786E+01
-0.1003142256153E+01
-0.9589854297858E+00
-0.9142120252469E+00
-0.8685355256973E+00
-0.8215860538856E+00
-0.7728723173674E+00
-0.7217158765375E+00
-0.6671895119206E+00
-0.6081144050384E+00
-0.5430651361584E+00
-0.4703648147878E+00
-0.3881043030696E+00
-0.2941927669150E+00
-0.1864386646565E+00
-0.6263483874623E-01
 0.7937713620081E-01
 0.2413404699239E+00
 0.4240308183991E+00
 0.6270998014865E+00
 0.8491740474557E+00
-0.2098040805826E+01
-0.2068680549959E+01
-0.2029849021978E+01
-0.1983960614357E+01
-0.1933401236483E+01
-0.1880235737489E+01
-0.1826059395842E+01
-0.1771976913458E+01
-0.1718661884179E+01
-0.1666450470616E+01
-0.1615437243986E+01
-0.1565555673946E+01
-0.1516638302015E+01
-0.1468458868407E+01
-0.1420760591077E+01
-0.1373279814055E+01
-0.1325877768989E+01
-0.1278650137825E+01
-0.1231698465916E+01
-0.1184936189422E+01
-0.1138169483431E+01
-0.1091177236642E+01
-0.1043735924313E+01
-0.9956068332750E+00
-0.9465037034226E+00
-0.8960538999033E+00
-0.8437566575937E+00
-0.7889112610706E+00
-0.7305485443852E+00
-0.6674240555472E+00
-0.5980185173071E+00
-0.5205268599203E+00
-0.4328730021344E+00
-0.3327596179205E+00
-0.2177540052748E+00
-0.8538151645810E-01
 0.6680130249127E-01
 0.2407888152560E+00
 0.4374732713364E+00
 0.6563927938588E+00
 0.8957723693381E+00
-0.2260432295440E+01
-0.2227679503579E+01
-0.2184622321768E+01
-0.2134050725289E+01
-0.2078686095569E+01
-0.2020835827508E+01
-0.1962234378023E+01
-0.1904039733374E+01
-0.1846920658749E+01
-0.1791176467972E+01
-0.1736851893836E+01
-0.1683828765076E+01
-0.1631891163941E+01
-0.1580768669355E+01
-0.1530163960493E+01
-0.1479775863862E+01
-0.1429438267154E+01
-0.1379237024232E+01
-0.1329268916081E+01
-0.1279437086390E+01
-0.1229537580971E+01
-0.1179344325416E+01
-0.1128634948092E+01
-0.1077176191927E+01
-0.1024688368306E+01
-0.9708029285620E+00
-0.9150168156202E+00
-0.8566142696819E+00
-0.7945909324431E+00
-0.7276421303970E+00
-0.6541574745174E+00
-0.5722019391584E+00
-0.4795238589161E+00
-0.3736015237513E+00
-0.2517314924016E+00
-0.1111305562217E+00
 0.5098650218632E-01
 0.2369158408784E+00
 0.4477237151614E+00
 0.6828595897840E+00
 0.9400289138686E+00
-0.2424622474509E+01
-0.2388137601705E+01
-0.2340455485612E+01
-0.2284810352244E+01
-0.2224309788909E+01
-0.2161527471223E+01
-0.2098337680536E+01
-0.2035938575404E+01
-0.1974976078997E+01
-0.1915695599802E+01
-0.1858078629735E+01
-0.1801946049194E+01
-0.1747027515786E+01
-0.1693004663863E+01
-0.1639536932860E+01
-0.1586283240565E+01
-0.1533047784650E+01
-0.1479904580834E+01
-0.1426944521341E+01
-0.1374060700486E+01
-0.1321040940077E+01
-0.1267657785109E+01
-0.1213695043271E+01
-0.1158931044420E+01
-0.1103099603081E+01
-0.1045843781213E+01
-0.9866662009231E+00
-0.9248442518124E+00
-0.8593463180342E+00
-0.7888143032455E+00
-0.7115509378481E+00
-0.6254907638870E+00
-0.5281985672362E+00
-0.4169093705092E+00
-0.2886166290154E+00
-0.1401780866901E+00
 0.3159326866052E-01
 0.2293913560103E+00
 0.4544310883378E+00
 0.7063296790060E+00
 0.9819466112559E+00
-0.2590795664873E+01
-0.2550182938949E+01
-0.2497411934096E+01
-0.2436246512665E+01
-0.2370240623796E+01
-0.2302259123749E+01
-0.2234312731083E+01
-0.2167621017242E+01
-0.2102784149033E+01
-0.2039973335535E+01
-0.1979091788460E+01
-0.1919889620685E+01
-0.1862036203369E+01
-0.1805161762952E+01
-0.1748880057154E+01
-0.1692807734593E+01
-0.1636716720646E+01
-0.1580666784926E+01
-0.1524741433639E+01
-0.1468823775276E+01
-0.1412695411647E+01
-0.1356131447855E+01
-0.1298927429125E+01
-0.1240880019516E+01
-0.1181744124332E+01
-0.1121182652339E+01
-0.1058712709721E+01
-0.9936140758701E+00
-0.9248371494541E+00
-0.8509788577447E+00
-0.7702611485203E+00
-0.6804895017837E+00
-0.5790383887880E+00
-0.4628806212180E+00
-0.3286700631818E+00
-0.1728506415330E+00
 0.8255516458647E-02
 0.2177960047047E+00
 0.4573665750590E+00
 0.7260841897040E+00
 0.1022681762042E+01
-0.2759158147520E+01
-0.2713953824715E+01
-0.2655552515201E+01
-0.2588354582849E+01
-0.2516431568586E+01
-0.2442964571866E+01
-0.2370091297738E+01
-0.2299026528539E+01
-0.2230295806574E+01
-0.2163972249517E+01
-0.2099864171435E+01
-0.2037640812956E+01
-0.1976905749299E+01
-0.1917234864112E+01
-0.1858194188279E+01
-0.1799355816414E+01
-0.1740456530273E+01
-0.1681538929444E+01
-0.1622677142817E+01
-0.1563744108717E+01
-0.1504517316577E+01
-0.1444778789956E+01
-0.1384341978563E+01
-0.1323029307073E+01
-0.1260625052206E+01
-0.1196820938461E+01
-0.1131158225197E+01
-0.1062929443171E+01
-0.9910777727502E+00
-0.9141655355623E+00
-0.8303423055239E+00
-0.7372883146057E+00
-0.6321830692099E+00
-0.5117185128545E+00
-0.3721707505026E+00
-0.2095019981439E+00
-0.1945665512825E-01
 0.2017306312423E+00
 0.4559349883296E+00
 0.7427223481060E+00
 0.1057823603822E+01
-0.2929943014610E+01
-0.2879600276343E+01
-0.2814933664638E+01
-0.2741114717674E+01
-0.2662816669571E+01
-0.2583560356604E+01
-0.2505592115717E+01
-0.2430086019444E+01
-0.2357456989415E+01
-0.2287652285491E+01
-0.2220367319732E+01
-0.2155180400625E+01
-0.2091624465417E+01
-0.2029218899553E+01
-0.1967480523190E+01
-0.1905934718663E+01
-0.1844279890421E+01
-0.1782537869918E+01
-0.1720770763286E+01
-0.1658840820202E+01
-0.1596523641307E+01
-0.1533613026228E+01
-0.1469947203048E+01
-0.1405382535433E+01
-0.1339741678261E+01
-0.1272754879971E+01
-0.1203998098375E+01
-0.1132788158109E+01
-0.1058073435868E+01
-0.9783942363187E+00
-0.8918389542860E+00
-0.7959695957125E+00
-0.6877690496737E+00
-0.5636317365760E+00
-0.4194148473418E+00
-0.2505268926644E+00
-0.5200708896538E-01
 0.1806362820106E+00
 0.4498860907495E+00
 0.7549452333018E+00
 0.1091963277174E+01
-0.3103416389062E+01
-0.3047285694413E+01
-0.2975604717776E+01
-0.2894487118001E+01
-0.2809306610330E+01
-0.2723942825209E+01
-0.2640719518398E+01
-0.2560721564801E+01
-0.2484208898223E+01
-0.2410971172364E+01
-0.2340571884077E+01
-0.2272488848481E+01
-0.2206180574862E+01
-0.2141108869864E+01
-0.2076740615333E+01
-0.2012552508896E+01
-0.1948200882099E+01
-0.1883682314067E+01
-0.1819043376624E+01
-0.1754134669722E+01
-0.1688732269897E+01
-0.1622647222911E+01
-0.1555750243026E+01
-0.1487940648422E+01
-0.1419089231572E+01
-0.1348975198737E+01
-0.1277220614508E+01
-0.1203179358864E+01
-0.1125819209289E+01
-0.1043673556441E+01
-0.9547841250155E+00
-0.8566057296577E+00
-0.7459273605676E+00
-0.6188323599318E+00
-0.4707186233019E+00
-0.2963560023584E+00
-0.8994605539649E-01
 0.1539576051129E+00
 0.4385014282203E+00
 0.7631058042494E+00
 0.1122528706096E+01
-0.3279885499779E+01
-0.3217188700412E+01
-0.3137603982077E+01
-0.3048405745198E+01
-0.2955783218093E+01
-0.2863984818555E+01
-0.2775362170674E+01
-0.2690846399232E+01
-0.2610488512993E+01
-0.2533885016499E+01
-0.2460448097740E+01
-0.2389546606526E+01
-0.2320562337332E+01
-0.2252899851979E+01
-0.2185976354865E+01
-0.2119218144626E+01
-0.2052235189890E+01
-0.1984993163242E+01
-0.1917518442783E+01
-0.1849648439171E+01
-0.1781162256799E+01
-0.1711894428181E+01
-0.1641756860888E+01
-0.1570701780241E+01
-0.1498658644713E+01
-0.1425466736909E+01
-0.1350806452968E+01
-0.1274082717851E+01
-0.1194298827849E+01
-0.1109999174578E+01
-0.1019197173562E+01
-0.9192564482706E+00
-0.8067805505526E+00
-0.6775339130671E+00
-0.5264160970759E+00
-0.3474696074925E+00
-0.1338856894242E+00
 0.1209644968063E+00
 0.4212236419326E+00
 0.7664991266046E+00
 0.1150345219890E+01
-0.3459709313360E+01
-0.3389505071553E+01
-0.3300952982541E+01
-0.3202769933168E+01
-0.3102092695423E+01
-0.3003532051803E+01
-0.2909392060138E+01
-0.2820365307176E+01
-0.2736229425932E+01
-0.2656349093013E+01
-0.2579966357609E+01
-0.2506334449466E+01
-0.2434758170203E+01
-0.2364586968217E+01
-0.2295189898912E+01
-0.2225941500164E+01
-0.2156400320157E+01
-0.2086493919222E+01
-0.2016222297773E+01
-0.1945407389351E+01
-0.1873834145553E+01
-0.1801367818731E+01
-0.1727971432636E+01
-0.1653661126520E+01
-0.1578436322552E+01
-0.1502208104887E+01
-0.1424728152435E+01
-0.1345467624451E+01
-0.1263483467226E+01
-0.1177352082847E+01
-0.1085081347315E+01
-0.9839656185382E+00
-0.8704390135429E+00
-0.7399473319423E+00
-0.5868592762024E+00
-0.4043948885831E+00
-0.1845425567844E+00
 0.8083159496631E-01
 0.3972242163508E+00
 0.7646872906746E+00
 0.1175496526614E+01
-0.3643312747454E+01
-0.3564449619045E+01
-0.3465647984872E+01
-0.3357433140828E+01
-0.3248037344299E+01
-0.3142399337252E+01
-0.3042663980046E+01
-0.2949175559821E+01
-0.2861363050672E+01
-0.2778318849627E+01
-0.2699097912952E+01
-0.2622833855834E+01
-0.2548756755105E+01
-0.2476165297903E+01
-0.2404383528848E+01
-0.2332733348539E+01
-0.2260715837820E+01
-0.2188211172508E+01
-0.2115184759290E+01
-0.2041439807231E+01
-0.1966770336051E+01
-0.1891080856146E+01
-0.1814396929618E+01
-0.1736810806199E+01
-0.1658403914907E+01
-0.1579171346205E+01
-0.1498949593759E+01
-0.1417292364841E+01
-0.1333330467296E+01
-0.1245696681379E+01
-0.1152421051530E+01
-0.1050757536063E+01
-0.9369961662066E+00
-0.8062761211397E+00
-0.6524135273689E+00
-0.4677135468570E+00
-0.2427381792171E+00
 0.3254889904896E-01
 0.3655124110022E+00
 0.7570644228472E+00
 0.1198087796244E+01
-0.3831205997353E+01
-0.3742257688009E+01
-0.3631647413319E+01
-0.3512187804156E+01
-0.3393365581873E+01
-0.3280366957463E+01
-0.3175015844445E+01
-0.3077168573904E+01
-0.2985820255849E+01
-0.2899751125016E+01
-0.2817815657007E+01
-0.2739027421980E+01
-0.2662547119744E+01
-0.2587629710011E+01
-0.2513559405055E+01
-0.2439605276398E+01
-0.2365203622738E+01
-0.2290175196112E+01
-0.2214439870785E+01
-0.2137777662940E+01
-0.2059995502855E+01
-0.1981047444077E+01
-0.1901034879199E+01
-0.1820139708275E+01
-0.1738538095667E+01
-0.1656321630476E+01
-0.1573425517703E+01
-0.1489503318035E+01
-0.1403782023219E+01
-0.1314978749724E+01
-0.1221178852677E+01
-0.1119632635450E+01
-0.1006522700328E+01
-0.8767091166743E+00
-0.7234520752244E+00
-0.5380602469565E+00
-0.3094235585176E+00
-0.2510759654960E-01
 0.3248362914095E+00
 0.7428248043226E+00
 0.1218260640110E+01
-0.4024011319263E+01
-0.3923185636192E+01
-0.3798852990400E+01
-0.3666744864117E+01
-0.3537760174913E+01
-0.3417177760725E+01
-0.3306270304915E+01
-0.3204232469114E+01
-0.3109533442138E+01
-0.3020605566835E+01
-0.2936095011513E+01
-0.2854899306439E+01
-0.2776118685366E+01
-0.2698974590727E+01
-0.2622719178944E+01
-0.2546569500070E+01
-0.2469888146664E+01
-0.2392420678617E+01
-0.2314026825500E+01
-0.2234457400319E+01
-0.2153537064169E+01
-0.2071282071254E+01
-0.1987885288223E+01
-0.1903633314987E+01
-0.1818810351338E+01
-0.1733616988320E+01
-0.1648101098595E+01
-0.1562034191901E+01
-0.1474763866811E+01
-0.1385123324482E+01
-0.1291292233493E+01
-0.1190562700995E+01
-0.1079059649616E+01
-0.9514112985727E+00
-0.8003457412160E+00
-0.6161195726614E+00
-0.3856957404660E+00
-0.9363423811787E-01
 0.2735829308021E+00
 0.7208804638918E+00
 0.1236218434324E+01
-0.4222500955897E+01
-0.4107509029734E+01
-0.3967081120385E+01
-0.3820706053773E+01
-0.3680824952518E+01
-0.3552535974126E+01
-0.3436238270753E+01
-0.3330255658268E+01
-0.3232439033776E+01
-0.3140846216257E+01
-0.3053914890276E+01
-0.2970435702748E+01
-0.2889461273636E+01
-0.2810193435481E+01
-0.2731863407205E+01
-0.2653638536326E+01
-0.2574796771829E+01
-0.2494987645480E+01
-0.2413991128096E+01
-0.2331520890179E+01
-0.2247425695846E+01
-0.2161799917028E+01
-0.2074946507039E+01
-0.1987273490566E+01
-0.1899186782873E+01
-0.1811008105934E+01
-0.1722911600268E+01
-0.1634805327136E+01
-0.1546183966411E+01
-0.1456032511789E+01
-0.1362670153390E+01
-0.1263485606965E+01
-0.1154610433867E+01
-0.1030512013656E+01
-0.8834479497130E+00
-0.7026150387715E+00
-0.4728119957056E+00
-0.1748713023015E+00
 0.2096412801291E+00
 0.6897291400236E+00
 0.1252240497216E+01
-0.4427652191621E+01
-0.4295516077459E+01
-0.4136018828906E+01
-0.3973526458961E+01
-0.3822071010991E+01
-0.3686109371816E+01
-0.3564725008957E+01
-0.3455131484218E+01
-0.3354480292710E+01
-0.3260443210763E+01
-0.3171258724760E+01
-0.3085625343958E+01
-0.3002565074814E+01
-0.2921278271554E+01
-0.2840990691801E+01
-0.2760824658410E+01
-0.2679960072177E+01
-0.2597922641106E+01
-0.2514386074990E+01
-0.2429016580708E+01
-0.2341695875460E+01
-0.2252616884409E+01
-0.2162215004576E+01
-0.2071038222053E+01
-0.1979627925957E+01
-0.1888438202003E+01
-0.1797782147254E+01
-0.1707723102636E+01
-0.1617931275243E+01
-0.1527583271642E+01
-0.1435189465516E+01
-0.1338299705391E+01
-0.1233131989157E+01
-0.1114090747698E+01
-0.9730734498804E+00
-0.7982867349476E+00
-0.5721946189401E+00
-0.2710876115710E+00
 0.1302073940847E+00
 0.6472388700670E+00
 0.1266690022651E+01
-0.4640729647825E+01
-0.4487491361196E+01
-0.4305154730722E+01
-0.4124464410805E+01
-0.3960905025787E+01
-0.3817537318188E+01
-0.3691539375724E+01
-0.3578763690381E+01
-0.3475610308157E+01
-0.3379374549303E+01
-0.3288115530177E+01
-0.3200460050983E+01
-0.3115420595038E+01
-0.3032218876997E+01
-0.2950096437694E+01
-0.2868139030609E+01
-0.2785412178057E+01
-0.2701280281987E+01
-0.2615274668988E+01
-0.2527000883407E+01
-0.2436386424712E+01
-0.2343749509351E+01
-0.2249685017059E+01
-0.2154901296241E+01
-0.2060088596452E+01
-0.1965843016228E+01
-0.1872627653221E+01
-0.1780679481137E+01
-0.1689874560145E+01
-0.1599625210479E+01
-0.1508691257978E+01
-0.1414857987473E+01
-0.1314525279872E+01
-0.1202160813748E+01
-0.1069470040370E+01
-0.9038523005746E+00
-0.6854149169074E+00
-0.3850734752590E+00
 0.3150477646530E-01
 0.5902924158846E+00
 0.1280001891229E+01
-0.4863412720006E+01
-0.4683679722742E+01
-0.4473668632350E+01
-0.4272516087014E+01
-0.4096625533082E+01
-0.3946448155016E+01
-0.3816506133652E+01
-0.3701072202597E+01
-0.3595795012147E+01
-0.3497627858266E+01
-0.3404480981177E+01
-0.3314935350795E+01
-0.3228018629223E+01
-0.3143001769236E+01
-0.3059171073409E+01
-0.2975590352081E+01
-0.2891191144465E+01
-0.2805125353655E+01
-0.2716732135070E+01
-0.2625539831029E+01
-0.2531540989367E+01
-0.2435214674104E+01
-0.2337348025876E+01
-0.2238831894590E+01
-0.2140517768918E+01
-0.2043150947634E+01
-0.1947352961256E+01
-0.1853551740307E+01
-0.1761861340644E+01
-0.1671978417369E+01
-0.1582977189179E+01
-0.1492962170574E+01
-0.1398625561184E+01
-0.1294651856181E+01
-0.1172783830351E+01
-0.1019945375344E+01
-0.8141371851974E+00
-0.5202255224806E+00
-0.9161577317220E-01
 0.5141868332301E+00
 0.1292612401523E+01
-0.5098001767206E+01
-0.4884208591347E+01
-0.4640250768513E+01
-0.4416335363957E+01
-0.4228439302995E+01
-0.4072489607086E+01
-0.3939479846866E+01
-0.3821998508869E+01
-0.3715016163231E+01
-0.3615202064962E+01
-0.3520358454783E+01
-0.3429051207851E+01
-0.3340350354156E+01
-0.3253608964283E+01
-0.3168197509017E+01
-0.3083182731576E+01
-0.2997339341930E+01
-0.2909535731892E+01
-0.2818849280431E+01
-0.2724711026791E+01
-0.2627208346399E+01
-0.2527029027922E+01
-0.2425192017262E+01
-0.2322794085808E+01
-0.2220858495100E+01
-0.2120283393056E+01
-0.2021853270119E+01
-0.1926202440682E+01
-0.1833716961344E+01
-0.1744431373777E+01
-0.1657805885722E+01
-0.1572356874439E+01
-0.1485192777059E+01
-0.1391392480717E+01
-0.1283020898543E+01
-0.1147027851557E+01
-0.9599924692209E+00
-0.6805801492357E+00
-0.2462377856695E+00
 0.4115940379979E+00
 0.1304731131263E+01
-0.5347770961594E+01
-0.5088919329472E+01
-0.4802798112795E+01
-0.4554151736054E+01
-0.4355520877117E+01
-0.4195372794157E+01
-0.4060356421879E+01
-0.3941510395167E+01
-0.3833274319654E+01
-0.3732108799561E+01
-0.3635760005889E+01
-0.3542812916475E+01
-0.3452407715451E+01
-0.3364016581936E+01
-0.3277147500135E+01
-0.3190912315865E+01
-0.3103903868407E+01
-0.3014606602912E+01
-0.2921737053995E+01
-0.2824605849064E+01
-0.2723442346641E+01
-0.2619207996256E+01
-0.2513200483508E+01
-0.2406746192135E+01
-0.2301047861821E+01
-0.2197155353545E+01
-0.2096014953203E+01
-0.1998479687548E+01
-0.1905243800277E+01
-0.1816738964067E+01
-0.1732889460880E+01
-0.1652724042962E+01
-0.1573902487106E+01
-0.1492094205967E+01
-0.1400011149320E+01
-0.1285280925915E+01
-0.1124341220454E+01
-0.8706949227333E+00
-0.4421264427373E+00
 0.2707158539800E+00
 0.1315699707335E+01
-0.5617618200235E+01
-0.5296985420537E+01
-0.4957891957837E+01
-0.4683739239760E+01
-0.4477152772429E+01
-0.4314917798446E+01
-0.4179077033365E+01
-0.4059607554167E+01
-0.3950591363323E+01
-0.3848373351735E+01
-0.3750707267267E+01
-0.3656232150193E+01
-0.3564184411229E+01
-0.3474193552246E+01
-0.3385976433716E+01
-0.3298761810479E+01
-0.3210936984238E+01
-0.3120456827889E+01
-0.3025532816033E+01
-0.2925331732429E+01
-0.2820301176938E+01
-0.2711764255287E+01
-0.2601351151076E+01
-0.2490639996781E+01
-0.2381016963775E+01
-0.2273676402197E+01
-0.2169716936571E+01
-0.2070217748207E+01
-0.1976220563556E+01
-0.1888620617739E+01
-0.1807890234345E+01
-0.1733677627720E+01
-0.1664337919355E+01
-0.1596337213847E+01
-0.1523380757125E+01
-0.1434499957279E+01
-0.1307890614667E+01
-0.1095161820124E+01
-0.6925876817374E+00
 0.7193613454431E-01
 0.1322269194557E+01
-0.5915385615734E+01
-0.5505980366141E+01
-0.5099893192707E+01
-0.4802612058005E+01
-0.4592980083993E+01
-0.4431057312851E+01
-0.4295628217271E+01
-0.4176330473934E+01
-0.4067010668883E+01
-0.3964035668429E+01
-0.3865232080047E+01
-0.3769328069802E+01
-0.3675677929031E+01
-0.3584101106362E+01
-0.3494615861432E+01
-0.3406691232066E+01
-0.3318496599565E+01
-0.3227239051196E+01
-0.3130409002489E+01
-0.3027014004442E+01
-0.2917845467938E+01
-0.2804705591800E+01
-0.2689614473303E+01
-0.2574419744356E+01
-0.2460690801796E+01
-0.2349752146377E+01
-0.2242832922229E+01
-0.2141238080226E+01
-0.2046401507833E+01
-0.1959758587991E+01
-0.1882417947161E+01
-0.1814758138730E+01
-0.1755983725999E+01
-0.1703559593106E+01
-0.1652530575269E+01
-0.1594046039054E+01
-0.1510209157284E+01
-0.1357341050109E+01
-0.1014980740508E+01
-0.2183884242650E+00
 0.1314078922566E+01
-0.6254920121512E+01
-0.5709322329865E+01
-0.5219481595305E+01
-0.4908969962777E+01
-0.4703273253253E+01
-0.4543725912563E+01
-0.4410078519098E+01
-0.4291761449103E+01
-0.4182595502022E+01
-0.4079152283527E+01
-0.3979376155884E+01
-0.3882128411296E+01
-0.3786892982521E+01
-0.3693694818685E+01
-0.3602962980851E+01
-0.3514621416520E+01
-0.3426646971691E+01
-0.3335156811254E+01
-0.3236584871207E+01
-0.3129796001667E+01
-0.3016134686857E+01
-0.2898032183480E+01
-0.2777952006078E+01
-0.2658020881965E+01
-0.2539987847275E+01
-0.2425286366516E+01
-0.2315235035697E+01
-0.2211350732031E+01
-0.2115515276959E+01
-0.2029796221578E+01
-0.1956028224139E+01
-0.1895426839987E+01
-0.1848218635871E+01
-0.1813060282282E+01
-0.1786603141450E+01
-0.1762879054566E+01
-0.1729471041164E+01
-0.1656700059869E+01
-0.1429201280399E+01
-0.6593666042870E+00
 0.1261085194310E+01
-0.6664525379740E+01
-0.5888007006690E+01
-0.5302368998467E+01
-0.5004636165214E+01
-0.4808378384215E+01
-0.4652798659052E+01
-0.4522683261851E+01
-0.4405975581011E+01
-0.4297447519653E+01
-0.4193790335022E+01
-0.4093193011404E+01
-0.3994668815816E+01
-0.3897846282417E+01
-0.3802933265832E+01
-0.3710867021004E+01
-0.3622402082722E+01
-0.3535460376997E+01
-0.3444495911760E+01
-0.3344340904632E+01
-0.3233834763281E+01
-0.3115221633218E+01
-0.2991733409361E+01
-0.2866314899594E+01
-0.2741368614569E+01
-0.2618818538486E+01
-0.2500184062245E+01
-0.2386800188453E+01
-0.2280355917745E+01
-0.2183262114313E+01
-0.2098337471045E+01
-0.2028220111910E+01
-0.1975067464265E+01
-0.1940287995814E+01
-0.1924038600285E+01
-0.1924457136679E+01
-0.1939472148652E+01
-0.1963187591240E+01
-0.1985207544648E+01
-0.1947738968699E+01
-0.1357117612967E+01
 0.1080389935794E+01
-0.7216280940596E+01
-0.5977256622856E+01
-0.5338130652617E+01
-0.5099496255076E+01
-0.4905136281504E+01
-0.4759634364908E+01
-0.4633354770726E+01
-0.4519201216841E+01
-0.4411660140053E+01
-0.4308039404678E+01
-0.4206745123830E+01
-0.4106992452179E+01
-0.4008567539227E+01
-0.3911802439725E+01
-0.3818118234839E+01
-0.3729741690958E+01
-0.3645023583561E+01
-0.3555688007107E+01
-0.3454028690135E+01
-0.3339288642170E+01
-0.3215146297880E+01
-0.3085783821354E+01
-0.2954642938106E+01
-0.2824377054955E+01
-0.2697080685589E+01
-0.2574355313332E+01
-0.2457422957533E+01
-0.2348043946974E+01
-0.2249308026098E+01
-0.2164946755877E+01
-0.2098441778389E+01
-0.2052967091193E+01
-0.2031348660633E+01
-0.2035382497987E+01
-0.2065370186219E+01
-0.2120230248645E+01
-0.2211282341873E+01
-0.2326623125287E+01
-0.2546830774942E+01
-0.2478944831418E+01
 0.4958134223537E+00
-0.8160738404289E+01
-0.5690827648669E+01
-0.5433917048891E+01
-0.5165859159141E+01
-0.5001488612550E+01
-0.4862872444879E+01
-0.4742789512387E+01
-0.4631523147443E+01
-0.4525391985722E+01
-0.4421992021013E+01
-0.4320106685572E+01
-0.4219154716325E+01
-0.4119080208687E+01
-0.4020364825755E+01
-0.3924483262286E+01
-0.3836018794737E+01
-0.3755471134212E+01
-0.3669456180042E+01
-0.3566033321565E+01
-0.3446308636636E+01
-0.3315925590703E+01
-0.3180140286067E+01
-0.3042862061819E+01
-0.2906954026394E+01
-0.2774646103245E+01
-0.2647716662819E+01
-0.2527049011748E+01
-0.2414184512202E+01
-0.2313271468028E+01
-0.2229160462259E+01
-0.2166083255686E+01
-0.2128346189727E+01
-0.2120340824978E+01
-0.2146076512282E+01
-0.2207377224124E+01
-0.2306365559066E+01
-0.2453580764472E+01
-0.2722507734566E+01
-0.3025149887688E+01
-0.4327911594175E+01
-0.1057984343952E+01
 0.1161346872983E+01
 0.1132100735039E+01
 0.1090743914306E+01
 0.1040761240081E+01
 0.9863377232255E+00
 0.9301951126268E+00
 0.8744558838569E+00
 0.8206642204481E+00
 0.7699000716942E+00
 0.7228213764468E+00
 0.6796967564623E+00
 0.6404464530436E+00
 0.6050032061927E+00
 0.5727519282249E+00
 0.5429124864795E+00
 0.5147714845522E+00
 0.4873524979776E+00
 0.4612837419322E+00
 0.4325086981767E+00
 0.4472831336475E+00
 0.1123083913646E+01
 0.1098737238178E+01
 0.1061210409129E+01
 0.1015761334612E+01
 0.9656255626386E+00
 0.9135233230271E+00
 0.8614631741521E+00
 0.8109662633619E+00
 0.7631123869182E+00
 0.7185853032687E+00
 0.6776920139456E+00
 0.6404736384042E+00
 0.6066922048839E+00
 0.5758314758272E+00
 0.5472050451294E+00
 0.5200212696145E+00
 0.4939313976181E+00
 0.4680642030617E+00
 0.4517552433137E+00
 0.4303639422454E+00
 0.1088685384091E+01
 0.1066940035037E+01
 0.1033260501474E+01
 0.9916955196797E+00
 0.9455227208415E+00
 0.8971861810483E+00
 0.8486272294994E+00
 0.8013135286452E+00
 0.7563137310424E+00
 0.7143218834240E+00
 0.6756875281700E+00
 0.6404513715230E+00
 0.6083773973699E+00
 0.5789738407765E+00
 0.5515893278729E+00
 0.5256227048729E+00
 0.5005427547695E+00
 0.4779863020350E+00
 0.4565896589073E+00
 0.4319153596353E+00
 0.1056774311943E+01
 0.1037164136220E+01
 0.1006597576669E+01
 0.9685803039808E+00
 0.9260060896131E+00
 0.8811935902205E+00
 0.8359613329121E+00
 0.7917227156827E+00
 0.7495192448004E+00
 0.7100461573581E+00
 0.6736625944681E+00
 0.6404172262591E+00
 0.6100803552094E+00
 0.5821834052118E+00
 0.5561482575199E+00
 0.5314013626656E+00
 0.5078998218225E+00
 0.4853777686600E+00
 0.4625545770172E+00
 0.4367567331157E+00
 0.1027034539307E+01
 0.1009131095842E+01
 0.9812220764593E+00
 0.9463359307126E+00
 0.9070658779088E+00
 0.8655406679053E+00
 0.8234727272865E+00
 0.7822038109516E+00
 0.7427396972487E+00
 0.7057608936843E+00
 0.6716252937072E+00
 0.6403846719790E+00
 0.6118178913469E+00
 0.5854881168330E+00
 0.5608539992340E+00
 0.5374605990956E+00
 0.5149214481551E+00
 0.4925833407536E+00
 0.4692749128745E+00
 0.4432953732288E+00
 0.9991944692711E+00
 0.9826637122302E+00
 0.9570250667743E+00
 0.9249210546953E+00
 0.8886698536863E+00
 0.8502188046283E+00
 0.8111606901236E+00
 0.7727614854977E+00
 0.7359798020287E+00
 0.7014709946958E+00
 0.6695823938620E+00
 0.6403644317385E+00
 0.6136053920048E+00
 0.5888908954757E+00
 0.5657204725748E+00
 0.5435854044481E+00
 0.5219248757808E+00
 0.4999573968671E+00
 0.4767065888030E+00
 0.4508503892061E+00
 0.9730393728100E+00
 0.9575958668274E+00
 0.9339022619791E+00
 0.9042739313167E+00
 0.8707857063274E+00
 0.8352103565430E+00
 0.7990191316146E+00
 0.7633948646163E+00
 0.7292413096205E+00
 0.6971797109909E+00
 0.6675393910672E+00
 0.6403650357420E+00
 0.6154499950436E+00
 0.5923971944979E+00
 0.5707047242318E+00
 0.5498088623025E+00
 0.5290555829689E+00
 0.5076540497111E+00
 0.4847407426944E+00
 0.4591817429139E+00
 0.9483823971970E+00
 0.9337786060912E+00
 0.9117487358892E+00
 0.8843281047442E+00
 0.8533733436137E+00
 0.8204927670950E+00
 0.7870361750759E+00
 0.7540988131420E+00
 0.7225228314979E+00
 0.6928882486521E+00
 0.6654999000371E+00
 0.6403914417662E+00
 0.6173563173561E+00
 0.5960007220798E+00
 0.5758089197795E+00
 0.5561754522046E+00
 0.5364056904758E+00
 0.5157217837665E+00
 0.4933210583462E+00
 0.4681760654355E+00
 0.9250565935697E+00
 0.9110744435715E+00
 0.8904624869114E+00
 0.8650136179968E+00
 0.8363876271575E+00
 0.8060380955144E+00
 0.7751953445993E+00
 0.7448641863896E+00
 0.7158199667351E+00
 0.6885954529327E+00
 0.6634650911881E+00
 0.6404461143831E+00
 0.6193251000405E+00
 0.5997028448616E+00
 0.5810471917386E+00
 0.5627258274441E+00
 0.5440262903236E+00
 0.5241829593433E+00
 0.5024182665496E+00
 0.4777787820487E+00
 0.9029093410209E+00
 0.8893548588347E+00
 0.8699442670626E+00
 0.8462587858391E+00
 0.8197793783554E+00
 0.7918139159615E+00
 0.7634759268270E+00
 0.7356782320872E+00
 0.7091253431665E+00
 0.6842976537515E+00
 0.6614338269813E+00
 0.6405291312508E+00
 0.6213573503267E+00
 0.6035088987516E+00
 0.5864364547582E+00
 0.5694901768898E+00
 0.5519484112000E+00
 0.5330508271955E+00
 0.5120257104714E+00
 0.4879638100469E+00
 0.8817988266554E+00
 0.8684982405400E+00
 0.8500973249108E+00
 0.8279908838760E+00
 0.8034963477053E+00
 0.7777839762353E+00
 0.7518534429726E+00
 0.7265248312911E+00
 0.7024287001329E+00
 0.6799886863743E+00
 0.6594027424045E+00
 0.6406391550715E+00
 0.6234542976174E+00
 0.6074254462498E+00
 0.5919916157409E+00
 0.5764902102273E+00
 0.5601923118161E+00
 0.5423362123564E+00
 0.5221464245115E+00
 0.4987344053062E+00
 0.8615914905076E+00
 0.8483883419778E+00
 0.8308269546721E+00
 0.8101364910318E+00
 0.7874838279269E+00
 0.7639087707564E+00
 0.7403000423956E+00
 0.7173847347298E+00
 0.6957170060604E+00
 0.6756599717710E+00
 0.6573665096931E+00
 0.6407736231529E+00
 0.6256167592479E+00
 0.6114582752493E+00
 0.5977243213698E+00
 0.5837413348014E+00
 0.5687723220283E+00
 0.5520489631846E+00
 0.5327858937965E+00
 0.5101063681624E+00
 0.8421600750873E+00
 0.8289130393378E+00
 0.8120400338559E+00
 0.7926216094592E+00
 0.7716850596377E+00
 0.7501459742540E+00
 0.7287848401788E+00
 0.7082357772862E+00
 0.6889745839523E+00
 0.6713006303253E+00
 0.6553179376575E+00
 0.6409286184039E+00
 0.6278444301986E+00
 0.6156113925009E+00
 0.6036428271885E+00
 0.5912543204896E+00
 0.5776990566681E+00
 0.5621979580746E+00
 0.5439525912162E+00
 0.5220939050236E+00
 0.8233820695946E+00
 0.8099633067669E+00
 0.7936445749037E+00
 0.7753716685984E+00
 0.7560414887704E+00
 0.7364507692701E+00
 0.7172741996963E+00
 0.6990530774953E+00
 0.6821832426612E+00
 0.6668975644821E+00
 0.6532479633052E+00
 0.6410986340110E+00
 0.6301353768615E+00
 0.6198865731775E+00
 0.6097522155552E+00
 0.5990363369549E+00
 0.5869803540159E+00
 0.5727914308176E+00
 0.5556562284257E+00
 0.5347096536130E+00
 0.8051384269107E+00
 0.7914323467602E+00
 0.7755493027283E+00
 0.7583114614560E+00
 0.7404929235747E+00
 0.7227760879856E+00
 0.7057319637685E+00
 0.6898092144154E+00
 0.6753223916438E+00
 0.6624355038659E+00
 0.6511455877014E+00
 0.6412763544106E+00
 0.6324857202723E+00
 0.6242831922731E+00
 0.6160546461314E+00
 0.6070915362164E+00
 0.5966217572441E+00
 0.5838365889803E+00
 0.5679064061082E+00
 0.5479660762533E+00
 0.7873124759518E+00
 0.7732148350920E+00
 0.7576632578110E+00
 0.7413650399409E+00
 0.7249776208172E+00
 0.7090727866946E+00
 0.6941196385837E+00
 0.6804743757752E+00
 0.6683691324060E+00
 0.6578970233595E+00
 0.6489978004004E+00
 0.6414524886664E+00
 0.6348894551983E+00
 0.6287981821460E+00
 0.6225495515980E+00
 0.6154213843894E+00
 0.6066266188551E+00
 0.5953391346527E+00
 0.5807118459348E+00
 0.5618757229245E+00
 0.7697889825344E+00
 0.7552062567001E+00
 0.7398954281988E+00
 0.7244555910284E+00
 0.7094323278786E+00
 0.6952897733151E+00
 0.6823965404618E+00
 0.6710164796959E+00
 0.6612983290489E+00
 0.6532625463662E+00
 0.6467895103333E+00
 0.6416156512039E+00
 0.6373383460448E+00
 0.6334260285977E+00
 0.6292337628216E+00
 0.6240248055637E+00
 0.6169960282173E+00
 0.6073028561916E+00
 0.5940798185004E+00
 0.5764508182478E+00
 0.7524533217294E+00
 0.7373023120725E+00
 0.7221544068908E+00
 0.7075053032896E+00
 0.6937922955665E+00
 0.6813741010700E+00
 0.6705199139023E+00
 0.6614012756225E+00
 0.6540826657537E+00
 0.6485103460134E+00
 0.6445034941505E+00
 0.6417522834437E+00
 0.6398218690275E+00
 0.6381587780841E+00
 0.6361015733140E+00
 0.6328982193007E+00
 0.6277286970217E+00
 0.6197292651889E+00
 0.6080155882593E+00
 0.5917022274343E+00
 0.7351907374400E+00
 0.7193983804122E+00
 0.7043480728959E+00
 0.6904352307718E+00
 0.6779912722949E+00
 0.6672710378336E+00
 0.6584450269558E+00
 0.6515924278406E+00
 0.6466926941084E+00
 0.6436165466886E+00
 0.6421203590448E+00
 0.6418466016426E+00
 0.6423271775463E+00
 0.6429860403011E+00
 0.6431447611893E+00
 0.6420355157221E+00
 0.6388208492396E+00
 0.6326173232937E+00
 0.6225216634908E+00
 0.6076384110199E+00
 0.7178856703164E+00
 0.7013890291268E+00
 0.6863832943952E+00
 0.6731651596020E+00
 0.6619614886018E+00
 0.6529241204880E+00
 0.6461252517552E+00
 0.6415515877153E+00
 0.6390968750289E+00
 0.6385551282457E+00
 0.6396185171902E+00
 0.6418805615881E+00
 0.6448390789033E+00
 0.6478949852112E+00
 0.6503525829020E+00
 0.6514280103363E+00
 0.6502660697268E+00
 0.6459633221756E+00
 0.6375972116025E+00
 0.6242636120005E+00
 0.7004211394279E+00
 0.6831675613635E+00
 0.6681656525861E+00
 0.6556134811870E+00
 0.6456336389085E+00
 0.6382752019397E+00
 0.6335121370178E+00
 0.6312384598746E+00
 0.6312616183854E+00
 0.6332979328881E+00
 0.6369741677223E+00
 0.6418338326424E+00
 0.6473400167020E+00
 0.6528703354068E+00
 0.6577117594580E+00
 0.6610643755223E+00
 0.6620551961880E+00
 0.6597605472798E+00
 0.6532384802100E+00
 0.6415757220224E+00
 0.6826781655706E+00
 0.6646255946498E+00
 0.6495991847913E+00
 0.6376970749676E+00
 0.6289368661784E+00
 0.6232644974429E+00
 0.6205554787494E+00
 0.6206108671195E+00
 0.6231513227647E+00
 0.6278146740222E+00
 0.6341612822938E+00
 0.6416837758966E+00
 0.6498100556345E+00
 0.6578943601052E+00
 0.6652064586751E+00
 0.6709305958260E+00
 0.6741761472164E+00
 0.6739992128647E+00
 0.6694378930295E+00
 0.6595710631803E+00
 0.6645352261749E+00
 0.6456526648711E+00
 0.6305861458051E+00
 0.6193312034634E+00
 0.6117987546406E+00
 0.6078306364364E+00
 0.6072033951155E+00
 0.6096248186132E+00
 0.6147284174459E+00
 0.6220729459190E+00
 0.6311515901526E+00
 0.6414054213242E+00
 0.6522268670384E+00
 0.6629468719904E+00
 0.6728182924491E+00
 0.6810099194392E+00
 0.6866138660018E+00
 0.6886660617971E+00
 0.6861845283323E+00
 0.6782398484423E+00
 0.6458677326169E+00
 0.6261358503660E+00
 0.6110267866490E+00
 0.6004294222818E+00
 0.5941453355976E+00
 0.5919107260637E+00
 0.5934024116329E+00
 0.5982345863282E+00
 0.6059534091587E+00
 0.6160382334283E+00
 0.6279145587516E+00
 0.6409714389502E+00
 0.6545657118513E+00
 0.6680052322948E+00
 0.6805263272883E+00
 0.6912828591515E+00
 0.6993502131066E+00
 0.7037444050351E+00
 0.7034628870609E+00
 0.6975691977523E+00
 0.6265475205629E+00
 0.6059594108435E+00
 0.5908191497331E+00
 0.5809035075396E+00
 0.5759011110593E+00
 0.5754404323161E+00
 0.5790975628552E+00
 0.5863927951318E+00
 0.5967849369207E+00
 0.6096739215696E+00
 0.6244173658457E+00
 0.6403520975829E+00
 0.6567994171472E+00
 0.6730443636030E+00
 0.6883071275550E+00
 0.7017272157353E+00
 0.7123639820287E+00
 0.7192138833830E+00
 0.7212533784862E+00
 0.7175412941622E+00
 0.6064423439862E+00
 0.5850044358136E+00
 0.5698588796870E+00
 0.5606634034510E+00
 0.5569891001936E+00
 0.5583540848742E+00
 0.5642325169485E+00
 0.5740505325758E+00
 0.5871798394397E+00
 0.6029413058471E+00
 0.6206248584339E+00
 0.6395152020136E+00
 0.6588983368754E+00
 0.6780367711579E+00
 0.6961348328410E+00
 0.7123181736363E+00
 0.7256309143206E+00
 0.7350505209161E+00
 0.7395320946568E+00
 0.7381325556029E+00
 0.5854153617776E+00
 0.5631484966814E+00
 0.5480390490827E+00
 0.5396171934188E+00
 0.5373309141705E+00
 0.5405848121051E+00
 0.5487497299822E+00
 0.5611574856228E+00
 0.5770932419171E+00
 0.5957996068395E+00
 0.6164994947835E+00
 0.6384259960830E+00
 0.6608302818100E+00
 0.6829525644359E+00
 0.7039812864476E+00
 0.7230284686764E+00
 0.7391238272347E+00
 0.7512267235200E+00
 0.7582705043001E+00
 0.7593136469127E+00
 0.5633246057070E+00
 0.5402652959036E+00
 0.5252499996574E+00
 0.5176710998692E+00
 0.5168468669291E+00
 0.5220647139009E+00
 0.5325906374354E+00
 0.5476621128044E+00
 0.5664786722618E+00
 0.5882059972898E+00
 0.6120012682399E+00
 0.6370470146805E+00
 0.6625603909536E+00
 0.6877594612903E+00
 0.7118162194612E+00
 0.7338286744660E+00
 0.7528128373704E+00
 0.7677112774809E+00
 0.7774353101661E+00
 0.7810490681059E+00
 0.5400224040648E+00
 0.5162243005611E+00
 0.5013791945124E+00
 0.4947295152870E+00
 0.4954561268916E+00
 0.5027250768227E+00
 0.5156958865498E+00
 0.5335118577454E+00
 0.5552882186031E+00
 0.5801156578976E+00
 0.6070876216034E+00
 0.6353378700130E+00
 0.6640509069094E+00
 0.6924227434880E+00
 0.7196075078276E+00
 0.7446876683286E+00
 0.7666657514644E+00
 0.7844694582088E+00
 0.7969881993525E+00
 0.8032971830042E+00
 0.5153547519499E+00
 0.4908903545269E+00
 0.4763110881876E+00
 0.4706950784251E+00
 0.4730769243929E+00
 0.4824966416603E+00
 0.4980056141624E+00
 0.5186534076961E+00
 0.5434727388293E+00
 0.5714818827438E+00
 0.6017133686447E+00
 0.6332549509970E+00
 0.6652607771079E+00
 0.6969050719042E+00
 0.7273214784256E+00
 0.7555733459107E+00
 0.7806487375786E+00
 0.8014632206113E+00
 0.8168855752947E+00
 0.8260097135594E+00
 0.4891605799609E+00
 0.4641232474781E+00
 0.4499270137381E+00
 0.4454688101772E+00
 0.4496268325659E+00
 0.4613099359784E+00
 0.4794597757273E+00
 0.5030330015120E+00
 0.5309821378056E+00
 0.5622562772291E+00
 0.5958306841138E+00
 0.6307510599777E+00
 0.6661450003679E+00
 0.7011660066269E+00
 0.7349232151731E+00
 0.7664537411294E+00
 0.7947274741008E+00
 0.8186515874002E+00
 0.8370779940780E+00
 0.8491311040532E+00
 0.4612708693081E+00
 0.4357772129566E+00
 0.4221050920595E+00
 0.4189503326473E+00
 0.4250231428927E+00
 0.4390956792759E+00
 0.4599985198479E+00
 0.4865967728287E+00
 0.5177657043618E+00
 0.5523890759874E+00
 0.5893892556271E+00
 0.6277750710678E+00
 0.6666536358302E+00
 0.7051609298938E+00
 0.7423766261593E+00
 0.7772988275615E+00
 0.8088692189337E+00
 0.8359912611149E+00
 0.8575093169536E+00
 0.8725967362598E+00
 0.4315075127109E+00
 0.4057003111960E+00
 0.3927201756492E+00
 0.3910382102656E+00
 0.3991833686252E+00
 0.4157852652997E+00
 0.4395625969836E+00
 0.4692911115452E+00
 0.5037724743250E+00
 0.5418295828941E+00
 0.5823367074108E+00
 0.6242718640241E+00
 0.6667304988070E+00
 0.7088388939791E+00
 0.7496436248634E+00
 0.7880831122242E+00
 0.8230472677147E+00
 0.8534373775509E+00
 0.8781143788676E+00
 0.8963250749105E+00
 0.3996818001638E+00
 0.3737336562305E+00
 0.3616438793394E+00
 0.3616305287907E+00
 0.3720259355094E+00
 0.3913113524704E+00
 0.4180937957585E+00
 0.4510630391711E+00
 0.4889516186458E+00
 0.5305266159001E+00
 0.5746193865907E+00
 0.6201829000999E+00
 0.6663120938797E+00
 0.7121386543845E+00
 0.7566808939493E+00
 0.7987885273602E+00
 0.8372495844167E+00
 0.8709485489320E+00
 0.8988073683563E+00
 0.9202022118538E+00
 0.3655921377397E+00
 0.3397102647429E+00
 0.3287448330284E+00
 0.3306257606058E+00
 0.3434711614694E+00
 0.3656084681333E+00
 0.3955353971910E+00
 0.4318605643378E+00
 0.4732528312873E+00
 0.5184290258192E+00
 0.5661829404722E+00
 0.6154483423398E+00
 0.6653278773127E+00
 0.7149837406448E+00
 0.7634300793621E+00
 0.8094059054561E+00
 0.8514949369843E+00
 0.8885008335049E+00
 0.9194727621345E+00
 0.9440477658456E+00
 0.3290201810290E+00
 0.3034537949352E+00
 0.2938890715186E+00
 0.2979247196039E+00
 0.3134421946466E+00
 0.3386138546665E+00
 0.3718324378060E+00
 0.4116330919664E+00
 0.4566267064458E+00
 0.5054860711531E+00
 0.5569731546336E+00
 0.6100073120910E+00
 0.6637082096273E+00
 0.7172763448073E+00
 0.7698003663094E+00
 0.8199189638659E+00
 0.8658672563894E+00
 0.9061226305355E+00
 0.9399576837145E+00
 0.9675805535477E+00
 0.2897252633689E+00
 0.2647741329892E+00
 0.2569443878290E+00
 0.2634313843122E+00
 0.2818677252658E+00
 0.3102668393699E+00
 0.3469327541726E+00
 0.3903314486373E+00
 0.4390250602880E+00
 0.4916482327999E+00
 0.5469359399133E+00
 0.6038000223141E+00
 0.6613812169949E+00
 0.7189353157225E+00
 0.7756091856666E+00
 0.8302722379615E+00
 0.8805278427307E+00
 0.9240390634824E+00
 0.9600409403163E+00
 0.9903095958187E+00
 0.2474176683738E+00
 0.2234773685687E+00
 0.2177738917630E+00
 0.2270694022468E+00
 0.2486728258585E+00
 0.2805138659327E+00
 0.3207865163742E+00
 0.3679078930109E+00
 0.4204009592744E+00
 0.4768678926187E+00
 0.5360193456863E+00
 0.5967640748621E+00
 0.6582818719292E+00
 0.7198684241772E+00
 0.7807812609144E+00
 0.8399317367349E+00
 0.8959138567739E+00
 0.9428263774017E+00
 0.9796794398614E+00
 0.1010995452569E+01
 0.2017850516763E+00
 0.1792680897218E+00
 0.1763615831198E+00
 0.1887121485351E+00
 0.2138054706374E+00
 0.2493025566994E+00
 0.2933497522213E+00
 0.3443156862979E+00
 0.4007056747511E+00
 0.4611027428385E+00
 0.5241750413710E+00
 0.5888383480472E+00
 0.6543312263604E+00
 0.7200242619770E+00
 0.7851644880485E+00
 0.8489787233238E+00
 0.9097838866825E+00
 0.9666652186663E+00
 0.9982934796311E+00
 0.1026943246403E+01
 0.1513815407758E+00
 0.1326981623539E+00
 0.1323316964037E+00
 0.1483372392455E+00
 0.1771992548842E+00
 0.2165950907088E+00
 0.2645783151810E+00
 0.3195167607300E+00
 0.3798846167168E+00
 0.4442986479984E+00
 0.5113931240718E+00
 0.5799457227900E+00
 0.6494419223564E+00
 0.7193180873485E+00
 0.7887953417503E+00
 0.8569955592634E+00
 0.9233548923619E+00
 0.9843872068922E+00
 0.1044899952444E+01
 0.1010905556489E+01
 0.6990433270680E+01
 0.1584664547988E+01
 0.1180992511791E+01
 0.9291338897683E+00
 0.7604925292399E+00
 0.6206401039368E+00
 0.5055170533808E+00
 0.4090195481360E+00
 0.3264051991464E+00
 0.2553199427029E+00
 0.1948453861181E+00
 0.1397772908357E+00
 0.8976199797808E-01
 0.5847222982651E-01
 0.4310282201608E-01
 0.3538291102381E-01
 0.3203944695320E-01
 0.2905795059341E-01
 0.2458631687414E-01
 0.1870156028476E-01
 0.4203800889353E+01
 0.2706246576553E+01
 0.1333347617121E+01
 0.1017799402994E+01
 0.8154130208238E+00
 0.6692488563500E+00
 0.5492276614121E+00
 0.4493982854119E+00
 0.3646993398848E+00
 0.2922029067746E+00
 0.2294021650262E+00
 0.1736989731806E+00
 0.1264290408481E+00
 0.9195156968202E-01
 0.7121167545425E-01
 0.5979503585425E-01
 0.5315625970019E-01
 0.4798307437825E-01
 0.4224040822863E-01
 0.3630032664740E-01
 0.3403682820155E+01
 0.2501476002282E+01
 0.1671639532184E+01
 0.1118715633478E+01
 0.8810428085797E+00
 0.7177811395351E+00
 0.5926106487739E+00
 0.4893785406925E+00
 0.4025387189274E+00
 0.3283581205408E+00
 0.2642243684041E+00
 0.2080598585723E+00
 0.1605813265643E+00
 0.1245101614380E+00
 0.1001493543523E+00
 0.8491043924009E-01
 0.7522218617730E-01
 0.6778091107290E-01
 0.6073021924790E-01
 0.5444078254236E-01
 0.2935434459797E+01
 0.2335003755049E+01
 0.1736857773941E+01
 0.1253837656154E+01
 0.9509703536831E+00
 0.7695495941619E+00
 0.6357155117667E+00
 0.5288839004400E+00
 0.4397767542081E+00
 0.3640495542217E+00
 0.2988196537098E+00
 0.2419344909245E+00
 0.1938541352365E+00
 0.1562426231700E+00
 0.1291506266860E+00
 0.1106814338873E+00
 0.9805045275142E-01
 0.8837318282224E-01
 0.7987972090363E-01
 0.7248314044971E-01
 0.2625680497018E+01
 0.2186279907961E+01
 0.1734953466367E+01
 0.1325774710670E+01
 0.1024992207399E+01
 0.8221520832119E+00
 0.6792477878139E+00
 0.5678197730705E+00
 0.4763811508843E+00
 0.3991718229402E+00
 0.3329191388367E+00
 0.2752707423765E+00
 0.2264347866733E+00
 0.1874205638428E+00
 0.1580447178485E+00
 0.1368295071306E+00
 0.1215113146343E+00
 0.1096254991319E+00
 0.9948069537533E-01
 0.9075040044668E-01
 0.2396072288079E+01
 0.2060221857478E+01
 0.1703375383968E+01
 0.1360086361059E+01
 0.1080291997398E+01
 0.8733510789534E+00
 0.7221220284988E+00
 0.6061664195296E+00
 0.5122327323970E+00
 0.4335956376701E+00
 0.3663850472745E+00
 0.3079984211575E+00
 0.2584015418302E+00
 0.2181183337712E+00
 0.1867850172406E+00
 0.1631887801266E+00
 0.1454374225678E+00
 0.1313997424872E+00
 0.1195078604880E+00
 0.1092885854717E+00
 0.2215036119885E+01
 0.1950950900024E+01
 0.1660447699123E+01
 0.1370255291283E+01
 0.1117605973624E+01
 0.9167359145269E+00
 0.7628222918061E+00
 0.6433100543368E+00
 0.5471434312755E+00
 0.4671685549761E+00
 0.3990964837275E+00
 0.3400510297214E+00
 0.2897556003242E+00
 0.2483523660401E+00
 0.2153267526111E+00
 0.1896467613831E+00
 0.1696879155940E+00
 0.1535901210562E+00
 0.1399180987754E+00
 0.1281346733948E+00
 0.2066102482223E+01
 0.1854535876055E+01
 0.1613215903644E+01
 0.1365684116951E+01
 0.1140099706594E+01
 0.9508162004664E+00
 0.7990690862040E+00
 0.6783685990484E+00
 0.5807061460853E+00
 0.4996894715291E+00
 0.4309190981723E+00
 0.3713463023260E+00
 0.3204623700065E+00
 0.2781009341439E+00
 0.2436201418673E+00
 0.2161121104606E+00
 0.1941526839649E+00
 0.1761039417114E+00
 0.1606671284048E+00
 0.1472929921941E+00
 0.1939928885526E+01
 0.1768133871541E+01
 0.1564884094072E+01
 0.1351948132893E+01
 0.1151317747242E+01
 0.9759341808404E+00
 0.8297799840364E+00
 0.7103224975467E+00
 0.6123918749550E+00
 0.5308705978631E+00
 0.4616859527026E+00
 0.4017797927266E+00
 0.3504607505124E+00
 0.3073188766514E+00
 0.2716076691638E+00
 0.2425047942947E+00
 0.2187394190898E+00
 0.1988601023421E+00
 0.1817042792883E+00
 0.1667505517240E+00
 0.1830736263295E+01
 0.1689785646029E+01
 0.1516930657728E+01
 0.1332464963815E+01
 0.1154135684559E+01
 0.9932126439305E+00
 0.8547144505312E+00
 0.7385133112363E+00
 0.6416538690986E+00
 0.5603739290542E+00
 0.4911895190086E+00
 0.4312209534061E+00
 0.3796670959199E+00
 0.3359436306803E+00
 0.2992253633098E+00
 0.2687498405307E+00
 0.2433665716042E+00
 0.2217836553071E+00
 0.2029739164648E+00
 0.1864793804005E+00
 0.1734730039448E+01
 0.1618107023694E+01
 0.1470066264659E+01
 0.1309364296233E+01
 0.1150736161051E+01
 0.1003920977862E+01
 0.8741450888412E+00
 0.7626557098600E+00
 0.6680842033489E+00
 0.5878662826316E+00
 0.5192001130208E+00
 0.4595153564142E+00
 0.4079780555919E+00
 0.3638988151578E+00
 0.3264037606891E+00
 0.2947746507642E+00
 0.2679585006281E+00
 0.2448025452725E+00
 0.2244143806490E+00
 0.2064378721258E+00
 0.1649292129382E+01
 0.1552094867113E+01
 0.1424634717213E+01
 0.1284013113620E+01
 0.1142733055951E+01
 0.1009238011450E+01
 0.8885836880898E+00
 0.7827521815034E+00
 0.6914511848465E+00
 0.6130796334650E+00
 0.5454944002155E+00
 0.4864964188391E+00
 0.4352755263813E+00
 0.3910974638316E+00
 0.3530693845911E+00
 0.3205081638607E+00
 0.2924431148940E+00
 0.2678452654424E+00
 0.2459564318076E+00
 0.2265690585707E+00
 0.1572540699886E+01
 0.1490998874120E+01
 0.1380798386086E+01
 0.1257314336237E+01
 0.1131316501198E+01
 0.1010175154504E+01
 0.8986210398799E+00
 0.7989871697198E+00
 0.7116822042911E+00
 0.6358362561835E+00
 0.5698830061190E+00
 0.5120011046224E+00
 0.4614344649553E+00
 0.4174462455221E+00
 0.3791472763996E+00
 0.3458821770036E+00
 0.3167516187781E+00
 0.2908397856396E+00
 0.2675209930980E+00
 0.2467957101745E+00
 0.1503074509898E+01
 0.1434239217824E+01
 0.1338625859897E+01
 0.1229881393503E+01
 0.1117369822496E+01
 0.1007570379356E+01
 0.9048416373151E+00
 0.8116437144584E+00
 0.7288245089286E+00
 0.6560485641303E+00
 0.5922254668223E+00
 0.5358838550285E+00
 0.4863312444838E+00
 0.4428499232745E+00
 0.4045652644697E+00
 0.3708352775782E+00
 0.3408216613788E+00
 0.3137137992520E+00
 0.2890164439085E+00
 0.2670103846552E+00
 0.1439817092253E+01
 0.1381352852656E+01
 0.1298135135476E+01
 0.1202141847806E+01
 0.1101556004148E+01
 0.1002107301978E+01
 0.9077840679209E+00
 0.8210464537552E+00
 0.7430052285657E+00
 0.6737051006117E+00
 0.6124335060486E+00
 0.5580252505252E+00
 0.5098484523644E+00
 0.4672147049869E+00
 0.4292568555163E+00
 0.3953228469092E+00
 0.3646049408212E+00
 0.3363994332031E+00
 0.3103339285249E+00
 0.2870568933927E+00
 0.1381916851617E+01
 0.1331958394119E+01
 0.1259315428388E+01
 0.1174401066317E+01
 0.1084378795168E+01
 0.9943407588709E+00
 0.9079261346030E+00
 0.8275263541243E+00
 0.7543982636025E+00
 0.6888519469356E+00
 0.6304670445356E+00
 0.5783352860808E+00
 0.5318785845900E+00
 0.4904392589530E+00
 0.4531655455222E+00
 0.4193230525133E+00
 0.3880980633646E+00
 0.3588395784104E+00
 0.3313450760434E+00
 0.3066904787613E+00
 0.1328680622766E+01
 0.1285729991958E+01
 0.1222142526872E+01
 0.1146880364833E+01
 0.1066227063873E+01
 0.9847196126301E+00
 0.9056835641870E+00
 0.8314003242600E+00
 0.7631996715120E+00
 0.7015742839660E+00
 0.6463263427713E+00
 0.5967552951597E+00
 0.5523252649980E+00
 0.5124150397754E+00
 0.4761891770633E+00
 0.4428831083806E+00
 0.4113571615948E+00
 0.3810733320294E+00
 0.3518643959133E+00
 0.3255031559625E+00
 0.1279507301304E+01
 0.1242394909105E+01
 0.1186576710239E+01
 0.1119756445801E+01
 0.1047394134954E+01
 0.9736107238123E+00
 0.9014134983706E+00
 0.8329616184068E+00
 0.7696097509557E+00
 0.7119801960537E+00
 0.6600419718517E+00
 0.6132572354872E+00
 0.5711152059825E+00
 0.5330195021238E+00
 0.4981951110361E+00
 0.4658338707417E+00
 0.4348713494212E+00
 0.4031957833977E+00
 0.3718114619568E+00
 0.3426169738290E+00
 0.1233895783003E+01
 0.1201621985308E+01
 0.1152695269453E+01
 0.1093104871538E+01
 0.1028119579531E+01
 0.9613100927797E+00
 0.8954234080335E+00
 0.8324761421949E+00
 0.7738231491285E+00
 0.7201823696149E+00
 0.6716657134063E+00
 0.6278395035958E+00
 0.5882043775792E+00
 0.5521636452666E+00
 0.5189747253755E+00
 0.4879812585736E+00
 0.4579821983196E+00
 0.4279666038321E+00
 0.3902225933432E+00
 0.3563238483883E+00
 0.1190237414651E+01
 0.1164029651395E+01
 0.1120205811064E+01
 0.1067045133971E+01
 0.1008568987699E+01
 0.9480658283468E+00
 0.8879768402022E+00
 0.8301847046206E+00
 0.7760239183270E+00
 0.7262919953936E+00
 0.6812302946504E+00
 0.6405433042003E+00
 0.6035799330754E+00
 0.5697841606509E+00
 0.5384463724136E+00
 0.5088603560064E+00
 0.4804555508846E+00
 0.4515164891244E+00
 0.4226673457046E+00
 0.3530153481991E+00
 0.1109724075085E+00
 0.8822744066761E-01
 0.8942203401374E-01
 0.1076860503971E+00
 0.1398217255672E+00
 0.1830596868530E+00
 0.2352280730365E+00
 0.2944425112253E+00
 0.3590623043494E+00
 0.4275890017330E+00
 0.4987748822233E+00
 0.5715529031319E+00
 0.6450959995721E+00
 0.7185647545574E+00
 0.7909551305037E+00
 0.8612032249841E+00
 0.9278337478281E+00
 0.9915791091214E+00
 0.1049429039336E+01
 0.1180519723995E+01
 0.5436477314538E-01
 0.3406162140398E-01
 0.3782997449032E-01
 0.6053029671988E-01
 0.9786375416140E-01
 0.1468883689419E+00
 0.2052268065266E+00
 0.2709334692663E+00
 0.3423635069833E+00
 0.4181393554435E+00
 0.4971050413042E+00
 0.5781377622858E+00
 0.6604976059494E+00
 0.7430171472494E+00
 0.8241200316524E+00
 0.9022181005063E+00
 0.9766087583190E+00
 0.1046879071467E+01
 0.1126959440252E+01
 0.1195531119075E+01
-0.5674361115006E-02
-0.2421319179906E-01
-0.1646487315237E-01
 0.1123633294595E-01
 0.5444255007635E-01
 0.1097992539462E+00
 0.1747841001057E+00
 0.2473949889009E+00
 0.3260512503078E+00
 0.4095108388137E+00
 0.4967682008582E+00
 0.5867818196614E+00
 0.6787344666000E+00
 0.7710969739570E+00
 0.8616804509771E+00
 0.9485834026331E+00
 0.1030491592253E+01
 0.1109052758235E+01
 0.1180914457043E+01
 0.1240781741506E+01
-0.7023741044964E-01
-0.8619742258912E-01
-0.7375920492665E-01
-0.4014506500026E-01
 0.9619164944797E-02
 0.7190446729634E-01
 0.1440117438780E+00
 0.2239282921922E+00
 0.3101844607930E+00
 0.4017436523058E+00
 0.4978433817234E+00
 0.5975453128468E+00
 0.6999260494044E+00
 0.8029807673143E+00
 0.9038328059268E+00
 0.9997910681292E+00
 0.1089159526025E+01
 0.1170081989938E+01
 0.1240473569221E+01
 0.1294306566566E+01
-0.1396923688664E+00
-0.1521471362753E+00
-0.1340365028092E+00
-0.9360808747229E-01
-0.3648762917050E-01
 0.3334594574553E-01
 0.1130486505493E+00
 0.2006345840741E+00
 0.2948195713003E+00
 0.3948657528964E+00
 0.5003518130637E+00
 0.6104832172590E+00
 0.7241697343369E+00
 0.8387930655861E+00
 0.9505274280666E+00
 0.1055756042883E+01
 0.1151446441649E+01
 0.1235319599303E+01
 0.1304712067668E+01
 0.1354203263091E+01
-0.2144836317869E+00
-0.2222663701612E+00
-0.1973471975923E+00
-0.1490640917577E+00
-0.8372296390898E-01
-0.5686999965635E-02
 0.8205886082812E-01
 0.1776204994631E+00
 0.2799973002278E+00
 0.3888688952232E+00
 0.5042796209893E+00
 0.6256173479116E+00
 0.7515421316153E+00
 0.8786151290601E+00
 0.1001861779664E+01
 0.1116476361011E+01
 0.1218597508650E+01
 0.1305446745317E+01
 0.1374166948336E+01
 0.1419608665210E+01
-0.2951105629240E+00
-0.2967844553841E+00
-0.2637179802651E+00
-0.2063856709437E+00
-0.1318633905745E+00
-0.4495267432886E-01
 0.5123703511701E-01
 0.1549916332551E+00
 0.2657292556581E+00
 0.3836995463662E+00
 0.5095669468642E+00
 0.6429405078261E+00
 0.7821106386693E+00
 0.9225899601847E+00
 0.1058037515630E+01
 0.1182458966381E+01
 0.1291186032690E+01
 0.1381075039986E+01
 0.1449070330078E+01
 0.1490309399168E+01
-0.3821663925325E+00
-0.3759538950024E+00
-0.3331544831533E+00
-0.2653803816555E+00
-0.1806048665117E+00
-0.8414066464662E-01
 0.2080903547311E-01
 0.1328425944384E+00
 0.2519822704757E+00
 0.3792434402325E+00
 0.5161017879100E+00
 0.6624217736520E+00
 0.8159659321981E+00
 0.9709258568864E+00
 0.1119410079281E+01
 0.1254162368914E+01
 0.1369730205747E+01
 0.1462628273384E+01
 0.1529687319671E+01
 0.1566284785657E+01
-0.4763775276596E+00
-0.4600651361236E+00
-0.4056306445868E+00
-0.3257662178847E+00
-0.2295333333059E+00
-0.1228566083750E+00
-0.8969772203702E-02
 0.1112403236316E+00
 0.2386564258763E+00
 0.3753077077592E+00
 0.5237133095939E+00
 0.6840164671134E+00
 0.8532326552248E+00
 0.1023907732631E+01
 0.1186384431940E+01
 0.1332060965417E+01
 0.1454690003099E+01
 0.1550490280045E+01
 0.1616264891673E+01
 0.1647609795090E+01
-0.5786647303350E+00
-0.5494670279281E+00
-0.4810743425620E+00
-0.3871304728191E+00
-0.2780842394702E+00
-0.1606039775774E+00
-0.3782407836425E-01
 0.9019736904800E-01
 0.2255555706429E+00
 0.3715996594631E+00
 0.5321658949094E+00
 0.7076734396968E+00
 0.8940821498824E+00
 0.1081886920717E+01
 0.1259422939561E+01
 0.1416645885771E+01
 0.1546511051365E+01
 0.1645010865067E+01
 0.1709032261809E+01
 0.1734397643503E+01
-0.6902395001757E+00
-0.6445991733884E+00
-0.5593400451048E+00
-0.4488636365345E+00
-0.3254850694004E+00
-0.1967680645532E+00
-0.6548240842233E-01
 0.6963054213390E-01
 0.2123498077156E+00
 0.3677036249249E+00
 0.5411540023163E+00
 0.7333462337679E+00
 0.9387471293576E+00
 0.1145297721299E+01
 0.1339056677894E+01
 0.1508440404307E+01
 0.1645629570261E+01
 0.1746506029175E+01
 0.1808188950812E+01
 0.1826769479866E+01
-0.8127624913747E+00
-0.7460422877649E+00
-0.6401547054718E+00
-0.5100494871402E+00
-0.3706773613537E+00
-0.2306125027061E+00
-0.9172716405499E-01
 0.4930161313402E-01
 0.1985325747810E+00
 0.3630588364285E+00
 0.5503004149926E+00
 0.7610103961299E+00
 0.9875497950438E+00
 0.1214685561644E+01
 0.1425906305071E+01
 0.1608006318519E+01
 0.1752467088429E+01
 0.1855245593264E+01
 0.1913891695875E+01
 0.1924834069093E+01
-0.9486154412975E+00
-0.8545969128558E+00
-0.7230047858311E+00
-0.5692793774150E+00
-0.4122191837352E+00
-0.2613146343202E+00
-0.1164872523103E+00
 0.2874192740798E-01
 0.1833821133081E+00
 0.3569415241799E+00
 0.5591576196771E+00
 0.7906898163990E+00
 0.1040945185124E+01
 0.1290749335274E+01
 0.1520705121848E+01
 0.1715942352451E+01
 0.1867412782249E+01
 0.1971434070508E+01
 0.2026239956768E+01
 0.2028674330498E+01
-0.1101397336017E+01
-0.9714022310622E+00
-0.8068934615905E+00
-0.6243292959439E+00
-0.4481973053944E+00
-0.2880918194523E+00
-0.1399940748214E+00
 0.7186983549724E-02
 0.1659419671169E+00
 0.3484502786661E+00
 0.5672036033126E+00
 0.8224954215702E+00
 0.1099588125261E+01
 0.1374400615160E+01
 0.1624320495226E+01
 0.1832867839615E+01
 0.1990792790313E+01
 0.2095186464613E+01
 0.2145263976140E+01
 0.2138338924477E+01
-0.1276887754068E+01
-0.1098123250270E+01
-0.8897621349413E+00
-0.6716293932910E+00
-0.4762266363571E+00
-0.3105586464680E+00
-0.1629599734043E+00
-0.1643076685261E-01
 0.1450510887507E+00
 0.3364561317122E+00
 0.5738224320338E+00
 0.8566868713564E+00
 0.1164442828752E+01
 0.1466843726555E+01
 0.1737762165733E+01
 0.1959381056836E+01
 0.2122824604636E+01
 0.2226505930279E+01
 0.2270916727350E+01
 0.2253841966515E+01
-0.1485206111141E+01
-0.1237073635564E+01
-0.9672133371198E+00
-0.7052542628330E+00
-0.4940657194040E+00
-0.3293277658203E+00
-0.1867501191970E+00
-0.4318762776872E-01
 0.1193042385330E+00
 0.3194801631377E+00
 0.5782510373243E+00
 0.8937962150356E+00
 0.1236969483079E+01
 0.1569676449013E+01
 0.1862146870964E+01
 0.2095974540227E+01
 0.2263568449275E+01
 0.2365265318213E+01
 0.2403082830337E+01
 0.2375154714294E+01
-0.1745624763362E+01
-0.1391722706820E+01
-0.1028039585590E+01
-0.7167564684953E+00
-0.5008497872484E+00
-0.3478299879270E+00
-0.2121191732744E+00
-0.7405393422450E-01
 0.8694565325048E-01
 0.2953782635783E+00
 0.5795046721047E+00
 0.9348885358817E+00
 0.1319476568399E+01
 0.1684960590302E+01
 0.1998553775128E+01
 0.2242902557957E+01
 0.2412890611456E+01
 0.2511242962979E+01
 0.2541528822316E+01
 0.2502272226660E+01
-0.2105559763925E+01
-0.1559066892422E+01
-0.1049475988537E+01
-0.6903632361186E+00
-0.5097597705117E+00
-0.3669053246120E+00
-0.2392221649247E+00
-0.1094871145215E+00
 0.4545775345007E-01
 0.2607158338148E+00
 0.5761968112098E+00
 0.9823187163212E+00
 0.1415664694272E+01
 0.1815179134946E+01
 0.2147555966926E+01
 0.2400062938471E+01
 0.2570625506649E+01
 0.2663993943440E+01
 0.2686061492203E+01
 0.2634937771477E+01
-0.2669554378618E+01
-0.1751180137554E+01
-0.9079467859538E+00
-0.6835253136779E+00
-0.5205249210889E+00
-0.3876785348126E+00
-0.2664518896643E+00
-0.1490535033706E+00
-0.8856147130035E-02
 0.2087950322457E+00
 0.5666681132421E+00
 0.1041426054189E+01
 0.1532063139244E+01
 0.1961672140094E+01
 0.2308819885766E+01
 0.2567125939039E+01
 0.2736580589107E+01
 0.2823545700086E+01
 0.2835066933115E+01
 0.2774331893354E+01
-0.4426851645336E+01
-0.1153402925145E+01
-0.8758773105624E+00
-0.6826397214765E+00
-0.5367310980925E+00
-0.4077920778873E+00
-0.2935186163575E+00
-0.1877840405472E+00
-0.7998946430043E-01
 0.1218293694898E+00
 0.5483265620066E+00
 0.1132652192696E+01
 0.1672201255168E+01
 0.2122929570242E+01
 0.2481676574244E+01
 0.2743748842288E+01
 0.2910501853774E+01
 0.2990074785170E+01
 0.2989235169274E+01
 0.2912307263281E+01
 0.3813209072347E+00
 0.3542520798044E+00
 0.3322756654853E+00
 0.3114476548545E+00
 0.2912291877515E+00
 0.2713264693952E+00
 0.2516612460220E+00
 0.2322122428395E+00
 0.2129854241428E+00
 0.1939960114023E+00
 0.1752609772166E+00
 0.1567945681158E+00
 0.1386052928290E+00
 0.1206929078447E+00
 0.1030459383748E+00
 0.8563279948443E-01
 0.6841359457095E-01
 0.5121031412340E-01
 0.3418861431481E-01
 0.1366920900672E-01
 0.3998007405148E+00
 0.3684612555627E+00
 0.3436752116726E+00
 0.3212930420595E+00
 0.3000072663827E+00
 0.2793117353402E+00
 0.2589880604389E+00
 0.2389542584580E+00
 0.2191847663851E+00
 0.1996789478391E+00
 0.1804456039902E+00
 0.1614952884230E+00
 0.1428358110096E+00
 0.1244694949241E+00
 0.1063897828122E+00
 0.8858387249446E-01
 0.7100773902669E-01
 0.5369288548737E-01
 0.3618961740236E-01
 0.2060964229185E-01
 0.4061662001959E+00
 0.3799745989721E+00
 0.3546954926561E+00
 0.3314230065038E+00
 0.3093024976946E+00
 0.2878890248322E+00
 0.2669380050367E+00
 0.2463336174093E+00
 0.2260283839755E+00
 0.2060090350399E+00
 0.1862783402226E+00
 0.1668452796105E+00
 0.1477196990421E+00
 0.1289090553200E+00
 0.1104179151528E+00
 0.9224371772122E-01
 0.7440033162439E-01
 0.5684739394989E-01
 0.3995146864160E-01
 0.2354683480957E-01
 0.4131385202855E+00
 0.3889407461326E+00
 0.3648344349153E+00
 0.3414174391418E+00
 0.3188491030111E+00
 0.2969027924400E+00
 0.2754147854026E+00
 0.2542848590158E+00
 0.2334652307225E+00
 0.2129400965257E+00
 0.1927113718406E+00
 0.1727896966539E+00
 0.1531891222425E+00
 0.1339244811424E+00
 0.1150095275429E+00
 0.9646117862947E-01
 0.7828954575361E-01
 0.6056566406758E-01
 0.4327263168381E-01
 0.2644015163172E-01
 0.4205597583683E+00
 0.3976965535044E+00
 0.3743758224031E+00
 0.3512541147057E+00
 0.3285374198757E+00
 0.3062552239105E+00
 0.2843436786341E+00
 0.2627506726487E+00
 0.2414475035584E+00
 0.2204271173308E+00
 0.1996969831011E+00
 0.1792731265739E+00
 0.1591761029732E+00
 0.1394285595985E+00
 0.1200549445817E+00
 0.1010793923529E+00
 0.8253418458465E-01
 0.6442909204814E-01
 0.4676006592497E-01
 0.2945788395055E-01
 0.4286394684894E+00
 0.4065949833180E+00
 0.3839112194925E+00
 0.3610926880724E+00
 0.3383959369801E+00
 0.3159170127340E+00
 0.2936805814783E+00
 0.2716836706321E+00
 0.2499262080377E+00
 0.2284174460215E+00
 0.2071757054242E+00
 0.1862257825171E+00
 0.1655965520962E+00
 0.1453195437824E+00
 0.1254279201050E+00
 0.1059574332312E+00
 0.8694084690179E-01
 0.6840673604553E-01
 0.5034559785249E-01
 0.3267923902143E-01
 0.4373410511731E+00
 0.4158657830423E+00
 0.3936637280853E+00
 0.3711281587608E+00
 0.3484951349645E+00
 0.3258958826787E+00
 0.3033969884073E+00
 0.2810357619574E+00
 0.2588397632197E+00
 0.2368374136243E+00
 0.2150608694569E+00
 0.1935460020451E+00
 0.1723314930470E+00
 0.1514580207046E+00
 0.1309681954415E+00
 0.1109061754843E+00
 0.9131917438477E-01
 0.7225659584064E-01
 0.5378005664276E-01
 0.3587806363788E-01
 0.4466302263463E+00
 0.4255866931086E+00
 0.4037639793398E+00
 0.3814631906816E+00
 0.3588950291463E+00
 0.3361969519482E+00
 0.3134589431000E+00
 0.2907437418679E+00
 0.2681019178636E+00
 0.2455802286859E+00
 0.2232255929371E+00
 0.2010861856675E+00
 0.1792113681686E+00
 0.1576514303251E+00
 0.1364575537960E+00
 0.1156828427056E+00
 0.9538487095139E-01
 0.7563451884862E-01
 0.5653737932977E-01
 0.3836179390901E-01
 0.4564843291038E+00
 0.4358019615405E+00
 0.4142828929265E+00
 0.3921679376514E+00
 0.3696393073928E+00
 0.3468313733495E+00
 0.3238442339881E+00
 0.3007569180190E+00
 0.2776371837867E+00
 0.2545479321178E+00
 0.2315504806103E+00
 0.2087057904301E+00
 0.1860745480501E+00
 0.1637168478055E+00
 0.1416920675702E+00
 0.1200594227050E+00
 0.9888031406355E-01
 0.7822524622113E-01
 0.5819100759894E-01
 0.3900138767595E-01
 0.4669636364155E+00
 0.4465973124571E+00
 0.4253392594032E+00
 0.4033763033737E+00
 0.3808648998447E+00
 0.3579311810102E+00
 0.3346785913138E+00
 0.3111957768839E+00
 0.2875630773852E+00
 0.2638568380292E+00
 0.2401517123274E+00
 0.2165213778391E+00
 0.1930382513916E+00
 0.1697727049868E+00
 0.1467921587274E+00
 0.1241602945996E+00
 0.1019366186223E+00
 0.8017459726715E-01
 0.5892116273841E-01
 0.3810427841532E-01
 0.4781046788363E+00
 0.4580662336365E+00
 0.4370742333858E+00
 0.4152705080082E+00
 0.3927865627857E+00
 0.3697376929258E+00
 0.3462260205768E+00
 0.3223451368234E+00
 0.2981841254331E+00
 0.2738302810547E+00
 0.2493703735157E+00
 0.2248906665567E+00
 0.2004760102249E+00
 0.1762083296157E+00
 0.1521647108749E+00
 0.1284150831981E+00
 0.1050185814758E+00
 0.8201742915646E-01
 0.5941078626827E-01
 0.3711933904727E-01
 0.4899131852007E+00
 0.4702650900377E+00
 0.4495862324886E+00
 0.4279850044248E+00
 0.4055696200341E+00
 0.3824425228624E+00
 0.3587010099450E+00
 0.3344397709556E+00
 0.3097533181246E+00
 0.2847375325456E+00
 0.2594900929572E+00
 0.2341098193649E+00
 0.2086951099948E+00
 0.1833416813481E+00
 0.1581397681441E+00
 0.1331706729734E+00
 0.1085023704133E+00
 0.8418170782625E-01
 0.6022641207657E-01
 0.3663386607066E-01
 0.5023981157173E+00
 0.4832298164585E+00
 0.4629404719039E+00
 0.4416110377496E+00
 0.4193280672823E+00
 0.3961794786750E+00
 0.3722546154840E+00
 0.3476457363341E+00
 0.3224495406569E+00
 0.2967680278462E+00
 0.2707083897650E+00
 0.2443818690538E+00
 0.2179016600879E+00
 0.1913800214555E+00
 0.1649247901631E+00
 0.1386355097772E+00
 0.1125991913354E+00
 0.8688695655289E-01
 0.6155542880059E-01
 0.3665653896435E-01
 0.5155749139236E+00
 0.4969922397937E+00
 0.4771891189130E+00
 0.4562212556756E+00
 0.4341536227766E+00
 0.4110576830052E+00
 0.3870116231045E+00
 0.3621015927637E+00
 0.3364229371041E+00
 0.3100808492950E+00
 0.2831901139888E+00
 0.2558737851862E+00
 0.2282607868930E+00
 0.2004825643433E+00
 0.1726690719469E+00
 0.1449445249846E+00
 0.1174237166299E+00
 0.9021024687606E-01
 0.6339807847621E-01
 0.3707630751892E-01
 0.5294640350990E+00
 0.5115856382257E+00
 0.4923820854262E+00
 0.4718837942809E+00
 0.4501328632939E+00
 0.4271816675409E+00
 0.4030935876716E+00
 0.3779444828979E+00
 0.3518241337453E+00
 0.3248371626796E+00
 0.2971030773290E+00
 0.2687551828526E+00
 0.2399382282659E+00
 0.2108048224673E+00
 0.1815108931769E+00
 0.1522107939863E+00
 0.1230529548857E+00
 0.9417703813939E-01
 0.6571300543187E-01
 0.3778149591985E-01
 0.5440892771616E+00
 0.5270459070304E+00
 0.5085711153673E+00
 0.4886686140593E+00
 0.4673553530306E+00
 0.4446612477452E+00
 0.4206305582441E+00
 0.3953238980535E+00
 0.3688202774222E+00
 0.3412187424423E+00
 0.3126392182617E+00
 0.2832221883925E+00
 0.2531268934713E+00
 0.2225278730037E+00
 0.1916099566108E+00
 0.1605622191639E+00
 0.1295718772201E+00
 0.9881904351904E-01
 0.6847276824940E-01
 0.3868779741350E-01
 0.5594756720227E+00
 0.5434108353201E+00
 0.5258104541079E+00
 0.5066494966873E+00
 0.4859168309608E+00
 0.4636159205252E+00
 0.4397668749326E+00
 0.4144091688823E+00
 0.3876045774479E+00
 0.3594399321213E+00
 0.3300292936497E+00
 0.2995150574524E+00
 0.2680674420579E+00
 0.2358818318892E+00
 0.2031736611344E+00
 0.1701710224253E+00
 0.1371058537794E+00
 0.1042055573610E+00
 0.7168588402017E-01
 0.3974484349480E-01
 0.5756485945155E+00
 0.5607194424952E+00
 0.5441568326918E+00
 0.5259046761557E+00
 0.5059205569358E+00
 0.4841770866211E+00
 0.4606645500219E+00
 0.4353944276701E+00
 0.4084033754716E+00
 0.3797574033837E+00
 0.3495558795619E+00
 0.3179348208555E+00
 0.2850686922311E+00
 0.2511697271517E+00
 0.2164837476244E+00
 0.1812818680816E+00
 0.1458485315601E+00
 0.1104676441823E+00
 0.7541257793996E-01
 0.4093907784985E-01
 0.5926323628783E+00
 0.5790107006283E+00
 0.5636681248854E+00
 0.5465155972987E+00
 0.5274764096801E+00
 0.5064877205524E+00
 0.4835039235484E+00
 0.4585008271693E+00
 0.4314806856979E+00
 0.4024779197146E+00
 0.3715653163787E+00
 0.3388602472536E+00
 0.3045300424731E+00
 0.2687950941691E+00
 0.2319277444834E+00
 0.1942448681447E+00
 0.1560930655357E+00
 0.1178279036795E+00
 0.7979064473233E-01
 0.4230743960978E-01
 0.6104498964474E+00
 0.5983224302466E+00
 0.5844015899693E+00
 0.5685651842364E+00
 0.5506991739326E+00
 0.5307010369173E+00
 0.5084831791026E+00
 0.4839776299349E+00
 0.4571418543863E+00
 0.4279658553226E+00
 0.3964806133382E+00
 0.3627677123539E+00
 0.3269695221844E+00
 0.2892984539423E+00
 0.2500424216710E+00
 0.2095624652604E+00
 0.1682780283896E+00
 0.1266384218752E+00
 0.8508388075127E-01
 0.4399537375206E-01
 0.6291178172561E+00
 0.6186824920771E+00
 0.6064052011409E+00
 0.5921279313800E+00
 0.5756978730405E+00
 0.5569692253831E+00
 0.5358069575961E+00
 0.5120914431837E+00
 0.4857245540792E+00
 0.4566375676135E+00
 0.4248013518359E+00
 0.3902392239638E+00
 0.3530425757233E+00
 0.3133884889703E+00
 0.2715567143088E+00
 0.2279395803875E+00
 0.1830360491451E+00
 0.1374194293930E+00
 0.9168032906966E-01
 0.4634347915424E-01
 0.6486261629919E+00
 0.6400936178380E+00
 0.6296971029033E+00
 0.6172459358579E+00
 0.6025475119851E+00
 0.5854107397429E+00
 0.5656490773377E+00
 0.5430846165804E+00
 0.5175535953441E+00
 0.4889140667837E+00
 0.4570565905785E+00
 0.4219190504472E+00
 0.3835068497590E+00
 0.3419195167206E+00
 0.2973832915632E+00
 0.2502851530330E+00
 0.2011911099438E+00
 0.1508297392738E+00
 0.1000146700385E+00
 0.4954827485763E-01
 0.6689798846371E+00
 0.6625622376059E+00
 0.6542950088714E+00
 0.6439551441673E+00
 0.6313115813835E+00
 0.6161277868729E+00
 0.5981640251961E+00
 0.5771800172742E+00
 0.5529388243355E+00
 0.5252127869628E+00
 0.4937927023348E+00
 0.4585019465614E+00
 0.4192180334589E+00
 0.3759050980957E+00
 0.3286615665587E+00
 0.2777857578226E+00
 0.2238530863324E+00
 0.1677462868522E+00
 0.1106035193854E+00
 0.5361335429775E-01
 0.6901791317867E+00
 0.6860915006728E+00
 0.6802101260338E+00
 0.6722826374400E+00
 0.6620422946569E+00
 0.6492096941092E+00
 0.6334934870736E+00
 0.6145909120244E+00
 0.5921888835369E+00
 0.5659664922070E+00
 0.5356000998570E+00
 0.5007729130942E+00
 0.4611921817157E+00
 0.4166193757766E+00
 0.3669225486440E+00
 0.3121656769173E+00
 0.2527556203162E+00
 0.1896505504999E+00
 0.1243711368886E+00
 0.5879468170014E-01
 0.7122149841141E+00
 0.7106732906701E+00
 0.7074400670917E+00
 0.7022385280020E+00
 0.6947713898733E+00
 0.6847219460465E+00
 0.6717529502153E+00
 0.6555044037067E+00
 0.6355909028481E+00
 0.6115991510360E+00
 0.5830864424028E+00
 0.5495814802196E+00
 0.5105900822345E+00
 0.4656108632157E+00
 0.4141712023550E+00
 0.3559061918728E+00
 0.2907268833488E+00
 0.2191969052117E+00
 0.1432393874127E+00
 0.6579488339172E-01
 0.7350693878059E+00
 0.7362865860203E+00
 0.7359655246445E+00
 0.7338109707727E+00
 0.7295024103829E+00
 0.7226946271084E+00
 0.7130147887160E+00
 0.7000572925261E+00
 0.6833769354888E+00
 0.6624805969102E+00
 0.6368174988615E+00
 0.6057681783589E+00
 0.5686327376449E+00
 0.5246201337757E+00
 0.4728438257163E+00
 0.4123376057528E+00
 0.3421379916251E+00
 0.2615475249271E+00
 0.1712689048043E+00
 0.7648302363462E-01
 0.7587131602974E+00
 0.7628952284744E+00
 0.7657466468139E+00
 0.7669605888595E+00
 0.7662022290913E+00
 0.7631095554154E+00
 0.7572889574171E+00
 0.7483074814865E+00
 0.7356822225811E+00
 0.7188665989300E+00
 0.6972326852616E+00
 0.6700481641077E+00
 0.6364456200250E+00
 0.5953807765273E+00
 0.5455743346178E+00
 0.4854308234493E+00
 0.4129228496766E+00
 0.3254702234059E+00
 0.2198040055839E+00
 0.9599158555600E-01
 0.7831059748314E+00
 0.7904468662530E+00
 0.7967212292968E+00
 0.8016170203765E+00
 0.8047949002014E+00
 0.8058898366742E+00
 0.8045058303347E+00
 0.8002064573890E+00
 0.7925018572038E+00
 0.7808316604648E+00
 0.7645424128873E+00
 0.7428568526661E+00
 0.7148305638773E+00
 0.6792881866890E+00
 0.6347252075875E+00
 0.5791465629714E+00
 0.5097825367465E+00
 0.4225116533894E+00
 0.3105032156831E+00
 0.1585733673504E+00
 0.8081931750189E+00
 0.8188703629477E+00
 0.8288015950974E+00
 0.8376746530004E+00
 0.8451551269967E+00
 0.8508894990619E+00
 0.8544995692986E+00
 0.8555724343681E+00
 0.8536471020217E+00
 0.8481974156884E+00
 0.8386098909170E+00
 0.8241537775945E+00
 0.8039386779192E+00
 0.7768516819873E+00
 0.7414588995793E+00
 0.6958424676678E+00
 0.6373054040232E+00
 0.5617737685085E+00
 0.4624426856090E+00
 0.3233352999040E+00
 0.8339047161079E+00
 0.8480748858601E+00
 0.8618739353656E+00
 0.8749912555378E+00
 0.8871051314025E+00
 0.8978871619652E+00
 0.9069964265776E+00
 0.9140696815906E+00
 0.9187093329286E+00
 0.9204694657600E+00
 0.9188392361003E+00
 0.9132219629450E+00
 0.9029072185375E+00
 0.8870315317898E+00
 0.8645210616594E+00
 0.8340040610925E+00
 0.7936794273223E+00
 0.7411295909988E+00
 0.6730937900441E+00
 0.5892331815745E+00
 0.8601537644734E+00
 0.8779517955949E+00
 0.8958029983895E+00
 0.9133948100910E+00
 0.9304228016269E+00
 0.9465945045073E+00
 0.9616224409874E+00
 0.9752140968242E+00
 0.9870616539997E+00
 0.9968325588404E+00
 0.1004160930957E+01
 0.1008639596333E+01
 0.1009812535529E+01
 0.1007168575037E+01
 0.1000139387759E+01
 0.9881140925934E+00
 0.9704995799607E+00
 0.9469639873124E+00
 0.9182913612605E+00
 0.8899644758948E+00
 0.8868394762267E+00
 0.9083854549861E+00
 0.9304520311732E+00
 0.9527131703192E+00
 0.9748809504311E+00
 0.9967060568846E+00
 0.1017966021778E+01
 0.1038452773515E+01
 0.1057963196639E+01
 0.1076293543409E+01
 0.1093238724565E+01
 0.1108596668385E+01
 0.1122179412403E+01
 0.1133835085469E+01
 0.1143490471160E+01
 0.1151233364539E+01
 0.1157488813462E+01
 0.1163346637378E+01
 0.1171432149624E+01
 0.1183999920669E+01
 0.9138725775883E+00
 0.9392986118216E+00
 0.9657538153874E+00
 0.9928687924885E+00
 0.1020367972093E+01
 0.1048050537547E+01
 0.1075767180079E+01
 0.1103402512073E+01
 0.1130862744530E+01
 0.1158073035050E+01
 0.1184982640432E+01
 0.1211578654389E+01
 0.1237909590439E+01
 0.1264123393956E+01
 0.1290529695625E+01
 0.1317702875595E+01
 0.1346640811307E+01
 0.1379042025302E+01
 0.1417198142861E+01
 0.1465197997773E+01
 0.9411694522244E+00
 0.9706792766331E+00
 0.1001740679853E+01
 0.1033908818809E+01
 0.1066918686131E+01
 0.1100624634731E+01
 0.1134962948611E+01
 0.1169915664140E+01
 0.1205496509517E+01
 0.1241747714649E+01
 0.1278750527030E+01
 0.1316644345345E+01
 0.1355655152548E+01
 0.1396136402086E+01
 0.1438625861752E+01
 0.1483928158810E+01
 0.1533219498643E+01
 0.1588104093313E+01
 0.1650799343428E+01
 0.1723931616660E+01
 0.9685529928177E+00
 0.1002409296843E+01
 0.1038301692401E+01
 0.1075683321589E+01
 0.1114295869786E+01
 0.1154081606764E+01
 0.1195074569276E+01
 0.1237363037107E+01
 0.1281057420708E+01
 0.1326295544742E+01
 0.1373256846288E+01
 0.1422184051883E+01
 0.1473410410078E+01
 0.1527392040266E+01
 0.1584748486979E+01
 0.1646296646646E+01
 0.1713102386149E+01
 0.1786484063520E+01
 0.1867975444079E+01
 0.1959007854506E+01
 0.9957935851565E+00
 0.1034354371964E+01
 0.1075323412539E+01
 0.1117966980044E+01
 0.1162136483686E+01
 0.1207877142944E+01
 0.1255379154836E+01
 0.1304828500373E+01
 0.1356414401718E+01
 0.1410339984889E+01
 0.1466843266981E+01
 0.1526218649370E+01
 0.1588838580018E+01
 0.1655175308182E+01
 0.1725813204857E+01
 0.1801465638991E+01
 0.1882900136856E+01
 0.1971040850690E+01
 0.2066715747547E+01
 0.2170750867320E+01
 0.1022588871216E+01
 0.1066558243541E+01
 0.1112745458441E+01
 0.1160608252335E+01
 0.1209998476247E+01
 0.1261371045698E+01
 0.1315043113782E+01
 0.1371284707274E+01
 0.1430330576240E+01
 0.1492414508226E+01
 0.1557793118068E+01
 0.1626765362997E+01
 0.1699688039388E+01
 0.1776984118175E+01
 0.1859147790829E+01
 0.1946702433545E+01
 0.2040239469272E+01
 0.2139917681416E+01
 0.2246353932574E+01
 0.2359646294419E+01
 0.1048978794658E+01
 0.1099100145899E+01
 0.1151091577162E+01
 0.1203308256212E+01
 0.1257351409667E+01
 0.1313827922009E+01
 0.1373168208940E+01
 0.1435664750886E+01
 0.1501559594047E+01
 0.1571081991687E+01
 0.1644472236465E+01
 0.1721996475378E+01
 0.1803955392219E+01
 0.1890688341626E+01
 0.1982559885127E+01
 0.2079969429264E+01
 0.2183172526740E+01
 0.2292782135798E+01
 0.2406787060096E+01
 0.2526721996102E+01
 0.1073907423268E+01
 0.1135559698295E+01
 0.1190040197162E+01
 0.1245570487610E+01
 0.1303466023890E+01
 0.1364423626239E+01
 0.1428815814648E+01
 0.1496900616034E+01
 0.1568890791977E+01
 0.1644984476373E+01
 0.1725380010490E+01
 0.1810284302489E+01
 0.1899917659299E+01
 0.1994512676960E+01
 0.2094317196133E+01
 0.2199552816162E+01
 0.2310569884498E+01
 0.2427112277369E+01
 0.2552314119339E+01
 0.2673023975017E+01
 0.1119721966140E+01
 0.1173793381665E+01
 0.1228609659560E+01
 0.1286363523658E+01
 0.1347458192127E+01
 0.1412271117424E+01
 0.1481031731156E+01
 0.1553935005875E+01
 0.1631151297204E+01
 0.1712835277795E+01
 0.1799129147599E+01
 0.1890165206848E+01
 0.1986067854421E+01
 0.2086957165276E+01
 0.2192945380587E+01
 0.2304172222228E+01
 0.2420682002377E+01
 0.2543276502724E+01
 0.2669943140585E+01
 0.2825029562885E+01
</DataArray>
<DataArray type="Float64" Name="S_Oct" NumberOfComponents="1" ComponentName0="S_Oct" format="ascii">
 0.8152340254665E+01
 0.7309280541044E+01
 0.6637413629742E+01
 0.6374270169160E+01
 0.6167628437980E+01
 0.6011835560264E+01
 0.5878260384942E+01
 0.5758627433411E+01
 0.5647139595733E+01
 0.5540900208913E+01
 0.5438289402574E+01
 0.5338621484857E+01
 0.5241919809564E+01
 0.5148974314550E+01
 0.5061882187017E+01
 0.4985541661166E+01
 0.4919923013224E+01
 0.4850492069205E+01
 0.4763456821742E+01
 0.4658674201097E+01
 0.4542165951065E+01
 0.4420267427759E+01
 0.4297947673118E+01
 0.4178862265844E+01
 0.4065706259547E+01
 0.3960295772938E+01
 0.3863257791791E+01
 0.3776168712052E+01
 0.3703675357776E+01
 0.3651008718501E+01
 0.3622305007211E+01
 0.3621238889401E+01
 0.3650912501497E+01
 0.3713061184137E+01
 0.3808379123633E+01
 0.3941198838460E+01
 0.4156956155609E+01
 0.4483671579269E+01
 0.5182526097204E+01
 0.5472431255463E+01
 0.9510588883204E+01
 0.6923433931260E+01
 0.7128975314113E+01
 0.6605954590164E+01
 0.6282443275792E+01
 0.6074226188972E+01
 0.5907370849245E+01
 0.5768585888316E+01
 0.5645249770891E+01
 0.5531753902879E+01
 0.5424608908957E+01
 0.5321932231662E+01
 0.5222793420901E+01
 0.5126994027216E+01
 0.5035065141740E+01
 0.4948193496382E+01
 0.4866937733338E+01
 0.4788733175495E+01
 0.4707496779475E+01
 0.4617374633079E+01
 0.4516486044595E+01
 0.4406884706511E+01
 0.4292270555534E+01
 0.4176261829066E+01
 0.4061838140652E+01
 0.3951266340104E+01
 0.3846187166995E+01
 0.3748003212986E+01
 0.3658558939231E+01
 0.3580459329687E+01
 0.3516628869328E+01
 0.3469617390377E+01
 0.3441186395711E+01
 0.3432071076962E+01
 0.3442062687567E+01
 0.3471251543427E+01
 0.3525586924671E+01
 0.3607842613230E+01
 0.3732764541535E+01
 0.3800035273573E+01
 0.3254890270572E+01
 0.6489382734736E+01
 0.6193022672961E+01
 0.6658680686630E+01
 0.6463475832333E+01
 0.6166023609889E+01
 0.5959353530905E+01
 0.5793342908153E+01
 0.5652639360532E+01
 0.5528126103144E+01
 0.5413890888215E+01
 0.5306586653697E+01
 0.5204198959842E+01
 0.5105658995420E+01
 0.5010562701796E+01
 0.4919028623063E+01
 0.4831061760586E+01
 0.4745315464629E+01
 0.4659287956606E+01
 0.4570789370949E+01
 0.4477888052702E+01
 0.4378978385513E+01
 0.4274099671164E+01
 0.4164968095949E+01
 0.4053925778863E+01
 0.3943205720567E+01
 0.3834642737443E+01
 0.3729752885501E+01
 0.3630061848071E+01
 0.3537148291593E+01
 0.3452449568809E+01
 0.3377296178639E+01
 0.3312736086670E+01
 0.3259021025406E+01
 0.3215339050543E+01
 0.3180102818586E+01
 0.3152507121009E+01
 0.3131318248352E+01
 0.3105571386845E+01
 0.3044171045436E+01
 0.2768553573066E+01
 0.2430756096920E+01
 0.5523338477665E+01
 0.5689722195129E+01
 0.6195855460430E+01
 0.6218225707145E+01
 0.6015431978596E+01
 0.5825909139549E+01
 0.5667862381433E+01
 0.5530030268146E+01
 0.5406681016263E+01
 0.5293182137803E+01
 0.5186541619369E+01
 0.5084881777155E+01
 0.4987088449033E+01
 0.4892584637010E+01
 0.4801034105289E+01
 0.4711605759650E+01
 0.4622336508668E+01
 0.4531344827136E+01
 0.4438357533597E+01
 0.4343391109893E+01
 0.4245451322608E+01
 0.4143737237937E+01
 0.4038636728242E+01
 0.3931408938465E+01
 0.3823563003472E+01
 0.3716503751931E+01
 0.3611535537699E+01
 0.3510004894532E+01
 0.3413075592183E+01
 0.3321387249747E+01
 0.3235173373844E+01
 0.3154305335740E+01
 0.3077932832494E+01
 0.3004268674793E+01
 0.2930961652407E+01
 0.2855607030886E+01
 0.2772662898818E+01
 0.2664731953288E+01
 0.2482714829802E+01
 0.2156745670520E+01
 0.2231238691932E+01
 0.5039170540398E+01
 0.5308218395447E+01
 0.5787927067260E+01
 0.5931866944910E+01
 0.5828782369099E+01
 0.5675128803292E+01
 0.5531138783867E+01
 0.5400395580176E+01
 0.5280668135072E+01
 0.5169367550346E+01
 0.5064276248014E+01
 0.4963836882624E+01
 0.4867008164684E+01
 0.4773089423240E+01
 0.4681386171364E+01
 0.4590623200218E+01
 0.4498816865896E+01
 0.4404720431646E+01
 0.4309023106999E+01
 0.4212689236530E+01
 0.4115251211618E+01
 0.4015645761647E+01
 0.3913454286336E+01
 0.3809091787672E+01
 0.3703420338561E+01
 0.3597418366659E+01
 0.3492102274205E+01
 0.3388511625184E+01
 0.3287377954564E+01
 0.3188755638388E+01
 0.3092131090406E+01
 0.2996559878917E+01
 0.2900483496032E+01
 0.2801638089835E+01
 0.2697338907564E+01
 0.2584345916516E+01
 0.2456062635667E+01
 0.2295166731983E+01
 0.2071348503204E+01
 0.1838569155276E+01
 0.2262534137276E+01
 0.4714594734480E+01
 0.4999352551647E+01
 0.5434102351869E+01
 0.5639275662401E+01
 0.5617703791326E+01
 0.5508154075682E+01
 0.5384148109942E+01
 0.5263848691342E+01
 0.5150026198658E+01
 0.5042336133238E+01
 0.4939678201198E+01
 0.4840985776178E+01
 0.4745396594296E+01
 0.4652166056767E+01
 0.4560391229318E+01
 0.4468647837372E+01
 0.4375179226839E+01
 0.4279257205513E+01
 0.4182043272542E+01
 0.4084930566969E+01
 0.3987820990643E+01
 0.3889642797033E+01
 0.3789528315886E+01
 0.3687278561944E+01
 0.3583209471796E+01
 0.3477891007173E+01
 0.3372013819917E+01
 0.3266272271526E+01
 0.3161002036740E+01
 0.3055826468081E+01
 0.2949748441867E+01
 0.2841333701206E+01
 0.2728682360458E+01
 0.2609469380462E+01
 0.2481176913183E+01
 0.2340915236771E+01
 0.2183622842738E+01
 0.1999292441269E+01
 0.1790925332233E+01
 0.1700253715109E+01
 0.2348929266050E+01
 0.4462062850432E+01
 0.4737240601147E+01
 0.5124993135748E+01
 0.5356253959892E+01
 0.5394354514588E+01
 0.5328368021467E+01
 0.5228093535442E+01
 0.5120918047149E+01
 0.5014894327340E+01
 0.4912105521957E+01
 0.4812722332351E+01
 0.4716310343217E+01
 0.4622279776078E+01
 0.4529935082416E+01
 0.4438313011650E+01
 0.4346032309076E+01
 0.4251646399543E+01
 0.4154819076996E+01
 0.4056923904414E+01
 0.3959510631684E+01
 0.3862713222647E+01
 0.3765546812618E+01
 0.3666919624184E+01
 0.3566210832137E+01
 0.3463296448533E+01
 0.3358372868878E+01
 0.3251802508882E+01
 0.3143944408394E+01
 0.3034798263632E+01
 0.2923684266770E+01
 0.2809329990388E+01
 0.2690087495129E+01
 0.2564033272411E+01
 0.2429138708858E+01
 0.2283574007298E+01
 0.2125841116892E+01
 0.1954509859921E+01
 0.1771075074670E+01
 0.1610814237204E+01
 0.1661988888685E+01
 0.2428592604296E+01
 0.4251124231532E+01
 0.4507041070252E+01
 0.4851269931496E+01
 0.5088798463351E+01
 0.5167672874686E+01
 0.5140055783825E+01
 0.5064616038188E+01
 0.4972365191499E+01
 0.4875602918927E+01
 0.4778807745435E+01
 0.4683463441419E+01
 0.4589848166688E+01
 0.4497722602257E+01
 0.4406529082076E+01
 0.4315366355737E+01
 0.4223010685179E+01
 0.4128335136604E+01
 0.4031290756209E+01
 0.3933323576659E+01
 0.3835998439276E+01
 0.3739580533734E+01
 0.3643195193019E+01
 0.3545660341324E+01
 0.3446080688309E+01
 0.3343992248709E+01
 0.3239265784973E+01
 0.3131958741376E+01
 0.3022130922857E+01
 0.2909515498073E+01
 0.2793241099023E+01
 0.2671928416769E+01
 0.2543940893808E+01
 0.2407592215969E+01
 0.2261451036523E+01
 0.2104813844159E+01
 0.1938340020308E+01
 0.1765507052835E+01
 0.1600119617713E+01
 0.1502345994312E+01
 0.1672816171893E+01
 0.2485170485396E+01
 0.4068028093096E+01
 0.4299672524672E+01
 0.4605340377447E+01
 0.4838282106961E+01
 0.4943346692551E+01
 0.4947230054921E+01
 0.4895640235567E+01
 0.4819123541925E+01
 0.4732622035496E+01
 0.4642675658970E+01
 0.4552025802654E+01
 0.4461685713072E+01
 0.4371819945398E+01
 0.4282082437643E+01
 0.4191724114638E+01
 0.4099740957419E+01
 0.4005305262390E+01
 0.3908576764208E+01
 0.3811000201813E+01
 0.3714084730110E+01
 0.3618158768854E+01
 0.3522451622026E+01
 0.3425766815224E+01
 0.3327041975454E+01
 0.3225561005465E+01
 0.3120924089100E+01
 0.3012923300090E+01
 0.2901368873525E+01
 0.2785798945231E+01
 0.2665248670270E+01
 0.2538368150765E+01
 0.2403709133905E+01
 0.2260025405027E+01
 0.2106713093919E+01
 0.1944501680199E+01
 0.1776649821672E+01
 0.1611927363122E+01
 0.1475107524514E+01
 0.1442356782554E+01
 0.1703076454467E+01
 0.2517807387109E+01
 0.3905103841299E+01
 0.4109279777700E+01
 0.4381359310186E+01
 0.4604039012024E+01
 0.4724643834023E+01
 0.4753129892941E+01
 0.4723106656377E+01
 0.4662231516917E+01
 0.4586516767369E+01
 0.4504021125092E+01
 0.4418591903119E+01
 0.4331950036903E+01
 0.4244689090956E+01
 0.4156727067148E+01
 0.4067526977917E+01
 0.3976333080970E+01
 0.3882586638400E+01
 0.3786599908292E+01
 0.3689779365386E+01
 0.3593546503302E+01
 0.3498249895388E+01
 0.3403206997648E+01
 0.3307247925936E+01
 0.3209219099001E+01
 0.3108226395701E+01
 0.3003656259014E+01
 0.2895083661343E+01
 0.2782124656361E+01
 0.2664191331489E+01
 0.2540310278187E+01
 0.2409269279897E+01
 0.2269941378120E+01
 0.2121666310748E+01
 0.1964819137199E+01
 0.1801725318300E+01
 0.1638370849749E+01
 0.1488516539319E+01
 0.1385577603870E+01
 0.1413350166295E+01
 0.1736993634600E+01
 0.2530011328613E+01
 0.3757382725400E+01
 0.3931919894653E+01
 0.4174893077992E+01
 0.4384608484431E+01
 0.4513222826223E+01
 0.4560140782352E+01
 0.4548771799966E+01
 0.4502749802583E+01
 0.4437907391547E+01
 0.4363211495627E+01
 0.4283389555814E+01
 0.4200800193113E+01
 0.4116463555156E+01
 0.4030591221227E+01
 0.3942892499839E+01
 0.3852867273638E+01
 0.3760194356049E+01
 0.3665299420405E+01
 0.3569534448193E+01
 0.3474222596594E+01
 0.3379707123768E+01
 0.3285377016538E+01
 0.3190109832130E+01
 0.3092713502952E+01
 0.2992176693497E+01
 0.2887726847629E+01
 0.2778773051058E+01
 0.2664793156063E+01
 0.2545136755781E+01
 0.2418893387368E+01
 0.2285071471945E+01
 0.2142958732056E+01
 0.1992572643526E+01
 0.1835341038750E+01
 0.1675215060731E+01
 0.1520784342164E+01
 0.1390090972534E+01
 0.1322581112058E+01
 0.1402766611790E+01
 0.1766889684359E+01
 0.2525867331906E+01
 0.3621358503946E+01
 0.3764837697336E+01
 0.3982576390730E+01
 0.4178317073656E+01
 0.4309736277814E+01
 0.4369898560124E+01
 0.4374108004406E+01
 0.4341687154281E+01
 0.4287431433080E+01
 0.4220647178093E+01
 0.4146678425953E+01
 0.4068418737218E+01
 0.3987288035931E+01
 0.3903799503807E+01
 0.3817922254679E+01
 0.3729405841590E+01
 0.3638137349408E+01
 0.3544628963676E+01
 0.3450173517617E+01
 0.3355996644435E+01
 0.3262422755520E+01
 0.3168898359972E+01
 0.3074358223788E+01
 0.2977608202121E+01
 0.2877568824420E+01
 0.2773358766853E+01
 0.2664271393224E+01
 0.2549699529999E+01
 0.2428986536084E+01
 0.2301342880144E+01
 0.2166057532892E+01
 0.2022891095947E+01
 0.1872581820859E+01
 0.1717615046868E+01
 0.1563489137654E+01
 0.1421105660272E+01
 0.1311892490529E+01
 0.1278796225169E+01
 0.1401998323474E+01
 0.1789467426987E+01
 0.2508915465229E+01
 0.3494439299351E+01
 0.3606045693720E+01
 0.3801835723223E+01
 0.3983537988990E+01
 0.4114237780283E+01
 0.4183446413916E+01
 0.4200278691961E+01
 0.4179948982050E+01
 0.4135710150384E+01
 0.4076741102201E+01
 0.4008737050810E+01
 0.3935003613748E+01
 0.3857314146169E+01
 0.3776473155313E+01
 0.3692707037770E+01
 0.3606000702118E+01
 0.3516423186580E+01
 0.3424554637821E+01
 0.3331630297155E+01
 0.3238784978103E+01
 0.3146318543794E+01
 0.3053724547171E+01
 0.2959998983689E+01
 0.2863970830200E+01
 0.2764531664441E+01
 0.2660735852126E+01
 0.2551807550793E+01
 0.2437102746641E+01
 0.2316006441035E+01
 0.2187894723213E+01
 0.2052376237774E+01
 0.1909712126610E+01
 0.1761362889819E+01
 0.1610820157339E+01
 0.1464974626427E+01
 0.1336657331411E+01
 0.1249741311806E+01
 0.1248422122383E+01
 0.1405387998897E+01
 0.1803677416830E+01
 0.2481947222022E+01
 0.3374658217672E+01
 0.3454069911522E+01
 0.3630682146999E+01
 0.3798794824311E+01
 0.3926443019326E+01
 0.4001386859428E+01
 0.4028157497170E+01
 0.4018310147514E+01
 0.3983322460711E+01
 0.3931900847767E+01
 0.3869851015012E+01
 0.3800760695209E+01
 0.3726696674427E+01
 0.3648730163548E+01
 0.3567330379554E+01
 0.3482698033441E+01
 0.3395060579037E+01
 0.3305053056667E+01
 0.3213857700671E+01
 0.3122527875805E+01
 0.3031338146623E+01
 0.2939821991569E+01
 0.2847037926280E+01
 0.2751855634725E+01
 0.2653168772713E+01
 0.2550005608951E+01
 0.2441562424479E+01
 0.2327200265459E+01
 0.2206384785845E+01
 0.2078689700013E+01
 0.1944064073463E+01
 0.1803271613898E+01
 0.1658463257379E+01
 0.1514044904863E+01
 0.1378099241079E+01
 0.1264970780747E+01
 0.1200071365250E+01
 0.1226987608265E+01
 0.1409360665657E+01
 0.1809565353959E+01
 0.2447086383677E+01
 0.3260497118889E+01
 0.3307790330287E+01
 0.3467560165084E+01
 0.3622791671806E+01
 0.3745892089738E+01
 0.3824008339235E+01
 0.3858367629912E+01
 0.3857407055886E+01
 0.3830787478379E+01
 0.3786514162670E+01
 0.3730302689250E+01
 0.3665897150139E+01
 0.3595590244430E+01
 0.3520685060568E+01
 0.3441870724154E+01
 0.3359541000904E+01
 0.3274060503748E+01
 0.3186109535772E+01
 0.3096823043943E+01
 0.3007183119926E+01
 0.2917441248654E+01
 0.2827166496097E+01
 0.2735480070781E+01
 0.2641304772499E+01
 0.2543560709113E+01
 0.2441282053147E+01
 0.2333672589134E+01
 0.2220133409401E+01
 0.2100240961771E+01
 0.1973786862976E+01
 0.1841065550446E+01
 0.1703324703128E+01
 0.1563349161789E+01
 0.1426341086181E+01
 0.1301354816867E+01
 0.1203835216940E+01
 0.1159905276227E+01
 0.1211130958773E+01
 0.1411750447488E+01
 0.1807670785720E+01
 0.2405932576016E+01
 0.3150769064449E+01
 0.3166337400859E+01
 0.3311238196498E+01
 0.3454409959203E+01
 0.3572047723750E+01
 0.3651383096363E+01
 0.3691326965525E+01
 0.3697742682369E+01
 0.3678555077324E+01
 0.3640938241482E+01
 0.3590362784314E+01
 0.3530615746663E+01
 0.3464146331623E+01
 0.3392448415985E+01
 0.3316402607591E+01
 0.3236571198056E+01
 0.3153436477159E+01
 0.3067716408241E+01
 0.2980504394056E+01
 0.2892721171979E+01
 0.2804598987897E+01
 0.2715740263530E+01
 0.2625328741740E+01
 0.2532349172324E+01
 0.2435767054787E+01
 0.2334648575540E+01
 0.2228234229292E+01
 0.2115993092954E+01
 0.1997634052071E+01
 0.1873176402621E+01
 0.1743251795231E+01
 0.1609557585698E+01
 0.1475439399592E+01
 0.1346764490158E+01
 0.1233336794027E+01
 0.1151311873355E+01
 0.1126801302592E+01
 0.1198381614425E+01
 0.1411315399268E+01
 0.1798721776926E+01
 0.2359697343565E+01
 0.3044535597673E+01
 0.3029022979210E+01
 0.3160729096384E+01
 0.3292691693832E+01
 0.3404352982118E+01
 0.3483439557923E+01
 0.3527291150377E+01
 0.3539699004911E+01
 0.3527002931397E+01
 0.3495492683406E+01
 0.3450283823767E+01
 0.3395110144772E+01
 0.3332510640727E+01
 0.3264126105222E+01
 0.3190997122018E+01
 0.3113829238170E+01
 0.3033204316239E+01
 0.2949871476263E+01
 0.2864887718255E+01
 0.2779121503739E+01
 0.2692790396519E+01
 0.2605529417422E+01
 0.2516584673788E+01
 0.2425009154090E+01
 0.2329828224506E+01
 0.2230160779143E+01
 0.2125307195915E+01
 0.2014825650941E+01
 0.1898571262213E+01
 0.1776791690050E+01
 0.1650437217222E+01
 0.1521609486796E+01
 0.1394132351129E+01
 0.1274403860655E+01
 0.1172765320222E+01
 0.1105727519434E+01
 0.1098788971591E+01
 0.1186963071154E+01
 0.1407402816711E+01
 0.1783482988143E+01
 0.2309317358984E+01
 0.2941046738980E+01
 0.2895293030288E+01
 0.3015232112675E+01
 0.3136818530058E+01
 0.3242263750755E+01
 0.3320014283998E+01
 0.3366391283269E+01
 0.3383552801037E+01
 0.3376438227545E+01
 0.3350455699753E+01
 0.3310295491623E+01
 0.3259561184738E+01
 0.3200820864916E+01
 0.3135818451739E+01
 0.3065721897822E+01
 0.2991354797293E+01
 0.2913381600890E+01
 0.2832576600473E+01
 0.2749964613916E+01
 0.2666369771395E+01
 0.2581999629996E+01
 0.2496521992107E+01
 0.2409245218840E+01
 0.2319294930561E+01
 0.2225767133932E+01
 0.2127849250026E+01
 0.2024919051910E+01
 0.1916638576731E+01
 0.1803015958185E+01
 0.1684520314909E+01
 0.1562394137604E+01
 0.1439090973745E+01
 0.1318826761250E+01
 0.1208399979909E+01
 0.1118493288006E+01
 0.1065656843951E+01
 0.1074301431169E+01
 0.1175628310648E+01
 0.1399724359632E+01
 0.1762676247438E+01
 0.2255548537504E+01
 0.2839694673136E+01
 0.2764694485019E+01
 0.2874090132318E+01
 0.2986090970770E+01
 0.3085265820627E+01
 0.3160888399310E+01
 0.3208665146972E+01
 0.3229492171797E+01
 0.3227102399004E+01
 0.3206062956784E+01
 0.3170601690073E+01
 0.3124134135726E+01
 0.3069204845732E+01
 0.3007619337848E+01
 0.2940640784882E+01
 0.2869186319156E+01
 0.2793986977900E+01
 0.2715836426490E+01
 0.2635730475094E+01
 0.2554455616980E+01
 0.2472213811901E+01
 0.2388706336185E+01
 0.2303303703088E+01
 0.2215207071025E+01
 0.2123590763615E+01
 0.2027722232529E+01
 0.1927069008781E+01
 0.1821406029126E+01
 0.1710895164427E+01
 0.1596214005844E+01
 0.1478865358005E+01
 0.1361598774943E+01
 0.1248936998630E+01
 0.1147956966019E+01
 0.1069505692872E+01
 0.1029899446070E+01
 0.1052110398162E+01
 0.1163525025898E+01
 0.1388223885069E+01
 0.1736908008238E+01
 0.2199058087515E+01
 0.2739981540077E+01
 0.2636851528159E+01
 0.2736757881042E+01
 0.2839909493479E+01
 0.2932882697759E+01
 0.3005812624676E+01
 0.3054082195539E+01
 0.3077632243776E+01
 0.3079177549884E+01
 0.3062508396643E+01
 0.3031379063186E+01
 0.2988976830558E+01
 0.2937779141147E+01
 0.2879615362584E+01
 0.2815813370682E+01
 0.2747360529707E+01
 0.2675039399664E+01
 0.2599657246597E+01
 0.2522182997640E+01
 0.2443370946223E+01
 0.2363421362730E+01
 0.2282069871589E+01
 0.2198748949466E+01
 0.2112736972159E+01
 0.2023291644949E+01
 0.1929768186160E+01
 0.1831731683790E+01
 0.1729074008076E+01
 0.1622106422933E+01
 0.1511697379085E+01
 0.1399574728795E+01
 0.1288727411885E+01
 0.1183903676642E+01
 0.1092347681186E+01
 0.1024913818731E+01
 0.9974542189740E+00
 0.1031268397030E+01
 0.1150085423161E+01
 0.1373003618718E+01
 0.1706659943546E+01
 0.2140331143267E+01
 0.2641607871386E+01
 0.2511448312070E+01
 0.2602778026635E+01
 0.2697758173203E+01
 0.2784677969227E+01
 0.2854524116565E+01
 0.2902563043888E+01
 0.2928029255445E+01
 0.2932793595413E+01
 0.2919946428328E+01
 0.2892776707188E+01
 0.2854218584143E+01
 0.2806647993651E+01
 0.2751885105137E+01
 0.2691294436967E+01
 0.2625911865146E+01
 0.2556557360443E+01
 0.2484045993862E+01
 0.2409320955018E+01
 0.2333108575816E+01
 0.2255610712469E+01
 0.2176598153761E+01
 0.2095564962635E+01
 0.2011867358616E+01
 0.1924849281409E+01
 0.1833958206899E+01
 0.1738860628475E+01
 0.1639565133024E+01
 0.1536523957245E+01
 0.1430775512730E+01
 0.1324235836923E+01
 0.1220078033676E+01
 0.1123200490364E+01
 0.1040915049198E+01
 0.9839460838251E+00
 0.9674950189716E+00
 0.1011052447280E+01
 0.1134963463117E+01
 0.1354199360170E+01
 0.1672565821906E+01
 0.2078883881608E+01
 0.2547002760026E+01
 0.2388216138462E+01
 0.2471763034201E+01
 0.2559190810359E+01
 0.2640254584248E+01
 0.2706757515018E+01
 0.2753994371381E+01
 0.2780692717874E+01
 0.2788035453529E+01
 0.2778494975480E+01
 0.2754916786993E+01
 0.2719969775431E+01
 0.2675902673878E+01
 0.2624498531163E+01
 0.2567133426160E+01
 0.2504871884577E+01
 0.2438558170987E+01
 0.2369009364142E+01
 0.2297143195285E+01
 0.2223661171489E+01
 0.2148769318644E+01
 0.2072274182647E+01
 0.1993730761752E+01
 0.1912572819287E+01
 0.1828231508613E+01
 0.1740248298398E+01
 0.1648391594745E+01
 0.1552782983131E+01
 0.1454004118752E+01
 0.1353240382579E+01
 0.1252558981319E+01
 0.1155264854173E+01
 0.1066338141189E+01
 0.9930704390136E+00
 0.9459378608499E+00
 0.9393454376462E+00
 0.9909244939819E+00
 0.1117950133136E+01
 0.1332062554313E+01
 0.1634885953935E+01
 0.2015774396342E+01
 0.2451349424757E+01
 0.2266923804495E+01
 0.2343381246963E+01
 0.2423819334884E+01
 0.2499252490261E+01
 0.2562251951666E+01
 0.2608240130393E+01
 0.2635595628999E+01
 0.2644949872000E+01
 0.2638238978831E+01
 0.2617895803736E+01
 0.2586321968944E+01
 0.2545621164648E+01
 0.2497516563185E+01
 0.2443373967174E+01
 0.2384268717209E+01
 0.2321057299988E+01
 0.2254553062906E+01
 0.2185647824891E+01
 0.2115020421025E+01
 0.2042882931346E+01
 0.1969077922790E+01
 0.1893220343612E+01
 0.1814820378436E+01
 0.1733395794095E+01
 0.1648581484856E+01
 0.1560245520814E+01
 0.1468615982994E+01
 0.1374390122509E+01
 0.1278876230062E+01
 0.1184256626542E+01
 0.1093919615766E+01
 0.1012866020009E+01
 0.9482903684657E+00
 0.9103202437175E+00
 0.9124579393198E+00
 0.9704873235371E+00
 0.1098959005087E+01
 0.1306801658666E+01
 0.1594139606401E+01
 0.1950748904611E+01
 0.2356182041737E+01
 0.2147370227950E+01
 0.2217346101182E+01
 0.2291304179456E+01
 0.2361345489911E+01
 0.2420755273967E+01
 0.2465149847161E+01
 0.2492682876336E+01
 0.2503551656885E+01
 0.2499234054974E+01
 0.2481786293674E+01
 0.2453348455190E+01
 0.2415868141200E+01
 0.2370990820743E+01
 0.2320053490918E+01
 0.2264126575910E+01
 0.2204067799359E+01
 0.2140681171999E+01
 0.2074831552438E+01
 0.2007176399294E+01
 0.1937935058435E+01
 0.1866985995497E+01
 0.1794002755671E+01
 0.1718570094248E+01
 0.1640290473401E+01
 0.1558889759383E+01
 0.1474331228558E+01
 0.1386940832927E+01
 0.1297516099897E+01
 0.1207463950621E+01
 0.1119047541316E+01
 0.1035694448307E+01
 0.9623723142078E+00
 0.9061120146191E+00
 0.8766095153372E+00
 0.8863925696689E+00
 0.9494591379128E+00
 0.1077968612237E+01
 0.1278677753805E+01
 0.1550636466302E+01
 0.1884173384332E+01
 0.2261552434449E+01
 0.2029378739190E+01
 0.2093407687905E+01
 0.2161346310610E+01
 0.2226237828414E+01
 0.2282026375123E+01
 0.2324564672926E+01
 0.2351878034900E+01
 0.2363829193896E+01
 0.2361510102318E+01
 0.2346638778973E+01
 0.2321105098881E+01
 0.2286695198555E+01
 0.2244963523892E+01
 0.2197202950664E+01
 0.2144465355117E+01
 0.2087599821627E+01
 0.2027395629586E+01
 0.1964689170162E+01
 0.1900117091128E+01
 0.1833906592658E+01
 0.1765971510227E+01
 0.1696042257245E+01
 0.1623775673459E+01
 0.1548855916514E+01
 0.1471095863379E+01
 0.1390547830816E+01
 0.1307625494467E+01
 0.1223210508637E+01
 0.1138784603330E+01
 0.1056659818208E+01
 0.9802634774213E+00
 0.9144829658433E+00
 0.8661282971025E+00
 0.8443966288923E+00
 0.8608001283402E+00
 0.9276444731402E+00
 0.1055014785081E+01
 0.1247931986940E+01
 0.1504699675149E+01
 0.1816312548031E+01
 0.2167313628179E+01
 0.1912792609355E+01
 0.1971346088766E+01
 0.2033680634709E+01
 0.2093660801854E+01
 0.2145836254449E+01
 0.2186321718032E+01
 0.2213088790528E+01
 0.2225749238675E+01
 0.2225074718908E+01
 0.2212483832436E+01
 0.2189631399948E+01
 0.2158141278538E+01
 0.2119467547953E+01
 0.2074846654053E+01
 0.2025300323832E+01
 0.1971660234395E+01
 0.1914695818156E+01
 0.1855213157268E+01
 0.1793828047359E+01
 0.1730775572258E+01
 0.1666004009741E+01
 0.1599298551208E+01
 0.1530385092744E+01
 0.1459025621388E+01
 0.1385114898146E+01
 0.1308786856629E+01
 0.1230531753969E+01
 0.1151298953775E+01
 0.1072622148705E+01
 0.9968329682897E+00
 0.9273234664290E+00
 0.8688599060038E+00
 0.8279827001594E+00
 0.8133377435597E+00
 0.8354062447499E+00
 0.9049158611587E+00
 0.1030166938645E+01
 0.1214798070732E+01
 0.1456622483422E+01
 0.1747330735578E+01
 0.2073363575456E+01
 0.1797471507252E+01
 0.1850966064960E+01
 0.1908070533939E+01
 0.1963369542336E+01
 0.2011968242608E+01
 0.2050257089072E+01
 0.2076211212306E+01
 0.2089261002479E+01
 0.2089916351351E+01
 0.2079334153357E+01
 0.2058951687403E+01
 0.2030233250654E+01
 0.1994526611790E+01
 0.1953002205070E+01
 0.1906641916592E+01
 0.1856252331633E+01
 0.1802578253796E+01
 0.1746393390878E+01
 0.1688292153358E+01
 0.1628517051167E+01
 0.1567049506564E+01
 0.1503727069147E+01
 0.1438341216670E+01
 0.1370727230770E+01
 0.1300855771191E+01
 0.1228934105907E+01
 0.1155517392365E+01
 0.1081606477113E+01
 0.1008765520771E+01
 0.9393192615276E+00
 0.8765937457753E+00
 0.8251988189068E+00
 0.7913641965706E+00
 0.7831454210366E+00
 0.8099982827184E+00
 0.8811973881279E+00
 0.1003516431177E+01
 0.1179498708839E+01
 0.1406655253943E+01
 0.1677354783966E+01
 0.1979635371102E+01
 0.1683288662139E+01
 0.1732092787286E+01
 0.1784303326700E+01
 0.1835140054954E+01
 0.1880217691546E+01
 0.1916207955420E+01
 0.1941133077884E+01
 0.1954299588749E+01
 0.1956007134708E+01
 0.1947186582366E+01
 0.1929076382186E+01
 0.1902986605804E+01
 0.1870155580016E+01
 0.1831680549693E+01
 0.1788495620829E+01
 0.1741375639034E+01
 0.1691036369885E+01
 0.1638216952750E+01
 0.1583489493588E+01
 0.1527103059695E+01
 0.1469070592442E+01
 0.1409279295587E+01
 0.1347582403627E+01
 0.1283883470093E+01
 0.1218222482332E+01
 0.1150871249094E+01
 0.1082437993600E+01
 0.1013959375300E+01
 0.9470101342601E+00
 0.8838844673482E+00
 0.8278156262476E+00
 0.7832266631291E+00
 0.7560023629973E+00
 0.7535807525050E+00
 0.7844140979198E+00
 0.8564520587134E+00
 0.9751682231595E+00
 0.1142241336836E+01
 0.1355014364374E+01
 0.1606495676022E+01
 0.1886086781651E+01
 0.1570128568715E+01
 0.1614568373617E+01
 0.1662186482451E+01
 0.1708766533501E+01
 0.1750391334163E+01
 0.1784013895467E+01
 0.1807736429547E+01
 0.1820788849881E+01
 0.1823305411567E+01
 0.1816024007876E+01
 0.1800003279924E+01
 0.1776406227528E+01
 0.1746360859295E+01
 0.1710886116039E+01
 0.1670861955965E+01
 0.1627025808844E+01
 0.1580060388360E+01
 0.1530668021650E+01
 0.1479397298852E+01
 0.1426502640426E+01
 0.1372026605870E+01
 0.1315903119437E+01
 0.1258043092848E+01
 0.1198413005819E+01
 0.1137115256793E+01
 0.1074477189922E+01
 0.1011148426493E+01
 0.9481866062610E+00
 0.8871589210267E+00
 0.8303081274954E+00
 0.7807514584883E+00
 0.7426990953645E+00
 0.7216627982275E+00
 0.7244463559946E+00
 0.7585325830497E+00
 0.8306720999212E+00
 0.9452345109000E+00
 0.1103217783188E+01
 0.1301890926728E+01
 0.1534856485170E+01
 0.1792694115469E+01
 0.1457885112639E+01
 0.1498249057292E+01
 0.1541544451835E+01
 0.1584058954262E+01
 0.1622306452454E+01
 0.1653517712820E+01
 0.1675899512093E+01
 0.1688643737773E+01
 0.1691757937559E+01
 0.1685817136167E+01
 0.1671718817697E+01
 0.1650487211602E+01
 0.1623140870143E+01
 0.1590617038560E+01
 0.1553736537904E+01
 0.1513194598628E+01
 0.1469637271959E+01
 0.1423727842883E+01
 0.1375989965571E+01
 0.1326681947247E+01
 0.1275873845985E+01
 0.1223543203387E+01
 0.1169654367617E+01
 0.1114231225261E+01
 0.1057431534124E+01
 0.9996292109795E+00
 0.9415040354329E+00
 0.8841208414194E+00
 0.8290229808459E+00
 0.7783834742659E+00
 0.7351834647265E+00
 0.7033979047866E+00
 0.6881428938892E+00
 0.6955802059443E+00
 0.7322658262599E+00
 0.8038714228185E+00
 0.9138304607708E+00
 0.1062605534559E+01
 0.1247457014131E+01
 0.1462535417741E+01
 0.1699448196777E+01
 0.1346460024924E+01
 0.1383002851819E+01
 0.1422215998630E+01
 0.1460840932229E+01
 0.1495789946561E+01
 0.1524565865925E+01
 0.1545498218339E+01
 0.1557772220172E+01
 0.1561301792665E+01
 0.1556526112018E+01
 0.1544199300265E+01
 0.1525215711227E+01
 0.1500486577919E+01
 0.1470865455969E+01
 0.1437110222062E+01
 0.1399869928355E+01
 0.1359750751629E+01
 0.1317374768142E+01
 0.1273239139013E+01
 0.1227604398574E+01
 0.1180565824212E+01
 0.1132141364709E+01
 0.1082344491929E+01
 0.1031250940638E+01
 0.9790668231508E+00
 0.9262039225689E+00
 0.8733615747408E+00
 0.8215992176556E+00
 0.7724219227720E+00
 0.7279170892591E+00
 0.6909124413203E+00
 0.6651285326727E+00
 0.6552679784033E+00
 0.6668502512957E+00
 0.7055526372928E+00
 0.7760798359948E+00
 0.8810715040793E+00
 0.1020569383510E+01
 0.1191869885576E+01
 0.1389627131801E+01
 0.1606351697562E+01
 0.1235761595448E+01
 0.1268707608300E+01
 0.1304051941110E+01
 0.1338947816543E+01
 0.1370677365252E+01
 0.1397008618723E+01
 0.1416407145764E+01
 0.1428076830255E+01
 0.1431866025001E+01
 0.1428101988014E+01
 0.1417412070986E+01
 0.1400569791304E+01
 0.1378382069949E+01
 0.1351617873931E+01
 0.1320969318850E+01
 0.1287036011119E+01
 0.1250381424807E+01
 0.1211584361131E+01
 0.1171113855281E+01
 0.1129230879149E+01
 0.1086053548454E+01
 0.1041636963998E+01
 0.9960394203750E+00
 0.9493830219260E+00
 0.9019154342333E+00
 0.8540780355156E+00
 0.8065799202089E+00
 0.7604638389083E+00
 0.7171839646923E+00
 0.6787283828242E+00
 0.6477564094836E+00
 0.6277177279763E+00
 0.6228878403169E+00
 0.6381497566861E+00
 0.6783532346951E+00
 0.7473386499049E+00
 0.8470716663149E+00
 0.9772630094213E+00
 0.1135274930666E+01
 0.1316223502138E+01
 0.1513417330150E+01
 0.1125703591841E+01
 0.1155249385108E+01
 0.1186913227540E+01
 0.1218224999094E+01
 0.1246811936282E+01
 0.1270699992744E+01
 0.1288500348895E+01
 0.1299455911029E+01
 0.1303373058019E+01
 0.1300488049341E+01
 0.1291316621288E+01
 0.1276520281880E+01
 0.1256805170002E+01
 0.1232855586365E+01
 0.1205295877765E+01
 0.1174673555186E+01
 0.1141506923099E+01
 0.1106329567767E+01
 0.1069580740809E+01
 0.1031519989094E+01
 0.9922858389310E+00
 0.9519673022759E+00
 0.9106632841269E+00
 0.8685369652148E+00
 0.8258711011103E+00
 0.7831289782213E+00
 0.7410205893722E+00
 0.7005620733026E+00
 0.6631458515923E+00
 0.6306489631672E+00
 0.6055492764725E+00
 0.5910113748435E+00
 0.5908736257497E+00
 0.6093932971512E+00
 0.6506449102533E+00
 0.7176973546734E+00
 0.8119425613160E+00
 0.9328303836754E+00
 0.1077807854039E+01
 0.1242414266282E+01
 0.1420666658982E+01
 0.1016204341872E+01
 0.1042521066696E+01
 0.1070669284229E+01
 0.1098526409861E+01
 0.1124043620256E+01
 0.1145497580835E+01
 0.1161651856819E+01
 0.1171804610605E+01
 0.1175739894947E+01
 0.1173621008346E+01
 0.1165865640995E+01
 0.1153031628323E+01
 0.1135728087461E+01
 0.1114555154361E+01
 0.1090068041047E+01
 0.1062760039996E+01
 0.1033102153256E+01
 0.1001580955714E+01
 0.9686042745373E+00
 0.9344283455485E+00
 0.8992096812579E+00
 0.8630680326625E+00
 0.8261388604816E+00
 0.7886214061892E+00
 0.7508275056653E+00
 0.7132353776008E+00
 0.6765480999695E+00
 0.6417466883843E+00
 0.6101526484493E+00
 0.5835219576041E+00
 0.5641395612828E+00
 0.5548725202480E+00
 0.5591150995654E+00
 0.5805133379774E+00
 0.6224185059582E+00
 0.6872111134363E+00
 0.7757928167338E+00
 0.8874070107383E+00
 0.1019596428688E+01
 0.1168287724377E+01
 0.1328129431680E+01
 0.9071859463759E+00
 0.9304211815440E+00
 0.9551965856252E+00
 0.9797131737656E+00
 0.1002228201880E+01
 0.1021262268376E+01
 0.1035736014008E+01
 0.1045015680642E+01
 0.1048879157917E+01
 0.1047432091422E+01
 0.1041006022015E+01
 0.1030062746099E+01
 0.1015118108338E+01
 0.9966889511825E+00
 0.9752604774319E+00
 0.9512700787932E+00
 0.9251396260338E+00
 0.8973070392925E+00
 0.8681471297196E+00
 0.8379109541442E+00
 0.8067706336683E+00
 0.7748736027736E+00
 0.7423880411089E+00
 0.7095445931294E+00
 0.6766787206440E+00
 0.6442774226661E+00
 0.6130301939678E+00
 0.5838758654033E+00
 0.5580574633428E+00
 0.5372013487862E+00
 0.5233892387162E+00
 0.5191796293114E+00
 0.5275182601985E+00
 0.5514573356476E+00
 0.5936755602005E+00
 0.6559388721535E+00
 0.7387277873890E+00
 0.8411210504383E+00
 0.9607620264455E+00
 0.1093931588723E+01
 0.1235843431264E+01
 0.7985735963805E+00
 0.8188528791601E+00
 0.8403774047193E+00
 0.8616524059709E+00
 0.8812264269793E+00
 0.8978578990802E+00
 0.9106276967452E+00
 0.9189801310353E+00
 0.9227000070076E+00
 0.9218480539081E+00
 0.9166798441362E+00
 0.9075679058437E+00
 0.8949383539570E+00
 0.8792258012704E+00
 0.8608449269293E+00
 0.8401759021122E+00
 0.8175899103098E+00
 0.7934747297200E+00
 0.7681706367931E+00
 0.7419216917451E+00
 0.7149133280662E+00
 0.6873177636909E+00
 0.6593323291465E+00
 0.6312148429871E+00
 0.6033195886188E+00
 0.5761371286304E+00
 0.5503379529559E+00
 0.5268131353785E+00
 0.5067211636806E+00
 0.4915513999137E+00
 0.4831727666499E+00
 0.4838251040372E+00
 0.4960033037926E+00
 0.5221853033389E+00
 0.5644260026425E+00
 0.6239419358826E+00
 0.7008494684147E+00
 0.7940943717915E+00
 0.9014210719146E+00
 0.1019434080053E+01
 0.1143854950326E+01
 0.6902949731952E+00
 0.7077230336810E+00
 0.7260987091113E+00
 0.7442161255840E+00
 0.7609031925439E+00
 0.7751509210847E+00
 0.7862024608287E+00
 0.7935878054401E+00
 0.7971090048786E+00
 0.7967921867723E+00
 0.7928254054780E+00
 0.7854977123356E+00
 0.7751486743576E+00
 0.7621317853853E+00
 0.7467909348051E+00
 0.7294480465818E+00
 0.7104223027737E+00
 0.6900500055635E+00
 0.6686354645525E+00
 0.6464139966110E+00
 0.6235821553259E+00
 0.6003342247893E+00
 0.5768934280312E+00
 0.5535410238838E+00
 0.5306460628184E+00
 0.5086985187489E+00
 0.4883458303736E+00
 0.4704272886158E+00
 0.4560121706498E+00
 0.4464462736585E+00
 0.4433763904520E+00
 0.4487141219443E+00
 0.4645029459774E+00
 0.4926677955200E+00
 0.5346862993403E+00
 0.5912828991652E+00
 0.6622565536039E+00
 0.7464435887584E+00
 0.8416865468584E+00
 0.9448854143827E+00
 0.1052220117723E+01
 0.5822797140356E+00
 0.5969414473435E+00
 0.6122511739006E+00
 0.6272802726910E+00
 0.6411268035851E+00
 0.6530100622667E+00
 0.6623367016867E+00
 0.6687279834074E+00
 0.6720110501019E+00
 0.6721854511258E+00
 0.6693784451387E+00
 0.6638003367605E+00
 0.6557068485709E+00
 0.6453713977789E+00
 0.6330669748070E+00
 0.6190564629186E+00
 0.6036059393506E+00
 0.5869990386289E+00
 0.5695027582621E+00
 0.5513419994985E+00
 0.5327223516623E+00
 0.5138576407904E+00
 0.4949940647113E+00
 0.4764331550678E+00
 0.4585555533196E+00
 0.4418477412030E+00
 0.4269316286317E+00
 0.4145923344129E+00
 0.4058064710991E+00
 0.4017700191780E+00
 0.4038978808783E+00
 0.4137638929099E+00
 0.4329611328386E+00
 0.4628842816594E+00
 0.5044779703078E+00
 0.5580248459950E+00
 0.6230446055887E+00
 0.6982811329575E+00
 0.7816696878480E+00
 0.8703799193881E+00
 0.9610075150711E+00
 0.4744589287646E+00
 0.4864201315591E+00
 0.4987282878926E+00
 0.5107238247851E+00
 0.5217683378655E+00
 0.5313061393176E+00
 0.5389080016183E+00
 0.5442902511800E+00
 0.5473106812845E+00
 0.5479480949659E+00
 0.5462739586889E+00
 0.5424234452096E+00
 0.5365705747476E+00
 0.5289095768852E+00
 0.5196425201086E+00
 0.5089726357674E+00
 0.4971119697785E+00
 0.4842904157942E+00
 0.4707363785929E+00
 0.4566627194973E+00
 0.4422820583076E+00
 0.4278254149986E+00
 0.4135594085093E+00
 0.3998033440749E+00
 0.3869473700477E+00
 0.3754731405519E+00
 0.3659764593234E+00
 0.3591876528714E+00
 0.3559881150029E+00
 0.3574172564308E+00
 0.3646469911828E+00
 0.3789035133345E+00
 0.4013322138877E+00
 0.4328219010501E+00
 0.4738264210610E+00
 0.5242307550939E+00
 0.5833063193975E+00
 0.6497164327717E+00
 0.7214820746028E+00
 0.7960191920472E+00
 0.8703028977091E+00
 0.3667647559022E+00
 0.3760726468338E+00
 0.3854255367719E+00
 0.3944280444764E+00
 0.4027012655471E+00
 0.4099123228103E+00
 0.4157961969714E+00
 0.4201663928291E+00
 0.4229147110747E+00
 0.4240028976549E+00
 0.4234499159397E+00
 0.4213182773447E+00
 0.4177018335882E+00
 0.4127163111030E+00
 0.4064928711903E+00
 0.3991746188931E+00
 0.3909187722907E+00
 0.3819004739808E+00
 0.3723082475432E+00
 0.3623412454384E+00
 0.3522170927546E+00
 0.3421817642587E+00
 0.3325201405021E+00
 0.3235676802894E+00
 0.3157234996081E+00
 0.3094653120574E+00
 0.3053647569177E+00
 0.3040986575712E+00
 0.3064507898565E+00
 0.3132952451716E+00
 0.3255471946639E+00
 0.3440747552947E+00
 0.3695807242350E+00
 0.4024746240290E+00
 0.4427600491230E+00
 0.4899630608822E+00
 0.5431318734739E+00
 0.6008572987750E+00
 0.6612384194035E+00
 0.7219170320207E+00
 0.7802175712539E+00
 0.2591299497184E+00
 0.2658134864137E+00
 0.2722396678159E+00
 0.2782760550682E+00
 0.2838019817455E+00
 0.2887062348637E+00
 0.2928874249603E+00
 0.2962564932596E+00
 0.2987402684849E+00
 0.3002849094209E+00
 0.3008584236030E+00
 0.3004519886712E+00
 0.2990802237969E+00
 0.2967808352642E+00
 0.2936141117540E+00
 0.2896626420904E+00
 0.2850280529946E+00
 0.2798296393669E+00
 0.2742145321201E+00
 0.2683661848528E+00
 0.2625049004752E+00
 0.2568893084514E+00
 0.2518209106682E+00
 0.2476512003774E+00
 0.2447904780165E+00
 0.2437171999775E+00
 0.2449845242473E+00
 0.2492188213114E+00
 0.2571019525568E+00
 0.2693289182326E+00
 0.2865398836588E+00
 0.3092344524784E+00
 0.3376820625320E+00
 0.3718428993129E+00
 0.4113096087166E+00
 0.4552833312115E+00
 0.5026093756715E+00
 0.5518116734784E+00
 0.6010605861019E+00
 0.6482075161847E+00
 0.6909035070321E+00
 0.1514875068667E+00
 0.1555574994871E+00
 0.1590681795197E+00
 0.1621541598655E+00
 0.1649557428523E+00
 0.1675831915553E+00
 0.1700963836645E+00
 0.1725006598839E+00
 0.1747553737411E+00
 0.1767896658067E+00
 0.1785201940115E+00
 0.1798671057607E+00
 0.1807663754002E+00
 0.1811781994770E+00
 0.1810921517980E+00
 0.1805299085545E+00
 0.1795364698144E+00
 0.1781735868126E+00
 0.1765445089579E+00
 0.1748137326577E+00
 0.1732007407261E+00
 0.1719741539591E+00
 0.1714518746982E+00
 0.1720054426506E+00
 0.1740655651695E+00
 0.1781244457394E+00
 0.1847284183107E+00
 0.1944558126955E+00
 0.2078737958373E+00
 0.2254729222053E+00
 0.2475937154102E+00
 0.2743598456898E+00
 0.3056246250117E+00
 0.3409339632920E+00
 0.3795078470125E+00
 0.4202520307426E+00
 0.4618254299409E+00
 0.5026900128682E+00
 0.5410837946438E+00
 0.5750588809833E+00
 0.6025816818667E+00
 0.4377070253739E-01
 0.4521956483850E-01
 0.4581237147820E-01
 0.4598528713444E-01
 0.4616535281505E-01
 0.4668367280535E-01
 0.4773629108695E-01
 0.4938801392898E-01
 0.5160184339274E-01
 0.5427515553447E-01
 0.5727175773021E-01
 0.6044708244222E-01
 0.6366709715591E-01
 0.6682185275659E-01
 0.6983457212809E-01
 0.7266683463125E-01
 0.7530480960706E-01
 0.7774818690810E-01
 0.8004916169215E-01
 0.8234429207304E-01
 0.8484501414729E-01
 0.8782958688969E-01
 0.9164420085213E-01
 0.9670732138307E-01
 0.1035078638946E+00
 0.1125871009343E+00
 0.1244985997850E+00
 0.1397530944841E+00
 0.1587559297895E+00
 0.1817425037848E+00
 0.2087258117812E+00
 0.2394598754894E+00
 0.2734145245574E+00
 0.3097631689713E+00
 0.3473894733727E+00
 0.3849283447701E+00
 0.4208658790025E+00
 0.4536087791556E+00
 0.4814668394962E+00
 0.5026987276295E+00
 0.5155982486793E+00
 0.6409120028765E-01
 0.6528832168464E-01
 0.6765770519264E-01
 0.7057695798422E-01
 0.7341018648273E-01
 0.7559478783448E-01
 0.7672166515282E-01
 0.7657264526618E-01
 0.7511179273510E-01
 0.7244613377894E-01
 0.6877458904142E-01
 0.6433918859201E-01
 0.5938610634205E-01
 0.5413861736843E-01
 0.4878069640906E-01
 0.4344968559241E-01
 0.3825701799052E-01
 0.3330594012805E-01
 0.2865729399872E-01
 0.2435549045031E-01
 0.2061744234701E-01
 0.1822680209153E-01
 0.1885891364830E-01
 0.2398326537354E-01
 0.3354312493088E-01
 0.4702616707246E-01
 0.6424020448521E-01
 0.8519669622029E-01
 0.1099176131592E+00
 0.1383047095731E+00
 0.1700536533847E+00
 0.2045995014126E+00
 0.2410852820605E+00
 0.2783570594627E+00
 0.3149916102682E+00
 0.3493700432413E+00
 0.3798168326736E+00
 0.4046959531900E+00
 0.4224100301985E+00
 0.4314627306047E+00
 0.4305441652813E+00
 0.1721625784129E+00
 0.1760511841420E+00
 0.1814093167316E+00
 0.1873135885347E+00
 0.1928449460810E+00
 0.1972146016919E+00
 0.1998587526649E+00
 0.2004756475149E+00
 0.1990071288173E+00
 0.1955839913027E+00
 0.1904577851955E+00
 0.1839362795248E+00
 0.1763318662259E+00
 0.1679253209110E+00
 0.1589428006415E+00
 0.1495431443419E+00
 0.1398414700959E+00
 0.1299286579702E+00
 0.1198003886616E+00
 0.1093027684826E+00
 0.9816110132379E-01
 0.8601534772145E-01
 0.7244873603030E-01
 0.5701630253150E-01
 0.3928439189078E-01
 0.1894852429738E-01
 0.6343559615142E-02
 0.3222718011958E-01
 0.6240408785553E-01
 0.9581684841527E-01
 0.1319391266007E+00
 0.1699554965503E+00
 0.2087178722599E+00
 0.2467597033555E+00
 0.2823550492123E+00
 0.3136333700840E+00
 0.3387662008172E+00
 0.3561003938217E+00
 0.3641888769498E+00
 0.3618958117935E+00
 0.3485331816450E+00
 0.2805160169357E+00
 0.2871601957989E+00
 0.2955719902612E+00
 0.3045297400496E+00
 0.3128297745403E+00
 0.3194512086259E+00
 0.3236720876686E+00
 0.3251098631779E+00
 0.3236926984685E+00
 0.3195873385692E+00
 0.3131120697016E+00
 0.3046559024389E+00
 0.2946149919810E+00
 0.2833487846173E+00
 0.2711528698353E+00
 0.2582446866382E+00
 0.2447939265307E+00
 0.2309483866456E+00
 0.2167488926495E+00
 0.2020639088419E+00
 0.1866263503269E+00
 0.1700790941107E+00
 0.1520130623452E+00
 0.1320072415961E+00
 0.1096848431934E+00
 0.8482100332527E-01
 0.5766982580434E-01
 0.3100959412857E-01
 0.2702836441350E-01
 0.5721527487153E-01
 0.9546597718121E-01
 0.1359575246902E+00
 0.1764842522791E+00
 0.2150456481447E+00
 0.2495270152886E+00
 0.2777729516843E+00
 0.2978061877719E+00
 0.3080089759079E+00
 0.3072221723514E+00
 0.2949801814106E+00
 0.2719117031588E+00
 0.3892232885013E+00
 0.3987076458532E+00
 0.4102553566845E+00
 0.4223324470198E+00
 0.4334396541730E+00
 0.4423187815709E+00
 0.4480915233082E+00
 0.4503020618608E+00
 0.4488753012187E+00
 0.4440243980533E+00
 0.4361429782327E+00
 0.4257073008321E+00
 0.4132008472926E+00
 0.3990634749043E+00
 0.3836608348274E+00
 0.3672690277372E+00
 0.3501119378159E+00
 0.3323930997553E+00
 0.3141961639031E+00
 0.2954082241287E+00
 0.2757639784866E+00
 0.2548999687023E+00
 0.2323993381543E+00
 0.2078366234565E+00
 0.1808340003132E+00
 0.1511467238699E+00
 0.1188243754173E+00
 0.8464706294152E-01
 0.5218530026644E-01
 0.3909022944205E-01
 0.6436488466187E-01
 0.1036910569471E+00
 0.1447494500502E+00
 0.1833474826769E+00
 0.2165670444097E+00
 0.2418417378811E+00
 0.2570377676665E+00
 0.2606806516786E+00
 0.2522212682616E+00
 0.2326930481718E+00
 0.2061757485057E+00
 0.4983587426127E+00
 0.5107894262316E+00
 0.5255754201408E+00
 0.5408505335678E+00
 0.5548051280956E+00
 0.5659379731198E+00
 0.5732182371699E+00
 0.5761275193221E+00
 0.5746009745620E+00
 0.5689109410805E+00
 0.5595362623168E+00
 0.5470467579707E+00
 0.5320163627416E+00
 0.5149661857764E+00
 0.4963314706061E+00
 0.4764459741169E+00
 0.4555866644898E+00
 0.4340116726546E+00
 0.4118461338774E+00
 0.3889939579052E+00
 0.3651889629785E+00
 0.3400574057573E+00
 0.3131689526601E+00
 0.2840860112256E+00
 0.2524218679432E+00
 0.2179196008334E+00
 0.1805716257594E+00
 0.1408346248324E+00
 0.1002431344091E+00
 0.6405864695889E-01
 0.5130767640919E-01
 0.7616307944692E-01
 0.1143349049156E+00
 0.1519188385371E+00
 0.1835599249339E+00
 0.2058910409868E+00
 0.2165796257667E+00
 0.2145207128237E+00
 0.2005459190125E+00
 0.1794165024509E+00
 0.1641330764276E+00
 0.6079996397304E+00
 0.6235057215993E+00
 0.6416537393692E+00
 0.6602202130331E+00
 0.6770670522884E+00
 0.6904438727195E+00
 0.6991731650873E+00
 0.7026878547898E+00
 0.7009500927410E+00
 0.6943066617221E+00
 0.6833329937341E+00
 0.6686993643501E+00
 0.6510732188317E+00
 0.6310573253475E+00
 0.6091555009179E+00
 0.5857576697296E+00
 0.5611924994281E+00
 0.5357716220595E+00
 0.5096607102762E+00
 0.4827794048439E+00
 0.4548591230836E+00
 0.4255136128371E+00
 0.3942959652459E+00
 0.3607525828725E+00
 0.3244843513346E+00
 0.2852246487057E+00
 0.2429442235348E+00
 0.1979969300054E+00
 0.1514181260159E+00
 0.1058229378296E+00
 0.6893467191690E-01
 0.6138891429499E-01
 0.8725299085513E-01
 0.1212930375700E+00
 0.1506465314007E+00
 0.1699708955629E+00
 0.1765883579618E+00
 0.1702607577207E+00
 0.1550980926289E+00
 0.1447162642886E+00
 0.1642223894613E+00
 0.7182267461755E+00
 0.7369619234308E+00
 0.7586183967053E+00
 0.7805847775771E+00
 0.8003731219347E+00
 0.8159776744523E+00
 0.8260826214203E+00
 0.8300898420165E+00
 0.8280087850540E+00
 0.8202785441133E+00
 0.8075839545015E+00
 0.7907031034513E+00
 0.7703998102674E+00
 0.7473583893856E+00
 0.7221496230769E+00
 0.6952176218237E+00
 0.6669410673045E+00
 0.6376839240556E+00
 0.6076515747326E+00
 0.5767785665790E+00
 0.5447927843275E+00
 0.5112937850591E+00
 0.4758157084665E+00
 0.4378859076548E+00
 0.3970896891880E+00
 0.3531497995106E+00
 0.3060261408391E+00
 0.2560327572434E+00
 0.2040262352681E+00
 0.1518321699075E+00
 0.1034662376145E+00
 0.6941401272564E-01
 0.6853148430969E-01
 0.9272809703658E-01
 0.1181066987447E+00
 0.1341315084970E+00
 0.1373115078948E+00
 0.1294460033823E+00
 0.1222805818785E+00
 0.1420399174769E+00
 0.2057495446104E+00
 0.8291250322802E+00
 0.8512696894356E+00
 0.8766052516923E+00
 0.9020955179115E+00
 0.9248778039890E+00
 0.9426851212933E+00
 0.9540750166519E+00
 0.9584403725474E+00
 0.9558622077522E+00
 0.9468924882538E+00
 0.9323395789975E+00
 0.9130969639986E+00
 0.8900272715271E+00
 0.8638955419611E+00
 0.8353371997758E+00
 0.8048479985571E+00
 0.7728546089455E+00
 0.7397720419080E+00
 0.7058446020870E+00
 0.6710210360016E+00
 0.6350247205535E+00
 0.5974395312651E+00
 0.5577785063132E+00
 0.5155471005365E+00
 0.4703117018877E+00
 0.4217816776421E+00
 0.3699080928575E+00
 0.3149873317976E+00
 0.2578021463684E+00
 0.1998783921602E+00
 0.1439930598400E+00
 0.9561482098198E-01
 0.6681469713247E-01
 0.6950689616552E-01
 0.8662334993839E-01
 0.9842891524609E-01
 0.9925761143904E-01
 0.9582690217364E-01
 0.1127053934210E+00
 0.1721510940337E+00
 0.2697600079937E+00
 0.9407844848157E+00
 0.9665481764810E+00
 0.9957594100657E+00
 0.1024912987771E+01
 0.1050742929031E+01
 0.1070716146471E+01
 0.1083279521758E+01
 0.1087844290870E+01
 0.1084591750756E+01
 0.1074210050304E+01
 0.1057646310830E+01
 0.1035916916037E+01
 0.1009985010665E+01
 0.9806946004753E+00
 0.9487425607114E+00
 0.9146731002935E+00
 0.8789584830039E+00
 0.8420633553104E+00
 0.8042701849898E+00
 0.7655412941656E+00
 0.7255946625051E+00
 0.6839970747857E+00
 0.6402384031689E+00
 0.5937994110416E+00
 0.5442240694570E+00
 0.4912046117492E+00
 0.4346812497183E+00
 0.3749394850931E+00
 0.3127289983851E+00
 0.2494505570365E+00
 0.1874078639731E+00
 0.1302526738003E+00
 0.8414253713235E-01
 0.5927624684794E-01
 0.5832789252160E-01
 0.6295217230273E-01
 0.6391917590609E-01
 0.7808184430400E-01
 0.1306239113574E+00
 0.2214732856703E+00
 0.3435553639093E+00
 0.1053301060651E+01
 0.1082925489968E+01
 0.1116236935121E+01
 0.1149208484356E+01
 0.1178138471063E+01
 0.1200224738974E+01
 0.1213825096796E+01
 0.1218402836562E+01
 0.1214273168871E+01
 0.1202286468039E+01
 0.1183544629360E+01
 0.1159193961780E+01
 0.1130298752465E+01
 0.1097779008512E+01
 0.1062388828874E+01
 0.1024716961258E+01
 0.9852784739313E+00
 0.9445861265956E+00
 0.9029598427529E+00
 0.8603749900076E+00
 0.8165433363720E+00
 0.7710132228280E+00
 0.7232493530231E+00
 0.6727050673910E+00
 0.6188983703850E+00
 0.5615000727654E+00
 0.5004354157119E+00
 0.4359786021168E+00
 0.3688614536685E+00
 0.3004316668513E+00
 0.2328056013322E+00
 0.1689756840161E+00
 0.1128502967146E+00
 0.6902540471745E-01
 0.4113252723257E-01
 0.2806292069967E-01
 0.3797773822375E-01
 0.8540058049126E-01
 0.1665927435267E+00
 0.2795040019470E+00
 0.4217563721602E+00
 0.1166777817804E+01
 0.1200540404946E+01
 0.1238206851356E+01
 0.1275165731065E+01
 0.1307243382017E+01
 0.1331368751288E+01
 0.1345839446376E+01
 0.1350212099451E+01
 0.1344974879214E+01
 0.1331169031909E+01
 0.1310067600422E+01
 0.1282952879425E+01
 0.1250989436857E+01
 0.1215168828042E+01
 0.1176296940003E+01
 0.1135002333055E+01
 0.1091839686476E+01
 0.1047368269043E+01
 0.1001944845610E+01
 0.9555574234901E+00
 0.9079108329469E+00
 0.8585336815340E+00
 0.8068635863966E+00
 0.7523238576735E+00
 0.6944030738733E+00
 0.6327461386475E+00
 0.5672580738055E+00
 0.4981975074827E+00
 0.4262812847121E+00
 0.3528337424200E+00
 0.2799043412531E+00
 0.2102652489483E+00
 0.1471546282156E+00
 0.9339384324373E-01
 0.4925772952698E-01
 0.1126176092312E-01
 0.4228413656502E-01
 0.1119496770847E+00
 0.2108421119779E+00
 0.3413710236021E+00
 0.5021043090672E+00
 0.1281326270677E+01
 0.1319544429586E+01
 0.1361853505185E+01
 0.1402982774076E+01
 0.1438246412657E+01
 0.1464309508291E+01
 0.1479447711489E+01
 0.1483361265102E+01
 0.1476756172323E+01
 0.1460895509750E+01
 0.1437239605567E+01
 0.1407211246338E+01
 0.1372072478416E+01
 0.1332880164280E+01
 0.1290485163562E+01
 0.1245550240275E+01
 0.1198666086071E+01
 0.1150436836783E+01
 0.1101255633105E+01
 0.1051122882434E+01
 0.9997358619041E+00
 0.9466022388926E+00
 0.8911307533938E+00
 0.8327122926911E+00
 0.7708028027701E+00
 0.7050168877452E+00
 0.6352335751843E+00
 0.5616894254333E+00
 0.4850823664775E+00
 0.4067223476029E+00
 0.3286433812820E+00
 0.2535780992897E+00
 0.1846701881316E+00
 0.1247101062096E+00
 0.7530234750381E-01
 0.4407052382377E-01
 0.7049144063399E-01
 0.1467643733395E+00
 0.2584607197403E+00
 0.4048992423819E+00
 0.5835717007807E+00
 0.1397068030258E+01
 0.1440104301824E+01
 0.1487379363176E+01
 0.1532874108949E+01
 0.1571346854612E+01
 0.1599211097931E+01
 0.1614770765208E+01
 0.1617930530435E+01
 0.1609665231453E+01
 0.1591492522601E+01
 0.1565075135313E+01
 0.1531978603555E+01
 0.1493557218273E+01
 0.1450924819842E+01
 0.1404968884250E+01
 0.1356379826383E+01
 0.1305780359347E+01
 0.1253817864621E+01
 0.1200921609890E+01
 0.1147104376618E+01
 0.1092055407339E+01
 0.1035260326785E+01
 0.9760973865374E+00
 0.9139229818315E+00
 0.8481576536075E+00
 0.7783816837641E+00
 0.7044422653218E+00
 0.6265461512184E+00
 0.5453642756404E+00
 0.4621895192590E+00
 0.3790582356836E+00
 0.2987381289697E+00
 0.2244902420847E+00
 0.1595464331557E+00
 0.1072723427777E+00
 0.7871650350936E-01
 0.1039965128008E+00
 0.1843965683356E+00
 0.3072130422509E+00
 0.4690178212242E+00
 0.6656676962156E+00
 0.1514136809061E+01
 0.1562405037040E+01
 0.1615008346840E+01
 0.1665073049297E+01
 0.1706755117996E+01
 0.1736239208582E+01
 0.1751922985677E+01
 0.1753988601587E+01
 0.1743736909237E+01
 0.1722973839902E+01
 0.1693577615192E+01
 0.1657255718904E+01
 0.1615446509236E+01
 0.1569310101738E+01
 0.1519760550836E+01
 0.1467508380295E+01
 0.1413203968527E+01
 0.1357536414799E+01
 0.1300971159903E+01
 0.1243533596288E+01
 0.1184904602378E+01
 0.1124546778992E+01
 0.1061806513163E+01
 0.9960040850251E+00
 0.9265224932583E+00
 0.8529043318510E+00
 0.7749594638861E+00
 0.6928565379726E+00
 0.6072288085851E+00
 0.5193421269808E+00
 0.4312341461116E+00
 0.3457320758368E+00
 0.2662865619677E+00
 0.1966593075242E+00
 0.1415873997545E+00
 0.1133996319205E+00
 0.1383605487913E+00
 0.2226448131022E+00
 0.3559662758056E+00
 0.5331216808706E+00
 0.7481703379724E+00
 0.1632680896648E+01
 0.1686653681146E+01
 0.1744989825369E+01
 0.1799834337294E+01
 0.1844693021791E+01
 0.1875559343397E+01
 0.1891009367725E+01
 0.1891589698777E+01
 0.1878990239761E+01
 0.1855338598356E+01
 0.1822738271521E+01
 0.1783033945501E+01
 0.1737736417154E+01
 0.1688038751992E+01
 0.1634869753778E+01
 0.1578951497780E+01
 0.1520957347530E+01
 0.1461616772629E+01
 0.1401431815480E+01
 0.1340441026784E+01
 0.1278316750858E+01
 0.1214497712135E+01
 0.1148297348581E+01
 0.1078998784370E+01
 0.1005946196957E+01
 0.9286420911883E+00
 0.8468542542230E+00
 0.7607049540678E+00
 0.6707774966169E+00
 0.5782958615492E+00
 0.4852860942795E+00
 0.3946320236738E+00
 0.3099855854924E+00
 0.2356174062969E+00
 0.1773061262061E+00
 0.1480501916159E+00
 0.1725226965670E+00
 0.2605057743189E+00
 0.4040485156151E+00
 0.5967949982505E+00
 0.8310204721752E+00
 0.1752866247949E+01
 0.1813083973194E+01
 0.1877603414376E+01
 0.1937436972065E+01
 0.1985393617831E+01
 0.2017334192542E+01
 0.2032121815457E+01
 0.2030770002557E+01
 0.2015425688307E+01
 0.1988569475229E+01
 0.1952535067011E+01
 0.1909294691873E+01
 0.1860416039361E+01
 0.1807108991293E+01
 0.1750303414440E+01
 0.1690723357412E+01
 0.1629060218048E+01
 0.1566082768495E+01
 0.1502330558189E+01
 0.1437856194939E+01
 0.1372323469884E+01
 0.1305146501522E+01
 0.1235605041952E+01
 0.1162944750872E+01
 0.1086470810322E+01
 0.1005644532501E+01
 0.9201880524310E+00
 0.8301695494200E+00
 0.7361093469508E+00
 0.6391713636651E+00
 0.5413489210391E+00
 0.4455624815062E+00
 0.3556460796862E+00
 0.2763254225648E+00
 0.2141958803545E+00
 0.1827300360508E+00
 0.2061238880284E+00
 0.2974349765422E+00
 0.4510169414968E+00
 0.6596478634422E+00
 0.9142798142662E+00
 0.1874880377873E+01
 0.1941962189891E+01
 0.2013164759558E+01
 0.2078187190307E+01
 0.2129100287676E+01
 0.2161719879842E+01
 0.2175334437924E+01
 0.2171543490538E+01
 0.2153022168939E+01
 0.2122630872453E+01
 0.2082931754283E+01
 0.2036009031164E+01
 0.1983467448389E+01
 0.1926514671462E+01
 0.1866066076455E+01
 0.1802837101126E+01
 0.1737532017368E+01
 0.1670958220371E+01
 0.1603694247633E+01
 0.1535808044181E+01
 0.1466954948758E+01
 0.1396523844485E+01
 0.1323760464857E+01
 0.1247873595731E+01
 0.1168130626262E+01
 0.1083952231297E+01
 0.9950129331273E+00
 0.9013202392644E+00
 0.8033184452169E+00
 0.7020910436467E+00
 0.5995715232302E+00
 0.4986848730719E+00
 0.4034089290005E+00
 0.3188577857883E+00
 0.2522855373212E+00
 0.2175628422472E+00
 0.2390376485328E+00
 0.3330570094580E+00
 0.4966124028352E+00
 0.7212655891974E+00
 0.9979646067227E+00
 0.1998937329045E+01
 0.2073594538945E+01
 0.2152032517877E+01
 0.2222421462926E+01
 0.2276064735332E+01
 0.2308860719971E+01
 0.2320697653794E+01
 0.2313897139932E+01
 0.2291733896544E+01
 0.2257467196004E+01
 0.2213877111277E+01
 0.2163137483603E+01
 0.2106865770729E+01
 0.2046245532466E+01
 0.1982160290570E+01
 0.1915305312596E+01
 0.1846392435781E+01
 0.1776267499856E+01
 0.1705550185503E+01
 0.1634325447333E+01
 0.1562240331420E+01
 0.1488657913953E+01
 0.1412790040880E+01
 0.1333810301959E+01
 0.1250951171879E+01
 0.1163595290090E+01
 0.1071369693916E+01
 0.9742163451466E+00
 0.8724912152662E+00
 0.7671758952714E+00
 0.6601125647201E+00
 0.5541892957124E+00
 0.4534750162252E+00
 0.3633965124650E+00
 0.2917421330684E+00
 0.2527371901856E+00
 0.2712369773413E+00
 0.3671559917496E+00
 0.5403551806736E+00
 0.7823702448628E+00
 0.1078641815878E+01
 0.2125284086088E+01
 0.2208336600418E+01
 0.2294616781994E+01
 0.2370509255147E+01
 0.2426543335216E+01
 0.2458882026981E+01
 0.2468230907498E+01
 0.2457785516949E+01
 0.2431487189111E+01
 0.2393001347620E+01
 0.2345304438202E+01
 0.2290630010967E+01
 0.2230579409288E+01
 0.2166287556683E+01
 0.2098587082322E+01
 0.2028140587464E+01
 0.1955662065583E+01
 0.1882036232113E+01
 0.1807926831808E+01
 0.1733437876351E+01
 0.1658208238637E+01
 0.1581574611992E+01
 0.1502715619631E+01
 0.1420772636423E+01
 0.1334948104744E+01
 0.1244591687491E+01
 0.1149285647494E+01
 0.1048903851254E+01
 0.9437032063047E+00
 0.8345419060880E+00
 0.7231364620308E+00
 0.6122891708257E+00
 0.5060950164453E+00
 0.4102071428592E+00
 0.3328364128717E+00
 0.2885123687868E+00
 0.3028015249218E+00
 0.3994918144032E+00
 0.5821546978575E+00
 0.8419046642741E+00
 0.1161347075550E+01
 0.2254208967072E+01
 0.2346605501014E+01
 0.2441389216708E+01
 0.2522855106334E+01
 0.2580791064901E+01
 0.2611880405952E+01
 0.2617913818467E+01
 0.2603124845101E+01
 0.2572177397339E+01
 0.2529133579114E+01
 0.2477131406783E+01
 0.2418426260535E+01
 0.2354570410766E+01
 0.2286623403638E+01
 0.2215346483575E+01
 0.2141356184566E+01
 0.2065363163109E+01
 0.1988292143423E+01
 0.1910854696114E+01
 0.1833176254344E+01
 0.1754887450014E+01
 0.1675297933758E+01
 0.1593554397342E+01
 0.1508770540942E+01
 0.1420126017823E+01
 0.1326945453936E+01
 0.1228772134750E+01
 0.1125412245605E+01
 0.1017015310797E+01
 0.9042958046249E+00
 0.7888089065477E+00
 0.6732167015548E+00
 0.5615640187064E+00
 0.4596309419725E+00
 0.3759353903495E+00
 0.3252424243642E+00
 0.3338920698188E+00
 0.4299460091242E+00
 0.6215719917824E+00
 0.9001948247521E+00
 0.1245061942144E+01
 0.2386052759025E+01
 0.2488895770461E+01
 0.2592895172026E+01
 0.2679899277438E+01
 0.2739051937006E+01
 0.2767910850529E+01
 0.2769675649377E+01
 0.2749786754643E+01
 0.2713666216906E+01
 0.2665740895486E+01
 0.2609260362484E+01
 0.2546456093745E+01
 0.2478794971189E+01
 0.2407232898280E+01
 0.2332438100338E+01
 0.2254966743329E+01
 0.2175520527185E+01
 0.2095066077576E+01
 0.2014367437476E+01
 0.1933574025704E+01
 0.1852307772683E+01
 0.1769850454573E+01
 0.1685318885939E+01
 0.1597805501523E+01
 0.1506477155591E+01
 0.1410644680590E+01
 0.1309821762520E+01
 0.1203750929919E+01
 0.1092469344741E+01
 0.9765299458589E+00
 0.8572914433604E+00
 0.7372178218459E+00
 0.6202178360930E+00
 0.5120833813449E+00
 0.4215091664056E+00
 0.3633942873019E+00
 0.3648004341056E+00
 0.4584151876185E+00
 0.6582837820665E+00
 0.9570218658955E+00
 0.1329873657973E+01
 0.2521223726250E+01
 0.2635800206362E+01
 0.2749767968369E+01
 0.2842115717408E+01
 0.2901544418784E+01
 0.2926969882772E+01
 0.2923383115963E+01
 0.2897592073204E+01
 0.2855779729060E+01
 0.2802677224652E+01
 0.2741579184281E+01
 0.2674640428414E+01
 0.2603204061331E+01
 0.2528093531622E+01
 0.2449861676611E+01
 0.2368989045871E+01
 0.2286162499004E+01
 0.2202393211624E+01
 0.2118503220405E+01
 0.2034668492562E+01
 0.1950501129888E+01
 0.1865253952679E+01
 0.1778016929403E+01
 0.1687869893341E+01
 0.1593980046960E+01
 0.1495659376121E+01
 0.1392405382180E+01
 0.1283905199312E+01
 0.1170082943831E+01
 0.1051316185904E+01
 0.9287347083505E+00
 0.8045457908588E+00
 0.6824287662772E+00
 0.5680554024148E+00
 0.4701420375528E+00
 0.4035792057651E+00
 0.3959749666103E+00
 0.4848918554330E+00
 0.6919034344491E+00
 0.1012049379880E+01
 0.1416127858199E+01
 0.2660218185852E+01
 0.2788037615033E+01
 0.2912745341050E+01
 0.3010005303743E+01
 0.3068439769424E+01
 0.3088973955424E+01
 0.3078826809733E+01
 0.3046305229414E+01
 0.2998307607571E+01
 0.2939774589754E+01
 0.2873962799814E+01
 0.2802892410644E+01
 0.2727744136473E+01
 0.2649180911082E+01
 0.2567617593241E+01
 0.2483442789211E+01
 0.2397322086965E+01
 0.2310314511211E+01
 0.2223306389611E+01
 0.2136502478116E+01
 0.2049502905362E+01
 0.1961530173513E+01
 0.1871651756057E+01
 0.1778946292049E+01
 0.1682598060287E+01
 0.1581939192619E+01
 0.1476468837591E+01
 0.1365831809478E+01
 0.1249843753039E+01
 0.1128698623930E+01
 0.1003270010257E+01
 0.8754526433940E+00
 0.7485994012670E+00
 0.6281140819743E+00
 0.5225473750935E+00
 0.4465859664756E+00
 0.4280782199184E+00
 0.5095083306977E+00
 0.7219801595955E+00
 0.1064897348347E+01
 0.1504287293247E+01
 0.2803649249860E+01
 0.2946490073617E+01
 0.3082687539715E+01
 0.3184081045637E+01
 0.3239830533384E+01
 0.3253732484771E+01
 0.3235706924383E+01
 0.3195630109970E+01
 0.3141004011934E+01
 0.3076845519799E+01
 0.3006275439385E+01
 0.2931118919485E+01
 0.2852357878231E+01
 0.2770469073888E+01
 0.2685707215760E+01
 0.2598351317815E+01
 0.2509038221852E+01
 0.2418878484135E+01
 0.2328829552425E+01
 0.2239126397556E+01
 0.2149353584454E+01
 0.2058701733370E+01
 0.1966222043896E+01
 0.1871006735996E+01
 0.1772277889295E+01
 0.1669411054583E+01
 0.1561929530271E+01
 0.1449454173899E+01
 0.1331702915774E+01
 0.1208685133446E+01
 0.1080998981977E+01
 0.9501778556782E+00
 0.8191529595119E+00
 0.6929005896670E+00
 0.5795825957947E+00
 0.4934207639176E+00
 0.4620592340235E+00
 0.5326144180835E+00
 0.7480369071063E+00
 0.1115080574463E+01
 0.1594937538553E+01
 0.2952287817135E+01
 0.3112253470669E+01
 0.3260595518774E+01
 0.3364839935059E+01
 0.3415685652392E+01
 0.3420915354702E+01
 0.3393619628167E+01
 0.3345208512516E+01
 0.3283590727120E+01
 0.3213686902721E+01
 0.3138373686685E+01
 0.3059222392696E+01
 0.2976984897785E+01
 0.2891930545824E+01
 0.2804132968540E+01
 0.2713742242251E+01
 0.2621357148558E+01
 0.2528143316749E+01
 0.2435136194103E+01
 0.2342600842064E+01
 0.2250100734217E+01
 0.2156793143648E+01
 0.2061721956511E+01
 0.1964011913525E+01
 0.1862947981758E+01
 0.1757976739400E+01
 0.1648672872071E+01
 0.1534657261006E+01
 0.1415567903154E+01
 0.1291237646391E+01
 0.1161981102561E+01
 0.1028933621996E+01
 0.8945187671915E+00
 0.7631226485470E+00
 0.6422613312692E+00
 0.5453526196019E+00
 0.4992418697277E+00
 0.5549100382810E+00
 0.7696102461773E+00
 0.1161947765567E+01
 0.1688817677801E+01
 0.3107122398414E+01
 0.3286706646575E+01
 0.3447625467545E+01
 0.3552713001606E+01
 0.3595787982582E+01
 0.3590015801975E+01
 0.3552046361087E+01
 0.3494622612490E+01
 0.3425763070955E+01
 0.3350085416090E+01
 0.3270110350536E+01
 0.3187102950526E+01
 0.3101562314674E+01
 0.3013535990016E+01
 0.2922897960683E+01
 0.2829647832362E+01
 0.2734333961807E+01
 0.2638179518368E+01
 0.2542304005232E+01
 0.2446999814111E+01
 0.2351801360834E+01
 0.2255831909592E+01
 0.2158141079379E+01
 0.2057910236373E+01
 0.1954516927712E+01
 0.1847510477104E+01
 0.1736548723638E+01
 0.1621282294180E+01
 0.1501294761345E+01
 0.1376261207781E+01
 0.1246218969781E+01
 0.1111886278682E+01
 0.9751115147036E+00
 0.8395383517146E+00
 0.7117583352180E+00
 0.6039608629575E+00
 0.5414337713637E+00
 0.5776401761827E+00
 0.7863355793399E+00
 0.1204608457459E+01
 0.1786864157558E+01
 0.3269448698888E+01
 0.3471606570255E+01
 0.3645091504161E+01
 0.3747980337081E+01
 0.3779649907982E+01
 0.3760311682019E+01
 0.3710349542093E+01
 0.3643402987353E+01
 0.3567198929294E+01
 0.3485824566042E+01
 0.3401339144146E+01
 0.3314660791313E+01
 0.3226025119244E+01
 0.3135253246441E+01
 0.3042004913518E+01
 0.2946105014205E+01
 0.2848034294755E+01
 0.2749073262749E+01
 0.2650429181455E+01
 0.2552414793925E+01
 0.2454524668387E+01
 0.2355849613975E+01
 0.2255464147888E+01
 0.2152636744064E+01
 0.2046871831848E+01
 0.1937856662815E+01
 0.1825367951919E+01
 0.1709121395125E+01
 0.1588679895997E+01
 0.1463591875348E+01
 0.1333641310992E+01
 0.1199133598868E+01
 0.1061303115470E+01
 0.9229278756220E+00
 0.7894000080379E+00
 0.6711791242108E+00
 0.5910543766103E+00
 0.6028733947992E+00
 0.7981278911247E+00
 0.1241842326721E+01
 0.1890272672759E+01
 0.3441007676467E+01
 0.3669219583891E+01
 0.3854439471899E+01
 0.3950630804502E+01
 0.3966404347942E+01
 0.3930831802776E+01
 0.3867779440325E+01
 0.3791043511076E+01
 0.3707570977659E+01
 0.3620693239237E+01
 0.3531920118767E+01
 0.3441798844756E+01
 0.3350306240753E+01
 0.3257045514266E+01
 0.3161454027180E+01
 0.3063154702802E+01
 0.2962536170334E+01
 0.2860930719434E+01
 0.2759632078567E+01
 0.2658959867444E+01
 0.2558355208206E+01
 0.2456882829431E+01
 0.2353670408099E+01
 0.2248111765975E+01
 0.2139876706858E+01
 0.2028827809549E+01
 0.1914899284032E+01
 0.1797912354012E+01
 0.1677451553196E+01
 0.1552983596601E+01
 0.1424083842148E+01
 0.1290677943331E+01
 0.1153386464197E+01
 0.1014049632428E+01
 0.8766309668992E+00
 0.7493228624028E+00
 0.6512787850005E+00
 0.6338810289107E+00
 0.8055464208923E+00
 0.1271997139384E+01
 0.2000586165474E+01
 0.3624205325107E+01
 0.3882501092196E+01
 0.4077156923654E+01
 0.4160136581892E+01
 0.4154674186450E+01
 0.4100339867563E+01
 0.4023497659367E+01
 0.3937023596987E+01
 0.3846561759280E+01
 0.3754495546863E+01
 0.3661725753547E+01
 0.3568425705164E+01
 0.3474336295756E+01
 0.3378868383342E+01
 0.3281239253303E+01
 0.3180840038116E+01
 0.3077932024998E+01
 0.2973883840459E+01
 0.2870064794203E+01
 0.2766778200232E+01
 0.2663396335363E+01
 0.2558973604674E+01
 0.2452732389526E+01
 0.2344239248759E+01
 0.2233370941947E+01
 0.2120202915417E+01
 0.2004866692090E+01
 0.1887333757496E+01
 0.1767261191619E+01
 0.1644094246367E+01
 0.1517268213290E+01
 0.1386395577380E+01
 0.1251531119833E+01
 0.1113578417006E+01
 0.9749449538339E+00
 0.8410759861352E+00
 0.7261865596552E+00
 0.6756187406072E+00
 0.8105012889743E+00
 0.1292914011237E+01
 0.2119824940379E+01
 0.3822475727842E+01
 0.4115335226349E+01
 0.4314548325831E+01
 0.4375102227594E+01
 0.4342437892583E+01
 0.4267356413395E+01
 0.4176621400795E+01
 0.4080836743273E+01
 0.3983880985127E+01
 0.3887061608589E+01
 0.3790647543184E+01
 0.3694458939001E+01
 0.3598043112842E+01
 0.3500665399091E+01
 0.3401342178401E+01
 0.3299202802897E+01
 0.3194330911748E+01
 0.3088098365821E+01
 0.2981921537970E+01
 0.2876050182655E+01
 0.2769773748104E+01
 0.2662169131749E+01
 0.2552613801577E+01
 0.2440904638536E+01
 0.2327167922749E+01
 0.2211726482867E+01
 0.2094947621299E+01
 0.1977000757444E+01
 0.1857674962558E+01
 0.1736471041228E+01
 0.1612779401458E+01
 0.1486002814991E+01
 0.1355731880115E+01
 0.1222025383138E+01
 0.1085769039651E+01
 0.9493961879911E+00
 0.8208792147395E+00
 0.7352905814608E+00
 0.8175619281404E+00
 0.1302010212425E+01
 0.2250694132132E+01
 0.4040906910097E+01
 0.4372831843393E+01
 0.4567231274219E+01
 0.4592744998748E+01
 0.4526941714540E+01
 0.4430245799802E+01
 0.4326287154747E+01
 0.4222022752111E+01
 0.4119284400795E+01
 0.4018258709711E+01
 0.3918602857295E+01
 0.3819828967855E+01
 0.3721351367839E+01
 0.3622361901224E+01
 0.3521722313991E+01
 0.3418276775339E+01
 0.3311860882718E+01
 0.3203785344404E+01
 0.3095453101255E+01
 0.2987003552461E+01
 0.2877638626902E+01
 0.2766520023452E+01
 0.2653266206720E+01
 0.2537972189314E+01
 0.2421053899627E+01
 0.2303108517302E+01
 0.2184772487216E+01
 0.2066461815487E+01
 0.1948165506898E+01
 0.1829535558693E+01
 0.1710042003874E+01
 0.1589020007408E+01
 0.1465752195525E+01
 0.1339643030184E+01
 0.1210296916331E+01
 0.1077284085405E+01
 0.9414646684515E+00
 0.8229648620353E+00
 0.8362094535175E+00
 0.1296903065501E+01
 0.2396960015438E+01
 0.4287375445314E+01
 0.4661616595736E+01
 0.4834060905286E+01
 0.4808198234735E+01
 0.4704771524109E+01
 0.4587388995864E+01
 0.4471721377194E+01
 0.4360201449308E+01
 0.4252593523686E+01
 0.4148001908392E+01
 0.4045541820780E+01
 0.3944483812512E+01
 0.3844183096942E+01
 0.3743857144328E+01
 0.3642301954585E+01
 0.3538075770737E+01
 0.3430671543081E+01
 0.3321218465008E+01
 0.3210987423733E+01
 0.3099925606422E+01
 0.2987169437923E+01
 0.2872076433796E+01
 0.2754624103707E+01
 0.2635281544422E+01
 0.2514787202531E+01
 0.2394025963672E+01
 0.2273926050427E+01
 0.2155196802845E+01
 0.2038104201485E+01
 0.1922568591769E+01
 0.1808295929851E+01
 0.1694734651315E+01
 0.1581065421565E+01
 0.1466321432250E+01
 0.1349282381715E+01
 0.1227367708443E+01
 0.1094678919614E+01
 0.9521773025248E+00
 0.8842486702995E+00
 0.1277650839164E+01
 0.2564262613923E+01
 0.4574733584931E+01
 0.4989821164820E+01
 0.5109897070505E+01
 0.5013801404037E+01
 0.4872288972845E+01
 0.4737413838264E+01
 0.4612297036272E+01
 0.4495110442699E+01
 0.4383713852146E+01
 0.4276263214460E+01
 0.4171453906785E+01
 0.4068394910904E+01
 0.3966460584281E+01
 0.3865015503541E+01
 0.3762942809660E+01
 0.3658572124595E+01
 0.3550936777753E+01
 0.3440761456245E+01
 0.3328959247920E+01
 0.3215176972444E+01
 0.3098570736990E+01
 0.2978881111973E+01
 0.2856598122071E+01
 0.2732643388212E+01
 0.2608097833026E+01
 0.2484126242303E+01
 0.2361951602030E+01
 0.2242616848983E+01
 0.2126753751529E+01
 0.2014695087504E+01
 0.1906572124131E+01
 0.1802164595800E+01
 0.1700798465814E+01
 0.1601483532944E+01
 0.1502821055007E+01
 0.1401320603799E+01
 0.1286757749032E+01
 0.1140113108021E+01
 0.9920877002648E+00
 0.1253525592205E+01
 0.2762253186427E+01
 0.4925368156265E+01
 0.5365629579090E+01
 0.5381132590153E+01
 0.5199140952716E+01
 0.5026647803915E+01
 0.4879325245831E+01
 0.4747585106434E+01
 0.4626648812527E+01
 0.4512645897168E+01
 0.4403080091340E+01
 0.4296373242429E+01
 0.4191563971136E+01
 0.4088114033505E+01
 0.3985659698792E+01
 0.3883410327499E+01
 0.3779657079938E+01
 0.3672857781752E+01
 0.3562913917074E+01
 0.3449953059987E+01
 0.3333204731716E+01
 0.3212066311960E+01
 0.3086958536144E+01
 0.2959066246130E+01
 0.2829833871305E+01
 0.2700687196265E+01
 0.2573033872992E+01
 0.2448359554193E+01
 0.2328066217562E+01
 0.2213260499512E+01
 0.2104869372616E+01
 0.2003669732198E+01
 0.1910020857354E+01
 0.1823682966977E+01
 0.1743994111256E+01
 0.1670139900806E+01
 0.1599284772282E+01
 0.1521233519264E+01
 0.1405615859520E+01
 0.1207499973026E+01
 0.1261469423245E+01
 0.3011175392215E+01
 0.5381757167650E+01
 0.5789791067920E+01
 0.5617706317540E+01
 0.5354313951632E+01
 0.5166944983348E+01
 0.5012318724200E+01
 0.4877510711614E+01
 0.4754883792544E+01
 0.4639496852616E+01
 0.4528561181691E+01
 0.4420382102341E+01
 0.4314029700076E+01
 0.4209096816798E+01
 0.4105574340189E+01
 0.4003320658252E+01
 0.3901064479018E+01
 0.3796667246623E+01
 0.3688393141046E+01
 0.3574763905340E+01
 0.3454548827886E+01
 0.3327883189254E+01
 0.3196299647261E+01
 0.3061863424588E+01
 0.2926587440571E+01
 0.2792226892223E+01
 0.2660361713612E+01
 0.2532643572722E+01
 0.2410825910112E+01
 0.2296644621443E+01
 0.2191861226682E+01
 0.2098136713569E+01
 0.2016671329846E+01
 0.1948004850595E+01
 0.1892132615006E+01
 0.1849366443867E+01
 0.1819539313032E+01
 0.1796328916971E+01
 0.1760701326203E+01
 0.1600190220770E+01
 0.1408138078848E+01
 0.3366604587475E+01
 0.6034856855620E+01
 0.6221342079723E+01
 0.5766519738728E+01
 0.5481173114188E+01
 0.5292176385588E+01
 0.5136246904346E+01
 0.5002403702242E+01
 0.4880036544170E+01
 0.4764497734052E+01
 0.4652884100093E+01
 0.4543614638794E+01
 0.4435870988443E+01
 0.4329407723012E+01
 0.4224540564525E+01
 0.4122069134312E+01
 0.4022212264527E+01
 0.3922639232888E+01
 0.3818291937765E+01
 0.3704474745736E+01
 0.3579828801853E+01
 0.3446223970326E+01
 0.3306841969473E+01
 0.3164770733217E+01
 0.3022588166413E+01
 0.2882352951301E+01
 0.2745729108001E+01
 0.2614311556398E+01
 0.2490116468799E+01
 0.2375783398980E+01
 0.2274246226159E+01
 0.2188254397844E+01
 0.2120112374820E+01
 0.2071531839258E+01
 0.2043633590556E+01
 0.2037547650895E+01
 0.2057645283682E+01
 0.2105691482546E+01
 0.2190901439350E+01
 0.2249933695534E+01
 0.1934339923210E+01
 0.4027449643725E+01
 0.7119069846063E+01
 0.6402979088129E+01
 0.5821125960548E+01
 0.5588166310022E+01
 0.5399879919961E+01
 0.5252770165303E+01
 0.5122606799927E+01
 0.5002606389824E+01
 0.4887967362797E+01
 0.4776302922147E+01
 0.4666255296368E+01
 0.4557209796124E+01
 0.4449099744582E+01
 0.4342444487146E+01
 0.4238776082396E+01
 0.4141829215440E+01
 0.4051129440732E+01
 0.3954412642595E+01
 0.3840509246586E+01
 0.3709698595588E+01
 0.3567226107747E+01
 0.3418445580387E+01
 0.3267505184926E+01
 0.3117463767796E+01
 0.2970644271332E+01
 0.2828788779414E+01
 0.2692953234580E+01
 0.2565086378149E+01
 0.2449379531694E+01
 0.2350408129778E+01
 0.2272035075390E+01
 0.2217922945251E+01
 0.2191502518566E+01
 0.2195461658616E+01
 0.2231824872067E+01
 0.2304242613145E+01
 0.2440326405162E+01
 0.2655301924695E+01
 0.3114557752784E+01
 0.3323583353724E+01
 0.5949346830685E+01
 0.1108943871973E+00
 0.1410873151455E+00
 0.1837691944803E+00
 0.2277253439961E+00
 0.2656292254257E+00
 0.2935691739359E+00
 0.3100076114090E+00
 0.3149814535718E+00
 0.3094834091953E+00
 0.2949911893748E+00
 0.2731224538842E+00
 0.2454021948186E+00
 0.2132066405005E+00
 0.1778222987897E+00
 0.1405136235332E+00
 0.1025788980982E+00
 0.6538803373357E-01
 0.3088255383971E-01
 0.1344526692236E-01
 0.3990924804600E-01
 0.1057443869289E+00
 0.1325917591573E+00
 0.1715666423934E+00
 0.2125348661693E+00
 0.2485737819757E+00
 0.2757106918659E+00
 0.2921836320655E+00
 0.2977522649098E+00
 0.2931484832865E+00
 0.2796387017312E+00
 0.2586940136753E+00
 0.2317531805985E+00
 0.2001303648250E+00
 0.1651156319531E+00
 0.1280269347089E+00
 0.9025818248081E-01
 0.5336191365508E-01
 0.2063251617657E-01
 0.2309895131050E-01
 0.5617332826840E-01
 0.1012370443814E+00
 0.1252218429936E+00
 0.1608905287217E+00
 0.1990713879201E+00
 0.2332338034957E+00
 0.2594242150925E+00
 0.2757144658431E+00
 0.2816359290730E+00
 0.2776914114547E+00
 0.2649534366706E+00
 0.2447476351047E+00
 0.2184182587412E+00
 0.1872422628433E+00
 0.1525111392249E+00
 0.1155847335084E+00
 0.7793298209905E-01
 0.4137474502003E-01
 0.1397573723408E-01
 0.3641496144167E-01
 0.6987628549816E-01
 0.9719039854149E-01
 0.1188668581132E+00
 0.1516042256876E+00
 0.1871939647639E+00
 0.2194993137997E+00
 0.2446317810156E+00
 0.2605534083070E+00
 0.2666106646009E+00
 0.2631080963021E+00
 0.2509410205067E+00
 0.2312955819622E+00
 0.2054275319874E+00
 0.1745792173467E+00
 0.1400431316281E+00
 0.1032085306011E+00
 0.6562306434173E-01
 0.2963740960694E-01
 0.1819541606273E-01
 0.5008786756864E-01
 0.8301011522811E-01
 0.9352500617878E-01
 0.1133778065955E+00
 0.1435714051946E+00
 0.1767732757839E+00
 0.2072625285906E+00
 0.2312555160831E+00
 0.2466508852231E+00
 0.2526507346524E+00
 0.2493903444738E+00
 0.2376056247673E+00
 0.2183536598031E+00
 0.1928068318767E+00
 0.1621729852938E+00
 0.1277411414345E+00
 0.9092427658906E-01
 0.5338216820372E-01
 0.1943543110353E-01
 0.2917323038380E-01
 0.6372211889472E-01
 0.9609594285076E-01
 0.9018516581864E-01
 0.1086426807628E+00
 0.1366601560266E+00
 0.1676872522153E+00
 0.1964205861672E+00
 0.2192180730633E+00
 0.2339556130621E+00
 0.2397274073387E+00
 0.2365273179657E+00
 0.2249505549269E+00
 0.2059366164816E+00
 0.1805796020699E+00
 0.1500515631938E+00
 0.1156343914786E+00
 0.7876972230097E-01
 0.4140308911358E-01
 0.1508244372000E-01
 0.4180898814970E-01
 0.7729511815042E-01
 0.1092990700288E+00
 0.8712933047323E-01
 0.1045712437192E+00
 0.1307552877464E+00
 0.1598216394995E+00
 0.1868754816002E+00
 0.2084436995508E+00
 0.2224153859570E+00
 0.2278099396566E+00
 0.2245062488867E+00
 0.2129775809688E+00
 0.1940576185607E+00
 0.1687671340872E+00
 0.1382415270489E+00
 0.1037555665787E+00
 0.6681322323176E-01
 0.3011461117942E-01
 0.2070266996863E-01
 0.5486984393222E-01
 0.9082961816050E-01
 0.1226591296992E+00
 0.8432455966078E-01
 0.1010899223564E+00
 0.1257567360987E+00
 0.1530722253187E+00
 0.1785344438779E+00
 0.1988587288046E+00
 0.2119777976324E+00
 0.2168661916935E+00
 0.2133126542691E+00
 0.2016867772739E+00
 0.1827280985448E+00
 0.1573892463391E+00
 0.1267697884285E+00
 0.9214533591657E-01
 0.5515876847278E-01
 0.2064596609411E-01
 0.3120089984016E-01
 0.6802742343548E-01
 0.1043376705599E+00
 0.1361675521398E+00
 0.8174379302160E-01
 0.9813749838405E-01
 0.1215776074161E+00
 0.1473446138671E+00
 0.1713104533628E+00
 0.1903919463053E+00
 0.2025906891055E+00
 0.2068629957885E+00
 0.2029304809197E+00
 0.1910765027058E+00
 0.1719578957897E+00
 0.1464649077920E+00
 0.1156649531423E+00
 0.8085280226601E-01
 0.4396475585353E-01
 0.1625007152150E-01
 0.4300799837965E-01
 0.8115981103879E-01
 0.1178170927065E+00
 0.1497976898939E+00
 0.7936416615390E-01
 0.9566216903950E-01
 0.1181419910048E+00
 0.1425534146954E+00
 0.1651222027437E+00
 0.1829748440489E+00
 0.1942024354940E+00
 0.1977664029989E+00
 0.1933422445923E+00
 0.1811435000946E+00
 0.1617554806174E+00
 0.1360126858105E+00
 0.1049574385019E+00
 0.6993552119269E-01
 0.3351816906720E-01
 0.2017120739982E-01
 0.5514815812425E-01
 0.9420393276767E-01
 0.1312540386456E+00
 0.1635198601539E+00
 0.7716590296640E-01
 0.9361937173899E-01
 0.1153830067706E+00
 0.1386211408389E+00
 0.1598937353196E+00
 0.1765416364321E+00
 0.1867620924764E+00
 0.1895418292282E+00
 0.1845291405348E+00
 0.1718830035897E+00
 0.1521281018561E+00
 0.1260507664405E+00
 0.9467893445250E-01
 0.5946320985974E-01
 0.2446269604354E-01
 0.2893507331969E-01
 0.6730241673171E-01
 0.1071150921377E+00
 0.1446246072587E+00
 0.1773014128983E+00
 0.7513153555652E-01
 0.9197013632073E-01
 0.1132411067415E+00
 0.1354770500243E+00
 0.1555538846961E+00
 0.1710290996042E+00
 0.1802194220530E+00
 0.1821541377032E+00
 0.1764711300306E+00
 0.1632888191649E+00
 0.1430818018093E+00
 0.1165966896235E+00
 0.8486209440509E-01
 0.4952777180441E-01
 0.1840264182268E-01
 0.3917141397221E-01
 0.7932799116697E-01
 0.1198537172711E+00
 0.1578963990069E+00
 0.1911004411582E+00
 0.7324532834460E-01
 0.9067979412138E-01
 0.1116626075918E+00
 0.1330560053842E+00
 0.1520356039626E+00
 0.1663762713024E+00
 0.1745248067198E+00
 0.1755676466493E+00
 0.1691469731623E+00
 0.1553533312748E+00
 0.1346212982018E+00
 0.1076670016529E+00
 0.7554065942800E-01
 0.4026565255372E-01
 0.1795290784987E-01
 0.4974701690664E-01
 0.9114095061617E-01
 0.1323804780651E+00
 0.1710306969140E+00
 0.2048683332428E+00
 0.7149283597570E-01
 0.8971693904750E-01
 0.1105984177095E+00
 0.1312973927080E+00
 0.1492752437178E+00
 0.1625240590260E+00
 0.1696290793559E+00
 0.1697460759773E+00
 0.1625342137812E+00
 0.1480674545708E+00
 0.1267498156979E+00
 0.9927694071775E-01
 0.6675008511901E-01
 0.3190730662791E-01
 0.2291837259345E-01
 0.6026766943784E-01
 0.1026802214578E+00
 0.1446545143340E+00
 0.1839839768568E+00
 0.2185525791822E+00
 0.6986055232074E-01
 0.8905257022403E-01
 0.1100029241340E+00
 0.1301441041539E+00
 0.1472118102509E+00
 0.1594147843520E+00
 0.1654832831388E+00
 0.1646524351379E+00
 0.1566091165515E+00
 0.1414205478592E+00
 0.1194689083222E+00
 0.9144016587325E-01
 0.5852868642903E-01
 0.2488368232642E-01
 0.3035675629996E-01
 0.7055655318054E-01
 0.1138944088566E+00
 0.1566328683085E+00
 0.1967086230064E+00
 0.2320974796685E+00
 0.6833562347707E-01
 0.8865936883173E-01
 0.1098330113245E+00
 0.1295415897914E+00
 0.1457862225812E+00
 0.1569916837256E+00
 0.1620383745662E+00
 0.1602488584225E+00
 0.1513465635591E+00
 0.1354003077806E+00
 0.1127782925834E+00
 0.8416850267425E-01
 0.5091934607878E-01
 0.1999337270002E-01
 0.3851921941597E-01
 0.8051307632920E-01
 0.1247363895301E+00
 0.1682703933219E+00
 0.2091533019077E+00
 0.2454439698161E+00
 0.6690560653819E-01
 0.8851107624435E-01
 0.1100471895886E+00
 0.1294369747409E+00
 0.1449405800099E+00
 0.1551983811457E+00
 0.1592448823109E+00
 0.1564963975665E+00
 0.1467199217523E+00
 0.1299926573866E+00
 0.1066757019584E+00
 0.7747167598215E-01
 0.4397182169285E-01
 0.1828205292698E-01
 0.4672610545572E-01
 0.9006814644025E-01
 0.1351609622843E+00
 0.1795198987226E+00
 0.2212632643674E+00
 0.2585293001805E+00
 0.6555826171064E-01
 0.8858195024767E-01
 0.1106048156516E+00
 0.1297782383373E+00
 0.1446174476551E+00
 0.1539783444069E+00
 0.1570525327362E+00
 0.1533547804994E+00
 0.1427008893584E+00
 0.1251816372073E+00
 0.1011567663791E+00
 0.7135700440045E-01
 0.3774546247736E-01
 0.1992751791064E-01
 0.5469078922127E-01
 0.9916754304214E-01
 0.1451238519554E+00
 0.1903324519306E+00
 0.2329806858537E+00
 0.2712867262835E+00
 0.6428136879164E-01
 0.8884628211545E-01
 0.1114653904417E+00
 0.1305134503499E+00
 0.1447591639876E+00
 0.1532743329244E+00
 0.1554098497113E+00
 0.1507821413491E+00
 0.1392593232838E+00
 0.1209492976547E+00
 0.9621491478011E-01
 0.6582903953380E-01
 0.3231136289573E-01
 0.2372743573252E-01
 0.6226872053966E-01
 0.1077649720934E+00
 0.1545813788309E+00
 0.2006578085092E+00
 0.2442451037908E+00
 0.2836452866220E+00
 0.6306256141902E-01
 0.8927796141265E-01
 0.1125879210997E+00
 0.1315900587900E+00
 0.1453071730343E+00
 0.1530278443909E+00
 0.1542637365638E+00
 0.1487347273102E+00
 0.1363630493173E+00
 0.1172755910104E+00
 0.9184130249383E-01
 0.6088915911970E-01
 0.2775101867083E-01
 0.2840957493587E-01
 0.6937371219162E-01
 0.1158189533315E+00
 0.1634904817557E+00
 0.2104449117404E+00
 0.2549940045524E+00
 0.2955298719712E+00
 0.6188917404541E-01
 0.8985007789201E-01
 0.1139303351664E+00
 0.1329542228855E+00
 0.1462013821220E+00
 0.1531785658909E+00
 0.1535590468102E+00
 0.1471665867378E+00
 0.1339776549610E+00
 0.1141382583253E+00
 0.8802476401569E-01
 0.5653515276070E-01
 0.2414505735631E-01
 0.3325022508350E-01
 0.7594701960505E-01
 0.1232914036337E+00
 0.1718089544897E+00
 0.2196424236116E+00
 0.2651634451058E+00
 0.3068619022482E+00
 0.6074809761900E-01
 0.9053455137440E-01
 0.1154489354426E+00
 0.1345501839804E+00
 0.1473795445774E+00
 0.1536638338802E+00
 0.1532381496709E+00
 0.1460292425651E+00
 0.1320662642806E+00
 0.1115127051128E+00
 0.8475178903550E-01
 0.5276087602933E-01
 0.2154356671825E-01
 0.3789190459062E-01
 0.8194456261388E-01
 0.1301470416830E+00
 0.1794958164617E+00
 0.2281993359841E+00
 0.2746885570013E+00
 0.3175604410873E+00
 0.5962564056521E-01
 0.9130178131088E-01
 0.1170978843070E+00
 0.1363196664520E+00
 0.1487766655784E+00
 0.1544181063981E+00
 0.1532404959764E+00
 0.1452713553975E+00
 0.1305892946604E+00
 0.1093718591435E+00
 0.8200651470491E-01
 0.4955608318412E-01
 0.1991949237428E-01
 0.4215111351443E-01
 0.8733114254799E-01
 0.1363532124001E+00
 0.1865117865566E+00
 0.2360656510758E+00
 0.2835042473912E+00
 0.3275419846580E+00
 0.5850739199262E-01
 0.9212030801364E-01
 0.1188287064304E+00
 0.1382013002991E+00
 0.1503244284624E+00
 0.1553724501153E+00
 0.1535021899160E+00
 0.1448383812726E+00
 0.1295041965144E+00
 0.1076860039150E+00
 0.7977072044502E-01
 0.4690656175133E-01
 0.1913441070377E-01
 0.4592563848185E-01
 0.9207763887250E-01
 0.1418799327754E+00
 0.1928198186162E+00
 0.2431931911615E+00
 0.2915459555871E+00
 0.3367210700184E+00
 0.5737808411631E-01
 0.9295647740183E-01
 0.1205897988554E+00
 0.1401300568761E+00
 0.1519506383485E+00
 0.1564540444293E+00
 0.1539555721947E+00
 0.1446722299738E+00
 0.1287651785668E+00
 0.1064225823866E+00
 0.7802380447565E-01
 0.4479465953747E-01
 0.1895703303487E-01
 0.4915398251878E-01
 0.9615957341449E-01
 0.1467000426369E+00
 0.1983856855792E+00
 0.2495364821735E+00
 0.2987507603946E+00
 0.3450115351067E+00
 0.5622145063786E-01
 0.9377410051036E-01
 0.1223259372129E+00
 0.1420366892331E+00
 0.1535786798985E+00
 0.1575857048998E+00
 0.1545288207042E+00
 0.1447109311350E+00
 0.1283229235134E+00
 0.1055459677760E+00
 0.7674271622140E-01
 0.4320020129760E-01
 0.1912914189897E-01
 0.5179700796305E-01
 0.9955632527672E-01
 0.1507893859095E+00
 0.2031785795494E+00
 0.2550537522023E+00
 0.3050586993152E+00
 0.3523278528170E+00
 0.5502007726124E-01
 0.9453409791354E-01
 0.1239777663449E+00
 0.1438471686251E+00
 0.1551269864298E+00
 0.1586854288422E+00
 0.1551455757413E+00
 0.1448883171777E+00
 0.1281243017657E+00
 0.1050172017065E+00
 0.7590181774805E-01
 0.4210165040125E-01
 0.1942833384386E-01
 0.5382911620536E-01
 0.1022506450311E+00
 0.1541269568538E+00
 0.2071717026609E+00
 0.2597080302152E+00
 0.3104142117863E+00
 0.3585866350011E+00
 0.5375523951758E-01
 0.9519411736844E-01
 0.1254812626554E+00
 0.1454821089457E+00
 0.1565085183881E+00
 0.1596659668001E+00
 0.1557245979594E+00
 0.1451337342813E+00
 0.1281120947565E+00
 0.1047937051173E+00
 0.7547265178513E-01
 0.4147722926667E-01
 0.1969644684207E-01
 0.5523375963003E-01
 0.1042282756605E+00
 0.1566949449450E+00
 0.2103428020959E+00
 0.2634683147448E+00
 0.3147677762395E+00
 0.3637083638138E+00
 0.5240672173055E-01
 0.9570811035988E-01
 0.1267671543186E+00
 0.1468561715015E+00
 0.1576302507774E+00
 0.1604344250519E+00
 0.1561794684761E+00
 0.1453717948731E+00
 0.1282247441749E+00
 0.1048289750574E+00
 0.7542360472821E-01
 0.4130564053125E-01
 0.1984111782253E-01
 0.5600107622501E-01
 0.1054775643992E+00
 0.1584785978418E+00
 0.2126745764699E+00
 0.2663108040167E+00
 0.3180777939068E+00
 0.3676195220446E+00
 0.5095260736951E-01
 0.9602584871889E-01
 0.1277602831068E+00
 0.1478774432330E+00
 0.1583926711875E+00
 0.1608919057580E+00
 0.1564183410298E+00
 0.1455221865183E+00
 0.1283961491439E+00
 0.1050722921972E+00
 0.7571947222542E-01
 0.4156608033753E-01
 0.1982819972104E-01
 0.5612669209587E-01
 0.1059889899882E+00
 0.1594657901096E+00
 0.2141548408149E+00
 0.2682201564370E+00
 0.3203128034042E+00
 0.3702551669752E+00
 0.4936902808615E-01
 0.9609235643829E-01
 0.1283788897572E+00
 0.1484467842771E+00
 0.1586892943128E+00
 0.1609331936736E+00
 0.1563437553867E+00
 0.1454995506366E+00
 0.1285555367671E+00
 0.1054684781490E+00
 0.7632096274114E-01
 0.4223740110364E-01
 0.1967540521081E-01
 0.5561133490604E-01
 0.1057545730294E+00
 0.1596461442480E+00
 0.2147762682029E+00
 0.2691907261836E+00
 0.3214541186884E+00
 0.3715621433534E+00
 0.4762985091206E-01
 0.9584722157789E-01
 0.1285338023796E+00
 0.1484571463437E+00
 0.1584062062039E+00
 0.1604465021479E+00
 0.1558525197895E+00
 0.1452134397792E+00
 0.1286274306844E+00
 0.1059577576304E+00
 0.7718421769709E-01
 0.4329651518101E-01
 0.1944981998538E-01
 0.5446126322947E-01
 0.1047672174277E+00
 0.1590094799881E+00
 0.2145353978711E+00
 0.2692276679486E+00
 0.3214990349652E+00
 0.3715030447554E+00
 0.4570627030382E-01
 0.9522373736329E-01
 0.1281275064642E+00
 0.1477928743477E+00
 0.1574216632073E+00
 0.1593132950568E+00
 0.1548356664238E+00
 0.1445683525885E+00
 0.1285317302925E+00
 0.1064757861900E+00
 0.7826048063617E-01
 0.4471637337931E-01
 0.1926691313917E-01
 0.5268982144880E-01
 0.1030202267358E+00
 0.1575432862092E+00
 0.2134302680766E+00
 0.2683477579872E+00
 0.3204647623589E+00
 0.3700584483768E+00
 0.4356624697896E-01
 0.9414779652169E-01
 0.1270530787649E+00
 0.1463290297261E+00
 0.1556057909391E+00
 0.1574082083327E+00
 0.1531784785273E+00
 0.1434638348678E+00
 0.1281838928983E+00
 0.1069538741725E+00
 0.7949608466273E-01
 0.4646405871831E-01
 0.1928424961439E-01
 0.5032074825481E-01
 0.1005076925813E+00
 0.1552289960670E+00
 0.2114553276202E+00
 0.2665792761277E+00
 0.3183939802443E+00
 0.3672236442971E+00
 0.4117369643862E-01
 0.9253641618107E-01
 0.1251929948841E+00
 0.1439308181557E+00
 0.1528204621986E+00
 0.1545990900221E+00
 0.1507605764752E+00
 0.1417946201678E+00
 0.1274951950403E+00
 0.1073193913991E+00
 0.8083284818497E-01
 0.4849972389423E-01
 0.1967999881297E-01
 0.4739399514962E-01
 0.9722744913747E-01
 0.1520373673746E+00
 0.2085913014681E+00
 0.2639582409574E+00
 0.3153643483584E+00
 0.3630153443943E+00
 0.3848720756973E-01
 0.9029573069287E-01
 0.1224178590567E+00
 0.1404533457919E+00
 0.1489194465458E+00
 0.1507471858421E+00
 0.1474560269612E+00
 0.1394507799826E+00
 0.1263730381778E+00
 0.1074963130349E+00
 0.8220880997756E-01
 0.5077673997146E-01
 0.2061212703233E-01
 0.4397434349680E-01
 0.9318970346989E-01
 0.1479259333313E+00
 0.2047857040009E+00
 0.2605151483765E+00
 0.3115029326230E+00
 0.3575009467793E+00
 0.3545791122537E-01
 0.8731796140902E-01
 0.1185855870920E+00
 0.1357419476506E+00
 0.1437490480900E+00
 0.1457073422474E+00
 0.1431334647932E+00
 0.1363178234726E+00
 0.1247212336668E+00
 0.1074058828260E+00
 0.8355921955065E-01
 0.5324274486181E-01
 0.2217302811682E-01
 0.4015882462520E-01
 0.8843738805910E-01
 0.1428472847572E+00
 0.1999211557537E+00
 0.2562330965236E+00
 0.3070081330591E+00
 0.3508550375734E+00
 0.3202481837280E-01
 0.8347827887998E-01
 0.1135410859222E+00
 0.1296348971107E+00
 0.1371483722841E+00
 0.1393283216619E+00
 0.1376563543256E+00
 0.1322765814886E+00
 0.1224401359461E+00
 0.1069674338837E+00
 0.8481779369615E-01
 0.5584115332800E-01
 0.2436846885647E-01
 0.3607802440984E-01
 0.8306138669951E-01
 0.1368167125703E+00
 0.1937639999181E+00
 0.2509384731329E+00
 0.3021557492766E+00
 0.3435032348416E+00
 0.2810698626790E-01
 0.7862192289727E-01
 0.1071307313164E+00
 0.1219634176440E+00
 0.1289489462148E+00
 0.1314539357653E+00
 0.1308833907976E+00
 0.1272028617616E+00
 0.1194259603979E+00
 0.1060994888166E+00
 0.8591882767872E-01
 0.5851256098254E-01
 0.2713110684108E-01
 0.3190641236571E-01
 0.7717159075623E-01
 0.1299956464551E+00
 0.1861753409626E+00
 0.2438024116897E+00
 0.2972864319670E+00
 0.3365639512490E+00
 0.2352438973684E-01
 0.7265295809974E-01
 0.9920532001066E-01
 0.1125441053247E+00
 0.1189785554010E+00
 0.1219238000339E+00
 0.1226690399001E+00
 0.1209678860477E+00
 0.1155684503079E+00
 0.1047183085579E+00
 0.8680409301871E-01
 0.6119645858703E-01
 0.3034883619595E-01
 0.2787822165570E-01
 0.7089188302822E-01
 0.1225504105613E+00
 0.1775979172160E+00
 0.2338242366699E+00
 0.2898392454355E+00
 0.3342574472747E+00
 0.1344021083008E+01
 0.1575543812798E+01
 0.1095221596874E+01
 0.8359917026939E+00
 0.6625204317258E+00
 0.5352375664794E+00
 0.4342357031093E+00
 0.3507900259413E+00
 0.2800481847566E+00
 0.2193954692949E+00
 0.1669990440115E+00
 0.1213020901488E+00
 0.8458731221096E-01
 0.5787005229684E-01
 0.3909866627387E-01
 0.2637585668018E-01
 0.1734189660803E-01
 0.1047184383381E-01
 0.4935865455719E-02
 0.5399287142371E-03
 0.1031374110205E+01
 0.1549684028786E+01
 0.1224040373253E+01
 0.9291562126214E+00
 0.7335519957150E+00
 0.5922342137947E+00
 0.4826544138588E+00
 0.3931902166390E+00
 0.3179331504429E+00
 0.2535544393711E+00
 0.1979203415178E+00
 0.1499267164807E+00
 0.1110051204610E+00
 0.8087777997031E-01
 0.5770773507615E-01
 0.4024547395454E-01
 0.2671975121410E-01
 0.1577736869297E-01
 0.6759088265135E-02
 0.1335331168962E-02
 0.8207963002532E+00
 0.1340955781273E+01
 0.1235980369746E+01
 0.9961801185700E+00
 0.7942251417911E+00
 0.6439864323712E+00
 0.5274267627315E+00
 0.4328893992680E+00
 0.3536501452008E+00
 0.2859352509827E+00
 0.2274677299687E+00
 0.1770674253589E+00
 0.1353440149046E+00
 0.1018882398163E+00
 0.7498551122405E-01
 0.5339633094191E-01
 0.3579922681555E-01
 0.2113311118479E-01
 0.8943646881472E-02
 0.1960099863147E-02
 0.6707643952604E+00
 0.1145916583978E+01
 0.1165958581753E+01
 0.1015092040666E+01
 0.8371033342226E+00
 0.6871386864155E+00
 0.5671139848114E+00
 0.4690024624138E+00
 0.3866358627748E+00
 0.3161425557914E+00
 0.2551720001703E+00
 0.2024222237878E+00
 0.1579257615251E+00
 0.1212583350312E+00
 0.9092564568104E-01
 0.6567535805552E-01
 0.4443210905588E-01
 0.2638020095625E-01
 0.1124387033313E-01
 0.2552730378198E-02
 0.5586578645204E+00
 0.9776887626059E+00
 0.1068796921594E+01
 0.9925000503750E+00
 0.8551893207531E+00
 0.7179821654510E+00
 0.5997713829286E+00
 0.5004972870740E+00
 0.4162373239071E+00
 0.3437010688182E+00
 0.2806633266626E+00
 0.2257955710092E+00
 0.1787397517400E+00
 0.1390880253285E+00
 0.1055825190861E+00
 0.7701786991735E-01
 0.5249366317670E-01
 0.3136215884191E-01
 0.1345689170108E-01
 0.3183824150158E-02
 0.4724803431131E+00
 0.8361549154805E+00
 0.9652077015086E+00
 0.9450839303859E+00
 0.8496613956001E+00
 0.7337690643861E+00
 0.6234606281735E+00
 0.5261930947136E+00
 0.4417247792625E+00
 0.3681095715752E+00
 0.3035911773814E+00
 0.2469756118303E+00
 0.1976901572277E+00
 0.1553560193971E+00
 0.1189542421685E+00
 0.8738359942390E-01
 0.5989331729105E-01
 0.3595508049242E-01
 0.1546844524245E-01
 0.3893252865998E-02
 0.4048520727684E+00
 0.7176858294420E+00
 0.8645188612246E+00
 0.8843263922327E+00
 0.8261111536405E+00
 0.7346067042518E+00
 0.6369011605996E+00
 0.5450136522331E+00
 0.4623508112302E+00
 0.3888572378468E+00
 0.3236037993006E+00
 0.2657350630657E+00
 0.2146364409290E+00
 0.1699836411075E+00
 0.1309967257837E+00
 0.9672551446939E-01
 0.6656316249376E-01
 0.4007720062015E-01
 0.1720868104450E-01
 0.4709668106846E-02
 0.3509367115531E+00
 0.6185320673775E+00
 0.7706971768882E+00
 0.8176711773135E+00
 0.7901216547448E+00
 0.7226080721474E+00
 0.6400202842919E+00
 0.5562908476364E+00
 0.4774868126156E+00
 0.4054657082359E+00
 0.3403599200467E+00
 0.2818404786114E+00
 0.2294174753535E+00
 0.1828626923264E+00
 0.1416400704010E+00
 0.1049881933480E+00
 0.7244846024333E-01
 0.4367527566713E-01
 0.1863977762296E-01
 0.5656390478216E-02
 0.3074027226264E+00
 0.5354001535493E+00
 0.6852453253959E+00
 0.7497379806479E+00
 0.7462979098340E+00
 0.7005201347151E+00
 0.6337390210956E+00
 0.5599583045325E+00
 0.4867659453830E+00
 0.4175622990309E+00
 0.3535601604882E+00
 0.2950713213532E+00
 0.2418697334220E+00
 0.1938738693855E+00
 0.1508014443643E+00
 0.1121109682775E+00
 0.7750168238647E-01
 0.4671456897214E-01
 0.1974643356371E-01
 0.6748528128057E-02
 0.2718727542647E+00
 0.4655413449348E+00
 0.6084681500004E+00
 0.6833363781746E+00
 0.6981400174507E+00
 0.6710480027512E+00
 0.6195035671827E+00
 0.5564915725444E+00
 0.4901628282046E+00
 0.4249504078121E+00
 0.3629902563694E+00
 0.3052461619764E+00
 0.2518463421413E+00
 0.2029021080717E+00
 0.1583959168269E+00
 0.1180317282382E+00
 0.8167932353898E-01
 0.4917151141763E-01
 0.2052976209625E-01
 0.7989615625947E-02
 0.2426032711974E+00
 0.4066956059638E+00
 0.5400882368880E+00
 0.6201217441472E+00
 0.6482050382904E+00
 0.6365662393780E+00
 0.5989353679784E+00
 0.5467289689644E+00
 0.4879746280146E+00
 0.4276466342042E+00
 0.3685592146847E+00
 0.3122512758272E+00
 0.2592376078356E+00
 0.2098517586244E+00
 0.1643467306620E+00
 0.1226911721503E+00
 0.8494007407406E-01
 0.5102816026104E-01
 0.2100273506840E-01
 0.9369326558307E-02
 0.2182875077878E+00
 0.3570110358498E+00
 0.4795549000195E+00
 0.5610133133317E+00
 0.5983114617611E+00
 0.5990385482604E+00
 0.5736176491765E+00
 0.5316967639387E+00
 0.4807437827857E+00
 0.4258738082809E+00
 0.3703189482163E+00
 0.3160638364932E+00
 0.2639907668406E+00
 0.2146619494105E+00
 0.1685960462543E+00
 0.1260378379668E+00
 0.8724384087618E-01
 0.5226712095849E-01
 0.2118607673985E-01
 0.1086220065560E-01
 0.1979286217883E+00
 0.3149680024005E+00
 0.4262047233127E+00
 0.5064592254727E+00
 0.5497207746611E+00
 0.5600297877898E+00
 0.5449855220896E+00
 0.5124761619232E+00
 0.4691674849939E+00
 0.4200234958964E+00
 0.3684613449600E+00
 0.3167636940967E+00
 0.2661253259217E+00
 0.2173211013858E+00
 0.1711165232428E+00
 0.1280345352332E+00
 0.8855155957949E-01
 0.5286589062031E-01
 0.2110325383779E-01
 0.1242651693068E-01
 0.1807549545202E+00
 0.2793152715650E+00
 0.3793461298735E+00
 0.4566063824455E+00
 0.5032817474914E+00
 0.5207536744857E+00
 0.5142806637569E+00
 0.4901155342156E+00
 0.4540172524031E+00
 0.4106060901523E+00
 0.3632978653667E+00
 0.3145318738961E+00
 0.2657410392883E+00
 0.2178789530778E+00
 0.1719238869269E+00
 0.1286672678768E+00
 0.8882653825613E-01
 0.5278978028916E-01
 0.2077281261762E-01
 0.1400275267075E-01
 0.1661615256021E+00
 0.2490181502505E+00
 0.3383038049472E+00
 0.4114107664384E+00
 0.4595403701455E+00
 0.4821294893414E+00
 0.4825426962004E+00
 0.4655788230096E+00
 0.4360768983570E+00
 0.3982011201729E+00
 0.3552296387296E+00
 0.3096376493917E+00
 0.2630169161039E+00
 0.2164543167293E+00
 0.1710905598642E+00
 0.1279590543454E+00
 0.8803968565977E-01
 0.5198336494381E-01
 0.2019545069886E-01
 0.1551197015096E-01
 0.1536682983254E+00
 0.2232168219374E+00
 0.3024414010782E+00
 0.3707102811210E+00
 0.4188222293614E+00
 0.4448363935516E+00
 0.4506195906932E+00
 0.4397194409103E+00
 0.4160990845081E+00
 0.3834144432210E+00
 0.3447149915931E+00
 0.3024179563353E+00
 0.2582006103062E+00
 0.2132353960079E+00
 0.1687598048789E+00
 0.1259926121707E+00
 0.8618601290261E-01
 0.5036229764878E-01
 0.1933295339041E-01
 0.1685702214744E-01
 0.1428892549008E+00
 0.2011925560239E+00
 0.2711728796050E+00
 0.3342737453971E+00
 0.3812940569324E+00
 0.4093610119460E+00
 0.4191868007343E+00
 0.4132707525902E+00
 0.3947773601164E+00
 0.3668446312407E+00
 0.3322393262646E+00
 0.2932536016878E+00
 0.2515897240656E+00
 0.2084660857235E+00
 0.1651518341146E+00
 0.1229493624007E+00
 0.8332690876110E-01
 0.4782100602432E-01
 0.1807487587824E-01
 0.1793490085067E-01
 0.1335071277450E+00
 0.1823413459240E+00
 0.2439679571293E+00
 0.3018360308216E+00
 0.3470086763298E+00
 0.3760374815118E+00
 0.3887695481311E+00
 0.3868466754227E+00
 0.3727296697856E+00
 0.3490582215505E+00
 0.3182899794351E+00
 0.2825473124784E+00
 0.2435096589264E+00
 0.2024184326670E+00
 0.1605314387517E+00
 0.1191404758414E+00
 0.7971861950080E-01
 0.4428442465062E-01
 0.1623277628742E-01
 0.1869932986488E-01
 0.1252514224709E+00
 0.1661446131684E+00
 0.2203696145522E+00
 0.2731181692309E+00
 0.3159371887444E+00
 0.3450809459927E+00
 0.3597654553843E+00
 0.3609483346912E+00
 0.3504894964249E+00
 0.3305714322970E+00
 0.3033369039824E+00
 0.2707070274311E+00
 0.2342981112230E+00
 0.1953621713616E+00
 0.1551441942630E+00
 0.1148875856662E+00
 0.7594873046865E-01
 0.4018492709878E-01
 0.1364233584553E-01
 0.1935936533312E-01
 0.1178084044889E+00
 0.1522594281184E+00
 0.1999931447912E+00
 0.2478314980288E+00
 0.2879946269546E+00
 0.3166149776311E+00
 0.3324667959106E+00
 0.3359744945086E+00
 0.3285024278951E+00
 0.3118341495571E+00
 0.2878149855435E+00
 0.2581395582130E+00
 0.2243006171197E+00
 0.1875603294281E+00
 0.1491661769628E+00
 0.1103561586163E+00
 0.7239471887368E-01
 0.3695459144053E-01
 0.1238080642934E-01
 0.2209465423665E-01
 0.1767790112465E-01
 0.6529845827798E-01
 0.8910960427665E-01
 0.1004035421221E+00
 0.1059499658784E+00
 0.1092394291978E+00
 0.1113752976099E+00
 0.1117910520010E+00
 0.1088436953845E+00
 0.1004159408441E+00
 0.8456344406485E-01
 0.6046160401066E-01
 0.3059194321668E-01
 0.2708723299887E-01
 0.6929832799677E-01
 0.1204217334875E+00
 0.1747342306044E+00
 0.2299723827746E+00
 0.2862968678463E+00
 0.3539763363068E+00
 0.1194397449246E-01
 0.5675051456770E-01
 0.7700385079194E-01
 0.8555740074990E-01
 0.8985997492316E-01
 0.9344710204021E-01
 0.9716492258182E-01
 0.1000287352575E+00
 0.9990476422576E-01
 0.9416589788481E-01
 0.8037124766577E-01
 0.5744580565844E-01
 0.2852187022849E-01
 0.3003698280927E-01
 0.7390763200206E-01
 0.1260722732196E+00
 0.1813712352390E+00
 0.2382099873367E+00
 0.2997753395160E+00
 0.3661674095686E+00
 0.5449454894625E-02
 0.4607597592142E-01
 0.6192901058036E-01
 0.6742987272691E-01
 0.7060727933227E-01
 0.7495000675773E-01
 0.8092602317193E-01
 0.8702370584849E-01
 0.9051819645115E-01
 0.8817244207302E-01
 0.7696032285157E-01
 0.5550663351034E-01
 0.2752983779871E-01
 0.3236573451012E-01
 0.7762029938298E-01
 0.1311429274836E+00
 0.1881769579081E+00
 0.2479589369987E+00
 0.3112840516431E+00
 0.3716385928722E+00
 0.2865134987378E-02
 0.3301335674563E-01
 0.4351815194281E-01
 0.4568063485133E-01
 0.4796370592727E-01
 0.5365102366015E-01
 0.6268283074601E-01
 0.7288934077131E-01
 0.8084898922633E-01
 0.8261851004962E-01
 0.7447821006888E-01
 0.5469262039206E-01
 0.2746721678379E-01
 0.3407701066635E-01
 0.8068454306663E-01
 0.1358506424274E+00
 0.1948707180390E+00
 0.2563718015744E+00
 0.3187765538704E+00
 0.3746715791862E+00
 0.1151839718846E-01
 0.1741379420690E-01
 0.2152172303242E-01
 0.2007902998637E-01
 0.2175668296162E-01
 0.2950243644991E-01
 0.4251586551510E-01
 0.5779001012885E-01
 0.7110057883871E-01
 0.7770430274086E-01
 0.7306952267913E-01
 0.5504463154364E-01
 0.2822182395748E-01
 0.3523794732321E-01
 0.8317213014099E-01
 0.1399822739514E+00
 0.2004547760607E+00
 0.2624052039732E+00
 0.3230452217109E+00
 0.3755218477171E+00
 0.2198804828632E-01
 0.6934659320758E-02
 0.7882501092112E-02
 0.1109419109264E-01
 0.8608336449074E-02
 0.2534627347408E-02
 0.2058758327455E-01
 0.4195110362684E-01
 0.6151125007854E-01
 0.7364238579330E-01
 0.7287338900815E-01
 0.5659165404493E-01
 0.2973720561746E-01
 0.3591932023679E-01
 0.8503701469963E-01
 0.1431954331241E+00
 0.2044217603939E+00
 0.2659324924663E+00
 0.3244017723791E+00
 0.3740015773286E+00
 0.3432395021835E-01
 0.2748389001596E-01
 0.3770193253145E-01
 0.4542120498617E-01
 0.4227773359708E-01
 0.2718547014211E-01
 0.3386729432750E-02
 0.2568087051919E-01
 0.5234772030197E-01
 0.7064699139085E-01
 0.7401198480913E-01
 0.5934118123121E-01
 0.3199221491849E-01
 0.3621392218805E-01
 0.8623065806154E-01
 0.1453001491533E+00
 0.2065885679235E+00
 0.2669488960866E+00
 0.3229469282641E+00
 0.3698192453538E+00
 0.4886820747958E-01
 0.5534123510395E-01
 0.7444789680905E-01
 0.8514222560400E-01
 0.7996150019997E-01
 0.5939334888622E-01
 0.2778732545079E-01
 0.9583579259473E-02
 0.4389136907201E-01
 0.6891602404961E-01
 0.7657173106545E-01
 0.6325823254397E-01
 0.3495355029873E-01
 0.3626361346040E-01
 0.8677625311019E-01
 0.1462374987699E+00
 0.2068973390529E+00
 0.2654631051093E+00
 0.3186554803630E+00
 0.3626958849786E+00
 0.6606068623719E-01
 0.8887932507514E-01
 0.1173226178210E+00
 0.1300797924169E+00
 0.1213518005235E+00
 0.9373932987811E-01
 0.5332401671726E-01
 0.8160726191993E-02
 0.3641378727239E-01
 0.6860452382954E-01
 0.8057637770885E-01
 0.6823658493366E-01
 0.3852517911080E-01
 0.3626229752776E-01
 0.8676553058295E-01
 0.1460218479406E+00
 0.2053373613107E+00
 0.2614640412518E+00
 0.3114466468679E+00
 0.3523943083350E+00
 0.8645385663926E-01
 0.1288727704484E+00
 0.1668441518048E+00
 0.1802880972730E+00
 0.1660977303729E+00
 0.1296761028509E+00
 0.7914315271081E-01
 0.2331475808450E-01
 0.3013821207244E-01
 0.6978829342054E-01
 0.8595347723311E-01
 0.7406955453896E-01
 0.4251510026344E-01
 0.3642542404372E-01
 0.8633141272423E-01
 0.1446957557229E+00
 0.2019038104236E+00
 0.2549196648595E+00
 0.3012253880125E+00
 0.3387354894718E+00
 0.1107480159418E+00
 0.1763937959362E+00
 0.2235742455906E+00
 0.2356470765167E+00
 0.2135894511851E+00
 0.1664370909813E+00
 0.1045912953812E+00
 0.3788415107868E-01
 0.2518472620394E-01
 0.7241723758615E-01
 0.9249771742333E-01
 0.8042684676374E-01
 0.4662961651543E-01
 0.3694177648056E-01
 0.8561210094485E-01
 0.1422918566133E+00
 0.1965740885755E+00
 0.2457825638428E+00
 0.2879121355224E+00
 0.3216141134706E+00
 0.1398447744127E+00
 0.2327532224897E+00
 0.2880114215451E+00
 0.2957332119611E+00
 0.2628553327984E+00
 0.2030011318420E+00
 0.1289477815365E+00
 0.5120426588772E-01
 0.2150127102282E-01
 0.7626007566035E-01
 0.9983560455426E-01
 0.8684225092391E-01
 0.5049496317410E-01
 0.3793049987081E-01
 0.8470931979803E-01
 0.1387981462289E+00
 0.1892920143457E+00
 0.2339993481535E+00
 0.2714684641664E+00
 0.3010183199756E+00
 0.1749275351047E+00
 0.2995319283169E+00
 0.3604799185362E+00
 0.3596452503894E+00
 0.3124382824276E+00
 0.2380760195259E+00
 0.1514864349291E+00
 0.6311110138243E-01
 0.1878721438406E-01
 0.8084526451569E-01
 0.1073957871533E+00
 0.9271529460856E-01
 0.5370392395620E-01
 0.3942626718509E-01
 0.8364218364296E-01
 0.1341259532509E+00
 0.1799594856089E+00
 0.2195260833659E+00
 0.2519252093857E+00
 0.2770556276327E+00
 0.2175860103818E+00
 0.3786278721523E+00
 0.4409340614515E+00
 0.4257369831366E+00
 0.3602545597481E+00
 0.2701332869286E+00
 0.1716043171654E+00
 0.7377939350563E-01
 0.1641507182140E-01
 0.8540474040338E-01
 0.1143863763435E+00
 0.9732951042948E-01
 0.5588961064480E-01
 0.4139471193617E-01
 0.8230093655042E-01
 0.1280864580576E+00
 0.1684426237920E+00
 0.2023573519485E+00
 0.2294201103207E+00
 0.2499879318148E+00
 0.2700170554747E+00
 0.4722915393828E+00
 0.5285775958575E+00
 0.4912038721407E+00
 0.4034728944209E+00
 0.2975616994080E+00
 0.1890303677911E+00
 0.8384087271733E-01
 0.1336102436965E-01
 0.8881998728033E-01
 0.1197739659301E+00
 0.9989253758836E-01
 0.5683564236545E-01
 0.4375297651052E-01
 0.8041478887276E-01
 0.1203948959984E+00
 0.1546114048967E+00
 0.1825842364304E+00
 0.2042565738549E+00
 0.2202823497703E+00
 0.3353662084705E+00
 0.5830746576396E+00
 0.6210892433016E+00
 0.5514510292684E+00
 0.4385613311143E+00
 0.3190437948993E+00
 0.2040973244792E+00
 0.9445746467191E-01
 0.8207513706655E-02
 0.8954629764730E-01
 0.1222519517183E+00
 0.9961418176581E-01
 0.5663661584395E-01
 0.4637571553108E-01
 0.7757915000593E-01
 0.1107542010526E+00
 0.1384554226631E+00
 0.1605127037941E+00
 0.1770070889408E+00
 0.1886999217839E+00
 0.4183638275520E+00
 0.7134836207797E+00
 0.7128646105085E+00
 0.5993366253049E+00
 0.4618369850593E+00
 0.3343375575372E+00
 0.2178407791841E+00
 0.1072478824129E+00
 0.3274525758956E-02
 0.8545793475490E-01
 0.1201837447594E+00
 0.9586733455549E-01
 0.5591483492535E-01
 0.4915110038267E-01
 0.7348331484519E-01
 0.9915182950982E-01
 0.1203747973383E+00
 0.1369071396365E+00
 0.1487231180414E+00
 0.1564733734375E+00
 0.5265778773735E+00
 0.8639409522727E+00
 0.7913726112406E+00
 0.6244457829403E+00
 0.4720900413809E+00
 0.3447396869115E+00
 0.2315891424016E+00
 0.1241224659226E+00
 0.1884634930087E-01
 0.7350492518124E-01
 0.1115093083520E+00
 0.8856097688270E-01
 0.5605910322757E-01
 0.5239048702693E-01
 0.6873660974441E-01
 0.8670702930913E-01
 0.1018592920341E+00
 0.1135301734139E+00
 0.1213886167564E+00
 0.1257530835667E+00
 0.6740005861566E+00
 0.1026932196622E+01
 0.8235119813626E+00
 0.6221644448596E+00
 0.4728514838747E+00
 0.3519410665693E+00
 0.2463765228758E+00
 0.1470053046556E+00
 0.4663248599663E-01
 0.4891179941712E-01
 0.9366108146595E-01
 0.7903288753105E-01
 0.5963258257177E-01
 0.5823771123359E-01
 0.6694742650791E-01
 0.7755764342959E-01
 0.8699674725388E-01
 0.9425255700107E-01
 0.9891298474085E-01
 0.1004659532547E+00
 0.8858138586632E+00
 0.1085330862947E+01
 0.7876818832846E+00
 0.6047412871583E+00
 0.4678273241702E+00
 0.3572986971566E+00
 0.2624583738343E+00
 0.1770153701915E+00
 0.9140467650414E-01
 0.4183708013072E-02
 0.6368668328847E-01
 0.7309244725638E-01
 0.7137028298075E-01
 0.7248038406825E-01
 0.7614951474222E-01
 0.8028253100825E-01
 0.8402564675214E-01
 0.8661398137373E-01
 0.8772285966194E-01
 0.8717498420359E-01
 0.5393245859803E-01
 0.5292107086302E-01
 0.4862509071403E-01
 0.4416575493905E-01
 0.3992767118377E-01
 0.3592111415690E-01
 0.3211127046450E-01
 0.2847504593464E-01
 0.2500583057678E-01
 0.2170808157920E-01
 0.1859161654049E-01
 0.1566705757133E-01
 0.1294239190334E-01
 0.1042041972877E-01
 0.8097175787331E-02
 0.5961955145301E-02
 0.4002477372473E-02
 0.2230561274775E-02
 0.9871724075999E-03
 0.1662060379247E-02
 0.6547752230321E-01
 0.6308409428855E-01
 0.6059940582137E-01
 0.5737041459975E-01
 0.5374545956371E-01
 0.4992621036473E-01
 0.4601756235619E-01
 0.4207678948400E-01
 0.3814223007926E-01
 0.3424486167397E-01
 0.3041205087974E-01
 0.2666809521279E-01
 0.2303375888046E-01
 0.1952588104101E-01
 0.1615779198623E-01
 0.1294160712359E-01
 0.9893610598077E-02
 0.7053683703979E-02
 0.4508651710884E-02
 0.2863237018739E-02
 0.7893731674696E-01
 0.7521740900927E-01
 0.7290114254525E-01
 0.7035838373891E-01
 0.6728379911823E-01
 0.6374566676432E-01
 0.5985574688340E-01
 0.5570981321079E-01
 0.5138270922960E-01
 0.4693454249899E-01
 0.4241595899574E-01
 0.3787134011203E-01
 0.3334073817004E-01
 0.2886155646366E-01
 0.2447096754261E-01
 0.2020981307939E-01
 0.1613119648472E-01
 0.1231051946889E-01
 0.8914435333316E-02
 0.6100597079669E-02
 0.9301034897298E-01
 0.8907121484863E-01
 0.8640930552021E-01
 0.8394590101137E-01
 0.8110002233311E-01
 0.7771818823196E-01
 0.7382263205499E-01
 0.6948695631318E-01
 0.6479242116855E-01
 0.5981535156110E-01
 0.5462538292929E-01
 0.4928664482641E-01
 0.4385962999522E-01
 0.3840346829372E-01
 0.3297887679910E-01
 0.2765251959773E-01
 0.2250160938235E-01
 0.1762368918411E-01
 0.1311179825555E-01
 0.8990736061773E-02
 0.1072015026983E+00
 0.1037125428907E+00
 0.1009499563571E+00
 0.9838483305764E-01
 0.9553168565944E-01
 0.9214275611862E-01
 0.8815210294726E-01
 0.8358602207345E-01
 0.7850895886320E-01
 0.7299818630239E-01
 0.6713358252360E-01
 0.6099432514813E-01
 0.5465858070520E-01
 0.4820466943628E-01
 0.4171330110691E-01
 0.3527040230639E-01
 0.2897053497594E-01
 0.2291303448777E-01
 0.1718370956124E-01
 0.1181564281922E-01
 0.1214473153234E+00
 0.1187410994844E+00
 0.1161722350892E+00
 0.1135865351896E+00
 0.1106628521575E+00
 0.1071705483404E+00
 0.1030047234709E+00
 0.9815349155846E-01
 0.9265895655891E-01
 0.8659097100019E-01
 0.8003260866792E-01
 0.7307296804171E-01
 0.6580403868637E-01
 0.5831981856649E-01
 0.5071676264139E-01
 0.4309518770298E-01
 0.3556039625261E-01
 0.2822298084787E-01
 0.2119793433572E-01
 0.1459297310274E-01
 0.1357520405620E+00
 0.1339770864684E+00
 0.1318377970124E+00
 0.1293823585873E+00
 0.1264363475527E+00
 0.1228249156459E+00
 0.1184449294144E+00
 0.1132674166517E+00
 0.1073187227965E+00
 0.1006609248260E+00
 0.9337763608724E-01
 0.8556501102279E-01
 0.7732637620249E-01
 0.6876913888572E-01
 0.6000316138358E-01
 0.5114013650928E-01
 0.4229426671294E-01
 0.3358610054039E-01
 0.2515711231384E-01
 0.1720933599002E-01
 0.1501278310145E+00
 0.1493463268737E+00
 0.1478004356669E+00
 0.1456257516721E+00
 0.1427491740271E+00
 0.1390547403882E+00
 0.1344596116633E+00
 0.1289346616587E+00
 0.1225003118878E+00
 0.1152150825494E+00
 0.1071643251436E+00
 0.9845132909572E-01
 0.8919075374737E-01
 0.7950377503619E-01
 0.6951439987596E-01
 0.5934675956328E-01
 0.4912386311902E-01
 0.3897010499866E-01
 0.2902369524957E-01
 0.1949553838516E-01
 0.1645847626147E+00
 0.1648278853503E+00
 0.1639881174806E+00
 0.1622224333958E+00
 0.1595160822210E+00
 0.1557989355998E+00
 0.1510121066404E+00
 0.1451348193763E+00
 0.1381891195409E+00
 0.1302349519272E+00
 0.1213623910545E+00
 0.1116839021660E+00
 0.1013274725225E+00
 0.9043060244217E-01
 0.7913493516351E-01
 0.6758137069634E-01
 0.5590571461691E-01
 0.4423503989647E-01
 0.3268497546299E-01
 0.2135057130615E-01
 0.1791460754014E+00
 0.1804419770264E+00
 0.1803988659064E+00
 0.1791570784793E+00
 0.1767270287418E+00
 0.1730672161495E+00
 0.1681378385350E+00
 0.1619278078114E+00
 0.1544639328553E+00
 0.1458105076335E+00
 0.1360645833714E+00
 0.1253496692177E+00
 0.1138090086121E+00
 0.1015987653863E+00
 0.8888110396368E-01
 0.7581697025214E-01
 0.6255805315647E-01
 0.4923619070725E-01
 0.3594449868420E-01
 0.2267711289628E-01
 0.1938017840732E+00
 0.1961727485552E+00
 0.1970013218757E+00
 0.1963872293578E+00
 0.1943412463025E+00
 0.1908336354739E+00
 0.1858349466663E+00
 0.1793403240635E+00
 0.1713804598457E+00
 0.1620240588746E+00
 0.1513755296021E+00
 0.1395701144836E+00
 0.1267675625248E+00
 0.1131447938157E+00
 0.9888766604102E-01
 0.8418171175505E-01
 0.6920124771881E-01
 0.5409518774520E-01
 0.3896390154526E-01
 0.2382407571395E-01
 0.2085226666937E+00
 0.2119932817313E+00
 0.2137597201713E+00
 0.2138694093789E+00
 0.2123155413024E+00
 0.2090651946091E+00
 0.2040891138187E+00
 0.1973823785907E+00
 0.1889756753207E+00
 0.1789395978692E+00
 0.1673843077757E+00
 0.1544561121397E+00
 0.1403318143517E+00
 0.1252112476797E+00
 0.1093081829377E+00
 0.9283968775328E-01
 0.7601390051344E-01
 0.5901588480704E-01
 0.4199264957996E-01
 0.2504734802402E-01
 0.2232688179950E+00
 0.2278723964838E+00
 0.2306414721798E+00
 0.2315678598674E+00
 0.2306152737254E+00
 0.2277351886106E+00
 0.2228883167641E+00
 0.2160618282171E+00
 0.2072803805471E+00
 0.1966117557245E+00
 0.1841683309523E+00
 0.1701052895781E+00
 0.1546160725645E+00
 0.1379253163028E+00
 0.1202794690437E+00
 0.1019354118766E+00
 0.8314771217458E-01
 0.6415595103371E-01
 0.4517587906023E-01
 0.2640127227793E-01
 0.2379916496683E+00
 0.2437703759714E+00
 0.2476095395970E+00
 0.2494459550756E+00
 0.2492064948775E+00
 0.2468172302172E+00
 0.2422192853900E+00
 0.2353833785903E+00
 0.2263206161946E+00
 0.2150893844247E+00
 0.2017987567162E+00
 0.1866087396155E+00
 0.1697274432116E+00
 0.1514051291526E+00
 0.1319251716944E+00
 0.1115923138270E+00
 0.9071926128953E-01
 0.6961370900557E-01
 0.4856904172310E-01
 0.2786192468763E-01
 0.2526354073773E+00
 0.2596378098787E+00
 0.2646181149140E+00
 0.2674602173870E+00
 0.2680497699107E+00
 0.2662799493580E+00
 0.2620637608565E+00
 0.2553467795756E+00
 0.2461179921369E+00
 0.2344181164883E+00
 0.2203452854432E+00
 0.2040579360543E+00
 0.1857745484694E+00
 0.1657697562155E+00
 0.1443664594705E+00
 0.1219240256672E+00
 0.9882349620995E-01
 0.7545174352347E-01
 0.5218715841763E-01
 0.2938884480438E-01
 0.2671376317871E+00
 0.2754151179160E+00
 0.2816100265594E+00
 0.2855559020995E+00
 0.2870948123738E+00
 0.2860815053768E+00
 0.2823935283394E+00
 0.2759428688842E+00
 0.2666871515889E+00
 0.2546396349160E+00
 0.2398776064654E+00
 0.2225486726234E+00
 0.2028741612833E+00
 0.1811486074178E+00
 0.1577342597593E+00
 0.1330499188634E+00
 0.1075543105372E+00
 0.8172548756901E-01
 0.5603881741364E-01
 0.3094611319799E-01
 0.2814293728472E+00
 0.2910326913795E+00
 0.2985156891192E+00
 0.3036645094686E+00
 0.3062768444320E+00
 0.3061652577384E+00
 0.3031658621352E+00
 0.2971492446118E+00
 0.2880321621748E+00
 0.2757893590417E+00
 0.2604650473594E+00
 0.2421833836579E+00
 0.2211568355550E+00
 0.1976908189854E+00
 0.1721825933361E+00
 0.1451124179580E+00
 0.1170257242962E+00
 0.8850678585891E-01
 0.6014684314284E-01
 0.3251129795247E-01
 0.2954348985219E+00
 0.3064103754559E+00
 0.3152517038027E+00
 0.3217011465398E+00
 0.3255127044723E+00
 0.3264548031102E+00
 0.3243177907792E+00
 0.3189241657230E+00
 0.3101406174384E+00
 0.2978915289335E+00
 0.2821736574952E+00
 0.2630714118396E+00
 0.2407715310036E+00
 0.2155750999330E+00
 0.1879038504581E+00
 0.1582969412559E+00
 0.1273945263160E+00
 0.9590615415842E-01
 0.6456624602141E-01
 0.3408512298359E-01
 0.3090713556285E+00
 0.3214568184562E+00
 0.3317193645144E+00
 0.3395617891002E+00
 0.3446966156164E+00
 0.3468481766852E+00
 0.3457588154111E+00
 0.3411980590133E+00
 0.3329744731092E+00
 0.3209502811798E+00
 0.3050588720154E+00
 0.2853250136002E+00
 0.2618868953400E+00
 0.2350179307547E+00
 0.2051445259507E+00
 0.1728539955488E+00
 0.1388853092766E+00
 0.1040959986358E+00
 0.6940283222846E-01
 0.3570546119371E-01
 0.3222483678756E+00
 0.3360685804638E+00
 0.3478030741221E+00
 0.3571204886912E+00
 0.3636957627026E+00
 0.3672115060922E+00
 0.3673624822521E+00
 0.3638630626843E+00
 0.3564579554604E+00
 0.3449368333288E+00
 0.3291535759484E+00
 0.3090506817886E+00
 0.2846888404841E+00
 0.2562804103139E+00
 0.2242232293691E+00
 0.1891275510778E+00
 0.1518245024916E+00
 0.1133415140752E+00
 0.7483272047646E-01
 0.3746100934167E-01
 0.3348674373702E+00
 0.3501299113253E+00
 0.3633696170567E+00
 0.3742272873960E+00
 0.3823460740615E+00
 0.3873718401613E+00
 0.3889554729362E+00
 0.3867577288413E+00
 0.3804575627210E+00
 0.3697651032346E+00
 0.3544406667709E+00
 0.3343213515144E+00
 0.3093566378090E+00
 0.2796536435295E+00
 0.2455305120936E+00
 0.2075716220172E+00
 0.1666699788970E+00
 0.1240320072608E+00
 0.8111472433528E-01
 0.3947373410475E-01
 0.3468237026383E+00
 0.3635158017598E+00
 0.3782712950411E+00
 0.3907104132209E+00
 0.4004518041401E+00
 0.4071121344714E+00
 0.4103057042514E+00
 0.4096457687385E+00
 0.4047490453041E+00
 0.3952450017257E+00
 0.3807918894478E+00
 0.3611020588220E+00
 0.3359797287176E+00
 0.3053747533631E+00
 0.2694552119870E+00
 0.2286979676896E+00
 0.1839854900481E+00
 0.1366760440037E+00
 0.8858989614151E-01
 0.4185241492859E-01
 0.3580108414449E+00
 0.3760951052716E+00
 0.3923489549299E+00
 0.4063785704486E+00
 0.4177862332202E+00
 0.4261690299590E+00
 0.4311153816432E+00
 0.4322020672978E+00
 0.4289936533872E+00
 0.4210460864249E+00
 0.4079166417516E+00
 0.3891833849701E+00
 0.3644787942236E+00
 0.3335441812981E+00
 0.2963137092984E+00
 0.2530376560278E+00
 0.2044492694233E+00
 0.1519513836828E+00
 0.9773743915101E-01
 0.4470346862956E-01
 0.3683215260522E+00
 0.3877320287610E+00
 0.4054333755800E+00
 0.4210226372872E+00
 0.4340937845936E+00
 0.4442352115637E+00
 0.4510228499051E+00
 0.4540124790823E+00
 0.4527333514328E+00
 0.4466846811333E+00
 0.4353368591765E+00
 0.4181403854716E+00
 0.3945475916589E+00
 0.3640556575444E+00
 0.3262848538121E+00
 0.2811139574085E+00
 0.2289042872638E+00
 0.1708428203585E+00
 0.1093455293505E+00
 0.4825065210156E-01
 0.3776477751625E+00
 0.3982879341034E+00
 0.4173479797275E+00
 0.4344189198843E+00
 0.4490935336901E+00
 0.4609625053389E+00
 0.4696039127281E+00
 0.4745708772281E+00
 0.4753795158763E+00
 0.4714981369075E+00
 0.4623385783326E+00
 0.4472515040801E+00
 0.4255294989936E+00
 0.3964256210860E+00
 0.3592021968855E+00
 0.3132383291185E+00
 0.2582506725251E+00
 0.1947330700381E+00
 0.1247742203224E+00
 0.5305232548550E-01
 0.3858829649245E+00
 0.4076244629482E+00
 0.4279133275657E+00
 0.4463348799436E+00
 0.4624860117165E+00
 0.4759693258228E+00
 0.4863787537083E+00
 0.4932830232517E+00
 0.4962090389463E+00
 0.4946252069947E+00
 0.4879241687574E+00
 0.4754047475999E+00
 0.4562541170230E+00
 0.4295338066820E+00
 0.3941787874655E+00
 0.3490314278017E+00
 0.2929626694060E+00
 0.2252085048922E+00
 0.1463037876481E+00
 0.6045442759902E-01
 0.3929246054372E+00
 0.4156078734477E+00
 0.4369531844623E+00
 0.4565373499175E+00
 0.4739641361024E+00
 0.4888548612303E+00
 0.5008294332108E+00
 0.5094862158998E+00
 0.5143825995919E+00
 0.5150152570026E+00
 0.5107980083096E+00
 0.5010349066213E+00
 0.4848861153463E+00
 0.4613243789072E+00
 0.4290809364717E+00
 0.3865835670127E+00
 0.3319017751794E+00
 0.2627590324932E+00
 0.1768292650389E+00
 0.7384723654336E-01
 0.3986777430411E+00
 0.4221144199611E+00
 0.4443022111386E+00
 0.4648034339718E+00
 0.4832288832177E+00
 0.4992215624498E+00
 0.5124314294369E+00
 0.5224917452528E+00
 0.5289983988481E+00
 0.5314900032462E+00
 0.5294253569193E+00
 0.5221542395281E+00
 0.5088765226740E+00
 0.4885825301204E+00
 0.4599635896802E+00
 0.4212739292299E+00
 0.3701093077651E+00
 0.3030326550179E+00
 0.2148728498875E+00
 0.9726010539596E-01
 0.4030591210215E+00
 0.4270370977767E+00
 0.4498156024655E+00
 0.4709345254529E+00
 0.4900103999906E+00
 0.5067073656436E+00
 0.5207024708096E+00
 0.5316575652211E+00
 0.5391976748641E+00
 0.5428919397869E+00
 0.5422323650252E+00
 0.5366052226609E+00
 0.5252486639007E+00
 0.5071868695154E+00
 0.4811240445124E+00
 0.4452666574155E+00
 0.3970085280426E+00
 0.3323254007303E+00
 0.2444794334504E+00
 0.1200192494887E+00
 0.4060022930589E+00
 0.4302935496720E+00
 0.4533801954782E+00
 0.4747725302438E+00
 0.4940930887538E+00
 0.5110256224020E+00
 0.5252667080508E+00
 0.5364917553398E+00
 0.5443318714923E+00
 0.5483548475354E+00
 0.5480437360586E+00
 0.5427667846203E+00
 0.5317315103184E+00
 0.5139124777034E+00
 0.4879353229120E+00
 0.4518852045388E+00
 0.4029784933721E+00
 0.3369722200566E+00
 0.2470300524869E+00
 0.1217958271636E+00
 0.4074641791885E+00
 0.4318360374177E+00
 0.4549278288841E+00
 0.4762183827340E+00
 0.4953427970564E+00
 0.5120064411304E+00
 0.5259188949236E+00
 0.5367542045606E+00
 0.5441273931105E+00
 0.5475764788029E+00
 0.5465416594790E+00
 0.5403350475067E+00
 0.5280944849847E+00
 0.5087132365869E+00
 0.4807334379412E+00
 0.4421849034126E+00
 0.3903425850282E+00
 0.3213820171124E+00
 0.2300020423940E+00
 0.1105518140378E+00
 0.4074335658581E+00
 0.4316636809911E+00
 0.4544499751489E+00
 0.4752494818862E+00
 0.4937281159798E+00
 0.5096219242687E+00
 0.5226518051148E+00
 0.5324816980699E+00
 0.5386991633295E+00
 0.5408027046294E+00
 0.5381862968321E+00
 0.5301156620162E+00
 0.5156927632701E+00
 0.4938057916011E+00
 0.4630629107555E+00
 0.4217117278415E+00
 0.3675619234285E+00
 0.2979780390201E+00
 0.2102608639252E+00
 0.1036234715917E+00
 0.4059459510432E+00
 0.4298389780036E+00
 0.4520097682253E+00
 0.4719283539203E+00
 0.4893264883418E+00
 0.5039868567090E+00
 0.5156432371658E+00
 0.5239452760115E+00
 0.5284505912888E+00
 0.5286228957864E+00
 0.5238268986639E+00
 0.5133171643799E+00
 0.4962216680716E+00
 0.4715235640315E+00
 0.4380494904344E+00
 0.3944831872807E+00
 0.3394465198084E+00
 0.2717533433177E+00
 0.1910813248480E+00
 0.1003983768808E+00
 0.4030865028616E+00
 0.4264692997986E+00
 0.4476971648810E+00
 0.4663415149168E+00
 0.4822555447224E+00
 0.4952868967016E+00
 0.5051812625324E+00
 0.5115706276442E+00
 0.5139861701859E+00
 0.5118719911903E+00
 0.5045930667505E+00
 0.4914392865011E+00
 0.4716305544506E+00
 0.4443309665925E+00
 0.4086855754528E+00
 0.3639049809213E+00
 0.3094438096056E+00
 0.2453590032500E+00
 0.1730685692285E+00
 0.9804821404742E-01
 0.3989303937756E+00
 0.4215856871325E+00
 0.4414746796303E+00
 0.4584346571067E+00
 0.4725087856454E+00
 0.4836145029806E+00
 0.4914976344849E+00
 0.4957669151455E+00
 0.4959365238193E+00
 0.4914547980982E+00
 0.4817233426937E+00
 0.4661141966251E+00
 0.4439928613539E+00
 0.4147562768654E+00
 0.3778992437339E+00
 0.3331299598295E+00
 0.2805759086165E+00
 0.2211516741722E+00
 0.1573347084955E+00
 0.9568519365778E-01
 0.3935893179820E+00
 0.4151718841385E+00
 0.4332234764361E+00
 0.4481033347443E+00
 0.4600809256238E+00
 0.4691079401306E+00
 0.4748941078328E+00
 0.4770194074300E+00
 0.4749975447043E+00
 0.4683099617975E+00
 0.4564295287230E+00
 0.4388454646754E+00
 0.4150972194142E+00
 0.3848245118307E+00
 0.3478422153113E+00
 0.3042556410734E+00
 0.2546360568256E+00
 0.2003594761448E+00
 0.1443572394070E+00
 0.9347783672390E-01
 0.3872066170413E+00
 0.4070957538896E+00
 0.4227216715321E+00
 0.4352336817445E+00
 0.4450521626120E+00
 0.4520245990338E+00
 0.4557838394557E+00
 0.4558920567301E+00
 0.4518912112308E+00
 0.4433272155410E+00
 0.4297710254368E+00
 0.4108462019848E+00
 0.3862671255016E+00
 0.3558910490392E+00
 0.3197884894313E+00
 0.2783365654113E+00
 0.2323618132505E+00
 0.1833507701748E+00
 0.1342257624052E+00
 0.9176653725458E-01
 0.3798838364373E+00
 0.3969234495461E+00
 0.4095758369448E+00
 0.4198255197734E+00
 0.4276888436371E+00
 0.4327784555434E+00
 0.4346761241794E+00
 0.4329759350241E+00
 0.4272912794707E+00
 0.4172619666731E+00
 0.4025719770355E+00
 0.3829779088292E+00
 0.3583476863041E+00
 0.3287095587254E+00
 0.2943116986888E+00
 0.2556977433565E+00
 0.2137998389117E+00
 0.1701553174064E+00
 0.1271600680384E+00
 0.9100132246799E-01
 0.3710850790397E+00
 0.3833355619527E+00
 0.3936554352368E+00
 0.4023172108007E+00
 0.4085586915725E+00
 0.4119379508813E+00
 0.4121213638500E+00
 0.4088170930273E+00
 0.4017515800697E+00
 0.3906759659023E+00
 0.3753868596435E+00
 0.3557564255645E+00
 0.3317697358185E+00
 0.3035685529181E+00
 0.2715019562729E+00
 0.2361868392335E+00
 0.1986004583503E+00
 0.1602207643911E+00
 0.1236425858346E+00
 0.9225685627137E-01
 0.3591478873414E+00
 0.3663372352309E+00
 0.3762652541394E+00
 0.3838178702138E+00
 0.3884691226759E+00
 0.3900948672607E+00
 0.3885915055441E+00
 0.3838241990980E+00
 0.3756420868436E+00
 0.3639034359157E+00
 0.3485031064730E+00
 0.3294023918251E+00
 0.3066623035184E+00
 0.2804812274270E+00
 0.2512386278632E+00
 0.2195524661891E+00
 0.1863694818432E+00
 0.1531742118101E+00
 0.1223679900652E+00
 0.9900024005770E-01
</DataArray>
<DataArray type="Float64" Name="OI" NumberOfComponents="1" ComponentName0="OI" format="ascii">
 0.8152340254665E+01
 0.7309280541044E+01
 0.6637413629742E+01
 0.6374270169160E+01
 0.6167628437980E+01
 0.6011835560264E+01
 0.5878260384942E+01
 0.5758627433411E+01
 0.5647139595733E+01
 0.5540900208913E+01
 0.5438289402574E+01
 0.5338621484857E+01
 0.5241919809564E+01
 0.5148974314550E+01
 0.5061882187017E+01
 0.4985541661166E+01
 0.4919923013224E+01
 0.4850492069205E+01
 0.4763456821742E+01
 0.4658674201097E+01
 0.4542165951065E+01
 0.4420267427759E+01
 0.4297947673118E+01
 0.4178862265844E+01
 0.4065706259547E+01
 0.3960295772938E+01
 0.3863257791791E+01
 0.3776168712052E+01
 0.3703675357776E+01
 0.3651008718501E+01
 0.3622305007211E+01
 0.3621238889401E+01
 0.3650912501497E+01
 0.3713061184137E+01
 0.3808379123633E+01
 0.3941198838460E+01
 0.4156956155609E+01
 0.4483671579269E+01
 0.5182526097204E+01
 0.5472431255463E+01
 0.9510588883204E+01
 0.6923433931260E+01
 0.7128975314113E+01
 0.6605954590164E+01
 0.6282443275792E+01
 0.6074226188972E+01
 0.5907370849245E+01
 0.5768585888316E+01
 0.5645249770891E+01
 0.5531753902879E+01
 0.5424608908957E+01
 0.5321932231662E+01
 0.5222793420901E+01
 0.5126994027216E+01
 0.5035065141740E+01
 0.4948193496382E+01
 0.4866937733338E+01
 0.4788733175495E+01
 0.4707496779475E+01
 0.4617374633079E+01
 0.4516486044595E+01
 0.4406884706511E+01
 0.4292270555534E+01
 0.4176261829066E+01
 0.4061838140652E+01
 0.3951266340104E+01
 0.3846187166995E+01
 0.3748003212986E+01
 0.3658558939231E+01
 0.3580459329687E+01
 0.3516628869328E+01
 0.3469617390377E+01
 0.3441186395711E+01
 0.3432071076962E+01
 0.3442062687567E+01
 0.3471251543427E+01
 0.3525586924671E+01
 0.3607842613230E+01
 0.3732764541535E+01
 0.3800035273573E+01
 0.3254890270572E+01
 0.6489382734736E+01
 0.6193022672961E+01
 0.6658680686630E+01
 0.6463475832333E+01
 0.6166023609889E+01
 0.5959353530905E+01
 0.5793342908153E+01
 0.5652639360532E+01
 0.5528126103144E+01
 0.5413890888215E+01
 0.5306586653697E+01
 0.5204198959842E+01
 0.5105658995420E+01
 0.5010562701796E+01
 0.4919028623063E+01
 0.4831061760586E+01
 0.4745315464629E+01
 0.4659287956606E+01
 0.4570789370949E+01
 0.4477888052702E+01
 0.4378978385513E+01
 0.4274099671164E+01
 0.4164968095949E+01
 0.4053925778863E+01
 0.3943205720567E+01
 0.3834642737443E+01
 0.3729752885501E+01
 0.3630061848071E+01
 0.3537148291593E+01
 0.3452449568809E+01
 0.3377296178639E+01
 0.3312736086670E+01
 0.3259021025406E+01
 0.3215339050543E+01
 0.3180102818586E+01
 0.3152507121009E+01
 0.3131318248352E+01
 0.3105571386845E+01
 0.3044171045436E+01
 0.2768553573066E+01
 0.2430756096920E+01
 0.5523338477665E+01
 0.5689722195129E+01
 0.6195855460430E+01
 0.6218225707145E+01
 0.6015431978596E+01
 0.5825909139549E+01
 0.5667862381433E+01
 0.5530030268146E+01
 0.5406681016263E+01
 0.5293182137803E+01
 0.5186541619369E+01
 0.5084881777155E+01
 0.4987088449033E+01
 0.4892584637010E+01
 0.4801034105289E+01
 0.4711605759650E+01
 0.4622336508668E+01
 0.4531344827136E+01
 0.4438357533597E+01
 0.4343391109893E+01
 0.4245451322608E+01
 0.4143737237937E+01
 0.4038636728242E+01
 0.3931408938465E+01
 0.3823563003472E+01
 0.3716503751931E+01
 0.3611535537699E+01
 0.3510004894532E+01
 0.3413075592183E+01
 0.3321387249747E+01
 0.3235173373844E+01
 0.3154305335740E+01
 0.3077932832494E+01
 0.3004268674793E+01
 0.2930961652407E+01
 0.2855607030886E+01
 0.2772662898818E+01
 0.2664731953288E+01
 0.2482714829802E+01
 0.2156745670520E+01
 0.2231238691932E+01
 0.5039170540398E+01
 0.5308218395447E+01
 0.5787927067260E+01
 0.5931866944910E+01
 0.5828782369099E+01
 0.5675128803292E+01
 0.5531138783867E+01
 0.5400395580176E+01
 0.5280668135072E+01
 0.5169367550346E+01
 0.5064276248014E+01
 0.4963836882624E+01
 0.4867008164684E+01
 0.4773089423240E+01
 0.4681386171364E+01
 0.4590623200218E+01
 0.4498816865896E+01
 0.4404720431646E+01
 0.4309023106999E+01
 0.4212689236530E+01
 0.4115251211618E+01
 0.4015645761647E+01
 0.3913454286336E+01
 0.3809091787672E+01
 0.3703420338561E+01
 0.3597418366659E+01
 0.3492102274205E+01
 0.3388511625184E+01
 0.3287377954564E+01
 0.3188755638388E+01
 0.3092131090406E+01
 0.2996559878917E+01
 0.2900483496032E+01
 0.2801638089835E+01
 0.2697338907564E+01
 0.2584345916516E+01
 0.2456062635667E+01
 0.2295166731983E+01
 0.2071348503204E+01
 0.1838569155276E+01
 0.2262534137276E+01
 0.4714594734480E+01
 0.4999352551647E+01
 0.5434102351869E+01
 0.5639275662401E+01
 0.5617703791326E+01
 0.5508154075682E+01
 0.5384148109942E+01
 0.5263848691342E+01
 0.5150026198658E+01
 0.5042336133238E+01
 0.4939678201198E+01
 0.4840985776178E+01
 0.4745396594296E+01
 0.4652166056767E+01
 0.4560391229318E+01
 0.4468647837372E+01
 0.4375179226839E+01
 0.4279257205513E+01
 0.4182043272542E+01
 0.4084930566969E+01
 0.3987820990643E+01
 0.3889642797033E+01
 0.3789528315886E+01
 0.3687278561944E+01
 0.3583209471796E+01
 0.3477891007173E+01
 0.3372013819917E+01
 0.3266272271526E+01
 0.3161002036740E+01
 0.3055826468081E+01
 0.2949748441867E+01
 0.2841333701206E+01
 0.2728682360458E+01
 0.2609469380462E+01
 0.2481176913183E+01
 0.2340915236771E+01
 0.2183622842738E+01
 0.1999292441269E+01
 0.1790925332233E+01
 0.1700253715109E+01
 0.2348929266050E+01
 0.4462062850432E+01
 0.4737240601147E+01
 0.5124993135748E+01
 0.5356253959892E+01
 0.5394354514588E+01
 0.5328368021467E+01
 0.5228093535442E+01
 0.5120918047149E+01
 0.5014894327340E+01
 0.4912105521957E+01
 0.4812722332351E+01
 0.4716310343217E+01
 0.4622279776078E+01
 0.4529935082416E+01
 0.4438313011650E+01
 0.4346032309076E+01
 0.4251646399543E+01
 0.4154819076996E+01
 0.4056923904414E+01
 0.3959510631684E+01
 0.3862713222647E+01
 0.3765546812618E+01
 0.3666919624184E+01
 0.3566210832137E+01
 0.3463296448533E+01
 0.3358372868878E+01
 0.3251802508882E+01
 0.3143944408394E+01
 0.3034798263632E+01
 0.2923684266770E+01
 0.2809329990388E+01
 0.2690087495129E+01
 0.2564033272411E+01
 0.2429138708858E+01
 0.2283574007298E+01
 0.2125841116892E+01
 0.1954509859921E+01
 0.1771075074670E+01
 0.1610814237204E+01
 0.1661988888685E+01
 0.2428592604296E+01
 0.4251124231532E+01
 0.4507041070252E+01
 0.4851269931496E+01
 0.5088798463351E+01
 0.5167672874686E+01
 0.5140055783825E+01
 0.5064616038188E+01
 0.4972365191499E+01
 0.4875602918927E+01
 0.4778807745435E+01
 0.4683463441419E+01
 0.4589848166688E+01
 0.4497722602257E+01
 0.4406529082076E+01
 0.4315366355737E+01
 0.4223010685179E+01
 0.4128335136604E+01
 0.4031290756209E+01
 0.3933323576659E+01
 0.3835998439276E+01
 0.3739580533734E+01
 0.3643195193019E+01
 0.3545660341324E+01
 0.3446080688309E+01
 0.3343992248709E+01
 0.3239265784973E+01
 0.3131958741376E+01
 0.3022130922857E+01
 0.2909515498073E+01
 0.2793241099023E+01
 0.2671928416769E+01
 0.2543940893808E+01
 0.2407592215969E+01
 0.2261451036523E+01
 0.2104813844159E+01
 0.1938340020308E+01
 0.1765507052835E+01
 0.1600119617713E+01
 0.1502345994312E+01
 0.1672816171893E+01
 0.2485170485396E+01
 0.4068028093096E+01
 0.4299672524672E+01
 0.4605340377447E+01
 0.4838282106961E+01
 0.4943346692551E+01
 0.4947230054921E+01
 0.4895640235567E+01
 0.4819123541925E+01
 0.4732622035496E+01
 0.4642675658970E+01
 0.4552025802654E+01
 0.4461685713072E+01
 0.4371819945398E+01
 0.4282082437643E+01
 0.4191724114638E+01
 0.4099740957419E+01
 0.4005305262390E+01
 0.3908576764208E+01
 0.3811000201813E+01
 0.3714084730110E+01
 0.3618158768854E+01
 0.3522451622026E+01
 0.3425766815224E+01
 0.3327041975454E+01
 0.3225561005465E+01
 0.3120924089100E+01
 0.3012923300090E+01
 0.2901368873525E+01
 0.2785798945231E+01
 0.2665248670270E+01
 0.2538368150765E+01
 0.2403709133905E+01
 0.2260025405027E+01
 0.2106713093919E+01
 0.1944501680199E+01
 0.1776649821672E+01
 0.1611927363122E+01
 0.1475107524514E+01
 0.1442356782554E+01
 0.1703076454467E+01
 0.2517807387109E+01
 0.3905103841299E+01
 0.4109279777700E+01
 0.4381359310186E+01
 0.4604039012024E+01
 0.4724643834023E+01
 0.4753129892941E+01
 0.4723106656377E+01
 0.4662231516917E+01
 0.4586516767369E+01
 0.4504021125092E+01
 0.4418591903119E+01
 0.4331950036903E+01
 0.4244689090956E+01
 0.4156727067148E+01
 0.4067526977917E+01
 0.3976333080970E+01
 0.3882586638400E+01
 0.3786599908292E+01
 0.3689779365386E+01
 0.3593546503302E+01
 0.3498249895388E+01
 0.3403206997648E+01
 0.3307247925936E+01
 0.3209219099001E+01
 0.3108226395701E+01
 0.3003656259014E+01
 0.2895083661343E+01
 0.2782124656361E+01
 0.2664191331489E+01
 0.2540310278187E+01
 0.2409269279897E+01
 0.2269941378120E+01
 0.2121666310748E+01
 0.1964819137199E+01
 0.1801725318300E+01
 0.1638370849749E+01
 0.1488516539319E+01
 0.1385577603870E+01
 0.1413350166295E+01
 0.1736993634600E+01
 0.2530011328613E+01
 0.3757382725400E+01
 0.3931919894653E+01
 0.4174893077992E+01
 0.4384608484431E+01
 0.4513222826223E+01
 0.4560140782352E+01
 0.4548771799966E+01
 0.4502749802583E+01
 0.4437907391547E+01
 0.4363211495627E+01
 0.4283389555814E+01
 0.4200800193113E+01
 0.4116463555156E+01
 0.4030591221227E+01
 0.3942892499839E+01
 0.3852867273638E+01
 0.3760194356049E+01
 0.3665299420405E+01
 0.3569534448193E+01
 0.3474222596594E+01
 0.3379707123768E+01
 0.3285377016538E+01
 0.3190109832130E+01
 0.3092713502952E+01
 0.2992176693497E+01
 0.2887726847629E+01
 0.2778773051058E+01
 0.2664793156063E+01
 0.2545136755781E+01
 0.2418893387368E+01
 0.2285071471945E+01
 0.2142958732056E+01
 0.1992572643526E+01
 0.1835341038750E+01
 0.1675215060731E+01
 0.1520784342164E+01
 0.1390090972534E+01
 0.1322581112058E+01
 0.1402766611790E+01
 0.1766889684359E+01
 0.2525867331906E+01
 0.3621358503946E+01
 0.3764837697336E+01
 0.3982576390730E+01
 0.4178317073656E+01
 0.4309736277814E+01
 0.4369898560124E+01
 0.4374108004406E+01
 0.4341687154281E+01
 0.4287431433080E+01
 0.4220647178093E+01
 0.4146678425953E+01
 0.4068418737218E+01
 0.3987288035931E+01
 0.3903799503807E+01
 0.3817922254679E+01
 0.3729405841590E+01
 0.3638137349408E+01
 0.3544628963676E+01
 0.3450173517617E+01
 0.3355996644435E+01
 0.3262422755520E+01
 0.3168898359972E+01
 0.3074358223788E+01
 0.2977608202121E+01
 0.2877568824420E+01
 0.2773358766853E+01
 0.2664271393224E+01
 0.2549699529999E+01
 0.2428986536084E+01
 0.2301342880144E+01
 0.2166057532892E+01
 0.2022891095947E+01
 0.1872581820859E+01
 0.1717615046868E+01
 0.1563489137654E+01
 0.1421105660272E+01
 0.1311892490529E+01
 0.1278796225169E+01
 0.1401998323474E+01
 0.1789467426987E+01
 0.2508915465229E+01
 0.3494439299351E+01
 0.3606045693720E+01
 0.3801835723223E+01
 0.3983537988990E+01
 0.4114237780283E+01
 0.4183446413916E+01
 0.4200278691961E+01
 0.4179948982050E+01
 0.4135710150384E+01
 0.4076741102201E+01
 0.4008737050810E+01
 0.3935003613748E+01
 0.3857314146169E+01
 0.3776473155313E+01
 0.3692707037770E+01
 0.3606000702118E+01
 0.3516423186580E+01
 0.3424554637821E+01
 0.3331630297155E+01
 0.3238784978103E+01
 0.3146318543794E+01
 0.3053724547171E+01
 0.2959998983689E+01
 0.2863970830200E+01
 0.2764531664441E+01
 0.2660735852126E+01
 0.2551807550793E+01
 0.2437102746641E+01
 0.2316006441035E+01
 0.2187894723213E+01
 0.2052376237774E+01
 0.1909712126610E+01
 0.1761362889819E+01
 0.1610820157339E+01
 0.1464974626427E+01
 0.1336657331411E+01
 0.1249741311806E+01
 0.1248422122383E+01
 0.1405387998897E+01
 0.1803677416830E+01
 0.2481947222022E+01
 0.3374658217672E+01
 0.3454069911522E+01
 0.3630682146999E+01
 0.3798794824311E+01
 0.3926443019326E+01
 0.4001386859428E+01
 0.4028157497170E+01
 0.4018310147514E+01
 0.3983322460711E+01
 0.3931900847767E+01
 0.3869851015012E+01
 0.3800760695209E+01
 0.3726696674427E+01
 0.3648730163548E+01
 0.3567330379554E+01
 0.3482698033441E+01
 0.3395060579037E+01
 0.3305053056667E+01
 0.3213857700671E+01
 0.3122527875805E+01
 0.3031338146623E+01
 0.2939821991569E+01
 0.2847037926280E+01
 0.2751855634725E+01
 0.2653168772713E+01
 0.2550005608951E+01
 0.2441562424479E+01
 0.2327200265459E+01
 0.2206384785845E+01
 0.2078689700013E+01
 0.1944064073463E+01
 0.1803271613898E+01
 0.1658463257379E+01
 0.1514044904863E+01
 0.1378099241079E+01
 0.1264970780747E+01
 0.1200071365250E+01
 0.1226987608265E+01
 0.1409360665657E+01
 0.1809565353959E+01
 0.2447086383677E+01
 0.3260497118889E+01
 0.3307790330287E+01
 0.3467560165084E+01
 0.3622791671806E+01
 0.3745892089738E+01
 0.3824008339235E+01
 0.3858367629912E+01
 0.3857407055886E+01
 0.3830787478379E+01
 0.3786514162670E+01
 0.3730302689250E+01
 0.3665897150139E+01
 0.3595590244430E+01
 0.3520685060568E+01
 0.3441870724154E+01
 0.3359541000904E+01
 0.3274060503748E+01
 0.3186109535772E+01
 0.3096823043943E+01
 0.3007183119926E+01
 0.2917441248654E+01
 0.2827166496097E+01
 0.2735480070781E+01
 0.2641304772499E+01
 0.2543560709113E+01
 0.2441282053147E+01
 0.2333672589134E+01
 0.2220133409401E+01
 0.2100240961771E+01
 0.1973786862976E+01
 0.1841065550446E+01
 0.1703324703128E+01
 0.1563349161789E+01
 0.1426341086181E+01
 0.1301354816867E+01
 0.1203835216940E+01
 0.1159905276227E+01
 0.1211130958773E+01
 0.1411750447488E+01
 0.1807670785720E+01
 0.2405932576016E+01
 0.3150769064449E+01
 0.3166337400859E+01
 0.3311238196498E+01
 0.3454409959203E+01
 0.3572047723750E+01
 0.3651383096363E+01
 0.3691326965525E+01
 0.3697742682369E+01
 0.3678555077324E+01
 0.3640938241482E+01
 0.3590362784314E+01
 0.3530615746663E+01
 0.3464146331623E+01
 0.3392448415985E+01
 0.3316402607591E+01
 0.3236571198056E+01
 0.3153436477159E+01
 0.3067716408241E+01
 0.2980504394056E+01
 0.2892721171979E+01
 0.2804598987897E+01
 0.2715740263530E+01
 0.2625328741740E+01
 0.2532349172324E+01
 0.2435767054787E+01
 0.2334648575540E+01
 0.2228234229292E+01
 0.2115993092954E+01
 0.1997634052071E+01
 0.1873176402621E+01
 0.1743251795231E+01
 0.1609557585698E+01
 0.1475439399592E+01
 0.1346764490158E+01
 0.1233336794027E+01
 0.1151311873355E+01
 0.1126801302592E+01
 0.1198381614425E+01
 0.1411315399268E+01
 0.1798721776926E+01
 0.2359697343565E+01
 0.3044535597673E+01
 0.3029022979210E+01
 0.3160729096384E+01
 0.3292691693832E+01
 0.3404352982118E+01
 0.3483439557923E+01
 0.3527291150377E+01
 0.3539699004911E+01
 0.3527002931397E+01
 0.3495492683406E+01
 0.3450283823767E+01
 0.3395110144772E+01
 0.3332510640727E+01
 0.3264126105222E+01
 0.3190997122018E+01
 0.3113829238170E+01
 0.3033204316239E+01
 0.2949871476263E+01
 0.2864887718255E+01
 0.2779121503739E+01
 0.2692790396519E+01
 0.2605529417422E+01
 0.2516584673788E+01
 0.2425009154090E+01
 0.2329828224506E+01
 0.2230160779143E+01
 0.2125307195915E+01
 0.2014825650941E+01
 0.1898571262213E+01
 0.1776791690050E+01
 0.1650437217222E+01
 0.1521609486796E+01
 0.1394132351129E+01
 0.1274403860655E+01
 0.1172765320222E+01
 0.1105727519434E+01
 0.1098788971591E+01
 0.1186963071154E+01
 0.1407402816711E+01
 0.1783482988143E+01
 0.2309317358984E+01
 0.2941046738980E+01
 0.2895293030288E+01
 0.3015232112675E+01
 0.3136818530058E+01
 0.3242263750755E+01
 0.3320014283998E+01
 0.3366391283269E+01
 0.3383552801037E+01
 0.3376438227545E+01
 0.3350455699753E+01
 0.3310295491623E+01
 0.3259561184738E+01
 0.3200820864916E+01
 0.3135818451739E+01
 0.3065721897822E+01
 0.2991354797293E+01
 0.2913381600890E+01
 0.2832576600473E+01
 0.2749964613916E+01
 0.2666369771395E+01
 0.2581999629996E+01
 0.2496521992107E+01
 0.2409245218840E+01
 0.2319294930561E+01
 0.2225767133932E+01
 0.2127849250026E+01
 0.2024919051910E+01
 0.1916638576731E+01
 0.1803015958185E+01
 0.1684520314909E+01
 0.1562394137604E+01
 0.1439090973745E+01
 0.1318826761250E+01
 0.1208399979909E+01
 0.1118493288006E+01
 0.1065656843951E+01
 0.1074301431169E+01
 0.1175628310648E+01
 0.1399724359632E+01
 0.1762676247438E+01
 0.2255548537504E+01
 0.2839694673136E+01
 0.2764694485019E+01
 0.2874090132318E+01
 0.2986090970770E+01
 0.3085265820627E+01
 0.3160888399310E+01
 0.3208665146972E+01
 0.3229492171797E+01
 0.3227102399004E+01
 0.3206062956784E+01
 0.3170601690073E+01
 0.3124134135726E+01
 0.3069204845732E+01
 0.3007619337848E+01
 0.2940640784882E+01
 0.2869186319156E+01
 0.2793986977900E+01
 0.2715836426490E+01
 0.2635730475094E+01
 0.2554455616980E+01
 0.2472213811901E+01
 0.2388706336185E+01
 0.2303303703088E+01
 0.2215207071025E+01
 0.2123590763615E+01
 0.2027722232529E+01
 0.1927069008781E+01
 0.1821406029126E+01
 0.1710895164427E+01
 0.1596214005844E+01
 0.1478865358005E+01
 0.1361598774943E+01
 0.1248936998630E+01
 0.1147956966019E+01
 0.1069505692872E+01
 0.1029899446070E+01
 0.1052110398162E+01
 0.1163525025898E+01
 0.1388223885069E+01
 0.1736908008238E+01
 0.2199058087515E+01
 0.2739981540077E+01
 0.2636851528159E+01
 0.2736757881042E+01
 0.2839909493479E+01
 0.2932882697759E+01
 0.3005812624676E+01
 0.3054082195539E+01
 0.3077632243776E+01
 0.3079177549884E+01
 0.3062508396643E+01
 0.3031379063186E+01
 0.2988976830558E+01
 0.2937779141147E+01
 0.2879615362584E+01
 0.2815813370682E+01
 0.2747360529707E+01
 0.2675039399664E+01
 0.2599657246597E+01
 0.2522182997640E+01
 0.2443370946223E+01
 0.2363421362730E+01
 0.2282069871589E+01
 0.2198748949466E+01
 0.2112736972159E+01
 0.2023291644949E+01
 0.1929768186160E+01
 0.1831731683790E+01
 0.1729074008076E+01
 0.1622106422933E+01
 0.1511697379085E+01
 0.1399574728795E+01
 0.1288727411885E+01
 0.1183903676642E+01
 0.1092347681186E+01
 0.1024913818731E+01
 0.9974542189740E+00
 0.1031268397030E+01
 0.1150085423161E+01
 0.1373003618718E+01
 0.1706659943546E+01
 0.2140331143267E+01
 0.2641607871386E+01
 0.2511448312070E+01
 0.2602778026635E+01
 0.2697758173203E+01
 0.2784677969227E+01
 0.2854524116565E+01
 0.2902563043888E+01
 0.2928029255445E+01
 0.2932793595413E+01
 0.2919946428328E+01
 0.2892776707188E+01
 0.2854218584143E+01
 0.2806647993651E+01
 0.2751885105137E+01
 0.2691294436967E+01
 0.2625911865146E+01
 0.2556557360443E+01
 0.2484045993862E+01
 0.2409320955018E+01
 0.2333108575816E+01
 0.2255610712469E+01
 0.2176598153761E+01
 0.2095564962635E+01
 0.2011867358616E+01
 0.1924849281409E+01
 0.1833958206899E+01
 0.1738860628475E+01
 0.1639565133024E+01
 0.1536523957245E+01
 0.1430775512730E+01
 0.1324235836923E+01
 0.1220078033676E+01
 0.1123200490364E+01
 0.1040915049198E+01
 0.9839460838251E+00
 0.9674950189716E+00
 0.1011052447280E+01
 0.1134963463117E+01
 0.1354199360170E+01
 0.1672565821906E+01
 0.2078883881608E+01
 0.2547002760026E+01
 0.2388216138462E+01
 0.2471763034201E+01
 0.2559190810359E+01
 0.2640254584248E+01
 0.2706757515018E+01
 0.2753994371381E+01
 0.2780692717874E+01
 0.2788035453529E+01
 0.2778494975480E+01
 0.2754916786993E+01
 0.2719969775431E+01
 0.2675902673878E+01
 0.2624498531163E+01
 0.2567133426160E+01
 0.2504871884577E+01
 0.2438558170987E+01
 0.2369009364142E+01
 0.2297143195285E+01
 0.2223661171489E+01
 0.2148769318644E+01
 0.2072274182647E+01
 0.1993730761752E+01
 0.1912572819287E+01
 0.1828231508613E+01
 0.1740248298398E+01
 0.1648391594745E+01
 0.1552782983131E+01
 0.1454004118752E+01
 0.1353240382579E+01
 0.1252558981319E+01
 0.1155264854173E+01
 0.1066338141189E+01
 0.9930704390136E+00
 0.9459378608499E+00
 0.9393454376462E+00
 0.9909244939819E+00
 0.1117950133136E+01
 0.1332062554313E+01
 0.1634885953935E+01
 0.2015774396342E+01
 0.2451349424757E+01
 0.2266923804495E+01
 0.2343381246963E+01
 0.2423819334884E+01
 0.2499252490261E+01
 0.2562251951666E+01
 0.2608240130393E+01
 0.2635595628999E+01
 0.2644949872000E+01
 0.2638238978831E+01
 0.2617895803736E+01
 0.2586321968944E+01
 0.2545621164648E+01
 0.2497516563185E+01
 0.2443373967174E+01
 0.2384268717209E+01
 0.2321057299988E+01
 0.2254553062906E+01
 0.2185647824891E+01
 0.2115020421025E+01
 0.2042882931346E+01
 0.1969077922790E+01
 0.1893220343612E+01
 0.1814820378436E+01
 0.1733395794095E+01
 0.1648581484856E+01
 0.1560245520814E+01
 0.1468615982994E+01
 0.1374390122509E+01
 0.1278876230062E+01
 0.1184256626542E+01
 0.1093919615766E+01
 0.1012866020009E+01
 0.9482903684657E+00
 0.9103202437175E+00
 0.9124579393198E+00
 0.9704873235371E+00
 0.1098959005087E+01
 0.1306801658666E+01
 0.1594139606401E+01
 0.1950748904611E+01
 0.2356182041737E+01
 0.2147370227950E+01
 0.2217346101182E+01
 0.2291304179456E+01
 0.2361345489911E+01
 0.2420755273967E+01
 0.2465149847161E+01
 0.2492682876336E+01
 0.2503551656885E+01
 0.2499234054974E+01
 0.2481786293674E+01
 0.2453348455190E+01
 0.2415868141200E+01
 0.2370990820743E+01
 0.2320053490918E+01
 0.2264126575910E+01
 0.2204067799359E+01
 0.2140681171999E+01
 0.2074831552438E+01
 0.2007176399294E+01
 0.1937935058435E+01
 0.1866985995497E+01
 0.1794002755671E+01
 0.1718570094248E+01
 0.1640290473401E+01
 0.1558889759383E+01
 0.1474331228558E+01
 0.1386940832927E+01
 0.1297516099897E+01
 0.1207463950621E+01
 0.1119047541316E+01
 0.1035694448307E+01
 0.9623723142078E+00
 0.9061120146191E+00
 0.8766095153372E+00
 0.8863925696689E+00
 0.9494591379128E+00
 0.1077968612237E+01
 0.1278677753805E+01
 0.1550636466302E+01
 0.1884173384332E+01
 0.2261552434449E+01
 0.2029378739190E+01
 0.2093407687905E+01
 0.2161346310610E+01
 0.2226237828414E+01
 0.2282026375123E+01
 0.2324564672926E+01
 0.2351878034900E+01
 0.2363829193896E+01
 0.2361510102318E+01
 0.2346638778973E+01
 0.2321105098881E+01
 0.2286695198555E+01
 0.2244963523892E+01
 0.2197202950664E+01
 0.2144465355117E+01
 0.2087599821627E+01
 0.2027395629586E+01
 0.1964689170162E+01
 0.1900117091128E+01
 0.1833906592658E+01
 0.1765971510227E+01
 0.1696042257245E+01
 0.1623775673459E+01
 0.1548855916514E+01
 0.1471095863379E+01
 0.1390547830816E+01
 0.1307625494467E+01
 0.1223210508637E+01
 0.1138784603330E+01
 0.1056659818208E+01
 0.9802634774213E+00
 0.9144829658433E+00
 0.8661282971025E+00
 0.8443966288923E+00
 0.8608001283402E+00
 0.9276444731402E+00
 0.1055014785081E+01
 0.1247931986940E+01
 0.1504699675149E+01
 0.1816312548031E+01
 0.2167313628179E+01
 0.1912792609355E+01
 0.1971346088766E+01
 0.2033680634709E+01
 0.2093660801854E+01
 0.2145836254449E+01
 0.2186321718032E+01
 0.2213088790528E+01
 0.2225749238675E+01
 0.2225074718908E+01
 0.2212483832436E+01
 0.2189631399948E+01
 0.2158141278538E+01
 0.2119467547953E+01
 0.2074846654053E+01
 0.2025300323832E+01
 0.1971660234395E+01
 0.1914695818156E+01
 0.1855213157268E+01
 0.1793828047359E+01
 0.1730775572258E+01
 0.1666004009741E+01
 0.1599298551208E+01
 0.1530385092744E+01
 0.1459025621388E+01
 0.1385114898146E+01
 0.1308786856629E+01
 0.1230531753969E+01
 0.1151298953775E+01
 0.1072622148705E+01
 0.9968329682897E+00
 0.9273234664290E+00
 0.8688599060038E+00
 0.8279827001594E+00
 0.8133377435597E+00
 0.8354062447499E+00
 0.9049158611587E+00
 0.1030166938645E+01
 0.1214798070732E+01
 0.1456622483422E+01
 0.1747330735578E+01
 0.2073363575456E+01
 0.1797471507252E+01
 0.1850966064960E+01
 0.1908070533939E+01
 0.1963369542336E+01
 0.2011968242608E+01
 0.2050257089072E+01
 0.2076211212306E+01
 0.2089261002479E+01
 0.2089916351351E+01
 0.2079334153357E+01
 0.2058951687403E+01
 0.2030233250654E+01
 0.1994526611790E+01
 0.1953002205070E+01
 0.1906641916592E+01
 0.1856252331633E+01
 0.1802578253796E+01
 0.1746393390878E+01
 0.1688292153358E+01
 0.1628517051167E+01
 0.1567049506564E+01
 0.1503727069147E+01
 0.1438341216670E+01
 0.1370727230770E+01
 0.1300855771191E+01
 0.1228934105907E+01
 0.1155517392365E+01
 0.1081606477113E+01
 0.1008765520771E+01
 0.9393192615276E+00
 0.8765937457753E+00
 0.8251988189068E+00
 0.7913641965706E+00
 0.7831454210366E+00
 0.8099982827184E+00
 0.8811973881279E+00
 0.1003516431177E+01
 0.1179498708839E+01
 0.1406655253943E+01
 0.1677354783966E+01
 0.1979635371102E+01
 0.1683288662139E+01
 0.1732092787286E+01
 0.1784303326700E+01
 0.1835140054954E+01
 0.1880217691546E+01
 0.1916207955420E+01
 0.1941133077884E+01
 0.1954299588749E+01
 0.1956007134708E+01
 0.1947186582366E+01
 0.1929076382186E+01
 0.1902986605804E+01
 0.1870155580016E+01
 0.1831680549693E+01
 0.1788495620829E+01
 0.1741375639034E+01
 0.1691036369885E+01
 0.1638216952750E+01
 0.1583489493588E+01
 0.1527103059695E+01
 0.1469070592442E+01
 0.1409279295587E+01
 0.1347582403627E+01
 0.1283883470093E+01
 0.1218222482332E+01
 0.1150871249094E+01
 0.1082437993600E+01
 0.1013959375300E+01
 0.9470101342601E+00
 0.8838844673482E+00
 0.8278156262476E+00
 0.7832266631291E+00
 0.7560023629973E+00
 0.7535807525050E+00
 0.7844140979198E+00
 0.8564520587134E+00
 0.9751682231595E+00
 0.1142241336836E+01
 0.1355014364374E+01
 0.1606495676022E+01
 0.1886086781651E+01
 0.1570128568715E+01
 0.1614568373617E+01
 0.1662186482451E+01
 0.1708766533501E+01
 0.1750391334163E+01
 0.1784013895467E+01
 0.1807736429547E+01
 0.1820788849881E+01
 0.1823305411567E+01
 0.1816024007876E+01
 0.1800003279924E+01
 0.1776406227528E+01
 0.1746360859295E+01
 0.1710886116039E+01
 0.1670861955965E+01
 0.1627025808844E+01
 0.1580060388360E+01
 0.1530668021650E+01
 0.1479397298852E+01
 0.1426502640426E+01
 0.1372026605870E+01
 0.1315903119437E+01
 0.1258043092848E+01
 0.1198413005819E+01
 0.1137115256793E+01
 0.1074477189922E+01
 0.1011148426493E+01
 0.9481866062610E+00
 0.8871589210267E+00
 0.8303081274954E+00
 0.7807514584883E+00
 0.7426990953645E+00
 0.7216627982275E+00
 0.7244463559946E+00
 0.7585325830497E+00
 0.8306720999212E+00
 0.9452345109000E+00
 0.1103217783188E+01
 0.1301890926728E+01
 0.1534856485170E+01
 0.1792694115469E+01
 0.1457885112639E+01
 0.1498249057292E+01
 0.1541544451835E+01
 0.1584058954262E+01
 0.1622306452454E+01
 0.1653517712820E+01
 0.1675899512093E+01
 0.1688643737773E+01
 0.1691757937559E+01
 0.1685817136167E+01
 0.1671718817697E+01
 0.1650487211602E+01
 0.1623140870143E+01
 0.1590617038560E+01
 0.1553736537904E+01
 0.1513194598628E+01
 0.1469637271959E+01
 0.1423727842883E+01
 0.1375989965571E+01
 0.1326681947247E+01
 0.1275873845985E+01
 0.1223543203387E+01
 0.1169654367617E+01
 0.1114231225261E+01
 0.1057431534124E+01
 0.9996292109795E+00
 0.9415040354329E+00
 0.8841208414194E+00
 0.8290229808459E+00
 0.7783834742659E+00
 0.7351834647265E+00
 0.7033979047866E+00
 0.6881428938892E+00
 0.6955802059443E+00
 0.7322658262599E+00
 0.8038714228185E+00
 0.9138304607708E+00
 0.1062605534559E+01
 0.1247457014131E+01
 0.1462535417741E+01
 0.1699448196777E+01
 0.1346460024924E+01
 0.1383002851819E+01
 0.1422215998630E+01
 0.1460840932229E+01
 0.1495789946561E+01
 0.1524565865925E+01
 0.1545498218339E+01
 0.1557772220172E+01
 0.1561301792665E+01
 0.1556526112018E+01
 0.1544199300265E+01
 0.1525215711227E+01
 0.1500486577919E+01
 0.1470865455969E+01
 0.1437110222062E+01
 0.1399869928355E+01
 0.1359750751629E+01
 0.1317374768142E+01
 0.1273239139013E+01
 0.1227604398574E+01
 0.1180565824212E+01
 0.1132141364709E+01
 0.1082344491929E+01
 0.1031250940638E+01
 0.9790668231508E+00
 0.9262039225689E+00
 0.8733615747408E+00
 0.8215992176556E+00
 0.7724219227720E+00
 0.7279170892591E+00
 0.6909124413203E+00
 0.6651285326727E+00
 0.6552679784033E+00
 0.6668502512957E+00
 0.7055526372928E+00
 0.7760798359948E+00
 0.8810715040793E+00
 0.1020569383510E+01
 0.1191869885576E+01
 0.1389627131801E+01
 0.1606351697562E+01
 0.1235761595448E+01
 0.1268707608300E+01
 0.1304051941110E+01
 0.1338947816543E+01
 0.1370677365252E+01
 0.1397008618723E+01
 0.1416407145764E+01
 0.1428076830255E+01
 0.1431866025001E+01
 0.1428101988014E+01
 0.1417412070986E+01
 0.1400569791304E+01
 0.1378382069949E+01
 0.1351617873931E+01
 0.1320969318850E+01
 0.1287036011119E+01
 0.1250381424807E+01
 0.1211584361131E+01
 0.1171113855281E+01
 0.1129230879149E+01
 0.1086053548454E+01
 0.1041636963998E+01
 0.9960394203750E+00
 0.9493830219260E+00
 0.9019154342333E+00
 0.8540780355156E+00
 0.8065799202089E+00
 0.7604638389083E+00
 0.7171839646923E+00
 0.6787283828242E+00
 0.6477564094836E+00
 0.6277177279763E+00
 0.6228878403169E+00
 0.6381497566861E+00
 0.6783532346951E+00
 0.7473386499049E+00
 0.8470716663149E+00
 0.9772630094213E+00
 0.1135274930666E+01
 0.1316223502138E+01
 0.1513417330150E+01
 0.1125703591841E+01
 0.1155249385108E+01
 0.1186913227540E+01
 0.1218224999094E+01
 0.1246811936282E+01
 0.1270699992744E+01
 0.1288500348895E+01
 0.1299455911029E+01
 0.1303373058019E+01
 0.1300488049341E+01
 0.1291316621288E+01
 0.1276520281880E+01
 0.1256805170002E+01
 0.1232855586365E+01
 0.1205295877765E+01
 0.1174673555186E+01
 0.1141506923099E+01
 0.1106329567767E+01
 0.1069580740809E+01
 0.1031519989094E+01
 0.9922858389310E+00
 0.9519673022759E+00
 0.9106632841269E+00
 0.8685369652148E+00
 0.8258711011103E+00
 0.7831289782213E+00
 0.7410205893722E+00
 0.7005620733026E+00
 0.6631458515923E+00
 0.6306489631672E+00
 0.6055492764725E+00
 0.5910113748435E+00
 0.5908736257497E+00
 0.6093932971512E+00
 0.6506449102533E+00
 0.7176973546734E+00
 0.8119425613160E+00
 0.9328303836754E+00
 0.1077807854039E+01
 0.1242414266282E+01
 0.1420666658982E+01
 0.1016204341872E+01
 0.1042521066696E+01
 0.1070669284229E+01
 0.1098526409861E+01
 0.1124043620256E+01
 0.1145497580835E+01
 0.1161651856819E+01
 0.1171804610605E+01
 0.1175739894947E+01
 0.1173621008346E+01
 0.1165865640995E+01
 0.1153031628323E+01
 0.1135728087461E+01
 0.1114555154361E+01
 0.1090068041047E+01
 0.1062760039996E+01
 0.1033102153256E+01
 0.1001580955714E+01
 0.9686042745373E+00
 0.9344283455485E+00
 0.8992096812579E+00
 0.8630680326625E+00
 0.8261388604816E+00
 0.7886214061892E+00
 0.7508275056653E+00
 0.7132353776008E+00
 0.6765480999695E+00
 0.6417466883843E+00
 0.6101526484493E+00
 0.5835219576041E+00
 0.5641395612828E+00
 0.5548725202480E+00
 0.5591150995654E+00
 0.5805133379774E+00
 0.6224185059582E+00
 0.6872111134363E+00
 0.7757928167338E+00
 0.8874070107383E+00
 0.1019596428688E+01
 0.1168287724377E+01
 0.1328129431680E+01
 0.9071859463759E+00
 0.9304211815440E+00
 0.9551965856252E+00
 0.9797131737656E+00
 0.1002228201880E+01
 0.1021262268376E+01
 0.1035736014008E+01
 0.1045015680642E+01
 0.1048879157917E+01
 0.1047432091422E+01
 0.1041006022015E+01
 0.1030062746099E+01
 0.1015118108338E+01
 0.9966889511825E+00
 0.9752604774319E+00
 0.9512700787932E+00
 0.9251396260338E+00
 0.8973070392925E+00
 0.8681471297196E+00
 0.8379109541442E+00
 0.8067706336683E+00
 0.7748736027736E+00
 0.7423880411089E+00
 0.7095445931294E+00
 0.6766787206440E+00
 0.6442774226661E+00
 0.6130301939678E+00
 0.5838758654033E+00
 0.5580574633428E+00
 0.5372013487862E+00
 0.5233892387162E+00
 0.5191796293114E+00
 0.5275182601985E+00
 0.5514573356476E+00
 0.5936755602005E+00
 0.6559388721535E+00
 0.7387277873890E+00
 0.8411210504383E+00
 0.9607620264455E+00
 0.1093931588723E+01
 0.1235843431264E+01
 0.7985735963805E+00
 0.8188528791601E+00
 0.8403774047193E+00
 0.8616524059709E+00
 0.8812264269793E+00
 0.8978578990802E+00
 0.9106276967452E+00
 0.9189801310353E+00
 0.9227000070076E+00
 0.9218480539081E+00
 0.9166798441362E+00
 0.9075679058437E+00
 0.8949383539570E+00
 0.8792258012704E+00
 0.8608449269293E+00
 0.8401759021122E+00
 0.8175899103098E+00
 0.7934747297200E+00
 0.7681706367931E+00
 0.7419216917451E+00
 0.7149133280662E+00
 0.6873177636909E+00
 0.6593323291465E+00
 0.6312148429871E+00
 0.6033195886188E+00
 0.5761371286304E+00
 0.5503379529559E+00
 0.5268131353785E+00
 0.5067211636806E+00
 0.4915513999137E+00
 0.4831727666499E+00
 0.4838251040372E+00
 0.4960033037926E+00
 0.5221853033389E+00
 0.5644260026425E+00
 0.6239419358826E+00
 0.7008494684147E+00
 0.7940943717915E+00
 0.9014210719146E+00
 0.1019434080053E+01
 0.1143854950326E+01
 0.6902949731952E+00
 0.7077230336810E+00
 0.7260987091113E+00
 0.7442161255840E+00
 0.7609031925439E+00
 0.7751509210847E+00
 0.7862024608287E+00
 0.7935878054401E+00
 0.7971090048786E+00
 0.7967921867723E+00
 0.7928254054780E+00
 0.7854977123356E+00
 0.7751486743576E+00
 0.7621317853853E+00
 0.7467909348051E+00
 0.7294480465818E+00
 0.7104223027737E+00
 0.6900500055635E+00
 0.6686354645525E+00
 0.6464139966110E+00
 0.6235821553259E+00
 0.6003342247893E+00
 0.5768934280312E+00
 0.5535410238838E+00
 0.5306460628184E+00
 0.5086985187489E+00
 0.4883458303736E+00
 0.4704272886158E+00
 0.4560121706498E+00
 0.4464462736585E+00
 0.4433763904520E+00
 0.4487141219443E+00
 0.4645029459774E+00
 0.4926677955200E+00
 0.5346862993403E+00
 0.5912828991652E+00
 0.6622565536039E+00
 0.7464435887584E+00
 0.8416865468584E+00
 0.9448854143827E+00
 0.1052220117723E+01
 0.5822797140356E+00
 0.5969414473435E+00
 0.6122511739006E+00
 0.6272802726910E+00
 0.6411268035851E+00
 0.6530100622667E+00
 0.6623367016867E+00
 0.6687279834074E+00
 0.6720110501019E+00
 0.6721854511258E+00
 0.6693784451387E+00
 0.6638003367605E+00
 0.6557068485709E+00
 0.6453713977789E+00
 0.6330669748070E+00
 0.6190564629186E+00
 0.6036059393506E+00
 0.5869990386289E+00
 0.5695027582621E+00
 0.5513419994985E+00
 0.5327223516623E+00
 0.5138576407904E+00
 0.4949940647113E+00
 0.4764331550678E+00
 0.4585555533196E+00
 0.4418477412030E+00
 0.4269316286317E+00
 0.4145923344129E+00
 0.4058064710991E+00
 0.4017700191780E+00
 0.4038978808783E+00
 0.4137638929099E+00
 0.4329611328386E+00
 0.4628842816594E+00
 0.5044779703078E+00
 0.5580248459950E+00
 0.6230446055887E+00
 0.6982811329575E+00
 0.7816696878480E+00
 0.8703799193881E+00
 0.9610075150711E+00
 0.4744589287646E+00
 0.4864201315591E+00
 0.4987282878926E+00
 0.5107238247851E+00
 0.5217683378655E+00
 0.5313061393176E+00
 0.5389080016183E+00
 0.5442902511800E+00
 0.5473106812845E+00
 0.5479480949659E+00
 0.5462739586889E+00
 0.5424234452096E+00
 0.5365705747476E+00
 0.5289095768852E+00
 0.5196425201086E+00
 0.5089726357674E+00
 0.4971119697785E+00
 0.4842904157942E+00
 0.4707363785929E+00
 0.4566627194973E+00
 0.4422820583076E+00
 0.4278254149986E+00
 0.4135594085093E+00
 0.3998033440749E+00
 0.3869473700477E+00
 0.3754731405519E+00
 0.3659764593234E+00
 0.3591876528714E+00
 0.3559881150029E+00
 0.3574172564308E+00
 0.3646469911828E+00
 0.3789035133345E+00
 0.4013322138877E+00
 0.4328219010501E+00
 0.4738264210610E+00
 0.5242307550939E+00
 0.5833063193975E+00
 0.6497164327717E+00
 0.7214820746028E+00
 0.7960191920472E+00
 0.8703028977091E+00
 0.3667647559022E+00
 0.3760726468338E+00
 0.3854255367719E+00
 0.3944280444764E+00
 0.4027012655471E+00
 0.4099123228103E+00
 0.4157961969714E+00
 0.4201663928291E+00
 0.4229147110747E+00
 0.4240028976549E+00
 0.4234499159397E+00
 0.4213182773447E+00
 0.4177018335882E+00
 0.4127163111030E+00
 0.4064928711903E+00
 0.3991746188931E+00
 0.3909187722907E+00
 0.3819004739808E+00
 0.3723082475432E+00
 0.3623412454384E+00
 0.3522170927546E+00
 0.3421817642587E+00
 0.3325201405021E+00
 0.3235676802894E+00
 0.3157234996081E+00
 0.3094653120574E+00
 0.3053647569177E+00
 0.3040986575712E+00
 0.3064507898565E+00
 0.3132952451716E+00
 0.3255471946639E+00
 0.3440747552947E+00
 0.3695807242350E+00
 0.4024746240290E+00
 0.4427600491230E+00
 0.4899630608822E+00
 0.5431318734739E+00
 0.6008572987750E+00
 0.6612384194035E+00
 0.7219170320207E+00
 0.7802175712539E+00
 0.2591299497184E+00
 0.2658134864137E+00
 0.2722396678159E+00
 0.2782760550682E+00
 0.2838019817455E+00
 0.2887062348637E+00
 0.2928874249603E+00
 0.2962564932596E+00
 0.2987402684849E+00
 0.3002849094209E+00
 0.3008584236030E+00
 0.3004519886712E+00
 0.2990802237969E+00
 0.2967808352642E+00
 0.2936141117540E+00
 0.2896626420904E+00
 0.2850280529946E+00
 0.2798296393669E+00
 0.2742145321201E+00
 0.2683661848528E+00
 0.2625049004752E+00
 0.2568893084514E+00
 0.2518209106682E+00
 0.2476512003774E+00
 0.2447904780165E+00
 0.2437171999775E+00
 0.2449845242473E+00
 0.2492188213114E+00
 0.2571019525568E+00
 0.2693289182326E+00
 0.2865398836588E+00
 0.3092344524784E+00
 0.3376820625320E+00
 0.3718428993129E+00
 0.4113096087166E+00
 0.4552833312115E+00
 0.5026093756715E+00
 0.5518116734784E+00
 0.6010605861019E+00
 0.6482075161847E+00
 0.6909035070321E+00
 0.1514875068667E+00
 0.1555574994871E+00
 0.1590681795197E+00
 0.1621541598655E+00
 0.1649557428523E+00
 0.1675831915553E+00
 0.1700963836645E+00
 0.1725006598839E+00
 0.1747553737411E+00
 0.1767896658067E+00
 0.1785201940115E+00
 0.1798671057607E+00
 0.1807663754002E+00
 0.1811781994770E+00
 0.1810921517980E+00
 0.1805299085545E+00
 0.1795364698144E+00
 0.1781735868126E+00
 0.1765445089579E+00
 0.1748137326577E+00
 0.1732007407261E+00
 0.1719741539591E+00
 0.1714518746982E+00
 0.1720054426506E+00
 0.1740655651695E+00
 0.1781244457394E+00
 0.1847284183107E+00
 0.1944558126955E+00
 0.2078737958373E+00
 0.2254729222053E+00
 0.2475937154102E+00
 0.2743598456898E+00
 0.3056246250117E+00
 0.3409339632920E+00
 0.3795078470125E+00
 0.4202520307426E+00
 0.4618254299409E+00
 0.5026900128682E+00
 0.5410837946438E+00
 0.5750588809833E+00
 0.6025816818667E+00
 0.4377070253739E-01
 0.4521956483850E-01
 0.4581237147820E-01
 0.4598528713444E-01
 0.4616535281505E-01
 0.4668367280535E-01
 0.4773629108695E-01
 0.4938801392898E-01
 0.5160184339274E-01
 0.5427515553447E-01
 0.5727175773021E-01
 0.6044708244222E-01
 0.6366709715591E-01
 0.6682185275659E-01
 0.6983457212809E-01
 0.7266683463125E-01
 0.7530480960706E-01
 0.7774818690810E-01
 0.8004916169215E-01
 0.8234429207304E-01
 0.8484501414729E-01
 0.8782958688969E-01
 0.9164420085213E-01
 0.9670732138307E-01
 0.1035078638946E+00
 0.1125871009343E+00
 0.1244985997850E+00
 0.1397530944841E+00
 0.1587559297895E+00
 0.1817425037848E+00
 0.2087258117812E+00
 0.2394598754894E+00
 0.2734145245574E+00
 0.3097631689713E+00
 0.3473894733727E+00
 0.3849283447701E+00
 0.4208658790025E+00
 0.4536087791556E+00
 0.4814668394962E+00
 0.5026987276295E+00
 0.5155982486793E+00
 0.6409120028765E-01
 0.6528832168464E-01
 0.6765770519264E-01
 0.7057695798422E-01
 0.7341018648273E-01
 0.7559478783448E-01
 0.7672166515282E-01
 0.7657264526618E-01
 0.7511179273510E-01
 0.7244613377894E-01
 0.6877458904142E-01
 0.6433918859201E-01
 0.5938610634205E-01
 0.5413861736843E-01
 0.4878069640906E-01
 0.4344968559241E-01
 0.3825701799052E-01
 0.3330594012805E-01
 0.2865729399872E-01
 0.2435549045031E-01
 0.2061744234701E-01
 0.1822680209153E-01
 0.1885891364830E-01
 0.2398326537354E-01
 0.3354312493088E-01
 0.4702616707246E-01
 0.6424020448521E-01
 0.8519669622029E-01
 0.1099176131592E+00
 0.1383047095731E+00
 0.1700536533847E+00
 0.2045995014126E+00
 0.2410852820605E+00
 0.2783570594627E+00
 0.3149916102682E+00
 0.3493700432413E+00
 0.3798168326736E+00
 0.4046959531900E+00
 0.4224100301985E+00
 0.4314627306047E+00
 0.4305441652813E+00
 0.1721625784129E+00
 0.1760511841420E+00
 0.1814093167316E+00
 0.1873135885347E+00
 0.1928449460810E+00
 0.1972146016919E+00
 0.1998587526649E+00
 0.2004756475149E+00
 0.1990071288173E+00
 0.1955839913027E+00
 0.1904577851955E+00
 0.1839362795248E+00
 0.1763318662259E+00
 0.1679253209110E+00
 0.1589428006415E+00
 0.1495431443419E+00
 0.1398414700959E+00
 0.1299286579702E+00
 0.1198003886616E+00
 0.1093027684826E+00
 0.9816110132379E-01
 0.8601534772145E-01
 0.7244873603030E-01
 0.5701630253150E-01
 0.3928439189078E-01
 0.1894852429738E-01
 0.6343559615142E-02
 0.3222718011958E-01
 0.6240408785553E-01
 0.9581684841527E-01
 0.1319391266007E+00
 0.1699554965503E+00
 0.2087178722599E+00
 0.2467597033555E+00
 0.2823550492123E+00
 0.3136333700840E+00
 0.3387662008172E+00
 0.3561003938217E+00
 0.3641888769498E+00
 0.3618958117935E+00
 0.3485331816450E+00
 0.2805160169357E+00
 0.2871601957989E+00
 0.2955719902612E+00
 0.3045297400496E+00
 0.3128297745403E+00
 0.3194512086259E+00
 0.3236720876686E+00
 0.3251098631779E+00
 0.3236926984685E+00
 0.3195873385692E+00
 0.3131120697016E+00
 0.3046559024389E+00
 0.2946149919810E+00
 0.2833487846173E+00
 0.2711528698353E+00
 0.2582446866382E+00
 0.2447939265307E+00
 0.2309483866456E+00
 0.2167488926495E+00
 0.2020639088419E+00
 0.1866263503269E+00
 0.1700790941107E+00
 0.1520130623452E+00
 0.1320072415961E+00
 0.1096848431934E+00
 0.8482100332527E-01
 0.5766982580434E-01
 0.3100959412857E-01
 0.2702836441350E-01
 0.5721527487153E-01
 0.9546597718121E-01
 0.1359575246902E+00
 0.1764842522791E+00
 0.2150456481447E+00
 0.2495270152886E+00
 0.2777729516843E+00
 0.2978061877719E+00
 0.3080089759079E+00
 0.3072221723514E+00
 0.2949801814106E+00
 0.2719117031588E+00
 0.3892232885013E+00
 0.3987076458532E+00
 0.4102553566845E+00
 0.4223324470198E+00
 0.4334396541730E+00
 0.4423187815709E+00
 0.4480915233082E+00
 0.4503020618608E+00
 0.4488753012187E+00
 0.4440243980533E+00
 0.4361429782327E+00
 0.4257073008321E+00
 0.4132008472926E+00
 0.3990634749043E+00
 0.3836608348274E+00
 0.3672690277372E+00
 0.3501119378159E+00
 0.3323930997553E+00
 0.3141961639031E+00
 0.2954082241287E+00
 0.2757639784866E+00
 0.2548999687023E+00
 0.2323993381543E+00
 0.2078366234565E+00
 0.1808340003132E+00
 0.1511467238699E+00
 0.1188243754173E+00
 0.8464706294152E-01
 0.5218530026644E-01
 0.3909022944205E-01
 0.6436488466187E-01
 0.1036910569471E+00
 0.1447494500502E+00
 0.1833474826769E+00
 0.2165670444097E+00
 0.2418417378811E+00
 0.2570377676665E+00
 0.2606806516786E+00
 0.2522212682616E+00
 0.2326930481718E+00
 0.2061757485057E+00
 0.4983587426127E+00
 0.5107894262316E+00
 0.5255754201408E+00
 0.5408505335678E+00
 0.5548051280956E+00
 0.5659379731198E+00
 0.5732182371699E+00
 0.5761275193221E+00
 0.5746009745620E+00
 0.5689109410805E+00
 0.5595362623168E+00
 0.5470467579707E+00
 0.5320163627416E+00
 0.5149661857764E+00
 0.4963314706061E+00
 0.4764459741169E+00
 0.4555866644898E+00
 0.4340116726546E+00
 0.4118461338774E+00
 0.3889939579052E+00
 0.3651889629785E+00
 0.3400574057573E+00
 0.3131689526601E+00
 0.2840860112256E+00
 0.2524218679432E+00
 0.2179196008334E+00
 0.1805716257594E+00
 0.1408346248324E+00
 0.1002431344091E+00
 0.6405864695889E-01
 0.5130767640919E-01
 0.7616307944692E-01
 0.1143349049156E+00
 0.1519188385371E+00
 0.1835599249339E+00
 0.2058910409868E+00
 0.2165796257667E+00
 0.2145207128237E+00
 0.2005459190125E+00
 0.1794165024509E+00
 0.1641330764276E+00
 0.6079996397304E+00
 0.6235057215993E+00
 0.6416537393692E+00
 0.6602202130331E+00
 0.6770670522884E+00
 0.6904438727195E+00
 0.6991731650873E+00
 0.7026878547898E+00
 0.7009500927410E+00
 0.6943066617221E+00
 0.6833329937341E+00
 0.6686993643501E+00
 0.6510732188317E+00
 0.6310573253475E+00
 0.6091555009179E+00
 0.5857576697296E+00
 0.5611924994281E+00
 0.5357716220595E+00
 0.5096607102762E+00
 0.4827794048439E+00
 0.4548591230836E+00
 0.4255136128371E+00
 0.3942959652459E+00
 0.3607525828725E+00
 0.3244843513346E+00
 0.2852246487057E+00
 0.2429442235348E+00
 0.1979969300054E+00
 0.1514181260159E+00
 0.1058229378296E+00
 0.6893467191690E-01
 0.6138891429499E-01
 0.8725299085513E-01
 0.1212930375700E+00
 0.1506465314007E+00
 0.1699708955629E+00
 0.1765883579618E+00
 0.1702607577207E+00
 0.1550980926289E+00
 0.1447162642886E+00
 0.1642223894613E+00
 0.7182267461755E+00
 0.7369619234308E+00
 0.7586183967053E+00
 0.7805847775771E+00
 0.8003731219347E+00
 0.8159776744523E+00
 0.8260826214203E+00
 0.8300898420165E+00
 0.8280087850540E+00
 0.8202785441133E+00
 0.8075839545015E+00
 0.7907031034513E+00
 0.7703998102674E+00
 0.7473583893856E+00
 0.7221496230769E+00
 0.6952176218237E+00
 0.6669410673045E+00
 0.6376839240556E+00
 0.6076515747326E+00
 0.5767785665790E+00
 0.5447927843275E+00
 0.5112937850591E+00
 0.4758157084665E+00
 0.4378859076548E+00
 0.3970896891880E+00
 0.3531497995106E+00
 0.3060261408391E+00
 0.2560327572434E+00
 0.2040262352681E+00
 0.1518321699075E+00
 0.1034662376145E+00
 0.6941401272564E-01
 0.6853148430969E-01
 0.9272809703658E-01
 0.1181066987447E+00
 0.1341315084970E+00
 0.1373115078948E+00
 0.1294460033823E+00
 0.1222805818785E+00
 0.1420399174769E+00
 0.2057495446104E+00
 0.8291250322802E+00
 0.8512696894356E+00
 0.8766052516923E+00
 0.9020955179115E+00
 0.9248778039890E+00
 0.9426851212933E+00
 0.9540750166519E+00
 0.9584403725474E+00
 0.9558622077522E+00
 0.9468924882538E+00
 0.9323395789975E+00
 0.9130969639986E+00
 0.8900272715271E+00
 0.8638955419611E+00
 0.8353371997758E+00
 0.8048479985571E+00
 0.7728546089455E+00
 0.7397720419080E+00
 0.7058446020870E+00
 0.6710210360016E+00
 0.6350247205535E+00
 0.5974395312651E+00
 0.5577785063132E+00
 0.5155471005365E+00
 0.4703117018877E+00
 0.4217816776421E+00
 0.3699080928575E+00
 0.3149873317976E+00
 0.2578021463684E+00
 0.1998783921602E+00
 0.1439930598400E+00
 0.9561482098198E-01
 0.6681469713247E-01
 0.6950689616552E-01
 0.8662334993839E-01
 0.9842891524609E-01
 0.9925761143904E-01
 0.9582690217364E-01
 0.1127053934210E+00
 0.1721510940337E+00
 0.2697600079937E+00
 0.9407844848157E+00
 0.9665481764810E+00
 0.9957594100657E+00
 0.1024912987771E+01
 0.1050742929031E+01
 0.1070716146471E+01
 0.1083279521758E+01
 0.1087844290870E+01
 0.1084591750756E+01
 0.1074210050304E+01
 0.1057646310830E+01
 0.1035916916037E+01
 0.1009985010665E+01
 0.9806946004753E+00
 0.9487425607114E+00
 0.9146731002935E+00
 0.8789584830039E+00
 0.8420633553104E+00
 0.8042701849898E+00
 0.7655412941656E+00
 0.7255946625051E+00
 0.6839970747857E+00
 0.6402384031689E+00
 0.5937994110416E+00
 0.5442240694570E+00
 0.4912046117492E+00
 0.4346812497183E+00
 0.3749394850931E+00
 0.3127289983851E+00
 0.2494505570365E+00
 0.1874078639731E+00
 0.1302526738003E+00
 0.8414253713235E-01
 0.5927624684794E-01
 0.5832789252160E-01
 0.6295217230273E-01
 0.6391917590609E-01
 0.7808184430400E-01
 0.1306239113574E+00
 0.2214732856703E+00
 0.3435553639093E+00
 0.1053301060651E+01
 0.1082925489968E+01
 0.1116236935121E+01
 0.1149208484356E+01
 0.1178138471063E+01
 0.1200224738974E+01
 0.1213825096796E+01
 0.1218402836562E+01
 0.1214273168871E+01
 0.1202286468039E+01
 0.1183544629360E+01
 0.1159193961780E+01
 0.1130298752465E+01
 0.1097779008512E+01
 0.1062388828874E+01
 0.1024716961258E+01
 0.9852784739313E+00
 0.9445861265956E+00
 0.9029598427529E+00
 0.8603749900076E+00
 0.8165433363720E+00
 0.7710132228280E+00
 0.7232493530231E+00
 0.6727050673910E+00
 0.6188983703850E+00
 0.5615000727654E+00
 0.5004354157119E+00
 0.4359786021168E+00
 0.3688614536685E+00
 0.3004316668513E+00
 0.2328056013322E+00
 0.1689756840161E+00
 0.1128502967146E+00
 0.6902540471745E-01
 0.4113252723257E-01
 0.2806292069967E-01
 0.3797773822375E-01
 0.8540058049126E-01
 0.1665927435267E+00
 0.2795040019470E+00
 0.4217563721602E+00
 0.1166777817804E+01
 0.1200540404946E+01
 0.1238206851356E+01
 0.1275165731065E+01
 0.1307243382017E+01
 0.1331368751288E+01
 0.1345839446376E+01
 0.1350212099451E+01
 0.1344974879214E+01
 0.1331169031909E+01
 0.1310067600422E+01
 0.1282952879425E+01
 0.1250989436857E+01
 0.1215168828042E+01
 0.1176296940003E+01
 0.1135002333055E+01
 0.1091839686476E+01
 0.1047368269043E+01
 0.1001944845610E+01
 0.9555574234901E+00
 0.9079108329469E+00
 0.8585336815340E+00
 0.8068635863966E+00
 0.7523238576735E+00
 0.6944030738733E+00
 0.6327461386475E+00
 0.5672580738055E+00
 0.4981975074827E+00
 0.4262812847121E+00
 0.3528337424200E+00
 0.2799043412531E+00
 0.2102652489483E+00
 0.1471546282156E+00
 0.9339384324373E-01
 0.4925772952698E-01
 0.1126176092312E-01
 0.4228413656502E-01
 0.1119496770847E+00
 0.2108421119779E+00
 0.3413710236021E+00
 0.5021043090672E+00
 0.1281326270677E+01
 0.1319544429586E+01
 0.1361853505185E+01
 0.1402982774076E+01
 0.1438246412657E+01
 0.1464309508291E+01
 0.1479447711489E+01
 0.1483361265102E+01
 0.1476756172323E+01
 0.1460895509750E+01
 0.1437239605567E+01
 0.1407211246338E+01
 0.1372072478416E+01
 0.1332880164280E+01
 0.1290485163562E+01
 0.1245550240275E+01
 0.1198666086071E+01
 0.1150436836783E+01
 0.1101255633105E+01
 0.1051122882434E+01
 0.9997358619041E+00
 0.9466022388926E+00
 0.8911307533938E+00
 0.8327122926911E+00
 0.7708028027701E+00
 0.7050168877452E+00
 0.6352335751843E+00
 0.5616894254333E+00
 0.4850823664775E+00
 0.4067223476029E+00
 0.3286433812820E+00
 0.2535780992897E+00
 0.1846701881316E+00
 0.1247101062096E+00
 0.7530234750381E-01
 0.4407052382377E-01
 0.7049144063399E-01
 0.1467643733395E+00
 0.2584607197403E+00
 0.4048992423819E+00
 0.5835717007807E+00
 0.1397068030258E+01
 0.1440104301824E+01
 0.1487379363176E+01
 0.1532874108949E+01
 0.1571346854612E+01
 0.1599211097931E+01
 0.1614770765208E+01
 0.1617930530435E+01
 0.1609665231453E+01
 0.1591492522601E+01
 0.1565075135313E+01
 0.1531978603555E+01
 0.1493557218273E+01
 0.1450924819842E+01
 0.1404968884250E+01
 0.1356379826383E+01
 0.1305780359347E+01
 0.1253817864621E+01
 0.1200921609890E+01
 0.1147104376618E+01
 0.1092055407339E+01
 0.1035260326785E+01
 0.9760973865374E+00
 0.9139229818315E+00
 0.8481576536075E+00
 0.7783816837641E+00
 0.7044422653218E+00
 0.6265461512184E+00
 0.5453642756404E+00
 0.4621895192590E+00
 0.3790582356836E+00
 0.2987381289697E+00
 0.2244902420847E+00
 0.1595464331557E+00
 0.1072723427777E+00
 0.7871650350936E-01
 0.1039965128008E+00
 0.1843965683356E+00
 0.3072130422509E+00
 0.4690178212242E+00
 0.6656676962156E+00
 0.1514136809061E+01
 0.1562405037040E+01
 0.1615008346840E+01
 0.1665073049297E+01
 0.1706755117996E+01
 0.1736239208582E+01
 0.1751922985677E+01
 0.1753988601587E+01
 0.1743736909237E+01
 0.1722973839902E+01
 0.1693577615192E+01
 0.1657255718904E+01
 0.1615446509236E+01
 0.1569310101738E+01
 0.1519760550836E+01
 0.1467508380295E+01
 0.1413203968527E+01
 0.1357536414799E+01
 0.1300971159903E+01
 0.1243533596288E+01
 0.1184904602378E+01
 0.1124546778992E+01
 0.1061806513163E+01
 0.9960040850251E+00
 0.9265224932583E+00
 0.8529043318510E+00
 0.7749594638861E+00
 0.6928565379726E+00
 0.6072288085851E+00
 0.5193421269808E+00
 0.4312341461116E+00
 0.3457320758368E+00
 0.2662865619677E+00
 0.1966593075242E+00
 0.1415873997545E+00
 0.1133996319205E+00
 0.1383605487913E+00
 0.2226448131022E+00
 0.3559662758056E+00
 0.5331216808706E+00
 0.7481703379724E+00
 0.1632680896648E+01
 0.1686653681146E+01
 0.1744989825369E+01
 0.1799834337294E+01
 0.1844693021791E+01
 0.1875559343397E+01
 0.1891009367725E+01
 0.1891589698777E+01
 0.1878990239761E+01
 0.1855338598356E+01
 0.1822738271521E+01
 0.1783033945501E+01
 0.1737736417154E+01
 0.1688038751992E+01
 0.1634869753778E+01
 0.1578951497780E+01
 0.1520957347530E+01
 0.1461616772629E+01
 0.1401431815480E+01
 0.1340441026784E+01
 0.1278316750858E+01
 0.1214497712135E+01
 0.1148297348581E+01
 0.1078998784370E+01
 0.1005946196957E+01
 0.9286420911883E+00
 0.8468542542230E+00
 0.7607049540678E+00
 0.6707774966169E+00
 0.5782958615492E+00
 0.4852860942795E+00
 0.3946320236738E+00
 0.3099855854924E+00
 0.2356174062969E+00
 0.1773061262061E+00
 0.1480501916159E+00
 0.1725226965670E+00
 0.2605057743189E+00
 0.4040485156151E+00
 0.5967949982505E+00
 0.8310204721752E+00
 0.1752866247949E+01
 0.1813083973194E+01
 0.1877603414376E+01
 0.1937436972065E+01
 0.1985393617831E+01
 0.2017334192542E+01
 0.2032121815457E+01
 0.2030770002557E+01
 0.2015425688307E+01
 0.1988569475229E+01
 0.1952535067011E+01
 0.1909294691873E+01
 0.1860416039361E+01
 0.1807108991293E+01
 0.1750303414440E+01
 0.1690723357412E+01
 0.1629060218048E+01
 0.1566082768495E+01
 0.1502330558189E+01
 0.1437856194939E+01
 0.1372323469884E+01
 0.1305146501522E+01
 0.1235605041952E+01
 0.1162944750872E+01
 0.1086470810322E+01
 0.1005644532501E+01
 0.9201880524310E+00
 0.8301695494200E+00
 0.7361093469508E+00
 0.6391713636651E+00
 0.5413489210391E+00
 0.4455624815062E+00
 0.3556460796862E+00
 0.2763254225648E+00
 0.2141958803545E+00
 0.1827300360508E+00
 0.2061238880284E+00
 0.2974349765422E+00
 0.4510169414968E+00
 0.6596478634422E+00
 0.9142798142662E+00
 0.1874880377873E+01
 0.1941962189891E+01
 0.2013164759558E+01
 0.2078187190307E+01
 0.2129100287676E+01
 0.2161719879842E+01
 0.2175334437924E+01
 0.2171543490538E+01
 0.2153022168939E+01
 0.2122630872453E+01
 0.2082931754283E+01
 0.2036009031164E+01
 0.1983467448389E+01
 0.1926514671462E+01
 0.1866066076455E+01
 0.1802837101126E+01
 0.1737532017368E+01
 0.1670958220371E+01
 0.1603694247633E+01
 0.1535808044181E+01
 0.1466954948758E+01
 0.1396523844485E+01
 0.1323760464857E+01
 0.1247873595731E+01
 0.1168130626262E+01
 0.1083952231297E+01
 0.9950129331273E+00
 0.9013202392644E+00
 0.8033184452169E+00
 0.7020910436467E+00
 0.5995715232302E+00
 0.4986848730719E+00
 0.4034089290005E+00
 0.3188577857883E+00
 0.2522855373212E+00
 0.2175628422472E+00
 0.2390376485328E+00
 0.3330570094580E+00
 0.4966124028352E+00
 0.7212655891974E+00
 0.9979646067227E+00
 0.1998937329045E+01
 0.2073594538945E+01
 0.2152032517877E+01
 0.2222421462926E+01
 0.2276064735332E+01
 0.2308860719971E+01
 0.2320697653794E+01
 0.2313897139932E+01
 0.2291733896544E+01
 0.2257467196004E+01
 0.2213877111277E+01
 0.2163137483603E+01
 0.2106865770729E+01
 0.2046245532466E+01
 0.1982160290570E+01
 0.1915305312596E+01
 0.1846392435781E+01
 0.1776267499856E+01
 0.1705550185503E+01
 0.1634325447333E+01
 0.1562240331420E+01
 0.1488657913953E+01
 0.1412790040880E+01
 0.1333810301959E+01
 0.1250951171879E+01
 0.1163595290090E+01
 0.1071369693916E+01
 0.9742163451466E+00
 0.8724912152662E+00
 0.7671758952714E+00
 0.6601125647201E+00
 0.5541892957124E+00
 0.4534750162252E+00
 0.3633965124650E+00
 0.2917421330684E+00
 0.2527371901856E+00
 0.2712369773413E+00
 0.3671559917496E+00
 0.5403551806736E+00
 0.7823702448628E+00
 0.1078641815878E+01
 0.2125284086088E+01
 0.2208336600418E+01
 0.2294616781994E+01
 0.2370509255147E+01
 0.2426543335216E+01
 0.2458882026981E+01
 0.2468230907498E+01
 0.2457785516949E+01
 0.2431487189111E+01
 0.2393001347620E+01
 0.2345304438202E+01
 0.2290630010967E+01
 0.2230579409288E+01
 0.2166287556683E+01
 0.2098587082322E+01
 0.2028140587464E+01
 0.1955662065583E+01
 0.1882036232113E+01
 0.1807926831808E+01
 0.1733437876351E+01
 0.1658208238637E+01
 0.1581574611992E+01
 0.1502715619631E+01
 0.1420772636423E+01
 0.1334948104744E+01
 0.1244591687491E+01
 0.1149285647494E+01
 0.1048903851254E+01
 0.9437032063047E+00
 0.8345419060880E+00
 0.7231364620308E+00
 0.6122891708257E+00
 0.5060950164453E+00
 0.4102071428592E+00
 0.3328364128717E+00
 0.2885123687868E+00
 0.3028015249218E+00
 0.3994918144032E+00
 0.5821546978575E+00
 0.8419046642741E+00
 0.1161347075550E+01
 0.2254208967072E+01
 0.2346605501014E+01
 0.2441389216708E+01
 0.2522855106334E+01
 0.2580791064901E+01
 0.2611880405952E+01
 0.2617913818467E+01
 0.2603124845101E+01
 0.2572177397339E+01
 0.2529133579114E+01
 0.2477131406783E+01
 0.2418426260535E+01
 0.2354570410766E+01
 0.2286623403638E+01
 0.2215346483575E+01
 0.2141356184566E+01
 0.2065363163109E+01
 0.1988292143423E+01
 0.1910854696114E+01
 0.1833176254344E+01
 0.1754887450014E+01
 0.1675297933758E+01
 0.1593554397342E+01
 0.1508770540942E+01
 0.1420126017823E+01
 0.1326945453936E+01
 0.1228772134750E+01
 0.1125412245605E+01
 0.1017015310797E+01
 0.9042958046249E+00
 0.7888089065477E+00
 0.6732167015548E+00
 0.5615640187064E+00
 0.4596309419725E+00
 0.3759353903495E+00
 0.3252424243642E+00
 0.3338920698188E+00
 0.4299460091242E+00
 0.6215719917824E+00
 0.9001948247521E+00
 0.1245061942144E+01
 0.2386052759025E+01
 0.2488895770461E+01
 0.2592895172026E+01
 0.2679899277438E+01
 0.2739051937006E+01
 0.2767910850529E+01
 0.2769675649377E+01
 0.2749786754643E+01
 0.2713666216906E+01
 0.2665740895486E+01
 0.2609260362484E+01
 0.2546456093745E+01
 0.2478794971189E+01
 0.2407232898280E+01
 0.2332438100338E+01
 0.2254966743329E+01
 0.2175520527185E+01
 0.2095066077576E+01
 0.2014367437476E+01
 0.1933574025704E+01
 0.1852307772683E+01
 0.1769850454573E+01
 0.1685318885939E+01
 0.1597805501523E+01
 0.1506477155591E+01
 0.1410644680590E+01
 0.1309821762520E+01
 0.1203750929919E+01
 0.1092469344741E+01
 0.9765299458589E+00
 0.8572914433604E+00
 0.7372178218459E+00
 0.6202178360930E+00
 0.5120833813449E+00
 0.4215091664056E+00
 0.3633942873019E+00
 0.3648004341056E+00
 0.4584151876185E+00
 0.6582837820665E+00
 0.9570218658955E+00
 0.1329873657973E+01
 0.2521223726250E+01
 0.2635800206362E+01
 0.2749767968369E+01
 0.2842115717408E+01
 0.2901544418784E+01
 0.2926969882772E+01
 0.2923383115963E+01
 0.2897592073204E+01
 0.2855779729060E+01
 0.2802677224652E+01
 0.2741579184281E+01
 0.2674640428414E+01
 0.2603204061331E+01
 0.2528093531622E+01
 0.2449861676611E+01
 0.2368989045871E+01
 0.2286162499004E+01
 0.2202393211624E+01
 0.2118503220405E+01
 0.2034668492562E+01
 0.1950501129888E+01
 0.1865253952679E+01
 0.1778016929403E+01
 0.1687869893341E+01
 0.1593980046960E+01
 0.1495659376121E+01
 0.1392405382180E+01
 0.1283905199312E+01
 0.1170082943831E+01
 0.1051316185904E+01
 0.9287347083505E+00
 0.8045457908588E+00
 0.6824287662772E+00
 0.5680554024148E+00
 0.4701420375528E+00
 0.4035792057651E+00
 0.3959749666103E+00
 0.4848918554330E+00
 0.6919034344491E+00
 0.1012049379880E+01
 0.1416127858199E+01
 0.2660218185852E+01
 0.2788037615033E+01
 0.2912745341050E+01
 0.3010005303743E+01
 0.3068439769424E+01
 0.3088973955424E+01
 0.3078826809733E+01
 0.3046305229414E+01
 0.2998307607571E+01
 0.2939774589754E+01
 0.2873962799814E+01
 0.2802892410644E+01
 0.2727744136473E+01
 0.2649180911082E+01
 0.2567617593241E+01
 0.2483442789211E+01
 0.2397322086965E+01
 0.2310314511211E+01
 0.2223306389611E+01
 0.2136502478116E+01
 0.2049502905362E+01
 0.1961530173513E+01
 0.1871651756057E+01
 0.1778946292049E+01
 0.1682598060287E+01
 0.1581939192619E+01
 0.1476468837591E+01
 0.1365831809478E+01
 0.1249843753039E+01
 0.1128698623930E+01
 0.1003270010257E+01
 0.8754526433940E+00
 0.7485994012670E+00
 0.6281140819743E+00
 0.5225473750935E+00
 0.4465859664756E+00
 0.4280782199184E+00
 0.5095083306977E+00
 0.7219801595955E+00
 0.1064897348347E+01
 0.1504287293247E+01
 0.2803649249860E+01
 0.2946490073617E+01
 0.3082687539715E+01
 0.3184081045637E+01
 0.3239830533384E+01
 0.3253732484771E+01
 0.3235706924383E+01
 0.3195630109970E+01
 0.3141004011934E+01
 0.3076845519799E+01
 0.3006275439385E+01
 0.2931118919485E+01
 0.2852357878231E+01
 0.2770469073888E+01
 0.2685707215760E+01
 0.2598351317815E+01
 0.2509038221852E+01
 0.2418878484135E+01
 0.2328829552425E+01
 0.2239126397556E+01
 0.2149353584454E+01
 0.2058701733370E+01
 0.1966222043896E+01
 0.1871006735996E+01
 0.1772277889295E+01
 0.1669411054583E+01
 0.1561929530271E+01
 0.1449454173899E+01
 0.1331702915774E+01
 0.1208685133446E+01
 0.1080998981977E+01
 0.9501778556782E+00
 0.8191529595119E+00
 0.6929005896670E+00
 0.5795825957947E+00
 0.4934207639176E+00
 0.4620592340235E+00
 0.5326144180835E+00
 0.7480369071063E+00
 0.1115080574463E+01
 0.1594937538553E+01
 0.2952287817135E+01
 0.3112253470669E+01
 0.3260595518774E+01
 0.3364839935059E+01
 0.3415685652392E+01
 0.3420915354702E+01
 0.3393619628167E+01
 0.3345208512516E+01
 0.3283590727120E+01
 0.3213686902721E+01
 0.3138373686685E+01
 0.3059222392696E+01
 0.2976984897785E+01
 0.2891930545824E+01
 0.2804132968540E+01
 0.2713742242251E+01
 0.2621357148558E+01
 0.2528143316749E+01
 0.2435136194103E+01
 0.2342600842064E+01
 0.2250100734217E+01
 0.2156793143648E+01
 0.2061721956511E+01
 0.1964011913525E+01
 0.1862947981758E+01
 0.1757976739400E+01
 0.1648672872071E+01
 0.1534657261006E+01
 0.1415567903154E+01
 0.1291237646391E+01
 0.1161981102561E+01
 0.1028933621996E+01
 0.8945187671915E+00
 0.7631226485470E+00
 0.6422613312692E+00
 0.5453526196019E+00
 0.4992418697277E+00
 0.5549100382810E+00
 0.7696102461773E+00
 0.1161947765567E+01
 0.1688817677801E+01
 0.3107122398414E+01
 0.3286706646575E+01
 0.3447625467545E+01
 0.3552713001606E+01
 0.3595787982582E+01
 0.3590015801975E+01
 0.3552046361087E+01
 0.3494622612490E+01
 0.3425763070955E+01
 0.3350085416090E+01
 0.3270110350536E+01
 0.3187102950526E+01
 0.3101562314674E+01
 0.3013535990016E+01
 0.2922897960683E+01
 0.2829647832362E+01
 0.2734333961807E+01
 0.2638179518368E+01
 0.2542304005232E+01
 0.2446999814111E+01
 0.2351801360834E+01
 0.2255831909592E+01
 0.2158141079379E+01
 0.2057910236373E+01
 0.1954516927712E+01
 0.1847510477104E+01
 0.1736548723638E+01
 0.1621282294180E+01
 0.1501294761345E+01
 0.1376261207781E+01
 0.1246218969781E+01
 0.1111886278682E+01
 0.9751115147036E+00
 0.8395383517146E+00
 0.7117583352180E+00
 0.6039608629575E+00
 0.5414337713637E+00
 0.5776401761827E+00
 0.7863355793399E+00
 0.1204608457459E+01
 0.1786864157558E+01
 0.3269448698888E+01
 0.3471606570255E+01
 0.3645091504161E+01
 0.3747980337081E+01
 0.3779649907982E+01
 0.3760311682019E+01
 0.3710349542093E+01
 0.3643402987353E+01
 0.3567198929294E+01
 0.3485824566042E+01
 0.3401339144146E+01
 0.3314660791313E+01
 0.3226025119244E+01
 0.3135253246441E+01
 0.3042004913518E+01
 0.2946105014205E+01
 0.2848034294755E+01
 0.2749073262749E+01
 0.2650429181455E+01
 0.2552414793925E+01
 0.2454524668387E+01
 0.2355849613975E+01
 0.2255464147888E+01
 0.2152636744064E+01
 0.2046871831848E+01
 0.1937856662815E+01
 0.1825367951919E+01
 0.1709121395125E+01
 0.1588679895997E+01
 0.1463591875348E+01
 0.1333641310992E+01
 0.1199133598868E+01
 0.1061303115470E+01
 0.9229278756220E+00
 0.7894000080379E+00
 0.6711791242108E+00
 0.5910543766103E+00
 0.6028733947992E+00
 0.7981278911247E+00
 0.1241842326721E+01
 0.1890272672759E+01
 0.3441007676467E+01
 0.3669219583891E+01
 0.3854439471899E+01
 0.3950630804502E+01
 0.3966404347942E+01
 0.3930831802776E+01
 0.3867779440325E+01
 0.3791043511076E+01
 0.3707570977659E+01
 0.3620693239237E+01
 0.3531920118767E+01
 0.3441798844756E+01
 0.3350306240753E+01
 0.3257045514266E+01
 0.3161454027180E+01
 0.3063154702802E+01
 0.2962536170334E+01
 0.2860930719434E+01
 0.2759632078567E+01
 0.2658959867444E+01
 0.2558355208206E+01
 0.2456882829431E+01
 0.2353670408099E+01
 0.2248111765975E+01
 0.2139876706858E+01
 0.2028827809549E+01
 0.1914899284032E+01
 0.1797912354012E+01
 0.1677451553196E+01
 0.1552983596601E+01
 0.1424083842148E+01
 0.1290677943331E+01
 0.1153386464197E+01
 0.1014049632428E+01
 0.8766309668992E+00
 0.7493228624028E+00
 0.6512787850005E+00
 0.6338810289107E+00
 0.8055464208923E+00
 0.1271997139384E+01
 0.2000586165474E+01
 0.3624205325107E+01
 0.3882501092196E+01
 0.4077156923654E+01
 0.4160136581892E+01
 0.4154674186450E+01
 0.4100339867563E+01
 0.4023497659367E+01
 0.3937023596987E+01
 0.3846561759280E+01
 0.3754495546863E+01
 0.3661725753547E+01
 0.3568425705164E+01
 0.3474336295756E+01
 0.3378868383342E+01
 0.3281239253303E+01
 0.3180840038116E+01
 0.3077932024998E+01
 0.2973883840459E+01
 0.2870064794203E+01
 0.2766778200232E+01
 0.2663396335363E+01
 0.2558973604674E+01
 0.2452732389526E+01
 0.2344239248759E+01
 0.2233370941947E+01
 0.2120202915417E+01
 0.2004866692090E+01
 0.1887333757496E+01
 0.1767261191619E+01
 0.1644094246367E+01
 0.1517268213290E+01
 0.1386395577380E+01
 0.1251531119833E+01
 0.1113578417006E+01
 0.9749449538339E+00
 0.8410759861352E+00
 0.7261865596552E+00
 0.6756187406072E+00
 0.8105012889743E+00
 0.1292914011237E+01
 0.2119824940379E+01
 0.3822475727842E+01
 0.4115335226349E+01
 0.4314548325831E+01
 0.4375102227594E+01
 0.4342437892583E+01
 0.4267356413395E+01
 0.4176621400795E+01
 0.4080836743273E+01
 0.3983880985127E+01
 0.3887061608589E+01
 0.3790647543184E+01
 0.3694458939001E+01
 0.3598043112842E+01
 0.3500665399091E+01
 0.3401342178401E+01
 0.3299202802897E+01
 0.3194330911748E+01
 0.3088098365821E+01
 0.2981921537970E+01
 0.2876050182655E+01
 0.2769773748104E+01
 0.2662169131749E+01
 0.2552613801577E+01
 0.2440904638536E+01
 0.2327167922749E+01
 0.2211726482867E+01
 0.2094947621299E+01
 0.1977000757444E+01
 0.1857674962558E+01
 0.1736471041228E+01
 0.1612779401458E+01
 0.1486002814991E+01
 0.1355731880115E+01
 0.1222025383138E+01
 0.1085769039651E+01
 0.9493961879911E+00
 0.8208792147395E+00
 0.7352905814608E+00
 0.8175619281404E+00
 0.1302010212425E+01
 0.2250694132132E+01
 0.4040906910097E+01
 0.4372831843393E+01
 0.4567231274219E+01
 0.4592744998748E+01
 0.4526941714540E+01
 0.4430245799802E+01
 0.4326287154747E+01
 0.4222022752111E+01
 0.4119284400795E+01
 0.4018258709711E+01
 0.3918602857295E+01
 0.3819828967855E+01
 0.3721351367839E+01
 0.3622361901224E+01
 0.3521722313991E+01
 0.3418276775339E+01
 0.3311860882718E+01
 0.3203785344404E+01
 0.3095453101255E+01
 0.2987003552461E+01
 0.2877638626902E+01
 0.2766520023452E+01
 0.2653266206720E+01
 0.2537972189314E+01
 0.2421053899627E+01
 0.2303108517302E+01
 0.2184772487216E+01
 0.2066461815487E+01
 0.1948165506898E+01
 0.1829535558693E+01
 0.1710042003874E+01
 0.1589020007408E+01
 0.1465752195525E+01
 0.1339643030184E+01
 0.1210296916331E+01
 0.1077284085405E+01
 0.9414646684515E+00
 0.8229648620353E+00
 0.8362094535175E+00
 0.1296903065501E+01
 0.2396960015438E+01
 0.4287375445314E+01
 0.4661616595736E+01
 0.4834060905286E+01
 0.4808198234735E+01
 0.4704771524109E+01
 0.4587388995864E+01
 0.4471721377194E+01
 0.4360201449308E+01
 0.4252593523686E+01
 0.4148001908392E+01
 0.4045541820780E+01
 0.3944483812512E+01
 0.3844183096942E+01
 0.3743857144328E+01
 0.3642301954585E+01
 0.3538075770737E+01
 0.3430671543081E+01
 0.3321218465008E+01
 0.3210987423733E+01
 0.3099925606422E+01
 0.2987169437923E+01
 0.2872076433796E+01
 0.2754624103707E+01
 0.2635281544422E+01
 0.2514787202531E+01
 0.2394025963672E+01
 0.2273926050427E+01
 0.2155196802845E+01
 0.2038104201485E+01
 0.1922568591769E+01
 0.1808295929851E+01
 0.1694734651315E+01
 0.1581065421565E+01
 0.1466321432250E+01
 0.1349282381715E+01
 0.1227367708443E+01
 0.1094678919614E+01
 0.9521773025248E+00
 0.8842486702995E+00
 0.1277650839164E+01
 0.2564262613923E+01
 0.4574733584931E+01
 0.4989821164820E+01
 0.5109897070505E+01
 0.5013801404037E+01
 0.4872288972845E+01
 0.4737413838264E+01
 0.4612297036272E+01
 0.4495110442699E+01
 0.4383713852146E+01
 0.4276263214460E+01
 0.4171453906785E+01
 0.4068394910904E+01
 0.3966460584281E+01
 0.3865015503541E+01
 0.3762942809660E+01
 0.3658572124595E+01
 0.3550936777753E+01
 0.3440761456245E+01
 0.3328959247920E+01
 0.3215176972444E+01
 0.3098570736990E+01
 0.2978881111973E+01
 0.2856598122071E+01
 0.2732643388212E+01
 0.2608097833026E+01
 0.2484126242303E+01
 0.2361951602030E+01
 0.2242616848983E+01
 0.2126753751529E+01
 0.2014695087504E+01
 0.1906572124131E+01
 0.1802164595800E+01
 0.1700798465814E+01
 0.1601483532944E+01
 0.1502821055007E+01
 0.1401320603799E+01
 0.1286757749032E+01
 0.1140113108021E+01
 0.9920877002648E+00
 0.1253525592205E+01
 0.2762253186427E+01
 0.4925368156265E+01
 0.5365629579090E+01
 0.5381132590153E+01
 0.5199140952716E+01
 0.5026647803915E+01
 0.4879325245831E+01
 0.4747585106434E+01
 0.4626648812527E+01
 0.4512645897168E+01
 0.4403080091340E+01
 0.4296373242429E+01
 0.4191563971136E+01
 0.4088114033505E+01
 0.3985659698792E+01
 0.3883410327499E+01
 0.3779657079938E+01
 0.3672857781752E+01
 0.3562913917074E+01
 0.3449953059987E+01
 0.3333204731716E+01
 0.3212066311960E+01
 0.3086958536144E+01
 0.2959066246130E+01
 0.2829833871305E+01
 0.2700687196265E+01
 0.2573033872992E+01
 0.2448359554193E+01
 0.2328066217562E+01
 0.2213260499512E+01
 0.2104869372616E+01
 0.2003669732198E+01
 0.1910020857354E+01
 0.1823682966977E+01
 0.1743994111256E+01
 0.1670139900806E+01
 0.1599284772282E+01
 0.1521233519264E+01
 0.1405615859520E+01
 0.1207499973026E+01
 0.1261469423245E+01
 0.3011175392215E+01
 0.5381757167650E+01
 0.5789791067920E+01
 0.5617706317540E+01
 0.5354313951632E+01
 0.5166944983348E+01
 0.5012318724200E+01
 0.4877510711614E+01
 0.4754883792544E+01
 0.4639496852616E+01
 0.4528561181691E+01
 0.4420382102341E+01
 0.4314029700076E+01
 0.4209096816798E+01
 0.4105574340189E+01
 0.4003320658252E+01
 0.3901064479018E+01
 0.3796667246623E+01
 0.3688393141046E+01
 0.3574763905340E+01
 0.3454548827886E+01
 0.3327883189254E+01
 0.3196299647261E+01
 0.3061863424588E+01
 0.2926587440571E+01
 0.2792226892223E+01
 0.2660361713612E+01
 0.2532643572722E+01
 0.2410825910112E+01
 0.2296644621443E+01
 0.2191861226682E+01
 0.2098136713569E+01
 0.2016671329846E+01
 0.1948004850595E+01
 0.1892132615006E+01
 0.1849366443867E+01
 0.1819539313032E+01
 0.1796328916971E+01
 0.1760701326203E+01
 0.1600190220770E+01
 0.1408138078848E+01
 0.3366604587475E+01
 0.6034856855620E+01
 0.6221342079723E+01
 0.5766519738728E+01
 0.5481173114188E+01
 0.5292176385588E+01
 0.5136246904346E+01
 0.5002403702242E+01
 0.4880036544170E+01
 0.4764497734052E+01
 0.4652884100093E+01
 0.4543614638794E+01
 0.4435870988443E+01
 0.4329407723012E+01
 0.4224540564525E+01
 0.4122069134312E+01
 0.4022212264527E+01
 0.3922639232888E+01
 0.3818291937765E+01
 0.3704474745736E+01
 0.3579828801853E+01
 0.3446223970326E+01
 0.3306841969473E+01
 0.3164770733217E+01
 0.3022588166413E+01
 0.2882352951301E+01
 0.2745729108001E+01
 0.2614311556398E+01
 0.2490116468799E+01
 0.2375783398980E+01
 0.2274246226159E+01
 0.2188254397844E+01
 0.2120112374820E+01
 0.2071531839258E+01
 0.2043633590556E+01
 0.2037547650895E+01
 0.2057645283682E+01
 0.2105691482546E+01
 0.2190901439350E+01
 0.2249933695534E+01
 0.1934339923210E+01
 0.4027449643725E+01
 0.7119069846063E+01
 0.6402979088129E+01
 0.5821125960548E+01
 0.5588166310022E+01
 0.5399879919961E+01
 0.5252770165303E+01
 0.5122606799927E+01
 0.5002606389824E+01
 0.4887967362797E+01
 0.4776302922147E+01
 0.4666255296368E+01
 0.4557209796124E+01
 0.4449099744582E+01
 0.4342444487146E+01
 0.4238776082396E+01
 0.4141829215440E+01
 0.4051129440732E+01
 0.3954412642595E+01
 0.3840509246586E+01
 0.3709698595588E+01
 0.3567226107747E+01
 0.3418445580387E+01
 0.3267505184926E+01
 0.3117463767796E+01
 0.2970644271332E+01
 0.2828788779414E+01
 0.2692953234580E+01
 0.2565086378149E+01
 0.2449379531694E+01
 0.2350408129778E+01
 0.2272035075390E+01
 0.2217922945251E+01
 0.2191502518566E+01
 0.2195461658616E+01
 0.2231824872067E+01
 0.2304242613145E+01
 0.2440326405162E+01
 0.2655301924695E+01
 0.3114557752784E+01
 0.3323583353724E+01
 0.5949346830685E+01
 0.1108943871973E+00
 0.1410873151455E+00
 0.1837691944803E+00
 0.2277253439961E+00
 0.2656292254257E+00
 0.2935691739359E+00
 0.3100076114090E+00
 0.3149814535718E+00
 0.3094834091953E+00
 0.2949911893748E+00
 0.2731224538842E+00
 0.2454021948186E+00
 0.2132066405005E+00
 0.1778222987897E+00
 0.1405136235332E+00
 0.1025788980982E+00
 0.6538803373357E-01
 0.3088255383971E-01
 0.1344526692236E-01
 0.3990924804600E-01
 0.1057443869289E+00
 0.1325917591573E+00
 0.1715666423934E+00
 0.2125348661693E+00
 0.2485737819757E+00
 0.2757106918659E+00
 0.2921836320655E+00
 0.2977522649098E+00
 0.2931484832865E+00
 0.2796387017312E+00
 0.2586940136753E+00
 0.2317531805985E+00
 0.2001303648250E+00
 0.1651156319531E+00
 0.1280269347089E+00
 0.9025818248081E-01
 0.5336191365508E-01
 0.2063251617657E-01
 0.2309895131050E-01
 0.5617332826840E-01
 0.1012370443814E+00
 0.1252218429936E+00
 0.1608905287217E+00
 0.1990713879201E+00
 0.2332338034957E+00
 0.2594242150925E+00
 0.2757144658431E+00
 0.2816359290730E+00
 0.2776914114547E+00
 0.2649534366706E+00
 0.2447476351047E+00
 0.2184182587412E+00
 0.1872422628433E+00
 0.1525111392249E+00
 0.1155847335084E+00
 0.7793298209905E-01
 0.4137474502003E-01
 0.1397573723408E-01
 0.3641496144167E-01
 0.6987628549816E-01
 0.9719039854149E-01
 0.1188668581132E+00
 0.1516042256876E+00
 0.1871939647639E+00
 0.2194993137997E+00
 0.2446317810156E+00
 0.2605534083070E+00
 0.2666106646009E+00
 0.2631080963021E+00
 0.2509410205067E+00
 0.2312955819622E+00
 0.2054275319874E+00
 0.1745792173467E+00
 0.1400431316281E+00
 0.1032085306011E+00
 0.6562306434173E-01
 0.2963740960694E-01
 0.1819541606273E-01
 0.5008786756864E-01
 0.8301011522811E-01
 0.9352500617878E-01
 0.1133778065955E+00
 0.1435714051946E+00
 0.1767732757839E+00
 0.2072625285906E+00
 0.2312555160831E+00
 0.2466508852231E+00
 0.2526507346524E+00
 0.2493903444738E+00
 0.2376056247673E+00
 0.2183536598031E+00
 0.1928068318767E+00
 0.1621729852938E+00
 0.1277411414345E+00
 0.9092427658906E-01
 0.5338216820372E-01
 0.1943543110353E-01
 0.2917323038380E-01
 0.6372211889472E-01
 0.9609594285076E-01
 0.9018516581864E-01
 0.1086426807628E+00
 0.1366601560266E+00
 0.1676872522153E+00
 0.1964205861672E+00
 0.2192180730633E+00
 0.2339556130621E+00
 0.2397274073387E+00
 0.2365273179657E+00
 0.2249505549269E+00
 0.2059366164816E+00
 0.1805796020699E+00
 0.1500515631938E+00
 0.1156343914786E+00
 0.7876972230097E-01
 0.4140308911358E-01
 0.1508244372000E-01
 0.4180898814970E-01
 0.7729511815042E-01
 0.1092990700288E+00
 0.8712933047323E-01
 0.1045712437192E+00
 0.1307552877464E+00
 0.1598216394995E+00
 0.1868754816002E+00
 0.2084436995508E+00
 0.2224153859570E+00
 0.2278099396566E+00
 0.2245062488867E+00
 0.2129775809688E+00
 0.1940576185607E+00
 0.1687671340872E+00
 0.1382415270489E+00
 0.1037555665787E+00
 0.6681322323176E-01
 0.3011461117942E-01
 0.2070266996863E-01
 0.5486984393222E-01
 0.9082961816050E-01
 0.1226591296992E+00
 0.8432455966078E-01
 0.1010899223564E+00
 0.1257567360987E+00
 0.1530722253187E+00
 0.1785344438779E+00
 0.1988587288046E+00
 0.2119777976324E+00
 0.2168661916935E+00
 0.2133126542691E+00
 0.2016867772739E+00
 0.1827280985448E+00
 0.1573892463391E+00
 0.1267697884285E+00
 0.9214533591657E-01
 0.5515876847278E-01
 0.2064596609411E-01
 0.3120089984016E-01
 0.6802742343548E-01
 0.1043376705599E+00
 0.1361675521398E+00
 0.8174379302160E-01
 0.9813749838405E-01
 0.1215776074161E+00
 0.1473446138671E+00
 0.1713104533628E+00
 0.1903919463053E+00
 0.2025906891055E+00
 0.2068629957885E+00
 0.2029304809197E+00
 0.1910765027058E+00
 0.1719578957897E+00
 0.1464649077920E+00
 0.1156649531423E+00
 0.8085280226601E-01
 0.4396475585353E-01
 0.1625007152150E-01
 0.4300799837965E-01
 0.8115981103879E-01
 0.1178170927065E+00
 0.1497976898939E+00
 0.7936416615390E-01
 0.9566216903950E-01
 0.1181419910048E+00
 0.1425534146954E+00
 0.1651222027437E+00
 0.1829748440489E+00
 0.1942024354940E+00
 0.1977664029989E+00
 0.1933422445923E+00
 0.1811435000946E+00
 0.1617554806174E+00
 0.1360126858105E+00
 0.1049574385019E+00
 0.6993552119269E-01
 0.3351816906720E-01
 0.2017120739982E-01
 0.5514815812425E-01
 0.9420393276767E-01
 0.1312540386456E+00
 0.1635198601539E+00
 0.7716590296640E-01
 0.9361937173899E-01
 0.1153830067706E+00
 0.1386211408389E+00
 0.1598937353196E+00
 0.1765416364321E+00
 0.1867620924764E+00
 0.1895418292282E+00
 0.1845291405348E+00
 0.1718830035897E+00
 0.1521281018561E+00
 0.1260507664405E+00
 0.9467893445250E-01
 0.5946320985974E-01
 0.2446269604354E-01
 0.2893507331969E-01
 0.6730241673171E-01
 0.1071150921377E+00
 0.1446246072587E+00
 0.1773014128983E+00
 0.7513153555652E-01
 0.9197013632073E-01
 0.1132411067415E+00
 0.1354770500243E+00
 0.1555538846961E+00
 0.1710290996042E+00
 0.1802194220530E+00
 0.1821541377032E+00
 0.1764711300306E+00
 0.1632888191649E+00
 0.1430818018093E+00
 0.1165966896235E+00
 0.8486209440509E-01
 0.4952777180441E-01
 0.1840264182268E-01
 0.3917141397221E-01
 0.7932799116697E-01
 0.1198537172711E+00
 0.1578963990069E+00
 0.1911004411582E+00
 0.7324532834460E-01
 0.9067979412138E-01
 0.1116626075918E+00
 0.1330560053842E+00
 0.1520356039626E+00
 0.1663762713024E+00
 0.1745248067198E+00
 0.1755676466493E+00
 0.1691469731623E+00
 0.1553533312748E+00
 0.1346212982018E+00
 0.1076670016529E+00
 0.7554065942800E-01
 0.4026565255372E-01
 0.1795290784987E-01
 0.4974701690664E-01
 0.9114095061617E-01
 0.1323804780651E+00
 0.1710306969140E+00
 0.2048683332428E+00
 0.7149283597570E-01
 0.8971693904750E-01
 0.1105984177095E+00
 0.1312973927080E+00
 0.1492752437178E+00
 0.1625240590260E+00
 0.1696290793559E+00
 0.1697460759773E+00
 0.1625342137812E+00
 0.1480674545708E+00
 0.1267498156979E+00
 0.9927694071775E-01
 0.6675008511901E-01
 0.3190730662791E-01
 0.2291837259345E-01
 0.6026766943784E-01
 0.1026802214578E+00
 0.1446545143340E+00
 0.1839839768568E+00
 0.2185525791822E+00
 0.6986055232074E-01
 0.8905257022403E-01
 0.1100029241340E+00
 0.1301441041539E+00
 0.1472118102509E+00
 0.1594147843520E+00
 0.1654832831388E+00
 0.1646524351379E+00
 0.1566091165515E+00
 0.1414205478592E+00
 0.1194689083222E+00
 0.9144016587325E-01
 0.5852868642903E-01
 0.2488368232642E-01
 0.3035675629996E-01
 0.7055655318054E-01
 0.1138944088566E+00
 0.1566328683085E+00
 0.1967086230064E+00
 0.2320974796685E+00
 0.6833562347707E-01
 0.8865936883173E-01
 0.1098330113245E+00
 0.1295415897914E+00
 0.1457862225812E+00
 0.1569916837256E+00
 0.1620383745662E+00
 0.1602488584225E+00
 0.1513465635591E+00
 0.1354003077806E+00
 0.1127782925834E+00
 0.8416850267425E-01
 0.5091934607878E-01
 0.1999337270002E-01
 0.3851921941597E-01
 0.8051307632920E-01
 0.1247363895301E+00
 0.1682703933219E+00
 0.2091533019077E+00
 0.2454439698161E+00
 0.6690560653819E-01
 0.8851107624435E-01
 0.1100471895886E+00
 0.1294369747409E+00
 0.1449405800099E+00
 0.1551983811457E+00
 0.1592448823109E+00
 0.1564963975665E+00
 0.1467199217523E+00
 0.1299926573866E+00
 0.1066757019584E+00
 0.7747167598215E-01
 0.4397182169285E-01
 0.1828205292698E-01
 0.4672610545572E-01
 0.9006814644025E-01
 0.1351609622843E+00
 0.1795198987226E+00
 0.2212632643674E+00
 0.2585293001805E+00
 0.6555826171064E-01
 0.8858195024767E-01
 0.1106048156516E+00
 0.1297782383373E+00
 0.1446174476551E+00
 0.1539783444069E+00
 0.1570525327362E+00
 0.1533547804994E+00
 0.1427008893584E+00
 0.1251816372073E+00
 0.1011567663791E+00
 0.7135700440045E-01
 0.3774546247736E-01
 0.1992751791064E-01
 0.5469078922127E-01
 0.9916754304214E-01
 0.1451238519554E+00
 0.1903324519306E+00
 0.2329806858537E+00
 0.2712867262835E+00
 0.6428136879164E-01
 0.8884628211545E-01
 0.1114653904417E+00
 0.1305134503499E+00
 0.1447591639876E+00
 0.1532743329244E+00
 0.1554098497113E+00
 0.1507821413491E+00
 0.1392593232838E+00
 0.1209492976547E+00
 0.9621491478011E-01
 0.6582903953380E-01
 0.3231136289573E-01
 0.2372743573252E-01
 0.6226872053966E-01
 0.1077649720934E+00
 0.1545813788309E+00
 0.2006578085092E+00
 0.2442451037908E+00
 0.2836452866220E+00
 0.6306256141902E-01
 0.8927796141265E-01
 0.1125879210997E+00
 0.1315900587900E+00
 0.1453071730343E+00
 0.1530278443909E+00
 0.1542637365638E+00
 0.1487347273102E+00
 0.1363630493173E+00
 0.1172755910104E+00
 0.9184130249383E-01
 0.6088915911970E-01
 0.2775101867083E-01
 0.2840957493587E-01
 0.6937371219162E-01
 0.1158189533315E+00
 0.1634904817557E+00
 0.2104449117404E+00
 0.2549940045524E+00
 0.2955298719712E+00
 0.6188917404541E-01
 0.8985007789201E-01
 0.1139303351664E+00
 0.1329542228855E+00
 0.1462013821220E+00
 0.1531785658909E+00
 0.1535590468102E+00
 0.1471665867378E+00
 0.1339776549610E+00
 0.1141382583253E+00
 0.8802476401569E-01
 0.5653515276070E-01
 0.2414505735631E-01
 0.3325022508350E-01
 0.7594701960505E-01
 0.1232914036337E+00
 0.1718089544897E+00
 0.2196424236116E+00
 0.2651634451058E+00
 0.3068619022482E+00
 0.6074809761900E-01
 0.9053455137440E-01
 0.1154489354426E+00
 0.1345501839804E+00
 0.1473795445774E+00
 0.1536638338802E+00
 0.1532381496709E+00
 0.1460292425651E+00
 0.1320662642806E+00
 0.1115127051128E+00
 0.8475178903550E-01
 0.5276087602933E-01
 0.2154356671825E-01
 0.3789190459062E-01
 0.8194456261388E-01
 0.1301470416830E+00
 0.1794958164617E+00
 0.2281993359841E+00
 0.2746885570013E+00
 0.3175604410873E+00
 0.5962564056521E-01
 0.9130178131088E-01
 0.1170978843070E+00
 0.1363196664520E+00
 0.1487766655784E+00
 0.1544181063981E+00
 0.1532404959764E+00
 0.1452713553975E+00
 0.1305892946604E+00
 0.1093718591435E+00
 0.8200651470491E-01
 0.4955608318412E-01
 0.1991949237428E-01
 0.4215111351443E-01
 0.8733114254799E-01
 0.1363532124001E+00
 0.1865117865566E+00
 0.2360656510758E+00
 0.2835042473912E+00
 0.3275419846580E+00
 0.5850739199262E-01
 0.9212030801364E-01
 0.1188287064304E+00
 0.1382013002991E+00
 0.1503244284624E+00
 0.1553724501153E+00
 0.1535021899160E+00
 0.1448383812726E+00
 0.1295041965144E+00
 0.1076860039150E+00
 0.7977072044502E-01
 0.4690656175133E-01
 0.1913441070377E-01
 0.4592563848185E-01
 0.9207763887250E-01
 0.1418799327754E+00
 0.1928198186162E+00
 0.2431931911615E+00
 0.2915459555871E+00
 0.3367210700184E+00
 0.5737808411631E-01
 0.9295647740183E-01
 0.1205897988554E+00
 0.1401300568761E+00
 0.1519506383485E+00
 0.1564540444293E+00
 0.1539555721947E+00
 0.1446722299738E+00
 0.1287651785668E+00
 0.1064225823866E+00
 0.7802380447565E-01
 0.4479465953747E-01
 0.1895703303487E-01
 0.4915398251878E-01
 0.9615957341449E-01
 0.1467000426369E+00
 0.1983856855792E+00
 0.2495364821735E+00
 0.2987507603946E+00
 0.3450115351067E+00
 0.5622145063786E-01
 0.9377410051036E-01
 0.1223259372129E+00
 0.1420366892331E+00
 0.1535786798985E+00
 0.1575857048998E+00
 0.1545288207042E+00
 0.1447109311350E+00
 0.1283229235134E+00
 0.1055459677760E+00
 0.7674271622140E-01
 0.4320020129760E-01
 0.1912914189897E-01
 0.5179700796305E-01
 0.9955632527672E-01
 0.1507893859095E+00
 0.2031785795494E+00
 0.2550537522023E+00
 0.3050586993152E+00
 0.3523278528170E+00
 0.5502007726124E-01
 0.9453409791354E-01
 0.1239777663449E+00
 0.1438471686251E+00
 0.1551269864298E+00
 0.1586854288422E+00
 0.1551455757413E+00
 0.1448883171777E+00
 0.1281243017657E+00
 0.1050172017065E+00
 0.7590181774805E-01
 0.4210165040125E-01
 0.1942833384386E-01
 0.5382911620536E-01
 0.1022506450311E+00
 0.1541269568538E+00
 0.2071717026609E+00
 0.2597080302152E+00
 0.3104142117863E+00
 0.3585866350011E+00
 0.5375523951758E-01
 0.9519411736844E-01
 0.1254812626554E+00
 0.1454821089457E+00
 0.1565085183881E+00
 0.1596659668001E+00
 0.1557245979594E+00
 0.1451337342813E+00
 0.1281120947565E+00
 0.1047937051173E+00
 0.7547265178513E-01
 0.4147722926667E-01
 0.1969644684207E-01
 0.5523375963003E-01
 0.1042282756605E+00
 0.1566949449450E+00
 0.2103428020959E+00
 0.2634683147448E+00
 0.3147677762395E+00
 0.3637083638138E+00
 0.5240672173055E-01
 0.9570811035988E-01
 0.1267671543186E+00
 0.1468561715015E+00
 0.1576302507774E+00
 0.1604344250519E+00
 0.1561794684761E+00
 0.1453717948731E+00
 0.1282247441749E+00
 0.1048289750574E+00
 0.7542360472821E-01
 0.4130564053125E-01
 0.1984111782253E-01
 0.5600107622501E-01
 0.1054775643992E+00
 0.1584785978418E+00
 0.2126745764699E+00
 0.2663108040167E+00
 0.3180777939068E+00
 0.3676195220446E+00
 0.5095260736951E-01
 0.9602584871889E-01
 0.1277602831068E+00
 0.1478774432330E+00
 0.1583926711875E+00
 0.1608919057580E+00
 0.1564183410298E+00
 0.1455221865183E+00
 0.1283961491439E+00
 0.1050722921972E+00
 0.7571947222542E-01
 0.4156608033753E-01
 0.1982819972104E-01
 0.5612669209587E-01
 0.1059889899882E+00
 0.1594657901096E+00
 0.2141548408149E+00
 0.2682201564370E+00
 0.3203128034042E+00
 0.3702551669752E+00
 0.4936902808615E-01
 0.9609235643829E-01
 0.1283788897572E+00
 0.1484467842771E+00
 0.1586892943128E+00
 0.1609331936736E+00
 0.1563437553867E+00
 0.1454995506366E+00
 0.1285555367671E+00
 0.1054684781490E+00
 0.7632096274114E-01
 0.4223740110364E-01
 0.1967540521081E-01
 0.5561133490604E-01
 0.1057545730294E+00
 0.1596461442480E+00
 0.2147762682029E+00
 0.2691907261836E+00
 0.3214541186884E+00
 0.3715621433534E+00
 0.4762985091206E-01
 0.9584722157789E-01
 0.1285338023796E+00
 0.1484571463437E+00
 0.1584062062039E+00
 0.1604465021479E+00
 0.1558525197895E+00
 0.1452134397792E+00
 0.1286274306844E+00
 0.1059577576304E+00
 0.7718421769709E-01
 0.4329651518101E-01
 0.1944981998538E-01
 0.5446126322947E-01
 0.1047672174277E+00
 0.1590094799881E+00
 0.2145353978711E+00
 0.2692276679486E+00
 0.3214990349652E+00
 0.3715030447554E+00
 0.4570627030382E-01
 0.9522373736329E-01
 0.1281275064642E+00
 0.1477928743477E+00
 0.1574216632073E+00
 0.1593132950568E+00
 0.1548356664238E+00
 0.1445683525885E+00
 0.1285317302925E+00
 0.1064757861900E+00
 0.7826048063617E-01
 0.4471637337931E-01
 0.1926691313917E-01
 0.5268982144880E-01
 0.1030202267358E+00
 0.1575432862092E+00
 0.2134302680766E+00
 0.2683477579872E+00
 0.3204647623589E+00
 0.3700584483768E+00
 0.4356624697896E-01
 0.9414779652169E-01
 0.1270530787649E+00
 0.1463290297261E+00
 0.1556057909391E+00
 0.1574082083327E+00
 0.1531784785273E+00
 0.1434638348678E+00
 0.1281838928983E+00
 0.1069538741725E+00
 0.7949608466273E-01
 0.4646405871831E-01
 0.1928424961439E-01
 0.5032074825481E-01
 0.1005076925813E+00
 0.1552289960670E+00
 0.2114553276202E+00
 0.2665792761277E+00
 0.3183939802443E+00
 0.3672236442971E+00
 0.4117369643862E-01
 0.9253641618107E-01
 0.1251929948841E+00
 0.1439308181557E+00
 0.1528204621986E+00
 0.1545990900221E+00
 0.1507605764752E+00
 0.1417946201678E+00
 0.1274951950403E+00
 0.1073193913991E+00
 0.8083284818497E-01
 0.4849972389423E-01
 0.1967999881297E-01
 0.4739399514962E-01
 0.9722744913747E-01
 0.1520373673746E+00
 0.2085913014681E+00
 0.2639582409574E+00
 0.3153643483584E+00
 0.3630153443943E+00
 0.3848720756973E-01
 0.9029573069287E-01
 0.1224178590567E+00
 0.1404533457919E+00
 0.1489194465458E+00
 0.1507471858421E+00
 0.1474560269612E+00
 0.1394507799826E+00
 0.1263730381778E+00
 0.1074963130349E+00
 0.8220880997756E-01
 0.5077673997146E-01
 0.2061212703233E-01
 0.4397434349680E-01
 0.9318970346989E-01
 0.1479259333313E+00
 0.2047857040009E+00
 0.2605151483765E+00
 0.3115029326230E+00
 0.3575009467793E+00
 0.3545791122537E-01
 0.8731796140902E-01
 0.1185855870920E+00
 0.1357419476506E+00
 0.1437490480900E+00
 0.1457073422474E+00
 0.1431334647932E+00
 0.1363178234726E+00
 0.1247212336668E+00
 0.1074058828260E+00
 0.8355921955065E-01
 0.5324274486181E-01
 0.2217302811682E-01
 0.4015882462520E-01
 0.8843738805910E-01
 0.1428472847572E+00
 0.1999211557537E+00
 0.2562330965236E+00
 0.3070081330591E+00
 0.3508550375734E+00
 0.3202481837280E-01
 0.8347827887998E-01
 0.1135410859222E+00
 0.1296348971107E+00
 0.1371483722841E+00
 0.1393283216619E+00
 0.1376563543256E+00
 0.1322765814886E+00
 0.1224401359461E+00
 0.1069674338837E+00
 0.8481779369615E-01
 0.5584115332800E-01
 0.2436846885647E-01
 0.3607802440984E-01
 0.8306138669951E-01
 0.1368167125703E+00
 0.1937639999181E+00
 0.2509384731329E+00
 0.3021557492766E+00
 0.3435032348416E+00
 0.2810698626790E-01
 0.7862192289727E-01
 0.1071307313164E+00
 0.1219634176440E+00
 0.1289489462148E+00
 0.1314539357653E+00
 0.1308833907976E+00
 0.1272028617616E+00
 0.1194259603979E+00
 0.1060994888166E+00
 0.8591882767872E-01
 0.5851256098254E-01
 0.2713110684108E-01
 0.3190641236571E-01
 0.7717159075623E-01
 0.1299956464551E+00
 0.1861753409626E+00
 0.2438024116897E+00
 0.2972864319670E+00
 0.3365639512490E+00
 0.2352438973684E-01
 0.7265295809974E-01
 0.9920532001066E-01
 0.1125441053247E+00
 0.1189785554010E+00
 0.1219238000339E+00
 0.1226690399001E+00
 0.1209678860477E+00
 0.1155684503079E+00
 0.1047183085579E+00
 0.8680409301871E-01
 0.6119645858703E-01
 0.3034883619595E-01
 0.2787822165570E-01
 0.7089188302822E-01
 0.1225504105613E+00
 0.1775979172160E+00
 0.2338242366699E+00
 0.2898392454355E+00
 0.3342574472747E+00
 0.1344021083008E+01
 0.1575543812798E+01
 0.1095221596874E+01
 0.8359917026939E+00
 0.6625204317258E+00
 0.5352375664794E+00
 0.4342357031093E+00
 0.3507900259413E+00
 0.2800481847566E+00
 0.2193954692949E+00
 0.1669990440115E+00
 0.1213020901488E+00
 0.8458731221096E-01
 0.5787005229684E-01
 0.3909866627387E-01
 0.2637585668018E-01
 0.1734189660803E-01
 0.1047184383381E-01
 0.4935865455719E-02
 0.5399287142371E-03
 0.1031374110205E+01
 0.1549684028786E+01
 0.1224040373253E+01
 0.9291562126214E+00
 0.7335519957150E+00
 0.5922342137947E+00
 0.4826544138588E+00
 0.3931902166390E+00
 0.3179331504429E+00
 0.2535544393711E+00
 0.1979203415178E+00
 0.1499267164807E+00
 0.1110051204610E+00
 0.8087777997031E-01
 0.5770773507615E-01
 0.4024547395454E-01
 0.2671975121410E-01
 0.1577736869297E-01
 0.6759088265135E-02
 0.1335331168962E-02
 0.8207963002532E+00
 0.1340955781273E+01
 0.1235980369746E+01
 0.9961801185700E+00
 0.7942251417911E+00
 0.6439864323712E+00
 0.5274267627315E+00
 0.4328893992680E+00
 0.3536501452008E+00
 0.2859352509827E+00
 0.2274677299687E+00
 0.1770674253589E+00
 0.1353440149046E+00
 0.1018882398163E+00
 0.7498551122405E-01
 0.5339633094191E-01
 0.3579922681555E-01
 0.2113311118479E-01
 0.8943646881472E-02
 0.1960099863147E-02
 0.6707643952604E+00
 0.1145916583978E+01
 0.1165958581753E+01
 0.1015092040666E+01
 0.8371033342226E+00
 0.6871386864155E+00
 0.5671139848114E+00
 0.4690024624138E+00
 0.3866358627748E+00
 0.3161425557914E+00
 0.2551720001703E+00
 0.2024222237878E+00
 0.1579257615251E+00
 0.1212583350312E+00
 0.9092564568104E-01
 0.6567535805552E-01
 0.4443210905588E-01
 0.2638020095625E-01
 0.1124387033313E-01
 0.2552730378198E-02
 0.5586578645204E+00
 0.9776887626059E+00
 0.1068796921594E+01
 0.9925000503750E+00
 0.8551893207531E+00
 0.7179821654510E+00
 0.5997713829286E+00
 0.5004972870740E+00
 0.4162373239071E+00
 0.3437010688182E+00
 0.2806633266626E+00
 0.2257955710092E+00
 0.1787397517400E+00
 0.1390880253285E+00
 0.1055825190861E+00
 0.7701786991735E-01
 0.5249366317670E-01
 0.3136215884191E-01
 0.1345689170108E-01
 0.3183824150158E-02
 0.4724803431131E+00
 0.8361549154805E+00
 0.9652077015086E+00
 0.9450839303859E+00
 0.8496613956001E+00
 0.7337690643861E+00
 0.6234606281735E+00
 0.5261930947136E+00
 0.4417247792625E+00
 0.3681095715752E+00
 0.3035911773814E+00
 0.2469756118303E+00
 0.1976901572277E+00
 0.1553560193971E+00
 0.1189542421685E+00
 0.8738359942390E-01
 0.5989331729105E-01
 0.3595508049242E-01
 0.1546844524245E-01
 0.3893252865998E-02
 0.4048520727684E+00
 0.7176858294420E+00
 0.8645188612246E+00
 0.8843263922327E+00
 0.8261111536405E+00
 0.7346067042518E+00
 0.6369011605996E+00
 0.5450136522331E+00
 0.4623508112302E+00
 0.3888572378468E+00
 0.3236037993006E+00
 0.2657350630657E+00
 0.2146364409290E+00
 0.1699836411075E+00
 0.1309967257837E+00
 0.9672551446939E-01
 0.6656316249376E-01
 0.4007720062015E-01
 0.1720868104450E-01
 0.4709668106846E-02
 0.3509367115531E+00
 0.6185320673775E+00
 0.7706971768882E+00
 0.8176711773135E+00
 0.7901216547448E+00
 0.7226080721474E+00
 0.6400202842919E+00
 0.5562908476364E+00
 0.4774868126156E+00
 0.4054657082359E+00
 0.3403599200467E+00
 0.2818404786114E+00
 0.2294174753535E+00
 0.1828626923264E+00
 0.1416400704010E+00
 0.1049881933480E+00
 0.7244846024333E-01
 0.4367527566713E-01
 0.1863977762296E-01
 0.5656390478216E-02
 0.3074027226264E+00
 0.5354001535493E+00
 0.6852453253959E+00
 0.7497379806479E+00
 0.7462979098340E+00
 0.7005201347151E+00
 0.6337390210956E+00
 0.5599583045325E+00
 0.4867659453830E+00
 0.4175622990309E+00
 0.3535601604882E+00
 0.2950713213532E+00
 0.2418697334220E+00
 0.1938738693855E+00
 0.1508014443643E+00
 0.1121109682775E+00
 0.7750168238647E-01
 0.4671456897214E-01
 0.1974643356371E-01
 0.6748528128057E-02
 0.2718727542647E+00
 0.4655413449348E+00
 0.6084681500004E+00
 0.6833363781746E+00
 0.6981400174507E+00
 0.6710480027512E+00
 0.6195035671827E+00
 0.5564915725444E+00
 0.4901628282046E+00
 0.4249504078121E+00
 0.3629902563694E+00
 0.3052461619764E+00
 0.2518463421413E+00
 0.2029021080717E+00
 0.1583959168269E+00
 0.1180317282382E+00
 0.8167932353898E-01
 0.4917151141763E-01
 0.2052976209625E-01
 0.7989615625947E-02
 0.2426032711974E+00
 0.4066956059638E+00
 0.5400882368880E+00
 0.6201217441472E+00
 0.6482050382904E+00
 0.6365662393780E+00
 0.5989353679784E+00
 0.5467289689644E+00
 0.4879746280146E+00
 0.4276466342042E+00
 0.3685592146847E+00
 0.3122512758272E+00
 0.2592376078356E+00
 0.2098517586244E+00
 0.1643467306620E+00
 0.1226911721503E+00
 0.8494007407406E-01
 0.5102816026104E-01
 0.2100273506840E-01
 0.9369326558307E-02
 0.2182875077878E+00
 0.3570110358498E+00
 0.4795549000195E+00
 0.5610133133317E+00
 0.5983114617611E+00
 0.5990385482604E+00
 0.5736176491765E+00
 0.5316967639387E+00
 0.4807437827857E+00
 0.4258738082809E+00
 0.3703189482163E+00
 0.3160638364932E+00
 0.2639907668406E+00
 0.2146619494105E+00
 0.1685960462543E+00
 0.1260378379668E+00
 0.8724384087618E-01
 0.5226712095849E-01
 0.2118607673985E-01
 0.1086220065560E-01
 0.1979286217883E+00
 0.3149680024005E+00
 0.4262047233127E+00
 0.5064592254727E+00
 0.5497207746611E+00
 0.5600297877898E+00
 0.5449855220896E+00
 0.5124761619232E+00
 0.4691674849939E+00
 0.4200234958964E+00
 0.3684613449600E+00
 0.3167636940967E+00
 0.2661253259217E+00
 0.2173211013858E+00
 0.1711165232428E+00
 0.1280345352332E+00
 0.8855155957949E-01
 0.5286589062031E-01
 0.2110325383779E-01
 0.1242651693068E-01
 0.1807549545202E+00
 0.2793152715650E+00
 0.3793461298735E+00
 0.4566063824455E+00
 0.5032817474914E+00
 0.5207536744857E+00
 0.5142806637569E+00
 0.4901155342156E+00
 0.4540172524031E+00
 0.4106060901523E+00
 0.3632978653667E+00
 0.3145318738961E+00
 0.2657410392883E+00
 0.2178789530778E+00
 0.1719238869269E+00
 0.1286672678768E+00
 0.8882653825613E-01
 0.5278978028916E-01
 0.2077281261762E-01
 0.1400275267075E-01
 0.1661615256021E+00
 0.2490181502505E+00
 0.3383038049472E+00
 0.4114107664384E+00
 0.4595403701455E+00
 0.4821294893414E+00
 0.4825426962004E+00
 0.4655788230096E+00
 0.4360768983570E+00
 0.3982011201729E+00
 0.3552296387296E+00
 0.3096376493917E+00
 0.2630169161039E+00
 0.2164543167293E+00
 0.1710905598642E+00
 0.1279590543454E+00
 0.8803968565977E-01
 0.5198336494381E-01
 0.2019545069886E-01
 0.1551197015096E-01
 0.1536682983254E+00
 0.2232168219374E+00
 0.3024414010782E+00
 0.3707102811210E+00
 0.4188222293614E+00
 0.4448363935516E+00
 0.4506195906932E+00
 0.4397194409103E+00
 0.4160990845081E+00
 0.3834144432210E+00
 0.3447149915931E+00
 0.3024179563353E+00
 0.2582006103062E+00
 0.2132353960079E+00
 0.1687598048789E+00
 0.1259926121707E+00
 0.8618601290261E-01
 0.5036229764878E-01
 0.1933295339041E-01
 0.1685702214744E-01
 0.1428892549008E+00
 0.2011925560239E+00
 0.2711728796050E+00
 0.3342737453971E+00
 0.3812940569324E+00
 0.4093610119460E+00
 0.4191868007343E+00
 0.4132707525902E+00
 0.3947773601164E+00
 0.3668446312407E+00
 0.3322393262646E+00
 0.2932536016878E+00
 0.2515897240656E+00
 0.2084660857235E+00
 0.1651518341146E+00
 0.1229493624007E+00
 0.8332690876110E-01
 0.4782100602432E-01
 0.1807487587824E-01
 0.1793490085067E-01
 0.1335071277450E+00
 0.1823413459240E+00
 0.2439679571293E+00
 0.3018360308216E+00
 0.3470086763298E+00
 0.3760374815118E+00
 0.3887695481311E+00
 0.3868466754227E+00
 0.3727296697856E+00
 0.3490582215505E+00
 0.3182899794351E+00
 0.2825473124784E+00
 0.2435096589264E+00
 0.2024184326670E+00
 0.1605314387517E+00
 0.1191404758414E+00
 0.7971861950080E-01
 0.4428442465062E-01
 0.1623277628742E-01
 0.1869932986488E-01
 0.1252514224709E+00
 0.1661446131684E+00
 0.2203696145522E+00
 0.2731181692309E+00
 0.3159371887444E+00
 0.3450809459927E+00
 0.3597654553843E+00
 0.3609483346912E+00
 0.3504894964249E+00
 0.3305714322970E+00
 0.3033369039824E+00
 0.2707070274311E+00
 0.2342981112230E+00
 0.1953621713616E+00
 0.1551441942630E+00
 0.1148875856662E+00
 0.7594873046865E-01
 0.4018492709878E-01
 0.1364233584553E-01
 0.1935936533312E-01
 0.1178084044889E+00
 0.1522594281184E+00
 0.1999931447912E+00
 0.2478314980288E+00
 0.2879946269546E+00
 0.3166149776311E+00
 0.3324667959106E+00
 0.3359744945086E+00
 0.3285024278951E+00
 0.3118341495571E+00
 0.2878149855435E+00
 0.2581395582130E+00
 0.2243006171197E+00
 0.1875603294281E+00
 0.1491661769628E+00
 0.1103561586163E+00
 0.7239471887368E-01
 0.3695459144053E-01
 0.1238080642934E-01
 0.2209465423665E-01
 0.1767790112465E-01
 0.6529845827798E-01
 0.8910960427665E-01
 0.1004035421221E+00
 0.1059499658784E+00
 0.1092394291978E+00
 0.1113752976099E+00
 0.1117910520010E+00
 0.1088436953845E+00
 0.1004159408441E+00
 0.8456344406485E-01
 0.6046160401066E-01
 0.3059194321668E-01
 0.2708723299887E-01
 0.6929832799677E-01
 0.1204217334875E+00
 0.1747342306044E+00
 0.2299723827746E+00
 0.2862968678463E+00
 0.3539763363068E+00
 0.1194397449246E-01
 0.5675051456770E-01
 0.7700385079194E-01
 0.8555740074990E-01
 0.8985997492316E-01
 0.9344710204021E-01
 0.9716492258182E-01
 0.1000287352575E+00
 0.9990476422576E-01
 0.9416589788481E-01
 0.8037124766577E-01
 0.5744580565844E-01
 0.2852187022849E-01
 0.3003698280927E-01
 0.7390763200206E-01
 0.1260722732196E+00
 0.1813712352390E+00
 0.2382099873367E+00
 0.2997753395160E+00
 0.3661674095686E+00
 0.5449454894625E-02
 0.4607597592142E-01
 0.6192901058036E-01
 0.6742987272691E-01
 0.7060727933227E-01
 0.7495000675773E-01
 0.8092602317193E-01
 0.8702370584849E-01
 0.9051819645115E-01
 0.8817244207302E-01
 0.7696032285157E-01
 0.5550663351034E-01
 0.2752983779871E-01
 0.3236573451012E-01
 0.7762029938298E-01
 0.1311429274836E+00
 0.1881769579081E+00
 0.2479589369987E+00
 0.3112840516431E+00
 0.3716385928722E+00
 0.2865134987378E-02
 0.3301335674563E-01
 0.4351815194281E-01
 0.4568063485133E-01
 0.4796370592727E-01
 0.5365102366015E-01
 0.6268283074601E-01
 0.7288934077131E-01
 0.8084898922633E-01
 0.8261851004962E-01
 0.7447821006888E-01
 0.5469262039206E-01
 0.2746721678379E-01
 0.3407701066635E-01
 0.8068454306663E-01
 0.1358506424274E+00
 0.1948707180390E+00
 0.2563718015744E+00
 0.3187765538704E+00
 0.3746715791862E+00
 0.1151839718846E-01
 0.1741379420690E-01
 0.2152172303242E-01
 0.2007902998637E-01
 0.2175668296162E-01
 0.2950243644991E-01
 0.4251586551510E-01
 0.5779001012885E-01
 0.7110057883871E-01
 0.7770430274086E-01
 0.7306952267913E-01
 0.5504463154364E-01
 0.2822182395748E-01
 0.3523794732321E-01
 0.8317213014099E-01
 0.1399822739514E+00
 0.2004547760607E+00
 0.2624052039732E+00
 0.3230452217109E+00
 0.3755218477171E+00
 0.2198804828632E-01
 0.6934659320758E-02
 0.7882501092112E-02
 0.1109419109264E-01
 0.8608336449074E-02
 0.2534627347408E-02
 0.2058758327455E-01
 0.4195110362684E-01
 0.6151125007854E-01
 0.7364238579330E-01
 0.7287338900815E-01
 0.5659165404493E-01
 0.2973720561746E-01
 0.3591932023679E-01
 0.8503701469963E-01
 0.1431954331241E+00
 0.2044217603939E+00
 0.2659324924663E+00
 0.3244017723791E+00
 0.3740015773286E+00
 0.3432395021835E-01
 0.2748389001596E-01
 0.3770193253145E-01
 0.4542120498617E-01
 0.4227773359708E-01
 0.2718547014211E-01
 0.3386729432750E-02
 0.2568087051919E-01
 0.5234772030197E-01
 0.7064699139085E-01
 0.7401198480913E-01
 0.5934118123121E-01
 0.3199221491849E-01
 0.3621392218805E-01
 0.8623065806154E-01
 0.1453001491533E+00
 0.2065885679235E+00
 0.2669488960866E+00
 0.3229469282641E+00
 0.3698192453538E+00
 0.4886820747958E-01
 0.5534123510395E-01
 0.7444789680905E-01
 0.8514222560400E-01
 0.7996150019997E-01
 0.5939334888622E-01
 0.2778732545079E-01
 0.9583579259473E-02
 0.4389136907201E-01
 0.6891602404961E-01
 0.7657173106545E-01
 0.6325823254397E-01
 0.3495355029873E-01
 0.3626361346040E-01
 0.8677625311019E-01
 0.1462374987699E+00
 0.2068973390529E+00
 0.2654631051093E+00
 0.3186554803630E+00
 0.3626958849786E+00
 0.6606068623719E-01
 0.8887932507514E-01
 0.1173226178210E+00
 0.1300797924169E+00
 0.1213518005235E+00
 0.9373932987811E-01
 0.5332401671726E-01
 0.8160726191993E-02
 0.3641378727239E-01
 0.6860452382954E-01
 0.8057637770885E-01
 0.6823658493366E-01
 0.3852517911080E-01
 0.3626229752776E-01
 0.8676553058295E-01
 0.1460218479406E+00
 0.2053373613107E+00
 0.2614640412518E+00
 0.3114466468679E+00
 0.3523943083350E+00
 0.8645385663926E-01
 0.1288727704484E+00
 0.1668441518048E+00
 0.1802880972730E+00
 0.1660977303729E+00
 0.1296761028509E+00
 0.7914315271081E-01
 0.2331475808450E-01
 0.3013821207244E-01
 0.6978829342054E-01
 0.8595347723311E-01
 0.7406955453896E-01
 0.4251510026344E-01
 0.3642542404372E-01
 0.8633141272423E-01
 0.1446957557229E+00
 0.2019038104236E+00
 0.2549196648595E+00
 0.3012253880125E+00
 0.3387354894718E+00
 0.1107480159418E+00
 0.1763937959362E+00
 0.2235742455906E+00
 0.2356470765167E+00
 0.2135894511851E+00
 0.1664370909813E+00
 0.1045912953812E+00
 0.3788415107868E-01
 0.2518472620394E-01
 0.7241723758615E-01
 0.9249771742333E-01
 0.8042684676374E-01
 0.4662961651543E-01
 0.3694177648056E-01
 0.8561210094485E-01
 0.1422918566133E+00
 0.1965740885755E+00
 0.2457825638428E+00
 0.2879121355224E+00
 0.3216141134706E+00
 0.1398447744127E+00
 0.2327532224897E+00
 0.2880114215451E+00
 0.2957332119611E+00
 0.2628553327984E+00
 0.2030011318420E+00
 0.1289477815365E+00
 0.5120426588772E-01
 0.2150127102282E-01
 0.7626007566035E-01
 0.9983560455426E-01
 0.8684225092391E-01
 0.5049496317410E-01
 0.3793049987081E-01
 0.8470931979803E-01
 0.1387981462289E+00
 0.1892920143457E+00
 0.2339993481535E+00
 0.2714684641664E+00
 0.3010183199756E+00
 0.1749275351047E+00
 0.2995319283169E+00
 0.3604799185362E+00
 0.3596452503894E+00
 0.3124382824276E+00
 0.2380760195259E+00
 0.1514864349291E+00
 0.6311110138243E-01
 0.1878721438406E-01
 0.8084526451569E-01
 0.1073957871533E+00
 0.9271529460856E-01
 0.5370392395620E-01
 0.3942626718509E-01
 0.8364218364296E-01
 0.1341259532509E+00
 0.1799594856089E+00
 0.2195260833659E+00
 0.2519252093857E+00
 0.2770556276327E+00
 0.2175860103818E+00
 0.3786278721523E+00
 0.4409340614515E+00
 0.4257369831366E+00
 0.3602545597481E+00
 0.2701332869286E+00
 0.1716043171654E+00
 0.7377939350563E-01
 0.1641507182140E-01
 0.8540474040338E-01
 0.1143863763435E+00
 0.9732951042948E-01
 0.5588961064480E-01
 0.4139471193617E-01
 0.8230093655042E-01
 0.1280864580576E+00
 0.1684426237920E+00
 0.2023573519485E+00
 0.2294201103207E+00
 0.2499879318148E+00
 0.2700170554747E+00
 0.4722915393828E+00
 0.5285775958575E+00
 0.4912038721407E+00
 0.4034728944209E+00
 0.2975616994080E+00
 0.1890303677911E+00
 0.8384087271733E-01
 0.1336102436965E-01
 0.8881998728033E-01
 0.1197739659301E+00
 0.9989253758836E-01
 0.5683564236545E-01
 0.4375297651052E-01
 0.8041478887276E-01
 0.1203948959984E+00
 0.1546114048967E+00
 0.1825842364304E+00
 0.2042565738549E+00
 0.2202823497703E+00
 0.3353662084705E+00
 0.5830746576396E+00
 0.6210892433016E+00
 0.5514510292684E+00
 0.4385613311143E+00
 0.3190437948993E+00
 0.2040973244792E+00
 0.9445746467191E-01
 0.8207513706655E-02
 0.8954629764730E-01
 0.1222519517183E+00
 0.9961418176581E-01
 0.5663661584395E-01
 0.4637571553108E-01
 0.7757915000593E-01
 0.1107542010526E+00
 0.1384554226631E+00
 0.1605127037941E+00
 0.1770070889408E+00
 0.1886999217839E+00
 0.4183638275520E+00
 0.7134836207797E+00
 0.7128646105085E+00
 0.5993366253049E+00
 0.4618369850593E+00
 0.3343375575372E+00
 0.2178407791841E+00
 0.1072478824129E+00
 0.3274525758956E-02
 0.8545793475490E-01
 0.1201837447594E+00
 0.9586733455549E-01
 0.5591483492535E-01
 0.4915110038267E-01
 0.7348331484519E-01
 0.9915182950982E-01
 0.1203747973383E+00
 0.1369071396365E+00
 0.1487231180414E+00
 0.1564733734375E+00
 0.5265778773735E+00
 0.8639409522727E+00
 0.7913726112406E+00
 0.6244457829403E+00
 0.4720900413809E+00
 0.3447396869115E+00
 0.2315891424016E+00
 0.1241224659226E+00
 0.1884634930087E-01
 0.7350492518124E-01
 0.1115093083520E+00
 0.8856097688270E-01
 0.5605910322757E-01
 0.5239048702693E-01
 0.6873660974441E-01
 0.8670702930913E-01
 0.1018592920341E+00
 0.1135301734139E+00
 0.1213886167564E+00
 0.1257530835667E+00
 0.6740005861566E+00
 0.1026932196622E+01
 0.8235119813626E+00
 0.6221644448596E+00
 0.4728514838747E+00
 0.3519410665693E+00
 0.2463765228758E+00
 0.1470053046556E+00
 0.4663248599663E-01
 0.4891179941712E-01
 0.9366108146595E-01
 0.7903288753105E-01
 0.5963258257177E-01
 0.5823771123359E-01
 0.6694742650791E-01
 0.7755764342959E-01
 0.8699674725388E-01
 0.9425255700107E-01
 0.9891298474085E-01
 0.1004659532547E+00
 0.8858138586632E+00
 0.1085330862947E+01
 0.7876818832846E+00
 0.6047412871583E+00
 0.4678273241702E+00
 0.3572986971566E+00
 0.2624583738343E+00
 0.1770153701915E+00
 0.9140467650414E-01
 0.4183708013072E-02
 0.6368668328847E-01
 0.7309244725638E-01
 0.7137028298075E-01
 0.7248038406825E-01
 0.7614951474222E-01
 0.8028253100825E-01
 0.8402564675214E-01
 0.8661398137373E-01
 0.8772285966194E-01
 0.8717498420359E-01
 0.5393245859803E-01
 0.5292107086302E-01
 0.4862509071403E-01
 0.4416575493905E-01
 0.3992767118377E-01
 0.3592111415690E-01
 0.3211127046450E-01
 0.2847504593464E-01
 0.2500583057678E-01
 0.2170808157920E-01
 0.1859161654049E-01
 0.1566705757133E-01
 0.1294239190334E-01
 0.1042041972877E-01
 0.8097175787331E-02
 0.5961955145301E-02
 0.4002477372473E-02
 0.2230561274775E-02
 0.9871724075999E-03
 0.1662060379247E-02
 0.6547752230321E-01
 0.6308409428855E-01
 0.6059940582137E-01
 0.5737041459975E-01
 0.5374545956371E-01
 0.4992621036473E-01
 0.4601756235619E-01
 0.4207678948400E-01
 0.3814223007926E-01
 0.3424486167397E-01
 0.3041205087974E-01
 0.2666809521279E-01
 0.2303375888046E-01
 0.1952588104101E-01
 0.1615779198623E-01
 0.1294160712359E-01
 0.9893610598077E-02
 0.7053683703979E-02
 0.4508651710884E-02
 0.2863237018739E-02
 0.7893731674696E-01
 0.7521740900927E-01
 0.7290114254525E-01
 0.7035838373891E-01
 0.6728379911823E-01
 0.6374566676432E-01
 0.5985574688340E-01
 0.5570981321079E-01
 0.5138270922960E-01
 0.4693454249899E-01
 0.4241595899574E-01
 0.3787134011203E-01
 0.3334073817004E-01
 0.2886155646366E-01
 0.2447096754261E-01
 0.2020981307939E-01
 0.1613119648472E-01
 0.1231051946889E-01
 0.8914435333316E-02
 0.6100597079669E-02
 0.9301034897298E-01
 0.8907121484863E-01
 0.8640930552021E-01
 0.8394590101137E-01
 0.8110002233311E-01
 0.7771818823196E-01
 0.7382263205499E-01
 0.6948695631318E-01
 0.6479242116855E-01
 0.5981535156110E-01
 0.5462538292929E-01
 0.4928664482641E-01
 0.4385962999522E-01
 0.3840346829372E-01
 0.3297887679910E-01
 0.2765251959773E-01
 0.2250160938235E-01
 0.1762368918411E-01
 0.1311179825555E-01
 0.8990736061773E-02
 0.1072015026983E+00
 0.1037125428907E+00
 0.1009499563571E+00
 0.9838483305764E-01
 0.9553168565944E-01
 0.9214275611862E-01
 0.8815210294726E-01
 0.8358602207345E-01
 0.7850895886320E-01
 0.7299818630239E-01
 0.6713358252360E-01
 0.6099432514813E-01
 0.5465858070520E-01
 0.4820466943628E-01
 0.4171330110691E-01
 0.3527040230639E-01
 0.2897053497594E-01
 0.2291303448777E-01
 0.1718370956124E-01
 0.1181564281922E-01
 0.1214473153234E+00
 0.1187410994844E+00
 0.1161722350892E+00
 0.1135865351896E+00
 0.1106628521575E+00
 0.1071705483404E+00
 0.1030047234709E+00
 0.9815349155846E-01
 0.9265895655891E-01
 0.8659097100019E-01
 0.8003260866792E-01
 0.7307296804171E-01
 0.6580403868637E-01
 0.5831981856649E-01
 0.5071676264139E-01
 0.4309518770298E-01
 0.3556039625261E-01
 0.2822298084787E-01
 0.2119793433572E-01
 0.1459297310274E-01
 0.1357520405620E+00
 0.1339770864684E+00
 0.1318377970124E+00
 0.1293823585873E+00
 0.1264363475527E+00
 0.1228249156459E+00
 0.1184449294144E+00
 0.1132674166517E+00
 0.1073187227965E+00
 0.1006609248260E+00
 0.9337763608724E-01
 0.8556501102279E-01
 0.7732637620249E-01
 0.6876913888572E-01
 0.6000316138358E-01
 0.5114013650928E-01
 0.4229426671294E-01
 0.3358610054039E-01
 0.2515711231384E-01
 0.1720933599002E-01
 0.1501278310145E+00
 0.1493463268737E+00
 0.1478004356669E+00
 0.1456257516721E+00
 0.1427491740271E+00
 0.1390547403882E+00
 0.1344596116633E+00
 0.1289346616587E+00
 0.1225003118878E+00
 0.1152150825494E+00
 0.1071643251436E+00
 0.9845132909572E-01
 0.8919075374737E-01
 0.7950377503619E-01
 0.6951439987596E-01
 0.5934675956328E-01
 0.4912386311902E-01
 0.3897010499866E-01
 0.2902369524957E-01
 0.1949553838516E-01
 0.1645847626147E+00
 0.1648278853503E+00
 0.1639881174806E+00
 0.1622224333958E+00
 0.1595160822210E+00
 0.1557989355998E+00
 0.1510121066404E+00
 0.1451348193763E+00
 0.1381891195409E+00
 0.1302349519272E+00
 0.1213623910545E+00
 0.1116839021660E+00
 0.1013274725225E+00
 0.9043060244217E-01
 0.7913493516351E-01
 0.6758137069634E-01
 0.5590571461691E-01
 0.4423503989647E-01
 0.3268497546299E-01
 0.2135057130615E-01
 0.1791460754014E+00
 0.1804419770264E+00
 0.1803988659064E+00
 0.1791570784793E+00
 0.1767270287418E+00
 0.1730672161495E+00
 0.1681378385350E+00
 0.1619278078114E+00
 0.1544639328553E+00
 0.1458105076335E+00
 0.1360645833714E+00
 0.1253496692177E+00
 0.1138090086121E+00
 0.1015987653863E+00
 0.8888110396368E-01
 0.7581697025214E-01
 0.6255805315647E-01
 0.4923619070725E-01
 0.3594449868420E-01
 0.2267711289628E-01
 0.1938017840732E+00
 0.1961727485552E+00
 0.1970013218757E+00
 0.1963872293578E+00
 0.1943412463025E+00
 0.1908336354739E+00
 0.1858349466663E+00
 0.1793403240635E+00
 0.1713804598457E+00
 0.1620240588746E+00
 0.1513755296021E+00
 0.1395701144836E+00
 0.1267675625248E+00
 0.1131447938157E+00
 0.9888766604102E-01
 0.8418171175505E-01
 0.6920124771881E-01
 0.5409518774520E-01
 0.3896390154526E-01
 0.2382407571395E-01
 0.2085226666937E+00
 0.2119932817313E+00
 0.2137597201713E+00
 0.2138694093789E+00
 0.2123155413024E+00
 0.2090651946091E+00
 0.2040891138187E+00
 0.1973823785907E+00
 0.1889756753207E+00
 0.1789395978692E+00
 0.1673843077757E+00
 0.1544561121397E+00
 0.1403318143517E+00
 0.1252112476797E+00
 0.1093081829377E+00
 0.9283968775328E-01
 0.7601390051344E-01
 0.5901588480704E-01
 0.4199264957996E-01
 0.2504734802402E-01
 0.2232688179950E+00
 0.2278723964838E+00
 0.2306414721798E+00
 0.2315678598674E+00
 0.2306152737254E+00
 0.2277351886106E+00
 0.2228883167641E+00
 0.2160618282171E+00
 0.2072803805471E+00
 0.1966117557245E+00
 0.1841683309523E+00
 0.1701052895781E+00
 0.1546160725645E+00
 0.1379253163028E+00
 0.1202794690437E+00
 0.1019354118766E+00
 0.8314771217458E-01
 0.6415595103371E-01
 0.4517587906023E-01
 0.2640127227793E-01
 0.2379916496683E+00
 0.2437703759714E+00
 0.2476095395970E+00
 0.2494459550756E+00
 0.2492064948775E+00
 0.2468172302172E+00
 0.2422192853900E+00
 0.2353833785903E+00
 0.2263206161946E+00
 0.2150893844247E+00
 0.2017987567162E+00
 0.1866087396155E+00
 0.1697274432116E+00
 0.1514051291526E+00
 0.1319251716944E+00
 0.1115923138270E+00
 0.9071926128953E-01
 0.6961370900557E-01
 0.4856904172310E-01
 0.2786192468763E-01
 0.2526354073773E+00
 0.2596378098787E+00
 0.2646181149140E+00
 0.2674602173870E+00
 0.2680497699107E+00
 0.2662799493580E+00
 0.2620637608565E+00
 0.2553467795756E+00
 0.2461179921369E+00
 0.2344181164883E+00
 0.2203452854432E+00
 0.2040579360543E+00
 0.1857745484694E+00
 0.1657697562155E+00
 0.1443664594705E+00
 0.1219240256672E+00
 0.9882349620995E-01
 0.7545174352347E-01
 0.5218715841763E-01
 0.2938884480438E-01
 0.2671376317871E+00
 0.2754151179160E+00
 0.2816100265594E+00
 0.2855559020995E+00
 0.2870948123738E+00
 0.2860815053768E+00
 0.2823935283394E+00
 0.2759428688842E+00
 0.2666871515889E+00
 0.2546396349160E+00
 0.2398776064654E+00
 0.2225486726234E+00
 0.2028741612833E+00
 0.1811486074178E+00
 0.1577342597593E+00
 0.1330499188634E+00
 0.1075543105372E+00
 0.8172548756901E-01
 0.5603881741364E-01
 0.3094611319799E-01
 0.2814293728472E+00
 0.2910326913795E+00
 0.2985156891192E+00
 0.3036645094686E+00
 0.3062768444320E+00
 0.3061652577384E+00
 0.3031658621352E+00
 0.2971492446118E+00
 0.2880321621748E+00
 0.2757893590417E+00
 0.2604650473594E+00
 0.2421833836579E+00
 0.2211568355550E+00
 0.1976908189854E+00
 0.1721825933361E+00
 0.1451124179580E+00
 0.1170257242962E+00
 0.8850678585891E-01
 0.6014684314284E-01
 0.3251129795247E-01
 0.2954348985219E+00
 0.3064103754559E+00
 0.3152517038027E+00
 0.3217011465398E+00
 0.3255127044723E+00
 0.3264548031102E+00
 0.3243177907792E+00
 0.3189241657230E+00
 0.3101406174384E+00
 0.2978915289335E+00
 0.2821736574952E+00
 0.2630714118396E+00
 0.2407715310036E+00
 0.2155750999330E+00
 0.1879038504581E+00
 0.1582969412559E+00
 0.1273945263160E+00
 0.9590615415842E-01
 0.6456624602141E-01
 0.3408512298359E-01
 0.3090713556285E+00
 0.3214568184562E+00
 0.3317193645144E+00
 0.3395617891002E+00
 0.3446966156164E+00
 0.3468481766852E+00
 0.3457588154111E+00
 0.3411980590133E+00
 0.3329744731092E+00
 0.3209502811798E+00
 0.3050588720154E+00
 0.2853250136002E+00
 0.2618868953400E+00
 0.2350179307547E+00
 0.2051445259507E+00
 0.1728539955488E+00
 0.1388853092766E+00
 0.1040959986358E+00
 0.6940283222846E-01
 0.3570546119371E-01
 0.3222483678756E+00
 0.3360685804638E+00
 0.3478030741221E+00
 0.3571204886912E+00
 0.3636957627026E+00
 0.3672115060922E+00
 0.3673624822521E+00
 0.3638630626843E+00
 0.3564579554604E+00
 0.3449368333288E+00
 0.3291535759484E+00
 0.3090506817886E+00
 0.2846888404841E+00
 0.2562804103139E+00
 0.2242232293691E+00
 0.1891275510778E+00
 0.1518245024916E+00
 0.1133415140752E+00
 0.7483272047646E-01
 0.3746100934167E-01
 0.3348674373702E+00
 0.3501299113253E+00
 0.3633696170567E+00
 0.3742272873960E+00
 0.3823460740615E+00
 0.3873718401613E+00
 0.3889554729362E+00
 0.3867577288413E+00
 0.3804575627210E+00
 0.3697651032346E+00
 0.3544406667709E+00
 0.3343213515144E+00
 0.3093566378090E+00
 0.2796536435295E+00
 0.2455305120936E+00
 0.2075716220172E+00
 0.1666699788970E+00
 0.1240320072608E+00
 0.8111472433528E-01
 0.3947373410475E-01
 0.3468237026383E+00
 0.3635158017598E+00
 0.3782712950411E+00
 0.3907104132209E+00
 0.4004518041401E+00
 0.4071121344714E+00
 0.4103057042514E+00
 0.4096457687385E+00
 0.4047490453041E+00
 0.3952450017257E+00
 0.3807918894478E+00
 0.3611020588220E+00
 0.3359797287176E+00
 0.3053747533631E+00
 0.2694552119870E+00
 0.2286979676896E+00
 0.1839854900481E+00
 0.1366760440037E+00
 0.8858989614151E-01
 0.4185241492859E-01
 0.3580108414449E+00
 0.3760951052716E+00
 0.3923489549299E+00
 0.4063785704486E+00
 0.4177862332202E+00
 0.4261690299590E+00
 0.4311153816432E+00
 0.4322020672978E+00
 0.4289936533872E+00
 0.4210460864249E+00
 0.4079166417516E+00
 0.3891833849701E+00
 0.3644787942236E+00
 0.3335441812981E+00
 0.2963137092984E+00
 0.2530376560278E+00
 0.2044492694233E+00
 0.1519513836828E+00
 0.9773743915101E-01
 0.4470346862956E-01
 0.3683215260522E+00
 0.3877320287610E+00
 0.4054333755800E+00
 0.4210226372872E+00
 0.4340937845936E+00
 0.4442352115637E+00
 0.4510228499051E+00
 0.4540124790823E+00
 0.4527333514328E+00
 0.4466846811333E+00
 0.4353368591765E+00
 0.4181403854716E+00
 0.3945475916589E+00
 0.3640556575444E+00
 0.3262848538121E+00
 0.2811139574085E+00
 0.2289042872638E+00
 0.1708428203585E+00
 0.1093455293505E+00
 0.4825065210156E-01
 0.3776477751625E+00
 0.3982879341034E+00
 0.4173479797275E+00
 0.4344189198843E+00
 0.4490935336901E+00
 0.4609625053389E+00
 0.4696039127281E+00
 0.4745708772281E+00
 0.4753795158763E+00
 0.4714981369075E+00
 0.4623385783326E+00
 0.4472515040801E+00
 0.4255294989936E+00
 0.3964256210860E+00
 0.3592021968855E+00
 0.3132383291185E+00
 0.2582506725251E+00
 0.1947330700381E+00
 0.1247742203224E+00
 0.5305232548550E-01
 0.3858829649245E+00
 0.4076244629482E+00
 0.4279133275657E+00
 0.4463348799436E+00
 0.4624860117165E+00
 0.4759693258228E+00
 0.4863787537083E+00
 0.4932830232517E+00
 0.4962090389463E+00
 0.4946252069947E+00
 0.4879241687574E+00
 0.4754047475999E+00
 0.4562541170230E+00
 0.4295338066820E+00
 0.3941787874655E+00
 0.3490314278017E+00
 0.2929626694060E+00
 0.2252085048922E+00
 0.1463037876481E+00
 0.6045442759902E-01
 0.3929246054372E+00
 0.4156078734477E+00
 0.4369531844623E+00
 0.4565373499175E+00
 0.4739641361024E+00
 0.4888548612303E+00
 0.5008294332108E+00
 0.5094862158998E+00
 0.5143825995919E+00
 0.5150152570026E+00
 0.5107980083096E+00
 0.5010349066213E+00
 0.4848861153463E+00
 0.4613243789072E+00
 0.4290809364717E+00
 0.3865835670127E+00
 0.3319017751794E+00
 0.2627590324932E+00
 0.1768292650389E+00
 0.7384723654336E-01
 0.3986777430411E+00
 0.4221144199611E+00
 0.4443022111386E+00
 0.4648034339718E+00
 0.4832288832177E+00
 0.4992215624498E+00
 0.5124314294369E+00
 0.5224917452528E+00
 0.5289983988481E+00
 0.5314900032462E+00
 0.5294253569193E+00
 0.5221542395281E+00
 0.5088765226740E+00
 0.4885825301204E+00
 0.4599635896802E+00
 0.4212739292299E+00
 0.3701093077651E+00
 0.3030326550179E+00
 0.2148728498875E+00
 0.9726010539596E-01
 0.4030591210215E+00
 0.4270370977767E+00
 0.4498156024655E+00
 0.4709345254529E+00
 0.4900103999906E+00
 0.5067073656436E+00
 0.5207024708096E+00
 0.5316575652211E+00
 0.5391976748641E+00
 0.5428919397869E+00
 0.5422323650252E+00
 0.5366052226609E+00
 0.5252486639007E+00
 0.5071868695154E+00
 0.4811240445124E+00
 0.4452666574155E+00
 0.3970085280426E+00
 0.3323254007303E+00
 0.2444794334504E+00
 0.1200192494887E+00
 0.4060022930589E+00
 0.4302935496720E+00
 0.4533801954782E+00
 0.4747725302438E+00
 0.4940930887538E+00
 0.5110256224020E+00
 0.5252667080508E+00
 0.5364917553398E+00
 0.5443318714923E+00
 0.5483548475354E+00
 0.5480437360586E+00
 0.5427667846203E+00
 0.5317315103184E+00
 0.5139124777034E+00
 0.4879353229120E+00
 0.4518852045388E+00
 0.4029784933721E+00
 0.3369722200566E+00
 0.2470300524869E+00
 0.1217958271636E+00
 0.4074641791885E+00
 0.4318360374177E+00
 0.4549278288841E+00
 0.4762183827340E+00
 0.4953427970564E+00
 0.5120064411304E+00
 0.5259188949236E+00
 0.5367542045606E+00
 0.5441273931105E+00
 0.5475764788029E+00
 0.5465416594790E+00
 0.5403350475067E+00
 0.5280944849847E+00
 0.5087132365869E+00
 0.4807334379412E+00
 0.4421849034126E+00
 0.3903425850282E+00
 0.3213820171124E+00
 0.2300020423940E+00
 0.1105518140378E+00
 0.4074335658581E+00
 0.4316636809911E+00
 0.4544499751489E+00
 0.4752494818862E+00
 0.4937281159798E+00
 0.5096219242687E+00
 0.5226518051148E+00
 0.5324816980699E+00
 0.5386991633295E+00
 0.5408027046294E+00
 0.5381862968321E+00
 0.5301156620162E+00
 0.5156927632701E+00
 0.4938057916011E+00
 0.4630629107555E+00
 0.4217117278415E+00
 0.3675619234285E+00
 0.2979780390201E+00
 0.2102608639252E+00
 0.1036234715917E+00
 0.4059459510432E+00
 0.4298389780036E+00
 0.4520097682253E+00
 0.4719283539203E+00
 0.4893264883418E+00
 0.5039868567090E+00
 0.5156432371658E+00
 0.5239452760115E+00
 0.5284505912888E+00
 0.5286228957864E+00
 0.5238268986639E+00
 0.5133171643799E+00
 0.4962216680716E+00
 0.4715235640315E+00
 0.4380494904344E+00
 0.3944831872807E+00
 0.3394465198084E+00
 0.2717533433177E+00
 0.1910813248480E+00
 0.1003983768808E+00
 0.4030865028616E+00
 0.4264692997986E+00
 0.4476971648810E+00
 0.4663415149168E+00
 0.4822555447224E+00
 0.4952868967016E+00
 0.5051812625324E+00
 0.5115706276442E+00
 0.5139861701859E+00
 0.5118719911903E+00
 0.5045930667505E+00
 0.4914392865011E+00
 0.4716305544506E+00
 0.4443309665925E+00
 0.4086855754528E+00
 0.3639049809213E+00
 0.3094438096056E+00
 0.2453590032500E+00
 0.1730685692285E+00
 0.9804821404742E-01
 0.3989303937756E+00
 0.4215856871325E+00
 0.4414746796303E+00
 0.4584346571067E+00
 0.4725087856454E+00
 0.4836145029806E+00
 0.4914976344849E+00
 0.4957669151455E+00
 0.4959365238193E+00
 0.4914547980982E+00
 0.4817233426937E+00
 0.4661141966251E+00
 0.4439928613539E+00
 0.4147562768654E+00
 0.3778992437339E+00
 0.3331299598295E+00
 0.2805759086165E+00
 0.2211516741722E+00
 0.1573347084955E+00
 0.9568519365778E-01
 0.3935893179820E+00
 0.4151718841385E+00
 0.4332234764361E+00
 0.4481033347443E+00
 0.4600809256238E+00
 0.4691079401306E+00
 0.4748941078328E+00
 0.4770194074300E+00
 0.4749975447043E+00
 0.4683099617975E+00
 0.4564295287230E+00
 0.4388454646754E+00
 0.4150972194142E+00
 0.3848245118307E+00
 0.3478422153113E+00
 0.3042556410734E+00
 0.2546360568256E+00
 0.2003594761448E+00
 0.1443572394070E+00
 0.9347783672390E-01
 0.3872066170413E+00
 0.4070957538896E+00
 0.4227216715321E+00
 0.4352336817445E+00
 0.4450521626120E+00
 0.4520245990338E+00
 0.4557838394557E+00
 0.4558920567301E+00
 0.4518912112308E+00
 0.4433272155410E+00
 0.4297710254368E+00
 0.4108462019848E+00
 0.3862671255016E+00
 0.3558910490392E+00
 0.3197884894313E+00
 0.2783365654113E+00
 0.2323618132505E+00
 0.1833507701748E+00
 0.1342257624052E+00
 0.9176653725458E-01
 0.3798838364373E+00
 0.3969234495461E+00
 0.4095758369448E+00
 0.4198255197734E+00
 0.4276888436371E+00
 0.4327784555434E+00
 0.4346761241794E+00
 0.4329759350241E+00
 0.4272912794707E+00
 0.4172619666731E+00
 0.4025719770355E+00
 0.3829779088292E+00
 0.3583476863041E+00
 0.3287095587254E+00
 0.2943116986888E+00
 0.2556977433565E+00
 0.2137998389117E+00
 0.1701553174064E+00
 0.1271600680384E+00
 0.9100132246799E-01
 0.3710850790397E+00
 0.3833355619527E+00
 0.3936554352368E+00
 0.4023172108007E+00
 0.4085586915725E+00
 0.4119379508813E+00
 0.4121213638500E+00
 0.4088170930273E+00
 0.4017515800697E+00
 0.3906759659023E+00
 0.3753868596435E+00
 0.3557564255645E+00
 0.3317697358185E+00
 0.3035685529181E+00
 0.2715019562729E+00
 0.2361868392335E+00
 0.1986004583503E+00
 0.1602207643911E+00
 0.1236425858346E+00
 0.9225685627137E-01
 0.3591478873414E+00
 0.3663372352309E+00
 0.3762652541394E+00
 0.3838178702138E+00
 0.3884691226759E+00
 0.3900948672607E+00
 0.3885915055441E+00
 0.3838241990980E+00
 0.3756420868436E+00
 0.3639034359157E+00
 0.3485031064730E+00
 0.3294023918251E+00
 0.3066623035184E+00
 0.2804812274270E+00
 0.2512386278632E+00
 0.2195524661891E+00
 0.1863694818432E+00
 0.1531742118101E+00
 0.1223679900652E+00
 0.9900024005770E-01
</DataArray>
<DataArray type="Float64" Name="CK" NumberOfComponents="1" ComponentName0="CK" format="ascii">
 0.0000000000000E+00
 0.0000000000000E+00
 0.0000000000000E+00
 0.0000000000000E+00
 0.0000000000000E+00
 0.0000000000000E+00
 0.0000000000000E+00
 0.0000000000000E+00
 0.0000000000000E+00
 0.0000000000000E+00
 0.0000000000000E+00
 0.0000000000000E+00
 0.0000000000000E+00
 0.0000000000000E+00
 0.0000000000000E+00
 0.0000000000000E+00
 0.0000000000000E+00
 0.0000000000000E+00
 0.0000000000000E+00
 0.0000000000000E+00
 0.0000000000000E+00
 0.0000000000000E+00
 0.0000000000000E+00
 0.0000000000000E+00
 0.0000000000000E+00
 0.0000000000000E+00
 0.0000000000000E+00
 0.0000000000000E+00
 0.0000000000000E+00
 0.0000000000000E+00
 0.0000000000000E+00
 0.0000000000000E+00
 0.0000000000000E+00
 0.0000000000000E+00
 0.0000000000000E+00
 0.0000000000000E+00
 0.0000000000000E+00
 0.0000000000000E+00
 0.0000000000000E+00
 0.0000000000000E+00
 0.0000000000000E+00
 0.0000000000000E+00
 0.0000000000000E+00
 0.0000000000000E+00
 0.0000000000000E+00
 0.0000000000000E+00
 0.0000000000000E+00
 0.0000000000000E+00
 0.0000000000000E+00
 0.0000000000000E+00
 0.0000000000000E+00
 0.0000000000000E+00
 0.0000000000000E+00
 0.0000000000000E+00
 0.0000000000000E+00
 0.0000000000000E+00
 0.0000000000000E+00
 0.0000000000000E+00
 0.0000000000000E+00
 0.0000000000000E+00
 0.0000000000000E+00
 0.0000000000000E+00
 0.0000000000000E+00
 0.0000000000000E+00
 0.0000000000000E+00
 0.0000000000000E+00
 0.0000000000000E+00
 0.0000000000000E+00
 0.0000000000000E+00
 0.0000000000000E+00
 0.0000000000000E+00
 0.0000000000000E+00
 0.0000000000000E+00
 0.0000000000000E+00
 0.0000000000000E+00
 0.0000000000000E+00
 0.0000000000000E+00
 0.0000000000000E+00
 0.0000000000000E+00
 0.0000000000000E+00
 0.0000000000000E+00
 0.0000000000000E+00
 0.0000000000000E+00
 0.0000000000000E+00
 0.0000000000000E+00
 0.0000000000000E+00
 0.0000000000000E+00
 0.0000000000000E+00
 0.0000000000000E+00
 0.0000000000000E+00
 0.0000000000000E+00
 0.0000000000000E+00
 0.0000000000000E+00
 0.0000000000000E+00
 0.0000000000000E+00
 0.0000000000000E+00
 0.0000000000000E+00
 0.0000000000000E+00
 0.0000000000000E+00
 0.0000000000000E+00
 0.0000000000000E+00
 0.0000000000000E+00
 0.0000000000000E+00
 0.0000000000000E+00
 0.0000000000000E+00
 0.0000000000000E+00
 0.0000000000000E+00
 0.0000000000000E+00
 0.0000000000000E+00
 0.0000000000000E+00
 0.0000000000000E+00
 0.0000000000000E+00
 0.0000000000000E+00
 0.0000000000000E+00
 0.0000000000000E+00
 0.0000000000000E+00
 0.0000000000000E+00
 0.0000000000000E+00
 0.0000000000000E+00
 0.0000000000000E+00
 0.0000000000000E+00
 0.0000000000000E+00
 0.0000000000000E+00
 0.0000000000000E+00
 0.0000000000000E+00
 0.0000000000000E+00
 0.0000000000000E+00
 0.0000000000000E+00
 0.0000000000000E+00
 0.0000000000000E+00
 0.0000000000000E+00
 0.0000000000000E+00
 0.0000000000000E+00
 0.0000000000000E+00
 0.0000000000000E+00
 0.0000000000000E+00
 0.0000000000000E+00
 0.0000000000000E+00
 0.0000000000000E+00
 0.0000000000000E+00
 0.0000000000000E+00
 0.0000000000000E+00
 0.0000000000000E+00
 0.0000000000000E+00
 0.0000000000000E+00
 0.0000000000000E+00
 0.0000000000000E+00
 0.0000000000000E+00
 0.0000000000000E+00
 0.0000000000000E+00
 0.0000000000000E+00
 0.0000000000000E+00
 0.0000000000000E+00
 0.0000000000000E+00
 0.0000000000000E+00
 0.0000000000000E+00
 0.0000000000000E+00
 0.0000000000000E+00
 0.0000000000000E+00
 0.0000000000000E+00
 0.0000000000000E+00
 0.0000000000000E+00
 0.0000000000000E+00
 0.0000000000000E+00
 0.0000000000000E+00
 0.0000000000000E+00
 0.0000000000000E+00
 0.0000000000000E+00
 0.0000000000000E+00
 0.0000000000000E+00
 0.0000000000000E+00
 0.0000000000000E+00
 0.0000000000000E+00
 0.0000000000000E+00
 0.0000000000000E+00
 0.0000000000000E+00
 0.0000000000000E+00
 0.0000000000000E+00
 0.0000000000000E+00
 0.0000000000000E+00
 0.0000000000000E+00
 0.0000000000000E+00
 0.0000000000000E+00
 0.0000000000000E+00
 0.0000000000000E+00
 0.0000000000000E+00
 0.0000000000000E+00
 0.0000000000000E+00
 0.0000000000000E+00
 0.0000000000000E+00
 0.0000000000000E+00
 0.0000000000000E+00
 0.0000000000000E+00
 0.0000000000000E+00
 0.0000000000000E+00
 0.0000000000000E+00
 0.0000000000000E+00
 0.0000000000000E+00
 0.0000000000000E+00
 0.0000000000000E+00
 0.0000000000000E+00
 0.0000000000000E+00
 0.0000000000000E+00
 0.0000000000000E+00
 0.0000000000000E+00
 0.0000000000000E+00
 0.0000000000000E+00
 0.0000000000000E+00
 0.0000000000000E+00
 0.0000000000000E+00
 0.0000000000000E+00
 0.0000000000000E+00
 0.0000000000000E+00
 0.0000000000000E+00
 0.0000000000000E+00
 0.0000000000000E+00
 0.0000000000000E+00
 0.0000000000000E+00
 0.0000000000000E+00
 0.0000000000000E+00
 0.0000000000000E+00
 0.0000000000000E+00
 0.0000000000000E+00
 0.0000000000000E+00
 0.0000000000000E+00
 0.0000000000000E+00
 0.0000000000000E+00
 0.0000000000000E+00
 0.0000000000000E+00
 0.0000000000000E+00
 0.0000000000000E+00
 0.0000000000000E+00
 0.0000000000000E+00
 0.0000000000000E+00
 0.0000000000000E+00
 0.0000000000000E+00
 0.0000000000000E+00
 0.0000000000000E+00
 0.0000000000000E+00
 0.0000000000000E+00
 0.0000000000000E+00
 0.0000000000000E+00
 0.0000000000000E+00
 0.0000000000000E+00
 0.0000000000000E+00
 0.0000000000000E+00
 0.0000000000000E+00
 0.0000000000000E+00
 0.0000000000000E+00
 0.0000000000000E+00
 0.0000000000000E+00
 0.0000000000000E+00
 0.0000000000000E+00
 0.0000000000000E+00
 0.0000000000000E+00
 0.0000000000000E+00
 0.0000000000000E+00
 0.0000000000000E+00
 0.0000000000000E+00
 0.0000000000000E+00
 0.0000000000000E+00
 0.0000000000000E+00
 0.0000000000000E+00
 0.0000000000000E+00
 0.0000000000000E+00
 0.0000000000000E+00
 0.0000000000000E+00
 0.0000000000000E+00
 0.0000000000000E+00
 0.0000000000000E+00
 0.0000000000000E+00
 0.0000000000000E+00
 0.0000000000000E+00
 0.0000000000000E+00
 0.0000000000000E+00
 0.0000000000000E+00
 0.0000000000000E+00
 0.0000000000000E+00
 0.0000000000000E+00
 0.0000000000000E+00
 0.0000000000000E+00
 0.0000000000000E+00
 0.0000000000000E+00
 0.0000000000000E+00
 0.0000000000000E+00
 0.0000000000000E+00
 0.0000000000000E+00
 0.0000000000000E+00
 0.0000000000000E+00
 0.0000000000000E+00
 0.0000000000000E+00
 0.0000000000000E+00
 0.0000000000000E+00
 0.0000000000000E+00
 0.0000000000000E+00
 0.0000000000000E+00
 0.0000000000000E+00
 0.0000000000000E+00
 0.0000000000000E+00
 0.0000000000000E+00
 0.0000000000000E+00
 0.0000000000000E+00
 0.0000000000000E+00
 0.0000000000000E+00
 0.0000000000000E+00
 0.0000000000000E+00
 0.0000000000000E+00
 0.0000000000000E+00
 0.0000000000000E+00
 0.0000000000000E+00
 0.0000000000000E+00
 0.0000000000000E+00
 0.0000000000000E+00
 0.0000000000000E+00
 0.0000000000000E+00
 0.0000000000000E+00
 0.0000000000000E+00
 0.0000000000000E+00
 0.0000000000000E+00
 0.0000000000000E+00
 0.0000000000000E+00
 0.0000000000000E+00
 0.0000000000000E+00
 0.0000000000000E+00
 0.0000000000000E+00
 0.0000000000000E+00
 0.0000000000000E+00
 0.0000000000000E+00
 0.0000000000000E+00
 0.0000000000000E+00
 0.0000000000000E+00
 0.0000000000000E+00
 0.0000000000000E+00
 0.0000000000000E+00
 0.0000000000000E+00
 0.0000000000000E+00
 0.0000000000000E+00
 0.0000000000000E+00
 0.0000000000000E+00
 0.0000000000000E+00
 0.0000000000000E+00
 0.0000000000000E+00
 0.0000000000000E+00
 0.0000000000000E+00
 0.0000000000000E+00
 0.0000000000000E+00
 0.0000000000000E+00
 0.0000000000000E+00
 0.0000000000000E+00
 0.0000000000000E+00
 0.0000000000000E+00
 0.0000000000000E+00
 0.0000000000000E+00
 0.0000000000000E+00
 0.0000000000000E+00
 0.0000000000000E+00
 0.0000000000000E+00
 0.0000000000000E+00
 0.0000000000000E+00
 0.0000000000000E+00
 0.0000000000000E+00
 0.0000000000000E+00
 0.0000000000000E+00
 0.0000000000000E+00
 0.0000000000000E+00
 0.0000000000000E+00
 0.0000000000000E+00
 0.0000000000000E+00
 0.0000000000000E+00
 0.0000000000000E+00
 0.0000000000000E+00
 0.0000000000000E+00
 0.0000000000000E+00
 0.0000000000000E+00
 0.0000000000000E+00
 0.0000000000000E+00
 0.0000000000000E+00
 0.0000000000000E+00
 0.0000000000000E+00
 0.0000000000000E+00
 0.0000000000000E+00
 0.0000000000000E+00
 0.0000000000000E+00
 0.0000000000000E+00
 0.0000000000000E+00
 0.0000000000000E+00
 0.0000000000000E+00
 0.0000000000000E+00
 0.0000000000000E+00
 0.0000000000000E+00
 0.0000000000000E+00
 0.0000000000000E+00
 0.0000000000000E+00
 0.0000000000000E+00
 0.0000000000000E+00
 0.0000000000000E+00
 0.0000000000000E+00
 0.0000000000000E+00
 0.0000000000000E+00
 0.0000000000000E+00
 0.0000000000000E+00
 0.0000000000000E+00
 0.0000000000000E+00
 0.0000000000000E+00
 0.0000000000000E+00
 0.0000000000000E+00
 0.0000000000000E+00
 0.0000000000000E+00
 0.0000000000000E+00
 0.0000000000000E+00
 0.0000000000000E+00
 0.0000000000000E+00
 0.0000000000000E+00
 0.0000000000000E+00
 0.0000000000000E+00
 0.0000000000000E+00
 0.0000000000000E+00
 0.0000000000000E+00
 0.0000000000000E+00
 0.0000000000000E+00
 0.0000000000000E+00
 0.0000000000000E+00
 0.0000000000000E+00
 0.0000000000000E+00
 0.0000000000000E+00
 0.0000000000000E+00
 0.0000000000000E+00
 0.0000000000000E+00
 0.0000000000000E+00
 0.0000000000000E+00
 0.0000000000000E+00
 0.0000000000000E+00
 0.0000000000000E+00
 0.0000000000000E+00
 0.0000000000000E+00
 0.0000000000000E+00
 0.0000000000000E+00
 0.0000000000000E+00
 0.0000000000000E+00
 0.0000000000000E+00
 0.0000000000000E+00
 0.0000000000000E+00
 0.0000000000000E+00
 0.0000000000000E+00
 0.0000000000000E+00
 0.0000000000000E+00
 0.0000000000000E+00
 0.0000000000000E+00
 0.0000000000000E+00
 0.0000000000000E+00
 0.0000000000000E+00
 0.0000000000000E+00
 0.0000000000000E+00
 0.0000000000000E+00
 0.0000000000000E+00
 0.0000000000000E+00
 0.0000000000000E+00
 0.0000000000000E+00
 0.0000000000000E+00
 0.0000000000000E+00
 0.0000000000000E+00
 0.0000000000000E+00
 0.0000000000000E+00
 0.0000000000000E+00
 0.0000000000000E+00
 0.0000000000000E+00
 0.0000000000000E+00
 0.0000000000000E+00
 0.0000000000000E+00
 0.0000000000000E+00
 0.0000000000000E+00
 0.0000000000000E+00
 0.0000000000000E+00
 0.0000000000000E+00
 0.0000000000000E+00
 0.0000000000000E+00
 0.0000000000000E+00
 0.0000000000000E+00
 0.0000000000000E+00
 0.0000000000000E+00
 0.0000000000000E+00
 0.0000000000000E+00
 0.0000000000000E+00
 0.0000000000000E+00
 0.0000000000000E+00
 0.0000000000000E+00
 0.0000000000000E+00
 0.0000000000000E+00
 0.0000000000000E+00
 0.0000000000000E+00
 0.0000000000000E+00
 0.0000000000000E+00
 0.0000000000000E+00
 0.0000000000000E+00
 0.0000000000000E+00
 0.0000000000000E+00
 0.0000000000000E+00
 0.0000000000000E+00
 0.0000000000000E+00
 0.0000000000000E+00
 0.0000000000000E+00
 0.0000000000000E+00
 0.0000000000000E+00
 0.0000000000000E+00
 0.0000000000000E+00
 0.0000000000000E+00
 0.0000000000000E+00
 0.0000000000000E+00
 0.0000000000000E+00
 0.0000000000000E+00
 0.0000000000000E+00
 0.0000000000000E+00
 0.0000000000000E+00
 0.0000000000000E+00
 0.0000000000000E+00
 0.0000000000000E+00
 0.0000000000000E+00
 0.0000000000000E+00
 0.0000000000000E+00
 0.0000000000000E+00
 0.0000000000000E+00
 0.0000000000000E+00
 0.0000000000000E+00
 0.0000000000000E+00
 0.0000000000000E+00
 0.0000000000000E+00
 0.0000000000000E+00
 0.0000000000000E+00
 0.0000000000000E+00
 0.0000000000000E+00
 0.0000000000000E+00
 0.0000000000000E+00
 0.0000000000000E+00
 0.0000000000000E+00
 0.0000000000000E+00
 0.0000000000000E+00
 0.0000000000000E+00
 0.0000000000000E+00
 0.0000000000000E+00
 0.0000000000000E+00
 0.0000000000000E+00
 0.0000000000000E+00
 0.0000000000000E+00
 0.0000000000000E+00
 0.0000000000000E+00
 0.0000000000000E+00
 0.0000000000000E+00
 0.0000000000000E+00
 0.0000000000000E+00
 0.0000000000000E+00
 0.0000000000000E+00
 0.0000000000000E+00
 0.0000000000000E+00
 0.0000000000000E+00
 0.0000000000000E+00
 0.0000000000000E+00
 0.0000000000000E+00
 0.0000000000000E+00
 0.0000000000000E+00
 0.0000000000000E+00
 0.0000000000000E+00
 0.0000000000000E+00
 0.0000000000000E+00
 0.0000000000000E+00
 0.0000000000000E+00
 0.0000000000000E+00
 0.0000000000000E+00
 0.0000000000000E+00
 0.0000000000000E+00
 0.0000000000000E+00
 0.0000000000000E+00
 0.0000000000000E+00
 0.0000000000000E+00
 0.0000000000000E+00
 0.0000000000000E+00
 0.0000000000000E+00
 0.0000000000000E+00
 0.0000000000000E+00
 0.0000000000000E+00
 0.0000000000000E+00
 0.0000000000000E+00
 0.0000000000000E+00
 0.0000000000000E+00
 0.0000000000000E+00
 0.0000000000000E+00
 0.0000000000000E+00
 0.0000000000000E+00
 0.0000000000000E+00
 0.0000000000000E+00
 0.0000000000000E+00
 0.0000000000000E+00
 0.0000000000000E+00
 0.0000000000000E+00
 0.0000000000000E+00
 0.0000000000000E+00
 0.0000000000000E+00
 0.0000000000000E+00
 0.0000000000000E+00
 0.0000000000000E+00
 0.0000000000000E+00
 0.0000000000000E+00
 0.0000000000000E+00
 0.0000000000000E+00
 0.0000000000000E+00
 0.0000000000000E+00
 0.0000000000000E+00
 0.0000000000000E+00
 0.0000000000000E+00
 0.0000000000000E+00
 0.0000000000000E+00
 0.0000000000000E+00
 0.0000000000000E+00
 0.0000000000000E+00
 0.0000000000000E+00
 0.0000000000000E+00
 0.0000000000000E+00
 0.0000000000000E+00
 0.0000000000000E+00
 0.0000000000000E+00
 0.0000000000000E+00
 0.0000000000000E+00
 0.0000000000000E+00
 0.0000000000000E+00
 0.0000000000000E+00
 0.0000000000000E+00
 0.0000000000000E+00
 0.0000000000000E+00
 0.0000000000000E+00
 0.0000000000000E+00
 0.0000000000000E+00
 0.0000000000000E+00
 0.0000000000000E+00
 0.0000000000000E+00
 0.0000000000000E+00
 0.0000000000000E+00
 0.0000000000000E+00
 0.0000000000000E+00
 0.0000000000000E+00
 0.0000000000000E+00
 0.0000000000000E+00
 0.0000000000000E+00
 0.0000000000000E+00
 0.0000000000000E+00
 0.0000000000000E+00
 0.0000000000000E+00
 0.0000000000000E+00
 0.0000000000000E+00
 0.0000000000000E+00
 0.0000000000000E+00
 0.0000000000000E+00
 0.0000000000000E+00
 0.0000000000000E+00
 0.0000000000000E+00
 0.0000000000000E+00
 0.0000000000000E+00
 0.0000000000000E+00
 0.0000000000000E+00
 0.0000000000000E+00
 0.0000000000000E+00
 0.0000000000000E+00
 0.0000000000000E+00
 0.0000000000000E+00
 0.0000000000000E+00
 0.0000000000000E+00
 0.0000000000000E+00
 0.0000000000000E+00
 0.0000000000000E+00
 0.0000000000000E+00
 0.0000000000000E+00
 0.0000000000000E+00
 0.0000000000000E+00
 0.0000000000000E+00
 0.0000000000000E+00
 0.0000000000000E+00
 0.0000000000000E+00
 0.0000000000000E+00
 0.0000000000000E+00
 0.0000000000000E+00
 0.0000000000000E+00
 0.0000000000000E+00
 0.0000000000000E+00
 0.0000000000000E+00
 0.0000000000000E+00
 0.0000000000000E+00
 0.0000000000000E+00
 0.0000000000000E+00
 0.0000000000000E+00
 0.0000000000000E+00
 0.0000000000000E+00
 0.0000000000000E+00
 0.0000000000000E+00
 0.0000000000000E+00
 0.0000000000000E+00
 0.0000000000000E+00
 0.0000000000000E+00
 0.0000000000000E+00
 0.0000000000000E+00
 0.0000000000000E+00
 0.0000000000000E+00
 0.0000000000000E+00
 0.0000000000000E+00
 0.0000000000000E+00
 0.0000000000000E+00
 0.0000000000000E+00
 0.0000000000000E+00
 0.0000000000000E+00
 0.0000000000000E+00
 0.0000000000000E+00
 0.0000000000000E+00
 0.0000000000000E+00
 0.0000000000000E+00
 0.0000000000000E+00
 0.0000000000000E+00
 0.0000000000000E+00
 0.0000000000000E+00
 0.0000000000000E+00
 0.0000000000000E+00
 0.0000000000000E+00
 0.0000000000000E+00
 0.0000000000000E+00
 0.0000000000000E+00
 0.0000000000000E+00
 0.0000000000000E+00
 0.0000000000000E+00
 0.0000000000000E+00
 0.0000000000000E+00
 0.0000000000000E+00
 0.0000000000000E+00
 0.0000000000000E+00
 0.0000000000000E+00
 0.0000000000000E+00
 0.0000000000000E+00
 0.0000000000000E+00
 0.0000000000000E+00
 0.0000000000000E+00
 0.0000000000000E+00
 0.0000000000000E+00
 0.0000000000000E+00
 0.0000000000000E+00
 0.0000000000000E+00
 0.0000000000000E+00
 0.0000000000000E+00
 0.0000000000000E+00
 0.0000000000000E+00
 0.0000000000000E+00
 0.0000000000000E+00
 0.0000000000000E+00
 0.0000000000000E+00
 0.0000000000000E+00
 0.0000000000000E+00
 0.0000000000000E+00
 0.0000000000000E+00
 0.0000000000000E+00
 0.0000000000000E+00
 0.0000000000000E+00
 0.0000000000000E+00
 0.0000000000000E+00
 0.0000000000000E+00
 0.0000000000000E+00
 0.0000000000000E+00
 0.0000000000000E+00
 0.0000000000000E+00
 0.0000000000000E+00
 0.0000000000000E+00
 0.0000000000000E+00
 0.0000000000000E+00
 0.0000000000000E+00
 0.0000000000000E+00
 0.0000000000000E+00
 0.0000000000000E+00
 0.0000000000000E+00
 0.0000000000000E+00
 0.0000000000000E+00
 0.0000000000000E+00
 0.0000000000000E+00
 0.0000000000000E+00
 0.0000000000000E+00
 0.0000000000000E+00
 0.0000000000000E+00
 0.0000000000000E+00
 0.0000000000000E+00
 0.0000000000000E+00
 0.0000000000000E+00
 0.0000000000000E+00
 0.0000000000000E+00
 0.0000000000000E+00
 0.0000000000000E+00
 0.0000000000000E+00
 0.0000000000000E+00
 0.0000000000000E+00
 0.0000000000000E+00
 0.0000000000000E+00
 0.0000000000000E+00
 0.0000000000000E+00
 0.0000000000000E+00
 0.0000000000000E+00
 0.0000000000000E+00
 0.0000000000000E+00
 0.0000000000000E+00
 0.0000000000000E+00
 0.0000000000000E+00
 0.0000000000000E+00
 0.0000000000000E+00
 0.0000000000000E+00
 0.0000000000000E+00
 0.0000000000000E+00
 0.0000000000000E+00
 0.0000000000000E+00
 0.0000000000000E+00
 0.0000000000000E+00
 0.0000000000000E+00
 0.0000000000000E+00
 0.0000000000000E+00
 0.0000000000000E+00
 0.0000000000000E+00
 0.0000000000000E+00
 0.0000000000000E+00
 0.0000000000000E+00
 0.0000000000000E+00
 0.0000000000000E+00
 0.0000000000000E+00
 0.0000000000000E+00
 0.0000000000000E+00
 0.0000000000000E+00
 0.0000000000000E+00
 0.0000000000000E+00
 0.0000000000000E+00
 0.0000000000000E+00
 0.0000000000000E+00
 0.0000000000000E+00
 0.0000000000000E+00
 0.0000000000000E+00
 0.0000000000000E+00
 0.0000000000000E+00
 0.0000000000000E+00
 0.0000000000000E+00
 0.0000000000000E+00
 0.0000000000000E+00
 0.0000000000000E+00
 0.0000000000000E+00
 0.0000000000000E+00
 0.0000000000000E+00
 0.0000000000000E+00
 0.0000000000000E+00
 0.0000000000000E+00
 0.0000000000000E+00
 0.0000000000000E+00
 0.0000000000000E+00
 0.0000000000000E+00
 0.0000000000000E+00
 0.0000000000000E+00
 0.0000000000000E+00
 0.0000000000000E+00
 0.0000000000000E+00
 0.0000000000000E+00
 0.0000000000000E+00
 0.0000000000000E+00
 0.0000000000000E+00
 0.0000000000000E+00
 0.0000000000000E+00
 0.0000000000000E+00
 0.0000000000000E+00
 0.0000000000000E+00
 0.0000000000000E+00
 0.0000000000000E+00
 0.0000000000000E+00
 0.0000000000000E+00
 0.0000000000000E+00
 0.0000000000000E+00
 0.0000000000000E+00
 0.0000000000000E+00
 0.0000000000000E+00
 0.0000000000000E+00
 0.0000000000000E+00
 0.0000000000000E+00
 0.0000000000000E+00
 0.0000000000000E+00
 0.0000000000000E+00
 0.0000000000000E+00
 0.0000000000000E+00
 0.0000000000000E+00
 0.0000000000000E+00
 0.0000000000000E+00
 0.0000000000000E+00
 0.0000000000000E+00
 0.0000000000000E+00
 0.0000000000000E+00
 0.0000000000000E+00
 0.0000000000000E+00
 0.0000000000000E+00
 0.0000000000000E+00
 0.0000000000000E+00
 0.0000000000000E+00
 0.0000000000000E+00
 0.0000000000000E+00
 0.0000000000000E+00
 0.0000000000000E+00
 0.0000000000000E+00
 0.0000000000000E+00
 0.0000000000000E+00
 0.0000000000000E+00
 0.0000000000000E+00
 0.0000000000000E+00
 0.0000000000000E+00
 0.0000000000000E+00
 0.0000000000000E+00
 0.0000000000000E+00
 0.0000000000000E+00
 0.0000000000000E+00
 0.0000000000000E+00
 0.0000000000000E+00
 0.0000000000000E+00
 0.0000000000000E+00
 0.0000000000000E+00
 0.0000000000000E+00
 0.0000000000000E+00
 0.0000000000000E+00
 0.0000000000000E+00
 0.0000000000000E+00
 0.0000000000000E+00
 0.0000000000000E+00
 0.0000000000000E+00
 0.0000000000000E+00
 0.0000000000000E+00
 0.0000000000000E+00
 0.0000000000000E+00
 0.0000000000000E+00
 0.0000000000000E+00
 0.0000000000000E+00
 0.0000000000000E+00
 0.0000000000000E+00
 0.0000000000000E+00
 0.0000000000000E+00
 0.0000000000000E+00
 0.0000000000000E+00
 0.0000000000000E+00
 0.0000000000000E+00
 0.0000000000000E+00
 0.0000000000000E+00
 0.0000000000000E+00
 0.0000000000000E+00
 0.0000000000000E+00
 0.0000000000000E+00
 0.0000000000000E+00
 0.0000000000000E+00
 0.0000000000000E+00
 0.0000000000000E+00
 0.0000000000000E+00
 0.0000000000000E+00
 0.0000000000000E+00
 0.0000000000000E+00
 0.0000000000000E+00
 0.0000000000000E+00
 0.0000000000000E+00
 0.0000000000000E+00
 0.0000000000000E+00
 0.0000000000000E+00
 0.0000000000000E+00
 0.0000000000000E+00
 0.0000000000000E+00
 0.0000000000000E+00
 0.0000000000000E+00
 0.0000000000000E+00
 0.0000000000000E+00
 0.0000000000000E+00
 0.0000000000000E+00
 0.0000000000000E+00
 0.0000000000000E+00
 0.0000000000000E+00
 0.0000000000000E+00
 0.0000000000000E+00
 0.0000000000000E+00
 0.0000000000000E+00
 0.0000000000000E+00
 0.0000000000000E+00
 0.0000000000000E+00
 0.0000000000000E+00
 0.0000000000000E+00
 0.0000000000000E+00
 0.0000000000000E+00
 0.0000000000000E+00
 0.0000000000000E+00
 0.0000000000000E+00
 0.0000000000000E+00
 0.0000000000000E+00
 0.0000000000000E+00
 0.0000000000000E+00
 0.0000000000000E+00
 0.0000000000000E+00
 0.0000000000000E+00
 0.0000000000000E+00
 0.0000000000000E+00
 0.0000000000000E+00
 0.0000000000000E+00
 0.0000000000000E+00
 0.0000000000000E+00
 0.0000000000000E+00
 0.0000000000000E+00
 0.0000000000000E+00
 0.0000000000000E+00
 0.0000000000000E+00
 0.0000000000000E+00
 0.0000000000000E+00
 0.0000000000000E+00
 0.0000000000000E+00
 0.0000000000000E+00
 0.0000000000000E+00
 0.0000000000000E+00
 0.0000000000000E+00
 0.0000000000000E+00
 0.0000000000000E+00
 0.0000000000000E+00
 0.0000000000000E+00
 0.0000000000000E+00
 0.0000000000000E+00
 0.0000000000000E+00
 0.0000000000000E+00
 0.0000000000000E+00
 0.0000000000000E+00
 0.0000000000000E+00
 0.0000000000000E+00
 0.0000000000000E+00
 0.0000000000000E+00
 0.0000000000000E+00
 0.0000000000000E+00
 0.0000000000000E+00
 0.0000000000000E+00
 0.0000000000000E+00
 0.0000000000000E+00
 0.0000000000000E+00
 0.0000000000000E+00
 0.0000000000000E+00
 0.0000000000000E+00
 0.0000000000000E+00
 0.0000000000000E+00
 0.0000000000000E+00
 0.0000000000000E+00
 0.0000000000000E+00
 0.0000000000000E+00
 0.0000000000000E+00
 0.0000000000000E+00
 0.0000000000000E+00
 0.0000000000000E+00
 0.0000000000000E+00
 0.0000000000000E+00
 0.0000000000000E+00
 0.0000000000000E+00
 0.0000000000000E+00
 0.0000000000000E+00
 0.0000000000000E+00
 0.0000000000000E+00
 0.0000000000000E+00
 0.0000000000000E+00
 0.0000000000000E+00
 0.0000000000000E+00
 0.0000000000000E+00
 0.0000000000000E+00
 0.0000000000000E+00
 0.0000000000000E+00
 0.0000000000000E+00
 0.0000000000000E+00
 0.0000000000000E+00
 0.0000000000000E+00
 0.0000000000000E+00
 0.0000000000000E+00
 0.0000000000000E+00
 0.0000000000000E+00
 0.0000000000000E+00
 0.0000000000000E+00
 0.0000000000000E+00
 0.0000000000000E+00
 0.0000000000000E+00
 0.0000000000000E+00
 0.0000000000000E+00
 0.0000000000000E+00
 0.0000000000000E+00
 0.0000000000000E+00
 0.0000000000000E+00
 0.0000000000000E+00
 0.0000000000000E+00
 0.0000000000000E+00
 0.0000000000000E+00
 0.0000000000000E+00
 0.0000000000000E+00
 0.0000000000000E+00
 0.0000000000000E+00
 0.0000000000000E+00
 0.0000000000000E+00
 0.0000000000000E+00
 0.0000000000000E+00
 0.0000000000000E+00
 0.0000000000000E+00
 0.0000000000000E+00
 0.0000000000000E+00
 0.0000000000000E+00
 0.0000000000000E+00
 0.0000000000000E+00
 0.0000000000000E+00
 0.0000000000000E+00
 0.0000000000000E+00
 0.0000000000000E+00
 0.0000000000000E+00
 0.0000000000000E+00
 0.0000000000000E+00
 0.0000000000000E+00
 0.0000000000000E+00
 0.0000000000000E+00
 0.0000000000000E+00
 0.0000000000000E+00
 0.0000000000000E+00
 0.0000000000000E+00
 0.0000000000000E+00
 0.0000000000000E+00
 0.0000000000000E+00
 0.0000000000000E+00
 0.0000000000000E+00
 0.0000000000000E+00
 0.0000000000000E+00
 0.0000000000000E+00
 0.0000000000000E+00
 0.0000000000000E+00
 0.0000000000000E+00
 0.0000000000000E+00
 0.0000000000000E+00
 0.0000000000000E+00
 0.0000000000000E+00
 0.0000000000000E+00
 0.0000000000000E+00
 0.0000000000000E+00
 0.0000000000000E+00
 0.0000000000000E+00
 0.0000000000000E+00
 0.0000000000000E+00
 0.0000000000000E+00
 0.0000000000000E+00
 0.0000000000000E+00
 0.0000000000000E+00
 0.0000000000000E+00
 0.0000000000000E+00
 0.0000000000000E+00
 0.0000000000000E+00
 0.0000000000000E+00
 0.0000000000000E+00
 0.0000000000000E+00
 0.0000000000000E+00
 0.0000000000000E+00
 0.0000000000000E+00
 0.0000000000000E+00
 0.0000000000000E+00
 0.0000000000000E+00
 0.0000000000000E+00
 0.0000000000000E+00
 0.0000000000000E+00
 0.0000000000000E+00
 0.0000000000000E+00
 0.0000000000000E+00
 0.0000000000000E+00
 0.0000000000000E+00
 0.0000000000000E+00
 0.0000000000000E+00
 0.0000000000000E+00
 0.0000000000000E+00
 0.0000000000000E+00
 0.0000000000000E+00
 0.0000000000000E+00
 0.0000000000000E+00
 0.0000000000000E+00
 0.0000000000000E+00
 0.0000000000000E+00
 0.0000000000000E+00
 0.0000000000000E+00
 0.0000000000000E+00
 0.0000000000000E+00
 0.0000000000000E+00
 0.0000000000000E+00
 0.0000000000000E+00
 0.0000000000000E+00
 0.0000000000000E+00
 0.0000000000000E+00
 0.0000000000000E+00
 0.0000000000000E+00
 0.0000000000000E+00
 0.0000000000000E+00
 0.0000000000000E+00
 0.0000000000000E+00
 0.0000000000000E+00
 0.0000000000000E+00
 0.0000000000000E+00
 0.0000000000000E+00
 0.0000000000000E+00
 0.0000000000000E+00
 0.0000000000000E+00
 0.0000000000000E+00
 0.0000000000000E+00
 0.0000000000000E+00
 0.0000000000000E+00
 0.0000000000000E+00
 0.0000000000000E+00
 0.0000000000000E+00
 0.0000000000000E+00
 0.0000000000000E+00
 0.0000000000000E+00
 0.0000000000000E+00
 0.0000000000000E+00
 0.0000000000000E+00
 0.0000000000000E+00
 0.0000000000000E+00
 0.0000000000000E+00
 0.0000000000000E+00
 0.0000000000000E+00
 0.0000000000000E+00
 0.0000000000000E+00
 0.0000000000000E+00
 0.0000000000000E+00
 0.0000000000000E+00
 0.0000000000000E+00
 0.0000000000000E+00
 0.0000000000000E+00
 0.0000000000000E+00
 0.0000000000000E+00
 0.0000000000000E+00
 0.0000000000000E+00
 0.0000000000000E+00
 0.0000000000000E+00
 0.0000000000000E+00
 0.0000000000000E+00
 0.0000000000000E+00
 0.0000000000000E+00
 0.0000000000000E+00
 0.0000000000000E+00
 0.0000000000000E+00
 0.0000000000000E+00
 0.0000000000000E+00
 0.0000000000000E+00
 0.0000000000000E+00
 0.0000000000000E+00
 0.0000000000000E+00
 0.0000000000000E+00
 0.0000000000000E+00
 0.0000000000000E+00
 0.0000000000000E+00
 0.0000000000000E+00
 0.0000000000000E+00
 0.0000000000000E+00
 0.0000000000000E+00
 0.0000000000000E+00
 0.0000000000000E+00
 0.0000000000000E+00
 0.0000000000000E+00
 0.0000000000000E+00
 0.0000000000000E+00
 0.0000000000000E+00
 0.0000000000000E+00
 0.0000000000000E+00
 0.0000000000000E+00
 0.0000000000000E+00
 0.0000000000000E+00
 0.0000000000000E+00
 0.0000000000000E+00
 0.0000000000000E+00
 0.0000000000000E+00
 0.0000000000000E+00
 0.0000000000000E+00
 0.0000000000000E+00
 0.0000000000000E+00
 0.0000000000000E+00
 0.0000000000000E+00
 0.0000000000000E+00
 0.0000000000000E+00
 0.0000000000000E+00
 0.0000000000000E+00
 0.0000000000000E+00
 0.0000000000000E+00
 0.0000000000000E+00
 0.0000000000000E+00
 0.0000000000000E+00
 0.0000000000000E+00
 0.0000000000000E+00
 0.0000000000000E+00
 0.0000000000000E+00
 0.0000000000000E+00
 0.0000000000000E+00
 0.0000000000000E+00
 0.0000000000000E+00
 0.0000000000000E+00
 0.0000000000000E+00
 0.0000000000000E+00
 0.0000000000000E+00
 0.0000000000000E+00
 0.0000000000000E+00
 0.0000000000000E+00
 0.0000000000000E+00
 0.0000000000000E+00
 0.0000000000000E+00
 0.0000000000000E+00
 0.0000000000000E+00
 0.0000000000000E+00
 0.0000000000000E+00
 0.0000000000000E+00
 0.0000000000000E+00
 0.0000000000000E+00
 0.0000000000000E+00
 0.0000000000000E+00
 0.0000000000000E+00
 0.0000000000000E+00
 0.0000000000000E+00
 0.0000000000000E+00
 0.0000000000000E+00
 0.0000000000000E+00
 0.0000000000000E+00
 0.0000000000000E+00
 0.0000000000000E+00
 0.0000000000000E+00
 0.0000000000000E+00
 0.0000000000000E+00
 0.0000000000000E+00
 0.0000000000000E+00
 0.0000000000000E+00
 0.0000000000000E+00
 0.0000000000000E+00
 0.0000000000000E+00
 0.0000000000000E+00
 0.0000000000000E+00
 0.0000000000000E+00
 0.0000000000000E+00
 0.0000000000000E+00
 0.0000000000000E+00
 0.0000000000000E+00
 0.0000000000000E+00
 0.0000000000000E+00
 0.0000000000000E+00
 0.0000000000000E+00
 0.0000000000000E+00
 0.0000000000000E+00
 0.0000000000000E+00
 0.0000000000000E+00
 0.0000000000000E+00
 0.0000000000000E+00
 0.0000000000000E+00
 0.0000000000000E+00
 0.0000000000000E+00
 0.0000000000000E+00
 0.0000000000000E+00
 0.0000000000000E+00
 0.0000000000000E+00
 0.0000000000000E+00
 0.0000000000000E+00
 0.0000000000000E+00
 0.0000000000000E+00
 0.0000000000000E+00
 0.0000000000000E+00
 0.0000000000000E+00
 0.0000000000000E+00
 0.0000000000000E+00
 0.0000000000000E+00
 0.0000000000000E+00
 0.0000000000000E+00
 0.0000000000000E+00
 0.0000000000000E+00
 0.0000000000000E+00
 0.0000000000000E+00
 0.0000000000000E+00
 0.0000000000000E+00
 0.0000000000000E+00
 0.0000000000000E+00
 0.0000000000000E+00
 0.0000000000000E+00
 0.0000000000000E+00
 0.0000000000000E+00
 0.0000000000000E+00
 0.0000000000000E+00
 0.0000000000000E+00
 0.0000000000000E+00
 0.0000000000000E+00
 0.0000000000000E+00
 0.0000000000000E+00
 0.0000000000000E+00
 0.0000000000000E+00
 0.0000000000000E+00
 0.0000000000000E+00
 0.0000000000000E+00
 0.0000000000000E+00
 0.0000000000000E+00
 0.0000000000000E+00
 0.0000000000000E+00
 0.0000000000000E+00
 0.0000000000000E+00
 0.0000000000000E+00
 0.0000000000000E+00
 0.0000000000000E+00
 0.0000000000000E+00
 0.0000000000000E+00
 0.0000000000000E+00
 0.0000000000000E+00
 0.0000000000000E+00
 0.0000000000000E+00
 0.0000000000000E+00
 0.0000000000000E+00
 0.0000000000000E+00
 0.0000000000000E+00
 0.0000000000000E+00
 0.0000000000000E+00
 0.0000000000000E+00
 0.0000000000000E+00
 0.0000000000000E+00
 0.0000000000000E+00
 0.0000000000000E+00
 0.0000000000000E+00
 0.0000000000000E+00
 0.0000000000000E+00
 0.0000000000000E+00
 0.0000000000000E+00
 0.0000000000000E+00
 0.0000000000000E+00
 0.0000000000000E+00
 0.0000000000000E+00
 0.0000000000000E+00
 0.0000000000000E+00
 0.0000000000000E+00
 0.0000000000000E+00
 0.0000000000000E+00
 0.0000000000000E+00
 0.0000000000000E+00
 0.0000000000000E+00
 0.0000000000000E+00
 0.0000000000000E+00
 0.0000000000000E+00
 0.0000000000000E+00
 0.0000000000000E+00
 0.0000000000000E+00
 0.0000000000000E+00
 0.0000000000000E+00
 0.0000000000000E+00
 0.0000000000000E+00
 0.0000000000000E+00
 0.0000000000000E+00
 0.0000000000000E+00
 0.0000000000000E+00
 0.0000000000000E+00
 0.0000000000000E+00
 0.0000000000000E+00
 0.0000000000000E+00
 0.0000000000000E+00
 0.0000000000000E+00
 0.0000000000000E+00
 0.0000000000000E+00
 0.0000000000000E+00
 0.0000000000000E+00
 0.0000000000000E+00
 0.0000000000000E+00
 0.0000000000000E+00
 0.0000000000000E+00
 0.0000000000000E+00
 0.0000000000000E+00
 0.0000000000000E+00
 0.0000000000000E+00
 0.0000000000000E+00
 0.0000000000000E+00
 0.0000000000000E+00
 0.0000000000000E+00
 0.0000000000000E+00
 0.0000000000000E+00
 0.0000000000000E+00
 0.0000000000000E+00
 0.0000000000000E+00
 0.0000000000000E+00
 0.0000000000000E+00
 0.0000000000000E+00
 0.0000000000000E+00
 0.0000000000000E+00
 0.0000000000000E+00
 0.0000000000000E+00
 0.0000000000000E+00
 0.0000000000000E+00
 0.0000000000000E+00
 0.0000000000000E+00
 0.0000000000000E+00
 0.0000000000000E+00
 0.0000000000000E+00
 0.0000000000000E+00
 0.0000000000000E+00
 0.0000000000000E+00
 0.0000000000000E+00
 0.0000000000000E+00
 0.0000000000000E+00
 0.0000000000000E+00
 0.0000000000000E+00
 0.0000000000000E+00
 0.0000000000000E+00
 0.0000000000000E+00
 0.0000000000000E+00
 0.0000000000000E+00
 0.0000000000000E+00
 0.0000000000000E+00
 0.0000000000000E+00
 0.0000000000000E+00
 0.0000000000000E+00
 0.0000000000000E+00
 0.0000000000000E+00
 0.0000000000000E+00
 0.0000000000000E+00
 0.0000000000000E+00
 0.0000000000000E+00
 0.0000000000000E+00
 0.0000000000000E+00
 0.0000000000000E+00
 0.0000000000000E+00
 0.0000000000000E+00
 0.0000000000000E+00
 0.0000000000000E+00
 0.0000000000000E+00
 0.0000000000000E+00
 0.0000000000000E+00
 0.0000000000000E+00
 0.0000000000000E+00
 0.0000000000000E+00
 0.0000000000000E+00
 0.0000000000000E+00
 0.0000000000000E+00
 0.0000000000000E+00
 0.0000000000000E+00
 0.0000000000000E+00
 0.0000000000000E+00
 0.0000000000000E+00
 0.0000000000000E+00
 0.0000000000000E+00
 0.0000000000000E+00
 0.0000000000000E+00
 0.0000000000000E+00
 0.0000000000000E+00
 0.0000000000000E+00
 0.0000000000000E+00
 0.0000000000000E+00
 0.0000000000000E+00
 0.0000000000000E+00
 0.0000000000000E+00
 0.0000000000000E+00
 0.0000000000000E+00
 0.0000000000000E+00
 0.0000000000000E+00
 0.0000000000000E+00
 0.0000000000000E+00
 0.0000000000000E+00
 0.0000000000000E+00
 0.0000000000000E+00
 0.0000000000000E+00
 0.0000000000000E+00
 0.0000000000000E+00
 0.0000000000000E+00
 0.0000000000000E+00
 0.0000000000000E+00
 0.0000000000000E+00
 0.0000000000000E+00
 0.0000000000000E+00
 0.0000000000000E+00
 0.0000000000000E+00
 0.0000000000000E+00
 0.0000000000000E+00
 0.0000000000000E+00
 0.0000000000000E+00
 0.0000000000000E+00
 0.0000000000000E+00
 0.0000000000000E+00
 0.0000000000000E+00
 0.0000000000000E+00
 0.0000000000000E+00
 0.0000000000000E+00
 0.0000000000000E+00
 0.0000000000000E+00
 0.0000000000000E+00
 0.0000000000000E+00
 0.0000000000000E+00
 0.0000000000000E+00
 0.0000000000000E+00
 0.0000000000000E+00
 0.0000000000000E+00
 0.0000000000000E+00
 0.0000000000000E+00
 0.0000000000000E+00
 0.0000000000000E+00
 0.0000000000000E+00
 0.0000000000000E+00
 0.0000000000000E+00
 0.0000000000000E+00
 0.0000000000000E+00
 0.0000000000000E+00
 0.0000000000000E+00
 0.0000000000000E+00
 0.0000000000000E+00
 0.0000000000000E+00
 0.0000000000000E+00
 0.0000000000000E+00
 0.0000000000000E+00
 0.0000000000000E+00
 0.0000000000000E+00
 0.0000000000000E+00
 0.0000000000000E+00
 0.0000000000000E+00
 0.0000000000000E+00
 0.0000000000000E+00
 0.0000000000000E+00
 0.0000000000000E+00
 0.0000000000000E+00
 0.0000000000000E+00
 0.0000000000000E+00
 0.0000000000000E+00
 0.0000000000000E+00
 0.0000000000000E+00
 0.0000000000000E+00
 0.0000000000000E+00
 0.0000000000000E+00
 0.0000000000000E+00
 0.0000000000000E+00
 0.0000000000000E+00
 0.0000000000000E+00
 0.0000000000000E+00
 0.0000000000000E+00
 0.0000000000000E+00
 0.0000000000000E+00
 0.0000000000000E+00
 0.0000000000000E+00
 0.0000000000000E+00
 0.0000000000000E+00
 0.0000000000000E+00
 0.0000000000000E+00
 0.0000000000000E+00
 0.0000000000000E+00
 0.0000000000000E+00
 0.0000000000000E+00
 0.0000000000000E+00
 0.0000000000000E+00
 0.0000000000000E+00
 0.0000000000000E+00
 0.0000000000000E+00
 0.0000000000000E+00
 0.0000000000000E+00
 0.0000000000000E+00
 0.0000000000000E+00
 0.0000000000000E+00
 0.0000000000000E+00
 0.0000000000000E+00
 0.0000000000000E+00
 0.0000000000000E+00
 0.0000000000000E+00
 0.0000000000000E+00
 0.0000000000000E+00
 0.0000000000000E+00
 0.0000000000000E+00
 0.0000000000000E+00
 0.0000000000000E+00
 0.0000000000000E+00
 0.0000000000000E+00
 0.0000000000000E+00
 0.0000000000000E+00
 0.0000000000000E+00
 0.0000000000000E+00
 0.0000000000000E+00
 0.0000000000000E+00
 0.0000000000000E+00
 0.0000000000000E+00
 0.0000000000000E+00
 0.0000000000000E+00
 0.0000000000000E+00
 0.0000000000000E+00
 0.0000000000000E+00
 0.0000000000000E+00
 0.0000000000000E+00
 0.0000000000000E+00
 0.0000000000000E+00
 0.0000000000000E+00
 0.0000000000000E+00
 0.0000000000000E+00
 0.0000000000000E+00
 0.0000000000000E+00
 0.0000000000000E+00
 0.0000000000000E+00
 0.0000000000000E+00
 0.0000000000000E+00
 0.0000000000000E+00
 0.0000000000000E+00
 0.0000000000000E+00
 0.0000000000000E+00
 0.0000000000000E+00
 0.0000000000000E+00
 0.0000000000000E+00
 0.0000000000000E+00
 0.0000000000000E+00
 0.0000000000000E+00
 0.0000000000000E+00
 0.0000000000000E+00
 0.0000000000000E+00
 0.0000000000000E+00
 0.0000000000000E+00
 0.0000000000000E+00
 0.0000000000000E+00
 0.0000000000000E+00
 0.0000000000000E+00
 0.0000000000000E+00
 0.0000000000000E+00
 0.0000000000000E+00
 0.0000000000000E+00
 0.0000000000000E+00
 0.0000000000000E+00
 0.0000000000000E+00
 0.0000000000000E+00
 0.0000000000000E+00
 0.0000000000000E+00
 0.0000000000000E+00
 0.0000000000000E+00
 0.0000000000000E+00
 0.0000000000000E+00
 0.0000000000000E+00
 0.0000000000000E+00
 0.0000000000000E+00
 0.0000000000000E+00
 0.0000000000000E+00
 0.0000000000000E+00
 0.0000000000000E+00
 0.0000000000000E+00
 0.0000000000000E+00
 0.0000000000000E+00
 0.0000000000000E+00
 0.0000000000000E+00
 0.0000000000000E+00
 0.0000000000000E+00
 0.0000000000000E+00
 0.0000000000000E+00
 0.0000000000000E+00
 0.0000000000000E+00
 0.0000000000000E+00
 0.0000000000000E+00
 0.0000000000000E+00
 0.0000000000000E+00
 0.0000000000000E+00
 0.0000000000000E+00
 0.0000000000000E+00
 0.0000000000000E+00
 0.0000000000000E+00
 0.0000000000000E+00
 0.0000000000000E+00
 0.0000000000000E+00
 0.0000000000000E+00
 0.0000000000000E+00
 0.0000000000000E+00
 0.0000000000000E+00
 0.0000000000000E+00
 0.0000000000000E+00
 0.0000000000000E+00
 0.0000000000000E+00
 0.0000000000000E+00
 0.0000000000000E+00
 0.0000000000000E+00
 0.0000000000000E+00
 0.0000000000000E+00
 0.0000000000000E+00
 0.0000000000000E+00
 0.0000000000000E+00
 0.0000000000000E+00
 0.0000000000000E+00
 0.0000000000000E+00
 0.0000000000000E+00
 0.0000000000000E+00
 0.0000000000000E+00
 0.0000000000000E+00
 0.0000000000000E+00
 0.0000000000000E+00
 0.0000000000000E+00
 0.0000000000000E+00
 0.0000000000000E+00
 0.0000000000000E+00
 0.0000000000000E+00
 0.0000000000000E+00
 0.0000000000000E+00
 0.0000000000000E+00
 0.0000000000000E+00
 0.0000000000000E+00
 0.0000000000000E+00
 0.0000000000000E+00
 0.0000000000000E+00
 0.0000000000000E+00
 0.0000000000000E+00
 0.0000000000000E+00
 0.0000000000000E+00
 0.0000000000000E+00
 0.0000000000000E+00
 0.0000000000000E+00
 0.0000000000000E+00
 0.0000000000000E+00
 0.0000000000000E+00
 0.0000000000000E+00
 0.0000000000000E+00
 0.0000000000000E+00
 0.0000000000000E+00
 0.0000000000000E+00
 0.0000000000000E+00
 0.0000000000000E+00
 0.0000000000000E+00
 0.0000000000000E+00
 0.0000000000000E+00
 0.0000000000000E+00
 0.0000000000000E+00
 0.0000000000000E+00
 0.0000000000000E+00
 0.0000000000000E+00
 0.0000000000000E+00
 0.0000000000000E+00
 0.0000000000000E+00
 0.0000000000000E+00
 0.0000000000000E+00
 0.0000000000000E+00
 0.0000000000000E+00
 0.0000000000000E+00
 0.0000000000000E+00
 0.0000000000000E+00
 0.0000000000000E+00
 0.0000000000000E+00
 0.0000000000000E+00
 0.0000000000000E+00
 0.0000000000000E+00
 0.0000000000000E+00
 0.0000000000000E+00
 0.0000000000000E+00
 0.0000000000000E+00
 0.0000000000000E+00
 0.0000000000000E+00
 0.0000000000000E+00
 0.0000000000000E+00
 0.0000000000000E+00
 0.0000000000000E+00
 0.0000000000000E+00
 0.0000000000000E+00
 0.0000000000000E+00
 0.0000000000000E+00
 0.0000000000000E+00
 0.0000000000000E+00
 0.0000000000000E+00
 0.0000000000000E+00
 0.0000000000000E+00
 0.0000000000000E+00
 0.0000000000000E+00
 0.0000000000000E+00
 0.0000000000000E+00
 0.0000000000000E+00
 0.0000000000000E+00
 0.0000000000000E+00
 0.0000000000000E+00
 0.0000000000000E+00
 0.0000000000000E+00
 0.0000000000000E+00
 0.0000000000000E+00
 0.0000000000000E+00
 0.0000000000000E+00
 0.0000000000000E+00
 0.0000000000000E+00
 0.0000000000000E+00
 0.0000000000000E+00
 0.0000000000000E+00
 0.0000000000000E+00
 0.0000000000000E+00
 0.0000000000000E+00
 0.0000000000000E+00
 0.0000000000000E+00
 0.0000000000000E+00
 0.0000000000000E+00
 0.0000000000000E+00
 0.0000000000000E+00
 0.0000000000000E+00
 0.0000000000000E+00
 0.0000000000000E+00
 0.0000000000000E+00
 0.0000000000000E+00
 0.0000000000000E+00
 0.0000000000000E+00
 0.0000000000000E+00
 0.0000000000000E+00
 0.0000000000000E+00
 0.0000000000000E+00
 0.0000000000000E+00
 0.0000000000000E+00
 0.0000000000000E+00
 0.0000000000000E+00
 0.0000000000000E+00
 0.0000000000000E+00
 0.0000000000000E+00
 0.0000000000000E+00
 0.0000000000000E+00
 0.0000000000000E+00
 0.0000000000000E+00
 0.0000000000000E+00
 0.0000000000000E+00
 0.0000000000000E+00
 0.0000000000000E+00
 0.0000000000000E+00
 0.0000000000000E+00
 0.0000000000000E+00
 0.0000000000000E+00
 0.0000000000000E+00
 0.0000000000000E+00
 0.0000000000000E+00
 0.0000000000000E+00
 0.0000000000000E+00
 0.0000000000000E+00
 0.0000000000000E+00
 0.0000000000000E+00
 0.0000000000000E+00
 0.0000000000000E+00
 0.0000000000000E+00
 0.0000000000000E+00
 0.0000000000000E+00
 0.0000000000000E+00
 0.0000000000000E+00
 0.0000000000000E+00
 0.0000000000000E+00
 0.0000000000000E+00
 0.0000000000000E+00
 0.0000000000000E+00
 0.0000000000000E+00
 0.0000000000000E+00
 0.0000000000000E+00
 0.0000000000000E+00
 0.0000000000000E+00
 0.0000000000000E+00
 0.0000000000000E+00
 0.0000000000000E+00
 0.0000000000000E+00
 0.0000000000000E+00
 0.0000000000000E+00
 0.0000000000000E+00
 0.0000000000000E+00
 0.0000000000000E+00
 0.0000000000000E+00
 0.0000000000000E+00
 0.0000000000000E+00
 0.0000000000000E+00
 0.0000000000000E+00
 0.0000000000000E+00
 0.0000000000000E+00
 0.0000000000000E+00
 0.0000000000000E+00
 0.0000000000000E+00
 0.0000000000000E+00
 0.0000000000000E+00
 0.0000000000000E+00
 0.0000000000000E+00
 0.0000000000000E+00
 0.0000000000000E+00
 0.0000000000000E+00
 0.0000000000000E+00
 0.0000000000000E+00
 0.0000000000000E+00
 0.0000000000000E+00
 0.0000000000000E+00
 0.0000000000000E+00
 0.0000000000000E+00
 0.0000000000000E+00
 0.0000000000000E+00
 0.0000000000000E+00
 0.0000000000000E+00
 0.0000000000000E+00
 0.0000000000000E+00
 0.0000000000000E+00
 0.0000000000000E+00
 0.0000000000000E+00
 0.0000000000000E+00
 0.0000000000000E+00
 0.0000000000000E+00
 0.0000000000000E+00
 0.0000000000000E+00
 0.0000000000000E+00
 0.0000000000000E+00
 0.0000000000000E+00
 0.0000000000000E+00
 0.0000000000000E+00
 0.0000000000000E+00
 0.0000000000000E+00
 0.0000000000000E+00
 0.0000000000000E+00
 0.0000000000000E+00
 0.0000000000000E+00
 0.0000000000000E+00
 0.0000000000000E+00
 0.0000000000000E+00
 0.0000000000000E+00
 0.0000000000000E+00
 0.0000000000000E+00
 0.0000000000000E+00
 0.0000000000000E+00
 0.0000000000000E+00
 0.0000000000000E+00
 0.0000000000000E+00
 0.0000000000000E+00
 0.0000000000000E+00
 0.0000000000000E+00
 0.0000000000000E+00
 0.0000000000000E+00
 0.0000000000000E+00
 0.0000000000000E+00
 0.0000000000000E+00
 0.0000000000000E+00
 0.0000000000000E+00
 0.0000000000000E+00
 0.0000000000000E+00
 0.0000000000000E+00
 0.0000000000000E+00
 0.0000000000000E+00
 0.0000000000000E+00
 0.0000000000000E+00
 0.0000000000000E+00
 0.0000000000000E+00
 0.0000000000000E+00
 0.0000000000000E+00
 0.0000000000000E+00
 0.0000000000000E+00
 0.0000000000000E+00
 0.0000000000000E+00
 0.0000000000000E+00
 0.0000000000000E+00
 0.0000000000000E+00
 0.0000000000000E+00
 0.0000000000000E+00
 0.0000000000000E+00
 0.0000000000000E+00
 0.0000000000000E+00
 0.0000000000000E+00
 0.0000000000000E+00
 0.0000000000000E+00
 0.0000000000000E+00
 0.0000000000000E+00
 0.0000000000000E+00
 0.0000000000000E+00
 0.0000000000000E+00
 0.0000000000000E+00
 0.0000000000000E+00
 0.0000000000000E+00
 0.0000000000000E+00
 0.0000000000000E+00
 0.0000000000000E+00
 0.0000000000000E+00
 0.0000000000000E+00
 0.0000000000000E+00
 0.0000000000000E+00
 0.0000000000000E+00
 0.0000000000000E+00
 0.0000000000000E+00
 0.0000000000000E+00
 0.0000000000000E+00
 0.0000000000000E+00
 0.0000000000000E+00
 0.0000000000000E+00
 0.0000000000000E+00
 0.0000000000000E+00
 0.0000000000000E+00
 0.0000000000000E+00
 0.0000000000000E+00
 0.0000000000000E+00
 0.0000000000000E+00
 0.0000000000000E+00
 0.0000000000000E+00
 0.0000000000000E+00
 0.0000000000000E+00
 0.0000000000000E+00
 0.0000000000000E+00
 0.0000000000000E+00
 0.0000000000000E+00
 0.0000000000000E+00
 0.0000000000000E+00
 0.0000000000000E+00
 0.0000000000000E+00
 0.0000000000000E+00
 0.0000000000000E+00
 0.0000000000000E+00
 0.0000000000000E+00
 0.0000000000000E+00
 0.0000000000000E+00
 0.0000000000000E+00
 0.0000000000000E+00
 0.0000000000000E+00
 0.0000000000000E+00
 0.0000000000000E+00
 0.0000000000000E+00
 0.0000000000000E+00
 0.0000000000000E+00
 0.0000000000000E+00
 0.0000000000000E+00
 0.0000000000000E+00
 0.0000000000000E+00
 0.0000000000000E+00
 0.0000000000000E+00
 0.0000000000000E+00
 0.0000000000000E+00
 0.0000000000000E+00
 0.0000000000000E+00
 0.0000000000000E+00
 0.0000000000000E+00
 0.0000000000000E+00
 0.0000000000000E+00
 0.0000000000000E+00
 0.0000000000000E+00
 0.0000000000000E+00
 0.0000000000000E+00
 0.0000000000000E+00
 0.0000000000000E+00
 0.0000000000000E+00
 0.0000000000000E+00
 0.0000000000000E+00
 0.0000000000000E+00
 0.0000000000000E+00
 0.0000000000000E+00
 0.0000000000000E+00
 0.0000000000000E+00
 0.0000000000000E+00
 0.0000000000000E+00
 0.0000000000000E+00
 0.0000000000000E+00
 0.0000000000000E+00
 0.0000000000000E+00
 0.0000000000000E+00
 0.0000000000000E+00
 0.0000000000000E+00
 0.0000000000000E+00
 0.0000000000000E+00
 0.0000000000000E+00
 0.0000000000000E+00
 0.0000000000000E+00
 0.0000000000000E+00
 0.0000000000000E+00
 0.0000000000000E+00
 0.0000000000000E+00
 0.0000000000000E+00
 0.0000000000000E+00
 0.0000000000000E+00
 0.0000000000000E+00
 0.0000000000000E+00
 0.0000000000000E+00
 0.0000000000000E+00
 0.0000000000000E+00
 0.0000000000000E+00
 0.0000000000000E+00
 0.0000000000000E+00
 0.0000000000000E+00
 0.0000000000000E+00
 0.0000000000000E+00
 0.0000000000000E+00
 0.0000000000000E+00
 0.0000000000000E+00
 0.0000000000000E+00
 0.0000000000000E+00
 0.0000000000000E+00
 0.0000000000000E+00
 0.0000000000000E+00
 0.0000000000000E+00
 0.0000000000000E+00
 0.0000000000000E+00
 0.0000000000000E+00
 0.0000000000000E+00
 0.0000000000000E+00
 0.0000000000000E+00
 0.0000000000000E+00
 0.0000000000000E+00
 0.0000000000000E+00
 0.0000000000000E+00
 0.0000000000000E+00
 0.0000000000000E+00
 0.0000000000000E+00
 0.0000000000000E+00
 0.0000000000000E+00
 0.0000000000000E+00
 0.0000000000000E+00
 0.0000000000000E+00
 0.0000000000000E+00
 0.0000000000000E+00
 0.0000000000000E+00
 0.0000000000000E+00
 0.0000000000000E+00
 0.0000000000000E+00
 0.0000000000000E+00
 0.0000000000000E+00
 0.0000000000000E+00
 0.0000000000000E+00
 0.0000000000000E+00
 0.0000000000000E+00
 0.0000000000000E+00
 0.0000000000000E+00
 0.0000000000000E+00
 0.0000000000000E+00
 0.0000000000000E+00
 0.0000000000000E+00
 0.0000000000000E+00
 0.0000000000000E+00
 0.0000000000000E+00
 0.0000000000000E+00
 0.0000000000000E+00
 0.0000000000000E+00
 0.0000000000000E+00
 0.0000000000000E+00
 0.0000000000000E+00
 0.0000000000000E+00
 0.0000000000000E+00
 0.0000000000000E+00
 0.0000000000000E+00
 0.0000000000000E+00
 0.0000000000000E+00
 0.0000000000000E+00
 0.0000000000000E+00
 0.0000000000000E+00
 0.0000000000000E+00
 0.0000000000000E+00
 0.0000000000000E+00
 0.0000000000000E+00
 0.0000000000000E+00
 0.0000000000000E+00
 0.0000000000000E+00
 0.0000000000000E+00
 0.0000000000000E+00
 0.0000000000000E+00
 0.0000000000000E+00
 0.0000000000000E+00
 0.0000000000000E+00
 0.0000000000000E+00
 0.0000000000000E+00
 0.0000000000000E+00
 0.0000000000000E+00
 0.0000000000000E+00
 0.0000000000000E+00
 0.0000000000000E+00
 0.0000000000000E+00
 0.0000000000000E+00
 0.0000000000000E+00
 0.0000000000000E+00
 0.0000000000000E+00
 0.0000000000000E+00
 0.0000000000000E+00
 0.0000000000000E+00
 0.0000000000000E+00
 0.0000000000000E+00
 0.0000000000000E+00
 0.0000000000000E+00
 0.0000000000000E+00
 0.0000000000000E+00
 0.0000000000000E+00
 0.0000000000000E+00
 0.0000000000000E+00
 0.0000000000000E+00
 0.0000000000000E+00
 0.0000000000000E+00
 0.0000000000000E+00
 0.0000000000000E+00
 0.0000000000000E+00
 0.0000000000000E+00
 0.0000000000000E+00
 0.0000000000000E+00
 0.0000000000000E+00
 0.0000000000000E+00
 0.0000000000000E+00
 0.0000000000000E+00
 0.0000000000000E+00
 0.0000000000000E+00
 0.0000000000000E+00
 0.0000000000000E+00
 0.0000000000000E+00
 0.0000000000000E+00
 0.0000000000000E+00
 0.0000000000000E+00
 0.0000000000000E+00
 0.0000000000000E+00
 0.0000000000000E+00
 0.0000000000000E+00
 0.0000000000000E+00
 0.0000000000000E+00
 0.0000000000000E+00
 0.0000000000000E+00
 0.0000000000000E+00
 0.0000000000000E+00
 0.0000000000000E+00
 0.0000000000000E+00
 0.0000000000000E+00
 0.0000000000000E+00
 0.0000000000000E+00
 0.0000000000000E+00
 0.0000000000000E+00
 0.0000000000000E+00
 0.0000000000000E+00
 0.0000000000000E+00
 0.0000000000000E+00
 0.0000000000000E+00
 0.0000000000000E+00
 0.0000000000000E+00
 0.0000000000000E+00
 0.0000000000000E+00
 0.0000000000000E+00
 0.0000000000000E+00
 0.0000000000000E+00
 0.0000000000000E+00
 0.0000000000000E+00
 0.0000000000000E+00
 0.0000000000000E+00
 0.0000000000000E+00
 0.0000000000000E+00
 0.0000000000000E+00
 0.0000000000000E+00
 0.0000000000000E+00
 0.0000000000000E+00
 0.0000000000000E+00
 0.0000000000000E+00
 0.0000000000000E+00
 0.0000000000000E+00
 0.0000000000000E+00
 0.0000000000000E+00
 0.0000000000000E+00
 0.0000000000000E+00
 0.0000000000000E+00
 0.0000000000000E+00
 0.0000000000000E+00
 0.0000000000000E+00
 0.0000000000000E+00
 0.0000000000000E+00
 0.0000000000000E+00
 0.0000000000000E+00
 0.0000000000000E+00
 0.0000000000000E+00
 0.0000000000000E+00
 0.0000000000000E+00
 0.0000000000000E+00
 0.0000000000000E+00
 0.0000000000000E+00
 0.0000000000000E+00
 0.0000000000000E+00
 0.0000000000000E+00
 0.0000000000000E+00
 0.0000000000000E+00
 0.0000000000000E+00
 0.0000000000000E+00
 0.0000000000000E+00
 0.0000000000000E+00
 0.0000000000000E+00
 0.0000000000000E+00
 0.0000000000000E+00
 0.0000000000000E+00
 0.0000000000000E+00
 0.0000000000000E+00
 0.0000000000000E+00
 0.0000000000000E+00
 0.0000000000000E+00
 0.0000000000000E+00
 0.0000000000000E+00
 0.0000000000000E+00
 0.0000000000000E+00
 0.0000000000000E+00
 0.0000000000000E+00
 0.0000000000000E+00
 0.0000000000000E+00
 0.0000000000000E+00
 0.0000000000000E+00
 0.0000000000000E+00
 0.0000000000000E+00
 0.0000000000000E+00
 0.0000000000000E+00
 0.0000000000000E+00
 0.0000000000000E+00
 0.0000000000000E+00
 0.0000000000000E+00
 0.0000000000000E+00
 0.0000000000000E+00
 0.0000000000000E+00
 0.0000000000000E+00
 0.0000000000000E+00
 0.0000000000000E+00
 0.0000000000000E+00
 0.0000000000000E+00
 0.0000000000000E+00
 0.0000000000000E+00
 0.0000000000000E+00
 0.0000000000000E+00
 0.0000000000000E+00
 0.0000000000000E+00
 0.0000000000000E+00
 0.0000000000000E+00
 0.0000000000000E+00
 0.0000000000000E+00
 0.0000000000000E+00
 0.0000000000000E+00
 0.0000000000000E+00
 0.0000000000000E+00
 0.0000000000000E+00
 0.0000000000000E+00
 0.0000000000000E+00
 0.0000000000000E+00
 0.0000000000000E+00
 0.0000000000000E+00
 0.0000000000000E+00
 0.0000000000000E+00
 0.0000000000000E+00
 0.0000000000000E+00
 0.0000000000000E+00
 0.0000000000000E+00
 0.0000000000000E+00
 0.0000000000000E+00
 0.0000000000000E+00
 0.0000000000000E+00
 0.0000000000000E+00
 0.0000000000000E+00
 0.0000000000000E+00
 0.0000000000000E+00
 0.0000000000000E+00
 0.0000000000000E+00
 0.0000000000000E+00
 0.0000000000000E+00
 0.0000000000000E+00
 0.0000000000000E+00
 0.0000000000000E+00
 0.0000000000000E+00
 0.0000000000000E+00
 0.0000000000000E+00
 0.0000000000000E+00
 0.0000000000000E+00
 0.0000000000000E+00
 0.0000000000000E+00
 0.0000000000000E+00
 0.0000000000000E+00
 0.0000000000000E+00
 0.0000000000000E+00
 0.0000000000000E+00
 0.0000000000000E+00
 0.0000000000000E+00
 0.0000000000000E+00
 0.0000000000000E+00
 0.0000000000000E+00
 0.0000000000000E+00
 0.0000000000000E+00
 0.0000000000000E+00
 0.0000000000000E+00
 0.0000000000000E+00
 0.0000000000000E+00
 0.0000000000000E+00
 0.0000000000000E+00
 0.0000000000000E+00
 0.0000000000000E+00
 0.0000000000000E+00
 0.0000000000000E+00
 0.0000000000000E+00
 0.0000000000000E+00
 0.0000000000000E+00
 0.0000000000000E+00
 0.0000000000000E+00
 0.0000000000000E+00
 0.0000000000000E+00
 0.0000000000000E+00
 0.0000000000000E+00
 0.0000000000000E+00
 0.0000000000000E+00
 0.0000000000000E+00
 0.0000000000000E+00
 0.0000000000000E+00
 0.0000000000000E+00
 0.0000000000000E+00
 0.0000000000000E+00
 0.0000000000000E+00
 0.0000000000000E+00
 0.0000000000000E+00
 0.0000000000000E+00
 0.0000000000000E+00
 0.0000000000000E+00
 0.0000000000000E+00
 0.0000000000000E+00
 0.0000000000000E+00
 0.0000000000000E+00
 0.0000000000000E+00
 0.0000000000000E+00
 0.0000000000000E+00
 0.0000000000000E+00
 0.0000000000000E+00
 0.0000000000000E+00
 0.0000000000000E+00
 0.0000000000000E+00
 0.0000000000000E+00
 0.0000000000000E+00
 0.0000000000000E+00
 0.0000000000000E+00
 0.0000000000000E+00
 0.0000000000000E+00
 0.0000000000000E+00
 0.0000000000000E+00
 0.0000000000000E+00
 0.0000000000000E+00
 0.0000000000000E+00
 0.0000000000000E+00
 0.0000000000000E+00
 0.0000000000000E+00
 0.0000000000000E+00
 0.0000000000000E+00
 0.0000000000000E+00
 0.0000000000000E+00
 0.0000000000000E+00
 0.0000000000000E+00
 0.0000000000000E+00
 0.0000000000000E+00
 0.0000000000000E+00
 0.0000000000000E+00
 0.0000000000000E+00
 0.0000000000000E+00
 0.0000000000000E+00
 0.0000000000000E+00
 0.0000000000000E+00
 0.0000000000000E+00
 0.0000000000000E+00
 0.0000000000000E+00
 0.0000000000000E+00
 0.0000000000000E+00
 0.0000000000000E+00
 0.0000000000000E+00
 0.0000000000000E+00
 0.0000000000000E+00
 0.0000000000000E+00
 0.0000000000000E+00
 0.0000000000000E+00
 0.0000000000000E+00
 0.0000000000000E+00
 0.0000000000000E+00
 0.0000000000000E+00
 0.0000000000000E+00
 0.0000000000000E+00
 0.0000000000000E+00
 0.0000000000000E+00
 0.0000000000000E+00
 0.0000000000000E+00
 0.0000000000000E+00
 0.0000000000000E+00
 0.0000000000000E+00
 0.0000000000000E+00
 0.0000000000000E+00
 0.0000000000000E+00
 0.0000000000000E+00
 0.0000000000000E+00
 0.0000000000000E+00
 0.0000000000000E+00
 0.0000000000000E+00
 0.0000000000000E+00
 0.0000000000000E+00
 0.0000000000000E+00
 0.0000000000000E+00
 0.0000000000000E+00
 0.0000000000000E+00
 0.0000000000000E+00
 0.0000000000000E+00
 0.0000000000000E+00
 0.0000000000000E+00
 0.0000000000000E+00
 0.0000000000000E+00
 0.0000000000000E+00
 0.0000000000000E+00
 0.0000000000000E+00
 0.0000000000000E+00
 0.0000000000000E+00
 0.0000000000000E+00
 0.0000000000000E+00
 0.0000000000000E+00
 0.0000000000000E+00
 0.0000000000000E+00
 0.0000000000000E+00
 0.0000000000000E+00
 0.0000000000000E+00
 0.0000000000000E+00
 0.0000000000000E+00
 0.0000000000000E+00
 0.0000000000000E+00
 0.0000000000000E+00
 0.0000000000000E+00
 0.0000000000000E+00
 0.0000000000000E+00
 0.0000000000000E+00
 0.0000000000000E+00
 0.0000000000000E+00
 0.0000000000000E+00
 0.0000000000000E+00
 0.0000000000000E+00
 0.0000000000000E+00
 0.0000000000000E+00
 0.0000000000000E+00
 0.0000000000000E+00
 0.0000000000000E+00
 0.0000000000000E+00
 0.0000000000000E+00
 0.0000000000000E+00
 0.0000000000000E+00
 0.0000000000000E+00
 0.0000000000000E+00
 0.0000000000000E+00
 0.0000000000000E+00
 0.0000000000000E+00
 0.0000000000000E+00
 0.0000000000000E+00
 0.0000000000000E+00
 0.0000000000000E+00
 0.0000000000000E+00
 0.0000000000000E+00
 0.0000000000000E+00
 0.0000000000000E+00
 0.0000000000000E+00
 0.0000000000000E+00
 0.0000000000000E+00
 0.0000000000000E+00
 0.0000000000000E+00
 0.0000000000000E+00
 0.0000000000000E+00
 0.0000000000000E+00
 0.0000000000000E+00
 0.0000000000000E+00
 0.0000000000000E+00
 0.0000000000000E+00
 0.0000000000000E+00
 0.0000000000000E+00
 0.0000000000000E+00
 0.0000000000000E+00
 0.0000000000000E+00
 0.0000000000000E+00
 0.0000000000000E+00
 0.0000000000000E+00
 0.0000000000000E+00
 0.0000000000000E+00
 0.0000000000000E+00
 0.0000000000000E+00
 0.0000000000000E+00
 0.0000000000000E+00
 0.0000000000000E+00
 0.0000000000000E+00
 0.0000000000000E+00
 0.0000000000000E+00
 0.0000000000000E+00
 0.0000000000000E+00
 0.0000000000000E+00
 0.0000000000000E+00
 0.0000000000000E+00
 0.0000000000000E+00
 0.0000000000000E+00
 0.0000000000000E+00
 0.0000000000000E+00
 0.0000000000000E+00
 0.0000000000000E+00
 0.0000000000000E+00
 0.0000000000000E+00
 0.0000000000000E+00
 0.0000000000000E+00
 0.0000000000000E+00
 0.0000000000000E+00
 0.0000000000000E+00
 0.0000000000000E+00
 0.0000000000000E+00
 0.0000000000000E+00
 0.0000000000000E+00
 0.0000000000000E+00
 0.0000000000000E+00
 0.0000000000000E+00
 0.0000000000000E+00
 0.0000000000000E+00
 0.0000000000000E+00
 0.0000000000000E+00
 0.0000000000000E+00
 0.0000000000000E+00
 0.0000000000000E+00
 0.0000000000000E+00
 0.0000000000000E+00
 0.0000000000000E+00
 0.0000000000000E+00
 0.0000000000000E+00
 0.0000000000000E+00
 0.0000000000000E+00
 0.0000000000000E+00
 0.0000000000000E+00
 0.0000000000000E+00
 0.0000000000000E+00
 0.0000000000000E+00
 0.0000000000000E+00
 0.0000000000000E+00
 0.0000000000000E+00
 0.0000000000000E+00
 0.0000000000000E+00
 0.0000000000000E+00
 0.0000000000000E+00
 0.0000000000000E+00
 0.0000000000000E+00
 0.0000000000000E+00
 0.0000000000000E+00
 0.0000000000000E+00
 0.0000000000000E+00
 0.0000000000000E+00
 0.0000000000000E+00
 0.0000000000000E+00
 0.0000000000000E+00
 0.0000000000000E+00
 0.0000000000000E+00
 0.0000000000000E+00
 0.0000000000000E+00
 0.0000000000000E+00
 0.0000000000000E+00
 0.0000000000000E+00
 0.0000000000000E+00
 0.0000000000000E+00
 0.0000000000000E+00
 0.0000000000000E+00
 0.0000000000000E+00
 0.0000000000000E+00
 0.0000000000000E+00
 0.0000000000000E+00
 0.0000000000000E+00
 0.0000000000000E+00
 0.0000000000000E+00
 0.0000000000000E+00
 0.0000000000000E+00
 0.0000000000000E+00
 0.0000000000000E+00
 0.0000000000000E+00
 0.0000000000000E+00
 0.0000000000000E+00
 0.0000000000000E+00
 0.0000000000000E+00
 0.0000000000000E+00
 0.0000000000000E+00
 0.0000000000000E+00
 0.0000000000000E+00
 0.0000000000000E+00
 0.0000000000000E+00
 0.0000000000000E+00
 0.0000000000000E+00
 0.0000000000000E+00
 0.0000000000000E+00
 0.0000000000000E+00
 0.0000000000000E+00
 0.0000000000000E+00
 0.0000000000000E+00
 0.0000000000000E+00
 0.0000000000000E+00
 0.0000000000000E+00
 0.0000000000000E+00
 0.0000000000000E+00
 0.0000000000000E+00
 0.0000000000000E+00
 0.0000000000000E+00
 0.0000000000000E+00
 0.0000000000000E+00
 0.0000000000000E+00
 0.0000000000000E+00
 0.0000000000000E+00
 0.0000000000000E+00
 0.0000000000000E+00
 0.0000000000000E+00
 0.0000000000000E+00
 0.0000000000000E+00
 0.0000000000000E+00
 0.0000000000000E+00
 0.0000000000000E+00
 0.0000000000000E+00
 0.0000000000000E+00
 0.0000000000000E+00
 0.0000000000000E+00
 0.0000000000000E+00
 0.0000000000000E+00
 0.0000000000000E+00
 0.0000000000000E+00
 0.0000000000000E+00
 0.0000000000000E+00
 0.0000000000000E+00
 0.0000000000000E+00
 0.0000000000000E+00
 0.0000000000000E+00
 0.0000000000000E+00
 0.0000000000000E+00
 0.0000000000000E+00
 0.0000000000000E+00
 0.0000000000000E+00
 0.0000000000000E+00
 0.0000000000000E+00
 0.0000000000000E+00
 0.0000000000000E+00
 0.0000000000000E+00
 0.0000000000000E+00
 0.0000000000000E+00
 0.0000000000000E+00
 0.0000000000000E+00
 0.0000000000000E+00
 0.0000000000000E+00
 0.0000000000000E+00
 0.0000000000000E+00
 0.0000000000000E+00
 0.0000000000000E+00
 0.0000000000000E+00
 0.0000000000000E+00
 0.0000000000000E+00
 0.0000000000000E+00
 0.0000000000000E+00
 0.0000000000000E+00
 0.0000000000000E+00
 0.0000000000000E+00
 0.0000000000000E+00
 0.0000000000000E+00
 0.0000000000000E+00
 0.0000000000000E+00
 0.0000000000000E+00
 0.0000000000000E+00
 0.0000000000000E+00
 0.0000000000000E+00
 0.0000000000000E+00
 0.0000000000000E+00
 0.0000000000000E+00
 0.0000000000000E+00
 0.0000000000000E+00
 0.0000000000000E+00
 0.0000000000000E+00
 0.0000000000000E+00
 0.0000000000000E+00
 0.0000000000000E+00
 0.0000000000000E+00
 0.0000000000000E+00
 0.0000000000000E+00
 0.0000000000000E+00
 0.0000000000000E+00
 0.0000000000000E+00
 0.0000000000000E+00
 0.0000000000000E+00
 0.0000000000000E+00
 0.0000000000000E+00
 0.0000000000000E+00
 0.0000000000000E+00
 0.0000000000000E+00
 0.0000000000000E+00
 0.0000000000000E+00
 0.0000000000000E+00
 0.0000000000000E+00
 0.0000000000000E+00
 0.0000000000000E+00
 0.0000000000000E+00
 0.0000000000000E+00
 0.0000000000000E+00
 0.0000000000000E+00
 0.0000000000000E+00
 0.0000000000000E+00
 0.0000000000000E+00
 0.0000000000000E+00
 0.0000000000000E+00
 0.0000000000000E+00
 0.0000000000000E+00
 0.0000000000000E+00
 0.0000000000000E+00
 0.0000000000000E+00
 0.0000000000000E+00
 0.0000000000000E+00
 0.0000000000000E+00
 0.0000000000000E+00
 0.0000000000000E+00
 0.0000000000000E+00
 0.0000000000000E+00
 0.0000000000000E+00
 0.0000000000000E+00
 0.0000000000000E+00
 0.0000000000000E+00
 0.0000000000000E+00
 0.0000000000000E+00
 0.0000000000000E+00
 0.0000000000000E+00
 0.0000000000000E+00
 0.0000000000000E+00
 0.0000000000000E+00
 0.0000000000000E+00
 0.0000000000000E+00
 0.0000000000000E+00
 0.0000000000000E+00
 0.0000000000000E+00
 0.0000000000000E+00
 0.0000000000000E+00
 0.0000000000000E+00
 0.0000000000000E+00
 0.0000000000000E+00
 0.0000000000000E+00
 0.0000000000000E+00
 0.0000000000000E+00
 0.0000000000000E+00
 0.0000000000000E+00
 0.0000000000000E+00
 0.0000000000000E+00
 0.0000000000000E+00
 0.0000000000000E+00
 0.0000000000000E+00
 0.0000000000000E+00
 0.0000000000000E+00
 0.0000000000000E+00
 0.0000000000000E+00
 0.0000000000000E+00
 0.0000000000000E+00
 0.0000000000000E+00
 0.0000000000000E+00
 0.0000000000000E+00
 0.0000000000000E+00
 0.0000000000000E+00
 0.0000000000000E+00
 0.0000000000000E+00
 0.0000000000000E+00
 0.0000000000000E+00
 0.0000000000000E+00
 0.0000000000000E+00
 0.0000000000000E+00
 0.0000000000000E+00
 0.0000000000000E+00
 0.0000000000000E+00
 0.0000000000000E+00
 0.0000000000000E+00
 0.0000000000000E+00
 0.0000000000000E+00
 0.0000000000000E+00
 0.0000000000000E+00
 0.0000000000000E+00
 0.0000000000000E+00
 0.0000000000000E+00
 0.0000000000000E+00
 0.0000000000000E+00
 0.0000000000000E+00
 0.0000000000000E+00
 0.0000000000000E+00
 0.0000000000000E+00
 0.0000000000000E+00
 0.0000000000000E+00
 0.0000000000000E+00
 0.0000000000000E+00
 0.0000000000000E+00
 0.0000000000000E+00
 0.0000000000000E+00
 0.0000000000000E+00
 0.0000000000000E+00
 0.0000000000000E+00
 0.0000000000000E+00
 0.0000000000000E+00
 0.0000000000000E+00
 0.0000000000000E+00
 0.0000000000000E+00
 0.0000000000000E+00
 0.0000000000000E+00
 0.0000000000000E+00
 0.0000000000000E+00
 0.0000000000000E+00
 0.0000000000000E+00
 0.0000000000000E+00
 0.0000000000000E+00
 0.0000000000000E+00
 0.0000000000000E+00
 0.0000000000000E+00
 0.0000000000000E+00
 0.0000000000000E+00
 0.0000000000000E+00
 0.0000000000000E+00
 0.0000000000000E+00
 0.0000000000000E+00
 0.0000000000000E+00
 0.0000000000000E+00
 0.0000000000000E+00
 0.0000000000000E+00
 0.0000000000000E+00
 0.0000000000000E+00
 0.0000000000000E+00
 0.0000000000000E+00
 0.0000000000000E+00
 0.0000000000000E+00
 0.0000000000000E+00
 0.0000000000000E+00
 0.0000000000000E+00
 0.0000000000000E+00
 0.0000000000000E+00
 0.0000000000000E+00
 0.0000000000000E+00
 0.0000000000000E+00
 0.0000000000000E+00
 0.0000000000000E+00
 0.0000000000000E+00
 0.0000000000000E+00
 0.0000000000000E+00
 0.0000000000000E+00
 0.0000000000000E+00
 0.0000000000000E+00
 0.0000000000000E+00
 0.0000000000000E+00
 0.0000000000000E+00
 0.0000000000000E+00
 0.0000000000000E+00
 0.0000000000000E+00
 0.0000000000000E+00
 0.0000000000000E+00
 0.0000000000000E+00
 0.0000000000000E+00
 0.0000000000000E+00
 0.0000000000000E+00
 0.0000000000000E+00
 0.0000000000000E+00
 0.0000000000000E+00
 0.0000000000000E+00
 0.0000000000000E+00
 0.0000000000000E+00
 0.0000000000000E+00
 0.0000000000000E+00
 0.0000000000000E+00
 0.0000000000000E+00
 0.0000000000000E+00
 0.0000000000000E+00
 0.0000000000000E+00
 0.0000000000000E+00
 0.0000000000000E+00
 0.0000000000000E+00
 0.0000000000000E+00
 0.0000000000000E+00
 0.0000000000000E+00
 0.0000000000000E+00
 0.0000000000000E+00
 0.0000000000000E+00
 0.0000000000000E+00
 0.0000000000000E+00
 0.0000000000000E+00
 0.0000000000000E+00
 0.0000000000000E+00
 0.0000000000000E+00
 0.0000000000000E+00
 0.0000000000000E+00
 0.0000000000000E+00
 0.0000000000000E+00
 0.0000000000000E+00
 0.0000000000000E+00
 0.0000000000000E+00
 0.0000000000000E+00
 0.0000000000000E+00
 0.0000000000000E+00
 0.0000000000000E+00
 0.0000000000000E+00
 0.0000000000000E+00
 0.0000000000000E+00
 0.0000000000000E+00
 0.0000000000000E+00
 0.0000000000000E+00
 0.0000000000000E+00
 0.0000000000000E+00
 0.0000000000000E+00
 0.0000000000000E+00
 0.0000000000000E+00
 0.0000000000000E+00
 0.0000000000000E+00
 0.0000000000000E+00
 0.0000000000000E+00
 0.0000000000000E+00
 0.0000000000000E+00
 0.0000000000000E+00
 0.0000000000000E+00
 0.0000000000000E+00
 0.0000000000000E+00
 0.0000000000000E+00
 0.0000000000000E+00
 0.0000000000000E+00
 0.0000000000000E+00
 0.0000000000000E+00
 0.0000000000000E+00
 0.0000000000000E+00
 0.0000000000000E+00
 0.0000000000000E+00
 0.0000000000000E+00
 0.0000000000000E+00
 0.0000000000000E+00
 0.0000000000000E+00
 0.0000000000000E+00
 0.0000000000000E+00
 0.0000000000000E+00
 0.0000000000000E+00
 0.0000000000000E+00
 0.0000000000000E+00
 0.0000000000000E+00
 0.0000000000000E+00
 0.0000000000000E+00
 0.0000000000000E+00
 0.0000000000000E+00
 0.0000000000000E+00
 0.0000000000000E+00
 0.0000000000000E+00
 0.0000000000000E+00
 0.0000000000000E+00
 0.0000000000000E+00
 0.0000000000000E+00
 0.0000000000000E+00
 0.0000000000000E+00
 0.0000000000000E+00
 0.0000000000000E+00
 0.0000000000000E+00
 0.0000000000000E+00
 0.0000000000000E+00
 0.0000000000000E+00
 0.0000000000000E+00
 0.0000000000000E+00
 0.0000000000000E+00
 0.0000000000000E+00
 0.0000000000000E+00
 0.0000000000000E+00
 0.0000000000000E+00
 0.0000000000000E+00
 0.0000000000000E+00
 0.0000000000000E+00
 0.0000000000000E+00
 0.0000000000000E+00
 0.0000000000000E+00
 0.0000000000000E+00
 0.0000000000000E+00
 0.0000000000000E+00
 0.0000000000000E+00
 0.0000000000000E+00
 0.0000000000000E+00
 0.0000000000000E+00
 0.0000000000000E+00
 0.0000000000000E+00
 0.0000000000000E+00
 0.0000000000000E+00
 0.0000000000000E+00
 0.0000000000000E+00
 0.0000000000000E+00
 0.0000000000000E+00
 0.0000000000000E+00
 0.0000000000000E+00
 0.0000000000000E+00
 0.0000000000000E+00
 0.0000000000000E+00
 0.0000000000000E+00
 0.0000000000000E+00
 0.0000000000000E+00
 0.0000000000000E+00
 0.0000000000000E+00
 0.0000000000000E+00
 0.0000000000000E+00
 0.0000000000000E+00
 0.0000000000000E+00
 0.0000000000000E+00
 0.0000000000000E+00
 0.0000000000000E+00
 0.0000000000000E+00
 0.0000000000000E+00
 0.0000000000000E+00
 0.0000000000000E+00
 0.0000000000000E+00
 0.0000000000000E+00
 0.0000000000000E+00
 0.0000000000000E+00
 0.0000000000000E+00
 0.0000000000000E+00
 0.0000000000000E+00
 0.0000000000000E+00
 0.0000000000000E+00
 0.0000000000000E+00
 0.0000000000000E+00
 0.0000000000000E+00
 0.0000000000000E+00
 0.0000000000000E+00
 0.0000000000000E+00
 0.0000000000000E+00
 0.0000000000000E+00
 0.0000000000000E+00
 0.0000000000000E+00
 0.0000000000000E+00
 0.0000000000000E+00
 0.0000000000000E+00
 0.0000000000000E+00
 0.0000000000000E+00
 0.0000000000000E+00
 0.0000000000000E+00
 0.0000000000000E+00
 0.0000000000000E+00
 0.0000000000000E+00
 0.0000000000000E+00
 0.0000000000000E+00
 0.0000000000000E+00
 0.0000000000000E+00
 0.0000000000000E+00
 0.0000000000000E+00
 0.0000000000000E+00
 0.0000000000000E+00
 0.0000000000000E+00
 0.0000000000000E+00
 0.0000000000000E+00
 0.0000000000000E+00
 0.0000000000000E+00
 0.0000000000000E+00
 0.0000000000000E+00
 0.0000000000000E+00
 0.0000000000000E+00
 0.0000000000000E+00
 0.0000000000000E+00
 0.0000000000000E+00
 0.0000000000000E+00
 0.0000000000000E+00
 0.0000000000000E+00
 0.0000000000000E+00
 0.0000000000000E+00
 0.0000000000000E+00
 0.0000000000000E+00
 0.0000000000000E+00
 0.0000000000000E+00
 0.0000000000000E+00
 0.0000000000000E+00
 0.0000000000000E+00
 0.0000000000000E+00
 0.0000000000000E+00
 0.0000000000000E+00
 0.0000000000000E+00
 0.0000000000000E+00
 0.0000000000000E+00
 0.0000000000000E+00
 0.0000000000000E+00
 0.0000000000000E+00
 0.0000000000000E+00
 0.0000000000000E+00
 0.0000000000000E+00
 0.0000000000000E+00
 0.0000000000000E+00
 0.0000000000000E+00
 0.0000000000000E+00
 0.0000000000000E+00
 0.0000000000000E+00
 0.0000000000000E+00
 0.0000000000000E+00
 0.0000000000000E+00
 0.0000000000000E+00
 0.0000000000000E+00
 0.0000000000000E+00
 0.0000000000000E+00
 0.0000000000000E+00
 0.0000000000000E+00
 0.0000000000000E+00
 0.0000000000000E+00
 0.0000000000000E+00
 0.0000000000000E+00
 0.0000000000000E+00
 0.0000000000000E+00
 0.0000000000000E+00
 0.0000000000000E+00
 0.0000000000000E+00
 0.0000000000000E+00
 0.0000000000000E+00
 0.0000000000000E+00
 0.0000000000000E+00
 0.0000000000000E+00
 0.0000000000000E+00
 0.0000000000000E+00
 0.0000000000000E+00
 0.0000000000000E+00
 0.0000000000000E+00
 0.0000000000000E+00
 0.0000000000000E+00
 0.0000000000000E+00
 0.0000000000000E+00
 0.0000000000000E+00
 0.0000000000000E+00
 0.0000000000000E+00
 0.0000000000000E+00
 0.0000000000000E+00
 0.0000000000000E+00
 0.0000000000000E+00
 0.0000000000000E+00
 0.0000000000000E+00
 0.0000000000000E+00
 0.0000000000000E+00
 0.0000000000000E+00
 0.0000000000000E+00
 0.0000000000000E+00
 0.0000000000000E+00
 0.0000000000000E+00
 0.0000000000000E+00
 0.0000000000000E+00
 0.0000000000000E+00
 0.0000000000000E+00
 0.0000000000000E+00
 0.0000000000000E+00
 0.0000000000000E+00
 0.0000000000000E+00
 0.0000000000000E+00
 0.0000000000000E+00
 0.0000000000000E+00
 0.0000000000000E+00
 0.0000000000000E+00
 0.0000000000000E+00
 0.0000000000000E+00
 0.0000000000000E+00
 0.0000000000000E+00
 0.0000000000000E+00
 0.0000000000000E+00
 0.0000000000000E+00
 0.0000000000000E+00
 0.0000000000000E+00
 0.0000000000000E+00
 0.0000000000000E+00
 0.0000000000000E+00
 0.0000000000000E+00
 0.0000000000000E+00
 0.0000000000000E+00
 0.0000000000000E+00
 0.0000000000000E+00
 0.0000000000000E+00
 0.0000000000000E+00
 0.0000000000000E+00
 0.0000000000000E+00
 0.0000000000000E+00
 0.0000000000000E+00
 0.0000000000000E+00
 0.0000000000000E+00
 0.0000000000000E+00
 0.0000000000000E+00
 0.0000000000000E+00
 0.0000000000000E+00
 0.0000000000000E+00
 0.0000000000000E+00
 0.0000000000000E+00
 0.0000000000000E+00
 0.0000000000000E+00
 0.0000000000000E+00
 0.0000000000000E+00
 0.0000000000000E+00
 0.0000000000000E+00
 0.0000000000000E+00
 0.0000000000000E+00
 0.0000000000000E+00
 0.0000000000000E+00
 0.0000000000000E+00
 0.0000000000000E+00
 0.0000000000000E+00
 0.0000000000000E+00
 0.0000000000000E+00
 0.0000000000000E+00
 0.0000000000000E+00
 0.0000000000000E+00
 0.0000000000000E+00
 0.0000000000000E+00
 0.0000000000000E+00
 0.0000000000000E+00
 0.0000000000000E+00
 0.0000000000000E+00
 0.0000000000000E+00
 0.0000000000000E+00
 0.0000000000000E+00
 0.0000000000000E+00
 0.0000000000000E+00
 0.0000000000000E+00
 0.0000000000000E+00
 0.0000000000000E+00
 0.0000000000000E+00
 0.0000000000000E+00
 0.0000000000000E+00
 0.0000000000000E+00
 0.0000000000000E+00
 0.0000000000000E+00
 0.0000000000000E+00
 0.0000000000000E+00
 0.0000000000000E+00
 0.0000000000000E+00
 0.0000000000000E+00
 0.0000000000000E+00
 0.0000000000000E+00
 0.0000000000000E+00
 0.0000000000000E+00
 0.0000000000000E+00
 0.0000000000000E+00
 0.0000000000000E+00
 0.0000000000000E+00
 0.0000000000000E+00
 0.0000000000000E+00
 0.0000000000000E+00
 0.0000000000000E+00
 0.0000000000000E+00
 0.0000000000000E+00
 0.0000000000000E+00
 0.0000000000000E+00
 0.0000000000000E+00
 0.0000000000000E+00
 0.0000000000000E+00
 0.0000000000000E+00
 0.0000000000000E+00
 0.0000000000000E+00
 0.0000000000000E+00
 0.0000000000000E+00
 0.0000000000000E+00
 0.0000000000000E+00
 0.0000000000000E+00
 0.0000000000000E+00
 0.0000000000000E+00
 0.0000000000000E+00
 0.0000000000000E+00
 0.0000000000000E+00
 0.0000000000000E+00
 0.0000000000000E+00
 0.0000000000000E+00
 0.0000000000000E+00
 0.0000000000000E+00
 0.0000000000000E+00
 0.0000000000000E+00
 0.0000000000000E+00
 0.0000000000000E+00
 0.0000000000000E+00
 0.0000000000000E+00
 0.0000000000000E+00
 0.0000000000000E+00
 0.0000000000000E+00
 0.0000000000000E+00
 0.0000000000000E+00
 0.0000000000000E+00
 0.0000000000000E+00
 0.0000000000000E+00
 0.0000000000000E+00
 0.0000000000000E+00
 0.0000000000000E+00
 0.0000000000000E+00
 0.0000000000000E+00
 0.0000000000000E+00
 0.0000000000000E+00
 0.0000000000000E+00
 0.0000000000000E+00
 0.0000000000000E+00
 0.0000000000000E+00
 0.0000000000000E+00
 0.0000000000000E+00
 0.0000000000000E+00
 0.0000000000000E+00
 0.0000000000000E+00
 0.0000000000000E+00
 0.0000000000000E+00
 0.0000000000000E+00
 0.0000000000000E+00
 0.0000000000000E+00
 0.0000000000000E+00
 0.0000000000000E+00
 0.0000000000000E+00
 0.0000000000000E+00
 0.0000000000000E+00
 0.0000000000000E+00
 0.0000000000000E+00
 0.0000000000000E+00
 0.0000000000000E+00
 0.0000000000000E+00
 0.0000000000000E+00
 0.0000000000000E+00
 0.0000000000000E+00
 0.0000000000000E+00
 0.0000000000000E+00
 0.0000000000000E+00
 0.0000000000000E+00
 0.0000000000000E+00
 0.0000000000000E+00
 0.0000000000000E+00
 0.0000000000000E+00
 0.0000000000000E+00
 0.0000000000000E+00
 0.0000000000000E+00
 0.0000000000000E+00
 0.0000000000000E+00
 0.0000000000000E+00
 0.0000000000000E+00
 0.0000000000000E+00
 0.0000000000000E+00
 0.0000000000000E+00
 0.0000000000000E+00
 0.0000000000000E+00
 0.0000000000000E+00
 0.0000000000000E+00
 0.0000000000000E+00
 0.0000000000000E+00
 0.0000000000000E+00
 0.0000000000000E+00
 0.0000000000000E+00
 0.0000000000000E+00
 0.0000000000000E+00
 0.0000000000000E+00
 0.0000000000000E+00
 0.0000000000000E+00
 0.0000000000000E+00
 0.0000000000000E+00
 0.0000000000000E+00
 0.0000000000000E+00
 0.0000000000000E+00
 0.0000000000000E+00
 0.0000000000000E+00
 0.0000000000000E+00
 0.0000000000000E+00
 0.0000000000000E+00
 0.0000000000000E+00
 0.0000000000000E+00
 0.0000000000000E+00
 0.0000000000000E+00
 0.0000000000000E+00
 0.0000000000000E+00
 0.0000000000000E+00
 0.0000000000000E+00
 0.0000000000000E+00
 0.0000000000000E+00
 0.0000000000000E+00
 0.0000000000000E+00
 0.0000000000000E+00
 0.0000000000000E+00
 0.0000000000000E+00
 0.0000000000000E+00
 0.0000000000000E+00
 0.0000000000000E+00
 0.0000000000000E+00
 0.0000000000000E+00
 0.0000000000000E+00
 0.0000000000000E+00
 0.0000000000000E+00
 0.0000000000000E+00
 0.0000000000000E+00
 0.0000000000000E+00
 0.0000000000000E+00
 0.0000000000000E+00
 0.0000000000000E+00
 0.0000000000000E+00
 0.0000000000000E+00
 0.0000000000000E+00
 0.0000000000000E+00
 0.0000000000000E+00
 0.0000000000000E+00
 0.0000000000000E+00
 0.0000000000000E+00
 0.0000000000000E+00
 0.0000000000000E+00
 0.0000000000000E+00
 0.0000000000000E+00
 0.0000000000000E+00
 0.0000000000000E+00
 0.0000000000000E+00
 0.0000000000000E+00
 0.0000000000000E+00
 0.0000000000000E+00
 0.0000000000000E+00
 0.0000000000000E+00
 0.0000000000000E+00
 0.0000000000000E+00
 0.0000000000000E+00
 0.0000000000000E+00
 0.0000000000000E+00
 0.0000000000000E+00
 0.0000000000000E+00
 0.0000000000000E+00
 0.0000000000000E+00
 0.0000000000000E+00
 0.0000000000000E+00
 0.0000000000000E+00
 0.0000000000000E+00
 0.0000000000000E+00
 0.0000000000000E+00
 0.0000000000000E+00
 0.0000000000000E+00
 0.0000000000000E+00
 0.0000000000000E+00
 0.0000000000000E+00
 0.0000000000000E+00
 0.0000000000000E+00
 0.0000000000000E+00
 0.0000000000000E+00
 0.0000000000000E+00
 0.0000000000000E+00
 0.0000000000000E+00
 0.0000000000000E+00
 0.0000000000000E+00
 0.0000000000000E+00
 0.0000000000000E+00
 0.0000000000000E+00
 0.0000000000000E+00
 0.0000000000000E+00
 0.0000000000000E+00
 0.0000000000000E+00
 0.0000000000000E+00
 0.0000000000000E+00
 0.0000000000000E+00
 0.0000000000000E+00
 0.0000000000000E+00
 0.0000000000000E+00
 0.0000000000000E+00
 0.0000000000000E+00
 0.0000000000000E+00
 0.0000000000000E+00
 0.0000000000000E+00
 0.0000000000000E+00
 0.0000000000000E+00
 0.0000000000000E+00
 0.0000000000000E+00
 0.0000000000000E+00
 0.0000000000000E+00
 0.0000000000000E+00
 0.0000000000000E+00
 0.0000000000000E+00
 0.0000000000000E+00
 0.0000000000000E+00
 0.0000000000000E+00
 0.0000000000000E+00
 0.0000000000000E+00
 0.0000000000000E+00
 0.0000000000000E+00
 0.0000000000000E+00
 0.0000000000000E+00
 0.0000000000000E+00
 0.0000000000000E+00
 0.0000000000000E+00
 0.0000000000000E+00
 0.0000000000000E+00
 0.0000000000000E+00
 0.0000000000000E+00
 0.0000000000000E+00
 0.0000000000000E+00
 0.0000000000000E+00
 0.0000000000000E+00
 0.0000000000000E+00
 0.0000000000000E+00
 0.0000000000000E+00
 0.0000000000000E+00
 0.0000000000000E+00
 0.0000000000000E+00
 0.0000000000000E+00
 0.0000000000000E+00
 0.0000000000000E+00
 0.0000000000000E+00
 0.0000000000000E+00
 0.0000000000000E+00
 0.0000000000000E+00
 0.0000000000000E+00
 0.0000000000000E+00
 0.0000000000000E+00
 0.0000000000000E+00
 0.0000000000000E+00
 0.0000000000000E+00
 0.0000000000000E+00
 0.0000000000000E+00
 0.0000000000000E+00
 0.0000000000000E+00
 0.0000000000000E+00
 0.0000000000000E+00
 0.0000000000000E+00
 0.0000000000000E+00
 0.0000000000000E+00
 0.0000000000000E+00
 0.0000000000000E+00
 0.0000000000000E+00
 0.0000000000000E+00
 0.0000000000000E+00
 0.0000000000000E+00
 0.0000000000000E+00
 0.0000000000000E+00
 0.0000000000000E+00
 0.0000000000000E+00
 0.0000000000000E+00
 0.0000000000000E+00
 0.0000000000000E+00
 0.0000000000000E+00
 0.0000000000000E+00
 0.0000000000000E+00
 0.0000000000000E+00
 0.0000000000000E+00
 0.0000000000000E+00
 0.0000000000000E+00
 0.0000000000000E+00
 0.0000000000000E+00
 0.0000000000000E+00
 0.0000000000000E+00
 0.0000000000000E+00
 0.0000000000000E+00
 0.0000000000000E+00
 0.0000000000000E+00
 0.0000000000000E+00
 0.0000000000000E+00
 0.0000000000000E+00
 0.0000000000000E+00
 0.0000000000000E+00
 0.0000000000000E+00
 0.0000000000000E+00
 0.0000000000000E+00
 0.0000000000000E+00
 0.0000000000000E+00
 0.0000000000000E+00
 0.0000000000000E+00
 0.0000000000000E+00
 0.0000000000000E+00
 0.0000000000000E+00
 0.0000000000000E+00
 0.0000000000000E+00
 0.0000000000000E+00
 0.0000000000000E+00
 0.0000000000000E+00
 0.0000000000000E+00
 0.0000000000000E+00
 0.0000000000000E+00
 0.0000000000000E+00
 0.0000000000000E+00
 0.0000000000000E+00
 0.0000000000000E+00
 0.0000000000000E+00
 0.0000000000000E+00
 0.0000000000000E+00
 0.0000000000000E+00
 0.0000000000000E+00
 0.0000000000000E+00
 0.0000000000000E+00
 0.0000000000000E+00
 0.0000000000000E+00
 0.0000000000000E+00
 0.0000000000000E+00
 0.0000000000000E+00
 0.0000000000000E+00
 0.0000000000000E+00
 0.0000000000000E+00
 0.0000000000000E+00
 0.0000000000000E+00
 0.0000000000000E+00
 0.0000000000000E+00
 0.0000000000000E+00
 0.0000000000000E+00
 0.0000000000000E+00
 0.0000000000000E+00
 0.0000000000000E+00
 0.0000000000000E+00
 0.0000000000000E+00
 0.0000000000000E+00
 0.0000000000000E+00
 0.0000000000000E+00
 0.0000000000000E+00
 0.0000000000000E+00
 0.0000000000000E+00
 0.0000000000000E+00
 0.0000000000000E+00
 0.0000000000000E+00
 0.0000000000000E+00
 0.0000000000000E+00
 0.0000000000000E+00
 0.0000000000000E+00
 0.0000000000000E+00
 0.0000000000000E+00
 0.0000000000000E+00
 0.0000000000000E+00
 0.0000000000000E+00
 0.0000000000000E+00
 0.0000000000000E+00
 0.0000000000000E+00
 0.0000000000000E+00
 0.0000000000000E+00
 0.0000000000000E+00
 0.0000000000000E+00
 0.0000000000000E+00
 0.0000000000000E+00
 0.0000000000000E+00
 0.0000000000000E+00
 0.0000000000000E+00
 0.0000000000000E+00
 0.0000000000000E+00
 0.0000000000000E+00
 0.0000000000000E+00
 0.0000000000000E+00
 0.0000000000000E+00
 0.0000000000000E+00
 0.0000000000000E+00
 0.0000000000000E+00
 0.0000000000000E+00
 0.0000000000000E+00
 0.0000000000000E+00
 0.0000000000000E+00
 0.0000000000000E+00
 0.0000000000000E+00
 0.0000000000000E+00
 0.0000000000000E+00
 0.0000000000000E+00
 0.0000000000000E+00
 0.0000000000000E+00
 0.0000000000000E+00
 0.0000000000000E+00
 0.0000000000000E+00
 0.0000000000000E+00
 0.0000000000000E+00
 0.0000000000000E+00
 0.0000000000000E+00
 0.0000000000000E+00
 0.0000000000000E+00
 0.0000000000000E+00
 0.0000000000000E+00
 0.0000000000000E+00
 0.0000000000000E+00
 0.0000000000000E+00
 0.0000000000000E+00
 0.0000000000000E+00
 0.0000000000000E+00
 0.0000000000000E+00
 0.0000000000000E+00
 0.0000000000000E+00
 0.0000000000000E+00
 0.0000000000000E+00
 0.0000000000000E+00
 0.0000000000000E+00
 0.0000000000000E+00
 0.0000000000000E+00
 0.0000000000000E+00
 0.0000000000000E+00
 0.0000000000000E+00
 0.0000000000000E+00
 0.0000000000000E+00
 0.0000000000000E+00
 0.0000000000000E+00
 0.0000000000000E+00
 0.0000000000000E+00
 0.0000000000000E+00
 0.0000000000000E+00
 0.0000000000000E+00
 0.0000000000000E+00
 0.0000000000000E+00
 0.0000000000000E+00
 0.0000000000000E+00
 0.0000000000000E+00
 0.0000000000000E+00
 0.0000000000000E+00
 0.0000000000000E+00
 0.0000000000000E+00
 0.0000000000000E+00
 0.0000000000000E+00
 0.0000000000000E+00
 0.0000000000000E+00
 0.0000000000000E+00
 0.0000000000000E+00
 0.0000000000000E+00
 0.0000000000000E+00
 0.0000000000000E+00
 0.0000000000000E+00
 0.0000000000000E+00
 0.0000000000000E+00
 0.0000000000000E+00
 0.0000000000000E+00
 0.0000000000000E+00
 0.0000000000000E+00
 0.0000000000000E+00
 0.0000000000000E+00
 0.0000000000000E+00
 0.0000000000000E+00
 0.0000000000000E+00
 0.0000000000000E+00
 0.0000000000000E+00
 0.0000000000000E+00
 0.0000000000000E+00
 0.0000000000000E+00
 0.0000000000000E+00
 0.0000000000000E+00
 0.0000000000000E+00
 0.0000000000000E+00
 0.0000000000000E+00
 0.0000000000000E+00
 0.0000000000000E+00
 0.0000000000000E+00
 0.0000000000000E+00
 0.0000000000000E+00
 0.0000000000000E+00
 0.0000000000000E+00
 0.0000000000000E+00
 0.0000000000000E+00
 0.0000000000000E+00
 0.0000000000000E+00
 0.0000000000000E+00
 0.0000000000000E+00
 0.0000000000000E+00
 0.0000000000000E+00
 0.0000000000000E+00
 0.0000000000000E+00
 0.0000000000000E+00
 0.0000000000000E+00
 0.0000000000000E+00
 0.0000000000000E+00
 0.0000000000000E+00
 0.0000000000000E+00
 0.0000000000000E+00
 0.0000000000000E+00
 0.0000000000000E+00
 0.0000000000000E+00
 0.0000000000000E+00
 0.0000000000000E+00
 0.0000000000000E+00
 0.0000000000000E+00
 0.0000000000000E+00
 0.0000000000000E+00
 0.0000000000000E+00
 0.0000000000000E+00
 0.0000000000000E+00
 0.0000000000000E+00
 0.0000000000000E+00
 0.0000000000000E+00
 0.0000000000000E+00
 0.0000000000000E+00
 0.0000000000000E+00
 0.0000000000000E+00
 0.0000000000000E+00
 0.0000000000000E+00
 0.0000000000000E+00
 0.0000000000000E+00
 0.0000000000000E+00
 0.0000000000000E+00
 0.0000000000000E+00
 0.0000000000000E+00
 0.0000000000000E+00
 0.0000000000000E+00
 0.0000000000000E+00
 0.0000000000000E+00
 0.0000000000000E+00
 0.0000000000000E+00
 0.0000000000000E+00
 0.0000000000000E+00
 0.0000000000000E+00
 0.0000000000000E+00
 0.0000000000000E+00
 0.0000000000000E+00
 0.0000000000000E+00
 0.0000000000000E+00
 0.0000000000000E+00
 0.0000000000000E+00
 0.0000000000000E+00
 0.0000000000000E+00
 0.0000000000000E+00
 0.0000000000000E+00
 0.0000000000000E+00
 0.0000000000000E+00
 0.0000000000000E+00
 0.0000000000000E+00
 0.0000000000000E+00
 0.0000000000000E+00
 0.0000000000000E+00
 0.0000000000000E+00
 0.0000000000000E+00
 0.0000000000000E+00
 0.0000000000000E+00
 0.0000000000000E+00
 0.0000000000000E+00
 0.0000000000000E+00
 0.0000000000000E+00
 0.0000000000000E+00
 0.0000000000000E+00
 0.0000000000000E+00
 0.0000000000000E+00
 0.0000000000000E+00
 0.0000000000000E+00
 0.0000000000000E+00
 0.0000000000000E+00
 0.0000000000000E+00
 0.0000000000000E+00
 0.0000000000000E+00
 0.0000000000000E+00
 0.0000000000000E+00
 0.0000000000000E+00
 0.0000000000000E+00
 0.0000000000000E+00
 0.0000000000000E+00
 0.0000000000000E+00
 0.0000000000000E+00
 0.0000000000000E+00
 0.0000000000000E+00
 0.0000000000000E+00
 0.0000000000000E+00
 0.0000000000000E+00
 0.0000000000000E+00
 0.0000000000000E+00
 0.0000000000000E+00
 0.0000000000000E+00
 0.0000000000000E+00
 0.0000000000000E+00
 0.0000000000000E+00
 0.0000000000000E+00
 0.0000000000000E+00
 0.0000000000000E+00
 0.0000000000000E+00
 0.0000000000000E+00
 0.0000000000000E+00
 0.0000000000000E+00
 0.0000000000000E+00
 0.0000000000000E+00
 0.0000000000000E+00
 0.0000000000000E+00
 0.0000000000000E+00
 0.0000000000000E+00
 0.0000000000000E+00
 0.0000000000000E+00
 0.0000000000000E+00
 0.0000000000000E+00
 0.0000000000000E+00
 0.0000000000000E+00
 0.0000000000000E+00
 0.0000000000000E+00
 0.0000000000000E+00
 0.0000000000000E+00
 0.0000000000000E+00
 0.0000000000000E+00
 0.0000000000000E+00
 0.0000000000000E+00
 0.0000000000000E+00
 0.0000000000000E+00
 0.0000000000000E+00
 0.0000000000000E+00
 0.0000000000000E+00
 0.0000000000000E+00
 0.0000000000000E+00
 0.0000000000000E+00
 0.0000000000000E+00
 0.0000000000000E+00
 0.0000000000000E+00
 0.0000000000000E+00
 0.0000000000000E+00
 0.0000000000000E+00
 0.0000000000000E+00
 0.0000000000000E+00
 0.0000000000000E+00
 0.0000000000000E+00
 0.0000000000000E+00
 0.0000000000000E+00
 0.0000000000000E+00
 0.0000000000000E+00
 0.0000000000000E+00
 0.0000000000000E+00
 0.0000000000000E+00
 0.0000000000000E+00
 0.0000000000000E+00
 0.0000000000000E+00
 0.0000000000000E+00
 0.0000000000000E+00
 0.0000000000000E+00
 0.0000000000000E+00
 0.0000000000000E+00
 0.0000000000000E+00
 0.0000000000000E+00
 0.0000000000000E+00
 0.0000000000000E+00
 0.0000000000000E+00
 0.0000000000000E+00
 0.0000000000000E+00
 0.0000000000000E+00
 0.0000000000000E+00
 0.0000000000000E+00
 0.0000000000000E+00
 0.0000000000000E+00
 0.0000000000000E+00
 0.0000000000000E+00
 0.0000000000000E+00
 0.0000000000000E+00
 0.0000000000000E+00
 0.0000000000000E+00
 0.0000000000000E+00
 0.0000000000000E+00
 0.0000000000000E+00
 0.0000000000000E+00
 0.0000000000000E+00
 0.0000000000000E+00
 0.0000000000000E+00
 0.0000000000000E+00
 0.0000000000000E+00
 0.0000000000000E+00
 0.0000000000000E+00
 0.0000000000000E+00
 0.0000000000000E+00
 0.0000000000000E+00
 0.0000000000000E+00
 0.0000000000000E+00
 0.0000000000000E+00
 0.0000000000000E+00
 0.0000000000000E+00
 0.0000000000000E+00
 0.0000000000000E+00
 0.0000000000000E+00
 0.0000000000000E+00
 0.0000000000000E+00
 0.0000000000000E+00
 0.0000000000000E+00
 0.0000000000000E+00
 0.0000000000000E+00
 0.0000000000000E+00
 0.0000000000000E+00
 0.0000000000000E+00
 0.0000000000000E+00
 0.0000000000000E+00
 0.0000000000000E+00
 0.0000000000000E+00
 0.0000000000000E+00
 0.0000000000000E+00
 0.0000000000000E+00
 0.0000000000000E+00
 0.0000000000000E+00
 0.0000000000000E+00
 0.0000000000000E+00
 0.0000000000000E+00
 0.0000000000000E+00
 0.0000000000000E+00
 0.0000000000000E+00
 0.0000000000000E+00
 0.0000000000000E+00
 0.0000000000000E+00
 0.0000000000000E+00
 0.0000000000000E+00
 0.0000000000000E+00
 0.0000000000000E+00
 0.0000000000000E+00
 0.0000000000000E+00
 0.0000000000000E+00
 0.0000000000000E+00
 0.0000000000000E+00
 0.0000000000000E+00
 0.0000000000000E+00
 0.0000000000000E+00
 0.0000000000000E+00
 0.0000000000000E+00
 0.0000000000000E+00
 0.0000000000000E+00
 0.0000000000000E+00
 0.0000000000000E+00
 0.0000000000000E+00
 0.0000000000000E+00
 0.0000000000000E+00
 0.0000000000000E+00
 0.0000000000000E+00
 0.0000000000000E+00
 0.0000000000000E+00
 0.0000000000000E+00
 0.0000000000000E+00
 0.0000000000000E+00
 0.0000000000000E+00
 0.0000000000000E+00
 0.0000000000000E+00
 0.0000000000000E+00
 0.0000000000000E+00
 0.0000000000000E+00
 0.0000000000000E+00
 0.0000000000000E+00
 0.0000000000000E+00
 0.0000000000000E+00
 0.0000000000000E+00
 0.0000000000000E+00
 0.0000000000000E+00
 0.0000000000000E+00
 0.0000000000000E+00
 0.0000000000000E+00
 0.0000000000000E+00
 0.0000000000000E+00
 0.0000000000000E+00
 0.0000000000000E+00
 0.0000000000000E+00
 0.0000000000000E+00
 0.0000000000000E+00
 0.0000000000000E+00
 0.0000000000000E+00
 0.0000000000000E+00
 0.0000000000000E+00
 0.0000000000000E+00
 0.0000000000000E+00
 0.0000000000000E+00
 0.0000000000000E+00
 0.0000000000000E+00
 0.0000000000000E+00
 0.0000000000000E+00
 0.0000000000000E+00
 0.0000000000000E+00
 0.0000000000000E+00
 0.0000000000000E+00
 0.0000000000000E+00
 0.0000000000000E+00
 0.0000000000000E+00
 0.0000000000000E+00
 0.0000000000000E+00
 0.0000000000000E+00
 0.0000000000000E+00
 0.0000000000000E+00
 0.0000000000000E+00
 0.0000000000000E+00
 0.0000000000000E+00
 0.0000000000000E+00
 0.0000000000000E+00
 0.0000000000000E+00
 0.0000000000000E+00
 0.0000000000000E+00
 0.0000000000000E+00
 0.0000000000000E+00
 0.0000000000000E+00
 0.0000000000000E+00
 0.0000000000000E+00
 0.0000000000000E+00
 0.0000000000000E+00
 0.0000000000000E+00
 0.0000000000000E+00
 0.0000000000000E+00
 0.0000000000000E+00
 0.0000000000000E+00
 0.0000000000000E+00
 0.0000000000000E+00
 0.0000000000000E+00
 0.0000000000000E+00
 0.0000000000000E+00
 0.0000000000000E+00
 0.0000000000000E+00
 0.0000000000000E+00
 0.0000000000000E+00
 0.0000000000000E+00
 0.0000000000000E+00
 0.0000000000000E+00
 0.0000000000000E+00
 0.0000000000000E+00
 0.0000000000000E+00
 0.0000000000000E+00
 0.0000000000000E+00
 0.0000000000000E+00
 0.0000000000000E+00
 0.0000000000000E+00
 0.0000000000000E+00
 0.0000000000000E+00
 0.0000000000000E+00
 0.0000000000000E+00
 0.0000000000000E+00
 0.0000000000000E+00
 0.0000000000000E+00
 0.0000000000000E+00
 0.0000000000000E+00
 0.0000000000000E+00
 0.0000000000000E+00
 0.0000000000000E+00
 0.0000000000000E+00
 0.0000000000000E+00
 0.0000000000000E+00
 0.0000000000000E+00
 0.0000000000000E+00
 0.0000000000000E+00
 0.0000000000000E+00
 0.0000000000000E+00
 0.0000000000000E+00
 0.0000000000000E+00
 0.0000000000000E+00
 0.0000000000000E+00
 0.0000000000000E+00
 0.0000000000000E+00
 0.0000000000000E+00
 0.0000000000000E+00
 0.0000000000000E+00
 0.0000000000000E+00
 0.0000000000000E+00
 0.0000000000000E+00
 0.0000000000000E+00
 0.0000000000000E+00
 0.0000000000000E+00
 0.0000000000000E+00
 0.0000000000000E+00
 0.0000000000000E+00
 0.0000000000000E+00
 0.0000000000000E+00
 0.0000000000000E+00
 0.0000000000000E+00
 0.0000000000000E+00
 0.0000000000000E+00
 0.0000000000000E+00
 0.0000000000000E+00
 0.0000000000000E+00
 0.0000000000000E+00
 0.0000000000000E+00
 0.0000000000000E+00
 0.0000000000000E+00
 0.0000000000000E+00
 0.0000000000000E+00
 0.0000000000000E+00
 0.0000000000000E+00
 0.0000000000000E+00
 0.0000000000000E+00
 0.0000000000000E+00
 0.0000000000000E+00
 0.0000000000000E+00
 0.0000000000000E+00
 0.0000000000000E+00
 0.0000000000000E+00
 0.0000000000000E+00
 0.0000000000000E+00
 0.0000000000000E+00
 0.0000000000000E+00
 0.0000000000000E+00
 0.0000000000000E+00
 0.0000000000000E+00
 0.0000000000000E+00
 0.0000000000000E+00
 0.0000000000000E+00
 0.0000000000000E+00
 0.0000000000000E+00
 0.0000000000000E+00
 0.0000000000000E+00
 0.0000000000000E+00
 0.0000000000000E+00
 0.0000000000000E+00
 0.0000000000000E+00
 0.0000000000000E+00
 0.0000000000000E+00
 0.0000000000000E+00
 0.0000000000000E+00
 0.0000000000000E+00
 0.0000000000000E+00
 0.0000000000000E+00
 0.0000000000000E+00
 0.0000000000000E+00
 0.0000000000000E+00
 0.0000000000000E+00
 0.0000000000000E+00
 0.0000000000000E+00
 0.0000000000000E+00
 0.0000000000000E+00
 0.0000000000000E+00
 0.0000000000000E+00
 0.0000000000000E+00
 0.0000000000000E+00
 0.0000000000000E+00
 0.0000000000000E+00
 0.0000000000000E+00
 0.0000000000000E+00
 0.0000000000000E+00
 0.0000000000000E+00
 0.0000000000000E+00
 0.0000000000000E+00
 0.0000000000000E+00
 0.0000000000000E+00
 0.0000000000000E+00
 0.0000000000000E+00
 0.0000000000000E+00
 0.0000000000000E+00
 0.0000000000000E+00
 0.0000000000000E+00
 0.0000000000000E+00
 0.0000000000000E+00
 0.0000000000000E+00
 0.0000000000000E+00
 0.0000000000000E+00
 0.0000000000000E+00
 0.0000000000000E+00
 0.0000000000000E+00
 0.0000000000000E+00
 0.0000000000000E+00
 0.0000000000000E+00
 0.0000000000000E+00
 0.0000000000000E+00
 0.0000000000000E+00
 0.0000000000000E+00
 0.0000000000000E+00
 0.0000000000000E+00
 0.0000000000000E+00
 0.0000000000000E+00
 0.0000000000000E+00
 0.0000000000000E+00
 0.0000000000000E+00
 0.0000000000000E+00
 0.0000000000000E+00
 0.0000000000000E+00
 0.0000000000000E+00
 0.0000000000000E+00
 0.0000000000000E+00
 0.0000000000000E+00
 0.0000000000000E+00
 0.0000000000000E+00
 0.0000000000000E+00
 0.0000000000000E+00
 0.0000000000000E+00
 0.0000000000000E+00
 0.0000000000000E+00
 0.0000000000000E+00
 0.0000000000000E+00
 0.0000000000000E+00
 0.0000000000000E+00
 0.0000000000000E+00
 0.0000000000000E+00
 0.0000000000000E+00
 0.0000000000000E+00
 0.0000000000000E+00
 0.0000000000000E+00
 0.0000000000000E+00
 0.0000000000000E+00
 0.0000000000000E+00
 0.0000000000000E+00
 0.0000000000000E+00
 0.0000000000000E+00
 0.0000000000000E+00
 0.0000000000000E+00
 0.0000000000000E+00
 0.0000000000000E+00
 0.0000000000000E+00
 0.0000000000000E+00
 0.0000000000000E+00
 0.0000000000000E+00
 0.0000000000000E+00
 0.0000000000000E+00
 0.0000000000000E+00
 0.0000000000000E+00
 0.0000000000000E+00
 0.0000000000000E+00
 0.0000000000000E+00
 0.0000000000000E+00
 0.0000000000000E+00
 0.0000000000000E+00
 0.0000000000000E+00
 0.0000000000000E+00
 0.0000000000000E+00
 0.0000000000000E+00
 0.0000000000000E+00
 0.0000000000000E+00
 0.0000000000000E+00
 0.0000000000000E+00
 0.0000000000000E+00
 0.0000000000000E+00
 0.0000000000000E+00
 0.0000000000000E+00
 0.0000000000000E+00
 0.0000000000000E+00
 0.0000000000000E+00
 0.0000000000000E+00
 0.0000000000000E+00
 0.0000000000000E+00
 0.0000000000000E+00
 0.0000000000000E+00
 0.0000000000000E+00
 0.0000000000000E+00
 0.0000000000000E+00
 0.0000000000000E+00
 0.0000000000000E+00
 0.0000000000000E+00
 0.0000000000000E+00
 0.0000000000000E+00
 0.0000000000000E+00
 0.0000000000000E+00
 0.0000000000000E+00
 0.0000000000000E+00
 0.0000000000000E+00
 0.0000000000000E+00
 0.0000000000000E+00
 0.0000000000000E+00
 0.0000000000000E+00
 0.0000000000000E+00
 0.0000000000000E+00
 0.0000000000000E+00
 0.0000000000000E+00
 0.0000000000000E+00
 0.0000000000000E+00
 0.0000000000000E+00
 0.0000000000000E+00
 0.0000000000000E+00
 0.0000000000000E+00
 0.0000000000000E+00
 0.0000000000000E+00
 0.0000000000000E+00
 0.0000000000000E+00
 0.0000000000000E+00
 0.0000000000000E+00
 0.0000000000000E+00
 0.0000000000000E+00
 0.0000000000000E+00
 0.0000000000000E+00
 0.0000000000000E+00
 0.0000000000000E+00
 0.0000000000000E+00
 0.0000000000000E+00
 0.0000000000000E+00
 0.0000000000000E+00
 0.0000000000000E+00
 0.0000000000000E+00
 0.0000000000000E+00
 0.0000000000000E+00
 0.0000000000000E+00
 0.0000000000000E+00
 0.0000000000000E+00
 0.0000000000000E+00
 0.0000000000000E+00
 0.0000000000000E+00
 0.0000000000000E+00
 0.0000000000000E+00
 0.0000000000000E+00
 0.0000000000000E+00
 0.0000000000000E+00
 0.0000000000000E+00
 0.0000000000000E+00
 0.0000000000000E+00
 0.0000000000000E+00
 0.0000000000000E+00
 0.0000000000000E+00
 0.0000000000000E+00
 0.0000000000000E+00
 0.0000000000000E+00
 0.0000000000000E+00
 0.0000000000000E+00
 0.0000000000000E+00
 0.0000000000000E+00
 0.0000000000000E+00
 0.0000000000000E+00
 0.0000000000000E+00
 0.0000000000000E+00
 0.0000000000000E+00
 0.0000000000000E+00
 0.0000000000000E+00
 0.0000000000000E+00
 0.0000000000000E+00
 0.0000000000000E+00
 0.0000000000000E+00
 0.0000000000000E+00
 0.0000000000000E+00
 0.0000000000000E+00
 0.0000000000000E+00
 0.0000000000000E+00
 0.0000000000000E+00
 0.0000000000000E+00
 0.0000000000000E+00
 0.0000000000000E+00
 0.0000000000000E+00
 0.0000000000000E+00
 0.0000000000000E+00
 0.0000000000000E+00
 0.0000000000000E+00
 0.0000000000000E+00
 0.0000000000000E+00
 0.0000000000000E+00
 0.0000000000000E+00
 0.0000000000000E+00
 0.0000000000000E+00
 0.0000000000000E+00
 0.0000000000000E+00
 0.0000000000000E+00
 0.0000000000000E+00
 0.0000000000000E+00
 0.0000000000000E+00
 0.0000000000000E+00
 0.0000000000000E+00
 0.0000000000000E+00
 0.0000000000000E+00
 0.0000000000000E+00
 0.0000000000000E+00
 0.0000000000000E+00
 0.0000000000000E+00
 0.0000000000000E+00
 0.0000000000000E+00
 0.0000000000000E+00
 0.0000000000000E+00
 0.0000000000000E+00
 0.0000000000000E+00
 0.0000000000000E+00
 0.0000000000000E+00
 0.0000000000000E+00
 0.0000000000000E+00
 0.0000000000000E+00
 0.0000000000000E+00
 0.0000000000000E+00
 0.0000000000000E+00
 0.0000000000000E+00
 0.0000000000000E+00
 0.0000000000000E+00
 0.0000000000000E+00
 0.0000000000000E+00
 0.0000000000000E+00
 0.0000000000000E+00
 0.0000000000000E+00
 0.0000000000000E+00
 0.0000000000000E+00
 0.0000000000000E+00
 0.0000000000000E+00
 0.0000000000000E+00
 0.0000000000000E+00
 0.0000000000000E+00
 0.0000000000000E+00
 0.0000000000000E+00
 0.0000000000000E+00
 0.0000000000000E+00
 0.0000000000000E+00
 0.0000000000000E+00
 0.0000000000000E+00
 0.0000000000000E+00
 0.0000000000000E+00
 0.0000000000000E+00
 0.0000000000000E+00
 0.0000000000000E+00
 0.0000000000000E+00
 0.0000000000000E+00
 0.0000000000000E+00
 0.0000000000000E+00
 0.0000000000000E+00
 0.0000000000000E+00
 0.0000000000000E+00
 0.0000000000000E+00
 0.0000000000000E+00
 0.0000000000000E+00
 0.0000000000000E+00
 0.0000000000000E+00
 0.0000000000000E+00
 0.0000000000000E+00
 0.0000000000000E+00
 0.0000000000000E+00
 0.0000000000000E+00
 0.0000000000000E+00
 0.0000000000000E+00
 0.0000000000000E+00
 0.0000000000000E+00
 0.0000000000000E+00
 0.0000000000000E+00
 0.0000000000000E+00
 0.0000000000000E+00
 0.0000000000000E+00
 0.0000000000000E+00
 0.0000000000000E+00
 0.0000000000000E+00
 0.0000000000000E+00
 0.0000000000000E+00
 0.0000000000000E+00
 0.0000000000000E+00
 0.0000000000000E+00
 0.0000000000000E+00
 0.0000000000000E+00
 0.0000000000000E+00
 0.0000000000000E+00
 0.0000000000000E+00
 0.0000000000000E+00
 0.0000000000000E+00
 0.0000000000000E+00
 0.0000000000000E+00
 0.0000000000000E+00
 0.0000000000000E+00
 0.0000000000000E+00
 0.0000000000000E+00
 0.0000000000000E+00
 0.0000000000000E+00
 0.0000000000000E+00
 0.0000000000000E+00
 0.0000000000000E+00
 0.0000000000000E+00
 0.0000000000000E+00
 0.0000000000000E+00
 0.0000000000000E+00
 0.0000000000000E+00
 0.0000000000000E+00
 0.0000000000000E+00
 0.0000000000000E+00
 0.0000000000000E+00
 0.0000000000000E+00
 0.0000000000000E+00
 0.0000000000000E+00
 0.0000000000000E+00
 0.0000000000000E+00
 0.0000000000000E+00
 0.0000000000000E+00
 0.0000000000000E+00
 0.0000000000000E+00
 0.0000000000000E+00
 0.0000000000000E+00
 0.0000000000000E+00
 0.0000000000000E+00
 0.0000000000000E+00
 0.0000000000000E+00
 0.0000000000000E+00
 0.0000000000000E+00
 0.0000000000000E+00
 0.0000000000000E+00
 0.0000000000000E+00
 0.0000000000000E+00
 0.0000000000000E+00
 0.0000000000000E+00
 0.0000000000000E+00
 0.0000000000000E+00
 0.0000000000000E+00
 0.0000000000000E+00
 0.0000000000000E+00
 0.0000000000000E+00
 0.0000000000000E+00
 0.0000000000000E+00
 0.0000000000000E+00
 0.0000000000000E+00
 0.0000000000000E+00
 0.0000000000000E+00
 0.0000000000000E+00
 0.0000000000000E+00
 0.0000000000000E+00
 0.0000000000000E+00
 0.0000000000000E+00
 0.0000000000000E+00
 0.0000000000000E+00
 0.0000000000000E+00
 0.0000000000000E+00
 0.0000000000000E+00
 0.0000000000000E+00
 0.0000000000000E+00
 0.0000000000000E+00
 0.0000000000000E+00
 0.0000000000000E+00
 0.0000000000000E+00
 0.0000000000000E+00
 0.0000000000000E+00
 0.0000000000000E+00
 0.0000000000000E+00
 0.0000000000000E+00
 0.0000000000000E+00
 0.0000000000000E+00
 0.0000000000000E+00
 0.0000000000000E+00
 0.0000000000000E+00
 0.0000000000000E+00
 0.0000000000000E+00
 0.0000000000000E+00
 0.0000000000000E+00
 0.0000000000000E+00
 0.0000000000000E+00
 0.0000000000000E+00
 0.0000000000000E+00
 0.0000000000000E+00
 0.0000000000000E+00
 0.0000000000000E+00
 0.0000000000000E+00
 0.0000000000000E+00
 0.0000000000000E+00
 0.0000000000000E+00
 0.0000000000000E+00
 0.0000000000000E+00
 0.0000000000000E+00
 0.0000000000000E+00
 0.0000000000000E+00
 0.0000000000000E+00
 0.0000000000000E+00
 0.0000000000000E+00
 0.0000000000000E+00
 0.0000000000000E+00
 0.0000000000000E+00
 0.0000000000000E+00
 0.0000000000000E+00
 0.0000000000000E+00
 0.0000000000000E+00
 0.0000000000000E+00
 0.0000000000000E+00
 0.0000000000000E+00
 0.0000000000000E+00
 0.0000000000000E+00
 0.0000000000000E+00
 0.0000000000000E+00
 0.0000000000000E+00
 0.0000000000000E+00
 0.0000000000000E+00
 0.0000000000000E+00
 0.0000000000000E+00
 0.0000000000000E+00
 0.0000000000000E+00
 0.0000000000000E+00
 0.0000000000000E+00
 0.0000000000000E+00
 0.0000000000000E+00
 0.0000000000000E+00
 0.0000000000000E+00
 0.0000000000000E+00
 0.0000000000000E+00
 0.0000000000000E+00
 0.0000000000000E+00
 0.0000000000000E+00
 0.0000000000000E+00
 0.0000000000000E+00
 0.0000000000000E+00
 0.0000000000000E+00
 0.0000000000000E+00
 0.0000000000000E+00
 0.0000000000000E+00
 0.0000000000000E+00
 0.0000000000000E+00
 0.0000000000000E+00
 0.0000000000000E+00
 0.0000000000000E+00
 0.0000000000000E+00
 0.0000000000000E+00
 0.0000000000000E+00
 0.0000000000000E+00
 0.0000000000000E+00
 0.0000000000000E+00
 0.0000000000000E+00
 0.0000000000000E+00
 0.0000000000000E+00
 0.0000000000000E+00
 0.0000000000000E+00
 0.0000000000000E+00
 0.0000000000000E+00
 0.0000000000000E+00
 0.0000000000000E+00
 0.0000000000000E+00
 0.0000000000000E+00
 0.0000000000000E+00
 0.0000000000000E+00
 0.0000000000000E+00
 0.0000000000000E+00
 0.0000000000000E+00
 0.0000000000000E+00
 0.0000000000000E+00
 0.0000000000000E+00
 0.0000000000000E+00
 0.0000000000000E+00
 0.0000000000000E+00
 0.0000000000000E+00
 0.0000000000000E+00
 0.0000000000000E+00
 0.0000000000000E+00
 0.0000000000000E+00
 0.0000000000000E+00
 0.0000000000000E+00
 0.0000000000000E+00
 0.0000000000000E+00
 0.0000000000000E+00
 0.0000000000000E+00
 0.0000000000000E+00
 0.0000000000000E+00
 0.0000000000000E+00
 0.0000000000000E+00
 0.0000000000000E+00
 0.0000000000000E+00
 0.0000000000000E+00
 0.0000000000000E+00
 0.0000000000000E+00
 0.0000000000000E+00
 0.0000000000000E+00
 0.0000000000000E+00
 0.0000000000000E+00
 0.0000000000000E+00
 0.0000000000000E+00
 0.0000000000000E+00
 0.0000000000000E+00
 0.0000000000000E+00
 0.0000000000000E+00
 0.0000000000000E+00
 0.0000000000000E+00
 0.0000000000000E+00
 0.0000000000000E+00
 0.0000000000000E+00
 0.0000000000000E+00
 0.0000000000000E+00
 0.0000000000000E+00
 0.0000000000000E+00
 0.0000000000000E+00
 0.0000000000000E+00
 0.0000000000000E+00
 0.0000000000000E+00
 0.0000000000000E+00
 0.0000000000000E+00
 0.0000000000000E+00
 0.0000000000000E+00
 0.0000000000000E+00
 0.0000000000000E+00
 0.0000000000000E+00
 0.0000000000000E+00
 0.0000000000000E+00
 0.0000000000000E+00
 0.0000000000000E+00
 0.0000000000000E+00
 0.0000000000000E+00
 0.0000000000000E+00
 0.0000000000000E+00
 0.0000000000000E+00
 0.0000000000000E+00
 0.0000000000000E+00
 0.0000000000000E+00
 0.0000000000000E+00
 0.0000000000000E+00
 0.0000000000000E+00
 0.0000000000000E+00
 0.0000000000000E+00
 0.0000000000000E+00
 0.0000000000000E+00
 0.0000000000000E+00
 0.0000000000000E+00
 0.0000000000000E+00
 0.0000000000000E+00
 0.0000000000000E+00
 0.0000000000000E+00
 0.0000000000000E+00
 0.0000000000000E+00
 0.0000000000000E+00
 0.0000000000000E+00
 0.0000000000000E+00
 0.0000000000000E+00
 0.0000000000000E+00
 0.0000000000000E+00
 0.0000000000000E+00
 0.0000000000000E+00
 0.0000000000000E+00
 0.0000000000000E+00
 0.0000000000000E+00
 0.0000000000000E+00
 0.0000000000000E+00
 0.0000000000000E+00
 0.0000000000000E+00
 0.0000000000000E+00
 0.0000000000000E+00
 0.0000000000000E+00
 0.0000000000000E+00
 0.0000000000000E+00
 0.0000000000000E+00
 0.0000000000000E+00
 0.0000000000000E+00
 0.0000000000000E+00
 0.0000000000000E+00
 0.0000000000000E+00
 0.0000000000000E+00
 0.0000000000000E+00
 0.0000000000000E+00
 0.0000000000000E+00
 0.0000000000000E+00
 0.0000000000000E+00
 0.0000000000000E+00
 0.0000000000000E+00
 0.0000000000000E+00
 0.0000000000000E+00
 0.0000000000000E+00
 0.0000000000000E+00
 0.0000000000000E+00
 0.0000000000000E+00
 0.0000000000000E+00
 0.0000000000000E+00
 0.0000000000000E+00
 0.0000000000000E+00
 0.0000000000000E+00
 0.0000000000000E+00
 0.0000000000000E+00
 0.0000000000000E+00
 0.0000000000000E+00
 0.0000000000000E+00
 0.0000000000000E+00
 0.0000000000000E+00
 0.0000000000000E+00
 0.0000000000000E+00
 0.0000000000000E+00
 0.0000000000000E+00
 0.0000000000000E+00
 0.0000000000000E+00
 0.0000000000000E+00
 0.0000000000000E+00
 0.0000000000000E+00
 0.0000000000000E+00
 0.0000000000000E+00
 0.0000000000000E+00
 0.0000000000000E+00
 0.0000000000000E+00
 0.0000000000000E+00
 0.0000000000000E+00
 0.0000000000000E+00
 0.0000000000000E+00
 0.0000000000000E+00
 0.0000000000000E+00
 0.0000000000000E+00
 0.0000000000000E+00
 0.0000000000000E+00
 0.0000000000000E+00
 0.0000000000000E+00
 0.0000000000000E+00
 0.0000000000000E+00
 0.0000000000000E+00
 0.0000000000000E+00
 0.0000000000000E+00
 0.0000000000000E+00
 0.0000000000000E+00
 0.0000000000000E+00
 0.0000000000000E+00
 0.0000000000000E+00
 0.0000000000000E+00
 0.0000000000000E+00
 0.0000000000000E+00
 0.0000000000000E+00
 0.0000000000000E+00
 0.0000000000000E+00
 0.0000000000000E+00
 0.0000000000000E+00
 0.0000000000000E+00
 0.0000000000000E+00
 0.0000000000000E+00
 0.0000000000000E+00
 0.0000000000000E+00
 0.0000000000000E+00
 0.0000000000000E+00
 0.0000000000000E+00
 0.0000000000000E+00
 0.0000000000000E+00
 0.0000000000000E+00
 0.0000000000000E+00
 0.0000000000000E+00
 0.0000000000000E+00
 0.0000000000000E+00
 0.0000000000000E+00
 0.0000000000000E+00
 0.0000000000000E+00
 0.0000000000000E+00
 0.0000000000000E+00
 0.0000000000000E+00
 0.0000000000000E+00
 0.0000000000000E+00
 0.0000000000000E+00
 0.0000000000000E+00
 0.0000000000000E+00
 0.0000000000000E+00
 0.0000000000000E+00
 0.0000000000000E+00
 0.0000000000000E+00
 0.0000000000000E+00
 0.0000000000000E+00
 0.0000000000000E+00
 0.0000000000000E+00
 0.0000000000000E+00
 0.0000000000000E+00
 0.0000000000000E+00
 0.0000000000000E+00
 0.0000000000000E+00
 0.0000000000000E+00
 0.0000000000000E+00
 0.0000000000000E+00
 0.0000000000000E+00
 0.0000000000000E+00
 0.0000000000000E+00
 0.0000000000000E+00
 0.0000000000000E+00
 0.0000000000000E+00
 0.0000000000000E+00
 0.0000000000000E+00
 0.0000000000000E+00
 0.0000000000000E+00
 0.0000000000000E+00
 0.0000000000000E+00
 0.0000000000000E+00
 0.0000000000000E+00
 0.0000000000000E+00
 0.0000000000000E+00
 0.0000000000000E+00
 0.0000000000000E+00
 0.0000000000000E+00
 0.0000000000000E+00
 0.0000000000000E+00
 0.0000000000000E+00
 0.0000000000000E+00
 0.0000000000000E+00
 0.0000000000000E+00
 0.0000000000000E+00
 0.0000000000000E+00
 0.0000000000000E+00
 0.0000000000000E+00
 0.0000000000000E+00
 0.0000000000000E+00
 0.0000000000000E+00
 0.0000000000000E+00
 0.0000000000000E+00
 0.0000000000000E+00
 0.0000000000000E+00
 0.0000000000000E+00
 0.0000000000000E+00
 0.0000000000000E+00
 0.0000000000000E+00
 0.0000000000000E+00
 0.0000000000000E+00
 0.0000000000000E+00
 0.0000000000000E+00
 0.0000000000000E+00
 0.0000000000000E+00
 0.0000000000000E+00
 0.0000000000000E+00
 0.0000000000000E+00
 0.0000000000000E+00
 0.0000000000000E+00
 0.0000000000000E+00
 0.0000000000000E+00
 0.0000000000000E+00
 0.0000000000000E+00
 0.0000000000000E+00
 0.0000000000000E+00
 0.0000000000000E+00
 0.0000000000000E+00
 0.0000000000000E+00
 0.0000000000000E+00
 0.0000000000000E+00
 0.0000000000000E+00
 0.0000000000000E+00
 0.0000000000000E+00
 0.0000000000000E+00
 0.0000000000000E+00
 0.0000000000000E+00
 0.0000000000000E+00
 0.0000000000000E+00
 0.0000000000000E+00
 0.0000000000000E+00
 0.0000000000000E+00
 0.0000000000000E+00
 0.0000000000000E+00
 0.0000000000000E+00
 0.0000000000000E+00
 0.0000000000000E+00
 0.0000000000000E+00
 0.0000000000000E+00
 0.0000000000000E+00
 0.0000000000000E+00
 0.0000000000000E+00
 0.0000000000000E+00
 0.0000000000000E+00
 0.0000000000000E+00
 0.0000000000000E+00
 0.0000000000000E+00
 0.0000000000000E+00
 0.0000000000000E+00
 0.0000000000000E+00
 0.0000000000000E+00
 0.0000000000000E+00
 0.0000000000000E+00
 0.0000000000000E+00
 0.0000000000000E+00
 0.0000000000000E+00
 0.0000000000000E+00
 0.0000000000000E+00
 0.0000000000000E+00
 0.0000000000000E+00
 0.0000000000000E+00
 0.0000000000000E+00
 0.0000000000000E+00
 0.0000000000000E+00
 0.0000000000000E+00
 0.0000000000000E+00
 0.0000000000000E+00
 0.0000000000000E+00
 0.0000000000000E+00
 0.0000000000000E+00
 0.0000000000000E+00
 0.0000000000000E+00
 0.0000000000000E+00
 0.0000000000000E+00
 0.0000000000000E+00
 0.0000000000000E+00
 0.0000000000000E+00
 0.0000000000000E+00
 0.0000000000000E+00
 0.0000000000000E+00
 0.0000000000000E+00
 0.0000000000000E+00
 0.0000000000000E+00
 0.0000000000000E+00
 0.0000000000000E+00
 0.0000000000000E+00
 0.0000000000000E+00
 0.0000000000000E+00
 0.0000000000000E+00
 0.0000000000000E+00
 0.0000000000000E+00
 0.0000000000000E+00
 0.0000000000000E+00
 0.0000000000000E+00
 0.0000000000000E+00
 0.0000000000000E+00
 0.0000000000000E+00
 0.0000000000000E+00
 0.0000000000000E+00
 0.0000000000000E+00
 0.0000000000000E+00
 0.0000000000000E+00
 0.0000000000000E+00
 0.0000000000000E+00
 0.0000000000000E+00
 0.0000000000000E+00
 0.0000000000000E+00
 0.0000000000000E+00
 0.0000000000000E+00
 0.0000000000000E+00
 0.0000000000000E+00
 0.0000000000000E+00
 0.0000000000000E+00
 0.0000000000000E+00
 0.0000000000000E+00
 0.0000000000000E+00
 0.0000000000000E+00
 0.0000000000000E+00
 0.0000000000000E+00
 0.0000000000000E+00
 0.0000000000000E+00
 0.0000000000000E+00
 0.0000000000000E+00
 0.0000000000000E+00
 0.0000000000000E+00
 0.0000000000000E+00
 0.0000000000000E+00
 0.0000000000000E+00
 0.0000000000000E+00
 0.0000000000000E+00
 0.0000000000000E+00
 0.0000000000000E+00
 0.0000000000000E+00
 0.0000000000000E+00
 0.0000000000000E+00
 0.0000000000000E+00
 0.0000000000000E+00
 0.0000000000000E+00
 0.0000000000000E+00
 0.0000000000000E+00
 0.0000000000000E+00
 0.0000000000000E+00
 0.0000000000000E+00
 0.0000000000000E+00
 0.0000000000000E+00
 0.0000000000000E+00
 0.0000000000000E+00
 0.0000000000000E+00
 0.0000000000000E+00
 0.0000000000000E+00
 0.0000000000000E+00
 0.0000000000000E+00
 0.0000000000000E+00
 0.0000000000000E+00
 0.0000000000000E+00
 0.0000000000000E+00
 0.0000000000000E+00
 0.0000000000000E+00
 0.0000000000000E+00
 0.0000000000000E+00
 0.0000000000000E+00
 0.0000000000000E+00
 0.0000000000000E+00
 0.0000000000000E+00
 0.0000000000000E+00
 0.0000000000000E+00
 0.0000000000000E+00
 0.0000000000000E+00
 0.0000000000000E+00
 0.0000000000000E+00
 0.0000000000000E+00
 0.0000000000000E+00
 0.0000000000000E+00
 0.0000000000000E+00
 0.0000000000000E+00
 0.0000000000000E+00
 0.0000000000000E+00
 0.0000000000000E+00
 0.0000000000000E+00
 0.0000000000000E+00
 0.0000000000000E+00
 0.0000000000000E+00
 0.0000000000000E+00
 0.0000000000000E+00
 0.0000000000000E+00
 0.0000000000000E+00
 0.0000000000000E+00
 0.0000000000000E+00
 0.0000000000000E+00
 0.0000000000000E+00
 0.0000000000000E+00
 0.0000000000000E+00
 0.0000000000000E+00
 0.0000000000000E+00
 0.0000000000000E+00
 0.0000000000000E+00
 0.0000000000000E+00
 0.0000000000000E+00
 0.0000000000000E+00
 0.0000000000000E+00
 0.0000000000000E+00
 0.0000000000000E+00
 0.0000000000000E+00
 0.0000000000000E+00
 0.0000000000000E+00
 0.0000000000000E+00
 0.0000000000000E+00
 0.0000000000000E+00
 0.0000000000000E+00
 0.0000000000000E+00
 0.0000000000000E+00
 0.0000000000000E+00
 0.0000000000000E+00
 0.0000000000000E+00
 0.0000000000000E+00
 0.0000000000000E+00
 0.0000000000000E+00
 0.0000000000000E+00
 0.0000000000000E+00
 0.0000000000000E+00
 0.0000000000000E+00
 0.0000000000000E+00
 0.0000000000000E+00
 0.0000000000000E+00
 0.0000000000000E+00
 0.0000000000000E+00
 0.0000000000000E+00
 0.0000000000000E+00
 0.0000000000000E+00
 0.0000000000000E+00
 0.0000000000000E+00
 0.0000000000000E+00
 0.0000000000000E+00
 0.0000000000000E+00
 0.0000000000000E+00
 0.0000000000000E+00
 0.0000000000000E+00
 0.0000000000000E+00
 0.0000000000000E+00
 0.0000000000000E+00
 0.0000000000000E+00
 0.0000000000000E+00
 0.0000000000000E+00
 0.0000000000000E+00
 0.0000000000000E+00
 0.0000000000000E+00
 0.0000000000000E+00
 0.0000000000000E+00
 0.0000000000000E+00
 0.0000000000000E+00
 0.0000000000000E+00
 0.0000000000000E+00
 0.0000000000000E+00
 0.0000000000000E+00
 0.0000000000000E+00
 0.0000000000000E+00
 0.0000000000000E+00
 0.0000000000000E+00
 0.0000000000000E+00
 0.0000000000000E+00
 0.0000000000000E+00
 0.0000000000000E+00
 0.0000000000000E+00
 0.0000000000000E+00
 0.0000000000000E+00
 0.0000000000000E+00
 0.0000000000000E+00
 0.0000000000000E+00
 0.0000000000000E+00
 0.0000000000000E+00
 0.0000000000000E+00
 0.0000000000000E+00
 0.0000000000000E+00
 0.0000000000000E+00
 0.0000000000000E+00
 0.0000000000000E+00
 0.0000000000000E+00
 0.0000000000000E+00
 0.0000000000000E+00
 0.0000000000000E+00
 0.0000000000000E+00
 0.0000000000000E+00
 0.0000000000000E+00
 0.0000000000000E+00
 0.0000000000000E+00
 0.0000000000000E+00
 0.0000000000000E+00
 0.0000000000000E+00
 0.0000000000000E+00
 0.0000000000000E+00
 0.0000000000000E+00
 0.0000000000000E+00
 0.0000000000000E+00
 0.0000000000000E+00
 0.0000000000000E+00
 0.0000000000000E+00
 0.0000000000000E+00
 0.0000000000000E+00
 0.0000000000000E+00
 0.0000000000000E+00
 0.0000000000000E+00
 0.0000000000000E+00
 0.0000000000000E+00
 0.0000000000000E+00
 0.0000000000000E+00
 0.0000000000000E+00
 0.0000000000000E+00
 0.0000000000000E+00
 0.0000000000000E+00
 0.0000000000000E+00
 0.0000000000000E+00
 0.0000000000000E+00
 0.0000000000000E+00
 0.0000000000000E+00
 0.0000000000000E+00
 0.0000000000000E+00
 0.0000000000000E+00
 0.0000000000000E+00
 0.0000000000000E+00
 0.0000000000000E+00
 0.0000000000000E+00
 0.0000000000000E+00
 0.0000000000000E+00
 0.0000000000000E+00
 0.0000000000000E+00
 0.0000000000000E+00
 0.0000000000000E+00
 0.0000000000000E+00
 0.0000000000000E+00
 0.0000000000000E+00
 0.0000000000000E+00
 0.0000000000000E+00
 0.0000000000000E+00
 0.0000000000000E+00
 0.0000000000000E+00
 0.0000000000000E+00
 0.0000000000000E+00
 0.0000000000000E+00
 0.0000000000000E+00
 0.0000000000000E+00
 0.0000000000000E+00
 0.0000000000000E+00
 0.0000000000000E+00
 0.0000000000000E+00
 0.0000000000000E+00
 0.0000000000000E+00
 0.0000000000000E+00
 0.0000000000000E+00
 0.0000000000000E+00
 0.0000000000000E+00
 0.0000000000000E+00
 0.0000000000000E+00
 0.0000000000000E+00
 0.0000000000000E+00
 0.0000000000000E+00
 0.0000000000000E+00
 0.0000000000000E+00
 0.0000000000000E+00
 0.0000000000000E+00
 0.0000000000000E+00
 0.0000000000000E+00
 0.0000000000000E+00
 0.0000000000000E+00
 0.0000000000000E+00
 0.0000000000000E+00
 0.0000000000000E+00
 0.0000000000000E+00
 0.0000000000000E+00
 0.0000000000000E+00
 0.0000000000000E+00
 0.0000000000000E+00
 0.0000000000000E+00
 0.0000000000000E+00
 0.0000000000000E+00
 0.0000000000000E+00
 0.0000000000000E+00
 0.0000000000000E+00
 0.0000000000000E+00
 0.0000000000000E+00
 0.0000000000000E+00
 0.0000000000000E+00
 0.0000000000000E+00
 0.0000000000000E+00
 0.0000000000000E+00
 0.0000000000000E+00
 0.0000000000000E+00
 0.0000000000000E+00
 0.0000000000000E+00
 0.0000000000000E+00
 0.0000000000000E+00
 0.0000000000000E+00
 0.0000000000000E+00
 0.0000000000000E+00
 0.0000000000000E+00
 0.0000000000000E+00
 0.0000000000000E+00
 0.0000000000000E+00
 0.0000000000000E+00
 0.0000000000000E+00
 0.0000000000000E+00
 0.0000000000000E+00
 0.0000000000000E+00
 0.0000000000000E+00
 0.0000000000000E+00
 0.0000000000000E+00
 0.0000000000000E+00
 0.0000000000000E+00
 0.0000000000000E+00
 0.0000000000000E+00
 0.0000000000000E+00
 0.0000000000000E+00
 0.0000000000000E+00
 0.0000000000000E+00
 0.0000000000000E+00
 0.0000000000000E+00
 0.0000000000000E+00
 0.0000000000000E+00
 0.0000000000000E+00
 0.0000000000000E+00
 0.0000000000000E+00
 0.0000000000000E+00
 0.0000000000000E+00
 0.0000000000000E+00
 0.0000000000000E+00
 0.0000000000000E+00
 0.0000000000000E+00
 0.0000000000000E+00
 0.0000000000000E+00
 0.0000000000000E+00
 0.0000000000000E+00
 0.0000000000000E+00
 0.0000000000000E+00
 0.0000000000000E+00
 0.0000000000000E+00
 0.0000000000000E+00
 0.0000000000000E+00
 0.0000000000000E+00
 0.0000000000000E+00
 0.0000000000000E+00
 0.0000000000000E+00
 0.0000000000000E+00
 0.0000000000000E+00
 0.0000000000000E+00
 0.0000000000000E+00
 0.0000000000000E+00
 0.0000000000000E+00
 0.0000000000000E+00
 0.0000000000000E+00
 0.0000000000000E+00
 0.0000000000000E+00
 0.0000000000000E+00
 0.0000000000000E+00
 0.0000000000000E+00
 0.0000000000000E+00
 0.0000000000000E+00
 0.0000000000000E+00
 0.0000000000000E+00
 0.0000000000000E+00
 0.0000000000000E+00
 0.0000000000000E+00
 0.0000000000000E+00
 0.0000000000000E+00
 0.0000000000000E+00
 0.0000000000000E+00
 0.0000000000000E+00
 0.0000000000000E+00
 0.0000000000000E+00
 0.0000000000000E+00
 0.0000000000000E+00
 0.0000000000000E+00
 0.0000000000000E+00
 0.0000000000000E+00
 0.0000000000000E+00
 0.0000000000000E+00
 0.0000000000000E+00
 0.0000000000000E+00
 0.0000000000000E+00
 0.0000000000000E+00
 0.0000000000000E+00
 0.0000000000000E+00
 0.0000000000000E+00
 0.0000000000000E+00
 0.0000000000000E+00
 0.0000000000000E+00
 0.0000000000000E+00
 0.0000000000000E+00
 0.0000000000000E+00
 0.0000000000000E+00
 0.0000000000000E+00
 0.0000000000000E+00
 0.0000000000000E+00
 0.0000000000000E+00
 0.0000000000000E+00
 0.0000000000000E+00
 0.0000000000000E+00
 0.0000000000000E+00
 0.0000000000000E+00
 0.0000000000000E+00
 0.0000000000000E+00
 0.0000000000000E+00
 0.0000000000000E+00
 0.0000000000000E+00
 0.0000000000000E+00
 0.0000000000000E+00
 0.0000000000000E+00
 0.0000000000000E+00
 0.0000000000000E+00
 0.0000000000000E+00
 0.0000000000000E+00
 0.0000000000000E+00
 0.0000000000000E+00
 0.0000000000000E+00
 0.0000000000000E+00
 0.0000000000000E+00
 0.0000000000000E+00
 0.0000000000000E+00
 0.0000000000000E+00
 0.0000000000000E+00
 0.0000000000000E+00
 0.0000000000000E+00
 0.0000000000000E+00
 0.0000000000000E+00
 0.0000000000000E+00
 0.0000000000000E+00
 0.0000000000000E+00
 0.0000000000000E+00
 0.0000000000000E+00
 0.0000000000000E+00
 0.0000000000000E+00
 0.0000000000000E+00
 0.0000000000000E+00
 0.0000000000000E+00
 0.0000000000000E+00
 0.0000000000000E+00
 0.0000000000000E+00
 0.0000000000000E+00
 0.0000000000000E+00
 0.0000000000000E+00
 0.0000000000000E+00
 0.0000000000000E+00
 0.0000000000000E+00
 0.0000000000000E+00
 0.0000000000000E+00
 0.0000000000000E+00
 0.0000000000000E+00
 0.0000000000000E+00
 0.0000000000000E+00
 0.0000000000000E+00
 0.0000000000000E+00
 0.0000000000000E+00
 0.0000000000000E+00
 0.0000000000000E+00
 0.0000000000000E+00
 0.0000000000000E+00
 0.0000000000000E+00
 0.0000000000000E+00
 0.0000000000000E+00
 0.0000000000000E+00
 0.0000000000000E+00
 0.0000000000000E+00
 0.0000000000000E+00
 0.0000000000000E+00
 0.0000000000000E+00
 0.0000000000000E+00
 0.0000000000000E+00
 0.0000000000000E+00
 0.0000000000000E+00
 0.0000000000000E+00
 0.0000000000000E+00
 0.0000000000000E+00
 0.0000000000000E+00
 0.0000000000000E+00
 0.0000000000000E+00
 0.0000000000000E+00
 0.0000000000000E+00
 0.0000000000000E+00
 0.0000000000000E+00
 0.0000000000000E+00
 0.0000000000000E+00
 0.0000000000000E+00
 0.0000000000000E+00
 0.0000000000000E+00
 0.0000000000000E+00
 0.0000000000000E+00
 0.0000000000000E+00
 0.0000000000000E+00
 0.0000000000000E+00
 0.0000000000000E+00
 0.0000000000000E+00
 0.0000000000000E+00
 0.0000000000000E+00
 0.0000000000000E+00
 0.0000000000000E+00
 0.0000000000000E+00
 0.0000000000000E+00
 0.0000000000000E+00
 0.0000000000000E+00
 0.0000000000000E+00
 0.0000000000000E+00
 0.0000000000000E+00
 0.0000000000000E+00
 0.0000000000000E+00
 0.0000000000000E+00
 0.0000000000000E+00
 0.0000000000000E+00
 0.0000000000000E+00
 0.0000000000000E+00
 0.0000000000000E+00
 0.0000000000000E+00
 0.0000000000000E+00
 0.0000000000000E+00
 0.0000000000000E+00
 0.0000000000000E+00
 0.0000000000000E+00
 0.0000000000000E+00
 0.0000000000000E+00
 0.0000000000000E+00
 0.0000000000000E+00
 0.0000000000000E+00
 0.0000000000000E+00
 0.0000000000000E+00
 0.0000000000000E+00
 0.0000000000000E+00
 0.0000000000000E+00
 0.0000000000000E+00
 0.0000000000000E+00
 0.0000000000000E+00
 0.0000000000000E+00
 0.0000000000000E+00
 0.0000000000000E+00
 0.0000000000000E+00
 0.0000000000000E+00
 0.0000000000000E+00
 0.0000000000000E+00
 0.0000000000000E+00
 0.0000000000000E+00
 0.0000000000000E+00
 0.0000000000000E+00
 0.0000000000000E+00
 0.0000000000000E+00
 0.0000000000000E+00
 0.0000000000000E+00
 0.0000000000000E+00
 0.0000000000000E+00
 0.0000000000000E+00
 0.0000000000000E+00
 0.0000000000000E+00
 0.0000000000000E+00
</DataArray>
<DataArray type="Int32" Name="Region" format="ascii">
           1
           1
           1
           1
           1
           1
           1
           1
           1
           1
           1
           1
           1
           1
           1
           1
           1
           1
           1
           1
           1
           1
           1
           1
           1
           1
           1
           1
           1
           1
           1
           1
           1
           1
           1
           1
           1
           1
           1
           1
           1
           1
           1
           1
           1
           1
           1
           1
           1
           1
           1
           1
           1
           1
           1
           1
           1
           1
           1
           1
           1
           1
           1
           1
           1
           1
           1
           1
           1
           1
           1
           1
           1
           1
           1
           1
           1
           1
           1
           1
           1
           1
           1
           1
           1
           1
           1
           1
           1
           1
           1
           1
           1
           1
           1
           1
           1
           1
           1
           1
           1
           1
           1
           1
           1
           1
           1
           1
           1
           1
           1
           1
           1
           1
           1
           1
           1
           1
           1
           1
           1
           1
           1
           1
           1
           1
           1
           1
           1
           1
           1
           1
           1
           1
           1
           1
           1
           1
           1
           1
           1
           1
           1
           1
           1
           1
           1
           1
           1
           1
           1
           1
           1
           1
           1
           1
           1
           1
           1
           1
           1
           1
           1
           1
           1
           1
           1
           1
           1
           1
           1
           1
           1
           1
           1
           1
           1
           1
           1
           1
           1
           1
           1
           1
           1
           1
           1
           1
           1
           1
           1
           1
           1
           1
           1
           1
           1
           1
           1
           1
           1
           1
           1
           1
           1
           1
           1
           1
           1
           1
           1
           1
           1
           1
           1
           1
           1
           1
           1
           1
           1
           1
           1
           1
           1
           1
           1
           1
           1
           1
           1
           1
           1
           1
           1
           1
           1
           1
           1
           1
           1
           1
           1
           1
           1
           1
           1
           1
           1
           1
           1
           1
           1
           1
           1
           1
           1
           1
           1
           1
           1
           1
           1
           1
           1
           1
           1
           1
           1
           1
           1
           1
           1
           1
           1
           1
           1
           1
           1
           1
           1
           1
           1
           1
           1
           1
           1
           1
           1
           1
           1
           1
           1
           1
           1
           1
           1
           1
           1
           1
           1
           1
           1
           1
           1
           1
           1
           1
           1
           1
           1
           1
           1
           1
           1
           1
           1
           1
           1
           1
           1
           1
           1
           1
           1
           1
           1
           1
           1
           1
           1
           1
           1
           1
           1
           1
           1
           1
           1
           1
           1
           1
           1
           1
           1
           1
           1
           1
           1
           1
           1
           1
           1
           1
           1
           1
           1
           1
           1
           1
           1
           1
           1
           1
           1
           1
           1
           1
           1
           1
           1
           1
           1
           1
           1
           1
           1
           1
           1
           1
           1
           1
           1
           1
           1
           1
           1
           1
           1
           1
           1
           1
           1
           1
           1
           1
           1
           1
           1
           1
           1
           1
           1
           1
           1
           1
           1
           1
           1
           1
           1
           1
           1
           1
           1
           1
           1
           1
           1
           1
           1
           1
           1
           1
           1
           1
           1
           1
           1
           1
           1
           1
           1
           1
           1
           1
           1
           1
           1
           1
           1
           1
           1
           1
           1
           1
           1
           1
           1
           1
           1
           1
           1
           1
           1
           1
           1
           1
           1
           1
           1
           1
           1
           1
           1
           1
           1
           1
           1
           1
           1
           1
           1
           1
           1
           1
           1
           1
           1
           1
           1
           1
           1
           1
           1
           1
           1
           1
           1
           1
           1
           1
           1
           1
           1
           1
           1
           1
           1
           1
           1
           1
           1
           1
           1
           1
           1
           1
           1
           1
           1
           1
           1
           1
           1
           1
           1
           1
           1
           1
           1
           1
           1
           1
           1
           1
           1
           1
           1
           1
           1
           1
           1
           1
           1
           1
           1
           1
           1
           1
           1
           1
           1
           1
           1
           1
           1
           1
           1
           1
           1
           1
           1
           1
           1
           1
           1
           1
           1
           1
           1
           1
           1
           1
           1
           1
           1
           1
           1
           1
           1
           1
           1
           1
           1
           1
           1
           1
           1
           1
           1
           1
           1
           1
           1
           1
           1
           1
           1
           1
           1
           1
           1
           1
           1
           1
           1
           1
           1
           1
           1
           1
           1
           1
           1
           1
           1
           1
           1
           1
           1
           1
           1
           1
           1
           1
           1
           1
           1
           1
           1
           1
           1
           1
           1
           1
           1
           1
           1
           1
           1
           1
           1
           1
           1
           1
           1
           1
           1
           1
           1
           1
           1
           1
           1
           1
           1
           1
           1
           1
           1
           1
           1
           1
           1
           1
           1
           1
           1
           1
           1
           1
           1
           1
           1
           1
           1
           1
           1
           1
           1
           1
           1
           1
           1
           1
           1
           1
           1
           1
           1
           1
           1
           1
           1
           1
           1
           1
           1
           1
           1
           1
           1
           1
           1
           1
           1
           1
           1
           1
           1
           1
           1
           1
           1
           1
           1
           1
           1
           1
           1
           1
           1
           1
           1
           1
           1
           1
           1
           1
           1
           1
           1
           1
           1
           1
           1
           1
           1
           1
           1
           1
           1
           1
           1
           1
           1
           1
           1
           1
           1
           1
           1
           1
           1
           1
           1
           1
           1
           1
           1
           1
           1
           1
           1
           1
           1
           1
           1
           1
           1
           1
           1
           1
           1
           1
           1
           1
           1
           1
           1
           1
           1
           1
           1
           1
           1
           1
           1
           1
           1
           1
           1
           1
           1
           1
           1
           1
           1
           1
           1
           1
           1
           1
           1
           1
           1
           1
           1
           1
           1
           1
           1
           1
           1
           1
           1
           1
           1
           1
           1
           1
           1
           1
           1
           1
           1
           1
           1
           1
           1
           1
           1
           1
           1
           1
           1
           1
           1
           1
           1
           1
           1
           1
           1
           1
           1
           1
           1
           1
           1
           1
           1
           1
           1
           1
           1
           1
           1
           1
           1
           1
           1
           1
           1
           1
           1
           1
           1
           1
           1
           1
           1
           1
           1
           1
           1
           1
           1
           1
           1
           1
           1
           1
           1
           1
           1
           1
           1
           1
           1
           1
           1
           1
           1
           1
           1
           1
           1
           1
           1
           1
           1
           1
           1
           1
           1
           1
           1
           1
           1
           1
           1
           1
           1
           1
           1
           1
           1
           1
           1
           1
           1
           1
           1
           1
           1
           1
           1
           1
           1
           1
           1
           1
           1
           1
           1
           1
           1
           1
           1
           1
           1
           1
           1
           1
           1
           1
           1
           1
           1
           1
           1
           1
           1
           1
           1
           1
           1
           1
           1
           1
           1
           1
           1
           1
           1
           1
           1
           1
           1
           1
           1
           1
           1
           1
           1
           1
           1
           1
           1
           1
           1
           1
           1
           1
           1
           1
           1
           1
           1
           1
           1
           1
           1
           1
           1
           1
           1
           1
           1
           1
           1
           1
           1
           1
           1
           1
           1
           1
           1
           1
           1
           1
           1
           1
           1
           1
           1
           1
           1
           1
           1
           1
           1
           1
           1
           1
           1
           1
           1
           1
           1
           1
           1
           1
           1
           1
           1
           1
           1
           1
           1
           1
           1
           1
           1
           1
           1
           1
           1
           1
           1
           1
           1
           1
           1
           1
           1
           1
           1
           1
           1
           1
           1
           1
           1
           1
           1
           1
           1
           1
           1
           1
           1
           1
           1
           1
           1
           1
           1
           1
           1
           1
           1
           1
           1
           1
           1
           1
           1
           1
           1
           1
           1
           1
           1
           1
           1
           1
           1
           1
           1
           1
           1
           1
           1
           1
           1
           1
           1
           1
           1
           1
           1
           1
           1
           1
           1
           1
           1
           1
           1
           1
           1
           1
           1
           1
           1
           1
           1
           1
           1
           1
           1
           1
           1
           1
           1
           1
           1
           1
           1
           1
           1
           1
           1
           1
           1
           1
           1
           1
           1
           1
           1
           1
           1
           1
           1
           1
           1
           1
           1
           1
           1
           1
           1
           1
           1
           1
           1
           1
           1
           1
           1
           1
           1
           1
           1
           1
           1
           1
           1
           1
           1
           1
           1
           1
           1
           1
           1
           1
           1
           1
           1
           1
           1
           1
           1
           1
           1
           1
           1
           1
           1
           1
           1
           1
           1
           1
           1
           1
           1
           1
           1
           1
           1
           1
           1
           1
           1
           1
           1
           1
           1
           1
           1
           1
           1
           1
           1
           1
           1
           1
           1
           1
           1
           1
           1
           1
           1
           1
           1
           1
           1
           1
           1
           1
           1
           1
           1
           1
           1
           1
           1
           1
           1
           1
           1
           1
           1
           1
           1
           1
           1
           1
           1
           1
           1
           1
           1
           1
           1
           1
           1
           1
           1
           1
           1
           1
           1
           1
           1
           1
           1
           1
           1
           1
           1
           1
           1
           1
           1
           1
           1
           1
           1
           1
           1
           1
           1
           1
           1
           1
           1
           1
           1
           1
           1
           1
           1
           1
           1
           1
           1
           1
           1
           1
           1
           1
           1
           1
           1
           1
           1
           1
           1
           1
           1
           1
           1
           1
           1
           1
           1
           1
           1
           1
           1
           1
           1
           1
           1
           1
           1
           1
           1
           1
           1
           1
           1
           1
           1
           1
           1
           1
           1
           1
           1
           1
           1
           1
           1
           1
           1
           1
           1
           1
           1
           1
           1
           1
           1
           1
           1
           1
           1
           1
           1
           1
           1
           1
           1
           1
           1
           1
           1
           1
           1
           1
           1
           1
           1
           1
           1
           1
           1
           1
           1
           1
           1
           1
           1
           1
           1
           1
           1
           1
           1
           1
           1
           1
           1
           1
           1
           1
           1
           1
           1
           1
           1
           1
           1
           1
           1
           1
           1
           1
           1
           1
           1
           1
           1
           1
           1
           1
           1
           1
           1
           1
           1
           1
           1
           1
           1
           1
           1
           1
           1
           1
           1
           1
           1
           1
           1
           1
           1
           1
           1
           1
           1
           1
           1
           1
           1
           1
           1
           1
           1
           1
           1
           1
           1
           1
           1
           1
           1
           1
           1
           1
           1
           1
           1
           1
           1
           1
           1
           1
           1
           1
           1
           1
           1
           1
           1
           1
           1
           1
           1
           1
           1
           1
           1
           1
           1
           1
           1
           1
           1
           1
           1
           1
           1
           1
           1
           1
           1
           1
           1
           1
           1
           1
           1
           1
           1
           1
           1
           1
           1
           1
           1
           1
           1
           1
           1
           1
           1
           1
           1
           1
           1
           1
           1
           1
           1
           1
           1
           1
           1
           1
           1
           1
           1
           1
           1
           1
           1
           1
           1
           1
           1
           1
           1
           1
           1
           1
           1
           1
           1
           1
           1
           1
           1
           1
           1
           1
           1
           1
           1
           1
           1
           1
           1
           1
           1
           1
           1
           1
           1
           1
           1
           1
           1
           1
           1
           1
           1
           1
           1
           1
           1
           1
           1
           1
           1
           1
           1
           1
           1
           1
           1
           1
           1
           1
           1
           1
           1
           1
           1
           1
           1
           1
           1
           1
           1
           1
           1
           1
           1
           1
           1
           1
           1
           1
           1
           1
           1
           1
           1
           1
           1
           1
           1
           1
           1
           1
           1
           1
           1
           1
           1
           1
           1
           1
           1
           1
           1
           1
           1
           1
           1
           1
           1
           1
           1
           1
           1
           1
           1
           1
           1
           1
           1
           1
           1
           1
           1
           1
           1
           1
           1
           1
           1
           1
           1
           1
           1
           1
           1
           1
           1
           1
           1
           1
           1
           1
           1
           1
           1
           1
           1
           1
           1
           1
           1
           1
           1
           1
           1
           1
           1
           1
           1
           1
           1
           1
           1
           1
           1
           1
           1
           1
           1
           1
           1
           1
           1
           1
           1
           1
           1
           1
           1
           1
           1
           1
           1
           1
           1
           1
           1
           1
           1
           1
           1
           1
           1
           1
           1
           1
           1
           1
           1
           1
           1
           1
           1
           1
           1
           1
           1
           1
           1
           1
           1
           1
           1
           1
           1
           1
           1
           1
           1
           1
           1
           1
           1
           1
           1
           1
           1
           1
           1
           1
           1
           1
           1
           1
           1
           1
           1
           1
           1
           1
           1
           1
           1
           1
           1
           1
           1
           1
           1
           1
           1
           1
           1
           1
           1
           1
           1
           1
           1
           1
           1
           1
           1
           1
           1
           1
           1
           1
           1
           1
           1
           1
           1
           1
           1
           1
           1
           1
           1
           1
           1
           1
           1
           1
           1
           1
           1
           1
           1
           1
           1
           1
           1
           1
           1
           1
           1
           1
           1
           1
           1
           1
           1
           1
           1
           1
           1
           1
           1
           1
           1
           1
           1
           1
           1
           1
           1
           1
           1
           1
           1
           1
           1
           1
           1
           1
           1
           1
           1
           1
           1
           1
           1
           1
           1
           1
           1
           1
           1
           1
           1
           1
           1
           1
           1
           1
           1
           1
           1
           1
           1
           1
           1
           1
           1
           1
           1
           1
           1
           1
           1
           1
           1
           1
           1
           1
           1
           1
           1
           1
           1
           1
           1
           1
           1
           1
           1
           1
           1
           1
           1
           1
           1
           1
           1
           1
           1
           1
           1
           1
           1
           1
           1
           1
           1
           1
           1
           1
           1
           1
           1
           1
           1
           1
           1
           1
           1
           1
           1
           1
           1
           1
           1
           1
           1
           1
           1
           1
           1
           1
           1
           1
           1
           1
           1
           1
           1
           1
           1
           1
           1
           1
           1
           1
           1
           1
           1
           1
           1
           1
           1
           1
           1
           1
           1
           1
           1
           1
           1
           1
           1
           1
           1
           1
           1
           1
           1
           1
           1
           1
           1
           1
           1
           1
           1
           1
           1
           1
           1
           1
           1
           1
           1
           1
           1
           1
           1
           1
           1
           1
           1
           1
           1
           1
           1
           1
           1
           1
           1
           1
           1
           1
           1
           1
           1
           1
           1
           1
           1
           1
           1
           1
           1
           1
           1
           1
           1
           1
           1
           1
           1
           1
           1
           1
           1
           1
           1
           1
           1
           1
           1
           1
           1
           1
           1
           1
           1
           1
           1
           1
           1
           1
           1
           1
           1
           1
           1
           1
           1
           1
           1
           1
           1
           1
           1
           1
           1
           1
           1
           1
           1
           1
           1
           1
           1
           1
           1
           1
           1
           1
           1
           1
           1
           1
           1
           1
           1
           1
           1
           1
           1
           1
           1
           1
           1
           1
           1
           1
           1
           1
           1
           1
           1
           1
           1
           1
           1
           1
           1
           1
           1
           1
           1
           1
           1
           1
           1
           1
           1
           1
           1
           1
           1
           1
           1
           1
           1
           1
           1
           1
           1
           1
           1
           1
           1
           1
           1
           1
           1
           1
           1
           1
           1
           1
           1
           1
           1
           1
           1
           1
           1
           1
           1
           1
           1
           1
           1
           1
           1
           1
           1
           1
           1
           1
           1
           1
           1
           1
           1
           1
           1
           1
           1
           1
           1
           1
           1
           1
           1
           1
           1
           1
           1
           1
           1
           1
           1
           1
           1
           1
           1
           1
           1
           1
           1
           1
           1
           1
           1
           1
           1
           1
           1
           1
           1
           1
           1
           1
           1
           1
           1
           1
           1
           1
           1
           1
           1
           1
           1
           1
           1
           1
           1
           1
           1
           1
           1
           1
           1
           1
           1
           1
           1
           1
           1
           1
           1
           1
           1
           1
           1
           1
           1
           1
           1
           1
           1
           1
           1
           1
           1
           1
           1
           1
           1
           1
           1
           1
           1
           1
           1
           1
           1
           1
           1
           1
           1
           1
           1
           1
           1
           1
           1
           1
           1
           1
           1
           1
           1
           1
           1
           1
           1
           1
           1
           1
           1
           1
           1
           1
           1
           1
           1
           1
           1
           1
           1
           1
           1
           1
           1
           1
           1
           1
           1
           1
           1
           1
           1
           1
           1
           1
           1
           1
           1
           1
           1
           1
           1
           1
           1
           1
           1
           1
           1
           1
           1
           1
           1
           1
           1
           1
           1
           1
           1
           1
           1
           1
           1
           1
           1
           1
           1
           1
           1
           1
           1
           1
           1
           1
           1
           1
           1
           1
           1
           1
           1
           1
           1
           1
           1
           1
           1
           1
           1
           1
           1
           1
           1
           1
           1
           1
           1
           1
           1
           1
           1
           1
           1
           1
           1
           1
           1
           1
           1
           1
           1
           1
           1
           1
           1
           1
           1
           1
           1
           1
           1
           1
           1
           1
           1
           1
           1
           1
           1
           1
           1
           1
           1
           1
           1
           1
           1
           1
           1
           1
           1
           1
           1
           1
           1
           1
           1
           1
           1
           1
           1
           1
           1
           1
           1
           1
           1
           1
           1
           1
           1
           1
           1
           1
           1
           1
           1
           1
           1
           1
           1
           1
           1
           1
           1
           1
           1
           1
           1
           1
           1
           1
           1
           1
           1
           1
           1
           1
           1
           1
           1
           1
           1
           1
           1
           1
           1
           1
           1
           1
           1
           1
           1
           1
           1
           1
           1
           1
           1
           1
           1
           1
           1
           1
           1
           1
           1
           1
           1
           1
           1
           1
           1
           1
           1
           1
           1
           1
           1
           1
           1
           1
           1
           1
           1
           1
           1
           1
           1
           1
           1
           1
           1
           1
           1
           1
           1
           1
           1
           1
           1
           1
           1
           1
           1
           1
           1
           1
           1
           1
           1
           1
           1
           1
           1
           1
           1
           1
           1
           1
           1
           1
           1
           1
           1
           1
           1
           1
           1
           1
           1
           1
           1
           1
           1
           1
           1
           1
           1
           1
           1
           1
           1
           1
           1
           1
           1
           1
           1
           1
           1
           1
           1
           1
           1
           1
           1
           1
           1
           1
           1
           1
           1
           1
           1
           1
           1
           1
           1
           1
           1
           1
           1
           1
           1
           1
           1
           1
           1
           1
           1
           1
           1
           1
           1
           1
           1
           1
           1
           1
           1
           1
           1
           1
           1
           1
           1
           1
           1
           1
           1
           1
           1
           1
           1
           1
           1
           1
           1
           1
           1
           1
           1
           1
           1
           1
           1
           1
           1
           1
           1
           1
           1
           1
           1
           1
           1
           1
           1
           1
           1
           1
           1
           1
           1
           1
           1
           1
           1
           1
           1
           1
           1
           1
           1
           1
           1
           1
           1
           1
           1
           1
           1
           1
           1
           1
           1
           1
           1
           1
           1
           1
           1
           1
           1
           1
           1
           1
           1
           1
           1
           1
           1
           1
           1
           1
           1
           1
           1
           1
           1
           1
           1
           1
           1
           1
           1
           1
           1
           1
           1
           1
           1
           1
           1
           1
           1
           1
           1
           1
           1
           1
           1
           1
           1
           1
           1
           1
           1
           1
           1
           1
           1
           1
           1
           1
           1
           1
           1
           1
           1
           1
           1
           1
           1
           1
           1
           1
           1
           1
           1
           1
           1
           1
           1
           1
           1
           1
           1
           1
           1
           1
           1
           1
           1
           1
           1
           1
           1
           1
           1
           1
           1
           1
           1
           1
           1
           1
           1
           1
           1
           1
           1
           1
           1
           1
           1
           1
           1
           1
           1
           1
           1
           1
           1
           1
           1
           1
           1
           1
           1
           1
           1
           1
           1
           1
           1
           1
           1
           1
           1
           1
           1
           1
           1
           1
           1
           1
           1
           1
           1
           1
           1
           1
           1
           1
           1
           1
           1
           1
           1
           1
           1
           1
           1
           1
           1
           1
           1
           1
           1
           1
           1
           1
           1
           1
           1
           1
           1
           1
           1
           1
           1
           1
           1
           1
           1
           1
           1
           1
           1
           1
           1
           1
           1
           1
           1
           1
           1
           1
           1
           1
           1
           1
           1
           1
           1
           1
           1
           1
           1
           1
           1
           1
           1
           1
           1
           1
           1
           1
           1
           1
           1
           1
           1
           1
           1
           1
           1
           1
           1
           1
           1
           1
           1
           1
           1
           1
           1
           1
           1
           1
           1
           1
           1
           1
           1
           1
           1
           1
           1
           1
           1
           1
           1
           1
           1
           1
           1
           1
           1
           1
           1
           1
           1
           1
           1
           1
           1
           1
           1
           1
           1
           1
           1
           1
           1
           1
           1
           1
           1
           1
           1
           1
           1
           1
           1
           1
           1
           1
           1
           1
           1
           1
           1
           1
           1
           1
           1
           1
           1
           1
           1
           1
           1
           1
           1
           1
           1
           1
           1
           1
           1
           1
           1
           1
           1
           1
           1
           1
           1
           1
           1
           1
           1
           1
           1
           1
           1
           1
           1
           1
           1
           1
           1
           1
           1
           1
           1
           1
           1
           1
           1
           1
           1
           1
           1
           1
           1
           1
           1
           1
           1
           1
           1
           1
           1
           1
           1
           1
           1
           1
           1
           1
           1
           1
           1
           1
           1
           1
           1
           1
           1
           1
           1
           1
           1
           1
           1
           1
           1
           1
           1
           1
           1
           1
           1
           1
           1
           1
           1
           1
           1
           1
           1
           1
           1
           1
           1
           1
           1
           1
           1
           1
           1
           1
           1
           1
           1
           1
           1
           1
           1
           1
           1
           1
           1
           1
           1
           1
           1
           1
           1
           1
           1
           1
           1
           1
           1
           1
           1
           1
           1
           1
           1
           1
           1
           1
           1
           1
           1
           1
           1
           1
           1
           1
           1
           1
           1
           1
           1
           1
           1
           1
           1
           1
           1
           1
           1
           1
           1
           1
           1
           1
           1
           1
           1
           1
           1
           1
           1
           1
           1
           1
           1
           1
           1
           1
           1
           1
           1
           1
           1
           1
           1
           1
           1
           1
           1
           1
           1
           1
           1
           1
           1
           1
           1
           1
           1
           1
           1
           1
           1
           1
           1
           1
           1
           1
           1
           1
           1
           1
           1
           1
           1
           1
           1
           1
           1
           1
           1
           1
           1
           1
           1
           1
           1
           1
           1
           1
           1
           1
           1
           1
           1
           1
           1
           1
           1
           1
           1
           1
           1
           1
           1
           1
           1
           1
           1
           1
           1
           1
           1
           1
           1
           1
           1
           1
           1
           1
           1
           1
           1
           1
           1
           1
           1
           1
           1
           1
           1
           1
           1
           1
           1
           1
           1
           1
           1
           1
           2
           2
           2
           2
           2
           2
           2
           2
           2
           2
           2
           2
           2
           2
           2
           2
           2
           2
           2
           2
           2
           2
           2
           2
           2
           2
           2
           2
           2
           2
           2
           2
           2
           2
           2
           2
           2
           2
           2
           2
           2
           2
           2
           2
           2
           2
           2
           2
           2
           2
           2
           2
           2
           2
           2
           2
           2
           2
           2
           2
           2
           2
           2
           2
           2
           2
           2
           2
           2
           2
           2
           2
           2
           2
           2
           2
           2
           2
           2
           2
           2
           2
           2
           2
           2
           2
           2
           2
           2
           2
           2
           2
           2
           2
           2
           2
           2
           2
           2
           2
           2
           2
           2
           2
           2
           2
           2
           2
           2
           2
           2
           2
           2
           2
           2
           2
           2
           2
           2
           2
           2
           2
           2
           2
           2
           2
           2
           2
           2
           2
           2
           2
           2
           2
           2
           2
           2
           2
           2
           2
           2
           2
           2
           2
           2
           2
           2
           2
           2
           2
           2
           2
           2
           2
           2
           2
           2
           2
           2
           2
           2
           2
           2
           2
           2
           2
           2
           2
           2
           2
           2
           2
           2
           2
           2
           2
           2
           2
           2
           2
           2
           2
           2
           2
           2
           2
           2
           2
           2
           2
           2
           2
           2
           2
           2
           2
           2
           2
           2
           2
           2
           2
           2
           2
           2
           2
           2
           2
           2
           2
           2
           2
           2
           2
           2
           2
           2
           2
           2
           2
           2
           2
           2
           2
           2
           2
           2
           2
           2
           2
           2
           2
           2
           2
           2
           2
           2
           2
           2
           2
           2
           2
           2
           2
           2
           2
           2
           2
           2
           2
           2
           2
           2
           2
           2
           2
           2
           2
           2
           2
           2
           2
           2
           2
           2
           2
           2
           2
           2
           2
           2
           2
           2
           2
           2
           2
           2
           2
           2
           2
           2
           2
           2
           2
           2
           2
           2
           2
           2
           2
           2
           2
           2
           2
           2
           2
           2
           2
           2
           2
           2
           2
           2
           2
           2
           2
           2
           2
           2
           2
           2
           2
           2
           2
           2
           2
           2
           2
           2
           2
           2
           2
           2
           2
           2
           2
           2
           2
           2
           2
           2
           2
           2
           2
           2
           2
           2
           2
           2
           2
           2
           2
           2
           2
           2
           2
           2
           2
           2
           2
           2
           2
           2
           2
           2
           2
           2
           2
           2
           2
           2
           2
           2
           2
           2
           2
           2
           2
           2
           2
           2
           2
           2
           2
           2
           2
           2
           2
           2
           2
           2
           2
           2
           2
           2
           2
           2
           2
           2
           2
           2
           2
           2
           2
           2
           2
           2
           2
           2
           2
           2
           2
           2
           2
           2
           2
           2
           2
           2
           2
           2
           2
           2
           2
           2
           2
           2
           2
           2
           2
           2
           2
           2
           2
           2
           2
           2
           2
           2
           2
           2
           2
           2
           2
           2
           2
           2
           2
           2
           2
           2
           2
           2
           2
           2
           2
           2
           2
           2
           2
           2
           2
           2
           2
           2
           2
           2
           2
           2
           2
           2
           2
           2
           2
           2
           2
           2
           2
           2
           2
           2
           2
           2
           2
           2
           2
           2
           2
           2
           2
           2
           2
           2
           2
           2
           2
           2
           2
           2
           2
           2
           2
           2
           2
           2
           2
           2
           2
           2
           2
           2
           2
           2
           2
           2
           2
           2
           2
           2
           2
           2
           2
           2
           2
           2
           2
           2
           2
           2
           2
           2
           2
           2
           2
           2
           2
           2
           2
           2
           2
           2
           2
           2
           2
           2
           2
           2
           2
           2
           2
           2
           2
           2
           2
           2
           2
           2
           2
           2
           2
           2
           2
           2
           2
           2
           2
           2
           2
           2
           2
           2
           2
           2
           2
           2
           2
           2
           2
           2
           2
           2
           2
           2
           2
           2
           2
           2
           2
           2
           2
           2
           2
           2
           2
           2
           2
           2
           2
           2
           2
           2
           2
           2
           2
           2
           2
           2
           2
           2
           2
           2
           2
           2
           2
           2
           2
           2
           2
           2
           2
           2
           2
           2
           2
           2
           2
           2
           2
           2
           2
           2
           2
           2
           2
           2
           2
           2
           2
           2
           2
           2
           2
           2
           2
           2
           2
           2
           2
           2
           2
           2
           2
           2
           2
           2
           2
           2
           2
           2
           2
           2
           2
           2
           2
           2
           2
           2
           2
           2
           2
           2
           2
           2
           2
           2
           2
           2
           2
           2
           2
           2
           2
           2
           2
           2
           2
           2
           2
           2
           2
           2
           2
           2
           2
           2
           2
           2
           2
           2
           2
           2
           2
           2
           2
           2
           2
           2
           2
           2
           2
           2
           2
           2
           2
           2
           2
           2
           2
           2
           2
           2
           2
           2
           2
           2
           2
           2
           2
           2
           2
           2
           2
           2
           2
           2
           2
           2
           2
           2
           2
           2
           2
           2
           2
           2
           2
           2
           2
           2
           2
           2
           2
           2
           2
           2
           2
           2
           2
           2
           2
           2
           2
           2
           2
           2
           2
           2
           2
           2
           2
           2
           2
           2
           2
           2
           2
           2
           2
           2
           2
           2
           2
           2
           2
           2
           2
           2
           2
           2
           2
           2
           2
           2
           2
           2
           2
           2
           2
           2
           2
           2
           2
           2
           2
           2
           2
           2
           2
           2
           2
           2
           2
           2
           2
           2
           2
           2
           2
           2
           2
           2
           2
           2
           2
           2
           2
           2
           2
           2
           2
           2
           2
           2
           2
           2
           2
           2
           2
           2
           2
           2
           2
           2
           2
           2
           2
           2
           2
           2
           2
           2
           2
           2
           2
           2
           2
           2
           2
           2
           2
           2
           2
           2
           2
           2
           2
           2
           2
           2
           2
           2
           2
           2
           2
           2
           2
           2
           2
           2
           2
           2
           2
           2
           2
           2
           2
           2
           2
           2
           2
           2
           2
           2
           2
           2
           2
           2
           2
           2
           2
           2
           2
           2
           2
           2
           2
           2
           2
           2
           2
           2
           2
           2
           2
           2
           2
           2
           2
           2
           2
           2
           2
           2
           2
           2
           2
           2
           2
           2
           2
           2
           2
           2
           2
           2
           2
           2
           2
           2
           2
           2
           2
           2
           2
           2
           2
           2
           2
           2
           2
           2
           2
           2
           2
           2
           2
           2
           2
           2
           2
           2
           2
           2
           2
           2
           2
           2
           2
           2
           2
           2
           2
           2
           2
           2
           2
           2
           2
           2
           2
           2
           2
           2
           2
           2
           2
           2
           2
           2
           2
           2
           2
           2
           2
           2
           2
           2
           2
           2
           2
           2
           2
           2
           2
           2
           2
           2
           2
           2
           2
           2
           2
           2
           2
           2
           2
           2
           2
           2
           2
           2
           2
           2
           2
           2
           2
           2
           2
           2
           2
           2
           2
           2
           2
           2
           2
           2
           2
           2
           2
           2
           2
           2
           2
           2
           2
           2
           2
           2
           2
           2
           2
           2
           2
           2
           2
           2
           2
           2
           2
           2
           2
           2
           2
           2
           2
           2
           2
           2
           2
           2
           2
           2
           2
           2
           2
           2
           2
           2
           2
           2
           2
           2
           2
           2
           2
           2
           2
           2
           2
           2
           2
           2
           2
           2
           2
           2
           2
           2
           2
           2
           2
           2
           2
           2
           2
           2
           2
           2
           2
           2
           2
           2
           2
           2
           2
           2
           2
           2
           2
           2
           2
           2
           2
           2
           2
           2
           2
           2
           2
           2
           2
           2
           2
           2
           2
           2
           2
           2
           2
           2
           2
           2
           2
           2
           2
           2
           2
           2
           2
           2
           2
           2
           2
           2
           2
           2
           2
           2
           2
           2
           2
           2
           2
           2
           2
           2
           2
           2
           2
           2
           2
           2
           2
           2
           2
           2
           2
           2
           2
           2
           2
           2
           2
           2
           2
           2
           2
           2
           2
           2
           2
           2
           2
           2
           2
           2
           2
           2
           2
           2
           2
           2
           2
           2
           2
           2
           2
           2
           2
           2
           2
           2
           2
           2
           2
           2
           2
           2
           2
           2
           2
           2
           2
           2
           2
           2
           2
           2
           2
           2
           2
           2
           2
           2
           2
           2
           2
           2
           2
           2
           2
           2
           2
           2
           2
           2
           2
           2
           2
           2
           2
           2
           2
           2
           2
           2
           2
           2
           2
           2
           2
           2
           2
           2
           2
           2
           2
           2
           2
           2
           2
           2
           2
           2
           2
           2
           2
           2
           2
           2
           2
           2
           2
           2
           2
           2
           2
           2
           2
           2
           2
           2
           2
           2
           2
           2
           2
           2
           2
           2
           2
           2
           2
           2
           2
           2
           2
           2
           2
           2
           2
           2
           2
           2
           2
           2
           2
           2
           2
           2
           2
           2
           2
           2
           2
           2
           2
           2
           2
           2
           2
           2
           2
           2
           2
           2
           2
           2
           2
           2
           2
           2
           2
           2
           2
           2
           2
           2
           2
           2
           2
           2
           2
           2
           2
           2
           2
           2
           2
           2
           2
           2
           2
           2
           2
           2
           2
           2
           2
           2
           2
           2
           2
           2
           2
           2
           2
           2
           2
           2
           2
           2
           2
           2
           2
           2
           2
           2
           2
           2
           2
           2
           2
           2
           2
           2
           2
           2
           2
           2
           2
           2
           2
           2
           2
           2
           2
           2
           2
           2
           2
           2
           2
           2
           2
           2
           2
           2
           2
           2
           2
           2
           2
           2
           2
           2
           2
           2
           2
           2
           2
           2
           2
           2
           2
           2
           2
           2
           2
           2
           2
           2
           2
           2
           2
           2
           2
           2
           2
           2
           2
           2
           2
           2
           2
           2
           2
           2
           2
           2
           2
           2
           2
           2
           2
           2
           2
           2
           2
           2
           2
           2
           2
           2
           2
           2
           2
           2
           2
           2
           2
           2
           2
           2
           2
           2
           2
           2
           2
           2
           2
           2
           2
           2
           2
           2
           2
           2
           2
           2
           2
           2
           2
           2
           2
           2
           2
           2
           2
           2
           2
           2
           2
           2
           2
           2
           2
           2
           2
           2
           2
           2
           2
           2
           2
           2
           2
           2
           2
           2
           2
           2
           2
           2
           2
           2
           2
           2
           2
           2
           2
           2
           2
           2
           2
           2
           2
           2
           2
           2
           2
           2
           2
           2
           2
           2
           2
           2
           2
           2
           2
           2
           2
           2
           2
           2
           2
           2
           2
           2
           2
           2
           2
           2
           2
           2
           2
           2
           2
           2
           2
           2
           2
           2
           2
           2
           2
           2
           2
           2
           2
           2
           2
           2
           2
           2
           2
           2
           2
           2
           2
           2
           2
           2
           2
           2
           2
           2
           2
           2
           2
           2
           2
           2
           2
           2
           2
           2
           2
           2
           2
           2
           2
           2
           2
           2
           2
           2
           2
           2
           2
           2
           2
           2
           2
           2
           2
           2
           2
           2
           2
           2
           2
           2
           2
           2
           2
           2
           2
           2
           2
           2
           2
           2
           2
           2
           2
           2
           2
           2
           2
           2
           2
           2
           2
           2
           2
           2
           2
           2
           2
           2
           2
           2
           2
           2
           2
           2
           2
           2
           2
           2
           2
           2
           2
           2
           2
           2
           2
           2
           2
           2
           2
           2
           2
           2
           2
           2
           2
           2
           2
           2
           2
           2
           2
           2
           2
           2
           2
           2
           2
           2
           2
           2
           2
           2
           2
           2
           2
           2
           2
           2
           2
           2
           2
           2
           2
           2
           2
           2
           2
           2
           2
           2
           2
           2
           2
           2
           2
           2
           2
           2
           2
           2
           2
           2
           2
           2
           2
           2
           2
           2
           2
           2
           2
           2
           2
           2
           2
           2
           2
           2
           2
           2
           2
           2
           2
           2
           2
           2
           2
           2
           2
           2
           2
           2
           2
           2
           2
           2
           2
           2
           2
           2
           2
           2
           2
           2
           2
           2
           2
           2
           2
           2
           2
           2
           2
           2
           2
           2
           2
           2
           2
           2
           2
           2
           2
           2
           2
           2
           2
           2
           2
           2
           2
           2
           2
           2
           2
           2
           2
           2
           2
           2
           2
           2
           2
           2
           2
           2
           2
           2
           2
           2
           2
           2
           2
           2
           2
           2
           2
           2
           2
           2
           2
           2
           2
           2
           2
           2
           2
           2
           2
           2
           2
           2
           2
           2
           2
           2
           2
           2
           2
           2
           2
           2
           2
           2
           2
           2
           2
           2
           2
           2
           2
           2
           2
           2
           2
           2
           2
           2
           2
           2
           2
           2
           2
           2
           2
           2
           2
           2
           2
           2
           2
           2
           2
           2
           2
           2
           2
           2
           2
           2
           2
           2
           2
           2
           2
           2
           2
           2
           2
           2
           2
           2
           2
           2
           2
           2
           2
           2
           2
           2
           2
           2
           2
           2
           2
           2
           2
           2
           2
           2
           2
           2
           2
           2
           2
           2
           2
           2
           2
           2
           2
           2
           2
           2
           2
           2
           2
           2
           2
           2
           2
           2
           2
           2
           2
           2
           2
           2
           2
           2
           2
           2
           2
           2
           2
           2
           2
           2
           2
           2
           2
           2
           2
           2
           2
           2
           2
           2
           2
           2
           2
           2
           2
           2
           2
           2
           2
           2
           2
           2
           2
           2
           2
           2
           2
           2
           2
           2
           2
           2
           2
           2
           2
           2
           2
           2
           2
           2
           2
           2
           2
           2
           2
           2
           2
           2
           2
           2
           2
           2
           2
           2
           2
           2
           2
           2
           2
           2
           2
           2
           2
           2
           2
           2
           2
           2
           2
           2
           2
           2
           2
           2
           2
           2
           2
           2
           2
           2
           2
           2
           2
           2
           2
           2
           2
           2
           2
           2
           2
           2
           2
           2
           2
           2
           2
           2
           2
           2
           2
           2
           2
           2
           2
           2
           2
           2
           2
           2
           2
           2
           2
           2
           2
           2
           2
           2
           2
           2
           2
           2
           2
           2
           2
           2
           2
           2
           2
           2
           2
           2
           2
           2
           2
           2
           2
           2
           2
           2
           2
           2
           2
           2
           2
           2
           2
           2
           2
           2
           2
           2
           2
           2
           2
           2
           2
           2
           2
           2
           2
           2
           2
           2
           2
           2
           2
           2
           2
           2
           2
           2
           2
           2
           2
           2
           2
           2
           2
           2
           2
           2
           2
           2
           2
           2
           2
           2
           2
           2
           2
           2
           2
           2
           2
           2
           2
           2
           2
           2
           2
           2
           2
           2
           2
           2
           2
           2
           2
           2
           2
           2
           2
           2
           2
           2
           2
           2
           2
           2
           2
           2
           2
           2
           2
           2
           2
           2
           2
           2
           2
           2
           2
           2
           2
           2
           2
           2
           2
           2
           2
           2
           2
           2
           2
           2
           2
           2
           2
           2
           2
           2
           2
           2
           2
           2
           2
           2
           2
           2
           2
           2
           2
           2
           2
           2
           2
           2
           2
           2
           2
           2
           2
           2
           2
           2
           2
           2
           2
           2
           2
           2
           2
           2
           2
           2
           2
           2
           2
           2
           2
           2
           2
           2
           2
           2
           2
           2
           2
           2
           2
           2
           2
           2
           2
           2
           2
           2
           2
           2
           2
           2
           2
           2
           2
           2
           2
           2
           2
           2
           2
           2
           2
           2
           2
           2
           2
           2
           2
           2
           2
           2
           2
           2
           2
           2
           2
           2
           2
           2
           2
           2
           2
           2
           2
           2
           2
           2
           2
           2
           2
           2
           2
           2
           2
           2
           2
           2
           2
           2
           2
           2
           2
           2
           2
           2
           2
           2
           2
           2
           2
           2
           2
           2
           2
           2
           2
           2
           2
           2
           2
           2
           2
           2
           2
           2
           2
           2
           2
           2
           2
           2
           2
           2
           2
           2
           2
           2
           2
           2
           2
           2
           2
           2
           2
           2
           2
           2
           2
           2
           2
           2
           2
           2
           2
           2
           2
           2
           2
           2
           2
           2
           2
           2
           2
           2
           2
           2
           2
           2
           2
           2
           2
           2
           2
           2
           2
</DataArray>
</CellData>
</Piece>
</UnstructuredGrid>
</VTKFile>
