<VTKFile type="UnstructuredGrid" version="1,0" byte_order="LittleEndian">
<UnstructuredGrid>
<Piece NumberOfPoints="5802" NumberOfCells="5680">
<Points>
<DataArray type="Float64" NumberOfComponents="3" format="ascii">
-0.1100000000000E+01 -0.4260376958938E+01  0.0000000000000E+00
 0.0000000000000E+00 -0.4260376958938E+01  0.0000000000000E+00
 0.1100000000000E+01 -0.4260376958938E+01  0.0000000000000E+00
-0.1294830748007E+01 -0.1260376958938E+01  0.0000000000000E+00
-0.6474153677980E+00 -0.1260376958938E+01  0.0000000000000E+00
 0.6474153802085E+00 -0.1260376958938E+01  0.0000000000000E+00
 0.1294830748007E+01 -0.1260376958938E+01  0.0000000000000E+00
-0.1038349899718E+01  0.8622996231128E+00  0.0000000000000E+00
 0.1038349908233E+01  0.8622996153791E+00  0.0000000000000E+00
-0.5250000000000E+00  0.3489497150362E+00  0.0000000000000E+00
 0.5250000000000E+00  0.3489497150362E+00  0.0000000000000E+00
-0.1072500000000E+01 -0.4260376958938E+01  0.0000000000000E+00
-0.1045000000000E+01 -0.4260376958938E+01  0.0000000000000E+00
-0.1017500000000E+01 -0.4260376958938E+01  0.0000000000000E+00
-0.9900000000000E+00 -0.4260376958938E+01  0.0000000000000E+00
-0.9625000000000E+00 -0.4260376958938E+01  0.0000000000000E+00
-0.9350000000000E+00 -0.4260376958938E+01  0.0000000000000E+00
-0.9075000000000E+00 -0.4260376958938E+01  0.0000000000000E+00
-0.8800000000000E+00 -0.4260376958938E+01  0.0000000000000E+00
-0.8525000000000E+00 -0.4260376958938E+01  0.0000000000000E+00
-0.8250000000000E+00 -0.4260376958938E+01  0.0000000000000E+00
-0.7975000000000E+00 -0.4260376958938E+01  0.0000000000000E+00
-0.7700000000000E+00 -0.4260376958938E+01  0.0000000000000E+00
-0.7425000000000E+00 -0.4260376958938E+01  0.0000000000000E+00
-0.7150000000000E+00 -0.4260376958938E+01  0.0000000000000E+00
-0.6875000000000E+00 -0.4260376958938E+01  0.0000000000000E+00
-0.6600000000000E+00 -0.4260376958938E+01  0.0000000000000E+00
-0.6325000000000E+00 -0.4260376958938E+01  0.0000000000000E+00
-0.6050000000000E+00 -0.4260376958938E+01  0.0000000000000E+00
-0.5775000000000E+00 -0.4260376958938E+01  0.0000000000000E+00
-0.5500000000000E+00 -0.4260376958938E+01  0.0000000000000E+00
-0.5225000000000E+00 -0.4260376958938E+01  0.0000000000000E+00
-0.4950000000000E+00 -0.4260376958938E+01  0.0000000000000E+00
-0.4675000000000E+00 -0.4260376958938E+01  0.0000000000000E+00
-0.4400000000000E+00 -0.4260376958938E+01  0.0000000000000E+00
-0.4125000000000E+00 -0.4260376958938E+01  0.0000000000000E+00
-0.3850000000000E+00 -0.4260376958938E+01  0.0000000000000E+00
-0.3575000000000E+00 -0.4260376958938E+01  0.0000000000000E+00
-0.3300000000000E+00 -0.4260376958938E+01  0.0000000000000E+00
-0.3025000000000E+00 -0.4260376958938E+01  0.0000000000000E+00
-0.2750000000000E+00 -0.4260376958938E+01  0.0000000000000E+00
-0.2475000000000E+00 -0.4260376958938E+01  0.0000000000000E+00
-0.2200000000000E+00 -0.4260376958938E+01  0.0000000000000E+00
-0.1925000000000E+00 -0.4260376958938E+01  0.0000000000000E+00
-0.1650000000000E+00 -0.4260376958938E+01  0.0000000000000E+00
-0.1375000000000E+00 -0.4260376958938E+01  0.0000000000000E+00
-0.1100000000000E+00 -0.4260376958938E+01  0.0000000000000E+00
-0.8250000000000E-01 -0.4260376958938E+01  0.0000000000000E+00
-0.5500000000000E-01 -0.4260376958938E+01  0.0000000000000E+00
-0.2750000000000E-01 -0.4260376958938E+01  0.0000000000000E+00
 0.2750000000000E-01 -0.4260376958938E+01  0.0000000000000E+00
 0.5500000000000E-01 -0.4260376958938E+01  0.0000000000000E+00
 0.8250000000000E-01 -0.4260376958938E+01  0.0000000000000E+00
 0.1100000000000E+00 -0.4260376958938E+01  0.0000000000000E+00
 0.1375000000000E+00 -0.4260376958938E+01  0.0000000000000E+00
 0.1650000000000E+00 -0.4260376958938E+01  0.0000000000000E+00
 0.1925000000000E+00 -0.4260376958938E+01  0.0000000000000E+00
 0.2200000000000E+00 -0.4260376958938E+01  0.0000000000000E+00
 0.2475000000000E+00 -0.4260376958938E+01  0.0000000000000E+00
 0.2750000000000E+00 -0.4260376958938E+01  0.0000000000000E+00
 0.3025000000000E+00 -0.4260376958938E+01  0.0000000000000E+00
 0.3300000000000E+00 -0.4260376958938E+01  0.0000000000000E+00
 0.3575000000000E+00 -0.4260376958938E+01  0.0000000000000E+00
 0.3850000000000E+00 -0.4260376958938E+01  0.0000000000000E+00
 0.4125000000000E+00 -0.4260376958938E+01  0.0000000000000E+00
 0.4400000000000E+00 -0.4260376958938E+01  0.0000000000000E+00
 0.4675000000000E+00 -0.4260376958938E+01  0.0000000000000E+00
 0.4950000000000E+00 -0.4260376958938E+01  0.0000000000000E+00
 0.5225000000000E+00 -0.4260376958938E+01  0.0000000000000E+00
 0.5500000000000E+00 -0.4260376958938E+01  0.0000000000000E+00
 0.5775000000000E+00 -0.4260376958938E+01  0.0000000000000E+00
 0.6050000000000E+00 -0.4260376958938E+01  0.0000000000000E+00
 0.6325000000000E+00 -0.4260376958938E+01  0.0000000000000E+00
 0.6600000000000E+00 -0.4260376958938E+01  0.0000000000000E+00
 0.6875000000000E+00 -0.4260376958938E+01  0.0000000000000E+00
 0.7150000000000E+00 -0.4260376958938E+01  0.0000000000000E+00
 0.7425000000000E+00 -0.4260376958938E+01  0.0000000000000E+00
 0.7700000000000E+00 -0.4260376958938E+01  0.0000000000000E+00
 0.7975000000000E+00 -0.4260376958938E+01  0.0000000000000E+00
 0.8250000000000E+00 -0.4260376958938E+01  0.0000000000000E+00
 0.8525000000000E+00 -0.4260376958938E+01  0.0000000000000E+00
 0.8800000000000E+00 -0.4260376958938E+01  0.0000000000000E+00
 0.9075000000000E+00 -0.4260376958938E+01  0.0000000000000E+00
 0.9350000000000E+00 -0.4260376958938E+01  0.0000000000000E+00
 0.9625000000000E+00 -0.4260376958938E+01  0.0000000000000E+00
 0.9900000000000E+00 -0.4260376958938E+01  0.0000000000000E+00
 0.1017500000000E+01 -0.4260376958938E+01  0.0000000000000E+00
 0.1045000000000E+01 -0.4260376958938E+01  0.0000000000000E+00
 0.1072500000000E+01 -0.4260376958938E+01  0.0000000000000E+00
-0.1262459978996E+01 -0.1260376958938E+01  0.0000000000000E+00
-0.1230089209986E+01 -0.1260376958938E+01  0.0000000000000E+00
-0.1197718440975E+01 -0.1260376958938E+01  0.0000000000000E+00
-0.1165347671965E+01 -0.1260376958938E+01  0.0000000000000E+00
-0.1132976902954E+01 -0.1260376958938E+01  0.0000000000000E+00
-0.1100606133944E+01 -0.1260376958938E+01  0.0000000000000E+00
-0.1068235364934E+01 -0.1260376958938E+01  0.0000000000000E+00
-0.1035864595923E+01 -0.1260376958938E+01  0.0000000000000E+00
-0.1003493826913E+01 -0.1260376958938E+01  0.0000000000000E+00
-0.9711230579023E+00 -0.1260376958938E+01  0.0000000000000E+00
-0.9387522888919E+00 -0.1260376958938E+01  0.0000000000000E+00
-0.9063815198814E+00 -0.1260376958938E+01  0.0000000000000E+00
-0.8740107508710E+00 -0.1260376958938E+01  0.0000000000000E+00
-0.8416399818606E+00 -0.1260376958938E+01  0.0000000000000E+00
-0.8092692128501E+00 -0.1260376958938E+01  0.0000000000000E+00
-0.7768984438397E+00 -0.1260376958938E+01  0.0000000000000E+00
-0.7445276748293E+00 -0.1260376958938E+01  0.0000000000000E+00
-0.7121569058189E+00 -0.1260376958938E+01  0.0000000000000E+00
-0.6797861368084E+00 -0.1260376958938E+01  0.0000000000000E+00
-0.6150445990978E+00 -0.1260376958938E+01  0.0000000000000E+00
-0.5826738303977E+00 -0.1260376958938E+01  0.0000000000000E+00
-0.5503030616975E+00 -0.1260376958938E+01  0.0000000000000E+00
-0.5179322929974E+00 -0.1260376958938E+01  0.0000000000000E+00
-0.4855615242972E+00 -0.1260376958938E+01  0.0000000000000E+00
-0.4531907555970E+00 -0.1260376958938E+01  0.0000000000000E+00
-0.4208199868969E+00 -0.1260376958938E+01  0.0000000000000E+00
-0.3884492181967E+00 -0.1260376958938E+01  0.0000000000000E+00
-0.3560784494965E+00 -0.1260376958938E+01  0.0000000000000E+00
-0.3237076807964E+00 -0.1260376958938E+01  0.0000000000000E+00
-0.2913369120962E+00 -0.1260376958938E+01  0.0000000000000E+00
-0.2589661433960E+00 -0.1260376958938E+01  0.0000000000000E+00
-0.2265953746959E+00 -0.1260376958938E+01  0.0000000000000E+00
-0.1942246059957E+00 -0.1260376958938E+01  0.0000000000000E+00
-0.1618538372956E+00 -0.1260376958938E+01  0.0000000000000E+00
-0.1294830685954E+00 -0.1260376958938E+01  0.0000000000000E+00
-0.9711229989523E-01 -0.1260376958938E+01  0.0000000000000E+00
-0.6474153119507E-01 -0.1260376958938E+01  0.0000000000000E+00
-0.3237076249490E-01 -0.1260376958938E+01  0.0000000000000E+00
 0.6205262220726E-08 -0.1260376958938E+01  0.0000000000000E+00
 0.3237077490543E-01 -0.1260376958938E+01  0.0000000000000E+00
 0.6474154360559E-01 -0.1260376958938E+01  0.0000000000000E+00
 0.9711231230575E-01 -0.1260376958938E+01  0.0000000000000E+00
 0.1294830810059E+00 -0.1260376958938E+01  0.0000000000000E+00
 0.1618538497061E+00 -0.1260376958938E+01  0.0000000000000E+00
 0.1942246184062E+00 -0.1260376958938E+01  0.0000000000000E+00
 0.2265953871064E+00 -0.1260376958938E+01  0.0000000000000E+00
 0.2589661558066E+00 -0.1260376958938E+01  0.0000000000000E+00
 0.2913369245067E+00 -0.1260376958938E+01  0.0000000000000E+00
 0.3237076932069E+00 -0.1260376958938E+01  0.0000000000000E+00
 0.3560784619071E+00 -0.1260376958938E+01  0.0000000000000E+00
 0.3884492306072E+00 -0.1260376958938E+01  0.0000000000000E+00
 0.4208199993074E+00 -0.1260376958938E+01  0.0000000000000E+00
 0.4531907680076E+00 -0.1260376958938E+01  0.0000000000000E+00
 0.4855615367077E+00 -0.1260376958938E+01  0.0000000000000E+00
 0.5179323054079E+00 -0.1260376958938E+01  0.0000000000000E+00
 0.5503030741080E+00 -0.1260376958938E+01  0.0000000000000E+00
 0.5826738428082E+00 -0.1260376958938E+01  0.0000000000000E+00
 0.6150446115084E+00 -0.1260376958938E+01  0.0000000000000E+00
 0.6797861485984E+00 -0.1260376958938E+01  0.0000000000000E+00
 0.7121569169883E+00 -0.1260376958938E+01  0.0000000000000E+00
 0.7445276853782E+00 -0.1260376958938E+01  0.0000000000000E+00
 0.7768984537681E+00 -0.1260376958938E+01  0.0000000000000E+00
 0.8092692221580E+00 -0.1260376958938E+01  0.0000000000000E+00
 0.8416399905479E+00 -0.1260376958938E+01  0.0000000000000E+00
 0.8740107589378E+00 -0.1260376958938E+01  0.0000000000000E+00
 0.9063815273277E+00 -0.1260376958938E+01  0.0000000000000E+00
 0.9387522957176E+00 -0.1260376958938E+01  0.0000000000000E+00
 0.9711230641075E+00 -0.1260376958938E+01  0.0000000000000E+00
 0.1003493832497E+01 -0.1260376958938E+01  0.0000000000000E+00
 0.1035864600887E+01 -0.1260376958938E+01  0.0000000000000E+00
 0.1068235369277E+01 -0.1260376958938E+01  0.0000000000000E+00
 0.1100606137667E+01 -0.1260376958938E+01  0.0000000000000E+00
 0.1132976906057E+01 -0.1260376958938E+01  0.0000000000000E+00
 0.1165347674447E+01 -0.1260376958938E+01  0.0000000000000E+00
 0.1197718442837E+01 -0.1260376958938E+01  0.0000000000000E+00
 0.1230089211227E+01 -0.1260376958938E+01  0.0000000000000E+00
 0.1262459979617E+01 -0.1260376958938E+01  0.0000000000000E+00
-0.1312155011510E+01 -0.1150203083613E+01  0.0000000000000E+00
-0.1327637341374E+01 -0.1039753931085E+01  0.0000000000000E+00
-0.1341665909610E+01 -0.9291104213802E+00  0.0000000000000E+00
-0.1354391361466E+01 -0.8183095298948E+00  0.0000000000000E+00
-0.1365833298202E+01 -0.7073687601696E+00  0.0000000000000E+00
-0.1375894555970E+01 -0.5962944619521E+00  0.0000000000000E+00
-0.1384355932365E+01 -0.4850870562275E+00  0.0000000000000E+00
-0.1391121394834E+01 -0.3737634319943E+00  0.0000000000000E+00
-0.1396094802383E+01 -0.2623461592890E+00  0.0000000000000E+00
-0.1399062707537E+01 -0.1508575645009E+00  0.0000000000000E+00
-0.1399985099640E+01 -0.3933280323447E-01  0.0000000000000E+00
-0.1399371687134E+01  0.7219242573532E-01  0.0000000000000E+00
-0.1392023041888E+01  0.1834402819205E+00  0.0000000000000E+00
-0.1373224643109E+01  0.2933160172014E+00  0.0000000000000E+00
-0.1342254580417E+01  0.4003982422534E+00  0.0000000000000E+00
-0.1299147096451E+01  0.5031944588907E+00  0.0000000000000E+00
-0.1245788737132E+01  0.6010884805479E+00  0.0000000000000E+00
-0.1184295328924E+01  0.6940973779637E+00  0.0000000000000E+00
-0.1115423112669E+01  0.7817798453380E+00  0.0000000000000E+00
-0.9953999080977E+00  0.8990612908450E+00  0.0000000000000E+00
-0.9504827232491E+00  0.9333936741942E+00  0.0000000000000E+00
-0.9038779344468E+00  0.9653991725778E+00  0.0000000000000E+00
-0.8558287935509E+00  0.9951944276872E+00  0.0000000000000E+00
-0.8065745425279E+00  0.1022954470846E+01  0.0000000000000E+00
-0.7563745841864E+00  0.1048968117851E+01  0.0000000000000E+00
-0.7055221739023E+00  0.1073685095719E+01  0.0000000000000E+00
-0.6543373939483E+00  0.1097708159783E+01  0.0000000000000E+00
-0.6030028739072E+00  0.1121408936098E+01  0.0000000000000E+00
-0.5511573080626E+00  0.1143965177158E+01  0.0000000000000E+00
-0.4985400003731E+00  0.1164653488733E+01  0.0000000000000E+00
-0.4451206320031E+00  0.1183171501571E+01  0.0000000000000E+00
-0.3909756266655E+00  0.1199445140769E+01  0.0000000000000E+00
-0.3362124051434E+00  0.1213497677274E+01  0.0000000000000E+00
-0.2809356549253E+00  0.1225380721385E+01  0.0000000000000E+00
-0.2252455004057E+00  0.1235139228470E+01  0.0000000000000E+00
-0.1692277473422E+00  0.1242797659442E+01  0.0000000000000E+00
-0.1129623151839E+00  0.1248349912846E+01  0.0000000000000E+00
-0.5652622173773E-01  0.1251752523713E+01  0.0000000000000E+00
 0.5721518201715E-08  0.1252915917342E+01  0.0000000000000E+00
 0.5652623317123E-01  0.1251752523209E+01  0.0000000000000E+00
 0.1129623265888E+00  0.1248349911861E+01  0.0000000000000E+00
 0.1692277587027E+00  0.1242797657991E+01  0.0000000000000E+00
 0.2252455117006E+00  0.1235139226564E+01  0.0000000000000E+00
 0.2809356661393E+00  0.1225380719029E+01  0.0000000000000E+00
 0.3362124162747E+00  0.1213497674468E+01  0.0000000000000E+00
 0.3909756376678E+00  0.1199445137522E+01  0.0000000000000E+00
 0.4451206428730E+00  0.1183171497887E+01  0.0000000000000E+00
 0.4985400111013E+00  0.1164653484628E+01  0.0000000000000E+00
 0.5511573186457E+00  0.1143965172676E+01  0.0000000000000E+00
 0.6030028843689E+00  0.1121408931341E+01  0.0000000000000E+00
 0.6543374043658E+00  0.1097708154925E+01  0.0000000000000E+00
 0.7055221842887E+00  0.1073685090798E+01  0.0000000000000E+00
 0.7563745944774E+00  0.1048968112736E+01  0.0000000000000E+00
 0.8065745526520E+00  0.1022954465413E+01  0.0000000000000E+00
 0.8558288034476E+00  0.9951944218405E+00  0.0000000000000E+00
 0.9038779440484E+00  0.9653991662662E+00  0.0000000000000E+00
 0.9504827325158E+00  0.9333936673912E+00  0.0000000000000E+00
 0.9953999169960E+00  0.8990612835587E+00  0.0000000000000E+00
 0.1115423119969E+01  0.7817798372309E+00  0.0000000000000E+00
 0.1184295335069E+01  0.6940973696789E+00  0.0000000000000E+00
 0.1245788742186E+01  0.6010884722267E+00  0.0000000000000E+00
 0.1299147100436E+01  0.5031944506385E+00  0.0000000000000E+00
 0.1342254583294E+01  0.4003982341591E+00  0.0000000000000E+00
 0.1373224644928E+01  0.2933160093813E+00  0.0000000000000E+00
 0.1392023042748E+01  0.1834402745273E+00  0.0000000000000E+00
 0.1399371687293E+01  0.7219241886835E-01  0.0000000000000E+00
 0.1399985099629E+01 -0.3933280952953E-01  0.0000000000000E+00
 0.1399062707437E+01 -0.1508575702208E+00  0.0000000000000E+00
 0.1396094802193E+01 -0.2623461644373E+00  0.0000000000000E+00
 0.1391121394584E+01 -0.3737634365663E+00  0.0000000000000E+00
 0.1384355932078E+01 -0.4850870602232E+00  0.0000000000000E+00
 0.1375894555663E+01 -0.5962944653722E+00  0.0000000000000E+00
 0.1365833297899E+01 -0.7073687630143E+00  0.0000000000000E+00
 0.1354391361186E+01 -0.8183095321661E+00  0.0000000000000E+00
 0.1341665909368E+01 -0.9291104230793E+00  0.0000000000000E+00
 0.1327637341185E+01 -0.1039753932216E+01  0.0000000000000E+00
 0.1312155011393E+01 -0.1150203084174E+01  0.0000000000000E+00
-0.1100000000000E+01 -0.4186859601281E+01  0.0000000000000E+00
-0.1100000000000E+01 -0.4113342086429E+01  0.0000000000000E+00
-0.1100000000000E+01 -0.4039824684257E+01  0.0000000000000E+00
-0.1100000000000E+01 -0.3966307217550E+01  0.0000000000000E+00
-0.1100000000000E+01 -0.3892789747717E+01  0.0000000000000E+00
-0.1100000000000E+01 -0.3819272288129E+01  0.0000000000000E+00
-0.1100000000000E+01 -0.3745754823288E+01  0.0000000000000E+00
-0.1100000000000E+01 -0.3672237366229E+01  0.0000000000000E+00
-0.1100000000000E+01 -0.3598719903615E+01  0.0000000000000E+00
-0.1100000000000E+01 -0.3525202280347E+01  0.0000000000000E+00
-0.1100000000000E+01 -0.3451684819510E+01  0.0000000000000E+00
-0.1100000000000E+01 -0.3378167379304E+01  0.0000000000000E+00
-0.1100000000000E+01 -0.3304649961005E+01  0.0000000000000E+00
-0.1100000000000E+01 -0.3231132803085E+01  0.0000000000000E+00
-0.1100000000000E+01 -0.3157615389387E+01  0.0000000000000E+00
-0.1100003367493E+01 -0.3084098002567E+01  0.0000000000000E+00
-0.1100163445176E+01 -0.3010580866809E+01  0.0000000000000E+00
-0.1100782072834E+01 -0.2937066271891E+01  0.0000000000000E+00
-0.1102023699626E+01 -0.2863559587695E+01  0.0000000000000E+00
-0.1103929635720E+01 -0.2790067100603E+01  0.0000000000000E+00
-0.1106486188836E+01 -0.2716594812946E+01  0.0000000000000E+00
-0.1109666467309E+01 -0.2643146234865E+01  0.0000000000000E+00
-0.1113448355568E+01 -0.2569726064901E+01  0.0000000000000E+00
-0.1117821735375E+01 -0.2496339061666E+01  0.0000000000000E+00
-0.1122792268339E+01 -0.2422989996067E+01  0.0000000000000E+00
-0.1128385326244E+01 -0.2349685803919E+01  0.0000000000000E+00
-0.1134650256572E+01 -0.2276436016166E+01  0.0000000000000E+00
-0.1141610183162E+01 -0.2203248992725E+01  0.0000000000000E+00
-0.1149256669967E+01 -0.2130130513310E+01  0.0000000000000E+00
-0.1157601152556E+01 -0.2057088440583E+01  0.0000000000000E+00
-0.1166677440836E+01 -0.1984133466366E+01  0.0000000000000E+00
-0.1176543877319E+01 -0.1911281600770E+01  0.0000000000000E+00
-0.1187286815106E+01 -0.1838554023786E+01  0.0000000000000E+00
-0.1199019040451E+01 -0.1765979519674E+01  0.0000000000000E+00
-0.1211849657205E+01 -0.1693591126070E+01  0.0000000000000E+00
-0.1225739090867E+01 -0.1621398208059E+01  0.0000000000000E+00
-0.1240134799336E+01 -0.1549304059582E+01  0.0000000000000E+00
-0.1254460274118E+01 -0.1477195909045E+01  0.0000000000000E+00
-0.1268516310659E+01 -0.1405034780455E+01  0.0000000000000E+00
-0.1282077126715E+01 -0.1332779095968E+01  0.0000000000000E+00
 0.1282077126706E+01 -0.1332779095966E+01  0.0000000000000E+00
 0.1268516310640E+01 -0.1405034780452E+01  0.0000000000000E+00
 0.1254460274092E+01 -0.1477195909041E+01  0.0000000000000E+00
 0.1240134799309E+01 -0.1549304059577E+01  0.0000000000000E+00
 0.1225739090841E+01 -0.1621398208054E+01  0.0000000000000E+00
 0.1211849657183E+01 -0.1693591126066E+01  0.0000000000000E+00
 0.1199019040432E+01 -0.1765979519671E+01  0.0000000000000E+00
 0.1187286815092E+01 -0.1838554023783E+01  0.0000000000000E+00
 0.1176543877308E+01 -0.1911281600768E+01  0.0000000000000E+00
 0.1166677440828E+01 -0.1984133466364E+01  0.0000000000000E+00
 0.1157601152551E+01 -0.2057088440582E+01  0.0000000000000E+00
 0.1149256669964E+01 -0.2130130513309E+01  0.0000000000000E+00
 0.1141610183160E+01 -0.2203248992724E+01  0.0000000000000E+00
 0.1134650256572E+01 -0.2276436016165E+01  0.0000000000000E+00
 0.1128385326245E+01 -0.2349685803918E+01  0.0000000000000E+00
 0.1122792268340E+01 -0.2422989996067E+01  0.0000000000000E+00
 0.1117821735377E+01 -0.2496339061666E+01  0.0000000000000E+00
 0.1113448355570E+01 -0.2569726064901E+01  0.0000000000000E+00
 0.1109666467311E+01 -0.2643146234864E+01  0.0000000000000E+00
 0.1106486188837E+01 -0.2716594812945E+01  0.0000000000000E+00
 0.1103929635722E+01 -0.2790067100603E+01  0.0000000000000E+00
 0.1102023699627E+01 -0.2863559587694E+01  0.0000000000000E+00
 0.1100782072834E+01 -0.2937066271891E+01  0.0000000000000E+00
 0.1100163445176E+01 -0.3010580866809E+01  0.0000000000000E+00
 0.1100003367493E+01 -0.3084098002567E+01  0.0000000000000E+00
 0.1100000000000E+01 -0.3157615389387E+01  0.0000000000000E+00
 0.1100000000000E+01 -0.3231132803084E+01  0.0000000000000E+00
 0.1100000000000E+01 -0.3304649961005E+01  0.0000000000000E+00
 0.1100000000000E+01 -0.3378167379303E+01  0.0000000000000E+00
 0.1100000000000E+01 -0.3451684819509E+01  0.0000000000000E+00
 0.1100000000000E+01 -0.3525202280347E+01  0.0000000000000E+00
 0.1100000000000E+01 -0.3598719903615E+01  0.0000000000000E+00
 0.1100000000000E+01 -0.3672237366228E+01  0.0000000000000E+00
 0.1100000000000E+01 -0.3745754823288E+01  0.0000000000000E+00
 0.1100000000000E+01 -0.3819272288128E+01  0.0000000000000E+00
 0.1100000000000E+01 -0.3892789747717E+01  0.0000000000000E+00
 0.1100000000000E+01 -0.3966307217550E+01  0.0000000000000E+00
 0.1100000000000E+01 -0.4039824684257E+01  0.0000000000000E+00
 0.1100000000000E+01 -0.4113342086429E+01  0.0000000000000E+00
 0.1100000000000E+01 -0.4186859601281E+01  0.0000000000000E+00
-0.4993026772283E+00  0.3556667767856E+00  0.0000000000000E+00
-0.4735245663412E+00  0.3620663345754E+00  0.0000000000000E+00
-0.4476687203903E+00  0.3681445021493E+00  0.0000000000000E+00
-0.4217386039092E+00  0.3738974563371E+00  0.0000000000000E+00
-0.3957377550662E+00  0.3793215337829E+00  0.0000000000000E+00
-0.3696697320059E+00  0.3844132472497E+00  0.0000000000000E+00
-0.3435383923604E+00  0.3891692391890E+00  0.0000000000000E+00
-0.3173476215928E+00  0.3935863469447E+00  0.0000000000000E+00
-0.2911015020050E+00  0.3976615807158E+00  0.0000000000000E+00
-0.2648041726206E+00  0.4013921568435E+00  0.0000000000000E+00
-0.2384599212245E+00  0.4047754915326E+00  0.0000000000000E+00
-0.2120731315299E+00  0.4078092176262E+00  0.0000000000000E+00
-0.1856482734578E+00  0.4104911929749E+00  0.0000000000000E+00
-0.1591899043058E+00  0.4128195070651E+00  0.0000000000000E+00
-0.1327026716844E+00  0.4147924875445E+00  0.0000000000000E+00
-0.1061912807138E+00  0.4164087088354E+00  0.0000000000000E+00
-0.7966049358352E-01  0.4176669966766E+00  0.0000000000000E+00
-0.5311511853688E-01  0.4185664328113E+00  0.0000000000000E+00
-0.2655999858263E-01  0.4191063586748E+00  0.0000000000000E+00
-0.2220446049250E-15  0.4192863780493E+00  0.0000000000000E+00
 0.2655999858263E-01  0.4191063586748E+00  0.0000000000000E+00
 0.5311511853688E-01  0.4185664328113E+00  0.0000000000000E+00
 0.7966049358352E-01  0.4176669966766E+00  0.0000000000000E+00
 0.1061912807138E+00  0.4164087088354E+00  0.0000000000000E+00
 0.1327026716844E+00  0.4147924875445E+00  0.0000000000000E+00
 0.1591899043058E+00  0.4128195070651E+00  0.0000000000000E+00
 0.1856482734578E+00  0.4104911929749E+00  0.0000000000000E+00
 0.2120731315299E+00  0.4078092176262E+00  0.0000000000000E+00
 0.2384599212245E+00  0.4047754915326E+00  0.0000000000000E+00
 0.2648041726206E+00  0.4013921568435E+00  0.0000000000000E+00
 0.2911015020050E+00  0.3976615807158E+00  0.0000000000000E+00
 0.3173476215928E+00  0.3935863469447E+00  0.0000000000000E+00
 0.3435383923604E+00  0.3891692391890E+00  0.0000000000000E+00
 0.3696697320059E+00  0.3844132472497E+00  0.0000000000000E+00
 0.3957377550662E+00  0.3793215337829E+00  0.0000000000000E+00
 0.4217386039092E+00  0.3738974563371E+00  0.0000000000000E+00
 0.4476687203903E+00  0.3681445021493E+00  0.0000000000000E+00
 0.4735245663412E+00  0.3620663345754E+00  0.0000000000000E+00
 0.4993026772283E+00  0.3556667767856E+00  0.0000000000000E+00
-0.5254305397178E+00  0.2681545389214E+00  0.0000000000000E+00
-0.5268050578882E+00  0.1873700269828E+00  0.0000000000000E+00
-0.5292624474844E+00  0.1066113625129E+00  0.0000000000000E+00
-0.5329591987273E+00  0.2590019213582E-01  0.0000000000000E+00
-0.5380609472327E+00 -0.5473409942444E-01  0.0000000000000E+00
-0.5447201698628E+00 -0.1352545080815E+00  0.0000000000000E+00
-0.5530298983064E+00 -0.2156212933524E+00  0.0000000000000E+00
-0.5629460114855E+00 -0.2958059507282E+00  0.0000000000000E+00
-0.5741921869928E+00 -0.3758154612773E+00  0.0000000000000E+00
-0.5862076862055E+00 -0.4557136218161E+00  0.0000000000000E+00
-0.5982231853407E+00 -0.5356117823665E+00  0.0000000000000E+00
-0.6094693606238E+00 -0.6156212929469E+00  0.0000000000000E+00
-0.6193854734541E+00 -0.6958059503657E+00  0.0000000000000E+00
-0.6276952014524E+00 -0.7761727356826E+00  0.0000000000000E+00
-0.6343544235680E+00 -0.8566931443820E+00  0.0000000000000E+00
-0.6394561715120E+00 -0.9373274359778E+00  0.0000000000000E+00
-0.6431529221637E+00 -0.1018038606382E+01  0.0000000000000E+00
-0.6456103111509E+00 -0.1098797270870E+01  0.0000000000000E+00
-0.6469848287027E+00 -0.1179581782819E+01  0.0000000000000E+00
 0.5254305397188E+00  0.2681545388746E+00  0.0000000000000E+00
 0.5268050578950E+00  0.1873700268891E+00  0.0000000000000E+00
 0.5292624475072E+00  0.1066113623728E+00  0.0000000000000E+00
 0.5329591987840E+00  0.2590019195037E-01  0.0000000000000E+00
 0.5380609473528E+00 -0.5473409965283E-01  0.0000000000000E+00
 0.5447201700916E+00 -0.1352545083477E+00  0.0000000000000E+00
 0.5530298987105E+00 -0.2156212936477E+00  0.0000000000000E+00
 0.5629460121574E+00 -0.2958059510374E+00  0.0000000000000E+00
 0.5741921880529E+00 -0.3758154615791E+00  0.0000000000000E+00
 0.5862076877978E+00 -0.4557136220852E+00  0.0000000000000E+00
 0.5982231876201E+00 -0.5356117825798E+00  0.0000000000000E+00
 0.6094693637399E+00 -0.6156212930901E+00  0.0000000000000E+00
 0.6193854775356E+00 -0.6958059504369E+00  0.0000000000000E+00
 0.6276952065998E+00 -0.7761727356909E+00  0.0000000000000E+00
 0.6343544298531E+00 -0.8566931443434E+00  0.0000000000000E+00
 0.6394561789831E+00 -0.9373274359111E+00  0.0000000000000E+00
 0.6431529308512E+00 -0.1018038606307E+01  0.0000000000000E+00
 0.6456103210724E+00 -0.1098797270804E+01  0.0000000000000E+00
 0.6469848398672E+00 -0.1179581782779E+01  0.0000000000000E+00
-0.5506674949859E+00  0.3746172104400E+00  0.0000000000000E+00
-0.5763349899718E+00  0.4002847058438E+00  0.0000000000000E+00
-0.6020024849577E+00  0.4259522012477E+00  0.0000000000000E+00
-0.6276699799436E+00  0.4516196966515E+00  0.0000000000000E+00
-0.6533374749295E+00  0.4772871920553E+00  0.0000000000000E+00
-0.6790049699154E+00  0.5029546874591E+00  0.0000000000000E+00
-0.7046724649013E+00  0.5286221828630E+00  0.0000000000000E+00
-0.7303399598872E+00  0.5542896782668E+00  0.0000000000000E+00
-0.7560074548731E+00  0.5799571736706E+00  0.0000000000000E+00
-0.7816749498590E+00  0.6056246690745E+00  0.0000000000000E+00
-0.8073424448449E+00  0.6312921644783E+00  0.0000000000000E+00
-0.8330099398308E+00  0.6569596598821E+00  0.0000000000000E+00
-0.8586774348167E+00  0.6826271552860E+00  0.0000000000000E+00
-0.8843449298026E+00  0.7082946506898E+00  0.0000000000000E+00
-0.9100124247885E+00  0.7339621460936E+00  0.0000000000000E+00
-0.9356799197744E+00  0.7596296414974E+00  0.0000000000000E+00
-0.9613474147603E+00  0.7852971369013E+00  0.0000000000000E+00
-0.9870149097462E+00  0.8109646323051E+00  0.0000000000000E+00
-0.1012682404732E+01  0.8366321277089E+00  0.0000000000000E+00
 0.5506674954117E+00  0.3746172100533E+00  0.0000000000000E+00
 0.5763349908233E+00  0.4002847050705E+00  0.0000000000000E+00
 0.6020024862350E+00  0.4259522000876E+00  0.0000000000000E+00
 0.6276699816466E+00  0.4516196951048E+00  0.0000000000000E+00
 0.6533374770583E+00  0.4772871901219E+00  0.0000000000000E+00
 0.6790049724699E+00  0.5029546851390E+00  0.0000000000000E+00
 0.7046724678816E+00  0.5286221801562E+00  0.0000000000000E+00
 0.7303399632932E+00  0.5542896751733E+00  0.0000000000000E+00
 0.7560074587049E+00  0.5799571701905E+00  0.0000000000000E+00
 0.7816749541165E+00  0.6056246652076E+00  0.0000000000000E+00
 0.8073424495282E+00  0.6312921602248E+00  0.0000000000000E+00
 0.8330099449398E+00  0.6569596552419E+00  0.0000000000000E+00
 0.8586774403515E+00  0.6826271502591E+00  0.0000000000000E+00
 0.8843449357631E+00  0.7082946452762E+00  0.0000000000000E+00
 0.9100124311748E+00  0.7339621402934E+00  0.0000000000000E+00
 0.9356799265864E+00  0.7596296353105E+00  0.0000000000000E+00
 0.9613474219981E+00  0.7852971303277E+00  0.0000000000000E+00
 0.9870149174097E+00  0.8109646253448E+00  0.0000000000000E+00
 0.1012682412821E+01  0.8366321203620E+00  0.0000000000000E+00
-0.1072499999993E+01 -0.4186859601281E+01  0.0000000000000E+00
-0.1072499999986E+01 -0.4113342086429E+01  0.0000000000000E+00
-0.1072499999979E+01 -0.4039824684257E+01  0.0000000000000E+00
-0.1072499999972E+01 -0.3966307217550E+01  0.0000000000000E+00
-0.1072499999965E+01 -0.3892789747717E+01  0.0000000000000E+00
-0.1072499999958E+01 -0.3819272288129E+01  0.0000000000000E+00
-0.1072499999951E+01 -0.3745754823288E+01  0.0000000000000E+00
-0.1072499999944E+01 -0.3672237366229E+01  0.0000000000000E+00
-0.1072499999937E+01 -0.3598719903615E+01  0.0000000000000E+00
-0.1072499999930E+01 -0.3525202280347E+01  0.0000000000000E+00
-0.1072499999924E+01 -0.3451684819510E+01  0.0000000000000E+00
-0.1072499999917E+01 -0.3378167379304E+01  0.0000000000000E+00
-0.1072499999910E+01 -0.3304649961005E+01  0.0000000000000E+00
-0.1072499999903E+01 -0.3231132803085E+01  0.0000000000000E+00
-0.1072499999896E+01 -0.3157615389387E+01  0.0000000000000E+00
-0.1072503283195E+01 -0.3084098002567E+01  0.0000000000000E+00
-0.1072659358928E+01 -0.3010580866809E+01  0.0000000000000E+00
-0.1073262520888E+01 -0.2937066271891E+01  0.0000000000000E+00
-0.1074473107003E+01 -0.2863559587695E+01  0.0000000000000E+00
-0.1076331394688E+01 -0.2790067100603E+01  0.0000000000000E+00
-0.1078824033968E+01 -0.2716594812946E+01  0.0000000000000E+00
-0.1081924805472E+01 -0.2643146234865E+01  0.0000000000000E+00
-0.1085612146517E+01 -0.2569726064901E+01  0.0000000000000E+00
-0.1089876191821E+01 -0.2496339061666E+01  0.0000000000000E+00
-0.1094722461453E+01 -0.2422989996067E+01  0.0000000000000E+00
-0.1100175692903E+01 -0.2349685803919E+01  0.0000000000000E+00
-0.1106283999966E+01 -0.2276436016166E+01  0.0000000000000E+00
-0.1113069928383E+01 -0.2203248992725E+01  0.0000000000000E+00
-0.1120525253010E+01 -0.2130130513310E+01  0.0000000000000E+00
-0.1128661123526E+01 -0.2057088440583E+01  0.0000000000000E+00
-0.1137510504591E+01 -0.1984133466366E+01  0.0000000000000E+00
-0.1147130280154E+01 -0.1911281600770E+01  0.0000000000000E+00
-0.1157604644488E+01 -0.1838554023786E+01  0.0000000000000E+00
-0.1169043564191E+01 -0.1765979519674E+01  0.0000000000000E+00
-0.1181553415518E+01 -0.1693591126070E+01  0.0000000000000E+00
-0.1195095613329E+01 -0.1621398208059E+01  0.0000000000000E+00
-0.1209131429078E+01 -0.1549304059582E+01  0.0000000000000E+00
-0.1223098766982E+01 -0.1477195909045E+01  0.0000000000000E+00
-0.1236803402600E+01 -0.1405034780455E+01  0.0000000000000E+00
-0.1250025198245E+01 -0.1332779095968E+01  0.0000000000000E+00
-0.1044999999986E+01 -0.4186859601281E+01  0.0000000000000E+00
-0.1044999999972E+01 -0.4113342086429E+01  0.0000000000000E+00
-0.1044999999958E+01 -0.4039824684257E+01  0.0000000000000E+00
-0.1044999999944E+01 -0.3966307217550E+01  0.0000000000000E+00
-0.1044999999930E+01 -0.3892789747717E+01  0.0000000000000E+00
-0.1044999999917E+01 -0.3819272288129E+01  0.0000000000000E+00
-0.1044999999903E+01 -0.3745754823288E+01  0.0000000000000E+00
-0.1044999999889E+01 -0.3672237366229E+01  0.0000000000000E+00
-0.1044999999875E+01 -0.3598719903615E+01  0.0000000000000E+00
-0.1044999999861E+01 -0.3525202280347E+01  0.0000000000000E+00
-0.1044999999847E+01 -0.3451684819510E+01  0.0000000000000E+00
-0.1044999999833E+01 -0.3378167379304E+01  0.0000000000000E+00
-0.1044999999819E+01 -0.3304649961005E+01  0.0000000000000E+00
-0.1044999999805E+01 -0.3231132803085E+01  0.0000000000000E+00
-0.1044999999791E+01 -0.3157615389387E+01  0.0000000000000E+00
-0.1045003198896E+01 -0.3084098002567E+01  0.0000000000000E+00
-0.1045155272681E+01 -0.3010580866809E+01  0.0000000000000E+00
-0.1045742968942E+01 -0.2937066271891E+01  0.0000000000000E+00
-0.1046922514380E+01 -0.2863559587695E+01  0.0000000000000E+00
-0.1048733153655E+01 -0.2790067100603E+01  0.0000000000000E+00
-0.1051161879100E+01 -0.2716594812946E+01  0.0000000000000E+00
-0.1054183143635E+01 -0.2643146234865E+01  0.0000000000000E+00
-0.1057775937466E+01 -0.2569726064901E+01  0.0000000000000E+00
-0.1061930648268E+01 -0.2496339061666E+01  0.0000000000000E+00
-0.1066652654568E+01 -0.2422989996067E+01  0.0000000000000E+00
-0.1071966059563E+01 -0.2349685803919E+01  0.0000000000000E+00
-0.1077917743359E+01 -0.2276436016166E+01  0.0000000000000E+00
-0.1084529673604E+01 -0.2203248992725E+01  0.0000000000000E+00
-0.1091793836053E+01 -0.2130130513310E+01  0.0000000000000E+00
-0.1099721094497E+01 -0.2057088440583E+01  0.0000000000000E+00
-0.1108343568346E+01 -0.1984133466366E+01  0.0000000000000E+00
-0.1117716682988E+01 -0.1911281600770E+01  0.0000000000000E+00
-0.1127922473870E+01 -0.1838554023786E+01  0.0000000000000E+00
-0.1139068087930E+01 -0.1765979519674E+01  0.0000000000000E+00
-0.1151257173830E+01 -0.1693591126070E+01  0.0000000000000E+00
-0.1164452135791E+01 -0.1621398208059E+01  0.0000000000000E+00
-0.1178128058819E+01 -0.1549304059582E+01  0.0000000000000E+00
-0.1191737259845E+01 -0.1477195909045E+01  0.0000000000000E+00
-0.1205090494541E+01 -0.1405034780455E+01  0.0000000000000E+00
-0.1217973269776E+01 -0.1332779095968E+01  0.0000000000000E+00
-0.1017499999979E+01 -0.4186859601281E+01  0.0000000000000E+00
-0.1017499999958E+01 -0.4113342086429E+01  0.0000000000000E+00
-0.1017499999937E+01 -0.4039824684257E+01  0.0000000000000E+00
-0.1017499999917E+01 -0.3966307217550E+01  0.0000000000000E+00
-0.1017499999896E+01 -0.3892789747717E+01  0.0000000000000E+00
-0.1017499999875E+01 -0.3819272288129E+01  0.0000000000000E+00
-0.1017499999854E+01 -0.3745754823288E+01  0.0000000000000E+00
-0.1017499999833E+01 -0.3672237366229E+01  0.0000000000000E+00
-0.1017499999812E+01 -0.3598719903615E+01  0.0000000000000E+00
-0.1017499999791E+01 -0.3525202280347E+01  0.0000000000000E+00
-0.1017499999771E+01 -0.3451684819510E+01  0.0000000000000E+00
-0.1017499999750E+01 -0.3378167379304E+01  0.0000000000000E+00
-0.1017499999729E+01 -0.3304649961005E+01  0.0000000000000E+00
-0.1017499999708E+01 -0.3231132803085E+01  0.0000000000000E+00
-0.1017499999687E+01 -0.3157615389387E+01  0.0000000000000E+00
-0.1017503114598E+01 -0.3084098002567E+01  0.0000000000000E+00
-0.1017651186433E+01 -0.3010580866809E+01  0.0000000000000E+00
-0.1018223416996E+01 -0.2937066271891E+01  0.0000000000000E+00
-0.1019371921757E+01 -0.2863559587695E+01  0.0000000000000E+00
-0.1021134912623E+01 -0.2790067100603E+01  0.0000000000000E+00
-0.1023499724232E+01 -0.2716594812946E+01  0.0000000000000E+00
-0.1026441481798E+01 -0.2643146234865E+01  0.0000000000000E+00
-0.1029939728415E+01 -0.2569726064901E+01  0.0000000000000E+00
-0.1033985104714E+01 -0.2496339061666E+01  0.0000000000000E+00
-0.1038582847683E+01 -0.2422989996067E+01  0.0000000000000E+00
-0.1043756426222E+01 -0.2349685803919E+01  0.0000000000000E+00
-0.1049551486753E+01 -0.2276436016166E+01  0.0000000000000E+00
-0.1055989418825E+01 -0.2203248992725E+01  0.0000000000000E+00
-0.1063062419096E+01 -0.2130130513310E+01  0.0000000000000E+00
-0.1070781065467E+01 -0.2057088440583E+01  0.0000000000000E+00
-0.1079176632101E+01 -0.1984133466366E+01  0.0000000000000E+00
-0.1088303085823E+01 -0.1911281600770E+01  0.0000000000000E+00
-0.1098240303252E+01 -0.1838554023786E+01  0.0000000000000E+00
-0.1109092611670E+01 -0.1765979519674E+01  0.0000000000000E+00
-0.1120960932142E+01 -0.1693591126070E+01  0.0000000000000E+00
-0.1133808658253E+01 -0.1621398208059E+01  0.0000000000000E+00
-0.1147124688561E+01 -0.1549304059582E+01  0.0000000000000E+00
-0.1160375752708E+01 -0.1477195909045E+01  0.0000000000000E+00
-0.1173377586482E+01 -0.1405034780455E+01  0.0000000000000E+00
-0.1185921341306E+01 -0.1332779095968E+01  0.0000000000000E+00
-0.9899999999722E+00 -0.4186859601281E+01  0.0000000000000E+00
-0.9899999999444E+00 -0.4113342086429E+01  0.0000000000000E+00
-0.9899999999166E+00 -0.4039824684257E+01  0.0000000000000E+00
-0.9899999998888E+00 -0.3966307217550E+01  0.0000000000000E+00
-0.9899999998610E+00 -0.3892789747717E+01  0.0000000000000E+00
-0.9899999998332E+00 -0.3819272288129E+01  0.0000000000000E+00
-0.9899999998054E+00 -0.3745754823288E+01  0.0000000000000E+00
-0.9899999997775E+00 -0.3672237366229E+01  0.0000000000000E+00
-0.9899999997497E+00 -0.3598719903615E+01  0.0000000000000E+00
-0.9899999997219E+00 -0.3525202280347E+01  0.0000000000000E+00
-0.9899999996941E+00 -0.3451684819510E+01  0.0000000000000E+00
-0.9899999996663E+00 -0.3378167379304E+01  0.0000000000000E+00
-0.9899999996385E+00 -0.3304649961005E+01  0.0000000000000E+00
-0.9899999996107E+00 -0.3231132803085E+01  0.0000000000000E+00
-0.9899999995829E+00 -0.3157615389387E+01  0.0000000000000E+00
-0.9900030302991E+00 -0.3084098002567E+01  0.0000000000000E+00
-0.9901471001853E+00 -0.3010580866809E+01  0.0000000000000E+00
-0.9907038650497E+00 -0.2937066271891E+01  0.0000000000000E+00
-0.9918213291341E+00 -0.2863559587695E+01  0.0000000000000E+00
-0.9935366715901E+00 -0.2790067100603E+01  0.0000000000000E+00
-0.9958375693647E+00 -0.2716594812946E+01  0.0000000000000E+00
-0.9986998199612E+00 -0.2643146234865E+01  0.0000000000000E+00
-0.1002103519364E+01 -0.2569726064901E+01  0.0000000000000E+00
-0.1006039561161E+01 -0.2496339061666E+01  0.0000000000000E+00
-0.1010513040798E+01 -0.2422989996067E+01  0.0000000000000E+00
-0.1015546792882E+01 -0.2349685803919E+01  0.0000000000000E+00
-0.1021185230146E+01 -0.2276436016166E+01  0.0000000000000E+00
-0.1027449164046E+01 -0.2203248992725E+01  0.0000000000000E+00
-0.1034331002139E+01 -0.2130130513310E+01  0.0000000000000E+00
-0.1041841036437E+01 -0.2057088440583E+01  0.0000000000000E+00
-0.1050009695856E+01 -0.1984133466366E+01  0.0000000000000E+00
-0.1058889488658E+01 -0.1911281600770E+01  0.0000000000000E+00
-0.1068558132634E+01 -0.1838554023786E+01  0.0000000000000E+00
-0.1079117135410E+01 -0.1765979519674E+01  0.0000000000000E+00
-0.1090664690455E+01 -0.1693591126070E+01  0.0000000000000E+00
-0.1103165180715E+01 -0.1621398208059E+01  0.0000000000000E+00
-0.1116121318302E+01 -0.1549304059582E+01  0.0000000000000E+00
-0.1129014245571E+01 -0.1477195909045E+01  0.0000000000000E+00
-0.1141664678423E+01 -0.1405034780455E+01  0.0000000000000E+00
-0.1153869412837E+01 -0.1332779095968E+01  0.0000000000000E+00
-0.9624999999652E+00 -0.4186859601281E+01  0.0000000000000E+00
-0.9624999999305E+00 -0.4113342086429E+01  0.0000000000000E+00
-0.9624999998957E+00 -0.4039824684257E+01  0.0000000000000E+00
-0.9624999998610E+00 -0.3966307217550E+01  0.0000000000000E+00
-0.9624999998262E+00 -0.3892789747717E+01  0.0000000000000E+00
-0.9624999997914E+00 -0.3819272288129E+01  0.0000000000000E+00
-0.9624999997567E+00 -0.3745754823288E+01  0.0000000000000E+00
-0.9624999997219E+00 -0.3672237366229E+01  0.0000000000000E+00
-0.9624999996872E+00 -0.3598719903615E+01  0.0000000000000E+00
-0.9624999996524E+00 -0.3525202280347E+01  0.0000000000000E+00
-0.9624999996177E+00 -0.3451684819510E+01  0.0000000000000E+00
-0.9624999995829E+00 -0.3378167379304E+01  0.0000000000000E+00
-0.9624999995481E+00 -0.3304649961005E+01  0.0000000000000E+00
-0.9624999995134E+00 -0.3231132803085E+01  0.0000000000000E+00
-0.9624999994786E+00 -0.3157615389387E+01  0.0000000000000E+00
-0.9625029460006E+00 -0.3084098002567E+01  0.0000000000000E+00
-0.9626430139377E+00 -0.3010580866809E+01  0.0000000000000E+00
-0.9631843131036E+00 -0.2937066271891E+01  0.0000000000000E+00
-0.9642707365111E+00 -0.2863559587695E+01  0.0000000000000E+00
-0.9659384305576E+00 -0.2790067100603E+01  0.0000000000000E+00
-0.9681754144969E+00 -0.2716594812946E+01  0.0000000000000E+00
-0.9709581581242E+00 -0.2643146234865E+01  0.0000000000000E+00
-0.9742673103133E+00 -0.2569726064901E+01  0.0000000000000E+00
-0.9780940176073E+00 -0.2496339061666E+01  0.0000000000000E+00
-0.9824432339124E+00 -0.2422989996067E+01  0.0000000000000E+00
-0.9873371595413E+00 -0.2349685803919E+01  0.0000000000000E+00
-0.9928189735396E+00 -0.2276436016166E+01  0.0000000000000E+00
-0.9989089092667E+00 -0.2203248992725E+01  0.0000000000000E+00
-0.1005599585181E+01 -0.2130130513310E+01  0.0000000000000E+00
-0.1012901007407E+01 -0.2057088440583E+01  0.0000000000000E+00
-0.1020842759611E+01 -0.1984133466366E+01  0.0000000000000E+00
-0.1029475891493E+01 -0.1911281600770E+01  0.0000000000000E+00
-0.1038875962015E+01 -0.1838554023786E+01  0.0000000000000E+00
-0.1049141659150E+01 -0.1765979519674E+01  0.0000000000000E+00
-0.1060368448767E+01 -0.1693591126070E+01  0.0000000000000E+00
-0.1072521703177E+01 -0.1621398208059E+01  0.0000000000000E+00
-0.1085117948044E+01 -0.1549304059582E+01  0.0000000000000E+00
-0.1097652738434E+01 -0.1477195909045E+01  0.0000000000000E+00
-0.1109951770363E+01 -0.1405034780455E+01  0.0000000000000E+00
-0.1121817484368E+01 -0.1332779095968E+01  0.0000000000000E+00
-0.9349999999583E+00 -0.4186859601281E+01  0.0000000000000E+00
-0.9349999999166E+00 -0.4113342086429E+01  0.0000000000000E+00
-0.9349999998749E+00 -0.4039824684257E+01  0.0000000000000E+00
-0.9349999998332E+00 -0.3966307217550E+01  0.0000000000000E+00
-0.9349999997914E+00 -0.3892789747717E+01  0.0000000000000E+00
-0.9349999997497E+00 -0.3819272288129E+01  0.0000000000000E+00
-0.9349999997080E+00 -0.3745754823288E+01  0.0000000000000E+00
-0.9349999996663E+00 -0.3672237366229E+01  0.0000000000000E+00
-0.9349999996246E+00 -0.3598719903615E+01  0.0000000000000E+00
-0.9349999995829E+00 -0.3525202280347E+01  0.0000000000000E+00
-0.9349999995412E+00 -0.3451684819510E+01  0.0000000000000E+00
-0.9349999994995E+00 -0.3378167379304E+01  0.0000000000000E+00
-0.9349999994578E+00 -0.3304649961005E+01  0.0000000000000E+00
-0.9349999994161E+00 -0.3231132803085E+01  0.0000000000000E+00
-0.9349999993743E+00 -0.3157615389387E+01  0.0000000000000E+00
-0.9350028617020E+00 -0.3084098002567E+01  0.0000000000000E+00
-0.9351389276901E+00 -0.3010580866809E+01  0.0000000000000E+00
-0.9356647611576E+00 -0.2937066271891E+01  0.0000000000000E+00
-0.9367201438881E+00 -0.2863559587695E+01  0.0000000000000E+00
-0.9383401895250E+00 -0.2790067100603E+01  0.0000000000000E+00
-0.9405132596292E+00 -0.2716594812946E+01  0.0000000000000E+00
-0.9432164962873E+00 -0.2643146234865E+01  0.0000000000000E+00
-0.9464311012625E+00 -0.2569726064901E+01  0.0000000000000E+00
-0.9501484740537E+00 -0.2496339061666E+01  0.0000000000000E+00
-0.9543734270272E+00 -0.2422989996067E+01  0.0000000000000E+00
-0.9591275262008E+00 -0.2349685803919E+01  0.0000000000000E+00
-0.9644527169331E+00 -0.2276436016166E+01  0.0000000000000E+00
-0.9703686544876E+00 -0.2203248992725E+01  0.0000000000000E+00
-0.9768681682243E+00 -0.2130130513310E+01  0.0000000000000E+00
-0.9839609783772E+00 -0.2057088440583E+01  0.0000000000000E+00
-0.9916758233662E+00 -0.1984133466366E+01  0.0000000000000E+00
-0.1000062294328E+01 -0.1911281600770E+01  0.0000000000000E+00
-0.1009193791397E+01 -0.1838554023786E+01  0.0000000000000E+00
-0.1019166182889E+01 -0.1765979519674E+01  0.0000000000000E+00
-0.1030072207079E+01 -0.1693591126070E+01  0.0000000000000E+00
-0.1041878225639E+01 -0.1621398208059E+01  0.0000000000000E+00
-0.1054114577786E+01 -0.1549304059582E+01  0.0000000000000E+00
-0.1066291231298E+01 -0.1477195909045E+01  0.0000000000000E+00
-0.1078238862304E+01 -0.1405034780455E+01  0.0000000000000E+00
-0.1089765555898E+01 -0.1332779095968E+01  0.0000000000000E+00
-0.9074999999513E+00 -0.4186859601281E+01  0.0000000000000E+00
-0.9074999999027E+00 -0.4113342086429E+01  0.0000000000000E+00
-0.9074999998540E+00 -0.4039824684257E+01  0.0000000000000E+00
-0.9074999998054E+00 -0.3966307217550E+01  0.0000000000000E+00
-0.9074999997567E+00 -0.3892789747717E+01  0.0000000000000E+00
-0.9074999997080E+00 -0.3819272288129E+01  0.0000000000000E+00
-0.9074999996594E+00 -0.3745754823288E+01  0.0000000000000E+00
-0.9074999996107E+00 -0.3672237366229E+01  0.0000000000000E+00
-0.9074999995620E+00 -0.3598719903615E+01  0.0000000000000E+00
-0.9074999995134E+00 -0.3525202280347E+01  0.0000000000000E+00
-0.9074999994647E+00 -0.3451684819510E+01  0.0000000000000E+00
-0.9074999994161E+00 -0.3378167379304E+01  0.0000000000000E+00
-0.9074999993674E+00 -0.3304649961005E+01  0.0000000000000E+00
-0.9074999993187E+00 -0.3231132803085E+01  0.0000000000000E+00
-0.9074999992701E+00 -0.3157615389387E+01  0.0000000000000E+00
-0.9075027774034E+00 -0.3084098002567E+01  0.0000000000000E+00
-0.9076348414425E+00 -0.3010580866809E+01  0.0000000000000E+00
-0.9081452092115E+00 -0.2937066271891E+01  0.0000000000000E+00
-0.9091695512650E+00 -0.2863559587695E+01  0.0000000000000E+00
-0.9107419484924E+00 -0.2790067100603E+01  0.0000000000000E+00
-0.9128511047615E+00 -0.2716594812946E+01  0.0000000000000E+00
-0.9154748344504E+00 -0.2643146234865E+01  0.0000000000000E+00
-0.9185948922116E+00 -0.2569726064901E+01  0.0000000000000E+00
-0.9222029305002E+00 -0.2496339061666E+01  0.0000000000000E+00
-0.9263036201420E+00 -0.2422989996067E+01  0.0000000000000E+00
-0.9309178928602E+00 -0.2349685803919E+01  0.0000000000000E+00
-0.9360864603266E+00 -0.2276436016166E+01  0.0000000000000E+00
-0.9418283997085E+00 -0.2203248992725E+01  0.0000000000000E+00
-0.9481367512672E+00 -0.2130130513310E+01  0.0000000000000E+00
-0.9550209493474E+00 -0.2057088440583E+01  0.0000000000000E+00
-0.9625088871213E+00 -0.1984133466366E+01  0.0000000000000E+00
-0.9706486971624E+00 -0.1911281600770E+01  0.0000000000000E+00
-0.9795116207790E+00 -0.1838554023786E+01  0.0000000000000E+00
-0.9891907066292E+00 -0.1765979519674E+01  0.0000000000000E+00
-0.9997759653916E+00 -0.1693591126070E+01  0.0000000000000E+00
-0.1011234748102E+01 -0.1621398208059E+01  0.0000000000000E+00
-0.1023111207527E+01 -0.1549304059582E+01  0.0000000000000E+00
-0.1034929724161E+01 -0.1477195909045E+01  0.0000000000000E+00
-0.1046525954245E+01 -0.1405034780455E+01  0.0000000000000E+00
-0.1057713627429E+01 -0.1332779095968E+01  0.0000000000000E+00
-0.8799999999444E+00 -0.4186859601281E+01  0.0000000000000E+00
-0.8799999998888E+00 -0.4113342086429E+01  0.0000000000000E+00
-0.8799999998332E+00 -0.4039824684257E+01  0.0000000000000E+00
-0.8799999997775E+00 -0.3966307217550E+01  0.0000000000000E+00
-0.8799999997219E+00 -0.3892789747717E+01  0.0000000000000E+00
-0.8799999996663E+00 -0.3819272288129E+01  0.0000000000000E+00
-0.8799999996107E+00 -0.3745754823288E+01  0.0000000000000E+00
-0.8799999995551E+00 -0.3672237366229E+01  0.0000000000000E+00
-0.8799999994995E+00 -0.3598719903615E+01  0.0000000000000E+00
-0.8799999994439E+00 -0.3525202280347E+01  0.0000000000000E+00
-0.8799999993882E+00 -0.3451684819510E+01  0.0000000000000E+00
-0.8799999993326E+00 -0.3378167379304E+01  0.0000000000000E+00
-0.8799999992770E+00 -0.3304649961005E+01  0.0000000000000E+00
-0.8799999992214E+00 -0.3231132803085E+01  0.0000000000000E+00
-0.8799999991658E+00 -0.3157615389387E+01  0.0000000000000E+00
-0.8800026931049E+00 -0.3084098002567E+01  0.0000000000000E+00
-0.8801307551949E+00 -0.3010580866809E+01  0.0000000000000E+00
-0.8806256572654E+00 -0.2937066271891E+01  0.0000000000000E+00
-0.8816189586420E+00 -0.2863559587695E+01  0.0000000000000E+00
-0.8831437074599E+00 -0.2790067100603E+01  0.0000000000000E+00
-0.8851889498937E+00 -0.2716594812946E+01  0.0000000000000E+00
-0.8877331726134E+00 -0.2643146234865E+01  0.0000000000000E+00
-0.8907586831608E+00 -0.2569726064901E+01  0.0000000000000E+00
-0.8942573869466E+00 -0.2496339061666E+01  0.0000000000000E+00
-0.8982338132567E+00 -0.2422989996067E+01  0.0000000000000E+00
-0.9027082595197E+00 -0.2349685803919E+01  0.0000000000000E+00
-0.9077202037202E+00 -0.2276436016166E+01  0.0000000000000E+00
-0.9132881449294E+00 -0.2203248992725E+01  0.0000000000000E+00
-0.9194053343101E+00 -0.2130130513310E+01  0.0000000000000E+00
-0.9260809203175E+00 -0.2057088440583E+01  0.0000000000000E+00
-0.9333419508763E+00 -0.1984133466366E+01  0.0000000000000E+00
-0.9412350999972E+00 -0.1911281600770E+01  0.0000000000000E+00
-0.9498294501608E+00 -0.1838554023786E+01  0.0000000000000E+00
-0.9592152303689E+00 -0.1765979519674E+01  0.0000000000000E+00
-0.9694797237040E+00 -0.1693591126070E+01  0.0000000000000E+00
-0.9805912705636E+00 -0.1621398208059E+01  0.0000000000000E+00
-0.9921078372688E+00 -0.1549304059582E+01  0.0000000000000E+00
-0.1003568217024E+01 -0.1477195909045E+01  0.0000000000000E+00
-0.1014813046186E+01 -0.1405034780455E+01  0.0000000000000E+00
-0.1025661698959E+01 -0.1332779095968E+01  0.0000000000000E+00
-0.8524999999374E+00 -0.4186859601281E+01  0.0000000000000E+00
-0.8524999998749E+00 -0.4113342086429E+01  0.0000000000000E+00
-0.8524999998123E+00 -0.4039824684257E+01  0.0000000000000E+00
-0.8524999997497E+00 -0.3966307217550E+01  0.0000000000000E+00
-0.8524999996872E+00 -0.3892789747717E+01  0.0000000000000E+00
-0.8524999996246E+00 -0.3819272288129E+01  0.0000000000000E+00
-0.8524999995620E+00 -0.3745754823288E+01  0.0000000000000E+00
-0.8524999994995E+00 -0.3672237366229E+01  0.0000000000000E+00
-0.8524999994369E+00 -0.3598719903615E+01  0.0000000000000E+00
-0.8524999993743E+00 -0.3525202280347E+01  0.0000000000000E+00
-0.8524999993118E+00 -0.3451684819510E+01  0.0000000000000E+00
-0.8524999992492E+00 -0.3378167379304E+01  0.0000000000000E+00
-0.8524999991866E+00 -0.3304649961005E+01  0.0000000000000E+00
-0.8524999991241E+00 -0.3231132803085E+01  0.0000000000000E+00
-0.8524999990615E+00 -0.3157615389387E+01  0.0000000000000E+00
-0.8525026088063E+00 -0.3084098002567E+01  0.0000000000000E+00
-0.8526266689474E+00 -0.3010580866809E+01  0.0000000000000E+00
-0.8531061053193E+00 -0.2937066271891E+01  0.0000000000000E+00
-0.8540683660190E+00 -0.2863559587695E+01  0.0000000000000E+00
-0.8555454664273E+00 -0.2790067100603E+01  0.0000000000000E+00
-0.8575267950260E+00 -0.2716594812946E+01  0.0000000000000E+00
-0.8599915107765E+00 -0.2643146234865E+01  0.0000000000000E+00
-0.8629224741099E+00 -0.2569726064901E+01  0.0000000000000E+00
-0.8663118433931E+00 -0.2496339061666E+01  0.0000000000000E+00
-0.8701640063715E+00 -0.2422989996067E+01  0.0000000000000E+00
-0.8744986261792E+00 -0.2349685803919E+01  0.0000000000000E+00
-0.8793539471137E+00 -0.2276436016166E+01  0.0000000000000E+00
-0.8847478901504E+00 -0.2203248992725E+01  0.0000000000000E+00
-0.8906739173530E+00 -0.2130130513310E+01  0.0000000000000E+00
-0.8971408912877E+00 -0.2057088440583E+01  0.0000000000000E+00
-0.9041750146314E+00 -0.1984133466366E+01  0.0000000000000E+00
-0.9118215028320E+00 -0.1911281600770E+01  0.0000000000000E+00
-0.9201472795426E+00 -0.1838554023785E+01  0.0000000000000E+00
-0.9292397541087E+00 -0.1765979519674E+01  0.0000000000000E+00
-0.9391834820163E+00 -0.1693591126070E+01  0.0000000000000E+00
-0.9499477930258E+00 -0.1621398208058E+01  0.0000000000000E+00
-0.9611044670103E+00 -0.1549304059582E+01  0.0000000000000E+00
-0.9722067098871E+00 -0.1477195909045E+01  0.0000000000000E+00
-0.9831001381267E+00 -0.1405034780455E+01  0.0000000000000E+00
-0.9936097704899E+00 -0.1332779095968E+01  0.0000000000000E+00
-0.8249999999305E+00 -0.4186859601281E+01  0.0000000000000E+00
-0.8249999998610E+00 -0.4113342086429E+01  0.0000000000000E+00
-0.8249999997914E+00 -0.4039824684257E+01  0.0000000000000E+00
-0.8249999997219E+00 -0.3966307217550E+01  0.0000000000000E+00
-0.8249999996524E+00 -0.3892789747717E+01  0.0000000000000E+00
-0.8249999995829E+00 -0.3819272288129E+01  0.0000000000000E+00
-0.8249999995134E+00 -0.3745754823288E+01  0.0000000000000E+00
-0.8249999994439E+00 -0.3672237366229E+01  0.0000000000000E+00
-0.8249999993743E+00 -0.3598719903615E+01  0.0000000000000E+00
-0.8249999993048E+00 -0.3525202280347E+01  0.0000000000000E+00
-0.8249999992353E+00 -0.3451684819510E+01  0.0000000000000E+00
-0.8249999991658E+00 -0.3378167379303E+01  0.0000000000000E+00
-0.8249999990963E+00 -0.3304649961005E+01  0.0000000000000E+00
-0.8249999990268E+00 -0.3231132803085E+01  0.0000000000000E+00
-0.8249999989572E+00 -0.3157615389387E+01  0.0000000000000E+00
-0.8250025245077E+00 -0.3084098002567E+01  0.0000000000000E+00
-0.8251225826998E+00 -0.3010580866809E+01  0.0000000000000E+00
-0.8255865533732E+00 -0.2937066271891E+01  0.0000000000000E+00
-0.8265177733960E+00 -0.2863559587695E+01  0.0000000000000E+00
-0.8279472253947E+00 -0.2790067100603E+01  0.0000000000000E+00
-0.8298646401582E+00 -0.2716594812946E+01  0.0000000000000E+00
-0.8322498489395E+00 -0.2643146234865E+01  0.0000000000000E+00
-0.8350862650591E+00 -0.2569726064901E+01  0.0000000000000E+00
-0.8383662998395E+00 -0.2496339061666E+01  0.0000000000000E+00
-0.8420941994863E+00 -0.2422989996067E+01  0.0000000000000E+00
-0.8462889928386E+00 -0.2349685803919E+01  0.0000000000000E+00
-0.8509876905072E+00 -0.2276436016166E+01  0.0000000000000E+00
-0.8562076353713E+00 -0.2203248992725E+01  0.0000000000000E+00
-0.8619425003959E+00 -0.2130130513310E+01  0.0000000000000E+00
-0.8682008622578E+00 -0.2057088440583E+01  0.0000000000000E+00
-0.8750080783865E+00 -0.1984133466366E+01  0.0000000000000E+00
-0.8824079056668E+00 -0.1911281600770E+01  0.0000000000000E+00
-0.8904651089244E+00 -0.1838554023785E+01  0.0000000000000E+00
-0.8992642778485E+00 -0.1765979519674E+01  0.0000000000000E+00
-0.9088872403287E+00 -0.1693591126070E+01  0.0000000000000E+00
-0.9193043154879E+00 -0.1621398208058E+01  0.0000000000000E+00
-0.9301010967519E+00 -0.1549304059582E+01  0.0000000000000E+00
-0.9408452027503E+00 -0.1477195909045E+01  0.0000000000000E+00
-0.9513872300675E+00 -0.1405034780455E+01  0.0000000000000E+00
-0.9615578420205E+00 -0.1332779095968E+01  0.0000000000000E+00
-0.7974999999235E+00 -0.4186859601281E+01  0.0000000000000E+00
-0.7974999998471E+00 -0.4113342086429E+01  0.0000000000000E+00
-0.7974999997706E+00 -0.4039824684257E+01  0.0000000000000E+00
-0.7974999996941E+00 -0.3966307217550E+01  0.0000000000000E+00
-0.7974999996177E+00 -0.3892789747717E+01  0.0000000000000E+00
-0.7974999995412E+00 -0.3819272288129E+01  0.0000000000000E+00
-0.7974999994647E+00 -0.3745754823288E+01  0.0000000000000E+00
-0.7974999993882E+00 -0.3672237366229E+01  0.0000000000000E+00
-0.7974999993118E+00 -0.3598719903615E+01  0.0000000000000E+00
-0.7974999992353E+00 -0.3525202280347E+01  0.0000000000000E+00
-0.7974999991588E+00 -0.3451684819510E+01  0.0000000000000E+00
-0.7974999990824E+00 -0.3378167379303E+01  0.0000000000000E+00
-0.7974999990059E+00 -0.3304649961005E+01  0.0000000000000E+00
-0.7974999989294E+00 -0.3231132803085E+01  0.0000000000000E+00
-0.7974999988530E+00 -0.3157615389387E+01  0.0000000000000E+00
-0.7975024402092E+00 -0.3084098002567E+01  0.0000000000000E+00
-0.7976184964522E+00 -0.3010580866809E+01  0.0000000000000E+00
-0.7980670014271E+00 -0.2937066271891E+01  0.0000000000000E+00
-0.7989671807730E+00 -0.2863559587695E+01  0.0000000000000E+00
-0.8003489843621E+00 -0.2790067100603E+01  0.0000000000000E+00
-0.8022024852905E+00 -0.2716594812946E+01  0.0000000000000E+00
-0.8045081871026E+00 -0.2643146234865E+01  0.0000000000000E+00
-0.8072500560082E+00 -0.2569726064901E+01  0.0000000000000E+00
-0.8104207562860E+00 -0.2496339061666E+01  0.0000000000000E+00
-0.8140243926010E+00 -0.2422989996067E+01  0.0000000000000E+00
-0.8180793594981E+00 -0.2349685803919E+01  0.0000000000000E+00
-0.8226214339007E+00 -0.2276436016166E+01  0.0000000000000E+00
-0.8276673805922E+00 -0.2203248992725E+01  0.0000000000000E+00
-0.8332110834388E+00 -0.2130130513310E+01  0.0000000000000E+00
-0.8392608332280E+00 -0.2057088440583E+01  0.0000000000000E+00
-0.8458411421415E+00 -0.1984133466366E+01  0.0000000000000E+00
-0.8529943085016E+00 -0.1911281600770E+01  0.0000000000000E+00
-0.8607829383062E+00 -0.1838554023785E+01  0.0000000000000E+00
-0.8692888015883E+00 -0.1765979519674E+01  0.0000000000000E+00
-0.8785909986410E+00 -0.1693591126070E+01  0.0000000000000E+00
-0.8886608379500E+00 -0.1621398208058E+01  0.0000000000000E+00
-0.8990977264935E+00 -0.1549304059581E+01  0.0000000000000E+00
-0.9094836956135E+00 -0.1477195909045E+01  0.0000000000000E+00
-0.9196743220083E+00 -0.1405034780455E+01  0.0000000000000E+00
-0.9295059135511E+00 -0.1332779095968E+01  0.0000000000000E+00
-0.7699999999166E+00 -0.4186859601281E+01  0.0000000000000E+00
-0.7699999998332E+00 -0.4113342086429E+01  0.0000000000000E+00
-0.7699999997497E+00 -0.4039824684257E+01  0.0000000000000E+00
-0.7699999996663E+00 -0.3966307217550E+01  0.0000000000000E+00
-0.7699999995829E+00 -0.3892789747717E+01  0.0000000000000E+00
-0.7699999994995E+00 -0.3819272288129E+01  0.0000000000000E+00
-0.7699999994161E+00 -0.3745754823288E+01  0.0000000000000E+00
-0.7699999993326E+00 -0.3672237366229E+01  0.0000000000000E+00
-0.7699999992492E+00 -0.3598719903615E+01  0.0000000000000E+00
-0.7699999991658E+00 -0.3525202280347E+01  0.0000000000000E+00
-0.7699999990824E+00 -0.3451684819510E+01  0.0000000000000E+00
-0.7699999989989E+00 -0.3378167379303E+01  0.0000000000000E+00
-0.7699999989155E+00 -0.3304649961005E+01  0.0000000000000E+00
-0.7699999988321E+00 -0.3231132803085E+01  0.0000000000000E+00
-0.7699999987487E+00 -0.3157615389387E+01  0.0000000000000E+00
-0.7700023559106E+00 -0.3084098002567E+01  0.0000000000000E+00
-0.7701144102046E+00 -0.3010580866809E+01  0.0000000000000E+00
-0.7705474494810E+00 -0.2937066271891E+01  0.0000000000000E+00
-0.7714165881500E+00 -0.2863559587695E+01  0.0000000000000E+00
-0.7727507433296E+00 -0.2790067100603E+01  0.0000000000000E+00
-0.7745403304228E+00 -0.2716594812946E+01  0.0000000000000E+00
-0.7767665252657E+00 -0.2643146234865E+01  0.0000000000000E+00
-0.7794138469574E+00 -0.2569726064901E+01  0.0000000000000E+00
-0.7824752127324E+00 -0.2496339061666E+01  0.0000000000000E+00
-0.7859545857158E+00 -0.2422989996067E+01  0.0000000000000E+00
-0.7898697261576E+00 -0.2349685803919E+01  0.0000000000000E+00
-0.7942551772942E+00 -0.2276436016166E+01  0.0000000000000E+00
-0.7991271258132E+00 -0.2203248992725E+01  0.0000000000000E+00
-0.8044796664817E+00 -0.2130130513310E+01  0.0000000000000E+00
-0.8103208041981E+00 -0.2057088440583E+01  0.0000000000000E+00
-0.8166742058966E+00 -0.1984133466366E+01  0.0000000000000E+00
-0.8235807113364E+00 -0.1911281600770E+01  0.0000000000000E+00
-0.8311007676880E+00 -0.1838554023785E+01  0.0000000000000E+00
-0.8393133253280E+00 -0.1765979519674E+01  0.0000000000000E+00
-0.8482947569534E+00 -0.1693591126070E+01  0.0000000000000E+00
-0.8580173604121E+00 -0.1621398208058E+01  0.0000000000000E+00
-0.8680943562351E+00 -0.1549304059581E+01  0.0000000000000E+00
-0.8781221884767E+00 -0.1477195909045E+01  0.0000000000000E+00
-0.8879614139491E+00 -0.1405034780455E+01  0.0000000000000E+00
-0.8974539850816E+00 -0.1332779095968E+01  0.0000000000000E+00
-0.7424999999096E+00 -0.4186859601281E+01  0.0000000000000E+00
-0.7424999998193E+00 -0.4113342086429E+01  0.0000000000000E+00
-0.7424999997289E+00 -0.4039824684257E+01  0.0000000000000E+00
-0.7424999996385E+00 -0.3966307217550E+01  0.0000000000000E+00
-0.7424999995481E+00 -0.3892789747717E+01  0.0000000000000E+00
-0.7424999994578E+00 -0.3819272288129E+01  0.0000000000000E+00
-0.7424999993674E+00 -0.3745754823288E+01  0.0000000000000E+00
-0.7424999992770E+00 -0.3672237366229E+01  0.0000000000000E+00
-0.7424999991866E+00 -0.3598719903615E+01  0.0000000000000E+00
-0.7424999990963E+00 -0.3525202280347E+01  0.0000000000000E+00
-0.7424999990059E+00 -0.3451684819510E+01  0.0000000000000E+00
-0.7424999989155E+00 -0.3378167379303E+01  0.0000000000000E+00
-0.7424999988252E+00 -0.3304649961005E+01  0.0000000000000E+00
-0.7424999987348E+00 -0.3231132803085E+01  0.0000000000000E+00
-0.7424999986444E+00 -0.3157615389387E+01  0.0000000000000E+00
-0.7425022716120E+00 -0.3084098002567E+01  0.0000000000000E+00
-0.7426103239570E+00 -0.3010580866809E+01  0.0000000000000E+00
-0.7430278975349E+00 -0.2937066271891E+01  0.0000000000000E+00
-0.7438659955270E+00 -0.2863559587695E+01  0.0000000000000E+00
-0.7451525022970E+00 -0.2790067100603E+01  0.0000000000000E+00
-0.7468781755550E+00 -0.2716594812946E+01  0.0000000000000E+00
-0.7490248634287E+00 -0.2643146234865E+01  0.0000000000000E+00
-0.7515776379065E+00 -0.2569726064901E+01  0.0000000000000E+00
-0.7545296691789E+00 -0.2496339061666E+01  0.0000000000000E+00
-0.7578847788306E+00 -0.2422989996067E+01  0.0000000000000E+00
-0.7616600928170E+00 -0.2349685803919E+01  0.0000000000000E+00
-0.7658889206877E+00 -0.2276436016166E+01  0.0000000000000E+00
-0.7705868710341E+00 -0.2203248992725E+01  0.0000000000000E+00
-0.7757482495245E+00 -0.2130130513310E+01  0.0000000000000E+00
-0.7813807751683E+00 -0.2057088440583E+01  0.0000000000000E+00
-0.7875072696517E+00 -0.1984133466366E+01  0.0000000000000E+00
-0.7941671141712E+00 -0.1911281600770E+01  0.0000000000000E+00
-0.8014185970699E+00 -0.1838554023785E+01  0.0000000000000E+00
-0.8093378490678E+00 -0.1765979519674E+01  0.0000000000000E+00
-0.8179985152657E+00 -0.1693591126069E+01  0.0000000000000E+00
-0.8273738828742E+00 -0.1621398208058E+01  0.0000000000000E+00
-0.8370909859766E+00 -0.1549304059581E+01  0.0000000000000E+00
-0.8467606813399E+00 -0.1477195909045E+01  0.0000000000000E+00
-0.8562485058899E+00 -0.1405034780455E+01  0.0000000000000E+00
-0.8654020566122E+00 -0.1332779095967E+01  0.0000000000000E+00
-0.7149999999027E+00 -0.4186859601281E+01  0.0000000000000E+00
-0.7149999998054E+00 -0.4113342086429E+01  0.0000000000000E+00
-0.7149999997080E+00 -0.4039824684257E+01  0.0000000000000E+00
-0.7149999996107E+00 -0.3966307217550E+01  0.0000000000000E+00
-0.7149999995134E+00 -0.3892789747717E+01  0.0000000000000E+00
-0.7149999994161E+00 -0.3819272288129E+01  0.0000000000000E+00
-0.7149999993187E+00 -0.3745754823288E+01  0.0000000000000E+00
-0.7149999992214E+00 -0.3672237366229E+01  0.0000000000000E+00
-0.7149999991241E+00 -0.3598719903615E+01  0.0000000000000E+00
-0.7149999990268E+00 -0.3525202280347E+01  0.0000000000000E+00
-0.7149999989294E+00 -0.3451684819510E+01  0.0000000000000E+00
-0.7149999988321E+00 -0.3378167379303E+01  0.0000000000000E+00
-0.7149999987348E+00 -0.3304649961005E+01  0.0000000000000E+00
-0.7149999986375E+00 -0.3231132803085E+01  0.0000000000000E+00
-0.7149999985401E+00 -0.3157615389387E+01  0.0000000000000E+00
-0.7150021873135E+00 -0.3084098002567E+01  0.0000000000000E+00
-0.7151062377094E+00 -0.3010580866809E+01  0.0000000000000E+00
-0.7155083455888E+00 -0.2937066271891E+01  0.0000000000000E+00
-0.7163154029040E+00 -0.2863559587695E+01  0.0000000000000E+00
-0.7175542612644E+00 -0.2790067100603E+01  0.0000000000000E+00
-0.7192160206873E+00 -0.2716594812946E+01  0.0000000000000E+00
-0.7212832015918E+00 -0.2643146234865E+01  0.0000000000000E+00
-0.7237414288557E+00 -0.2569726064901E+01  0.0000000000000E+00
-0.7265841256253E+00 -0.2496339061666E+01  0.0000000000000E+00
-0.7298149719453E+00 -0.2422989996067E+01  0.0000000000000E+00
-0.7334504594765E+00 -0.2349685803919E+01  0.0000000000000E+00
-0.7375226640812E+00 -0.2276436016166E+01  0.0000000000000E+00
-0.7420466162550E+00 -0.2203248992725E+01  0.0000000000000E+00
-0.7470168325674E+00 -0.2130130513310E+01  0.0000000000000E+00
-0.7524407461384E+00 -0.2057088440583E+01  0.0000000000000E+00
-0.7583403334067E+00 -0.1984133466366E+01  0.0000000000000E+00
-0.7647535170060E+00 -0.1911281600770E+01  0.0000000000000E+00
-0.7717364264517E+00 -0.1838554023785E+01  0.0000000000000E+00
-0.7793623728076E+00 -0.1765979519674E+01  0.0000000000000E+00
-0.7877022735781E+00 -0.1693591126069E+01  0.0000000000000E+00
-0.7967304053363E+00 -0.1621398208058E+01  0.0000000000000E+00
-0.8060876157182E+00 -0.1549304059581E+01  0.0000000000000E+00
-0.8153991742031E+00 -0.1477195909045E+01  0.0000000000000E+00
-0.8245355978307E+00 -0.1405034780454E+01  0.0000000000000E+00
-0.8333501281428E+00 -0.1332779095967E+01  0.0000000000000E+00
-0.6874999998957E+00 -0.4186859601281E+01  0.0000000000000E+00
-0.6874999997914E+00 -0.4113342086429E+01  0.0000000000000E+00
-0.6874999996872E+00 -0.4039824684257E+01  0.0000000000000E+00
-0.6874999995829E+00 -0.3966307217550E+01  0.0000000000000E+00
-0.6874999994786E+00 -0.3892789747717E+01  0.0000000000000E+00
-0.6874999993743E+00 -0.3819272288129E+01  0.0000000000000E+00
-0.6874999992701E+00 -0.3745754823288E+01  0.0000000000000E+00
-0.6874999991658E+00 -0.3672237366229E+01  0.0000000000000E+00
-0.6874999990615E+00 -0.3598719903615E+01  0.0000000000000E+00
-0.6874999989572E+00 -0.3525202280347E+01  0.0000000000000E+00
-0.6874999988530E+00 -0.3451684819510E+01  0.0000000000000E+00
-0.6874999987487E+00 -0.3378167379303E+01  0.0000000000000E+00
-0.6874999986444E+00 -0.3304649961005E+01  0.0000000000000E+00
-0.6874999985401E+00 -0.3231132803085E+01  0.0000000000000E+00
-0.6874999984359E+00 -0.3157615389387E+01  0.0000000000000E+00
-0.6875021030149E+00 -0.3084098002567E+01  0.0000000000000E+00
-0.6876021514618E+00 -0.3010580866809E+01  0.0000000000000E+00
-0.6879887936428E+00 -0.2937066271891E+01  0.0000000000000E+00
-0.6887648102810E+00 -0.2863559587695E+01  0.0000000000000E+00
-0.6899560202319E+00 -0.2790067100603E+01  0.0000000000000E+00
-0.6915538658196E+00 -0.2716594812946E+01  0.0000000000000E+00
-0.6935415397548E+00 -0.2643146234865E+01  0.0000000000000E+00
-0.6959052198048E+00 -0.2569726064901E+01  0.0000000000000E+00
-0.6986385820717E+00 -0.2496339061666E+01  0.0000000000000E+00
-0.7017451650601E+00 -0.2422989996067E+01  0.0000000000000E+00
-0.7052408261360E+00 -0.2349685803919E+01  0.0000000000000E+00
-0.7091564074748E+00 -0.2276436016166E+01  0.0000000000000E+00
-0.7135063614760E+00 -0.2203248992725E+01  0.0000000000000E+00
-0.7182854156103E+00 -0.2130130513310E+01  0.0000000000000E+00
-0.7235007171086E+00 -0.2057088440583E+01  0.0000000000000E+00
-0.7291733971618E+00 -0.1984133466366E+01  0.0000000000000E+00
-0.7353399198408E+00 -0.1911281600770E+01  0.0000000000000E+00
-0.7420542558335E+00 -0.1838554023785E+01  0.0000000000000E+00
-0.7493868965474E+00 -0.1765979519674E+01  0.0000000000000E+00
-0.7574060318904E+00 -0.1693591126069E+01  0.0000000000000E+00
-0.7660869277984E+00 -0.1621398208058E+01  0.0000000000000E+00
-0.7750842454598E+00 -0.1549304059581E+01  0.0000000000000E+00
-0.7840376670663E+00 -0.1477195909044E+01  0.0000000000000E+00
-0.7928226897716E+00 -0.1405034780454E+01  0.0000000000000E+00
-0.8012981996734E+00 -0.1332779095967E+01  0.0000000000000E+00
-0.6599999998888E+00 -0.4186859601281E+01  0.0000000000000E+00
-0.6599999997775E+00 -0.4113342086429E+01  0.0000000000000E+00
-0.6599999996663E+00 -0.4039824684257E+01  0.0000000000000E+00
-0.6599999995551E+00 -0.3966307217550E+01  0.0000000000000E+00
-0.6599999994439E+00 -0.3892789747717E+01  0.0000000000000E+00
-0.6599999993326E+00 -0.3819272288129E+01  0.0000000000000E+00
-0.6599999992214E+00 -0.3745754823288E+01  0.0000000000000E+00
-0.6599999991102E+00 -0.3672237366229E+01  0.0000000000000E+00
-0.6599999989989E+00 -0.3598719903615E+01  0.0000000000000E+00
-0.6599999988877E+00 -0.3525202280347E+01  0.0000000000000E+00
-0.6599999987765E+00 -0.3451684819510E+01  0.0000000000000E+00
-0.6599999986653E+00 -0.3378167379303E+01  0.0000000000000E+00
-0.6599999985540E+00 -0.3304649961005E+01  0.0000000000000E+00
-0.6599999984428E+00 -0.3231132803085E+01  0.0000000000000E+00
-0.6599999983316E+00 -0.3157615389387E+01  0.0000000000000E+00
-0.6600020187164E+00 -0.3084098002567E+01  0.0000000000000E+00
-0.6600980652142E+00 -0.3010580866809E+01  0.0000000000000E+00
-0.6604692416967E+00 -0.2937066271891E+01  0.0000000000000E+00
-0.6612142176580E+00 -0.2863559587695E+01  0.0000000000000E+00
-0.6623577791993E+00 -0.2790067100603E+01  0.0000000000000E+00
-0.6638917109518E+00 -0.2716594812946E+01  0.0000000000000E+00
-0.6657998779179E+00 -0.2643146234865E+01  0.0000000000000E+00
-0.6680690107540E+00 -0.2569726064901E+01  0.0000000000000E+00
-0.6706930385182E+00 -0.2496339061666E+01  0.0000000000000E+00
-0.6736753581749E+00 -0.2422989996067E+01  0.0000000000000E+00
-0.6770311927954E+00 -0.2349685803919E+01  0.0000000000000E+00
-0.6807901508683E+00 -0.2276436016166E+01  0.0000000000000E+00
-0.6849661066969E+00 -0.2203248992725E+01  0.0000000000000E+00
-0.6895539986532E+00 -0.2130130513310E+01  0.0000000000000E+00
-0.6945606880787E+00 -0.2057088440583E+01  0.0000000000000E+00
-0.7000064609169E+00 -0.1984133466366E+01  0.0000000000000E+00
-0.7059263226756E+00 -0.1911281600770E+01  0.0000000000000E+00
-0.7123720852153E+00 -0.1838554023785E+01  0.0000000000000E+00
-0.7194114202871E+00 -0.1765979519674E+01  0.0000000000000E+00
-0.7271097902028E+00 -0.1693591126069E+01  0.0000000000000E+00
-0.7354434502605E+00 -0.1621398208058E+01  0.0000000000000E+00
-0.7440808752013E+00 -0.1549304059581E+01  0.0000000000000E+00
-0.7526761599294E+00 -0.1477195909044E+01  0.0000000000000E+00
-0.7611097817124E+00 -0.1405034780454E+01  0.0000000000000E+00
-0.7692462712040E+00 -0.1332779095967E+01  0.0000000000000E+00
-0.6324999998818E+00 -0.4186859601281E+01  0.0000000000000E+00
-0.6324999997636E+00 -0.4113342086429E+01  0.0000000000000E+00
-0.6324999996455E+00 -0.4039824684257E+01  0.0000000000000E+00
-0.6324999995273E+00 -0.3966307217550E+01  0.0000000000000E+00
-0.6324999994091E+00 -0.3892789747717E+01  0.0000000000000E+00
-0.6324999992909E+00 -0.3819272288129E+01  0.0000000000000E+00
-0.6324999991727E+00 -0.3745754823288E+01  0.0000000000000E+00
-0.6324999990546E+00 -0.3672237366229E+01  0.0000000000000E+00
-0.6324999989364E+00 -0.3598719903615E+01  0.0000000000000E+00
-0.6324999988182E+00 -0.3525202280347E+01  0.0000000000000E+00
-0.6324999987000E+00 -0.3451684819510E+01  0.0000000000000E+00
-0.6324999985818E+00 -0.3378167379303E+01  0.0000000000000E+00
-0.6324999984637E+00 -0.3304649961005E+01  0.0000000000000E+00
-0.6324999983455E+00 -0.3231132803085E+01  0.0000000000000E+00
-0.6324999982273E+00 -0.3157615389387E+01  0.0000000000000E+00
-0.6325019344178E+00 -0.3084098002567E+01  0.0000000000000E+00
-0.6325939789666E+00 -0.3010580866809E+01  0.0000000000000E+00
-0.6329496897506E+00 -0.2937066271891E+01  0.0000000000000E+00
-0.6336636250350E+00 -0.2863559587695E+01  0.0000000000000E+00
-0.6347595381667E+00 -0.2790067100603E+01  0.0000000000000E+00
-0.6362295560841E+00 -0.2716594812946E+01  0.0000000000000E+00
-0.6380582160810E+00 -0.2643146234864E+01  0.0000000000000E+00
-0.6402328017031E+00 -0.2569726064901E+01  0.0000000000000E+00
-0.6427474949646E+00 -0.2496339061666E+01  0.0000000000000E+00
-0.6456055512896E+00 -0.2422989996067E+01  0.0000000000000E+00
-0.6488215594549E+00 -0.2349685803919E+01  0.0000000000000E+00
-0.6524238942618E+00 -0.2276436016166E+01  0.0000000000000E+00
-0.6564258519178E+00 -0.2203248992725E+01  0.0000000000000E+00
-0.6608225816961E+00 -0.2130130513310E+01  0.0000000000000E+00
-0.6656206590488E+00 -0.2057088440583E+01  0.0000000000000E+00
-0.6708395246719E+00 -0.1984133466366E+01  0.0000000000000E+00
-0.6765127255104E+00 -0.1911281600769E+01  0.0000000000000E+00
-0.6826899145971E+00 -0.1838554023785E+01  0.0000000000000E+00
-0.6894359440269E+00 -0.1765979519673E+01  0.0000000000000E+00
-0.6968135485151E+00 -0.1693591126069E+01  0.0000000000000E+00
-0.7047999727226E+00 -0.1621398208058E+01  0.0000000000000E+00
-0.7130775049429E+00 -0.1549304059581E+01  0.0000000000000E+00
-0.7213146527926E+00 -0.1477195909044E+01  0.0000000000000E+00
-0.7293968736532E+00 -0.1405034780454E+01  0.0000000000000E+00
-0.7371943427346E+00 -0.1332779095967E+01  0.0000000000000E+00
-0.6049999998749E+00 -0.4186859601281E+01  0.0000000000000E+00
-0.6049999997497E+00 -0.4113342086429E+01  0.0000000000000E+00
-0.6049999996246E+00 -0.4039824684257E+01  0.0000000000000E+00
-0.6049999994995E+00 -0.3966307217550E+01  0.0000000000000E+00
-0.6049999993743E+00 -0.3892789747717E+01  0.0000000000000E+00
-0.6049999992492E+00 -0.3819272288129E+01  0.0000000000000E+00
-0.6049999991241E+00 -0.3745754823288E+01  0.0000000000000E+00
-0.6049999989989E+00 -0.3672237366228E+01  0.0000000000000E+00
-0.6049999988738E+00 -0.3598719903615E+01  0.0000000000000E+00
-0.6049999987487E+00 -0.3525202280347E+01  0.0000000000000E+00
-0.6049999986236E+00 -0.3451684819510E+01  0.0000000000000E+00
-0.6049999984984E+00 -0.3378167379303E+01  0.0000000000000E+00
-0.6049999983733E+00 -0.3304649961005E+01  0.0000000000000E+00
-0.6049999982482E+00 -0.3231132803085E+01  0.0000000000000E+00
-0.6049999981230E+00 -0.3157615389387E+01  0.0000000000000E+00
-0.6050018501192E+00 -0.3084098002567E+01  0.0000000000000E+00
-0.6050898927190E+00 -0.3010580866809E+01  0.0000000000000E+00
-0.6054301378045E+00 -0.2937066271891E+01  0.0000000000000E+00
-0.6061130324120E+00 -0.2863559587695E+01  0.0000000000000E+00
-0.6071612971342E+00 -0.2790067100603E+01  0.0000000000000E+00
-0.6085674012163E+00 -0.2716594812946E+01  0.0000000000000E+00
-0.6103165542440E+00 -0.2643146234864E+01  0.0000000000000E+00
-0.6123965926523E+00 -0.2569726064901E+01  0.0000000000000E+00
-0.6148019514111E+00 -0.2496339061666E+01  0.0000000000000E+00
-0.6175357444044E+00 -0.2422989996067E+01  0.0000000000000E+00
-0.6206119261143E+00 -0.2349685803919E+01  0.0000000000000E+00
-0.6240576376553E+00 -0.2276436016166E+01  0.0000000000000E+00
-0.6278855971387E+00 -0.2203248992725E+01  0.0000000000000E+00
-0.6320911647390E+00 -0.2130130513310E+01  0.0000000000000E+00
-0.6366806300190E+00 -0.2057088440583E+01  0.0000000000000E+00
-0.6416725884270E+00 -0.1984133466365E+01  0.0000000000000E+00
-0.6470991283452E+00 -0.1911281600769E+01  0.0000000000000E+00
-0.6530077439789E+00 -0.1838554023785E+01  0.0000000000000E+00
-0.6594604677667E+00 -0.1765979519673E+01  0.0000000000000E+00
-0.6665173068275E+00 -0.1693591126069E+01  0.0000000000000E+00
-0.6741564951847E+00 -0.1621398208058E+01  0.0000000000000E+00
-0.6820741346845E+00 -0.1549304059581E+01  0.0000000000000E+00
-0.6899531456558E+00 -0.1477195909044E+01  0.0000000000000E+00
-0.6976839655940E+00 -0.1405034780454E+01  0.0000000000000E+00
-0.7051424142651E+00 -0.1332779095967E+01  0.0000000000000E+00
-0.5774999998679E+00 -0.4186859601281E+01  0.0000000000000E+00
-0.5774999997358E+00 -0.4113342086429E+01  0.0000000000000E+00
-0.5774999996037E+00 -0.4039824684257E+01  0.0000000000000E+00
-0.5774999994717E+00 -0.3966307217550E+01  0.0000000000000E+00
-0.5774999993396E+00 -0.3892789747717E+01  0.0000000000000E+00
-0.5774999992075E+00 -0.3819272288129E+01  0.0000000000000E+00
-0.5774999990754E+00 -0.3745754823288E+01  0.0000000000000E+00
-0.5774999989433E+00 -0.3672237366228E+01  0.0000000000000E+00
-0.5774999988112E+00 -0.3598719903615E+01  0.0000000000000E+00
-0.5774999986792E+00 -0.3525202280347E+01  0.0000000000000E+00
-0.5774999985471E+00 -0.3451684819510E+01  0.0000000000000E+00
-0.5774999984150E+00 -0.3378167379303E+01  0.0000000000000E+00
-0.5774999982829E+00 -0.3304649961005E+01  0.0000000000000E+00
-0.5774999981508E+00 -0.3231132803085E+01  0.0000000000000E+00
-0.5774999980187E+00 -0.3157615389387E+01  0.0000000000000E+00
-0.5775017658207E+00 -0.3084098002567E+01  0.0000000000000E+00
-0.5775858064714E+00 -0.3010580866809E+01  0.0000000000000E+00
-0.5779105858584E+00 -0.2937066271891E+01  0.0000000000000E+00
-0.5785624397890E+00 -0.2863559587695E+01  0.0000000000000E+00
-0.5795630561016E+00 -0.2790067100603E+01  0.0000000000000E+00
-0.5809052463486E+00 -0.2716594812946E+01  0.0000000000000E+00
-0.5825748924071E+00 -0.2643146234864E+01  0.0000000000000E+00
-0.5845603836014E+00 -0.2569726064901E+01  0.0000000000000E+00
-0.5868564078575E+00 -0.2496339061666E+01  0.0000000000000E+00
-0.5894659375192E+00 -0.2422989996067E+01  0.0000000000000E+00
-0.5924022927738E+00 -0.2349685803919E+01  0.0000000000000E+00
-0.5956913810488E+00 -0.2276436016166E+01  0.0000000000000E+00
-0.5993453423597E+00 -0.2203248992725E+01  0.0000000000000E+00
-0.6033597477819E+00 -0.2130130513310E+01  0.0000000000000E+00
-0.6077406009891E+00 -0.2057088440583E+01  0.0000000000000E+00
-0.6125056521821E+00 -0.1984133466365E+01  0.0000000000000E+00
-0.6176855311800E+00 -0.1911281600769E+01  0.0000000000000E+00
-0.6233255733607E+00 -0.1838554023785E+01  0.0000000000000E+00
-0.6294849915065E+00 -0.1765979519673E+01  0.0000000000000E+00
-0.6362210651398E+00 -0.1693591126069E+01  0.0000000000000E+00
-0.6435130176468E+00 -0.1621398208058E+01  0.0000000000000E+00
-0.6510707644261E+00 -0.1549304059581E+01  0.0000000000000E+00
-0.6585916385190E+00 -0.1477195909044E+01  0.0000000000000E+00
-0.6659710575348E+00 -0.1405034780454E+01  0.0000000000000E+00
-0.6730904857957E+00 -0.1332779095967E+01  0.0000000000000E+00
-0.5499999998610E+00 -0.4186859601281E+01  0.0000000000000E+00
-0.5499999997219E+00 -0.4113342086429E+01  0.0000000000000E+00
-0.5499999995829E+00 -0.4039824684257E+01  0.0000000000000E+00
-0.5499999994439E+00 -0.3966307217550E+01  0.0000000000000E+00
-0.5499999993048E+00 -0.3892789747717E+01  0.0000000000000E+00
-0.5499999991658E+00 -0.3819272288129E+01  0.0000000000000E+00
-0.5499999990268E+00 -0.3745754823288E+01  0.0000000000000E+00
-0.5499999988877E+00 -0.3672237366228E+01  0.0000000000000E+00
-0.5499999987487E+00 -0.3598719903615E+01  0.0000000000000E+00
-0.5499999986096E+00 -0.3525202280347E+01  0.0000000000000E+00
-0.5499999984706E+00 -0.3451684819510E+01  0.0000000000000E+00
-0.5499999983316E+00 -0.3378167379303E+01  0.0000000000000E+00
-0.5499999981925E+00 -0.3304649961005E+01  0.0000000000000E+00
-0.5499999980535E+00 -0.3231132803085E+01  0.0000000000000E+00
-0.5499999979145E+00 -0.3157615389387E+01  0.0000000000000E+00
-0.5500016815221E+00 -0.3084098002567E+01  0.0000000000000E+00
-0.5500817202238E+00 -0.3010580866809E+01  0.0000000000000E+00
-0.5503910339123E+00 -0.2937066271891E+01  0.0000000000000E+00
-0.5510118471659E+00 -0.2863559587695E+01  0.0000000000000E+00
-0.5519648150690E+00 -0.2790067100603E+01  0.0000000000000E+00
-0.5532430914809E+00 -0.2716594812946E+01  0.0000000000000E+00
-0.5548332305702E+00 -0.2643146234864E+01  0.0000000000000E+00
-0.5567241745506E+00 -0.2569726064901E+01  0.0000000000000E+00
-0.5589108643040E+00 -0.2496339061666E+01  0.0000000000000E+00
-0.5613961306339E+00 -0.2422989996067E+01  0.0000000000000E+00
-0.5641926594333E+00 -0.2349685803919E+01  0.0000000000000E+00
-0.5673251244423E+00 -0.2276436016166E+01  0.0000000000000E+00
-0.5708050875806E+00 -0.2203248992725E+01  0.0000000000000E+00
-0.5746283308247E+00 -0.2130130513310E+01  0.0000000000000E+00
-0.5788005719593E+00 -0.2057088440583E+01  0.0000000000000E+00
-0.5833387159371E+00 -0.1984133466365E+01  0.0000000000000E+00
-0.5882719340148E+00 -0.1911281600769E+01  0.0000000000000E+00
-0.5936434027425E+00 -0.1838554023785E+01  0.0000000000000E+00
-0.5995095152462E+00 -0.1765979519673E+01  0.0000000000000E+00
-0.6059248234522E+00 -0.1693591126069E+01  0.0000000000000E+00
-0.6128695401089E+00 -0.1621398208058E+01  0.0000000000000E+00
-0.6200673941676E+00 -0.1549304059581E+01  0.0000000000000E+00
-0.6272301313822E+00 -0.1477195909044E+01  0.0000000000000E+00
-0.6342581494756E+00 -0.1405034780454E+01  0.0000000000000E+00
-0.6410385573263E+00 -0.1332779095967E+01  0.0000000000000E+00
-0.5224999998610E+00 -0.4186859601281E+01  0.0000000000000E+00
-0.5224999997219E+00 -0.4113342086429E+01  0.0000000000000E+00
-0.5224999995829E+00 -0.4039824684257E+01  0.0000000000000E+00
-0.5224999994439E+00 -0.3966307217550E+01  0.0000000000000E+00
-0.5224999993048E+00 -0.3892789747717E+01  0.0000000000000E+00
-0.5224999991658E+00 -0.3819272288129E+01  0.0000000000000E+00
-0.5224999990268E+00 -0.3745754823288E+01  0.0000000000000E+00
-0.5224999988877E+00 -0.3672237366228E+01  0.0000000000000E+00
-0.5224999987487E+00 -0.3598719903615E+01  0.0000000000000E+00
-0.5224999986096E+00 -0.3525202280347E+01  0.0000000000000E+00
-0.5224999984706E+00 -0.3451684819510E+01  0.0000000000000E+00
-0.5224999983316E+00 -0.3378167379303E+01  0.0000000000000E+00
-0.5224999981925E+00 -0.3304649961005E+01  0.0000000000000E+00
-0.5224999980535E+00 -0.3231132803085E+01  0.0000000000000E+00
-0.5224999979145E+00 -0.3157615389387E+01  0.0000000000000E+00
-0.5225015973348E+00 -0.3084098002567E+01  0.0000000000000E+00
-0.5225776340944E+00 -0.3010580866809E+01  0.0000000000000E+00
-0.5228714820914E+00 -0.2937066271891E+01  0.0000000000000E+00
-0.5234612546753E+00 -0.2863559587695E+01  0.0000000000000E+00
-0.5243665741760E+00 -0.2790067100603E+01  0.0000000000000E+00
-0.5255809367599E+00 -0.2716594812946E+01  0.0000000000000E+00
-0.5270915688874E+00 -0.2643146234864E+01  0.0000000000000E+00
-0.5288879656614E+00 -0.2569726064901E+01  0.0000000000000E+00
-0.5309653209196E+00 -0.2496339061666E+01  0.0000000000000E+00
-0.5333263239254E+00 -0.2422989996067E+01  0.0000000000000E+00
-0.5359830262772E+00 -0.2349685803919E+01  0.0000000000000E+00
-0.5389588680280E+00 -0.2276436016166E+01  0.0000000000000E+00
-0.5422648330016E+00 -0.2203248992725E+01  0.0000000000000E+00
-0.5458969140756E+00 -0.2130130513310E+01  0.0000000000000E+00
-0.5498605431455E+00 -0.2057088440583E+01  0.0000000000000E+00
-0.5541717799163E+00 -0.1984133466365E+01  0.0000000000000E+00
-0.5588583370819E+00 -0.1911281600769E+01  0.0000000000000E+00
-0.5639612323650E+00 -0.1838554023785E+01  0.0000000000000E+00
-0.5695340392352E+00 -0.1765979519673E+01  0.0000000000000E+00
-0.5756285820223E+00 -0.1693591126069E+01  0.0000000000000E+00
-0.5822260628376E+00 -0.1621398208058E+01  0.0000000000000E+00
-0.5890640241846E+00 -0.1549304059581E+01  0.0000000000000E+00
-0.5958686245296E+00 -0.1477195909044E+01  0.0000000000000E+00
-0.6025452417094E+00 -0.1405034780454E+01  0.0000000000000E+00
-0.6089866291585E+00 -0.1332779095967E+01  0.0000000000000E+00
-0.4949999998610E+00 -0.4186859601281E+01  0.0000000000000E+00
-0.4949999997219E+00 -0.4113342086429E+01  0.0000000000000E+00
-0.4949999995829E+00 -0.4039824684257E+01  0.0000000000000E+00
-0.4949999994439E+00 -0.3966307217550E+01  0.0000000000000E+00
-0.4949999993048E+00 -0.3892789747717E+01  0.0000000000000E+00
-0.4949999991658E+00 -0.3819272288129E+01  0.0000000000000E+00
-0.4949999990268E+00 -0.3745754823288E+01  0.0000000000000E+00
-0.4949999988877E+00 -0.3672237366228E+01  0.0000000000000E+00
-0.4949999987487E+00 -0.3598719903615E+01  0.0000000000000E+00
-0.4949999986096E+00 -0.3525202280347E+01  0.0000000000000E+00
-0.4949999984706E+00 -0.3451684819510E+01  0.0000000000000E+00
-0.4949999983316E+00 -0.3378167379303E+01  0.0000000000000E+00
-0.4949999981925E+00 -0.3304649961005E+01  0.0000000000000E+00
-0.4949999980535E+00 -0.3231132803085E+01  0.0000000000000E+00
-0.4949999979145E+00 -0.3157615389387E+01  0.0000000000000E+00
-0.4950015131474E+00 -0.3084098002567E+01  0.0000000000000E+00
-0.4950735479650E+00 -0.3010580866809E+01  0.0000000000000E+00
-0.4953519302706E+00 -0.2937066271891E+01  0.0000000000000E+00
-0.4959106621846E+00 -0.2863559587695E+01  0.0000000000000E+00
-0.4967683332830E+00 -0.2790067100603E+01  0.0000000000000E+00
-0.4979187820390E+00 -0.2716594812946E+01  0.0000000000000E+00
-0.4993499072047E+00 -0.2643146234864E+01  0.0000000000000E+00
-0.5010517567722E+00 -0.2569726064901E+01  0.0000000000000E+00
-0.5030197775352E+00 -0.2496339061666E+01  0.0000000000000E+00
-0.5052565172169E+00 -0.2422989996067E+01  0.0000000000000E+00
-0.5077733931210E+00 -0.2349685803919E+01  0.0000000000000E+00
-0.5105926116137E+00 -0.2276436016166E+01  0.0000000000000E+00
-0.5137245784225E+00 -0.2203248992725E+01  0.0000000000000E+00
-0.5171654973265E+00 -0.2130130513310E+01  0.0000000000000E+00
-0.5209205143316E+00 -0.2057088440583E+01  0.0000000000000E+00
-0.5250048438955E+00 -0.1984133466365E+01  0.0000000000000E+00
-0.5294447401491E+00 -0.1911281600769E+01  0.0000000000000E+00
-0.5342790619876E+00 -0.1838554023785E+01  0.0000000000000E+00
-0.5395585632242E+00 -0.1765979519673E+01  0.0000000000000E+00
-0.5453323405925E+00 -0.1693591126069E+01  0.0000000000000E+00
-0.5515825855662E+00 -0.1621398208058E+01  0.0000000000000E+00
-0.5580606542015E+00 -0.1549304059581E+01  0.0000000000000E+00
-0.5645071176769E+00 -0.1477195909044E+01  0.0000000000000E+00
-0.5708323339431E+00 -0.1405034780454E+01  0.0000000000000E+00
-0.5769347009908E+00 -0.1332779095967E+01  0.0000000000000E+00
-0.4674999998610E+00 -0.4186859601281E+01  0.0000000000000E+00
-0.4674999997219E+00 -0.4113342086429E+01  0.0000000000000E+00
-0.4674999995829E+00 -0.4039824684257E+01  0.0000000000000E+00
-0.4674999994439E+00 -0.3966307217550E+01  0.0000000000000E+00
-0.4674999993048E+00 -0.3892789747717E+01  0.0000000000000E+00
-0.4674999991658E+00 -0.3819272288129E+01  0.0000000000000E+00
-0.4674999990268E+00 -0.3745754823288E+01  0.0000000000000E+00
-0.4674999988877E+00 -0.3672237366228E+01  0.0000000000000E+00
-0.4674999987487E+00 -0.3598719903615E+01  0.0000000000000E+00
-0.4674999986096E+00 -0.3525202280347E+01  0.0000000000000E+00
-0.4674999984706E+00 -0.3451684819510E+01  0.0000000000000E+00
-0.4674999983316E+00 -0.3378167379303E+01  0.0000000000000E+00
-0.4674999981925E+00 -0.3304649961005E+01  0.0000000000000E+00
-0.4674999980535E+00 -0.3231132803085E+01  0.0000000000000E+00
-0.4674999979145E+00 -0.3157615389387E+01  0.0000000000000E+00
-0.4675014289601E+00 -0.3084098002567E+01  0.0000000000000E+00
-0.4675694618356E+00 -0.3010580866809E+01  0.0000000000000E+00
-0.4678323784497E+00 -0.2937066271891E+01  0.0000000000000E+00
-0.4683600696940E+00 -0.2863559587695E+01  0.0000000000000E+00
-0.4691700923899E+00 -0.2790067100603E+01  0.0000000000000E+00
-0.4702566273181E+00 -0.2716594812946E+01  0.0000000000000E+00
-0.4716082455219E+00 -0.2643146234864E+01  0.0000000000000E+00
-0.4732155478829E+00 -0.2569726064901E+01  0.0000000000000E+00
-0.4750742341508E+00 -0.2496339061666E+01  0.0000000000000E+00
-0.4771867105085E+00 -0.2422989996067E+01  0.0000000000000E+00
-0.4795637599649E+00 -0.2349685803919E+01  0.0000000000000E+00
-0.4822263551994E+00 -0.2276436016165E+01  0.0000000000000E+00
-0.4851843238435E+00 -0.2203248992725E+01  0.0000000000000E+00
-0.4884340805773E+00 -0.2130130513310E+01  0.0000000000000E+00
-0.4919804855178E+00 -0.2057088440583E+01  0.0000000000000E+00
-0.4958379078748E+00 -0.1984133466365E+01  0.0000000000000E+00
-0.5000311432163E+00 -0.1911281600769E+01  0.0000000000000E+00
-0.5045968916101E+00 -0.1838554023785E+01  0.0000000000000E+00
-0.5095830872131E+00 -0.1765979519673E+01  0.0000000000000E+00
-0.5150360991627E+00 -0.1693591126069E+01  0.0000000000000E+00
-0.5209391082949E+00 -0.1621398208058E+01  0.0000000000000E+00
-0.5270572842184E+00 -0.1549304059581E+01  0.0000000000000E+00
-0.5331456108243E+00 -0.1477195909044E+01  0.0000000000000E+00
-0.5391194261769E+00 -0.1405034780454E+01  0.0000000000000E+00
-0.5448827728230E+00 -0.1332779095967E+01  0.0000000000000E+00
-0.4399999998610E+00 -0.4186859601281E+01  0.0000000000000E+00
-0.4399999997219E+00 -0.4113342086429E+01  0.0000000000000E+00
-0.4399999995829E+00 -0.4039824684257E+01  0.0000000000000E+00
-0.4399999994439E+00 -0.3966307217550E+01  0.0000000000000E+00
-0.4399999993048E+00 -0.3892789747717E+01  0.0000000000000E+00
-0.4399999991658E+00 -0.3819272288129E+01  0.0000000000000E+00
-0.4399999990268E+00 -0.3745754823288E+01  0.0000000000000E+00
-0.4399999988877E+00 -0.3672237366228E+01  0.0000000000000E+00
-0.4399999987487E+00 -0.3598719903615E+01  0.0000000000000E+00
-0.4399999986096E+00 -0.3525202280347E+01  0.0000000000000E+00
-0.4399999984706E+00 -0.3451684819510E+01  0.0000000000000E+00
-0.4399999983316E+00 -0.3378167379303E+01  0.0000000000000E+00
-0.4399999981925E+00 -0.3304649961005E+01  0.0000000000000E+00
-0.4399999980535E+00 -0.3231132803085E+01  0.0000000000000E+00
-0.4399999979145E+00 -0.3157615389387E+01  0.0000000000000E+00
-0.4400013447728E+00 -0.3084098002567E+01  0.0000000000000E+00
-0.4400653757062E+00 -0.3010580866809E+01  0.0000000000000E+00
-0.4403128266289E+00 -0.2937066271891E+01  0.0000000000000E+00
-0.4408094772033E+00 -0.2863559587695E+01  0.0000000000000E+00
-0.4415718514969E+00 -0.2790067100603E+01  0.0000000000000E+00
-0.4425944725972E+00 -0.2716594812946E+01  0.0000000000000E+00
-0.4438665838392E+00 -0.2643146234864E+01  0.0000000000000E+00
-0.4453793389937E+00 -0.2569726064901E+01  0.0000000000000E+00
-0.4471286907664E+00 -0.2496339061666E+01  0.0000000000000E+00
-0.4491169038000E+00 -0.2422989996067E+01  0.0000000000000E+00
-0.4513541268088E+00 -0.2349685803919E+01  0.0000000000000E+00
-0.4538600987851E+00 -0.2276436016165E+01  0.0000000000000E+00
-0.4566440692645E+00 -0.2203248992725E+01  0.0000000000000E+00
-0.4597026638282E+00 -0.2130130513310E+01  0.0000000000000E+00
-0.4630404567039E+00 -0.2057088440583E+01  0.0000000000000E+00
-0.4666709718540E+00 -0.1984133466365E+01  0.0000000000000E+00
-0.4706175462834E+00 -0.1911281600769E+01  0.0000000000000E+00
-0.4749147212326E+00 -0.1838554023785E+01  0.0000000000000E+00
-0.4796076112021E+00 -0.1765979519673E+01  0.0000000000000E+00
-0.4847398577328E+00 -0.1693591126069E+01  0.0000000000000E+00
-0.4902956310235E+00 -0.1621398208058E+01  0.0000000000000E+00
-0.4960539142354E+00 -0.1549304059581E+01  0.0000000000000E+00
-0.5017841039716E+00 -0.1477195909044E+01  0.0000000000000E+00
-0.5074065184107E+00 -0.1405034780454E+01  0.0000000000000E+00
-0.5128308446553E+00 -0.1332779095967E+01  0.0000000000000E+00
-0.4124999998610E+00 -0.4186859601281E+01  0.0000000000000E+00
-0.4124999997219E+00 -0.4113342086429E+01  0.0000000000000E+00
-0.4124999995829E+00 -0.4039824684257E+01  0.0000000000000E+00
-0.4124999994439E+00 -0.3966307217550E+01  0.0000000000000E+00
-0.4124999993048E+00 -0.3892789747717E+01  0.0000000000000E+00
-0.4124999991658E+00 -0.3819272288129E+01  0.0000000000000E+00
-0.4124999990268E+00 -0.3745754823288E+01  0.0000000000000E+00
-0.4124999988877E+00 -0.3672237366228E+01  0.0000000000000E+00
-0.4124999987487E+00 -0.3598719903615E+01  0.0000000000000E+00
-0.4124999986096E+00 -0.3525202280347E+01  0.0000000000000E+00
-0.4124999984706E+00 -0.3451684819510E+01  0.0000000000000E+00
-0.4124999983316E+00 -0.3378167379303E+01  0.0000000000000E+00
-0.4124999981925E+00 -0.3304649961005E+01  0.0000000000000E+00
-0.4124999980535E+00 -0.3231132803085E+01  0.0000000000000E+00
-0.4124999979145E+00 -0.3157615389387E+01  0.0000000000000E+00
-0.4125012605854E+00 -0.3084098002567E+01  0.0000000000000E+00
-0.4125612895768E+00 -0.3010580866809E+01  0.0000000000000E+00
-0.4127932748080E+00 -0.2937066271891E+01  0.0000000000000E+00
-0.4132588847126E+00 -0.2863559587695E+01  0.0000000000000E+00
-0.4139736106039E+00 -0.2790067100603E+01  0.0000000000000E+00
-0.4149323178763E+00 -0.2716594812946E+01  0.0000000000000E+00
-0.4161249221564E+00 -0.2643146234864E+01  0.0000000000000E+00
-0.4175431301045E+00 -0.2569726064901E+01  0.0000000000000E+00
-0.4191831473820E+00 -0.2496339061666E+01  0.0000000000000E+00
-0.4210470970915E+00 -0.2422989996067E+01  0.0000000000000E+00
-0.4231444936527E+00 -0.2349685803919E+01  0.0000000000000E+00
-0.4254938423708E+00 -0.2276436016165E+01  0.0000000000000E+00
-0.4281038146855E+00 -0.2203248992725E+01  0.0000000000000E+00
-0.4309712470791E+00 -0.2130130513310E+01  0.0000000000000E+00
-0.4341004278901E+00 -0.2057088440583E+01  0.0000000000000E+00
-0.4375040358332E+00 -0.1984133466365E+01  0.0000000000000E+00
-0.4412039493506E+00 -0.1911281600769E+01  0.0000000000000E+00
-0.4452325508551E+00 -0.1838554023785E+01  0.0000000000000E+00
-0.4496321351910E+00 -0.1765979519673E+01  0.0000000000000E+00
-0.4544436163030E+00 -0.1693591126069E+01  0.0000000000000E+00
-0.4596521537522E+00 -0.1621398208057E+01  0.0000000000000E+00
-0.4650505442523E+00 -0.1549304059581E+01  0.0000000000000E+00
-0.4704225971190E+00 -0.1477195909044E+01  0.0000000000000E+00
-0.4756936106444E+00 -0.1405034780454E+01  0.0000000000000E+00
-0.4807789164875E+00 -0.1332779095967E+01  0.0000000000000E+00
-0.3849999998610E+00 -0.4186859601281E+01  0.0000000000000E+00
-0.3849999997219E+00 -0.4113342086429E+01  0.0000000000000E+00
-0.3849999995829E+00 -0.4039824684257E+01  0.0000000000000E+00
-0.3849999994439E+00 -0.3966307217550E+01  0.0000000000000E+00
-0.3849999993048E+00 -0.3892789747717E+01  0.0000000000000E+00
-0.3849999991658E+00 -0.3819272288129E+01  0.0000000000000E+00
-0.3849999990268E+00 -0.3745754823288E+01  0.0000000000000E+00
-0.3849999988877E+00 -0.3672237366228E+01  0.0000000000000E+00
-0.3849999987487E+00 -0.3598719903615E+01  0.0000000000000E+00
-0.3849999986096E+00 -0.3525202280347E+01  0.0000000000000E+00
-0.3849999984706E+00 -0.3451684819510E+01  0.0000000000000E+00
-0.3849999983316E+00 -0.3378167379303E+01  0.0000000000000E+00
-0.3849999981925E+00 -0.3304649961005E+01  0.0000000000000E+00
-0.3849999980535E+00 -0.3231132803085E+01  0.0000000000000E+00
-0.3849999979145E+00 -0.3157615389387E+01  0.0000000000000E+00
-0.3850011763981E+00 -0.3084098002567E+01  0.0000000000000E+00
-0.3850572034474E+00 -0.3010580866809E+01  0.0000000000000E+00
-0.3852737229872E+00 -0.2937066271891E+01  0.0000000000000E+00
-0.3857082922220E+00 -0.2863559587695E+01  0.0000000000000E+00
-0.3863753697109E+00 -0.2790067100603E+01  0.0000000000000E+00
-0.3872701631554E+00 -0.2716594812946E+01  0.0000000000000E+00
-0.3883832604737E+00 -0.2643146234864E+01  0.0000000000000E+00
-0.3897069212153E+00 -0.2569726064901E+01  0.0000000000000E+00
-0.3912376039976E+00 -0.2496339061666E+01  0.0000000000000E+00
-0.3929772903830E+00 -0.2422989996067E+01  0.0000000000000E+00
-0.3949348604966E+00 -0.2349685803919E+01  0.0000000000000E+00
-0.3971275859565E+00 -0.2276436016165E+01  0.0000000000000E+00
-0.3995635601064E+00 -0.2203248992725E+01  0.0000000000000E+00
-0.4022398303299E+00 -0.2130130513310E+01  0.0000000000000E+00
-0.4051603990763E+00 -0.2057088440583E+01  0.0000000000000E+00
-0.4083370998124E+00 -0.1984133466365E+01  0.0000000000000E+00
-0.4117903524178E+00 -0.1911281600769E+01  0.0000000000000E+00
-0.4155503804777E+00 -0.1838554023785E+01  0.0000000000000E+00
-0.4196566591800E+00 -0.1765979519673E+01  0.0000000000000E+00
-0.4241473748731E+00 -0.1693591126069E+01  0.0000000000000E+00
-0.4290086764809E+00 -0.1621398208057E+01  0.0000000000000E+00
-0.4340471742693E+00 -0.1549304059581E+01  0.0000000000000E+00
-0.4390610902664E+00 -0.1477195909044E+01  0.0000000000000E+00
-0.4439807028782E+00 -0.1405034780454E+01  0.0000000000000E+00
-0.4487269883198E+00 -0.1332779095967E+01  0.0000000000000E+00
-0.3574999998610E+00 -0.4186859601281E+01  0.0000000000000E+00
-0.3574999997219E+00 -0.4113342086429E+01  0.0000000000000E+00
-0.3574999995829E+00 -0.4039824684257E+01  0.0000000000000E+00
-0.3574999994439E+00 -0.3966307217550E+01  0.0000000000000E+00
-0.3574999993048E+00 -0.3892789747717E+01  0.0000000000000E+00
-0.3574999991658E+00 -0.3819272288129E+01  0.0000000000000E+00
-0.3574999990268E+00 -0.3745754823288E+01  0.0000000000000E+00
-0.3574999988877E+00 -0.3672237366228E+01  0.0000000000000E+00
-0.3574999987487E+00 -0.3598719903615E+01  0.0000000000000E+00
-0.3574999986096E+00 -0.3525202280347E+01  0.0000000000000E+00
-0.3574999984706E+00 -0.3451684819510E+01  0.0000000000000E+00
-0.3574999983316E+00 -0.3378167379303E+01  0.0000000000000E+00
-0.3574999981925E+00 -0.3304649961005E+01  0.0000000000000E+00
-0.3574999980535E+00 -0.3231132803085E+01  0.0000000000000E+00
-0.3574999979145E+00 -0.3157615389387E+01  0.0000000000000E+00
-0.3575010922108E+00 -0.3084098002567E+01  0.0000000000000E+00
-0.3575531173181E+00 -0.3010580866809E+01  0.0000000000000E+00
-0.3577541711663E+00 -0.2937066271891E+01  0.0000000000000E+00
-0.3581576997313E+00 -0.2863559587695E+01  0.0000000000000E+00
-0.3587771288178E+00 -0.2790067100603E+01  0.0000000000000E+00
-0.3596080084345E+00 -0.2716594812946E+01  0.0000000000000E+00
-0.3606415987909E+00 -0.2643146234864E+01  0.0000000000000E+00
-0.3618707123261E+00 -0.2569726064901E+01  0.0000000000000E+00
-0.3632920606132E+00 -0.2496339061666E+01  0.0000000000000E+00
-0.3649074836745E+00 -0.2422989996067E+01  0.0000000000000E+00
-0.3667252273405E+00 -0.2349685803919E+01  0.0000000000000E+00
-0.3687613295422E+00 -0.2276436016165E+01  0.0000000000000E+00
-0.3710233055274E+00 -0.2203248992725E+01  0.0000000000000E+00
-0.3735084135808E+00 -0.2130130513310E+01  0.0000000000000E+00
-0.3762203702624E+00 -0.2057088440583E+01  0.0000000000000E+00
-0.3791701637916E+00 -0.1984133466365E+01  0.0000000000000E+00
-0.3823767554850E+00 -0.1911281600769E+01  0.0000000000000E+00
-0.3858682101002E+00 -0.1838554023785E+01  0.0000000000000E+00
-0.3896811831690E+00 -0.1765979519673E+01  0.0000000000000E+00
-0.3938511334433E+00 -0.1693591126069E+01  0.0000000000000E+00
-0.3983651992095E+00 -0.1621398208057E+01  0.0000000000000E+00
-0.4030438042862E+00 -0.1549304059580E+01  0.0000000000000E+00
-0.4076995834137E+00 -0.1477195909044E+01  0.0000000000000E+00
-0.4122677951119E+00 -0.1405034780454E+01  0.0000000000000E+00
-0.4166750601520E+00 -0.1332779095967E+01  0.0000000000000E+00
-0.3299999998610E+00 -0.4186859601281E+01  0.0000000000000E+00
-0.3299999997219E+00 -0.4113342086429E+01  0.0000000000000E+00
-0.3299999995829E+00 -0.4039824684257E+01  0.0000000000000E+00
-0.3299999994439E+00 -0.3966307217550E+01  0.0000000000000E+00
-0.3299999993048E+00 -0.3892789747717E+01  0.0000000000000E+00
-0.3299999991658E+00 -0.3819272288129E+01  0.0000000000000E+00
-0.3299999990268E+00 -0.3745754823288E+01  0.0000000000000E+00
-0.3299999988877E+00 -0.3672237366228E+01  0.0000000000000E+00
-0.3299999987487E+00 -0.3598719903615E+01  0.0000000000000E+00
-0.3299999986096E+00 -0.3525202280347E+01  0.0000000000000E+00
-0.3299999984706E+00 -0.3451684819510E+01  0.0000000000000E+00
-0.3299999983316E+00 -0.3378167379303E+01  0.0000000000000E+00
-0.3299999981925E+00 -0.3304649961005E+01  0.0000000000000E+00
-0.3299999980535E+00 -0.3231132803085E+01  0.0000000000000E+00
-0.3299999979145E+00 -0.3157615389387E+01  0.0000000000000E+00
-0.3300010080234E+00 -0.3084098002567E+01  0.0000000000000E+00
-0.3300490311887E+00 -0.3010580866809E+01  0.0000000000000E+00
-0.3302346193454E+00 -0.2937066271891E+01  0.0000000000000E+00
-0.3306071072407E+00 -0.2863559587695E+01  0.0000000000000E+00
-0.3311788879248E+00 -0.2790067100603E+01  0.0000000000000E+00
-0.3319458537136E+00 -0.2716594812946E+01  0.0000000000000E+00
-0.3328999371082E+00 -0.2643146234864E+01  0.0000000000000E+00
-0.3340345034369E+00 -0.2569726064901E+01  0.0000000000000E+00
-0.3353465172288E+00 -0.2496339061666E+01  0.0000000000000E+00
-0.3368376769660E+00 -0.2422989996067E+01  0.0000000000000E+00
-0.3385155941844E+00 -0.2349685803919E+01  0.0000000000000E+00
-0.3403950731279E+00 -0.2276436016165E+01  0.0000000000000E+00
-0.3424830509484E+00 -0.2203248992725E+01  0.0000000000000E+00
-0.3447769968317E+00 -0.2130130513310E+01  0.0000000000000E+00
-0.3472803414486E+00 -0.2057088440583E+01  0.0000000000000E+00
-0.3500032277708E+00 -0.1984133466365E+01  0.0000000000000E+00
-0.3529631585521E+00 -0.1911281600769E+01  0.0000000000000E+00
-0.3561860397227E+00 -0.1838554023785E+01  0.0000000000000E+00
-0.3597057071579E+00 -0.1765979519673E+01  0.0000000000000E+00
-0.3635548920134E+00 -0.1693591126069E+01  0.0000000000000E+00
-0.3677217219382E+00 -0.1621398208057E+01  0.0000000000000E+00
-0.3720404343031E+00 -0.1549304059580E+01  0.0000000000000E+00
-0.3763380765611E+00 -0.1477195909044E+01  0.0000000000000E+00
-0.3805548873457E+00 -0.1405034780454E+01  0.0000000000000E+00
-0.3846231319842E+00 -0.1332779095967E+01  0.0000000000000E+00
-0.3024999998610E+00 -0.4186859601281E+01  0.0000000000000E+00
-0.3024999997219E+00 -0.4113342086429E+01  0.0000000000000E+00
-0.3024999995829E+00 -0.4039824684257E+01  0.0000000000000E+00
-0.3024999994439E+00 -0.3966307217550E+01  0.0000000000000E+00
-0.3024999993048E+00 -0.3892789747717E+01  0.0000000000000E+00
-0.3024999991658E+00 -0.3819272288129E+01  0.0000000000000E+00
-0.3024999990268E+00 -0.3745754823288E+01  0.0000000000000E+00
-0.3024999988877E+00 -0.3672237366228E+01  0.0000000000000E+00
-0.3024999987487E+00 -0.3598719903615E+01  0.0000000000000E+00
-0.3024999986096E+00 -0.3525202280347E+01  0.0000000000000E+00
-0.3024999984706E+00 -0.3451684819510E+01  0.0000000000000E+00
-0.3024999983316E+00 -0.3378167379303E+01  0.0000000000000E+00
-0.3024999981925E+00 -0.3304649961005E+01  0.0000000000000E+00
-0.3024999980535E+00 -0.3231132803085E+01  0.0000000000000E+00
-0.3024999979145E+00 -0.3157615389387E+01  0.0000000000000E+00
-0.3025009238361E+00 -0.3084098002567E+01  0.0000000000000E+00
-0.3025449450593E+00 -0.3010580866809E+01  0.0000000000000E+00
-0.3027150675246E+00 -0.2937066271891E+01  0.0000000000000E+00
-0.3030565147500E+00 -0.2863559587695E+01  0.0000000000000E+00
-0.3035806470318E+00 -0.2790067100603E+01  0.0000000000000E+00
-0.3042836989927E+00 -0.2716594812946E+01  0.0000000000000E+00
-0.3051582754254E+00 -0.2643146234864E+01  0.0000000000000E+00
-0.3061982945476E+00 -0.2569726064901E+01  0.0000000000000E+00
-0.3074009738444E+00 -0.2496339061666E+01  0.0000000000000E+00
-0.3087678702575E+00 -0.2422989996067E+01  0.0000000000000E+00
-0.3103059610283E+00 -0.2349685803919E+01  0.0000000000000E+00
-0.3120288167136E+00 -0.2276436016165E+01  0.0000000000000E+00
-0.3139427963693E+00 -0.2203248992725E+01  0.0000000000000E+00
-0.3160455800825E+00 -0.2130130513310E+01  0.0000000000000E+00
-0.3183403126348E+00 -0.2057088440583E+01  0.0000000000000E+00
-0.3208362917500E+00 -0.1984133466365E+01  0.0000000000000E+00
-0.3235495616193E+00 -0.1911281600769E+01  0.0000000000000E+00
-0.3265038693452E+00 -0.1838554023785E+01  0.0000000000000E+00
-0.3297302311469E+00 -0.1765979519673E+01  0.0000000000000E+00
-0.3332586505836E+00 -0.1693591126069E+01  0.0000000000000E+00
-0.3370782446668E+00 -0.1621398208057E+01  0.0000000000000E+00
-0.3410370643201E+00 -0.1549304059580E+01  0.0000000000000E+00
-0.3449765697085E+00 -0.1477195909044E+01  0.0000000000000E+00
-0.3488419795795E+00 -0.1405034780454E+01  0.0000000000000E+00
-0.3525712038165E+00 -0.1332779095967E+01  0.0000000000000E+00
-0.2749999998610E+00 -0.4186859601281E+01  0.0000000000000E+00
-0.2749999997219E+00 -0.4113342086429E+01  0.0000000000000E+00
-0.2749999995829E+00 -0.4039824684257E+01  0.0000000000000E+00
-0.2749999994439E+00 -0.3966307217550E+01  0.0000000000000E+00
-0.2749999993048E+00 -0.3892789747717E+01  0.0000000000000E+00
-0.2749999991658E+00 -0.3819272288129E+01  0.0000000000000E+00
-0.2749999990268E+00 -0.3745754823288E+01  0.0000000000000E+00
-0.2749999988877E+00 -0.3672237366228E+01  0.0000000000000E+00
-0.2749999987487E+00 -0.3598719903615E+01  0.0000000000000E+00
-0.2749999986096E+00 -0.3525202280347E+01  0.0000000000000E+00
-0.2749999984706E+00 -0.3451684819510E+01  0.0000000000000E+00
-0.2749999983316E+00 -0.3378167379303E+01  0.0000000000000E+00
-0.2749999981925E+00 -0.3304649961005E+01  0.0000000000000E+00
-0.2749999980535E+00 -0.3231132803085E+01  0.0000000000000E+00
-0.2749999979145E+00 -0.3157615389387E+01  0.0000000000000E+00
-0.2750008396488E+00 -0.3084098002567E+01  0.0000000000000E+00
-0.2750408589299E+00 -0.3010580866809E+01  0.0000000000000E+00
-0.2751955157037E+00 -0.2937066271891E+01  0.0000000000000E+00
-0.2755059222593E+00 -0.2863559587695E+01  0.0000000000000E+00
-0.2759824061388E+00 -0.2790067100603E+01  0.0000000000000E+00
-0.2766215442717E+00 -0.2716594812946E+01  0.0000000000000E+00
-0.2774166137427E+00 -0.2643146234864E+01  0.0000000000000E+00
-0.2783620856584E+00 -0.2569726064901E+01  0.0000000000000E+00
-0.2794554304600E+00 -0.2496339061666E+01  0.0000000000000E+00
-0.2806980635491E+00 -0.2422989996067E+01  0.0000000000000E+00
-0.2820963278721E+00 -0.2349685803919E+01  0.0000000000000E+00
-0.2836625602993E+00 -0.2276436016165E+01  0.0000000000000E+00
-0.2854025417903E+00 -0.2203248992725E+01  0.0000000000000E+00
-0.2873141633334E+00 -0.2130130513310E+01  0.0000000000000E+00
-0.2894002838209E+00 -0.2057088440583E+01  0.0000000000000E+00
-0.2916693557292E+00 -0.1984133466365E+01  0.0000000000000E+00
-0.2941359646865E+00 -0.1911281600769E+01  0.0000000000000E+00
-0.2968216989678E+00 -0.1838554023785E+01  0.0000000000000E+00
-0.2997547551359E+00 -0.1765979519673E+01  0.0000000000000E+00
-0.3029624091537E+00 -0.1693591126069E+01  0.0000000000000E+00
-0.3064347673955E+00 -0.1621398208057E+01  0.0000000000000E+00
-0.3100336943370E+00 -0.1549304059580E+01  0.0000000000000E+00
-0.3136150628558E+00 -0.1477195909044E+01  0.0000000000000E+00
-0.3171290718132E+00 -0.1405034780454E+01  0.0000000000000E+00
-0.3205192756487E+00 -0.1332779095967E+01  0.0000000000000E+00
-0.2474999998610E+00 -0.4186859601281E+01  0.0000000000000E+00
-0.2474999997219E+00 -0.4113342086429E+01  0.0000000000000E+00
-0.2474999995829E+00 -0.4039824684257E+01  0.0000000000000E+00
-0.2474999994439E+00 -0.3966307217550E+01  0.0000000000000E+00
-0.2474999993048E+00 -0.3892789747717E+01  0.0000000000000E+00
-0.2474999991658E+00 -0.3819272288129E+01  0.0000000000000E+00
-0.2474999990268E+00 -0.3745754823288E+01  0.0000000000000E+00
-0.2474999988877E+00 -0.3672237366228E+01  0.0000000000000E+00
-0.2474999987487E+00 -0.3598719903615E+01  0.0000000000000E+00
-0.2474999986096E+00 -0.3525202280347E+01  0.0000000000000E+00
-0.2474999984706E+00 -0.3451684819510E+01  0.0000000000000E+00
-0.2474999983316E+00 -0.3378167379303E+01  0.0000000000000E+00
-0.2474999981925E+00 -0.3304649961005E+01  0.0000000000000E+00
-0.2474999980535E+00 -0.3231132803085E+01  0.0000000000000E+00
-0.2474999979145E+00 -0.3157615389387E+01  0.0000000000000E+00
-0.2475007554614E+00 -0.3084098002567E+01  0.0000000000000E+00
-0.2475367728005E+00 -0.3010580866809E+01  0.0000000000000E+00
-0.2476759638829E+00 -0.2937066271891E+01  0.0000000000000E+00
-0.2479553297687E+00 -0.2863559587695E+01  0.0000000000000E+00
-0.2483841652457E+00 -0.2790067100603E+01  0.0000000000000E+00
-0.2489593895508E+00 -0.2716594812946E+01  0.0000000000000E+00
-0.2496749520599E+00 -0.2643146234864E+01  0.0000000000000E+00
-0.2505258767692E+00 -0.2569726064901E+01  0.0000000000000E+00
-0.2515098870756E+00 -0.2496339061666E+01  0.0000000000000E+00
-0.2526282568406E+00 -0.2422989996067E+01  0.0000000000000E+00
-0.2538866947160E+00 -0.2349685803919E+01  0.0000000000000E+00
-0.2552963038850E+00 -0.2276436016165E+01  0.0000000000000E+00
-0.2568622872113E+00 -0.2203248992725E+01  0.0000000000000E+00
-0.2585827465843E+00 -0.2130130513310E+01  0.0000000000000E+00
-0.2604602550071E+00 -0.2057088440583E+01  0.0000000000000E+00
-0.2625024197084E+00 -0.1984133466365E+01  0.0000000000000E+00
-0.2647223677536E+00 -0.1911281600769E+01  0.0000000000000E+00
-0.2671395285903E+00 -0.1838554023785E+01  0.0000000000000E+00
-0.2697792791248E+00 -0.1765979519673E+01  0.0000000000000E+00
-0.2726661677239E+00 -0.1693591126069E+01  0.0000000000000E+00
-0.2757912901242E+00 -0.1621398208057E+01  0.0000000000000E+00
-0.2790303243540E+00 -0.1549304059580E+01  0.0000000000000E+00
-0.2822535560032E+00 -0.1477195909044E+01  0.0000000000000E+00
-0.2854161640470E+00 -0.1405034780454E+01  0.0000000000000E+00
-0.2884673474810E+00 -0.1332779095967E+01  0.0000000000000E+00
-0.2199999998610E+00 -0.4186859601281E+01  0.0000000000000E+00
-0.2199999997219E+00 -0.4113342086429E+01  0.0000000000000E+00
-0.2199999995829E+00 -0.4039824684257E+01  0.0000000000000E+00
-0.2199999994439E+00 -0.3966307217550E+01  0.0000000000000E+00
-0.2199999993048E+00 -0.3892789747717E+01  0.0000000000000E+00
-0.2199999991658E+00 -0.3819272288129E+01  0.0000000000000E+00
-0.2199999990268E+00 -0.3745754823288E+01  0.0000000000000E+00
-0.2199999988877E+00 -0.3672237366228E+01  0.0000000000000E+00
-0.2199999987487E+00 -0.3598719903615E+01  0.0000000000000E+00
-0.2199999986096E+00 -0.3525202280347E+01  0.0000000000000E+00
-0.2199999984706E+00 -0.3451684819510E+01  0.0000000000000E+00
-0.2199999983316E+00 -0.3378167379303E+01  0.0000000000000E+00
-0.2199999981925E+00 -0.3304649961005E+01  0.0000000000000E+00
-0.2199999980535E+00 -0.3231132803085E+01  0.0000000000000E+00
-0.2199999979145E+00 -0.3157615389387E+01  0.0000000000000E+00
-0.2200006712741E+00 -0.3084098002567E+01  0.0000000000000E+00
-0.2200326866711E+00 -0.3010580866809E+01  0.0000000000000E+00
-0.2201564120620E+00 -0.2937066271891E+01  0.0000000000000E+00
-0.2204047372780E+00 -0.2863559587695E+01  0.0000000000000E+00
-0.2207859243527E+00 -0.2790067100603E+01  0.0000000000000E+00
-0.2212972348299E+00 -0.2716594812946E+01  0.0000000000000E+00
-0.2219332903772E+00 -0.2643146234864E+01  0.0000000000000E+00
-0.2226896678800E+00 -0.2569726064901E+01  0.0000000000000E+00
-0.2235643436911E+00 -0.2496339061666E+01  0.0000000000000E+00
-0.2245584501321E+00 -0.2422989996067E+01  0.0000000000000E+00
-0.2256770615599E+00 -0.2349685803919E+01  0.0000000000000E+00
-0.2269300474707E+00 -0.2276436016165E+01  0.0000000000000E+00
-0.2283220326322E+00 -0.2203248992725E+01  0.0000000000000E+00
-0.2298513298351E+00 -0.2130130513310E+01  0.0000000000000E+00
-0.2315202261932E+00 -0.2057088440583E+01  0.0000000000000E+00
-0.2333354836876E+00 -0.1984133466365E+01  0.0000000000000E+00
-0.2353087708208E+00 -0.1911281600769E+01  0.0000000000000E+00
-0.2374573582128E+00 -0.1838554023785E+01  0.0000000000000E+00
-0.2398038031138E+00 -0.1765979519673E+01  0.0000000000000E+00
-0.2423699262940E+00 -0.1693591126069E+01  0.0000000000000E+00
-0.2451478128528E+00 -0.1621398208057E+01  0.0000000000000E+00
-0.2480269543709E+00 -0.1549304059580E+01  0.0000000000000E+00
-0.2508920491506E+00 -0.1477195909043E+01  0.0000000000000E+00
-0.2537032562807E+00 -0.1405034780454E+01  0.0000000000000E+00
-0.2564154193132E+00 -0.1332779095967E+01  0.0000000000000E+00
-0.1924999998610E+00 -0.4186859601281E+01  0.0000000000000E+00
-0.1924999997219E+00 -0.4113342086429E+01  0.0000000000000E+00
-0.1924999995829E+00 -0.4039824684257E+01  0.0000000000000E+00
-0.1924999994439E+00 -0.3966307217550E+01  0.0000000000000E+00
-0.1924999993048E+00 -0.3892789747717E+01  0.0000000000000E+00
-0.1924999991658E+00 -0.3819272288129E+01  0.0000000000000E+00
-0.1924999990268E+00 -0.3745754823288E+01  0.0000000000000E+00
-0.1924999988877E+00 -0.3672237366228E+01  0.0000000000000E+00
-0.1924999987487E+00 -0.3598719903615E+01  0.0000000000000E+00
-0.1924999986096E+00 -0.3525202280347E+01  0.0000000000000E+00
-0.1924999984706E+00 -0.3451684819510E+01  0.0000000000000E+00
-0.1924999983316E+00 -0.3378167379303E+01  0.0000000000000E+00
-0.1924999981925E+00 -0.3304649961005E+01  0.0000000000000E+00
-0.1924999980535E+00 -0.3231132803085E+01  0.0000000000000E+00
-0.1924999979145E+00 -0.3157615389387E+01  0.0000000000000E+00
-0.1925005870868E+00 -0.3084098002567E+01  0.0000000000000E+00
-0.1925286005417E+00 -0.3010580866809E+01  0.0000000000000E+00
-0.1926368602412E+00 -0.2937066271891E+01  0.0000000000000E+00
-0.1928541447873E+00 -0.2863559587695E+01  0.0000000000000E+00
-0.1931876834597E+00 -0.2790067100603E+01  0.0000000000000E+00
-0.1936350801090E+00 -0.2716594812946E+01  0.0000000000000E+00
-0.1941916286944E+00 -0.2643146234864E+01  0.0000000000000E+00
-0.1948534589908E+00 -0.2569726064901E+01  0.0000000000000E+00
-0.1956188003067E+00 -0.2496339061666E+01  0.0000000000000E+00
-0.1964886434236E+00 -0.2422989996067E+01  0.0000000000000E+00
-0.1974674284038E+00 -0.2349685803919E+01  0.0000000000000E+00
-0.1985637910564E+00 -0.2276436016165E+01  0.0000000000000E+00
-0.1997817780532E+00 -0.2203248992725E+01  0.0000000000000E+00
-0.2011199130860E+00 -0.2130130513310E+01  0.0000000000000E+00
-0.2025801973794E+00 -0.2057088440583E+01  0.0000000000000E+00
-0.2041685476668E+00 -0.1984133466365E+01  0.0000000000000E+00
-0.2058951738880E+00 -0.1911281600769E+01  0.0000000000000E+00
-0.2077751878353E+00 -0.1838554023785E+01  0.0000000000000E+00
-0.2098283271027E+00 -0.1765979519673E+01  0.0000000000000E+00
-0.2120736848642E+00 -0.1693591126068E+01  0.0000000000000E+00
-0.2145043355815E+00 -0.1621398208057E+01  0.0000000000000E+00
-0.2170235843879E+00 -0.1549304059580E+01  0.0000000000000E+00
-0.2195305422979E+00 -0.1477195909043E+01  0.0000000000000E+00
-0.2219903485145E+00 -0.1405034780454E+01  0.0000000000000E+00
-0.2243634911454E+00 -0.1332779095967E+01  0.0000000000000E+00
-0.1649999998610E+00 -0.4186859601281E+01  0.0000000000000E+00
-0.1649999997219E+00 -0.4113342086429E+01  0.0000000000000E+00
-0.1649999995829E+00 -0.4039824684257E+01  0.0000000000000E+00
-0.1649999994439E+00 -0.3966307217550E+01  0.0000000000000E+00
-0.1649999993048E+00 -0.3892789747717E+01  0.0000000000000E+00
-0.1649999991658E+00 -0.3819272288129E+01  0.0000000000000E+00
-0.1649999990268E+00 -0.3745754823288E+01  0.0000000000000E+00
-0.1649999988877E+00 -0.3672237366228E+01  0.0000000000000E+00
-0.1649999987487E+00 -0.3598719903615E+01  0.0000000000000E+00
-0.1649999986096E+00 -0.3525202280347E+01  0.0000000000000E+00
-0.1649999984706E+00 -0.3451684819510E+01  0.0000000000000E+00
-0.1649999983316E+00 -0.3378167379303E+01  0.0000000000000E+00
-0.1649999981925E+00 -0.3304649961005E+01  0.0000000000000E+00
-0.1649999980535E+00 -0.3231132803085E+01  0.0000000000000E+00
-0.1649999979145E+00 -0.3157615389387E+01  0.0000000000000E+00
-0.1650005028994E+00 -0.3084098002567E+01  0.0000000000000E+00
-0.1650245144123E+00 -0.3010580866809E+01  0.0000000000000E+00
-0.1651173084203E+00 -0.2937066271891E+01  0.0000000000000E+00
-0.1653035522967E+00 -0.2863559587695E+01  0.0000000000000E+00
-0.1655894425667E+00 -0.2790067100603E+01  0.0000000000000E+00
-0.1659729253881E+00 -0.2716594812946E+01  0.0000000000000E+00
-0.1664499670117E+00 -0.2643146234864E+01  0.0000000000000E+00
-0.1670172501016E+00 -0.2569726064901E+01  0.0000000000000E+00
-0.1676732569223E+00 -0.2496339061666E+01  0.0000000000000E+00
-0.1684188367151E+00 -0.2422989996067E+01  0.0000000000000E+00
-0.1692577952477E+00 -0.2349685803919E+01  0.0000000000000E+00
-0.1701975346421E+00 -0.2276436016165E+01  0.0000000000000E+00
-0.1712415234742E+00 -0.2203248992725E+01  0.0000000000000E+00
-0.1723884963369E+00 -0.2130130513310E+01  0.0000000000000E+00
-0.1736401685656E+00 -0.2057088440583E+01  0.0000000000000E+00
-0.1750016116460E+00 -0.1984133466365E+01  0.0000000000000E+00
-0.1764815769552E+00 -0.1911281600769E+01  0.0000000000000E+00
-0.1780930174579E+00 -0.1838554023785E+01  0.0000000000000E+00
-0.1798528510917E+00 -0.1765979519673E+01  0.0000000000000E+00
-0.1817774434343E+00 -0.1693591126068E+01  0.0000000000000E+00
-0.1838608583101E+00 -0.1621398208057E+01  0.0000000000000E+00
-0.1860202144048E+00 -0.1549304059580E+01  0.0000000000000E+00
-0.1881690354453E+00 -0.1477195909043E+01  0.0000000000000E+00
-0.1902774407483E+00 -0.1405034780454E+01  0.0000000000000E+00
-0.1923115629777E+00 -0.1332779095967E+01  0.0000000000000E+00
-0.1374999998610E+00 -0.4186859601281E+01  0.0000000000000E+00
-0.1374999997219E+00 -0.4113342086429E+01  0.0000000000000E+00
-0.1374999995829E+00 -0.4039824684257E+01  0.0000000000000E+00
-0.1374999994439E+00 -0.3966307217550E+01  0.0000000000000E+00
-0.1374999993048E+00 -0.3892789747717E+01  0.0000000000000E+00
-0.1374999991658E+00 -0.3819272288129E+01  0.0000000000000E+00
-0.1374999990268E+00 -0.3745754823288E+01  0.0000000000000E+00
-0.1374999988877E+00 -0.3672237366228E+01  0.0000000000000E+00
-0.1374999987487E+00 -0.3598719903615E+01  0.0000000000000E+00
-0.1374999986096E+00 -0.3525202280347E+01  0.0000000000000E+00
-0.1374999984706E+00 -0.3451684819510E+01  0.0000000000000E+00
-0.1374999983316E+00 -0.3378167379303E+01  0.0000000000000E+00
-0.1374999981925E+00 -0.3304649961005E+01  0.0000000000000E+00
-0.1374999980535E+00 -0.3231132803085E+01  0.0000000000000E+00
-0.1374999979145E+00 -0.3157615389387E+01  0.0000000000000E+00
-0.1375004187121E+00 -0.3084098002567E+01  0.0000000000000E+00
-0.1375204282829E+00 -0.3010580866809E+01  0.0000000000000E+00
-0.1375977565995E+00 -0.2937066271891E+01  0.0000000000000E+00
-0.1377529598060E+00 -0.2863559587695E+01  0.0000000000000E+00
-0.1379912016736E+00 -0.2790067100603E+01  0.0000000000000E+00
-0.1383107706672E+00 -0.2716594812946E+01  0.0000000000000E+00
-0.1387083053289E+00 -0.2643146234864E+01  0.0000000000000E+00
-0.1391810412123E+00 -0.2569726064901E+01  0.0000000000000E+00
-0.1397277135379E+00 -0.2496339061666E+01  0.0000000000000E+00
-0.1403490300066E+00 -0.2422989996067E+01  0.0000000000000E+00
-0.1410481620916E+00 -0.2349685803919E+01  0.0000000000000E+00
-0.1418312782278E+00 -0.2276436016165E+01  0.0000000000000E+00
-0.1427012688952E+00 -0.2203248992725E+01  0.0000000000000E+00
-0.1436570795877E+00 -0.2130130513310E+01  0.0000000000000E+00
-0.1447001397517E+00 -0.2057088440583E+01  0.0000000000000E+00
-0.1458346756252E+00 -0.1984133466365E+01  0.0000000000000E+00
-0.1470679800223E+00 -0.1911281600769E+01  0.0000000000000E+00
-0.1484108470804E+00 -0.1838554023785E+01  0.0000000000000E+00
-0.1498773750807E+00 -0.1765979519673E+01  0.0000000000000E+00
-0.1514812020045E+00 -0.1693591126068E+01  0.0000000000000E+00
-0.1532173810388E+00 -0.1621398208057E+01  0.0000000000000E+00
-0.1550168444217E+00 -0.1549304059580E+01  0.0000000000000E+00
-0.1568075285926E+00 -0.1477195909043E+01  0.0000000000000E+00
-0.1585645329820E+00 -0.1405034780454E+01  0.0000000000000E+00
-0.1602596348099E+00 -0.1332779095967E+01  0.0000000000000E+00
-0.1099999998610E+00 -0.4186859601281E+01  0.0000000000000E+00
-0.1099999997219E+00 -0.4113342086429E+01  0.0000000000000E+00
-0.1099999995829E+00 -0.4039824684257E+01  0.0000000000000E+00
-0.1099999994439E+00 -0.3966307217550E+01  0.0000000000000E+00
-0.1099999993048E+00 -0.3892789747717E+01  0.0000000000000E+00
-0.1099999991658E+00 -0.3819272288129E+01  0.0000000000000E+00
-0.1099999990268E+00 -0.3745754823288E+01  0.0000000000000E+00
-0.1099999988877E+00 -0.3672237366228E+01  0.0000000000000E+00
-0.1099999987487E+00 -0.3598719903615E+01  0.0000000000000E+00
-0.1099999986096E+00 -0.3525202280347E+01  0.0000000000000E+00
-0.1099999984706E+00 -0.3451684819510E+01  0.0000000000000E+00
-0.1099999983316E+00 -0.3378167379303E+01  0.0000000000000E+00
-0.1099999981925E+00 -0.3304649961005E+01  0.0000000000000E+00
-0.1099999980535E+00 -0.3231132803085E+01  0.0000000000000E+00
-0.1099999979145E+00 -0.3157615389387E+01  0.0000000000000E+00
-0.1100003345248E+00 -0.3084098002567E+01  0.0000000000000E+00
-0.1100163421535E+00 -0.3010580866809E+01  0.0000000000000E+00
-0.1100782047786E+00 -0.2937066271891E+01  0.0000000000000E+00
-0.1102023673154E+00 -0.2863559587695E+01  0.0000000000000E+00
-0.1103929607806E+00 -0.2790067100603E+01  0.0000000000000E+00
-0.1106486159463E+00 -0.2716594812946E+01  0.0000000000000E+00
-0.1109666436462E+00 -0.2643146234864E+01  0.0000000000000E+00
-0.1113448323231E+00 -0.2569726064901E+01  0.0000000000000E+00
-0.1117821701535E+00 -0.2496339061666E+01  0.0000000000000E+00
-0.1122792232981E+00 -0.2422989996067E+01  0.0000000000000E+00
-0.1128385289355E+00 -0.2349685803919E+01  0.0000000000000E+00
-0.1134650218135E+00 -0.2276436016165E+01  0.0000000000000E+00
-0.1141610143161E+00 -0.2203248992725E+01  0.0000000000000E+00
-0.1149256628386E+00 -0.2130130513310E+01  0.0000000000000E+00
-0.1157601109379E+00 -0.2057088440583E+01  0.0000000000000E+00
-0.1166677396045E+00 -0.1984133466365E+01  0.0000000000000E+00
-0.1176543830895E+00 -0.1911281600769E+01  0.0000000000000E+00
-0.1187286767029E+00 -0.1838554023785E+01  0.0000000000000E+00
-0.1199018990696E+00 -0.1765979519673E+01  0.0000000000000E+00
-0.1211849605746E+00 -0.1693591126068E+01  0.0000000000000E+00
-0.1225739037674E+00 -0.1621398208057E+01  0.0000000000000E+00
-0.1240134744387E+00 -0.1549304059580E+01  0.0000000000000E+00
-0.1254460217400E+00 -0.1477195909043E+01  0.0000000000000E+00
-0.1268516252158E+00 -0.1405034780454E+01  0.0000000000000E+00
-0.1282077066422E+00 -0.1332779095967E+01  0.0000000000000E+00
-0.8249999986096E-01 -0.4186859601281E+01  0.0000000000000E+00
-0.8249999972193E-01 -0.4113342086429E+01  0.0000000000000E+00
-0.8249999958289E-01 -0.4039824684257E+01  0.0000000000000E+00
-0.8249999944386E-01 -0.3966307217550E+01  0.0000000000000E+00
-0.8249999930482E-01 -0.3892789747717E+01  0.0000000000000E+00
-0.8249999916579E-01 -0.3819272288129E+01  0.0000000000000E+00
-0.8249999902675E-01 -0.3745754823288E+01  0.0000000000000E+00
-0.8249999888772E-01 -0.3672237366228E+01  0.0000000000000E+00
-0.8249999874868E-01 -0.3598719903615E+01  0.0000000000000E+00
-0.8249999860965E-01 -0.3525202280347E+01  0.0000000000000E+00
-0.8249999847061E-01 -0.3451684819510E+01  0.0000000000000E+00
-0.8249999833158E-01 -0.3378167379303E+01  0.0000000000000E+00
-0.8249999819254E-01 -0.3304649961005E+01  0.0000000000000E+00
-0.8249999805351E-01 -0.3231132803085E+01  0.0000000000000E+00
-0.8249999791447E-01 -0.3157615389387E+01  0.0000000000000E+00
-0.8250025033743E-01 -0.3084098002567E+01  0.0000000000000E+00
-0.8251225602412E-01 -0.3010580866809E+01  0.0000000000000E+00
-0.8255865295774E-01 -0.2937066271891E+01  0.0000000000000E+00
-0.8265177482469E-01 -0.2863559587695E+01  0.0000000000000E+00
-0.8279471988758E-01 -0.2790067100603E+01  0.0000000000000E+00
-0.8298646122536E-01 -0.2716594812946E+01  0.0000000000000E+00
-0.8322498196343E-01 -0.2643146234864E+01  0.0000000000000E+00
-0.8350862343391E-01 -0.2569726064901E+01  0.0000000000000E+00
-0.8383662676914E-01 -0.2496339061666E+01  0.0000000000000E+00
-0.8420941658965E-01 -0.2422989996067E+01  0.0000000000000E+00
-0.8462889577935E-01 -0.2349685803919E+01  0.0000000000000E+00
-0.8509876539922E-01 -0.2276436016165E+01  0.0000000000000E+00
-0.8562075973709E-01 -0.2203248992725E+01  0.0000000000000E+00
-0.8619424608948E-01 -0.2130130513310E+01  0.0000000000000E+00
-0.8682008212406E-01 -0.2057088440583E+01  0.0000000000000E+00
-0.8750080358367E-01 -0.1984133466365E+01  0.0000000000000E+00
-0.8824078615667E-01 -0.1911281600769E+01  0.0000000000000E+00
-0.8904650632544E-01 -0.1838554023785E+01  0.0000000000000E+00
-0.8992642305859E-01 -0.1765979519673E+01  0.0000000000000E+00
-0.9088871914477E-01 -0.1693591126068E+01  0.0000000000000E+00
-0.9193042649611E-01 -0.1621398208057E+01  0.0000000000000E+00
-0.9301010445562E-01 -0.1549304059580E+01  0.0000000000000E+00
-0.9408451488737E-01 -0.1477195909043E+01  0.0000000000000E+00
-0.9513871744955E-01 -0.1405034780453E+01  0.0000000000000E+00
-0.9615577847440E-01 -0.1332779095967E+01  0.0000000000000E+00
-0.5499999986096E-01 -0.4186859601281E+01  0.0000000000000E+00
-0.5499999972193E-01 -0.4113342086429E+01  0.0000000000000E+00
-0.5499999958289E-01 -0.4039824684257E+01  0.0000000000000E+00
-0.5499999944386E-01 -0.3966307217550E+01  0.0000000000000E+00
-0.5499999930482E-01 -0.3892789747717E+01  0.0000000000000E+00
-0.5499999916579E-01 -0.3819272288129E+01  0.0000000000000E+00
-0.5499999902675E-01 -0.3745754823288E+01  0.0000000000000E+00
-0.5499999888772E-01 -0.3672237366228E+01  0.0000000000000E+00
-0.5499999874868E-01 -0.3598719903615E+01  0.0000000000000E+00
-0.5499999860965E-01 -0.3525202280347E+01  0.0000000000000E+00
-0.5499999847061E-01 -0.3451684819509E+01  0.0000000000000E+00
-0.5499999833158E-01 -0.3378167379303E+01  0.0000000000000E+00
-0.5499999819254E-01 -0.3304649961005E+01  0.0000000000000E+00
-0.5499999805351E-01 -0.3231132803085E+01  0.0000000000000E+00
-0.5499999791447E-01 -0.3157615389387E+01  0.0000000000000E+00
-0.5500016615009E-01 -0.3084098002567E+01  0.0000000000000E+00
-0.5500816989472E-01 -0.3010580866809E+01  0.0000000000000E+00
-0.5503910113688E-01 -0.2937066271891E+01  0.0000000000000E+00
-0.5510118233403E-01 -0.2863559587695E+01  0.0000000000000E+00
-0.5519647899455E-01 -0.2790067100603E+01  0.0000000000000E+00
-0.5532430650444E-01 -0.2716594812945E+01  0.0000000000000E+00
-0.5548332028068E-01 -0.2643146234864E+01  0.0000000000000E+00
-0.5567241454470E-01 -0.2569726064901E+01  0.0000000000000E+00
-0.5589108338473E-01 -0.2496339061666E+01  0.0000000000000E+00
-0.5613960988116E-01 -0.2422989996067E+01  0.0000000000000E+00
-0.5641926262324E-01 -0.2349685803919E+01  0.0000000000000E+00
-0.5673250898492E-01 -0.2276436016165E+01  0.0000000000000E+00
-0.5708050515806E-01 -0.2203248992725E+01  0.0000000000000E+00
-0.5746282934035E-01 -0.2130130513310E+01  0.0000000000000E+00
-0.5788005331022E-01 -0.2057088440583E+01  0.0000000000000E+00
-0.5833386756287E-01 -0.1984133466365E+01  0.0000000000000E+00
-0.5882718922384E-01 -0.1911281600769E+01  0.0000000000000E+00
-0.5936433594797E-01 -0.1838554023785E+01  0.0000000000000E+00
-0.5995094704755E-01 -0.1765979519673E+01  0.0000000000000E+00
-0.6059247771492E-01 -0.1693591126068E+01  0.0000000000000E+00
-0.6128694922477E-01 -0.1621398208057E+01  0.0000000000000E+00
-0.6200673447256E-01 -0.1549304059580E+01  0.0000000000000E+00
-0.6272300803474E-01 -0.1477195909043E+01  0.0000000000000E+00
-0.6342580968331E-01 -0.1405034780453E+01  0.0000000000000E+00
-0.6410385030664E-01 -0.1332779095967E+01  0.0000000000000E+00
-0.2749999986096E-01 -0.4186859601281E+01  0.0000000000000E+00
-0.2749999972193E-01 -0.4113342086429E+01  0.0000000000000E+00
-0.2749999958289E-01 -0.4039824684257E+01  0.0000000000000E+00
-0.2749999944386E-01 -0.3966307217550E+01  0.0000000000000E+00
-0.2749999930482E-01 -0.3892789747717E+01  0.0000000000000E+00
-0.2749999916579E-01 -0.3819272288128E+01  0.0000000000000E+00
-0.2749999902675E-01 -0.3745754823288E+01  0.0000000000000E+00
-0.2749999888772E-01 -0.3672237366228E+01  0.0000000000000E+00
-0.2749999874868E-01 -0.3598719903615E+01  0.0000000000000E+00
-0.2749999860965E-01 -0.3525202280347E+01  0.0000000000000E+00
-0.2749999847061E-01 -0.3451684819509E+01  0.0000000000000E+00
-0.2749999833158E-01 -0.3378167379303E+01  0.0000000000000E+00
-0.2749999819254E-01 -0.3304649961005E+01  0.0000000000000E+00
-0.2749999805351E-01 -0.3231132803085E+01  0.0000000000000E+00
-0.2749999791447E-01 -0.3157615389387E+01  0.0000000000000E+00
-0.2750008196276E-01 -0.3084098002567E+01  0.0000000000000E+00
-0.2750408376533E-01 -0.3010580866809E+01  0.0000000000000E+00
-0.2751954931602E-01 -0.2937066271891E+01  0.0000000000000E+00
-0.2755058984337E-01 -0.2863559587695E+01  0.0000000000000E+00
-0.2759823810152E-01 -0.2790067100603E+01  0.0000000000000E+00
-0.2766215178353E-01 -0.2716594812945E+01  0.0000000000000E+00
-0.2774165859793E-01 -0.2643146234864E+01  0.0000000000000E+00
-0.2783620565548E-01 -0.2569726064901E+01  0.0000000000000E+00
-0.2794554000033E-01 -0.2496339061666E+01  0.0000000000000E+00
-0.2806980317267E-01 -0.2422989996067E+01  0.0000000000000E+00
-0.2820962946712E-01 -0.2349685803919E+01  0.0000000000000E+00
-0.2836625257062E-01 -0.2276436016165E+01  0.0000000000000E+00
-0.2854025057903E-01 -0.2203248992725E+01  0.0000000000000E+00
-0.2873141259122E-01 -0.2130130513310E+01  0.0000000000000E+00
-0.2894002449638E-01 -0.2057088440583E+01  0.0000000000000E+00
-0.2916693154208E-01 -0.1984133466365E+01  0.0000000000000E+00
-0.2941359229101E-01 -0.1911281600769E+01  0.0000000000000E+00
-0.2968216557049E-01 -0.1838554023784E+01  0.0000000000000E+00
-0.2997547103652E-01 -0.1765979519673E+01  0.0000000000000E+00
-0.3029623628508E-01 -0.1693591126068E+01  0.0000000000000E+00
-0.3064347195342E-01 -0.1621398208057E+01  0.0000000000000E+00
-0.3100336448950E-01 -0.1549304059580E+01  0.0000000000000E+00
-0.3136150118210E-01 -0.1477195909043E+01  0.0000000000000E+00
-0.3171290191707E-01 -0.1405034780453E+01  0.0000000000000E+00
-0.3205192213889E-01 -0.1332779095967E+01  0.0000000000000E+00
 0.1390354743131E-09 -0.4186859601281E+01  0.0000000000000E+00
 0.2780705505956E-09 -0.4113342086429E+01  0.0000000000000E+00
 0.4171060575715E-09 -0.4039824684257E+01  0.0000000000000E+00
 0.5561412602524E-09 -0.3966307217550E+01  0.0000000000000E+00
 0.6951766705972E-09 -0.3892789747717E+01  0.0000000000000E+00
 0.8342121431180E-09 -0.3819272288128E+01  0.0000000000000E+00
 0.9732474182843E-09 -0.3745754823288E+01  0.0000000000000E+00
 0.1112282802333E-08 -0.3672237366228E+01  0.0000000000000E+00
 0.1251318294960E-08 -0.3598719903615E+01  0.0000000000000E+00
 0.1390353813009E-08 -0.3525202280347E+01  0.0000000000000E+00
 0.1529389163202E-08 -0.3451684819509E+01  0.0000000000000E+00
 0.1668424554188E-08 -0.3378167379303E+01  0.0000000000000E+00
 0.1807459650274E-08 -0.3304649961005E+01  0.0000000000000E+00
 0.1946494376859E-08 -0.3231132803085E+01  0.0000000000000E+00
 0.2085529741028E-08 -0.3157615389387E+01  0.0000000000000E+00
 0.2224574625698E-08 -0.3084098002567E+01  0.0000000000000E+00
 0.2364064634836E-08 -0.3010580866809E+01  0.0000000000000E+00
 0.2504833556286E-08 -0.2937066271891E+01  0.0000000000000E+00
 0.2647292734782E-08 -0.2863559587695E+01  0.0000000000000E+00
 0.2791501958223E-08 -0.2790067100603E+01  0.0000000000000E+00
 0.2937379100042E-08 -0.2716594812945E+01  0.0000000000000E+00
 0.3084818653443E-08 -0.2643146234864E+01  0.0000000000000E+00
 0.3233734531287E-08 -0.2569726064901E+01  0.0000000000000E+00
 0.3384071636922E-08 -0.2496339061666E+01  0.0000000000000E+00
 0.3535814743461E-08 -0.2422989996067E+01  0.0000000000000E+00
 0.3688988805617E-08 -0.2349685803919E+01  0.0000000000000E+00
 0.3843683676532E-08 -0.2276436016165E+01  0.0000000000000E+00
 0.3999997810813E-08 -0.2203248992725E+01  0.0000000000000E+00
 0.4157914882495E-08 -0.2130130513310E+01  0.0000000000000E+00
 0.4317456570341E-08 -0.2057088440583E+01  0.0000000000000E+00
 0.4478710343982E-08 -0.1984133466365E+01  0.0000000000000E+00
 0.4641815539791E-08 -0.1911281600769E+01  0.0000000000000E+00
 0.4806982281144E-08 -0.1838554023784E+01  0.0000000000000E+00
 0.4974521798449E-08 -0.1765979519673E+01  0.0000000000000E+00
 0.5144772820396E-08 -0.1693591126068E+01  0.0000000000000E+00
 0.5317917718960E-08 -0.1621398208057E+01  0.0000000000000E+00
 0.5493560806702E-08 -0.1549304059580E+01  0.0000000000000E+00
 0.5670536855295E-08 -0.1477195909043E+01  0.0000000000000E+00
 0.5849166081565E-08 -0.1405034780453E+01  0.0000000000000E+00
 0.6028873484876E-08 -0.1332779095967E+01  0.0000000000000E+00
 0.2750000013904E-01 -0.4186859601281E+01  0.0000000000000E+00
 0.2750000027807E-01 -0.4113342086429E+01  0.0000000000000E+00
 0.2750000041711E-01 -0.4039824684257E+01  0.0000000000000E+00
 0.2750000055614E-01 -0.3966307217550E+01  0.0000000000000E+00
 0.2750000069518E-01 -0.3892789747717E+01  0.0000000000000E+00
 0.2750000083421E-01 -0.3819272288128E+01  0.0000000000000E+00
 0.2750000097325E-01 -0.3745754823288E+01  0.0000000000000E+00
 0.2750000111228E-01 -0.3672237366228E+01  0.0000000000000E+00
 0.2750000125132E-01 -0.3598719903615E+01  0.0000000000000E+00
 0.2750000139035E-01 -0.3525202280347E+01  0.0000000000000E+00
 0.2750000152939E-01 -0.3451684819509E+01  0.0000000000000E+00
 0.2750000166842E-01 -0.3378167379303E+01  0.0000000000000E+00
 0.2750000180746E-01 -0.3304649961005E+01  0.0000000000000E+00
 0.2750000194649E-01 -0.3231132803085E+01  0.0000000000000E+00
 0.2750000208553E-01 -0.3157615389387E+01  0.0000000000000E+00
 0.2750008641191E-01 -0.3084098002567E+01  0.0000000000000E+00
 0.2750408849346E-01 -0.3010580866809E+01  0.0000000000000E+00
 0.2751955432569E-01 -0.2937066271891E+01  0.0000000000000E+00
 0.2755059513795E-01 -0.2863559587695E+01  0.0000000000000E+00
 0.2759824368453E-01 -0.2790067100603E+01  0.0000000000000E+00
 0.2766215765829E-01 -0.2716594812945E+01  0.0000000000000E+00
 0.2774166476757E-01 -0.2643146234864E+01  0.0000000000000E+00
 0.2783621212295E-01 -0.2569726064901E+01  0.0000000000000E+00
 0.2794554676847E-01 -0.2496339061666E+01  0.0000000000000E+00
 0.2806981024430E-01 -0.2422989996067E+01  0.0000000000000E+00
 0.2820963684510E-01 -0.2349685803919E+01  0.0000000000000E+00
 0.2836626025798E-01 -0.2276436016165E+01  0.0000000000000E+00
 0.2854025857903E-01 -0.2203248992725E+01  0.0000000000000E+00
 0.2873142090705E-01 -0.2130130513310E+01  0.0000000000000E+00
 0.2894003313129E-01 -0.2057088440583E+01  0.0000000000000E+00
 0.2916694049950E-01 -0.1984133466365E+01  0.0000000000000E+00
 0.2941360157464E-01 -0.1911281600769E+01  0.0000000000000E+00
 0.2968217518446E-01 -0.1838554023784E+01  0.0000000000000E+00
 0.2997548098556E-01 -0.1765979519673E+01  0.0000000000000E+00
 0.3029624657462E-01 -0.1693591126068E+01  0.0000000000000E+00
 0.3064348258926E-01 -0.1621398208057E+01  0.0000000000000E+00
 0.3100337547662E-01 -0.1549304059580E+01  0.0000000000000E+00
 0.3136151252317E-01 -0.1477195909043E+01  0.0000000000000E+00
 0.3171291361540E-01 -0.1405034780453E+01  0.0000000000000E+00
 0.3205193419663E-01 -0.1332779095967E+01  0.0000000000000E+00
 0.5500000013904E-01 -0.4186859601281E+01  0.0000000000000E+00
 0.5500000027807E-01 -0.4113342086429E+01  0.0000000000000E+00
 0.5500000041711E-01 -0.4039824684257E+01  0.0000000000000E+00
 0.5500000055614E-01 -0.3966307217550E+01  0.0000000000000E+00
 0.5500000069518E-01 -0.3892789747717E+01  0.0000000000000E+00
 0.5500000083421E-01 -0.3819272288128E+01  0.0000000000000E+00
 0.5500000097325E-01 -0.3745754823288E+01  0.0000000000000E+00
 0.5500000111228E-01 -0.3672237366228E+01  0.0000000000000E+00
 0.5500000125132E-01 -0.3598719903615E+01  0.0000000000000E+00
 0.5500000139035E-01 -0.3525202280347E+01  0.0000000000000E+00
 0.5500000152939E-01 -0.3451684819509E+01  0.0000000000000E+00
 0.5500000166842E-01 -0.3378167379303E+01  0.0000000000000E+00
 0.5500000180746E-01 -0.3304649961005E+01  0.0000000000000E+00
 0.5500000194649E-01 -0.3231132803085E+01  0.0000000000000E+00
 0.5500000208553E-01 -0.3157615389387E+01  0.0000000000000E+00
 0.5500017059924E-01 -0.3084098002567E+01  0.0000000000000E+00
 0.5500817462285E-01 -0.3010580866809E+01  0.0000000000000E+00
 0.5503910614655E-01 -0.2937066271891E+01  0.0000000000000E+00
 0.5510118762862E-01 -0.2863559587695E+01  0.0000000000000E+00
 0.5519648457755E-01 -0.2790067100603E+01  0.0000000000000E+00
 0.5532431237920E-01 -0.2716594812945E+01  0.0000000000000E+00
 0.5548332645032E-01 -0.2643146234864E+01  0.0000000000000E+00
 0.5567242101217E-01 -0.2569726064901E+01  0.0000000000000E+00
 0.5589109015288E-01 -0.2496339061666E+01  0.0000000000000E+00
 0.5613961695279E-01 -0.2422989996067E+01  0.0000000000000E+00
 0.5641927000122E-01 -0.2349685803919E+01  0.0000000000000E+00
 0.5673251667228E-01 -0.2276436016165E+01  0.0000000000000E+00
 0.5708051315806E-01 -0.2203248992725E+01  0.0000000000000E+00
 0.5746283765618E-01 -0.2130130513310E+01  0.0000000000000E+00
 0.5788006194513E-01 -0.2057088440583E+01  0.0000000000000E+00
 0.5833387652029E-01 -0.1984133466365E+01  0.0000000000000E+00
 0.5882719850747E-01 -0.1911281600769E+01  0.0000000000000E+00
 0.5936434556193E-01 -0.1838554023784E+01  0.0000000000000E+00
 0.5995095699660E-01 -0.1765979519672E+01  0.0000000000000E+00
 0.6059248800447E-01 -0.1693591126068E+01  0.0000000000000E+00
 0.6128695986060E-01 -0.1621398208056E+01  0.0000000000000E+00
 0.6200674545968E-01 -0.1549304059580E+01  0.0000000000000E+00
 0.6272301937581E-01 -0.1477195909043E+01  0.0000000000000E+00
 0.6342582138164E-01 -0.1405034780453E+01  0.0000000000000E+00
 0.6410386236439E-01 -0.1332779095967E+01  0.0000000000000E+00
 0.8250000013904E-01 -0.4186859601281E+01  0.0000000000000E+00
 0.8250000027807E-01 -0.4113342086429E+01  0.0000000000000E+00
 0.8250000041711E-01 -0.4039824684257E+01  0.0000000000000E+00
 0.8250000055614E-01 -0.3966307217550E+01  0.0000000000000E+00
 0.8250000069518E-01 -0.3892789747717E+01  0.0000000000000E+00
 0.8250000083421E-01 -0.3819272288128E+01  0.0000000000000E+00
 0.8250000097325E-01 -0.3745754823288E+01  0.0000000000000E+00
 0.8250000111228E-01 -0.3672237366228E+01  0.0000000000000E+00
 0.8250000125132E-01 -0.3598719903615E+01  0.0000000000000E+00
 0.8250000139035E-01 -0.3525202280347E+01  0.0000000000000E+00
 0.8250000152939E-01 -0.3451684819509E+01  0.0000000000000E+00
 0.8250000166842E-01 -0.3378167379303E+01  0.0000000000000E+00
 0.8250000180746E-01 -0.3304649961005E+01  0.0000000000000E+00
 0.8250000194649E-01 -0.3231132803085E+01  0.0000000000000E+00
 0.8250000208553E-01 -0.3157615389387E+01  0.0000000000000E+00
 0.8250025478658E-01 -0.3084098002567E+01  0.0000000000000E+00
 0.8251226075225E-01 -0.3010580866809E+01  0.0000000000000E+00
 0.8255865796740E-01 -0.2937066271891E+01  0.0000000000000E+00
 0.8265178011928E-01 -0.2863559587695E+01  0.0000000000000E+00
 0.8279472547058E-01 -0.2790067100603E+01  0.0000000000000E+00
 0.8298646710011E-01 -0.2716594812945E+01  0.0000000000000E+00
 0.8322498813306E-01 -0.2643146234864E+01  0.0000000000000E+00
 0.8350862990138E-01 -0.2569726064901E+01  0.0000000000000E+00
 0.8383663353728E-01 -0.2496339061666E+01  0.0000000000000E+00
 0.8420942366128E-01 -0.2422989996067E+01  0.0000000000000E+00
 0.8462890315733E-01 -0.2349685803919E+01  0.0000000000000E+00
 0.8509877308658E-01 -0.2276436016165E+01  0.0000000000000E+00
 0.8562076773709E-01 -0.2203248992725E+01  0.0000000000000E+00
 0.8619425440531E-01 -0.2130130513310E+01  0.0000000000000E+00
 0.8682009075897E-01 -0.2057088440583E+01  0.0000000000000E+00
 0.8750081254109E-01 -0.1984133466365E+01  0.0000000000000E+00
 0.8824079544030E-01 -0.1911281600769E+01  0.0000000000000E+00
 0.8904651593941E-01 -0.1838554023784E+01  0.0000000000000E+00
 0.8992643300764E-01 -0.1765979519672E+01  0.0000000000000E+00
 0.9088872943432E-01 -0.1693591126068E+01  0.0000000000000E+00
 0.9193043713194E-01 -0.1621398208056E+01  0.0000000000000E+00
 0.9301011544274E-01 -0.1549304059579E+01  0.0000000000000E+00
 0.9408452622845E-01 -0.1477195909043E+01  0.0000000000000E+00
 0.9513872914788E-01 -0.1405034780453E+01  0.0000000000000E+00
 0.9615579053215E-01 -0.1332779095967E+01  0.0000000000000E+00
 0.1100000001390E+00 -0.4186859601281E+01  0.0000000000000E+00
 0.1100000002781E+00 -0.4113342086429E+01  0.0000000000000E+00
 0.1100000004171E+00 -0.4039824684257E+01  0.0000000000000E+00
 0.1100000005561E+00 -0.3966307217550E+01  0.0000000000000E+00
 0.1100000006952E+00 -0.3892789747717E+01  0.0000000000000E+00
 0.1100000008342E+00 -0.3819272288128E+01  0.0000000000000E+00
 0.1100000009732E+00 -0.3745754823288E+01  0.0000000000000E+00
 0.1100000011123E+00 -0.3672237366228E+01  0.0000000000000E+00
 0.1100000012513E+00 -0.3598719903615E+01  0.0000000000000E+00
 0.1100000013904E+00 -0.3525202280347E+01  0.0000000000000E+00
 0.1100000015294E+00 -0.3451684819509E+01  0.0000000000000E+00
 0.1100000016684E+00 -0.3378167379303E+01  0.0000000000000E+00
 0.1100000018075E+00 -0.3304649961005E+01  0.0000000000000E+00
 0.1100000019465E+00 -0.3231132803085E+01  0.0000000000000E+00
 0.1100000020855E+00 -0.3157615389387E+01  0.0000000000000E+00
 0.1100003389739E+00 -0.3084098002567E+01  0.0000000000000E+00
 0.1100163468816E+00 -0.3010580866809E+01  0.0000000000000E+00
 0.1100782097883E+00 -0.2937066271891E+01  0.0000000000000E+00
 0.1102023726099E+00 -0.2863559587695E+01  0.0000000000000E+00
 0.1103929663636E+00 -0.2790067100603E+01  0.0000000000000E+00
 0.1106486218210E+00 -0.2716594812945E+01  0.0000000000000E+00
 0.1109666498158E+00 -0.2643146234864E+01  0.0000000000000E+00
 0.1113448387906E+00 -0.2569726064901E+01  0.0000000000000E+00
 0.1117821769217E+00 -0.2496339061666E+01  0.0000000000000E+00
 0.1122792303698E+00 -0.2422989996067E+01  0.0000000000000E+00
 0.1128385363134E+00 -0.2349685803919E+01  0.0000000000000E+00
 0.1134650295009E+00 -0.2276436016165E+01  0.0000000000000E+00
 0.1141610223161E+00 -0.2203248992725E+01  0.0000000000000E+00
 0.1149256711544E+00 -0.2130130513310E+01  0.0000000000000E+00
 0.1157601195728E+00 -0.2057088440583E+01  0.0000000000000E+00
 0.1166677485619E+00 -0.1984133466365E+01  0.0000000000000E+00
 0.1176543923731E+00 -0.1911281600769E+01  0.0000000000000E+00
 0.1187286863169E+00 -0.1838554023784E+01  0.0000000000000E+00
 0.1199019090187E+00 -0.1765979519672E+01  0.0000000000000E+00
 0.1211849708642E+00 -0.1693591126068E+01  0.0000000000000E+00
 0.1225739144033E+00 -0.1621398208056E+01  0.0000000000000E+00
 0.1240134854258E+00 -0.1549304059579E+01  0.0000000000000E+00
 0.1254460330811E+00 -0.1477195909043E+01  0.0000000000000E+00
 0.1268516369141E+00 -0.1405034780453E+01  0.0000000000000E+00
 0.1282077186999E+00 -0.1332779095967E+01  0.0000000000000E+00
 0.1375000001390E+00 -0.4186859601281E+01  0.0000000000000E+00
 0.1375000002781E+00 -0.4113342086429E+01  0.0000000000000E+00
 0.1375000004171E+00 -0.4039824684257E+01  0.0000000000000E+00
 0.1375000005561E+00 -0.3966307217550E+01  0.0000000000000E+00
 0.1375000006952E+00 -0.3892789747717E+01  0.0000000000000E+00
 0.1375000008342E+00 -0.3819272288128E+01  0.0000000000000E+00
 0.1375000009732E+00 -0.3745754823288E+01  0.0000000000000E+00
 0.1375000011123E+00 -0.3672237366228E+01  0.0000000000000E+00
 0.1375000012513E+00 -0.3598719903615E+01  0.0000000000000E+00
 0.1375000013904E+00 -0.3525202280347E+01  0.0000000000000E+00
 0.1375000015294E+00 -0.3451684819509E+01  0.0000000000000E+00
 0.1375000016684E+00 -0.3378167379303E+01  0.0000000000000E+00
 0.1375000018075E+00 -0.3304649961005E+01  0.0000000000000E+00
 0.1375000019465E+00 -0.3231132803085E+01  0.0000000000000E+00
 0.1375000020855E+00 -0.3157615389387E+01  0.0000000000000E+00
 0.1375004231612E+00 -0.3084098002567E+01  0.0000000000000E+00
 0.1375204330110E+00 -0.3010580866809E+01  0.0000000000000E+00
 0.1375977616091E+00 -0.2937066271891E+01  0.0000000000000E+00
 0.1377529651006E+00 -0.2863559587695E+01  0.0000000000000E+00
 0.1379912072566E+00 -0.2790067100603E+01  0.0000000000000E+00
 0.1383107765419E+00 -0.2716594812945E+01  0.0000000000000E+00
 0.1387083114986E+00 -0.2643146234864E+01  0.0000000000000E+00
 0.1391810476798E+00 -0.2569726064901E+01  0.0000000000000E+00
 0.1397277203061E+00 -0.2496339061666E+01  0.0000000000000E+00
 0.1403490370782E+00 -0.2422989996067E+01  0.0000000000000E+00
 0.1410481694696E+00 -0.2349685803919E+01  0.0000000000000E+00
 0.1418312859152E+00 -0.2276436016165E+01  0.0000000000000E+00
 0.1427012768951E+00 -0.2203248992725E+01  0.0000000000000E+00
 0.1436570879036E+00 -0.2130130513310E+01  0.0000000000000E+00
 0.1447001483866E+00 -0.2057088440583E+01  0.0000000000000E+00
 0.1458346845827E+00 -0.1984133466365E+01  0.0000000000000E+00
 0.1470679893060E+00 -0.1911281600769E+01  0.0000000000000E+00
 0.1484108566944E+00 -0.1838554023784E+01  0.0000000000000E+00
 0.1498773850297E+00 -0.1765979519672E+01  0.0000000000000E+00
 0.1514812122940E+00 -0.1693591126068E+01  0.0000000000000E+00
 0.1532173916746E+00 -0.1621398208056E+01  0.0000000000000E+00
 0.1550168554089E+00 -0.1549304059579E+01  0.0000000000000E+00
 0.1568075399337E+00 -0.1477195909043E+01  0.0000000000000E+00
 0.1585645446804E+00 -0.1405034780453E+01  0.0000000000000E+00
 0.1602596468677E+00 -0.1332779095967E+01  0.0000000000000E+00
 0.1650000001390E+00 -0.4186859601281E+01  0.0000000000000E+00
 0.1650000002781E+00 -0.4113342086429E+01  0.0000000000000E+00
 0.1650000004171E+00 -0.4039824684257E+01  0.0000000000000E+00
 0.1650000005561E+00 -0.3966307217550E+01  0.0000000000000E+00
 0.1650000006952E+00 -0.3892789747717E+01  0.0000000000000E+00
 0.1650000008342E+00 -0.3819272288128E+01  0.0000000000000E+00
 0.1650000009732E+00 -0.3745754823288E+01  0.0000000000000E+00
 0.1650000011123E+00 -0.3672237366228E+01  0.0000000000000E+00
 0.1650000012513E+00 -0.3598719903615E+01  0.0000000000000E+00
 0.1650000013904E+00 -0.3525202280347E+01  0.0000000000000E+00
 0.1650000015294E+00 -0.3451684819509E+01  0.0000000000000E+00
 0.1650000016684E+00 -0.3378167379303E+01  0.0000000000000E+00
 0.1650000018075E+00 -0.3304649961005E+01  0.0000000000000E+00
 0.1650000019465E+00 -0.3231132803084E+01  0.0000000000000E+00
 0.1650000020855E+00 -0.3157615389387E+01  0.0000000000000E+00
 0.1650005073486E+00 -0.3084098002567E+01  0.0000000000000E+00
 0.1650245191404E+00 -0.3010580866809E+01  0.0000000000000E+00
 0.1651173134300E+00 -0.2937066271891E+01  0.0000000000000E+00
 0.1653035575913E+00 -0.2863559587695E+01  0.0000000000000E+00
 0.1655894481497E+00 -0.2790067100603E+01  0.0000000000000E+00
 0.1659729312628E+00 -0.2716594812945E+01  0.0000000000000E+00
 0.1664499731813E+00 -0.2643146234864E+01  0.0000000000000E+00
 0.1670172565690E+00 -0.2569726064901E+01  0.0000000000000E+00
 0.1676732636905E+00 -0.2496339061666E+01  0.0000000000000E+00
 0.1684188437867E+00 -0.2422989996067E+01  0.0000000000000E+00
 0.1692578026257E+00 -0.2349685803919E+01  0.0000000000000E+00
 0.1701975423295E+00 -0.2276436016165E+01  0.0000000000000E+00
 0.1712415314742E+00 -0.2203248992725E+01  0.0000000000000E+00
 0.1723885046527E+00 -0.2130130513310E+01  0.0000000000000E+00
 0.1736401772005E+00 -0.2057088440583E+01  0.0000000000000E+00
 0.1750016206035E+00 -0.1984133466365E+01  0.0000000000000E+00
 0.1764815862388E+00 -0.1911281600769E+01  0.0000000000000E+00
 0.1780930270718E+00 -0.1838554023784E+01  0.0000000000000E+00
 0.1798528610408E+00 -0.1765979519672E+01  0.0000000000000E+00
 0.1817774537239E+00 -0.1693591126068E+01  0.0000000000000E+00
 0.1838608689460E+00 -0.1621398208056E+01  0.0000000000000E+00
 0.1860202253919E+00 -0.1549304059579E+01  0.0000000000000E+00
 0.1881690467864E+00 -0.1477195909043E+01  0.0000000000000E+00
 0.1902774524466E+00 -0.1405034780453E+01  0.0000000000000E+00
 0.1923115750354E+00 -0.1332779095967E+01  0.0000000000000E+00
 0.1925000001390E+00 -0.4186859601281E+01  0.0000000000000E+00
 0.1925000002781E+00 -0.4113342086429E+01  0.0000000000000E+00
 0.1925000004171E+00 -0.4039824684257E+01  0.0000000000000E+00
 0.1925000005561E+00 -0.3966307217550E+01  0.0000000000000E+00
 0.1925000006952E+00 -0.3892789747717E+01  0.0000000000000E+00
 0.1925000008342E+00 -0.3819272288128E+01  0.0000000000000E+00
 0.1925000009732E+00 -0.3745754823288E+01  0.0000000000000E+00
 0.1925000011123E+00 -0.3672237366228E+01  0.0000000000000E+00
 0.1925000012513E+00 -0.3598719903615E+01  0.0000000000000E+00
 0.1925000013904E+00 -0.3525202280347E+01  0.0000000000000E+00
 0.1925000015294E+00 -0.3451684819509E+01  0.0000000000000E+00
 0.1925000016684E+00 -0.3378167379303E+01  0.0000000000000E+00
 0.1925000018075E+00 -0.3304649961005E+01  0.0000000000000E+00
 0.1925000019465E+00 -0.3231132803084E+01  0.0000000000000E+00
 0.1925000020855E+00 -0.3157615389387E+01  0.0000000000000E+00
 0.1925005915359E+00 -0.3084098002567E+01  0.0000000000000E+00
 0.1925286052698E+00 -0.3010580866809E+01  0.0000000000000E+00
 0.1926368652508E+00 -0.2937066271891E+01  0.0000000000000E+00
 0.1928541500819E+00 -0.2863559587695E+01  0.0000000000000E+00
 0.1931876890427E+00 -0.2790067100603E+01  0.0000000000000E+00
 0.1936350859838E+00 -0.2716594812945E+01  0.0000000000000E+00
 0.1941916348641E+00 -0.2643146234864E+01  0.0000000000000E+00
 0.1948534654582E+00 -0.2569726064901E+01  0.0000000000000E+00
 0.1956188070749E+00 -0.2496339061666E+01  0.0000000000000E+00
 0.1964886504952E+00 -0.2422989996067E+01  0.0000000000000E+00
 0.1974674357818E+00 -0.2349685803919E+01  0.0000000000000E+00
 0.1985637987438E+00 -0.2276436016165E+01  0.0000000000000E+00
 0.1997817860532E+00 -0.2203248992725E+01  0.0000000000000E+00
 0.2011199214018E+00 -0.2130130513310E+01  0.0000000000000E+00
 0.2025802060143E+00 -0.2057088440583E+01  0.0000000000000E+00
 0.2041685566243E+00 -0.1984133466365E+01  0.0000000000000E+00
 0.2058951831716E+00 -0.1911281600769E+01  0.0000000000000E+00
 0.2077751974493E+00 -0.1838554023784E+01  0.0000000000000E+00
 0.2098283370518E+00 -0.1765979519672E+01  0.0000000000000E+00
 0.2120736951537E+00 -0.1693591126068E+01  0.0000000000000E+00
 0.2145043462173E+00 -0.1621398208056E+01  0.0000000000000E+00
 0.2170235953750E+00 -0.1549304059579E+01  0.0000000000000E+00
 0.2195305536390E+00 -0.1477195909043E+01  0.0000000000000E+00
 0.2219903602128E+00 -0.1405034780453E+01  0.0000000000000E+00
 0.2243635032032E+00 -0.1332779095967E+01  0.0000000000000E+00
 0.2200000001390E+00 -0.4186859601281E+01  0.0000000000000E+00
 0.2200000002781E+00 -0.4113342086429E+01  0.0000000000000E+00
 0.2200000004171E+00 -0.4039824684257E+01  0.0000000000000E+00
 0.2200000005561E+00 -0.3966307217550E+01  0.0000000000000E+00
 0.2200000006952E+00 -0.3892789747717E+01  0.0000000000000E+00
 0.2200000008342E+00 -0.3819272288128E+01  0.0000000000000E+00
 0.2200000009732E+00 -0.3745754823288E+01  0.0000000000000E+00
 0.2200000011123E+00 -0.3672237366228E+01  0.0000000000000E+00
 0.2200000012513E+00 -0.3598719903615E+01  0.0000000000000E+00
 0.2200000013904E+00 -0.3525202280347E+01  0.0000000000000E+00
 0.2200000015294E+00 -0.3451684819509E+01  0.0000000000000E+00
 0.2200000016684E+00 -0.3378167379303E+01  0.0000000000000E+00
 0.2200000018075E+00 -0.3304649961005E+01  0.0000000000000E+00
 0.2200000019465E+00 -0.3231132803084E+01  0.0000000000000E+00
 0.2200000020855E+00 -0.3157615389387E+01  0.0000000000000E+00
 0.2200006757232E+00 -0.3084098002567E+01  0.0000000000000E+00
 0.2200326913992E+00 -0.3010580866809E+01  0.0000000000000E+00
 0.2201564170717E+00 -0.2937066271891E+01  0.0000000000000E+00
 0.2204047425726E+00 -0.2863559587695E+01  0.0000000000000E+00
 0.2207859299357E+00 -0.2790067100603E+01  0.0000000000000E+00
 0.2212972407047E+00 -0.2716594812945E+01  0.0000000000000E+00
 0.2219332965468E+00 -0.2643146234864E+01  0.0000000000000E+00
 0.2226896743475E+00 -0.2569726064901E+01  0.0000000000000E+00
 0.2235643504593E+00 -0.2496339061666E+01  0.0000000000000E+00
 0.2245584572037E+00 -0.2422989996067E+01  0.0000000000000E+00
 0.2256770689379E+00 -0.2349685803918E+01  0.0000000000000E+00
 0.2269300551581E+00 -0.2276436016165E+01  0.0000000000000E+00
 0.2283220406322E+00 -0.2203248992725E+01  0.0000000000000E+00
 0.2298513381510E+00 -0.2130130513310E+01  0.0000000000000E+00
 0.2315202348282E+00 -0.2057088440583E+01  0.0000000000000E+00
 0.2333354926450E+00 -0.1984133466365E+01  0.0000000000000E+00
 0.2353087801044E+00 -0.1911281600769E+01  0.0000000000000E+00
 0.2374573678268E+00 -0.1838554023784E+01  0.0000000000000E+00
 0.2398038130628E+00 -0.1765979519672E+01  0.0000000000000E+00
 0.2423699365836E+00 -0.1693591126068E+01  0.0000000000000E+00
 0.2451478234886E+00 -0.1621398208056E+01  0.0000000000000E+00
 0.2480269653580E+00 -0.1549304059579E+01  0.0000000000000E+00
 0.2508920604916E+00 -0.1477195909043E+01  0.0000000000000E+00
 0.2537032679791E+00 -0.1405034780453E+01  0.0000000000000E+00
 0.2564154313709E+00 -0.1332779095967E+01  0.0000000000000E+00
 0.2475000001390E+00 -0.4186859601281E+01  0.0000000000000E+00
 0.2475000002781E+00 -0.4113342086429E+01  0.0000000000000E+00
 0.2475000004171E+00 -0.4039824684257E+01  0.0000000000000E+00
 0.2475000005561E+00 -0.3966307217550E+01  0.0000000000000E+00
 0.2475000006952E+00 -0.3892789747717E+01  0.0000000000000E+00
 0.2475000008342E+00 -0.3819272288128E+01  0.0000000000000E+00
 0.2475000009732E+00 -0.3745754823288E+01  0.0000000000000E+00
 0.2475000011123E+00 -0.3672237366228E+01  0.0000000000000E+00
 0.2475000012513E+00 -0.3598719903615E+01  0.0000000000000E+00
 0.2475000013904E+00 -0.3525202280347E+01  0.0000000000000E+00
 0.2475000015294E+00 -0.3451684819509E+01  0.0000000000000E+00
 0.2475000016684E+00 -0.3378167379303E+01  0.0000000000000E+00
 0.2475000018075E+00 -0.3304649961005E+01  0.0000000000000E+00
 0.2475000019465E+00 -0.3231132803084E+01  0.0000000000000E+00
 0.2475000020855E+00 -0.3157615389387E+01  0.0000000000000E+00
 0.2475007599106E+00 -0.3084098002567E+01  0.0000000000000E+00
 0.2475367775286E+00 -0.3010580866809E+01  0.0000000000000E+00
 0.2476759688925E+00 -0.2937066271891E+01  0.0000000000000E+00
 0.2479553350633E+00 -0.2863559587695E+01  0.0000000000000E+00
 0.2483841708287E+00 -0.2790067100603E+01  0.0000000000000E+00
 0.2489593954256E+00 -0.2716594812945E+01  0.0000000000000E+00
 0.2496749582296E+00 -0.2643146234864E+01  0.0000000000000E+00
 0.2505258832367E+00 -0.2569726064901E+01  0.0000000000000E+00
 0.2515098938437E+00 -0.2496339061666E+01  0.0000000000000E+00
 0.2526282639122E+00 -0.2422989996067E+01  0.0000000000000E+00
 0.2538867020940E+00 -0.2349685803918E+01  0.0000000000000E+00
 0.2552963115724E+00 -0.2276436016165E+01  0.0000000000000E+00
 0.2568622952113E+00 -0.2203248992725E+01  0.0000000000000E+00
 0.2585827549001E+00 -0.2130130513310E+01  0.0000000000000E+00
 0.2604602636420E+00 -0.2057088440583E+01  0.0000000000000E+00
 0.2625024286658E+00 -0.1984133466365E+01  0.0000000000000E+00
 0.2647223770373E+00 -0.1911281600769E+01  0.0000000000000E+00
 0.2671395382043E+00 -0.1838554023784E+01  0.0000000000000E+00
 0.2697792890739E+00 -0.1765979519672E+01  0.0000000000000E+00
 0.2726661780134E+00 -0.1693591126068E+01  0.0000000000000E+00
 0.2757913007600E+00 -0.1621398208056E+01  0.0000000000000E+00
 0.2790303353411E+00 -0.1549304059579E+01  0.0000000000000E+00
 0.2822535673443E+00 -0.1477195909042E+01  0.0000000000000E+00
 0.2854161757453E+00 -0.1405034780453E+01  0.0000000000000E+00
 0.2884673595387E+00 -0.1332779095967E+01  0.0000000000000E+00
 0.2750000001390E+00 -0.4186859601281E+01  0.0000000000000E+00
 0.2750000002781E+00 -0.4113342086429E+01  0.0000000000000E+00
 0.2750000004171E+00 -0.4039824684257E+01  0.0000000000000E+00
 0.2750000005561E+00 -0.3966307217550E+01  0.0000000000000E+00
 0.2750000006952E+00 -0.3892789747717E+01  0.0000000000000E+00
 0.2750000008342E+00 -0.3819272288128E+01  0.0000000000000E+00
 0.2750000009732E+00 -0.3745754823288E+01  0.0000000000000E+00
 0.2750000011123E+00 -0.3672237366228E+01  0.0000000000000E+00
 0.2750000012513E+00 -0.3598719903615E+01  0.0000000000000E+00
 0.2750000013904E+00 -0.3525202280347E+01  0.0000000000000E+00
 0.2750000015294E+00 -0.3451684819509E+01  0.0000000000000E+00
 0.2750000016684E+00 -0.3378167379303E+01  0.0000000000000E+00
 0.2750000018075E+00 -0.3304649961005E+01  0.0000000000000E+00
 0.2750000019465E+00 -0.3231132803084E+01  0.0000000000000E+00
 0.2750000020855E+00 -0.3157615389387E+01  0.0000000000000E+00
 0.2750008440979E+00 -0.3084098002567E+01  0.0000000000000E+00
 0.2750408636580E+00 -0.3010580866809E+01  0.0000000000000E+00
 0.2751955207134E+00 -0.2937066271891E+01  0.0000000000000E+00
 0.2755059275539E+00 -0.2863559587695E+01  0.0000000000000E+00
 0.2759824117218E+00 -0.2790067100603E+01  0.0000000000000E+00
 0.2766215501465E+00 -0.2716594812945E+01  0.0000000000000E+00
 0.2774166199123E+00 -0.2643146234864E+01  0.0000000000000E+00
 0.2783620921259E+00 -0.2569726064901E+01  0.0000000000000E+00
 0.2794554372281E+00 -0.2496339061666E+01  0.0000000000000E+00
 0.2806980706207E+00 -0.2422989996067E+01  0.0000000000000E+00
 0.2820963352501E+00 -0.2349685803918E+01  0.0000000000000E+00
 0.2836625679867E+00 -0.2276436016165E+01  0.0000000000000E+00
 0.2854025497903E+00 -0.2203248992725E+01  0.0000000000000E+00
 0.2873141716492E+00 -0.2130130513309E+01  0.0000000000000E+00
 0.2894002924558E+00 -0.2057088440583E+01  0.0000000000000E+00
 0.2916693646866E+00 -0.1984133466365E+01  0.0000000000000E+00
 0.2941359739701E+00 -0.1911281600769E+01  0.0000000000000E+00
 0.2968217085817E+00 -0.1838554023784E+01  0.0000000000000E+00
 0.2997547650849E+00 -0.1765979519672E+01  0.0000000000000E+00
 0.3029624194433E+00 -0.1693591126068E+01  0.0000000000000E+00
 0.3064347780313E+00 -0.1621398208056E+01  0.0000000000000E+00
 0.3100337053242E+00 -0.1549304059579E+01  0.0000000000000E+00
 0.3136150741969E+00 -0.1477195909042E+01  0.0000000000000E+00
 0.3171290835116E+00 -0.1405034780453E+01  0.0000000000000E+00
 0.3205192877065E+00 -0.1332779095967E+01  0.0000000000000E+00
 0.3025000001390E+00 -0.4186859601281E+01  0.0000000000000E+00
 0.3025000002781E+00 -0.4113342086429E+01  0.0000000000000E+00
 0.3025000004171E+00 -0.4039824684257E+01  0.0000000000000E+00
 0.3025000005561E+00 -0.3966307217550E+01  0.0000000000000E+00
 0.3025000006952E+00 -0.3892789747717E+01  0.0000000000000E+00
 0.3025000008342E+00 -0.3819272288128E+01  0.0000000000000E+00
 0.3025000009732E+00 -0.3745754823288E+01  0.0000000000000E+00
 0.3025000011123E+00 -0.3672237366228E+01  0.0000000000000E+00
 0.3025000012513E+00 -0.3598719903615E+01  0.0000000000000E+00
 0.3025000013904E+00 -0.3525202280347E+01  0.0000000000000E+00
 0.3025000015294E+00 -0.3451684819509E+01  0.0000000000000E+00
 0.3025000016684E+00 -0.3378167379303E+01  0.0000000000000E+00
 0.3025000018075E+00 -0.3304649961005E+01  0.0000000000000E+00
 0.3025000019465E+00 -0.3231132803084E+01  0.0000000000000E+00
 0.3025000020855E+00 -0.3157615389387E+01  0.0000000000000E+00
 0.3025009282853E+00 -0.3084098002567E+01  0.0000000000000E+00
 0.3025449497874E+00 -0.3010580866809E+01  0.0000000000000E+00
 0.3027150725343E+00 -0.2937066271891E+01  0.0000000000000E+00
 0.3030565200446E+00 -0.2863559587695E+01  0.0000000000000E+00
 0.3035806526148E+00 -0.2790067100603E+01  0.0000000000000E+00
 0.3042837048674E+00 -0.2716594812945E+01  0.0000000000000E+00
 0.3051582815951E+00 -0.2643146234864E+01  0.0000000000000E+00
 0.3061983010151E+00 -0.2569726064901E+01  0.0000000000000E+00
 0.3074009806125E+00 -0.2496339061666E+01  0.0000000000000E+00
 0.3087678773292E+00 -0.2422989996067E+01  0.0000000000000E+00
 0.3103059684062E+00 -0.2349685803918E+01  0.0000000000000E+00
 0.3120288244010E+00 -0.2276436016165E+01  0.0000000000000E+00
 0.3139428043693E+00 -0.2203248992725E+01  0.0000000000000E+00
 0.3160455883984E+00 -0.2130130513309E+01  0.0000000000000E+00
 0.3183403212697E+00 -0.2057088440583E+01  0.0000000000000E+00
 0.3208363007074E+00 -0.1984133466365E+01  0.0000000000000E+00
 0.3235495709029E+00 -0.1911281600769E+01  0.0000000000000E+00
 0.3265038789592E+00 -0.1838554023784E+01  0.0000000000000E+00
 0.3297302410959E+00 -0.1765979519672E+01  0.0000000000000E+00
 0.3332586608731E+00 -0.1693591126068E+01  0.0000000000000E+00
 0.3370782553027E+00 -0.1621398208056E+01  0.0000000000000E+00
 0.3410370753072E+00 -0.1549304059579E+01  0.0000000000000E+00
 0.3449765810495E+00 -0.1477195909042E+01  0.0000000000000E+00
 0.3488419912778E+00 -0.1405034780453E+01  0.0000000000000E+00
 0.3525712158742E+00 -0.1332779095967E+01  0.0000000000000E+00
 0.3300000001390E+00 -0.4186859601281E+01  0.0000000000000E+00
 0.3300000002781E+00 -0.4113342086429E+01  0.0000000000000E+00
 0.3300000004171E+00 -0.4039824684257E+01  0.0000000000000E+00
 0.3300000005561E+00 -0.3966307217550E+01  0.0000000000000E+00
 0.3300000006952E+00 -0.3892789747717E+01  0.0000000000000E+00
 0.3300000008342E+00 -0.3819272288128E+01  0.0000000000000E+00
 0.3300000009732E+00 -0.3745754823288E+01  0.0000000000000E+00
 0.3300000011123E+00 -0.3672237366228E+01  0.0000000000000E+00
 0.3300000012513E+00 -0.3598719903615E+01  0.0000000000000E+00
 0.3300000013904E+00 -0.3525202280347E+01  0.0000000000000E+00
 0.3300000015294E+00 -0.3451684819509E+01  0.0000000000000E+00
 0.3300000016684E+00 -0.3378167379303E+01  0.0000000000000E+00
 0.3300000018075E+00 -0.3304649961005E+01  0.0000000000000E+00
 0.3300000019465E+00 -0.3231132803084E+01  0.0000000000000E+00
 0.3300000020855E+00 -0.3157615389387E+01  0.0000000000000E+00
 0.3300010124726E+00 -0.3084098002567E+01  0.0000000000000E+00
 0.3300490359168E+00 -0.3010580866809E+01  0.0000000000000E+00
 0.3302346243551E+00 -0.2937066271891E+01  0.0000000000000E+00
 0.3306071125352E+00 -0.2863559587695E+01  0.0000000000000E+00
 0.3311788935078E+00 -0.2790067100603E+01  0.0000000000000E+00
 0.3319458595883E+00 -0.2716594812945E+01  0.0000000000000E+00
 0.3328999432778E+00 -0.2643146234864E+01  0.0000000000000E+00
 0.3340345099043E+00 -0.2569726064901E+01  0.0000000000000E+00
 0.3353465239969E+00 -0.2496339061666E+01  0.0000000000000E+00
 0.3368376840377E+00 -0.2422989996067E+01  0.0000000000000E+00
 0.3385156015623E+00 -0.2349685803918E+01  0.0000000000000E+00
 0.3403950808153E+00 -0.2276436016165E+01  0.0000000000000E+00
 0.3424830589484E+00 -0.2203248992725E+01  0.0000000000000E+00
 0.3447770051475E+00 -0.2130130513309E+01  0.0000000000000E+00
 0.3472803500835E+00 -0.2057088440583E+01  0.0000000000000E+00
 0.3500032367282E+00 -0.1984133466365E+01  0.0000000000000E+00
 0.3529631678358E+00 -0.1911281600768E+01  0.0000000000000E+00
 0.3561860493367E+00 -0.1838554023784E+01  0.0000000000000E+00
 0.3597057171070E+00 -0.1765979519672E+01  0.0000000000000E+00
 0.3635549023030E+00 -0.1693591126068E+01  0.0000000000000E+00
 0.3677217325740E+00 -0.1621398208056E+01  0.0000000000000E+00
 0.3720404452903E+00 -0.1549304059579E+01  0.0000000000000E+00
 0.3763380879022E+00 -0.1477195909042E+01  0.0000000000000E+00
 0.3805548990440E+00 -0.1405034780453E+01  0.0000000000000E+00
 0.3846231440420E+00 -0.1332779095967E+01  0.0000000000000E+00
 0.3575000001390E+00 -0.4186859601281E+01  0.0000000000000E+00
 0.3575000002781E+00 -0.4113342086429E+01  0.0000000000000E+00
 0.3575000004171E+00 -0.4039824684257E+01  0.0000000000000E+00
 0.3575000005561E+00 -0.3966307217550E+01  0.0000000000000E+00
 0.3575000006952E+00 -0.3892789747717E+01  0.0000000000000E+00
 0.3575000008342E+00 -0.3819272288128E+01  0.0000000000000E+00
 0.3575000009732E+00 -0.3745754823288E+01  0.0000000000000E+00
 0.3575000011123E+00 -0.3672237366228E+01  0.0000000000000E+00
 0.3575000012513E+00 -0.3598719903615E+01  0.0000000000000E+00
 0.3575000013904E+00 -0.3525202280347E+01  0.0000000000000E+00
 0.3575000015294E+00 -0.3451684819509E+01  0.0000000000000E+00
 0.3575000016684E+00 -0.3378167379303E+01  0.0000000000000E+00
 0.3575000018075E+00 -0.3304649961005E+01  0.0000000000000E+00
 0.3575000019465E+00 -0.3231132803084E+01  0.0000000000000E+00
 0.3575000020855E+00 -0.3157615389387E+01  0.0000000000000E+00
 0.3575010966599E+00 -0.3084098002567E+01  0.0000000000000E+00
 0.3575531220462E+00 -0.3010580866809E+01  0.0000000000000E+00
 0.3577541761760E+00 -0.2937066271891E+01  0.0000000000000E+00
 0.3581577050259E+00 -0.2863559587695E+01  0.0000000000000E+00
 0.3587771344008E+00 -0.2790067100603E+01  0.0000000000000E+00
 0.3596080143092E+00 -0.2716594812945E+01  0.0000000000000E+00
 0.3606416049605E+00 -0.2643146234864E+01  0.0000000000000E+00
 0.3618707187935E+00 -0.2569726064901E+01  0.0000000000000E+00
 0.3632920673813E+00 -0.2496339061666E+01  0.0000000000000E+00
 0.3649074907461E+00 -0.2422989996067E+01  0.0000000000000E+00
 0.3667252347185E+00 -0.2349685803918E+01  0.0000000000000E+00
 0.3687613372296E+00 -0.2276436016165E+01  0.0000000000000E+00
 0.3710233135274E+00 -0.2203248992725E+01  0.0000000000000E+00
 0.3735084218966E+00 -0.2130130513309E+01  0.0000000000000E+00
 0.3762203788973E+00 -0.2057088440583E+01  0.0000000000000E+00
 0.3791701727490E+00 -0.1984133466365E+01  0.0000000000000E+00
 0.3823767647686E+00 -0.1911281600768E+01  0.0000000000000E+00
 0.3858682197142E+00 -0.1838554023784E+01  0.0000000000000E+00
 0.3896811931180E+00 -0.1765979519672E+01  0.0000000000000E+00
 0.3938511437328E+00 -0.1693591126067E+01  0.0000000000000E+00
 0.3983652098454E+00 -0.1621398208056E+01  0.0000000000000E+00
 0.4030438152733E+00 -0.1549304059579E+01  0.0000000000000E+00
 0.4076995947548E+00 -0.1477195909042E+01  0.0000000000000E+00
 0.4122678068103E+00 -0.1405034780453E+01  0.0000000000000E+00
 0.4166750722097E+00 -0.1332779095967E+01  0.0000000000000E+00
 0.3850000001390E+00 -0.4186859601281E+01  0.0000000000000E+00
 0.3850000002781E+00 -0.4113342086429E+01  0.0000000000000E+00
 0.3850000004171E+00 -0.4039824684257E+01  0.0000000000000E+00
 0.3850000005561E+00 -0.3966307217550E+01  0.0000000000000E+00
 0.3850000006952E+00 -0.3892789747717E+01  0.0000000000000E+00
 0.3850000008342E+00 -0.3819272288128E+01  0.0000000000000E+00
 0.3850000009732E+00 -0.3745754823288E+01  0.0000000000000E+00
 0.3850000011123E+00 -0.3672237366228E+01  0.0000000000000E+00
 0.3850000012513E+00 -0.3598719903615E+01  0.0000000000000E+00
 0.3850000013904E+00 -0.3525202280347E+01  0.0000000000000E+00
 0.3850000015294E+00 -0.3451684819509E+01  0.0000000000000E+00
 0.3850000016684E+00 -0.3378167379303E+01  0.0000000000000E+00
 0.3850000018075E+00 -0.3304649961005E+01  0.0000000000000E+00
 0.3850000019465E+00 -0.3231132803084E+01  0.0000000000000E+00
 0.3850000020855E+00 -0.3157615389387E+01  0.0000000000000E+00
 0.3850011808473E+00 -0.3084098002567E+01  0.0000000000000E+00
 0.3850572081756E+00 -0.3010580866809E+01  0.0000000000000E+00
 0.3852737279968E+00 -0.2937066271891E+01  0.0000000000000E+00
 0.3857082975166E+00 -0.2863559587695E+01  0.0000000000000E+00
 0.3863753752939E+00 -0.2790067100603E+01  0.0000000000000E+00
 0.3872701690301E+00 -0.2716594812945E+01  0.0000000000000E+00
 0.3883832666433E+00 -0.2643146234864E+01  0.0000000000000E+00
 0.3897069276828E+00 -0.2569726064901E+01  0.0000000000000E+00
 0.3912376107657E+00 -0.2496339061666E+01  0.0000000000000E+00
 0.3929772974546E+00 -0.2422989996067E+01  0.0000000000000E+00
 0.3949348678746E+00 -0.2349685803918E+01  0.0000000000000E+00
 0.3971275936439E+00 -0.2276436016165E+01  0.0000000000000E+00
 0.3995635681064E+00 -0.2203248992725E+01  0.0000000000000E+00
 0.4022398386458E+00 -0.2130130513309E+01  0.0000000000000E+00
 0.4051604077112E+00 -0.2057088440583E+01  0.0000000000000E+00
 0.4083371087698E+00 -0.1984133466365E+01  0.0000000000000E+00
 0.4117903617014E+00 -0.1911281600768E+01  0.0000000000000E+00
 0.4155503900916E+00 -0.1838554023784E+01  0.0000000000000E+00
 0.4196566691291E+00 -0.1765979519672E+01  0.0000000000000E+00
 0.4241473851627E+00 -0.1693591126067E+01  0.0000000000000E+00
 0.4290086871167E+00 -0.1621398208056E+01  0.0000000000000E+00
 0.4340471852564E+00 -0.1549304059579E+01  0.0000000000000E+00
 0.4390611016074E+00 -0.1477195909042E+01  0.0000000000000E+00
 0.4439807145765E+00 -0.1405034780453E+01  0.0000000000000E+00
 0.4487270003775E+00 -0.1332779095967E+01  0.0000000000000E+00
 0.4125000001390E+00 -0.4186859601281E+01  0.0000000000000E+00
 0.4125000002781E+00 -0.4113342086429E+01  0.0000000000000E+00
 0.4125000004171E+00 -0.4039824684257E+01  0.0000000000000E+00
 0.4125000005561E+00 -0.3966307217550E+01  0.0000000000000E+00
 0.4125000006952E+00 -0.3892789747717E+01  0.0000000000000E+00
 0.4125000008342E+00 -0.3819272288128E+01  0.0000000000000E+00
 0.4125000009732E+00 -0.3745754823288E+01  0.0000000000000E+00
 0.4125000011123E+00 -0.3672237366228E+01  0.0000000000000E+00
 0.4125000012513E+00 -0.3598719903615E+01  0.0000000000000E+00
 0.4125000013904E+00 -0.3525202280347E+01  0.0000000000000E+00
 0.4125000015294E+00 -0.3451684819509E+01  0.0000000000000E+00
 0.4125000016684E+00 -0.3378167379303E+01  0.0000000000000E+00
 0.4125000018075E+00 -0.3304649961005E+01  0.0000000000000E+00
 0.4125000019465E+00 -0.3231132803084E+01  0.0000000000000E+00
 0.4125000020855E+00 -0.3157615389387E+01  0.0000000000000E+00
 0.4125012650346E+00 -0.3084098002567E+01  0.0000000000000E+00
 0.4125612943050E+00 -0.3010580866809E+01  0.0000000000000E+00
 0.4127932798177E+00 -0.2937066271891E+01  0.0000000000000E+00
 0.4132588900072E+00 -0.2863559587694E+01  0.0000000000000E+00
 0.4139736161869E+00 -0.2790067100603E+01  0.0000000000000E+00
 0.4149323237511E+00 -0.2716594812945E+01  0.0000000000000E+00
 0.4161249283260E+00 -0.2643146234864E+01  0.0000000000000E+00
 0.4175431365720E+00 -0.2569726064901E+01  0.0000000000000E+00
 0.4191831541501E+00 -0.2496339061666E+01  0.0000000000000E+00
 0.4210471041631E+00 -0.2422989996067E+01  0.0000000000000E+00
 0.4231445010307E+00 -0.2349685803918E+01  0.0000000000000E+00
 0.4254938500582E+00 -0.2276436016165E+01  0.0000000000000E+00
 0.4281038226855E+00 -0.2203248992725E+01  0.0000000000000E+00
 0.4309712553949E+00 -0.2130130513309E+01  0.0000000000000E+00
 0.4341004365250E+00 -0.2057088440582E+01  0.0000000000000E+00
 0.4375040447906E+00 -0.1984133466365E+01  0.0000000000000E+00
 0.4412039586342E+00 -0.1911281600768E+01  0.0000000000000E+00
 0.4452325604691E+00 -0.1838554023784E+01  0.0000000000000E+00
 0.4496321451401E+00 -0.1765979519672E+01  0.0000000000000E+00
 0.4544436265925E+00 -0.1693591126067E+01  0.0000000000000E+00
 0.4596521643880E+00 -0.1621398208056E+01  0.0000000000000E+00
 0.4650505552394E+00 -0.1549304059579E+01  0.0000000000000E+00
 0.4704226084601E+00 -0.1477195909042E+01  0.0000000000000E+00
 0.4756936223427E+00 -0.1405034780453E+01  0.0000000000000E+00
 0.4807789285453E+00 -0.1332779095967E+01  0.0000000000000E+00
 0.4400000001390E+00 -0.4186859601281E+01  0.0000000000000E+00
 0.4400000002781E+00 -0.4113342086429E+01  0.0000000000000E+00
 0.4400000004171E+00 -0.4039824684257E+01  0.0000000000000E+00
 0.4400000005561E+00 -0.3966307217550E+01  0.0000000000000E+00
 0.4400000006952E+00 -0.3892789747717E+01  0.0000000000000E+00
 0.4400000008342E+00 -0.3819272288128E+01  0.0000000000000E+00
 0.4400000009732E+00 -0.3745754823288E+01  0.0000000000000E+00
 0.4400000011123E+00 -0.3672237366228E+01  0.0000000000000E+00
 0.4400000012513E+00 -0.3598719903615E+01  0.0000000000000E+00
 0.4400000013904E+00 -0.3525202280347E+01  0.0000000000000E+00
 0.4400000015294E+00 -0.3451684819509E+01  0.0000000000000E+00
 0.4400000016684E+00 -0.3378167379303E+01  0.0000000000000E+00
 0.4400000018075E+00 -0.3304649961005E+01  0.0000000000000E+00
 0.4400000019465E+00 -0.3231132803084E+01  0.0000000000000E+00
 0.4400000020855E+00 -0.3157615389387E+01  0.0000000000000E+00
 0.4400013492219E+00 -0.3084098002567E+01  0.0000000000000E+00
 0.4400653804344E+00 -0.3010580866809E+01  0.0000000000000E+00
 0.4403128316385E+00 -0.2937066271891E+01  0.0000000000000E+00
 0.4408094824979E+00 -0.2863559587694E+01  0.0000000000000E+00
 0.4415718570799E+00 -0.2790067100603E+01  0.0000000000000E+00
 0.4425944784720E+00 -0.2716594812945E+01  0.0000000000000E+00
 0.4438665900088E+00 -0.2643146234864E+01  0.0000000000000E+00
 0.4453793454612E+00 -0.2569726064901E+01  0.0000000000000E+00
 0.4471286975345E+00 -0.2496339061666E+01  0.0000000000000E+00
 0.4491169108716E+00 -0.2422989996067E+01  0.0000000000000E+00
 0.4513541341868E+00 -0.2349685803918E+01  0.0000000000000E+00
 0.4538601064725E+00 -0.2276436016165E+01  0.0000000000000E+00
 0.4566440772645E+00 -0.2203248992725E+01  0.0000000000000E+00
 0.4597026721440E+00 -0.2130130513309E+01  0.0000000000000E+00
 0.4630404653389E+00 -0.2057088440582E+01  0.0000000000000E+00
 0.4666709808114E+00 -0.1984133466365E+01  0.0000000000000E+00
 0.4706175555671E+00 -0.1911281600768E+01  0.0000000000000E+00
 0.4749147308466E+00 -0.1838554023784E+01  0.0000000000000E+00
 0.4796076211511E+00 -0.1765979519672E+01  0.0000000000000E+00
 0.4847398680223E+00 -0.1693591126067E+01  0.0000000000000E+00
 0.4902956416594E+00 -0.1621398208056E+01  0.0000000000000E+00
 0.4960539252225E+00 -0.1549304059579E+01  0.0000000000000E+00
 0.5017841153127E+00 -0.1477195909042E+01  0.0000000000000E+00
 0.5074065301090E+00 -0.1405034780453E+01  0.0000000000000E+00
 0.5128308567130E+00 -0.1332779095967E+01  0.0000000000000E+00
 0.4675000001390E+00 -0.4186859601281E+01  0.0000000000000E+00
 0.4675000002781E+00 -0.4113342086429E+01  0.0000000000000E+00
 0.4675000004171E+00 -0.4039824684257E+01  0.0000000000000E+00
 0.4675000005561E+00 -0.3966307217550E+01  0.0000000000000E+00
 0.4675000006952E+00 -0.3892789747717E+01  0.0000000000000E+00
 0.4675000008342E+00 -0.3819272288128E+01  0.0000000000000E+00
 0.4675000009732E+00 -0.3745754823288E+01  0.0000000000000E+00
 0.4675000011123E+00 -0.3672237366228E+01  0.0000000000000E+00
 0.4675000012513E+00 -0.3598719903615E+01  0.0000000000000E+00
 0.4675000013904E+00 -0.3525202280347E+01  0.0000000000000E+00
 0.4675000015294E+00 -0.3451684819509E+01  0.0000000000000E+00
 0.4675000016684E+00 -0.3378167379303E+01  0.0000000000000E+00
 0.4675000018075E+00 -0.3304649961005E+01  0.0000000000000E+00
 0.4675000019465E+00 -0.3231132803084E+01  0.0000000000000E+00
 0.4675000020855E+00 -0.3157615389387E+01  0.0000000000000E+00
 0.4675014334093E+00 -0.3084098002567E+01  0.0000000000000E+00
 0.4675694665638E+00 -0.3010580866809E+01  0.0000000000000E+00
 0.4678323834594E+00 -0.2937066271891E+01  0.0000000000000E+00
 0.4683600749885E+00 -0.2863559587694E+01  0.0000000000000E+00
 0.4691700979729E+00 -0.2790067100603E+01  0.0000000000000E+00
 0.4702566331929E+00 -0.2716594812945E+01  0.0000000000000E+00
 0.4716082516915E+00 -0.2643146234864E+01  0.0000000000000E+00
 0.4732155543504E+00 -0.2569726064901E+01  0.0000000000000E+00
 0.4750742409189E+00 -0.2496339061666E+01  0.0000000000000E+00
 0.4771867175801E+00 -0.2422989996067E+01  0.0000000000000E+00
 0.4795637673429E+00 -0.2349685803918E+01  0.0000000000000E+00
 0.4822263628868E+00 -0.2276436016165E+01  0.0000000000000E+00
 0.4851843318435E+00 -0.2203248992725E+01  0.0000000000000E+00
 0.4884340888932E+00 -0.2130130513309E+01  0.0000000000000E+00
 0.4919804941527E+00 -0.2057088440582E+01  0.0000000000000E+00
 0.4958379168322E+00 -0.1984133466365E+01  0.0000000000000E+00
 0.5000311524999E+00 -0.1911281600768E+01  0.0000000000000E+00
 0.5045969012241E+00 -0.1838554023784E+01  0.0000000000000E+00
 0.5095830971622E+00 -0.1765979519672E+01  0.0000000000000E+00
 0.5150361094522E+00 -0.1693591126067E+01  0.0000000000000E+00
 0.5209391189307E+00 -0.1621398208056E+01  0.0000000000000E+00
 0.5270572952056E+00 -0.1549304059579E+01  0.0000000000000E+00
 0.5331456221654E+00 -0.1477195909042E+01  0.0000000000000E+00
 0.5391194378752E+00 -0.1405034780453E+01  0.0000000000000E+00
 0.5448827848808E+00 -0.1332779095967E+01  0.0000000000000E+00
 0.4950000001390E+00 -0.4186859601281E+01  0.0000000000000E+00
 0.4950000002781E+00 -0.4113342086429E+01  0.0000000000000E+00
 0.4950000004171E+00 -0.4039824684257E+01  0.0000000000000E+00
 0.4950000005561E+00 -0.3966307217550E+01  0.0000000000000E+00
 0.4950000006952E+00 -0.3892789747717E+01  0.0000000000000E+00
 0.4950000008342E+00 -0.3819272288128E+01  0.0000000000000E+00
 0.4950000009732E+00 -0.3745754823288E+01  0.0000000000000E+00
 0.4950000011123E+00 -0.3672237366228E+01  0.0000000000000E+00
 0.4950000012513E+00 -0.3598719903615E+01  0.0000000000000E+00
 0.4950000013904E+00 -0.3525202280347E+01  0.0000000000000E+00
 0.4950000015294E+00 -0.3451684819509E+01  0.0000000000000E+00
 0.4950000016684E+00 -0.3378167379303E+01  0.0000000000000E+00
 0.4950000018075E+00 -0.3304649961005E+01  0.0000000000000E+00
 0.4950000019465E+00 -0.3231132803084E+01  0.0000000000000E+00
 0.4950000020855E+00 -0.3157615389387E+01  0.0000000000000E+00
 0.4950015175966E+00 -0.3084098002567E+01  0.0000000000000E+00
 0.4950735526932E+00 -0.3010580866809E+01  0.0000000000000E+00
 0.4953519352803E+00 -0.2937066271891E+01  0.0000000000000E+00
 0.4959106674792E+00 -0.2863559587694E+01  0.0000000000000E+00
 0.4967683388660E+00 -0.2790067100603E+01  0.0000000000000E+00
 0.4979187879138E+00 -0.2716594812945E+01  0.0000000000000E+00
 0.4993499133743E+00 -0.2643146234864E+01  0.0000000000000E+00
 0.5010517632396E+00 -0.2569726064901E+01  0.0000000000000E+00
 0.5030197843033E+00 -0.2496339061666E+01  0.0000000000000E+00
 0.5052565242886E+00 -0.2422989996067E+01  0.0000000000000E+00
 0.5077734004990E+00 -0.2349685803918E+01  0.0000000000000E+00
 0.5105926193011E+00 -0.2276436016165E+01  0.0000000000000E+00
 0.5137245864225E+00 -0.2203248992725E+01  0.0000000000000E+00
 0.5171655056423E+00 -0.2130130513309E+01  0.0000000000000E+00
 0.5209205229665E+00 -0.2057088440582E+01  0.0000000000000E+00
 0.5250048528530E+00 -0.1984133466365E+01  0.0000000000000E+00
 0.5294447494327E+00 -0.1911281600768E+01  0.0000000000000E+00
 0.5342790716015E+00 -0.1838554023784E+01  0.0000000000000E+00
 0.5395585731732E+00 -0.1765979519672E+01  0.0000000000000E+00
 0.5453323508820E+00 -0.1693591126067E+01  0.0000000000000E+00
 0.5515825962021E+00 -0.1621398208056E+01  0.0000000000000E+00
 0.5580606651886E+00 -0.1549304059579E+01  0.0000000000000E+00
 0.5645071290180E+00 -0.1477195909042E+01  0.0000000000000E+00
 0.5708323456415E+00 -0.1405034780453E+01  0.0000000000000E+00
 0.5769347130485E+00 -0.1332779095967E+01  0.0000000000000E+00
 0.5225000001390E+00 -0.4186859601281E+01  0.0000000000000E+00
 0.5225000002781E+00 -0.4113342086429E+01  0.0000000000000E+00
 0.5225000004171E+00 -0.4039824684257E+01  0.0000000000000E+00
 0.5225000005561E+00 -0.3966307217550E+01  0.0000000000000E+00
 0.5225000006952E+00 -0.3892789747717E+01  0.0000000000000E+00
 0.5225000008342E+00 -0.3819272288128E+01  0.0000000000000E+00
 0.5225000009732E+00 -0.3745754823288E+01  0.0000000000000E+00
 0.5225000011123E+00 -0.3672237366228E+01  0.0000000000000E+00
 0.5225000012513E+00 -0.3598719903615E+01  0.0000000000000E+00
 0.5225000013904E+00 -0.3525202280347E+01  0.0000000000000E+00
 0.5225000015294E+00 -0.3451684819509E+01  0.0000000000000E+00
 0.5225000016684E+00 -0.3378167379303E+01  0.0000000000000E+00
 0.5225000018075E+00 -0.3304649961005E+01  0.0000000000000E+00
 0.5225000019465E+00 -0.3231132803084E+01  0.0000000000000E+00
 0.5225000020855E+00 -0.3157615389387E+01  0.0000000000000E+00
 0.5225016017839E+00 -0.3084098002567E+01  0.0000000000000E+00
 0.5225776388225E+00 -0.3010580866809E+01  0.0000000000000E+00
 0.5228714871011E+00 -0.2937066271891E+01  0.0000000000000E+00
 0.5234612599699E+00 -0.2863559587694E+01  0.0000000000000E+00
 0.5243665797590E+00 -0.2790067100603E+01  0.0000000000000E+00
 0.5255809426347E+00 -0.2716594812945E+01  0.0000000000000E+00
 0.5270915750570E+00 -0.2643146234864E+01  0.0000000000000E+00
 0.5288879721288E+00 -0.2569726064901E+01  0.0000000000000E+00
 0.5309653276877E+00 -0.2496339061666E+01  0.0000000000000E+00
 0.5333263309971E+00 -0.2422989996067E+01  0.0000000000000E+00
 0.5359830336551E+00 -0.2349685803918E+01  0.0000000000000E+00
 0.5389588757154E+00 -0.2276436016165E+01  0.0000000000000E+00
 0.5422648410016E+00 -0.2203248992725E+01  0.0000000000000E+00
 0.5458969223914E+00 -0.2130130513309E+01  0.0000000000000E+00
 0.5498605517804E+00 -0.2057088440582E+01  0.0000000000000E+00
 0.5541717888738E+00 -0.1984133466365E+01  0.0000000000000E+00
 0.5588583463656E+00 -0.1911281600768E+01  0.0000000000000E+00
 0.5639612419790E+00 -0.1838554023784E+01  0.0000000000000E+00
 0.5695340491842E+00 -0.1765979519672E+01  0.0000000000000E+00
 0.5756285923119E+00 -0.1693591126067E+01  0.0000000000000E+00
 0.5822260734734E+00 -0.1621398208055E+01  0.0000000000000E+00
 0.5890640351717E+00 -0.1549304059579E+01  0.0000000000000E+00
 0.5958686358706E+00 -0.1477195909042E+01  0.0000000000000E+00
 0.6025452534077E+00 -0.1405034780453E+01  0.0000000000000E+00
 0.6089866412163E+00 -0.1332779095967E+01  0.0000000000000E+00
 0.5500000001390E+00 -0.4186859601281E+01  0.0000000000000E+00
 0.5500000002781E+00 -0.4113342086429E+01  0.0000000000000E+00
 0.5500000004171E+00 -0.4039824684257E+01  0.0000000000000E+00
 0.5500000005561E+00 -0.3966307217550E+01  0.0000000000000E+00
 0.5500000006952E+00 -0.3892789747717E+01  0.0000000000000E+00
 0.5500000008342E+00 -0.3819272288128E+01  0.0000000000000E+00
 0.5500000009732E+00 -0.3745754823288E+01  0.0000000000000E+00
 0.5500000011123E+00 -0.3672237366228E+01  0.0000000000000E+00
 0.5500000012513E+00 -0.3598719903615E+01  0.0000000000000E+00
 0.5500000013904E+00 -0.3525202280347E+01  0.0000000000000E+00
 0.5500000015294E+00 -0.3451684819509E+01  0.0000000000000E+00
 0.5500000016684E+00 -0.3378167379303E+01  0.0000000000000E+00
 0.5500000018075E+00 -0.3304649961005E+01  0.0000000000000E+00
 0.5500000019465E+00 -0.3231132803084E+01  0.0000000000000E+00
 0.5500000020855E+00 -0.3157615389387E+01  0.0000000000000E+00
 0.5500016859713E+00 -0.3084098002567E+01  0.0000000000000E+00
 0.5500817249519E+00 -0.3010580866809E+01  0.0000000000000E+00
 0.5503910389220E+00 -0.2937066271891E+01  0.0000000000000E+00
 0.5510118524605E+00 -0.2863559587694E+01  0.0000000000000E+00
 0.5519648206520E+00 -0.2790067100603E+01  0.0000000000000E+00
 0.5532430973556E+00 -0.2716594812945E+01  0.0000000000000E+00
 0.5548332367398E+00 -0.2643146234864E+01  0.0000000000000E+00
 0.5567241810181E+00 -0.2569726064901E+01  0.0000000000000E+00
 0.5589108710721E+00 -0.2496339061666E+01  0.0000000000000E+00
 0.5613961377056E+00 -0.2422989996067E+01  0.0000000000000E+00
 0.5641926668113E+00 -0.2349685803918E+01  0.0000000000000E+00
 0.5673251321297E+00 -0.2276436016165E+01  0.0000000000000E+00
 0.5708050955806E+00 -0.2203248992725E+01  0.0000000000000E+00
 0.5746283391406E+00 -0.2130130513309E+01  0.0000000000000E+00
 0.5788005805942E+00 -0.2057088440582E+01  0.0000000000000E+00
 0.5833387248945E+00 -0.1984133466365E+01  0.0000000000000E+00
 0.5882719432984E+00 -0.1911281600768E+01  0.0000000000000E+00
 0.5936434123565E+00 -0.1838554023784E+01  0.0000000000000E+00
 0.5995095251953E+00 -0.1765979519672E+01  0.0000000000000E+00
 0.6059248337417E+00 -0.1693591126067E+01  0.0000000000000E+00
 0.6128695507447E+00 -0.1621398208055E+01  0.0000000000000E+00
 0.6200674051547E+00 -0.1549304059578E+01  0.0000000000000E+00
 0.6272301427233E+00 -0.1477195909042E+01  0.0000000000000E+00
 0.6342581611739E+00 -0.1405034780452E+01  0.0000000000000E+00
 0.6410385693841E+00 -0.1332779095967E+01  0.0000000000000E+00
 0.5775000001321E+00 -0.4186859601281E+01  0.0000000000000E+00
 0.5775000002642E+00 -0.4113342086429E+01  0.0000000000000E+00
 0.5775000003963E+00 -0.4039824684257E+01  0.0000000000000E+00
 0.5775000005283E+00 -0.3966307217550E+01  0.0000000000000E+00
 0.5775000006604E+00 -0.3892789747717E+01  0.0000000000000E+00
 0.5775000007925E+00 -0.3819272288128E+01  0.0000000000000E+00
 0.5775000009246E+00 -0.3745754823288E+01  0.0000000000000E+00
 0.5775000010567E+00 -0.3672237366228E+01  0.0000000000000E+00
 0.5775000011888E+00 -0.3598719903615E+01  0.0000000000000E+00
 0.5775000013208E+00 -0.3525202280347E+01  0.0000000000000E+00
 0.5775000014529E+00 -0.3451684819509E+01  0.0000000000000E+00
 0.5775000015850E+00 -0.3378167379303E+01  0.0000000000000E+00
 0.5775000017171E+00 -0.3304649961005E+01  0.0000000000000E+00
 0.5775000018492E+00 -0.3231132803084E+01  0.0000000000000E+00
 0.5775000019813E+00 -0.3157615389387E+01  0.0000000000000E+00
 0.5775017700474E+00 -0.3084098002567E+01  0.0000000000000E+00
 0.5775858109631E+00 -0.3010580866809E+01  0.0000000000000E+00
 0.5779105906176E+00 -0.2937066271891E+01  0.0000000000000E+00
 0.5785624448188E+00 -0.2863559587694E+01  0.0000000000000E+00
 0.5795630614055E+00 -0.2790067100603E+01  0.0000000000000E+00
 0.5809052519297E+00 -0.2716594812945E+01  0.0000000000000E+00
 0.5825748982683E+00 -0.2643146234864E+01  0.0000000000000E+00
 0.5845603897456E+00 -0.2569726064901E+01  0.0000000000000E+00
 0.5868564142874E+00 -0.2496339061666E+01  0.0000000000000E+00
 0.5894659442373E+00 -0.2422989996067E+01  0.0000000000000E+00
 0.5924022997829E+00 -0.2349685803918E+01  0.0000000000000E+00
 0.5956913883518E+00 -0.2276436016165E+01  0.0000000000000E+00
 0.5993453499596E+00 -0.2203248992725E+01  0.0000000000000E+00
 0.6033597556817E+00 -0.2130130513309E+01  0.0000000000000E+00
 0.6077406091920E+00 -0.2057088440582E+01  0.0000000000000E+00
 0.6125056606912E+00 -0.1984133466365E+01  0.0000000000000E+00
 0.6176855399988E+00 -0.1911281600768E+01  0.0000000000000E+00
 0.6233255824932E+00 -0.1838554023784E+01  0.0000000000000E+00
 0.6294850009571E+00 -0.1765979519672E+01  0.0000000000000E+00
 0.6362210749138E+00 -0.1693591126067E+01  0.0000000000000E+00
 0.6435130277495E+00 -0.1621398208055E+01  0.0000000000000E+00
 0.6510707748624E+00 -0.1549304059578E+01  0.0000000000000E+00
 0.6585916492917E+00 -0.1477195909042E+01  0.0000000000000E+00
 0.6659710686472E+00 -0.1405034780452E+01  0.0000000000000E+00
 0.6730904972502E+00 -0.1332779095967E+01  0.0000000000000E+00
 0.6050000001251E+00 -0.4186859601281E+01  0.0000000000000E+00
 0.6050000002503E+00 -0.4113342086429E+01  0.0000000000000E+00
 0.6050000003754E+00 -0.4039824684257E+01  0.0000000000000E+00
 0.6050000005005E+00 -0.3966307217550E+01  0.0000000000000E+00
 0.6050000006257E+00 -0.3892789747717E+01  0.0000000000000E+00
 0.6050000007508E+00 -0.3819272288128E+01  0.0000000000000E+00
 0.6050000008759E+00 -0.3745754823288E+01  0.0000000000000E+00
 0.6050000010011E+00 -0.3672237366228E+01  0.0000000000000E+00
 0.6050000011262E+00 -0.3598719903615E+01  0.0000000000000E+00
 0.6050000012513E+00 -0.3525202280347E+01  0.0000000000000E+00
 0.6050000013765E+00 -0.3451684819509E+01  0.0000000000000E+00
 0.6050000015016E+00 -0.3378167379303E+01  0.0000000000000E+00
 0.6050000016267E+00 -0.3304649961005E+01  0.0000000000000E+00
 0.6050000017518E+00 -0.3231132803084E+01  0.0000000000000E+00
 0.6050000018770E+00 -0.3157615389387E+01  0.0000000000000E+00
 0.6050018541235E+00 -0.3084098002567E+01  0.0000000000000E+00
 0.6050898969743E+00 -0.3010580866809E+01  0.0000000000000E+00
 0.6054301423132E+00 -0.2937066271891E+01  0.0000000000000E+00
 0.6061130371772E+00 -0.2863559587694E+01  0.0000000000000E+00
 0.6071613021590E+00 -0.2790067100603E+01  0.0000000000000E+00
 0.6085674065038E+00 -0.2716594812945E+01  0.0000000000000E+00
 0.6103165597969E+00 -0.2643146234864E+01  0.0000000000000E+00
 0.6123965984732E+00 -0.2569726064901E+01  0.0000000000000E+00
 0.6148019575026E+00 -0.2496339061666E+01  0.0000000000000E+00
 0.6175357507690E+00 -0.2422989996067E+01  0.0000000000000E+00
 0.6206119327546E+00 -0.2349685803918E+01  0.0000000000000E+00
 0.6240576445739E+00 -0.2276436016165E+01  0.0000000000000E+00
 0.6278856043386E+00 -0.2203248992725E+01  0.0000000000000E+00
 0.6320911722229E+00 -0.2130130513309E+01  0.0000000000000E+00
 0.6366806377898E+00 -0.2057088440582E+01  0.0000000000000E+00
 0.6416725964878E+00 -0.1984133466364E+01  0.0000000000000E+00
 0.6470991366993E+00 -0.1911281600768E+01  0.0000000000000E+00
 0.6530077526300E+00 -0.1838554023784E+01  0.0000000000000E+00
 0.6594604767190E+00 -0.1765979519672E+01  0.0000000000000E+00
 0.6665173160858E+00 -0.1693591126067E+01  0.0000000000000E+00
 0.6741565047543E+00 -0.1621398208055E+01  0.0000000000000E+00
 0.6820741445701E+00 -0.1549304059578E+01  0.0000000000000E+00
 0.6899531558602E+00 -0.1477195909042E+01  0.0000000000000E+00
 0.6976839761205E+00 -0.1405034780452E+01  0.0000000000000E+00
 0.7051424251163E+00 -0.1332779095967E+01  0.0000000000000E+00
 0.6325000001182E+00 -0.4186859601281E+01  0.0000000000000E+00
 0.6325000002364E+00 -0.4113342086429E+01  0.0000000000000E+00
 0.6325000003545E+00 -0.4039824684257E+01  0.0000000000000E+00
 0.6325000004727E+00 -0.3966307217550E+01  0.0000000000000E+00
 0.6325000005909E+00 -0.3892789747717E+01  0.0000000000000E+00
 0.6325000007091E+00 -0.3819272288128E+01  0.0000000000000E+00
 0.6325000008273E+00 -0.3745754823288E+01  0.0000000000000E+00
 0.6325000009454E+00 -0.3672237366228E+01  0.0000000000000E+00
 0.6325000010636E+00 -0.3598719903615E+01  0.0000000000000E+00
 0.6325000011818E+00 -0.3525202280347E+01  0.0000000000000E+00
 0.6325000013000E+00 -0.3451684819509E+01  0.0000000000000E+00
 0.6325000014182E+00 -0.3378167379303E+01  0.0000000000000E+00
 0.6325000015363E+00 -0.3304649961005E+01  0.0000000000000E+00
 0.6325000016545E+00 -0.3231132803084E+01  0.0000000000000E+00
 0.6325000017727E+00 -0.3157615389387E+01  0.0000000000000E+00
 0.6325019381996E+00 -0.3084098002567E+01  0.0000000000000E+00
 0.6325939829855E+00 -0.3010580866809E+01  0.0000000000000E+00
 0.6329496940088E+00 -0.2937066271891E+01  0.0000000000000E+00
 0.6336636295355E+00 -0.2863559587694E+01  0.0000000000000E+00
 0.6347595429125E+00 -0.2790067100603E+01  0.0000000000000E+00
 0.6362295610779E+00 -0.2716594812945E+01  0.0000000000000E+00
 0.6380582213255E+00 -0.2643146234864E+01  0.0000000000000E+00
 0.6402328072008E+00 -0.2569726064901E+01  0.0000000000000E+00
 0.6427475007179E+00 -0.2496339061666E+01  0.0000000000000E+00
 0.6456055573008E+00 -0.2422989996067E+01  0.0000000000000E+00
 0.6488215657263E+00 -0.2349685803918E+01  0.0000000000000E+00
 0.6524239007960E+00 -0.2276436016165E+01  0.0000000000000E+00
 0.6564258587176E+00 -0.2203248992725E+01  0.0000000000000E+00
 0.6608225887640E+00 -0.2130130513309E+01  0.0000000000000E+00
 0.6656206663877E+00 -0.2057088440582E+01  0.0000000000000E+00
 0.6708395322845E+00 -0.1984133466364E+01  0.0000000000000E+00
 0.6765127333998E+00 -0.1911281600768E+01  0.0000000000000E+00
 0.6826899227668E+00 -0.1838554023784E+01  0.0000000000000E+00
 0.6894359524808E+00 -0.1765979519672E+01  0.0000000000000E+00
 0.6968135572579E+00 -0.1693591126067E+01  0.0000000000000E+00
 0.7047999817591E+00 -0.1621398208055E+01  0.0000000000000E+00
 0.7130775142778E+00 -0.1549304059578E+01  0.0000000000000E+00
 0.7213146624286E+00 -0.1477195909042E+01  0.0000000000000E+00
 0.7293968835938E+00 -0.1405034780452E+01  0.0000000000000E+00
 0.7371943529824E+00 -0.1332779095967E+01  0.0000000000000E+00
 0.6600000001112E+00 -0.4186859601281E+01  0.0000000000000E+00
 0.6600000002225E+00 -0.4113342086429E+01  0.0000000000000E+00
 0.6600000003337E+00 -0.4039824684257E+01  0.0000000000000E+00
 0.6600000004449E+00 -0.3966307217550E+01  0.0000000000000E+00
 0.6600000005561E+00 -0.3892789747717E+01  0.0000000000000E+00
 0.6600000006674E+00 -0.3819272288128E+01  0.0000000000000E+00
 0.6600000007786E+00 -0.3745754823288E+01  0.0000000000000E+00
 0.6600000008898E+00 -0.3672237366228E+01  0.0000000000000E+00
 0.6600000010011E+00 -0.3598719903615E+01  0.0000000000000E+00
 0.6600000011123E+00 -0.3525202280347E+01  0.0000000000000E+00
 0.6600000012235E+00 -0.3451684819509E+01  0.0000000000000E+00
 0.6600000013347E+00 -0.3378167379303E+01  0.0000000000000E+00
 0.6600000014460E+00 -0.3304649961005E+01  0.0000000000000E+00
 0.6600000015572E+00 -0.3231132803084E+01  0.0000000000000E+00
 0.6600000016684E+00 -0.3157615389387E+01  0.0000000000000E+00
 0.6600020222757E+00 -0.3084098002567E+01  0.0000000000000E+00
 0.6600980689967E+00 -0.3010580866809E+01  0.0000000000000E+00
 0.6604692457045E+00 -0.2937066271891E+01  0.0000000000000E+00
 0.6612142218938E+00 -0.2863559587694E+01  0.0000000000000E+00
 0.6623577836659E+00 -0.2790067100603E+01  0.0000000000000E+00
 0.6638917156520E+00 -0.2716594812945E+01  0.0000000000000E+00
 0.6657998828540E+00 -0.2643146234864E+01  0.0000000000000E+00
 0.6680690159284E+00 -0.2569726064901E+01  0.0000000000000E+00
 0.6706930439331E+00 -0.2496339061666E+01  0.0000000000000E+00
 0.6736753638325E+00 -0.2422989996067E+01  0.0000000000000E+00
 0.6770311986980E+00 -0.2349685803918E+01  0.0000000000000E+00
 0.6807901570181E+00 -0.2276436016165E+01  0.0000000000000E+00
 0.6849661130966E+00 -0.2203248992725E+01  0.0000000000000E+00
 0.6895540053052E+00 -0.2130130513309E+01  0.0000000000000E+00
 0.6945606949855E+00 -0.2057088440582E+01  0.0000000000000E+00
 0.7000064680811E+00 -0.1984133466364E+01  0.0000000000000E+00
 0.7059263301002E+00 -0.1911281600768E+01  0.0000000000000E+00
 0.7123720929035E+00 -0.1838554023784E+01  0.0000000000000E+00
 0.7194114282427E+00 -0.1765979519672E+01  0.0000000000000E+00
 0.7271097984299E+00 -0.1693591126067E+01  0.0000000000000E+00
 0.7354434587639E+00 -0.1621398208055E+01  0.0000000000000E+00
 0.7440808839855E+00 -0.1549304059578E+01  0.0000000000000E+00
 0.7526761689971E+00 -0.1477195909042E+01  0.0000000000000E+00
 0.7611097910671E+00 -0.1405034780452E+01  0.0000000000000E+00
 0.7692462808485E+00 -0.1332779095967E+01  0.0000000000000E+00
 0.6875000001043E+00 -0.4186859601281E+01  0.0000000000000E+00
 0.6875000002086E+00 -0.4113342086429E+01  0.0000000000000E+00
 0.6875000003128E+00 -0.4039824684257E+01  0.0000000000000E+00
 0.6875000004171E+00 -0.3966307217550E+01  0.0000000000000E+00
 0.6875000005214E+00 -0.3892789747717E+01  0.0000000000000E+00
 0.6875000006257E+00 -0.3819272288128E+01  0.0000000000000E+00
 0.6875000007299E+00 -0.3745754823288E+01  0.0000000000000E+00
 0.6875000008342E+00 -0.3672237366228E+01  0.0000000000000E+00
 0.6875000009385E+00 -0.3598719903615E+01  0.0000000000000E+00
 0.6875000010428E+00 -0.3525202280347E+01  0.0000000000000E+00
 0.6875000011470E+00 -0.3451684819509E+01  0.0000000000000E+00
 0.6875000012513E+00 -0.3378167379303E+01  0.0000000000000E+00
 0.6875000013556E+00 -0.3304649961005E+01  0.0000000000000E+00
 0.6875000014599E+00 -0.3231132803084E+01  0.0000000000000E+00
 0.6875000015641E+00 -0.3157615389387E+01  0.0000000000000E+00
 0.6875021063518E+00 -0.3084098002567E+01  0.0000000000000E+00
 0.6876021550079E+00 -0.3010580866809E+01  0.0000000000000E+00
 0.6879887974001E+00 -0.2937066271891E+01  0.0000000000000E+00
 0.6887648142521E+00 -0.2863559587694E+01  0.0000000000000E+00
 0.6899560244194E+00 -0.2790067100603E+01  0.0000000000000E+00
 0.6915538702260E+00 -0.2716594812945E+01  0.0000000000000E+00
 0.6935415443826E+00 -0.2643146234864E+01  0.0000000000000E+00
 0.6959052246560E+00 -0.2569726064901E+01  0.0000000000000E+00
 0.6986385871484E+00 -0.2496339061666E+01  0.0000000000000E+00
 0.7017451703643E+00 -0.2422989996067E+01  0.0000000000000E+00
 0.7052408316697E+00 -0.2349685803918E+01  0.0000000000000E+00
 0.7091564132403E+00 -0.2276436016165E+01  0.0000000000000E+00
 0.7135063674756E+00 -0.2203248992725E+01  0.0000000000000E+00
 0.7182854218463E+00 -0.2130130513309E+01  0.0000000000000E+00
 0.7235007235833E+00 -0.2057088440582E+01  0.0000000000000E+00
 0.7291734038778E+00 -0.1984133466364E+01  0.0000000000000E+00
 0.7353399268007E+00 -0.1911281600768E+01  0.0000000000000E+00
 0.7420542630403E+00 -0.1838554023784E+01  0.0000000000000E+00
 0.7493869040045E+00 -0.1765979519672E+01  0.0000000000000E+00
 0.7574060396020E+00 -0.1693591126067E+01  0.0000000000000E+00
 0.7660869357687E+00 -0.1621398208055E+01  0.0000000000000E+00
 0.7750842536932E+00 -0.1549304059578E+01  0.0000000000000E+00
 0.7840376755656E+00 -0.1477195909041E+01  0.0000000000000E+00
 0.7928226985404E+00 -0.1405034780452E+01  0.0000000000000E+00
 0.8012982087146E+00 -0.1332779095967E+01  0.0000000000000E+00
 0.7150000000973E+00 -0.4186859601281E+01  0.0000000000000E+00
 0.7150000001946E+00 -0.4113342086429E+01  0.0000000000000E+00
 0.7150000002920E+00 -0.4039824684257E+01  0.0000000000000E+00
 0.7150000003893E+00 -0.3966307217550E+01  0.0000000000000E+00
 0.7150000004866E+00 -0.3892789747717E+01  0.0000000000000E+00
 0.7150000005839E+00 -0.3819272288128E+01  0.0000000000000E+00
 0.7150000006813E+00 -0.3745754823288E+01  0.0000000000000E+00
 0.7150000007786E+00 -0.3672237366228E+01  0.0000000000000E+00
 0.7150000008759E+00 -0.3598719903615E+01  0.0000000000000E+00
 0.7150000009732E+00 -0.3525202280347E+01  0.0000000000000E+00
 0.7150000010706E+00 -0.3451684819509E+01  0.0000000000000E+00
 0.7150000011679E+00 -0.3378167379303E+01  0.0000000000000E+00
 0.7150000012652E+00 -0.3304649961005E+01  0.0000000000000E+00
 0.7150000013625E+00 -0.3231132803084E+01  0.0000000000000E+00
 0.7150000014599E+00 -0.3157615389387E+01  0.0000000000000E+00
 0.7150021904279E+00 -0.3084098002567E+01  0.0000000000000E+00
 0.7151062410191E+00 -0.3010580866809E+01  0.0000000000000E+00
 0.7155083490957E+00 -0.2937066271891E+01  0.0000000000000E+00
 0.7163154066104E+00 -0.2863559587694E+01  0.0000000000000E+00
 0.7175542651729E+00 -0.2790067100603E+01  0.0000000000000E+00
 0.7192160248001E+00 -0.2716594812945E+01  0.0000000000000E+00
 0.7212832059111E+00 -0.2643146234864E+01  0.0000000000000E+00
 0.7237414333836E+00 -0.2569726064901E+01  0.0000000000000E+00
 0.7265841303636E+00 -0.2496339061666E+01  0.0000000000000E+00
 0.7298149768960E+00 -0.2422989996067E+01  0.0000000000000E+00
 0.7334504646414E+00 -0.2349685803918E+01  0.0000000000000E+00
 0.7375226694624E+00 -0.2276436016165E+01  0.0000000000000E+00
 0.7420466218545E+00 -0.2203248992725E+01  0.0000000000000E+00
 0.7470168383875E+00 -0.2130130513309E+01  0.0000000000000E+00
 0.7524407521811E+00 -0.2057088440582E+01  0.0000000000000E+00
 0.7583403396744E+00 -0.1984133466364E+01  0.0000000000000E+00
 0.7647535235011E+00 -0.1911281600768E+01  0.0000000000000E+00
 0.7717364331770E+00 -0.1838554023784E+01  0.0000000000000E+00
 0.7793623797664E+00 -0.1765979519672E+01  0.0000000000000E+00
 0.7877022807740E+00 -0.1693591126067E+01  0.0000000000000E+00
 0.7967304127735E+00 -0.1621398208055E+01  0.0000000000000E+00
 0.8060876234009E+00 -0.1549304059578E+01  0.0000000000000E+00
 0.8153991821340E+00 -0.1477195909041E+01  0.0000000000000E+00
 0.8245356060137E+00 -0.1405034780452E+01  0.0000000000000E+00
 0.8333501365807E+00 -0.1332779095966E+01  0.0000000000000E+00
 0.7425000000904E+00 -0.4186859601281E+01  0.0000000000000E+00
 0.7425000001807E+00 -0.4113342086429E+01  0.0000000000000E+00
 0.7425000002711E+00 -0.4039824684257E+01  0.0000000000000E+00
 0.7425000003615E+00 -0.3966307217550E+01  0.0000000000000E+00
 0.7425000004519E+00 -0.3892789747717E+01  0.0000000000000E+00
 0.7425000005422E+00 -0.3819272288128E+01  0.0000000000000E+00
 0.7425000006326E+00 -0.3745754823288E+01  0.0000000000000E+00
 0.7425000007230E+00 -0.3672237366228E+01  0.0000000000000E+00
 0.7425000008134E+00 -0.3598719903615E+01  0.0000000000000E+00
 0.7425000009037E+00 -0.3525202280347E+01  0.0000000000000E+00
 0.7425000009941E+00 -0.3451684819509E+01  0.0000000000000E+00
 0.7425000010845E+00 -0.3378167379303E+01  0.0000000000000E+00
 0.7425000011748E+00 -0.3304649961005E+01  0.0000000000000E+00
 0.7425000012652E+00 -0.3231132803084E+01  0.0000000000000E+00
 0.7425000013556E+00 -0.3157615389387E+01  0.0000000000000E+00
 0.7425022745040E+00 -0.3084098002567E+01  0.0000000000000E+00
 0.7426103270303E+00 -0.3010580866809E+01  0.0000000000000E+00
 0.7430279007913E+00 -0.2937066271891E+01  0.0000000000000E+00
 0.7438659989687E+00 -0.2863559587694E+01  0.0000000000000E+00
 0.7451525059264E+00 -0.2790067100603E+01  0.0000000000000E+00
 0.7468781793742E+00 -0.2716594812945E+01  0.0000000000000E+00
 0.7490248674397E+00 -0.2643146234864E+01  0.0000000000000E+00
 0.7515776421111E+00 -0.2569726064901E+01  0.0000000000000E+00
 0.7545296735789E+00 -0.2496339061666E+01  0.0000000000000E+00
 0.7578847834277E+00 -0.2422989996067E+01  0.0000000000000E+00
 0.7616600976131E+00 -0.2349685803918E+01  0.0000000000000E+00
 0.7658889256845E+00 -0.2276436016165E+01  0.0000000000000E+00
 0.7705868762335E+00 -0.2203248992725E+01  0.0000000000000E+00
 0.7757482549286E+00 -0.2130130513309E+01  0.0000000000000E+00
 0.7813807807790E+00 -0.2057088440582E+01  0.0000000000000E+00
 0.7875072754711E+00 -0.1984133466364E+01  0.0000000000000E+00
 0.7941671202016E+00 -0.1911281600768E+01  0.0000000000000E+00
 0.8014186033138E+00 -0.1838554023784E+01  0.0000000000000E+00
 0.8093378555282E+00 -0.1765979519671E+01  0.0000000000000E+00
 0.8179985219461E+00 -0.1693591126067E+01  0.0000000000000E+00
 0.8273738897783E+00 -0.1621398208055E+01  0.0000000000000E+00
 0.8370909931086E+00 -0.1549304059578E+01  0.0000000000000E+00
 0.8467606887025E+00 -0.1477195909041E+01  0.0000000000000E+00
 0.8562485134870E+00 -0.1405034780452E+01  0.0000000000000E+00
 0.8654020644468E+00 -0.1332779095966E+01  0.0000000000000E+00
 0.7700000000834E+00 -0.4186859601281E+01  0.0000000000000E+00
 0.7700000001668E+00 -0.4113342086429E+01  0.0000000000000E+00
 0.7700000002503E+00 -0.4039824684257E+01  0.0000000000000E+00
 0.7700000003337E+00 -0.3966307217550E+01  0.0000000000000E+00
 0.7700000004171E+00 -0.3892789747717E+01  0.0000000000000E+00
 0.7700000005005E+00 -0.3819272288128E+01  0.0000000000000E+00
 0.7700000005839E+00 -0.3745754823288E+01  0.0000000000000E+00
 0.7700000006674E+00 -0.3672237366228E+01  0.0000000000000E+00
 0.7700000007508E+00 -0.3598719903615E+01  0.0000000000000E+00
 0.7700000008342E+00 -0.3525202280347E+01  0.0000000000000E+00
 0.7700000009176E+00 -0.3451684819509E+01  0.0000000000000E+00
 0.7700000010011E+00 -0.3378167379303E+01  0.0000000000000E+00
 0.7700000010845E+00 -0.3304649961005E+01  0.0000000000000E+00
 0.7700000011679E+00 -0.3231132803084E+01  0.0000000000000E+00
 0.7700000012513E+00 -0.3157615389387E+01  0.0000000000000E+00
 0.7700023585801E+00 -0.3084098002567E+01  0.0000000000000E+00
 0.7701144130415E+00 -0.3010580866809E+01  0.0000000000000E+00
 0.7705474524870E+00 -0.2937066271891E+01  0.0000000000000E+00
 0.7714165913271E+00 -0.2863559587694E+01  0.0000000000000E+00
 0.7727507466799E+00 -0.2790067100603E+01  0.0000000000000E+00
 0.7745403339483E+00 -0.2716594812945E+01  0.0000000000000E+00
 0.7767665289682E+00 -0.2643146234864E+01  0.0000000000000E+00
 0.7794138508387E+00 -0.2569726064901E+01  0.0000000000000E+00
 0.7824752167941E+00 -0.2496339061666E+01  0.0000000000000E+00
 0.7859545899595E+00 -0.2422989996067E+01  0.0000000000000E+00
 0.7898697305848E+00 -0.2349685803918E+01  0.0000000000000E+00
 0.7942551819066E+00 -0.2276436016165E+01  0.0000000000000E+00
 0.7991271306125E+00 -0.2203248992724E+01  0.0000000000000E+00
 0.8044796714698E+00 -0.2130130513309E+01  0.0000000000000E+00
 0.8103208093768E+00 -0.2057088440582E+01  0.0000000000000E+00
 0.8166742112677E+00 -0.1984133466364E+01  0.0000000000000E+00
 0.8235807169020E+00 -0.1911281600768E+01  0.0000000000000E+00
 0.8311007734505E+00 -0.1838554023784E+01  0.0000000000000E+00
 0.8393133312901E+00 -0.1765979519671E+01  0.0000000000000E+00
 0.8482947631181E+00 -0.1693591126067E+01  0.0000000000000E+00
 0.8580173667831E+00 -0.1621398208055E+01  0.0000000000000E+00
 0.8680943628163E+00 -0.1549304059578E+01  0.0000000000000E+00
 0.8781221952709E+00 -0.1477195909041E+01  0.0000000000000E+00
 0.8879614209602E+00 -0.1405034780452E+01  0.0000000000000E+00
 0.8974539923129E+00 -0.1332779095966E+01  0.0000000000000E+00
 0.7975000000765E+00 -0.4186859601281E+01  0.0000000000000E+00
 0.7975000001529E+00 -0.4113342086429E+01  0.0000000000000E+00
 0.7975000002294E+00 -0.4039824684257E+01  0.0000000000000E+00
 0.7975000003059E+00 -0.3966307217550E+01  0.0000000000000E+00
 0.7975000003823E+00 -0.3892789747717E+01  0.0000000000000E+00
 0.7975000004588E+00 -0.3819272288128E+01  0.0000000000000E+00
 0.7975000005353E+00 -0.3745754823288E+01  0.0000000000000E+00
 0.7975000006118E+00 -0.3672237366228E+01  0.0000000000000E+00
 0.7975000006882E+00 -0.3598719903615E+01  0.0000000000000E+00
 0.7975000007647E+00 -0.3525202280347E+01  0.0000000000000E+00
 0.7975000008412E+00 -0.3451684819509E+01  0.0000000000000E+00
 0.7975000009176E+00 -0.3378167379303E+01  0.0000000000000E+00
 0.7975000009941E+00 -0.3304649961005E+01  0.0000000000000E+00
 0.7975000010706E+00 -0.3231132803084E+01  0.0000000000000E+00
 0.7975000011470E+00 -0.3157615389387E+01  0.0000000000000E+00
 0.7975024426562E+00 -0.3084098002567E+01  0.0000000000000E+00
 0.7976184990527E+00 -0.3010580866809E+01  0.0000000000000E+00
 0.7980670041826E+00 -0.2937066271891E+01  0.0000000000000E+00
 0.7989671836854E+00 -0.2863559587694E+01  0.0000000000000E+00
 0.8003489874333E+00 -0.2790067100603E+01  0.0000000000000E+00
 0.8022024885224E+00 -0.2716594812945E+01  0.0000000000000E+00
 0.8045081904968E+00 -0.2643146234864E+01  0.0000000000000E+00
 0.8072500595663E+00 -0.2569726064901E+01  0.0000000000000E+00
 0.8104207600094E+00 -0.2496339061666E+01  0.0000000000000E+00
 0.8140243964912E+00 -0.2422989996067E+01  0.0000000000000E+00
 0.8180793635565E+00 -0.2349685803918E+01  0.0000000000000E+00
 0.8226214381287E+00 -0.2276436016165E+01  0.0000000000000E+00
 0.8276673849915E+00 -0.2203248992724E+01  0.0000000000000E+00
 0.8332110880109E+00 -0.2130130513309E+01  0.0000000000000E+00
 0.8392608379746E+00 -0.2057088440582E+01  0.0000000000000E+00
 0.8458411470644E+00 -0.1984133466364E+01  0.0000000000000E+00
 0.8529943136025E+00 -0.1911281600768E+01  0.0000000000000E+00
 0.8607829435873E+00 -0.1838554023783E+01  0.0000000000000E+00
 0.8692888070519E+00 -0.1765979519671E+01  0.0000000000000E+00
 0.8785910042902E+00 -0.1693591126067E+01  0.0000000000000E+00
 0.8886608437878E+00 -0.1621398208055E+01  0.0000000000000E+00
 0.8990977325239E+00 -0.1549304059578E+01  0.0000000000000E+00
 0.9094837018394E+00 -0.1477195909041E+01  0.0000000000000E+00
 0.9196743284335E+00 -0.1405034780452E+01  0.0000000000000E+00
 0.9295059201790E+00 -0.1332779095966E+01  0.0000000000000E+00
 0.8250000000695E+00 -0.4186859601281E+01  0.0000000000000E+00
 0.8250000001390E+00 -0.4113342086429E+01  0.0000000000000E+00
 0.8250000002086E+00 -0.4039824684257E+01  0.0000000000000E+00
 0.8250000002781E+00 -0.3966307217550E+01  0.0000000000000E+00
 0.8250000003476E+00 -0.3892789747717E+01  0.0000000000000E+00
 0.8250000004171E+00 -0.3819272288128E+01  0.0000000000000E+00
 0.8250000004866E+00 -0.3745754823288E+01  0.0000000000000E+00
 0.8250000005561E+00 -0.3672237366228E+01  0.0000000000000E+00
 0.8250000006257E+00 -0.3598719903615E+01  0.0000000000000E+00
 0.8250000006952E+00 -0.3525202280347E+01  0.0000000000000E+00
 0.8250000007647E+00 -0.3451684819509E+01  0.0000000000000E+00
 0.8250000008342E+00 -0.3378167379303E+01  0.0000000000000E+00
 0.8250000009037E+00 -0.3304649961005E+01  0.0000000000000E+00
 0.8250000009732E+00 -0.3231132803084E+01  0.0000000000000E+00
 0.8250000010428E+00 -0.3157615389387E+01  0.0000000000000E+00
 0.8250025267323E+00 -0.3084098002567E+01  0.0000000000000E+00
 0.8251225850639E+00 -0.3010580866809E+01  0.0000000000000E+00
 0.8255865558782E+00 -0.2937066271891E+01  0.0000000000000E+00
 0.8265177760437E+00 -0.2863559587694E+01  0.0000000000000E+00
 0.8279472281868E+00 -0.2790067100603E+01  0.0000000000000E+00
 0.8298646430965E+00 -0.2716594812945E+01  0.0000000000000E+00
 0.8322498520254E+00 -0.2643146234864E+01  0.0000000000000E+00
 0.8350862682939E+00 -0.2569726064901E+01  0.0000000000000E+00
 0.8383663032246E+00 -0.2496339061666E+01  0.0000000000000E+00
 0.8420942030230E+00 -0.2422989996067E+01  0.0000000000000E+00
 0.8462889965281E+00 -0.2349685803918E+01  0.0000000000000E+00
 0.8509876943508E+00 -0.2276436016165E+01  0.0000000000000E+00
 0.8562076393705E+00 -0.2203248992724E+01  0.0000000000000E+00
 0.8619425045521E+00 -0.2130130513309E+01  0.0000000000000E+00
 0.8682008665724E+00 -0.2057088440582E+01  0.0000000000000E+00
 0.8750080828610E+00 -0.1984133466364E+01  0.0000000000000E+00
 0.8824079103029E+00 -0.1911281600768E+01  0.0000000000000E+00
 0.8904651137241E+00 -0.1838554023783E+01  0.0000000000000E+00
 0.8992642828138E+00 -0.1765979519671E+01  0.0000000000000E+00
 0.9088872454622E+00 -0.1693591126067E+01  0.0000000000000E+00
 0.9193043207926E+00 -0.1621398208055E+01  0.0000000000000E+00
 0.9301011022316E+00 -0.1549304059578E+01  0.0000000000000E+00
 0.9408452084078E+00 -0.1477195909041E+01  0.0000000000000E+00
 0.9513872359068E+00 -0.1405034780452E+01  0.0000000000000E+00
 0.9615578480451E+00 -0.1332779095966E+01  0.0000000000000E+00
 0.8525000000626E+00 -0.4186859601281E+01  0.0000000000000E+00
 0.8525000001251E+00 -0.4113342086429E+01  0.0000000000000E+00
 0.8525000001877E+00 -0.4039824684257E+01  0.0000000000000E+00
 0.8525000002503E+00 -0.3966307217550E+01  0.0000000000000E+00
 0.8525000003128E+00 -0.3892789747717E+01  0.0000000000000E+00
 0.8525000003754E+00 -0.3819272288128E+01  0.0000000000000E+00
 0.8525000004380E+00 -0.3745754823288E+01  0.0000000000000E+00
 0.8525000005005E+00 -0.3672237366228E+01  0.0000000000000E+00
 0.8525000005631E+00 -0.3598719903615E+01  0.0000000000000E+00
 0.8525000006257E+00 -0.3525202280347E+01  0.0000000000000E+00
 0.8525000006882E+00 -0.3451684819509E+01  0.0000000000000E+00
 0.8525000007508E+00 -0.3378167379303E+01  0.0000000000000E+00
 0.8525000008134E+00 -0.3304649961005E+01  0.0000000000000E+00
 0.8525000008759E+00 -0.3231132803084E+01  0.0000000000000E+00
 0.8525000009385E+00 -0.3157615389387E+01  0.0000000000000E+00
 0.8525026108084E+00 -0.3084098002567E+01  0.0000000000000E+00
 0.8526266710751E+00 -0.3010580866809E+01  0.0000000000000E+00
 0.8531061075738E+00 -0.2937066271891E+01  0.0000000000000E+00
 0.8540683684020E+00 -0.2863559587694E+01  0.0000000000000E+00
 0.8555454689403E+00 -0.2790067100603E+01  0.0000000000000E+00
 0.8575267976705E+00 -0.2716594812945E+01  0.0000000000000E+00
 0.8599915135539E+00 -0.2643146234864E+01  0.0000000000000E+00
 0.8629224770215E+00 -0.2569726064901E+01  0.0000000000000E+00
 0.8663118464399E+00 -0.2496339061666E+01  0.0000000000000E+00
 0.8701640095547E+00 -0.2422989996067E+01  0.0000000000000E+00
 0.8744986294998E+00 -0.2349685803918E+01  0.0000000000000E+00
 0.8793539505729E+00 -0.2276436016165E+01  0.0000000000000E+00
 0.8847478937495E+00 -0.2203248992724E+01  0.0000000000000E+00
 0.8906739210932E+00 -0.2130130513309E+01  0.0000000000000E+00
 0.8971408951702E+00 -0.2057088440582E+01  0.0000000000000E+00
 0.9041750186577E+00 -0.1984133466364E+01  0.0000000000000E+00
 0.9118215070034E+00 -0.1911281600768E+01  0.0000000000000E+00
 0.9201472838608E+00 -0.1838554023783E+01  0.0000000000000E+00
 0.9292397585756E+00 -0.1765979519671E+01  0.0000000000000E+00
 0.9391834866342E+00 -0.1693591126067E+01  0.0000000000000E+00
 0.9499477977974E+00 -0.1621398208055E+01  0.0000000000000E+00
 0.9611044719393E+00 -0.1549304059578E+01  0.0000000000000E+00
 0.9722067149763E+00 -0.1477195909041E+01  0.0000000000000E+00
 0.9831001433801E+00 -0.1405034780452E+01  0.0000000000000E+00
 0.9936097759111E+00 -0.1332779095966E+01  0.0000000000000E+00
 0.8800000000556E+00 -0.4186859601281E+01  0.0000000000000E+00
 0.8800000001112E+00 -0.4113342086429E+01  0.0000000000000E+00
 0.8800000001668E+00 -0.4039824684257E+01  0.0000000000000E+00
 0.8800000002225E+00 -0.3966307217550E+01  0.0000000000000E+00
 0.8800000002781E+00 -0.3892789747717E+01  0.0000000000000E+00
 0.8800000003337E+00 -0.3819272288128E+01  0.0000000000000E+00
 0.8800000003893E+00 -0.3745754823288E+01  0.0000000000000E+00
 0.8800000004449E+00 -0.3672237366228E+01  0.0000000000000E+00
 0.8800000005005E+00 -0.3598719903615E+01  0.0000000000000E+00
 0.8800000005561E+00 -0.3525202280347E+01  0.0000000000000E+00
 0.8800000006118E+00 -0.3451684819509E+01  0.0000000000000E+00
 0.8800000006674E+00 -0.3378167379303E+01  0.0000000000000E+00
 0.8800000007230E+00 -0.3304649961005E+01  0.0000000000000E+00
 0.8800000007786E+00 -0.3231132803084E+01  0.0000000000000E+00
 0.8800000008342E+00 -0.3157615389387E+01  0.0000000000000E+00
 0.8800026948845E+00 -0.3084098002567E+01  0.0000000000000E+00
 0.8801307570862E+00 -0.3010580866809E+01  0.0000000000000E+00
 0.8806256592695E+00 -0.2937066271891E+01  0.0000000000000E+00
 0.8816189607603E+00 -0.2863559587694E+01  0.0000000000000E+00
 0.8831437096938E+00 -0.2790067100603E+01  0.0000000000000E+00
 0.8851889522446E+00 -0.2716594812945E+01  0.0000000000000E+00
 0.8877331750825E+00 -0.2643146234864E+01  0.0000000000000E+00
 0.8907586857491E+00 -0.2569726064901E+01  0.0000000000000E+00
 0.8942573896551E+00 -0.2496339061666E+01  0.0000000000000E+00
 0.8982338160864E+00 -0.2422989996067E+01  0.0000000000000E+00
 0.9027082624715E+00 -0.2349685803918E+01  0.0000000000000E+00
 0.9077202067950E+00 -0.2276436016165E+01  0.0000000000000E+00
 0.9132881481285E+00 -0.2203248992724E+01  0.0000000000000E+00
 0.9194053376344E+00 -0.2130130513309E+01  0.0000000000000E+00
 0.9260809237681E+00 -0.2057088440582E+01  0.0000000000000E+00
 0.9333419544543E+00 -0.1984133466364E+01  0.0000000000000E+00
 0.9412351037039E+00 -0.1911281600768E+01  0.0000000000000E+00
 0.9498294539976E+00 -0.1838554023783E+01  0.0000000000000E+00
 0.9592152343375E+00 -0.1765979519671E+01  0.0000000000000E+00
 0.9694797278063E+00 -0.1693591126067E+01  0.0000000000000E+00
 0.9805912748022E+00 -0.1621398208055E+01  0.0000000000000E+00
 0.9921078416470E+00 -0.1549304059578E+01  0.0000000000000E+00
 0.1003568221545E+01 -0.1477195909041E+01  0.0000000000000E+00
 0.1014813050853E+01 -0.1405034780452E+01  0.0000000000000E+00
 0.1025661703777E+01 -0.1332779095966E+01  0.0000000000000E+00
 0.9075000000487E+00 -0.4186859601281E+01  0.0000000000000E+00
 0.9075000000973E+00 -0.4113342086429E+01  0.0000000000000E+00
 0.9075000001460E+00 -0.4039824684257E+01  0.0000000000000E+00
 0.9075000001946E+00 -0.3966307217550E+01  0.0000000000000E+00
 0.9075000002433E+00 -0.3892789747717E+01  0.0000000000000E+00
 0.9075000002920E+00 -0.3819272288128E+01  0.0000000000000E+00
 0.9075000003406E+00 -0.3745754823288E+01  0.0000000000000E+00
 0.9075000003893E+00 -0.3672237366228E+01  0.0000000000000E+00
 0.9075000004380E+00 -0.3598719903615E+01  0.0000000000000E+00
 0.9075000004866E+00 -0.3525202280347E+01  0.0000000000000E+00
 0.9075000005353E+00 -0.3451684819509E+01  0.0000000000000E+00
 0.9075000005839E+00 -0.3378167379303E+01  0.0000000000000E+00
 0.9075000006326E+00 -0.3304649961005E+01  0.0000000000000E+00
 0.9075000006813E+00 -0.3231132803084E+01  0.0000000000000E+00
 0.9075000007299E+00 -0.3157615389387E+01  0.0000000000000E+00
 0.9075027789606E+00 -0.3084098002567E+01  0.0000000000000E+00
 0.9076348430974E+00 -0.3010580866809E+01  0.0000000000000E+00
 0.9081452109651E+00 -0.2937066271891E+01  0.0000000000000E+00
 0.9091695531186E+00 -0.2863559587694E+01  0.0000000000000E+00
 0.9107419504473E+00 -0.2790067100603E+01  0.0000000000000E+00
 0.9128511068187E+00 -0.2716594812945E+01  0.0000000000000E+00
 0.9154748366110E+00 -0.2643146234864E+01  0.0000000000000E+00
 0.9185948944766E+00 -0.2569726064901E+01  0.0000000000000E+00
 0.9222029328704E+00 -0.2496339061666E+01  0.0000000000000E+00
 0.9263036226182E+00 -0.2422989996067E+01  0.0000000000000E+00
 0.9309178954432E+00 -0.2349685803918E+01  0.0000000000000E+00
 0.9360864630172E+00 -0.2276436016165E+01  0.0000000000000E+00
 0.9418284025075E+00 -0.2203248992724E+01  0.0000000000000E+00
 0.9481367541755E+00 -0.2130130513309E+01  0.0000000000000E+00
 0.9550209523659E+00 -0.2057088440582E+01  0.0000000000000E+00
 0.9625088902510E+00 -0.1984133466364E+01  0.0000000000000E+00
 0.9706487004043E+00 -0.1911281600768E+01  0.0000000000000E+00
 0.9795116241343E+00 -0.1838554023783E+01  0.0000000000000E+00
 0.9891907100993E+00 -0.1765979519671E+01  0.0000000000000E+00
 0.9997759689783E+00 -0.1693591126066E+01  0.0000000000000E+00
 0.1011234751807E+01 -0.1621398208055E+01  0.0000000000000E+00
 0.1023111211355E+01 -0.1549304059578E+01  0.0000000000000E+00
 0.1034929728113E+01 -0.1477195909041E+01  0.0000000000000E+00
 0.1046525958327E+01 -0.1405034780452E+01  0.0000000000000E+00
 0.1057713631643E+01 -0.1332779095966E+01  0.0000000000000E+00
 0.9350000000417E+00 -0.4186859601281E+01  0.0000000000000E+00
 0.9350000000834E+00 -0.4113342086429E+01  0.0000000000000E+00
 0.9350000001251E+00 -0.4039824684257E+01  0.0000000000000E+00
 0.9350000001668E+00 -0.3966307217550E+01  0.0000000000000E+00
 0.9350000002086E+00 -0.3892789747717E+01  0.0000000000000E+00
 0.9350000002503E+00 -0.3819272288128E+01  0.0000000000000E+00
 0.9350000002920E+00 -0.3745754823288E+01  0.0000000000000E+00
 0.9350000003337E+00 -0.3672237366228E+01  0.0000000000000E+00
 0.9350000003754E+00 -0.3598719903615E+01  0.0000000000000E+00
 0.9350000004171E+00 -0.3525202280347E+01  0.0000000000000E+00
 0.9350000004588E+00 -0.3451684819509E+01  0.0000000000000E+00
 0.9350000005005E+00 -0.3378167379303E+01  0.0000000000000E+00
 0.9350000005422E+00 -0.3304649961005E+01  0.0000000000000E+00
 0.9350000005839E+00 -0.3231132803084E+01  0.0000000000000E+00
 0.9350000006257E+00 -0.3157615389387E+01  0.0000000000000E+00
 0.9350028630367E+00 -0.3084098002567E+01  0.0000000000000E+00
 0.9351389291086E+00 -0.3010580866809E+01  0.0000000000000E+00
 0.9356647626607E+00 -0.2937066271891E+01  0.0000000000000E+00
 0.9367201454770E+00 -0.2863559587694E+01  0.0000000000000E+00
 0.9383401912008E+00 -0.2790067100603E+01  0.0000000000000E+00
 0.9405132613928E+00 -0.2716594812945E+01  0.0000000000000E+00
 0.9432164981396E+00 -0.2643146234864E+01  0.0000000000000E+00
 0.9464311032042E+00 -0.2569726064901E+01  0.0000000000000E+00
 0.9501484760856E+00 -0.2496339061666E+01  0.0000000000000E+00
 0.9543734291499E+00 -0.2422989996067E+01  0.0000000000000E+00
 0.9591275284149E+00 -0.2349685803918E+01  0.0000000000000E+00
 0.9644527192393E+00 -0.2276436016165E+01  0.0000000000000E+00
 0.9703686568865E+00 -0.2203248992724E+01  0.0000000000000E+00
 0.9768681707167E+00 -0.2130130513309E+01  0.0000000000000E+00
 0.9839609809637E+00 -0.2057088440582E+01  0.0000000000000E+00
 0.9916758260476E+00 -0.1984133466364E+01  0.0000000000000E+00
 0.1000062297105E+01 -0.1911281600768E+01  0.0000000000000E+00
 0.1009193794271E+01 -0.1838554023783E+01  0.0000000000000E+00
 0.1019166185861E+01 -0.1765979519671E+01  0.0000000000000E+00
 0.1030072210150E+01 -0.1693591126066E+01  0.0000000000000E+00
 0.1041878228812E+01 -0.1621398208055E+01  0.0000000000000E+00
 0.1054114581062E+01 -0.1549304059578E+01  0.0000000000000E+00
 0.1066291234682E+01 -0.1477195909041E+01  0.0000000000000E+00
 0.1078238865800E+01 -0.1405034780452E+01  0.0000000000000E+00
 0.1089765559509E+01 -0.1332779095966E+01  0.0000000000000E+00
 0.9625000000348E+00 -0.4186859601281E+01  0.0000000000000E+00
 0.9625000000695E+00 -0.4113342086429E+01  0.0000000000000E+00
 0.9625000001043E+00 -0.4039824684257E+01  0.0000000000000E+00
 0.9625000001390E+00 -0.3966307217550E+01  0.0000000000000E+00
 0.9625000001738E+00 -0.3892789747717E+01  0.0000000000000E+00
 0.9625000002086E+00 -0.3819272288128E+01  0.0000000000000E+00
 0.9625000002433E+00 -0.3745754823288E+01  0.0000000000000E+00
 0.9625000002781E+00 -0.3672237366228E+01  0.0000000000000E+00
 0.9625000003128E+00 -0.3598719903615E+01  0.0000000000000E+00
 0.9625000003476E+00 -0.3525202280347E+01  0.0000000000000E+00
 0.9625000003823E+00 -0.3451684819509E+01  0.0000000000000E+00
 0.9625000004171E+00 -0.3378167379303E+01  0.0000000000000E+00
 0.9625000004519E+00 -0.3304649961005E+01  0.0000000000000E+00
 0.9625000004866E+00 -0.3231132803084E+01  0.0000000000000E+00
 0.9625000005214E+00 -0.3157615389387E+01  0.0000000000000E+00
 0.9625029471128E+00 -0.3084098002567E+01  0.0000000000000E+00
 0.9626430151198E+00 -0.3010580866809E+01  0.0000000000000E+00
 0.9631843143563E+00 -0.2937066271891E+01  0.0000000000000E+00
 0.9642707378353E+00 -0.2863559587694E+01  0.0000000000000E+00
 0.9659384319542E+00 -0.2790067100603E+01  0.0000000000000E+00
 0.9681754159669E+00 -0.2716594812945E+01  0.0000000000000E+00
 0.9709581596681E+00 -0.2643146234864E+01  0.0000000000000E+00
 0.9742673119318E+00 -0.2569726064901E+01  0.0000000000000E+00
 0.9780940193009E+00 -0.2496339061666E+01  0.0000000000000E+00
 0.9824432356817E+00 -0.2422989996067E+01  0.0000000000000E+00
 0.9873371613866E+00 -0.2349685803918E+01  0.0000000000000E+00
 0.9928189754614E+00 -0.2276436016165E+01  0.0000000000000E+00
 0.9989089112655E+00 -0.2203248992724E+01  0.0000000000000E+00
 0.1005599587258E+01 -0.2130130513309E+01  0.0000000000000E+00
 0.1012901009562E+01 -0.2057088440582E+01  0.0000000000000E+00
 0.1020842761844E+01 -0.1984133466364E+01  0.0000000000000E+00
 0.1029475893805E+01 -0.1911281600768E+01  0.0000000000000E+00
 0.1038875964408E+01 -0.1838554023783E+01  0.0000000000000E+00
 0.1049141661623E+01 -0.1765979519671E+01  0.0000000000000E+00
 0.1060368451322E+01 -0.1693591126066E+01  0.0000000000000E+00
 0.1072521705817E+01 -0.1621398208055E+01  0.0000000000000E+00
 0.1085117950770E+01 -0.1549304059578E+01  0.0000000000000E+00
 0.1097652741250E+01 -0.1477195909041E+01  0.0000000000000E+00
 0.1109951773273E+01 -0.1405034780452E+01  0.0000000000000E+00
 0.1121817487376E+01 -0.1332779095966E+01  0.0000000000000E+00
 0.9900000000278E+00 -0.4186859601281E+01  0.0000000000000E+00
 0.9900000000556E+00 -0.4113342086429E+01  0.0000000000000E+00
 0.9900000000834E+00 -0.4039824684257E+01  0.0000000000000E+00
 0.9900000001112E+00 -0.3966307217550E+01  0.0000000000000E+00
 0.9900000001390E+00 -0.3892789747717E+01  0.0000000000000E+00
 0.9900000001668E+00 -0.3819272288128E+01  0.0000000000000E+00
 0.9900000001946E+00 -0.3745754823288E+01  0.0000000000000E+00
 0.9900000002225E+00 -0.3672237366228E+01  0.0000000000000E+00
 0.9900000002503E+00 -0.3598719903615E+01  0.0000000000000E+00
 0.9900000002781E+00 -0.3525202280347E+01  0.0000000000000E+00
 0.9900000003059E+00 -0.3451684819509E+01  0.0000000000000E+00
 0.9900000003337E+00 -0.3378167379303E+01  0.0000000000000E+00
 0.9900000003615E+00 -0.3304649961005E+01  0.0000000000000E+00
 0.9900000003893E+00 -0.3231132803084E+01  0.0000000000000E+00
 0.9900000004171E+00 -0.3157615389387E+01  0.0000000000000E+00
 0.9900030311889E+00 -0.3084098002567E+01  0.0000000000000E+00
 0.9901471011310E+00 -0.3010580866809E+01  0.0000000000000E+00
 0.9907038660519E+00 -0.2937066271891E+01  0.0000000000000E+00
 0.9918213301936E+00 -0.2863559587694E+01  0.0000000000000E+00
 0.9935366727077E+00 -0.2790067100603E+01  0.0000000000000E+00
 0.9958375705410E+00 -0.2716594812945E+01  0.0000000000000E+00
 0.9986998211967E+00 -0.2643146234864E+01  0.0000000000000E+00
 0.1002103520659E+01 -0.2569726064901E+01  0.0000000000000E+00
 0.1006039562516E+01 -0.2496339061666E+01  0.0000000000000E+00
 0.1010513042213E+01 -0.2422989996067E+01  0.0000000000000E+00
 0.1015546794358E+01 -0.2349685803918E+01  0.0000000000000E+00
 0.1021185231684E+01 -0.2276436016165E+01  0.0000000000000E+00
 0.1027449165644E+01 -0.2203248992724E+01  0.0000000000000E+00
 0.1034331003799E+01 -0.2130130513309E+01  0.0000000000000E+00
 0.1041841038159E+01 -0.2057088440582E+01  0.0000000000000E+00
 0.1050009697641E+01 -0.1984133466364E+01  0.0000000000000E+00
 0.1058889490506E+01 -0.1911281600768E+01  0.0000000000000E+00
 0.1068558134545E+01 -0.1838554023783E+01  0.0000000000000E+00
 0.1079117137385E+01 -0.1765979519671E+01  0.0000000000000E+00
 0.1090664692494E+01 -0.1693591126066E+01  0.0000000000000E+00
 0.1103165182821E+01 -0.1621398208054E+01  0.0000000000000E+00
 0.1116121320478E+01 -0.1549304059577E+01  0.0000000000000E+00
 0.1129014247819E+01 -0.1477195909041E+01  0.0000000000000E+00
 0.1141664680747E+01 -0.1405034780452E+01  0.0000000000000E+00
 0.1153869415242E+01 -0.1332779095966E+01  0.0000000000000E+00
 0.1017500000021E+01 -0.4186859601281E+01  0.0000000000000E+00
 0.1017500000042E+01 -0.4113342086429E+01  0.0000000000000E+00
 0.1017500000063E+01 -0.4039824684257E+01  0.0000000000000E+00
 0.1017500000083E+01 -0.3966307217550E+01  0.0000000000000E+00
 0.1017500000104E+01 -0.3892789747717E+01  0.0000000000000E+00
 0.1017500000125E+01 -0.3819272288128E+01  0.0000000000000E+00
 0.1017500000146E+01 -0.3745754823288E+01  0.0000000000000E+00
 0.1017500000167E+01 -0.3672237366228E+01  0.0000000000000E+00
 0.1017500000188E+01 -0.3598719903615E+01  0.0000000000000E+00
 0.1017500000209E+01 -0.3525202280347E+01  0.0000000000000E+00
 0.1017500000229E+01 -0.3451684819509E+01  0.0000000000000E+00
 0.1017500000250E+01 -0.3378167379303E+01  0.0000000000000E+00
 0.1017500000271E+01 -0.3304649961005E+01  0.0000000000000E+00
 0.1017500000292E+01 -0.3231132803084E+01  0.0000000000000E+00
 0.1017500000313E+01 -0.3157615389387E+01  0.0000000000000E+00
 0.1017503115265E+01 -0.3084098002567E+01  0.0000000000000E+00
 0.1017651187142E+01 -0.3010580866809E+01  0.0000000000000E+00
 0.1018223417748E+01 -0.2937066271891E+01  0.0000000000000E+00
 0.1019371922552E+01 -0.2863559587694E+01  0.0000000000000E+00
 0.1021134913461E+01 -0.2790067100603E+01  0.0000000000000E+00
 0.1023499725115E+01 -0.2716594812945E+01  0.0000000000000E+00
 0.1026441482725E+01 -0.2643146234864E+01  0.0000000000000E+00
 0.1029939729387E+01 -0.2569726064901E+01  0.0000000000000E+00
 0.1033985105731E+01 -0.2496339061666E+01  0.0000000000000E+00
 0.1038582848745E+01 -0.2422989996067E+01  0.0000000000000E+00
 0.1043756427330E+01 -0.2349685803918E+01  0.0000000000000E+00
 0.1049551487906E+01 -0.2276436016165E+01  0.0000000000000E+00
 0.1055989420023E+01 -0.2203248992724E+01  0.0000000000000E+00
 0.1063062420340E+01 -0.2130130513309E+01  0.0000000000000E+00
 0.1070781066757E+01 -0.2057088440582E+01  0.0000000000000E+00
 0.1079176633438E+01 -0.1984133466364E+01  0.0000000000000E+00
 0.1088303087206E+01 -0.1911281600768E+01  0.0000000000000E+00
 0.1098240304681E+01 -0.1838554023783E+01  0.0000000000000E+00
 0.1109092613147E+01 -0.1765979519671E+01  0.0000000000000E+00
 0.1120960933667E+01 -0.1693591126066E+01  0.0000000000000E+00
 0.1133808659826E+01 -0.1621398208054E+01  0.0000000000000E+00
 0.1147124690185E+01 -0.1549304059577E+01  0.0000000000000E+00
 0.1160375754387E+01 -0.1477195909041E+01  0.0000000000000E+00
 0.1173377588220E+01 -0.1405034780452E+01  0.0000000000000E+00
 0.1185921343108E+01 -0.1332779095966E+01  0.0000000000000E+00
 0.1045000000014E+01 -0.4186859601281E+01  0.0000000000000E+00
 0.1045000000028E+01 -0.4113342086429E+01  0.0000000000000E+00
 0.1045000000042E+01 -0.4039824684257E+01  0.0000000000000E+00
 0.1045000000056E+01 -0.3966307217550E+01  0.0000000000000E+00
 0.1045000000070E+01 -0.3892789747717E+01  0.0000000000000E+00
 0.1045000000083E+01 -0.3819272288128E+01  0.0000000000000E+00
 0.1045000000097E+01 -0.3745754823288E+01  0.0000000000000E+00
 0.1045000000111E+01 -0.3672237366228E+01  0.0000000000000E+00
 0.1045000000125E+01 -0.3598719903615E+01  0.0000000000000E+00
 0.1045000000139E+01 -0.3525202280347E+01  0.0000000000000E+00
 0.1045000000153E+01 -0.3451684819509E+01  0.0000000000000E+00
 0.1045000000167E+01 -0.3378167379303E+01  0.0000000000000E+00
 0.1045000000181E+01 -0.3304649961005E+01  0.0000000000000E+00
 0.1045000000195E+01 -0.3231132803084E+01  0.0000000000000E+00
 0.1045000000209E+01 -0.3157615389387E+01  0.0000000000000E+00
 0.1045003199341E+01 -0.3084098002567E+01  0.0000000000000E+00
 0.1045155273153E+01 -0.3010580866809E+01  0.0000000000000E+00
 0.1045742969443E+01 -0.2937066271891E+01  0.0000000000000E+00
 0.1046922514910E+01 -0.2863559587694E+01  0.0000000000000E+00
 0.1048733154215E+01 -0.2790067100603E+01  0.0000000000000E+00
 0.1051161879689E+01 -0.2716594812945E+01  0.0000000000000E+00
 0.1054183144254E+01 -0.2643146234864E+01  0.0000000000000E+00
 0.1057775938115E+01 -0.2569726064901E+01  0.0000000000000E+00
 0.1061930648947E+01 -0.2496339061666E+01  0.0000000000000E+00
 0.1066652655277E+01 -0.2422989996067E+01  0.0000000000000E+00
 0.1071966060302E+01 -0.2349685803918E+01  0.0000000000000E+00
 0.1077917744128E+01 -0.2276436016165E+01  0.0000000000000E+00
 0.1084529674402E+01 -0.2203248992724E+01  0.0000000000000E+00
 0.1091793836881E+01 -0.2130130513309E+01  0.0000000000000E+00
 0.1099721095355E+01 -0.2057088440582E+01  0.0000000000000E+00
 0.1108343569234E+01 -0.1984133466364E+01  0.0000000000000E+00
 0.1117716683907E+01 -0.1911281600768E+01  0.0000000000000E+00
 0.1127922474818E+01 -0.1838554023783E+01  0.0000000000000E+00
 0.1139068088909E+01 -0.1765979519671E+01  0.0000000000000E+00
 0.1151257174839E+01 -0.1693591126066E+01  0.0000000000000E+00
 0.1164452136831E+01 -0.1621398208054E+01  0.0000000000000E+00
 0.1178128059893E+01 -0.1549304059577E+01  0.0000000000000E+00
 0.1191737260956E+01 -0.1477195909041E+01  0.0000000000000E+00
 0.1205090495693E+01 -0.1405034780452E+01  0.0000000000000E+00
 0.1217973270974E+01 -0.1332779095966E+01  0.0000000000000E+00
 0.1072500000007E+01 -0.4186859601281E+01  0.0000000000000E+00
 0.1072500000014E+01 -0.4113342086429E+01  0.0000000000000E+00
 0.1072500000021E+01 -0.4039824684257E+01  0.0000000000000E+00
 0.1072500000028E+01 -0.3966307217550E+01  0.0000000000000E+00
 0.1072500000035E+01 -0.3892789747717E+01  0.0000000000000E+00
 0.1072500000042E+01 -0.3819272288128E+01  0.0000000000000E+00
 0.1072500000049E+01 -0.3745754823288E+01  0.0000000000000E+00
 0.1072500000056E+01 -0.3672237366228E+01  0.0000000000000E+00
 0.1072500000063E+01 -0.3598719903615E+01  0.0000000000000E+00
 0.1072500000070E+01 -0.3525202280347E+01  0.0000000000000E+00
 0.1072500000076E+01 -0.3451684819509E+01  0.0000000000000E+00
 0.1072500000083E+01 -0.3378167379303E+01  0.0000000000000E+00
 0.1072500000090E+01 -0.3304649961005E+01  0.0000000000000E+00
 0.1072500000097E+01 -0.3231132803084E+01  0.0000000000000E+00
 0.1072500000104E+01 -0.3157615389387E+01  0.0000000000000E+00
 0.1072503283417E+01 -0.3084098002567E+01  0.0000000000000E+00
 0.1072659359165E+01 -0.3010580866809E+01  0.0000000000000E+00
 0.1073262521139E+01 -0.2937066271891E+01  0.0000000000000E+00
 0.1074473107269E+01 -0.2863559587694E+01  0.0000000000000E+00
 0.1076331394968E+01 -0.2790067100603E+01  0.0000000000000E+00
 0.1078824034263E+01 -0.2716594812945E+01  0.0000000000000E+00
 0.1081924805782E+01 -0.2643146234864E+01  0.0000000000000E+00
 0.1085612146842E+01 -0.2569726064901E+01  0.0000000000000E+00
 0.1089876192162E+01 -0.2496339061666E+01  0.0000000000000E+00
 0.1094722461809E+01 -0.2422989996067E+01  0.0000000000000E+00
 0.1100175693273E+01 -0.2349685803918E+01  0.0000000000000E+00
 0.1106284000350E+01 -0.2276436016165E+01  0.0000000000000E+00
 0.1113069928781E+01 -0.2203248992724E+01  0.0000000000000E+00
 0.1120525253422E+01 -0.2130130513309E+01  0.0000000000000E+00
 0.1128661123953E+01 -0.2057088440582E+01  0.0000000000000E+00
 0.1137510505031E+01 -0.1984133466364E+01  0.0000000000000E+00
 0.1147130280607E+01 -0.1911281600768E+01  0.0000000000000E+00
 0.1157604644955E+01 -0.1838554023783E+01  0.0000000000000E+00
 0.1169043564670E+01 -0.1765979519671E+01  0.0000000000000E+00
 0.1181553416011E+01 -0.1693591126066E+01  0.0000000000000E+00
 0.1195095613836E+01 -0.1621398208054E+01  0.0000000000000E+00
 0.1209131429601E+01 -0.1549304059577E+01  0.0000000000000E+00
 0.1223098767524E+01 -0.1477195909041E+01  0.0000000000000E+00
 0.1236803403166E+01 -0.1405034780452E+01  0.0000000000000E+00
 0.1250025198840E+01 -0.1332779095966E+01  0.0000000000000E+00
-0.6146632205864E+00 -0.1179245927773E+01  0.0000000000000E+00
-0.6133850625710E+00 -0.1098125561271E+01  0.0000000000000E+00
-0.6110781767176E+00 -0.1017031042899E+01  0.0000000000000E+00
-0.6075938972867E+00 -0.9359840196841E+00  0.0000000000000E+00
-0.6027748704429E+00 -0.8550138763628E+00  0.0000000000000E+00
-0.5964762431763E+00 -0.7741576168479E+00  0.0000000000000E+00
-0.5886096354219E+00 -0.6934549809652E+00  0.0000000000000E+00
-0.5792169622724E+00 -0.6129344720338E+00  0.0000000000000E+00
-0.5685607300787E+00 -0.5325891076342E+00  0.0000000000000E+00
-0.5571736404696E+00 -0.4523550909481E+00  0.0000000000000E+00
-0.5457865507829E+00 -0.3721210742731E+00  0.0000000000000E+00
-0.5351303183650E+00 -0.2917757099033E+00  0.0000000000000E+00
-0.5257376448667E+00 -0.2112552010127E+00  0.0000000000000E+00
-0.5178710366670E+00 -0.1305525651737E+00  0.0000000000000E+00
-0.5115724088858E+00 -0.4969630569897E-01  0.0000000000000E+00
-0.5067533814807E+00  0.3127383758862E-01  0.0000000000000E+00
-0.5032691014587E+00  0.1123208607782E+00  0.0000000000000E+00
-0.5009622149962E+00  0.1934153791321E+00  0.0000000000000E+00
-0.4996840563622E+00  0.2745357456241E+00  0.0000000000000E+00
-0.5823375735839E+00 -0.1178925948017E+01  0.0000000000000E+00
-0.5811517361345E+00 -0.1097485602229E+01  0.0000000000000E+00
-0.5789913143491E+00 -0.1016071105210E+01  0.0000000000000E+00
-0.5757154669679E+00 -0.9347041043687E+00  0.0000000000000E+00
-0.5711751219322E+00 -0.8534139844555E+00  0.0000000000000E+00
-0.5652330500847E+00 -0.7722377492156E+00  0.0000000000000E+00
-0.5578055229899E+00 -0.6912151378461E+00  0.0000000000000E+00
-0.5489322497722E+00 -0.6103746525257E+00  0.0000000000000E+00
-0.5388619207640E+00 -0.5297093095395E+00  0.0000000000000E+00
-0.5280992006759E+00 -0.4491553120599E+00  0.0000000000000E+00
-0.5173364805104E+00 -0.3686013145907E+00  0.0000000000000E+00
-0.5072661512780E+00 -0.2879359716328E+00  0.0000000000000E+00
-0.4983928777114E+00 -0.2070954863511E+00  0.0000000000000E+00
-0.4909653501714E+00 -0.1260728750229E+00  0.0000000000000E+00
-0.4850232778093E+00 -0.4489663982115E-01  0.0000000000000E+00
-0.4804829322123E+00  0.3639348006013E-01  0.0000000000000E+00
-0.4772070842400E+00  0.1177604808772E+00  0.0000000000000E+00
-0.4750466618455E+00  0.1991749778796E+00  0.0000000000000E+00
-0.4738608237776E+00  0.2806153236578E+00  0.0000000000000E+00
-0.5500080394828E+00 -0.1178622037865E+01  0.0000000000000E+00
-0.5489106355602E+00 -0.1096877782373E+01  0.0000000000000E+00
-0.5468927908727E+00 -0.1015159376255E+01  0.0000000000000E+00
-0.5438214886538E+00 -0.9334884672851E+00  0.0000000000000E+00
-0.5395559386310E+00 -0.8518944402257E+00  0.0000000000000E+00
-0.5339665355062E+00 -0.7704142986630E+00  0.0000000000000E+00
-0.5269742024711E+00 -0.6890877811968E+00  0.0000000000000E+00
-0.5186164426654E+00 -0.6079433889229E+00  0.0000000000000E+00
-0.5091281303716E+00 -0.5269741368961E+00  0.0000000000000E+00
-0.4989858933504E+00 -0.4461162282797E+00  0.0000000000000E+00
-0.4888436562517E+00 -0.3652583196731E+00  0.0000000000000E+00
-0.4793553437337E+00 -0.2842890676730E+00  0.0000000000000E+00
-0.4709975835792E+00 -0.2031446754356E+00  0.0000000000000E+00
-0.4640052500988E+00 -0.1218181580084E+00  0.0000000000000E+00
-0.4584158464595E+00 -0.4033801648185E-01  0.0000000000000E+00
-0.4541502958753E+00  0.4125601054745E-01  0.0000000000000E+00
-0.4510789930653E+00  0.1229269194944E+00  0.0000000000000E+00
-0.4490611477687E+00  0.2046453255965E+00  0.0000000000000E+00
-0.4479637432275E+00  0.2863895810799E+00  0.0000000000000E+00
-0.5176747919670E+00 -0.1178334388478E+01  0.0000000000000E+00
-0.5166621081398E+00 -0.1096302484021E+01  0.0000000000000E+00
-0.5147831271008E+00 -0.1014296429512E+01  0.0000000000000E+00
-0.5119126565776E+00 -0.9323378730696E+00  0.0000000000000E+00
-0.5079181880800E+00 -0.8504561994673E+00  0.0000000000000E+00
-0.5026777401640E+00 -0.7686884121413E+00  0.0000000000000E+00
-0.4961168876386E+00 -0.6870742491256E+00  0.0000000000000E+00
-0.4882709276467E+00 -0.6056422104914E+00  0.0000000000000E+00
-0.4793609184126E+00 -0.5243853101288E+00  0.0000000000000E+00
-0.4698354507598E+00 -0.4432397511925E+00  0.0000000000000E+00
-0.4603099830294E+00 -0.3620941922655E+00  0.0000000000000E+00
-0.4513999735711E+00 -0.2808372919280E+00  0.0000000000000E+00
-0.4435540132304E+00 -0.1994052533281E+00  0.0000000000000E+00
-0.4369931602597E+00 -0.1177910903493E+00  0.0000000000000E+00
-0.4317527118292E+00 -0.3602330305715E-01  0.0000000000000E+00
-0.4277582427703E+00  0.4585837051678E-01  0.0000000000000E+00
-0.4248877716559E+00  0.1278169269378E+00  0.0000000000000E+00
-0.4230087900078E+00  0.2098229814316E+00  0.0000000000000E+00
-0.4219961055620E+00  0.2918548858801E+00  0.0000000000000E+00
-0.4853380080548E+00 -0.1178063183023E+01  0.0000000000000E+00
-0.4844065078916E+00 -0.1095760073511E+01  0.0000000000000E+00
-0.4826628540306E+00 -0.1013482814487E+01  0.0000000000000E+00
-0.4799896786910E+00 -0.9312530543955E+00  0.0000000000000E+00
-0.4762627551584E+00 -0.8491001780208E+00  0.0000000000000E+00
-0.4713677258340E+00 -0.7670611886573E+00  0.0000000000000E+00
-0.4652348171335E+00 -0.6851758238060E+00  0.0000000000000E+00
-0.4578971201924E+00 -0.6034725825716E+00  0.0000000000000E+00
-0.4495618771738E+00 -0.5219444777461E+00  0.0000000000000E+00
-0.4406496419882E+00 -0.4405277124764E+00  0.0000000000000E+00
-0.4317374067250E+00 -0.3591109472153E+00  0.0000000000000E+00
-0.4234021634823E+00 -0.2775828424134E+00  0.0000000000000E+00
-0.4160644661923E+00 -0.1958796012112E+00  0.0000000000000E+00
-0.4099315570465E+00 -0.1139942363943E+00  0.0000000000000E+00
-0.4050365272076E+00 -0.3195524706260E-01  0.0000000000000E+00
-0.4013096031137E+00  0.5019762928550E-01  0.0000000000000E+00
-0.3986364271830E+00  0.1324273893569E+00  0.0000000000000E+00
-0.3968927727129E+00  0.2147046483665E+00  0.0000000000000E+00
-0.3959612719311E+00  0.2970077578713E+00  0.0000000000000E+00
-0.4529978651745E+00 -0.1177808595865E+01  0.0000000000000E+00
-0.4521441897514E+00 -0.1095250899568E+01  0.0000000000000E+00
-0.4505325041965E+00 -0.1012719054268E+01  0.0000000000000E+00
-0.4480532652313E+00 -0.9302347087123E+00  0.0000000000000E+00
-0.4445905279238E+00 -0.8478272476968E+00  0.0000000000000E+00
-0.4400375585254E+00 -0.7655336743824E+00  0.0000000000000E+00
-0.4343292350556E+00 -0.6833937257696E+00  0.0000000000000E+00
-0.4274964426286E+00 -0.6014359000561E+00  0.0000000000000E+00
-0.4197326073215E+00 -0.5196532090030E+00  0.0000000000000E+00
-0.4114302461080E+00 -0.4379818557497E+00  0.0000000000000E+00
-0.4031278848169E+00 -0.3563105025045E+00  0.0000000000000E+00
-0.3953640492856E+00 -0.2745278114734E+00  0.0000000000000E+00
-0.3885312565098E+00 -0.1925699857899E+00  0.0000000000000E+00
-0.3828229325947E+00 -0.1104300372093E+00  0.0000000000000E+00
-0.3782699626817E+00 -0.2813646392457E-01  0.0000000000000E+00
-0.3748072248130E+00  0.5427099706610E-01  0.0000000000000E+00
-0.3723279852565E+00  0.1367553426026E+00  0.0000000000000E+00
-0.3707162990926E+00  0.2192871878897E+00  0.0000000000000E+00
-0.3698626230510E+00  0.3018448841793E+00  0.0000000000000E+00
-0.4206545565374E+00 -0.1177570794880E+01  0.0000000000000E+00
-0.4198755400873E+00 -0.1094775297949E+01  0.0000000000000E+00
-0.4183926570604E+00 -0.1012005652488E+01  0.0000000000000E+00
-0.4161041886816E+00 -0.9292835075316E+00  0.0000000000000E+00
-0.4129024717991E+00 -0.8466382478836E+00  0.0000000000000E+00
-0.4086883965102E+00 -0.7641068765812E+00  0.0000000000000E+00
-0.4034014924306E+00 -0.6817291301575E+00  0.0000000000000E+00
-0.3970704386426E+00 -0.5995335059625E+00  0.0000000000000E+00
-0.3898748451289E+00 -0.5175130147949E+00  0.0000000000000E+00
-0.3821791919351E+00 -0.4356038597868E+00  0.0000000000000E+00
-0.3744835386638E+00 -0.3536947047861E+00  0.0000000000000E+00
-0.3672879449259E+00 -0.2716742136390E+00  0.0000000000000E+00
-0.3609568907891E+00 -0.1894785894719E+00  0.0000000000000E+00
-0.3556699862643E+00 -0.1071008430780E+00  0.0000000000000E+00
-0.3514559104608E+00 -0.2456947180318E-01  0.0000000000000E+00
-0.3482541930169E+00  0.5807578782172E-01  0.0000000000000E+00
-0.3459657240469E+00  0.1407979327608E+00  0.0000000000000E+00
-0.3444828404110E+00  0.2235675782092E+00  0.0000000000000E+00
-0.3437038233424E+00  0.3063630751341E+00  0.0000000000000E+00
-0.3883082762411E+00 -0.1177349938204E+01  0.0000000000000E+00
-0.3876009471235E+00 -0.1094333584921E+01  0.0000000000000E+00
-0.3862438950063E+00 -0.1011343083549E+01  0.0000000000000E+00
-0.3841432256237E+00 -0.9284000833865E+00  0.0000000000000E+00
-0.3811995576068E+00 -0.8455339692466E+00  0.0000000000000E+00
-0.3773214048994E+00 -0.7627817440508E+00  0.0000000000000E+00
-0.3724529487092E+00 -0.6801831438981E+00  0.0000000000000E+00
-0.3666206620752E+00 -0.5977666653515E+00  0.0000000000000E+00
-0.3599903388695E+00 -0.5155253183156E+00  0.0000000000000E+00
-0.3528984222012E+00 -0.4333953059157E+00  0.0000000000000E+00
-0.3458065054554E+00 -0.3512652935227E+00  0.0000000000000E+00
-0.3391761820256E+00 -0.2690239465056E+00  0.0000000000000E+00
-0.3333438950428E+00 -0.1866074679848E+00  0.0000000000000E+00
-0.3284754384073E+00 -0.1040088678596E+00  0.0000000000000E+00
-0.3245972851854E+00 -0.2125664268932E-01  0.0000000000000E+00
-0.3216536166071E+00  0.6160947142931E-01  0.0000000000000E+00
-0.3195529466334E+00  0.1445524715757E+00  0.0000000000000E+00
-0.3181958939071E+00  0.2275429729362E+00  0.0000000000000E+00
-0.3174885641708E+00  0.3105593262131E+00  0.0000000000000E+00
-0.3559592285778E+00 -0.1177146175326E+01  0.0000000000000E+00
-0.3553208194146E+00 -0.1093926059465E+01  0.0000000000000E+00
-0.3540868308174E+00 -0.1010731795922E+01  0.0000000000000E+00
-0.3521711930307E+00 -0.9275850342389E+00  0.0000000000000E+00
-0.3494828064657E+00 -0.8445151592370E+00  0.0000000000000E+00
-0.3459378089090E+00 -0.7615591737315E+00  0.0000000000000E+00
-0.3414850331533E+00 -0.6787568134207E+00  0.0000000000000E+00
-0.3361487461853E+00 -0.5961365741418E+00  0.0000000000000E+00
-0.3300809257594E+00 -0.5136914649741E+00  0.0000000000000E+00
-0.3235899780573E+00 -0.4313576890368E+00  0.0000000000000E+00
-0.3170990302776E+00 -0.3490239131059E+00  0.0000000000000E+00
-0.3110312096275E+00 -0.2665788039555E+00  0.0000000000000E+00
-0.3056949223106E+00 -0.1839585647001E+00  0.0000000000000E+00
-0.3012421461097E+00 -0.1011562044146E+00  0.0000000000000E+00
-0.2976971480385E+00 -0.1820021893247E-01  0.0000000000000E+00
-0.2950087609122E+00  0.6486965604994E-01  0.0000000000000E+00
-0.2930931225343E+00  0.1480164177185E+00  0.0000000000000E+00
-0.2918591333281E+00  0.2312106812512E+00  0.0000000000000E+00
-0.2912207235462E+00  0.3144307971066E+00  0.0000000000000E+00
-0.3236076203727E+00 -0.1176959645432E+01  0.0000000000000E+00
-0.3230355706320E+00 -0.1093552999950E+01  0.0000000000000E+00
-0.3219220850352E+00 -0.1010172207159E+01  0.0000000000000E+00
-0.3201889183408E+00 -0.9268389168223E+00  0.0000000000000E+00
-0.3177532527416E+00 -0.8435825137707E+00  0.0000000000000E+00
-0.3145388498667E+00 -0.7604400007212E+00  0.0000000000000E+00
-0.3104991940892E+00 -0.6774511130053E+00  0.0000000000000E+00
-0.3056563463339E+00 -0.5946443457954E+00  0.0000000000000E+00
-0.3001484682258E+00 -0.5120127074157E+00  0.0000000000000E+00
-0.2942559290150E+00 -0.4294924009797E+00  0.0000000000000E+00
-0.2883633897267E+00 -0.3469720945496E+00  0.0000000000000E+00
-0.2828555113944E+00 -0.2643404561856E+00  0.0000000000000E+00
-0.2780126632903E+00 -0.1815336889972E+00  0.0000000000000E+00
-0.2739730070675E+00 -0.9854480130419E-01  0.0000000000000E+00
-0.2707586036781E+00 -0.1540228827586E-01  0.0000000000000E+00
-0.2683229375175E+00  0.6785411475801E-01  0.0000000000000E+00
-0.2665897702320E+00  0.1511874050807E+00  0.0000000000000E+00
-0.2654762840261E+00  0.2345681978628E+00  0.0000000000000E+00
-0.2649042336669E+00  0.3179748433392E+00  0.0000000000000E+00
-0.2912536660710E+00 -0.1176790477710E+01  0.0000000000000E+00
-0.2907456296570E+00 -0.1093214664755E+01  0.0000000000000E+00
-0.2897503009658E+00 -0.1009664704829E+01  0.0000000000000E+00
-0.2881972592727E+00 -0.9261622478972E+00  0.0000000000000E+00
-0.2860119685514E+00 -0.8427366787975E+00  0.0000000000000E+00
-0.2831258142719E+00 -0.7594250001585E+00  0.0000000000000E+00
-0.2794969323826E+00 -0.6762669469790E+00  0.0000000000000E+00
-0.2751451777386E+00 -0.5932910138288E+00  0.0000000000000E+00
-0.2701948958265E+00 -0.5104902083470E+00  0.0000000000000E+00
-0.2648984189668E+00 -0.4278007336419E+00  0.0000000000000E+00
-0.2596019420296E+00 -0.3451112589420E+00  0.0000000000000E+00
-0.2546516598934E+00 -0.2623104534743E+00  0.0000000000000E+00
-0.2502999049005E+00 -0.1793345203434E+00  0.0000000000000E+00
-0.2466710225660E+00 -0.9617646718464E-01  0.0000000000000E+00
-0.2437848677719E+00 -0.1286478856466E-01  0.0000000000000E+00
-0.2415995764893E+00  0.7056078051910E-01  0.0000000000000E+00
-0.2400465342051E+00  0.1540632374383E+00  0.0000000000000E+00
-0.2390512049048E+00  0.2376131973566E+00  0.0000000000000E+00
-0.2385431678721E+00  0.3211890103064E+00  0.0000000000000E+00
-0.2588975848758E+00 -0.1176638790520E+01  0.0000000000000E+00
-0.2584514348923E+00 -0.1092911290598E+01  0.0000000000000E+00
-0.2575721362084E+00 -0.1009209644008E+01  0.0000000000000E+00
-0.2561970926179E+00 -0.9255555008964E+00  0.0000000000000E+00
-0.2542600498742E+00 -0.8419782461075E+00  0.0000000000000E+00
-0.2517000172863E+00 -0.7585148821905E+00  0.0000000000000E+00
-0.2484797823734E+00 -0.6752051438462E+00  0.0000000000000E+00
-0.2446169939132E+00 -0.5920775251035E+00  0.0000000000000E+00
-0.2402221812472E+00 -0.5091250329875E+00  0.0000000000000E+00
-0.2355196397695E+00 -0.4262838706018E+00  0.0000000000000E+00
-0.2308170982141E+00 -0.3434427082208E+00  0.0000000000000E+00
-0.2264222853240E+00 -0.2604902161173E+00  0.0000000000000E+00
-0.2225594965150E+00 -0.1773625973918E+00  0.0000000000000E+00
-0.2193392611568E+00 -0.9405285906584E-01  0.0000000000000E+00
-0.2167792280544E+00 -0.1058949516580E-01  0.0000000000000E+00
-0.2148421847494E+00  0.7298775960893E-01  0.0000000000000E+00
-0.2134671405677E+00  0.1566419027092E+00  0.0000000000000E+00
-0.2125878412748E+00  0.2403435492926E+00  0.0000000000000E+00
-0.2121416906726E+00  0.3240710492098E+00  0.0000000000000E+00
-0.2265396002550E+00 -0.1176504690970E+01  0.0000000000000E+00
-0.2261534332785E+00 -0.1092643091695E+01  0.0000000000000E+00
-0.2253882611815E+00 -0.1008807346019E+01  0.0000000000000E+00
-0.2241893122779E+00 -0.9250191042510E+00  0.0000000000000E+00
-0.2224986141016E+00 -0.8413077512389E+00  0.0000000000000E+00
-0.2202627997988E+00 -0.7577102894623E+00  0.0000000000000E+00
-0.2174493084560E+00 -0.6742664533583E+00  0.0000000000000E+00
-0.2140735827668E+00 -0.5910047364781E+00  0.0000000000000E+00
-0.2102323359199E+00 -0.5079181453036E+00  0.0000000000000E+00
-0.2061218263833E+00 -0.4249428829342E+00  0.0000000000000E+00
-0.2020113167692E+00 -0.3419676205689E+00  0.0000000000000E+00
-0.1981700696982E+00 -0.2588810294053E+00  0.0000000000000E+00
-0.1947943436601E+00 -0.1756193125402E+00  0.0000000000000E+00
-0.1919808518720E+00 -0.9217547645228E-01  0.0000000000000E+00
-0.1897450370548E+00 -0.8578014690528E-02  0.0000000000000E+00
-0.1880543383171E+00  0.7513333830921E-01  0.0000000000000E+00
-0.1868553888224E+00  0.1589215800678E+00  0.0000000000000E+00
-0.1860902161163E+00  0.2427573257374E+00  0.0000000000000E+00
-0.1857040485211E+00  0.3266189250080E+00  0.0000000000000E+00
-0.1941799400497E+00 -0.1176388274585E+01  0.0000000000000E+00
-0.1938520805015E+00 -0.1092410259098E+01  0.0000000000000E+00
-0.1931993594199E+00 -0.1008458097441E+01  0.0000000000000E+00
-0.1921748296420E+00 -0.9245534400649E+00  0.0000000000000E+00
-0.1907288004820E+00 -0.8407256718208E+00  0.0000000000000E+00
-0.1888155289237E+00 -0.7570117951279E+00  0.0000000000000E+00
-0.1864071056176E+00 -0.6734515441946E+00  0.0000000000000E+00
-0.1835167671670E+00 -0.5900734121569E+00  0.0000000000000E+00
-0.1802274106004E+00 -0.5068704050253E+00  0.0000000000000E+00
-0.1767072574573E+00 -0.4237787258958E+00  0.0000000000000E+00
-0.1731871042367E+00 -0.3406870467698E+00  0.0000000000000E+00
-0.1698977474458E+00 -0.2574840396476E+00  0.0000000000000E+00
-0.1670074086464E+00 -0.1741059076228E+00  0.0000000000000E+00
-0.1645989848950E+00 -0.9054565670324E-01  0.0000000000000E+00
-0.1626857128222E+00 -0.6831780023127E-02  0.0000000000000E+00
-0.1612396831009E+00  0.7699598821036E-01  0.0000000000000E+00
-0.1602151527318E+00  0.1609006455788E+00  0.0000000000000E+00
-0.1595624310412E+00  0.2448528072298E+00  0.0000000000000E+00
-0.1592345708744E+00  0.3288308227139E+00  0.0000000000000E+00
-0.1618188366807E+00 -0.1176289624985E+01  0.0000000000000E+00
-0.1615478413963E+00 -0.1092212960043E+01  0.0000000000000E+00
-0.1610061281651E+00 -0.1008162149129E+01  0.0000000000000E+00
-0.1601545743482E+00 -0.9241588428095E+00  0.0000000000000E+00
-0.1589517710402E+00 -0.8402324259419E+00  0.0000000000000E+00
-0.1573595990610E+00 -0.7564199008932E+00  0.0000000000000E+00
-0.1553548006218E+00 -0.6727610016777E+00  0.0000000000000E+00
-0.1529484062311E+00 -0.5892842210799E+00  0.0000000000000E+00
-0.1502094967515E+00 -0.5059825647107E+00  0.0000000000000E+00
-0.1472782567965E+00 -0.4227922356629E+00  0.0000000000000E+00
-0.1443470167639E+00 -0.3396019066179E+00  0.0000000000000E+00
-0.1416081070601E+00 -0.2563002502565E+00  0.0000000000000E+00
-0.1392017123206E+00 -0.1728234696695E+00  0.0000000000000E+00
-0.1371969134361E+00 -0.8916457046546E-01  0.0000000000000E+00
-0.1356047409424E+00 -0.5352045427417E-02  0.0000000000000E+00
-0.1344019370731E+00  0.7857437143128E-01  0.0000000000000E+00
-0.1335503826650E+00  0.1625776777437E+00  0.0000000000000E+00
-0.1330086688247E+00  0.2466284886535E+00  0.0000000000000E+00
-0.1327376729217E+00  0.3307051535930E+00  0.0000000000000E+00
-0.1294565253983E+00 -0.1176208813448E+01  0.0000000000000E+00
-0.1292411864641E+00 -0.1092051337089E+01  0.0000000000000E+00
-0.1288092731701E+00 -0.1007919714918E+01  0.0000000000000E+00
-0.1281294874025E+00 -0.9238355976011E+00  0.0000000000000E+00
-0.1271687020359E+00 -0.8398283699972E+00  0.0000000000000E+00
-0.1258964217254E+00 -0.7559350344316E+00  0.0000000000000E+00
-0.1242940402406E+00 -0.6721953247595E+00  0.0000000000000E+00
-0.1223703819904E+00 -0.5886377334774E+00  0.0000000000000E+00
-0.1201807116679E+00 -0.5052552658689E+00  0.0000000000000E+00
-0.1178371769611E+00 -0.4219841250242E+00  0.0000000000000E+00
-0.1154936421767E+00 -0.3387129841817E+00  0.0000000000000E+00
-0.1133039716300E+00 -0.2553305165795E+00  0.0000000000000E+00
-0.1113803130311E+00 -0.1717729253060E+00  0.0000000000000E+00
-0.1097779311010E+00 -0.8803321564312E-01  0.0000000000000E+00
-0.1085056502760E+00 -0.4139880085961E-02  0.0000000000000E+00
-0.1075448643481E+00  0.7986734751083E-01  0.0000000000000E+00
-0.1068650779893E+00  0.1639514648225E+00  0.0000000000000E+00
-0.1064331640861E+00  0.2480830869894E+00  0.0000000000000E+00
-0.1062178245334E+00  0.3322405633470E+00  0.0000000000000E+00
-0.9709324430840E-01 -0.1176145898689E+01  0.0000000000000E+00
-0.9693259191755E-01 -0.1091925507662E+01  0.0000000000000E+00
-0.9660950875430E-01 -0.1007730970950E+01  0.0000000000000E+00
-0.9610052123146E-01 -0.9235839392927E+00  0.0000000000000E+00
-0.9538078400334E-01 -0.8395137975525E+00  0.0000000000000E+00
-0.9442742555954E-01 -0.7555575480213E+00  0.0000000000000E+00
-0.9322649122599E-01 -0.6717549244308E+00  0.0000000000000E+00
-0.9178459930891E-01 -0.5881344190532E+00  0.0000000000000E+00
-0.9014319832780E-01 -0.5046890369170E+00  0.0000000000000E+00
-0.8838639904588E-01 -0.4213549811103E+00  0.0000000000000E+00
-0.8662959968642E-01 -0.3380209253053E+00  0.0000000000000E+00
-0.8498819848112E-01 -0.2545755431738E+00  0.0000000000000E+00
-0.8354630621523E-01 -0.1709550378026E+00  0.0000000000000E+00
-0.8234537143641E-01 -0.8715241421902E-01  0.0000000000000E+00
-0.8139201247807E-01 -0.3196164694228E-02  0.0000000000000E+00
-0.8067227468865E-01  0.8087397704071E-01  0.0000000000000E+00
-0.8016328657462E-01  0.1650210086939E+00  0.0000000000000E+00
-0.7984020280232E-01  0.2492155454030E+00  0.0000000000000E+00
-0.7967954979286E-01  0.3334359364282E+00  0.0000000000000E+00
-0.6472923382140E-01 -0.1176100926619E+01  0.0000000000000E+00
-0.6462253857726E-01 -0.1091835563588E+01  0.0000000000000E+00
-0.6440755614920E-01 -0.1007596054963E+01  0.0000000000000E+00
-0.6406863747714E-01 -0.9234040515362E+00  0.0000000000000E+00
-0.6358921899517E-01 -0.8392889381722E+00  0.0000000000000E+00
-0.6295405302690E-01 -0.7552877171396E+00  0.0000000000000E+00
-0.6215383645313E-01 -0.6714401220813E+00  0.0000000000000E+00
-0.6119298147473E-01 -0.5877746451094E+00  0.0000000000000E+00
-0.6009912043493E-01 -0.5042842910700E+00  0.0000000000000E+00
-0.5892832717247E-01 -0.4209052630496E+00  0.0000000000000E+00
-0.5775753383247E-01 -0.3375262350304E+00  0.0000000000000E+00
-0.5666367256850E-01 -0.2540358809941E+00  0.0000000000000E+00
-0.5570281724129E-01 -0.1703704040265E+00  0.0000000000000E+00
-0.5490260022224E-01 -0.8652280897287E-01  0.0000000000000E+00
-0.5426743373944E-01 -0.2521587944447E-02  0.0000000000000E+00
-0.5378801469616E-01  0.8159352541603E-01  0.0000000000000E+00
-0.5344909543291E-01  0.1657855288401E+00  0.0000000000000E+00
-0.5323411239580E-01  0.2500250374636E+00  0.0000000000000E+00
-0.5312741653305E-01  0.3342904004928E+00  0.0000000000000E+00
-0.3236473608673E-01 -0.1176073930167E+01  0.0000000000000E+00
-0.3231151074225E-01 -0.1091781570725E+01  0.0000000000000E+00
-0.3220414180319E-01 -0.1007515065743E+01  0.0000000000000E+00
-0.3203480473717E-01 -0.9232960660450E+00  0.0000000000000E+00
-0.3179521775803E-01 -0.8391539564979E+00  0.0000000000000E+00
-0.3147775702315E-01 -0.7551257393558E+00  0.0000000000000E+00
-0.3107777096723E-01 -0.6712511482086E+00  0.0000000000000E+00
-0.3059746568405E-01 -0.5875586750717E+00  0.0000000000000E+00
-0.3005065733864E-01 -0.5040413246819E+00  0.0000000000000E+00
-0.2946538284527E-01 -0.4206353001246E+00  0.0000000000000E+00
-0.2888010827436E-01 -0.3372292755679E+00  0.0000000000000E+00
-0.2833329970477E-01 -0.2537119251797E+00  0.0000000000000E+00
-0.2785299407277E-01 -0.1700194520450E+00  0.0000000000000E+00
-0.2745300757158E-01 -0.8614486090003E-01  0.0000000000000E+00
-0.2713554632216E-01 -0.2116643760018E-02  0.0000000000000E+00
-0.2689595878172E-01  0.8202546578529E-01  0.0000000000000E+00
-0.2672662112451E-01  0.1662444654814E+00  0.0000000000000E+00
-0.2661925157640E-01  0.2505109704632E+00  0.0000000000000E+00
-0.2656602561332E-01  0.3348033299045E+00  0.0000000000000E+00
 0.5582238603101E-08 -0.1176064929145E+01  0.0000000000000E+00
 0.4960748769495E-08 -0.1091763568694E+01  0.0000000000000E+00
 0.4343732432866E-08 -0.1007488062721E+01  0.0000000000000E+00
 0.3735549954647E-08 -0.9232600620628E+00  0.0000000000000E+00
 0.3142548509650E-08 -0.8391089515842E+00  0.0000000000000E+00
 0.2573668596438E-08 -0.7550717335353E+00  0.0000000000000E+00
 0.2040772407577E-08 -0.6711881414885E+00  0.0000000000000E+00
 0.1558046544304E-08 -0.5874866674269E+00  0.0000000000000E+00
 0.1139719687470E-08 -0.5039603160504E+00  0.0000000000000E+00
 0.7961283098685E-09 -0.4205452904441E+00  0.0000000000000E+00
 0.5300797238991E-09 -0.3371302648377E+00  0.0000000000000E+00
 0.3359349566239E-09 -0.2536039134613E+00  0.0000000000000E+00
 0.2020188105716E-09 -0.1699024393997E+00  0.0000000000000E+00
 0.1143966199395E-09 -0.8601884735283E-01  0.0000000000000E+00
 0.6005099690279E-10 -0.1981629303997E-02  0.0000000000000E+00
 0.2835452662725E-10  0.8216948117463E-01  0.0000000000000E+00
 0.1136281835831E-10  0.1663974818332E+00  0.0000000000000E+00
 0.3398426023553E-11  0.2506729878062E+00  0.0000000000000E+00
 0.5133240929992E-12  0.3349743482567E+00  0.0000000000000E+00
 0.3236474725121E-01 -0.1176073930165E+01  0.0000000000000E+00
 0.3231152066375E-01 -0.1091781570722E+01  0.0000000000000E+00
 0.3220415049066E-01 -0.1007515065739E+01  0.0000000000000E+00
 0.3203481220827E-01 -0.9232960660417E+00  0.0000000000000E+00
 0.3179522404313E-01 -0.8391539564960E+00  0.0000000000000E+00
 0.3147776217049E-01 -0.7551257393562E+00  0.0000000000000E+00
 0.3107777504878E-01 -0.6712511482121E+00  0.0000000000000E+00
 0.3059746880014E-01 -0.5875586750789E+00  0.0000000000000E+00
 0.3005065961808E-01 -0.5040413246926E+00  0.0000000000000E+00
 0.2946538443753E-01 -0.4206353001381E+00  0.0000000000000E+00
 0.2888010933452E-01 -0.3372292755830E+00  0.0000000000000E+00
 0.2833330037664E-01 -0.2537119251951E+00  0.0000000000000E+00
 0.2785299447681E-01 -0.1700194520597E+00  0.0000000000000E+00
 0.2745300780037E-01 -0.8614486091335E-01  0.0000000000000E+00
 0.2713554644227E-01 -0.2116643771438E-02  0.0000000000000E+00
 0.2689595883843E-01  0.8202546577601E-01  0.0000000000000E+00
 0.2672662114723E-01  0.1662444654744E+00  0.0000000000000E+00
 0.2661925158320E-01  0.2505109704585E+00  0.0000000000000E+00
 0.2656602561434E-01  0.3348033299022E+00  0.0000000000000E+00
 0.6472924498588E-01 -0.1176100926615E+01  0.0000000000000E+00
 0.6462254849876E-01 -0.1091835563582E+01  0.0000000000000E+00
 0.6440756483667E-01 -0.1007596054955E+01  0.0000000000000E+00
 0.6406864494824E-01 -0.9234040515296E+00  0.0000000000000E+00
 0.6358922528027E-01 -0.8392889381684E+00  0.0000000000000E+00
 0.6295405817423E-01 -0.7552877171404E+00  0.0000000000000E+00
 0.6215384053467E-01 -0.6714401220885E+00  0.0000000000000E+00
 0.6119298459082E-01 -0.5877746451237E+00  0.0000000000000E+00
 0.6009912271437E-01 -0.5042842910913E+00  0.0000000000000E+00
 0.5892832876473E-01 -0.4209052630765E+00  0.0000000000000E+00
 0.5775753489263E-01 -0.3375262350606E+00  0.0000000000000E+00
 0.5666367324036E-01 -0.2540358810250E+00  0.0000000000000E+00
 0.5570281764532E-01 -0.1703704040560E+00  0.0000000000000E+00
 0.5490260045104E-01 -0.8652280899949E-01  0.0000000000000E+00
 0.5426743385954E-01 -0.2521587967286E-02  0.0000000000000E+00
 0.5378801475287E-01  0.8159352539748E-01  0.0000000000000E+00
 0.5344909545563E-01  0.1657855288261E+00  0.0000000000000E+00
 0.5323411240259E-01  0.2500250374542E+00  0.0000000000000E+00
 0.5312741653408E-01  0.3342904004881E+00  0.0000000000000E+00
 0.9709325547288E-01 -0.1176145898683E+01  0.0000000000000E+00
 0.9693260183905E-01 -0.1091925507652E+01  0.0000000000000E+00
 0.9660951744177E-01 -0.1007730970939E+01  0.0000000000000E+00
 0.9610052870256E-01 -0.9235839392827E+00  0.0000000000000E+00
 0.9538079028844E-01 -0.8395137975467E+00  0.0000000000000E+00
 0.9442743070688E-01 -0.7555575480226E+00  0.0000000000000E+00
 0.9322649530754E-01 -0.6717549244415E+00  0.0000000000000E+00
 0.9178460242501E-01 -0.5881344190747E+00  0.0000000000000E+00
 0.9014320060724E-01 -0.5046890369490E+00  0.0000000000000E+00
 0.8838640063814E-01 -0.4213549811507E+00  0.0000000000000E+00
 0.8662960074658E-01 -0.3380209253506E+00  0.0000000000000E+00
 0.8498819915299E-01 -0.2545755432202E+00  0.0000000000000E+00
 0.8354630661927E-01 -0.1709550378469E+00  0.0000000000000E+00
 0.8234537166520E-01 -0.8715241425896E-01  0.0000000000000E+00
 0.8139201259817E-01 -0.3196164728487E-02  0.0000000000000E+00
 0.8067227474536E-01  0.8087397701289E-01  0.0000000000000E+00
 0.8016328659734E-01  0.1650210086728E+00  0.0000000000000E+00
 0.7984020280912E-01  0.2492155453889E+00  0.0000000000000E+00
 0.7967954979389E-01  0.3334359364211E+00  0.0000000000000E+00
 0.1294565365627E+00 -0.1176208813440E+01  0.0000000000000E+00
 0.1292411963856E+00 -0.1092051337076E+01  0.0000000000000E+00
 0.1288092818575E+00 -0.1007919714903E+01  0.0000000000000E+00
 0.1281294948736E+00 -0.9238355975878E+00  0.0000000000000E+00
 0.1271687083210E+00 -0.8398283699895E+00  0.0000000000000E+00
 0.1258964268727E+00 -0.7559350344332E+00  0.0000000000000E+00
 0.1242940443221E+00 -0.6721953247737E+00  0.0000000000000E+00
 0.1223703851065E+00 -0.5886377335061E+00  0.0000000000000E+00
 0.1201807139474E+00 -0.5052552659116E+00  0.0000000000000E+00
 0.1178371785533E+00 -0.4219841250780E+00  0.0000000000000E+00
 0.1154936432368E+00 -0.3387129842421E+00  0.0000000000000E+00
 0.1133039723019E+00 -0.2553305166413E+00  0.0000000000000E+00
 0.1113803134351E+00 -0.1717729253651E+00  0.0000000000000E+00
 0.1097779313298E+00 -0.8803321569638E-01  0.0000000000000E+00
 0.1085056503961E+00 -0.4139880131640E-02  0.0000000000000E+00
 0.1075448644048E+00  0.7986734747374E-01  0.0000000000000E+00
 0.1068650780120E+00  0.1639514647945E+00  0.0000000000000E+00
 0.1064331640929E+00  0.2480830869706E+00  0.0000000000000E+00
 0.1062178245344E+00  0.3322405633376E+00  0.0000000000000E+00
 0.1618188478452E+00 -0.1176289624975E+01  0.0000000000000E+00
 0.1615478513178E+00 -0.1092212960027E+01  0.0000000000000E+00
 0.1610061368526E+00 -0.1008162149110E+01  0.0000000000000E+00
 0.1601545818193E+00 -0.9241588427928E+00  0.0000000000000E+00
 0.1589517773253E+00 -0.8402324259322E+00  0.0000000000000E+00
 0.1573596042083E+00 -0.7564199008953E+00  0.0000000000000E+00
 0.1553548047034E+00 -0.6727610016955E+00  0.0000000000000E+00
 0.1529484093472E+00 -0.5892842211157E+00  0.0000000000000E+00
 0.1502094990309E+00 -0.5059825647640E+00  0.0000000000000E+00
 0.1472782583887E+00 -0.4227922357302E+00  0.0000000000000E+00
 0.1443470178240E+00 -0.3396019066934E+00  0.0000000000000E+00
 0.1416081077320E+00 -0.2563002503338E+00  0.0000000000000E+00
 0.1392017127246E+00 -0.1728234697433E+00  0.0000000000000E+00
 0.1371969136649E+00 -0.8916457053203E-01  0.0000000000000E+00
 0.1356047410625E+00 -0.5352045484516E-02  0.0000000000000E+00
 0.1344019371298E+00  0.7857437138492E-01  0.0000000000000E+00
 0.1335503826877E+00  0.1625776777087E+00  0.0000000000000E+00
 0.1330086688315E+00  0.2466284886301E+00  0.0000000000000E+00
 0.1327376729228E+00  0.3307051535812E+00  0.0000000000000E+00
 0.1941799512142E+00 -0.1176388274573E+01  0.0000000000000E+00
 0.1938520904230E+00 -0.1092410259078E+01  0.0000000000000E+00
 0.1931993681074E+00 -0.1008458097419E+01  0.0000000000000E+00
 0.1921748371131E+00 -0.9245534400449E+00  0.0000000000000E+00
 0.1907288067671E+00 -0.8407256718092E+00  0.0000000000000E+00
 0.1888155340711E+00 -0.7570117951304E+00  0.0000000000000E+00
 0.1864071096991E+00 -0.6734515442159E+00  0.0000000000000E+00
 0.1835167702831E+00 -0.5900734121999E+00  0.0000000000000E+00
 0.1802274128798E+00 -0.5068704050893E+00  0.0000000000000E+00
 0.1767072590495E+00 -0.4237787259765E+00  0.0000000000000E+00
 0.1731871052968E+00 -0.3406870468603E+00  0.0000000000000E+00
 0.1698977481177E+00 -0.2574840397403E+00  0.0000000000000E+00
 0.1670074090505E+00 -0.1741059077114E+00  0.0000000000000E+00
 0.1645989851238E+00 -0.9054565678312E-01  0.0000000000000E+00
 0.1626857129423E+00 -0.6831780091645E-02  0.0000000000000E+00
 0.1612396831576E+00  0.7699598815473E-01  0.0000000000000E+00
 0.1602151527545E+00  0.1609006455368E+00  0.0000000000000E+00
 0.1595624310480E+00  0.2448528072017E+00  0.0000000000000E+00
 0.1592345708754E+00  0.3288308226998E+00  0.0000000000000E+00
 0.2265396114195E+00 -0.1176504690955E+01  0.0000000000000E+00
 0.2261534432000E+00 -0.1092643091672E+01  0.0000000000000E+00
 0.2253882698689E+00 -0.1008807345993E+01  0.0000000000000E+00
 0.2241893197490E+00 -0.9250191042277E+00  0.0000000000000E+00
 0.2224986203867E+00 -0.8413077512254E+00  0.0000000000000E+00
 0.2202628049462E+00 -0.7577102894652E+00  0.0000000000000E+00
 0.2174493125376E+00 -0.6742664533833E+00  0.0000000000000E+00
 0.2140735858829E+00 -0.5910047365283E+00  0.0000000000000E+00
 0.2102323381994E+00 -0.5079181453782E+00  0.0000000000000E+00
 0.2061218279756E+00 -0.4249428830284E+00  0.0000000000000E+00
 0.2020113178294E+00 -0.3419676206746E+00  0.0000000000000E+00
 0.1981700703700E+00 -0.2588810295135E+00  0.0000000000000E+00
 0.1947943440642E+00 -0.1756193126435E+00  0.0000000000000E+00
 0.1919808521008E+00 -0.9217547654548E-01  0.0000000000000E+00
 0.1897450371749E+00 -0.8578014770466E-02  0.0000000000000E+00
 0.1880543383738E+00  0.7513333824430E-01  0.0000000000000E+00
 0.1868553888451E+00  0.1589215800187E+00  0.0000000000000E+00
 0.1860902161231E+00  0.2427573257046E+00  0.0000000000000E+00
 0.1857040485222E+00  0.3266189249916E+00  0.0000000000000E+00
 0.2588975960403E+00 -0.1176638790504E+01  0.0000000000000E+00
 0.2584514448138E+00 -0.1092911290572E+01  0.0000000000000E+00
 0.2575721448959E+00 -0.1009209643977E+01  0.0000000000000E+00
 0.2561971000890E+00 -0.9255555008698E+00  0.0000000000000E+00
 0.2542600561593E+00 -0.8419782460920E+00  0.0000000000000E+00
 0.2517000224336E+00 -0.7585148821938E+00  0.0000000000000E+00
 0.2484797864549E+00 -0.6752051438747E+00  0.0000000000000E+00
 0.2446169970293E+00 -0.5920775251608E+00  0.0000000000000E+00
 0.2402221835267E+00 -0.5091250330728E+00  0.0000000000000E+00
 0.2355196413617E+00 -0.4262838707095E+00  0.0000000000000E+00
 0.2308170992743E+00 -0.3434427083415E+00  0.0000000000000E+00
 0.2264222859959E+00 -0.2604902162409E+00  0.0000000000000E+00
 0.2225594969190E+00 -0.1773625975099E+00  0.0000000000000E+00
 0.2193392613856E+00 -0.9405285917235E-01  0.0000000000000E+00
 0.2167792281745E+00 -0.1058949525716E-01  0.0000000000000E+00
 0.2148421848061E+00  0.7298775953475E-01  0.0000000000000E+00
 0.2134671405904E+00  0.1566419026531E+00  0.0000000000000E+00
 0.2125878412816E+00  0.2403435492551E+00  0.0000000000000E+00
 0.2121416906736E+00  0.3240710491911E+00  0.0000000000000E+00
 0.2912536772355E+00 -0.1176790477692E+01  0.0000000000000E+00
 0.2907456395785E+00 -0.1093214664726E+01  0.0000000000000E+00
 0.2897503096532E+00 -0.1009664704795E+01  0.0000000000000E+00
 0.2881972667438E+00 -0.9261622478673E+00  0.0000000000000E+00
 0.2860119748365E+00 -0.8427366787801E+00  0.0000000000000E+00
 0.2831258194192E+00 -0.7594250001622E+00  0.0000000000000E+00
 0.2794969364642E+00 -0.6762669470111E+00  0.0000000000000E+00
 0.2751451808547E+00 -0.5932910138932E+00  0.0000000000000E+00
 0.2701948981060E+00 -0.5104902084429E+00  0.0000000000000E+00
 0.2648984205591E+00 -0.4278007337630E+00  0.0000000000000E+00
 0.2596019430898E+00 -0.3451112590778E+00  0.0000000000000E+00
 0.2546516605652E+00 -0.2623104536134E+00  0.0000000000000E+00
 0.2502999053046E+00 -0.1793345204763E+00  0.0000000000000E+00
 0.2466710227948E+00 -0.9617646730447E-01  0.0000000000000E+00
 0.2437848678920E+00 -0.1286478866744E-01  0.0000000000000E+00
 0.2415995765460E+00  0.7056078043565E-01  0.0000000000000E+00
 0.2400465342278E+00  0.1540632373752E+00  0.0000000000000E+00
 0.2390512049116E+00  0.2376131973144E+00  0.0000000000000E+00
 0.2385431678732E+00  0.3211890102853E+00  0.0000000000000E+00
 0.3236076315371E+00 -0.1176959645411E+01  0.0000000000000E+00
 0.3230355805535E+00 -0.1093552999917E+01  0.0000000000000E+00
 0.3219220937226E+00 -0.1010172207121E+01  0.0000000000000E+00
 0.3201889258119E+00 -0.9268389167890E+00  0.0000000000000E+00
 0.3177532590267E+00 -0.8435825137514E+00  0.0000000000000E+00
 0.3145388550141E+00 -0.7604400007254E+00  0.0000000000000E+00
 0.3104991981707E+00 -0.6774511130409E+00  0.0000000000000E+00
 0.3056563494499E+00 -0.5946443458670E+00  0.0000000000000E+00
 0.3001484705052E+00 -0.5120127075223E+00  0.0000000000000E+00
 0.2942559306073E+00 -0.4294924011143E+00  0.0000000000000E+00
 0.2883633907869E+00 -0.3469720947005E+00  0.0000000000000E+00
 0.2828555120663E+00 -0.2643404563401E+00  0.0000000000000E+00
 0.2780126636944E+00 -0.1815336891448E+00  0.0000000000000E+00
 0.2739730072963E+00 -0.9854480143733E-01  0.0000000000000E+00
 0.2707586037982E+00 -0.1540228839006E-01  0.0000000000000E+00
 0.2683229375742E+00  0.6785411466528E-01  0.0000000000000E+00
 0.2665897702547E+00  0.1511874050106E+00  0.0000000000000E+00
 0.2654762840329E+00  0.2345681978159E+00  0.0000000000000E+00
 0.2649042336679E+00  0.3179748433157E+00  0.0000000000000E+00
 0.3559592397423E+00 -0.1177146175304E+01  0.0000000000000E+00
 0.3553208293361E+00 -0.1093926059429E+01  0.0000000000000E+00
 0.3540868395049E+00 -0.1010731795881E+01  0.0000000000000E+00
 0.3521712005018E+00 -0.9275850342023E+00  0.0000000000000E+00
 0.3494828127508E+00 -0.8445151592157E+00  0.0000000000000E+00
 0.3459378140564E+00 -0.7615591737361E+00  0.0000000000000E+00
 0.3414850372349E+00 -0.6787568134599E+00  0.0000000000000E+00
 0.3361487493013E+00 -0.5961365742205E+00  0.0000000000000E+00
 0.3300809280388E+00 -0.5136914650914E+00  0.0000000000000E+00
 0.3235899796495E+00 -0.4313576891848E+00  0.0000000000000E+00
 0.3170990313377E+00 -0.3490239132719E+00  0.0000000000000E+00
 0.3110312102994E+00 -0.2665788041255E+00  0.0000000000000E+00
 0.3056949227147E+00 -0.1839585648625E+00  0.0000000000000E+00
 0.3012421463385E+00 -0.1011562045611E+00  0.0000000000000E+00
 0.2976971481586E+00 -0.1820021905809E-01  0.0000000000000E+00
 0.2950087609689E+00  0.6486965594795E-01  0.0000000000000E+00
 0.2930931225570E+00  0.1480164176414E+00  0.0000000000000E+00
 0.2918591333349E+00  0.2312106811997E+00  0.0000000000000E+00
 0.2912207235473E+00  0.3144307970808E+00  0.0000000000000E+00
 0.3883082874056E+00 -0.1177349938180E+01  0.0000000000000E+00
 0.3876009570450E+00 -0.1094333584881E+01  0.0000000000000E+00
 0.3862439036937E+00 -0.1011343083504E+01  0.0000000000000E+00
 0.3841432330948E+00 -0.9284000833465E+00  0.0000000000000E+00
 0.3811995638919E+00 -0.8455339692234E+00  0.0000000000000E+00
 0.3773214100467E+00 -0.7627817440558E+00  0.0000000000000E+00
 0.3724529527907E+00 -0.6801831439408E+00  0.0000000000000E+00
 0.3666206651913E+00 -0.5977666654374E+00  0.0000000000000E+00
 0.3599903411489E+00 -0.5155253184436E+00  0.0000000000000E+00
 0.3528984237935E+00 -0.4333953060771E+00  0.0000000000000E+00
 0.3458065065156E+00 -0.3512652937038E+00  0.0000000000000E+00
 0.3391761826974E+00 -0.2690239466911E+00  0.0000000000000E+00
 0.3333438954468E+00 -0.1866074681620E+00  0.0000000000000E+00
 0.3284754386361E+00 -0.1040088680194E+00  0.0000000000000E+00
 0.3245972853055E+00 -0.2125664282636E-01  0.0000000000000E+00
 0.3216536166638E+00  0.6160947131804E-01  0.0000000000000E+00
 0.3195529466561E+00  0.1445524714917E+00  0.0000000000000E+00
 0.3181958939139E+00  0.2275429728799E+00  0.0000000000000E+00
 0.3174885641719E+00  0.3105593261850E+00  0.0000000000000E+00
 0.4206545677019E+00 -0.1177570794854E+01  0.0000000000000E+00
 0.4198755500088E+00 -0.1094775297906E+01  0.0000000000000E+00
 0.4183926657479E+00 -0.1012005652439E+01  0.0000000000000E+00
 0.4161041961527E+00 -0.9292835074883E+00  0.0000000000000E+00
 0.4129024780842E+00 -0.8466382478585E+00  0.0000000000000E+00
 0.4086884016575E+00 -0.7641068765866E+00  0.0000000000000E+00
 0.4034014965121E+00 -0.6817291302038E+00  0.0000000000000E+00
 0.3970704417587E+00 -0.5995335060555E+00  0.0000000000000E+00
 0.3898748474083E+00 -0.5175130149336E+00  0.0000000000000E+00
 0.3821791935274E+00 -0.4356038599617E+00  0.0000000000000E+00
 0.3744835397240E+00 -0.3536947049823E+00  0.0000000000000E+00
 0.3672879455978E+00 -0.2716742138399E+00  0.0000000000000E+00
 0.3609568911932E+00 -0.1894785896638E+00  0.0000000000000E+00
 0.3556699864930E+00 -0.1071008432511E+00  0.0000000000000E+00
 0.3514559105809E+00 -0.2456947195164E-01  0.0000000000000E+00
 0.3482541930737E+00  0.5807578770118E-01  0.0000000000000E+00
 0.3459657240697E+00  0.1407979326698E+00  0.0000000000000E+00
 0.3444828404178E+00  0.2235675781483E+00  0.0000000000000E+00
 0.3437038233434E+00  0.3063630751036E+00  0.0000000000000E+00
 0.4529978763389E+00 -0.1177808595837E+01  0.0000000000000E+00
 0.4521441996729E+00 -0.1095250899522E+01  0.0000000000000E+00
 0.4505325128840E+00 -0.1012719054215E+01  0.0000000000000E+00
 0.4480532727024E+00 -0.9302347086656E+00  0.0000000000000E+00
 0.4445905342089E+00 -0.8478272476697E+00  0.0000000000000E+00
 0.4400375636727E+00 -0.7655336743882E+00  0.0000000000000E+00
 0.4343292391371E+00 -0.6833937258195E+00  0.0000000000000E+00
 0.4274964457447E+00 -0.6014359001563E+00  0.0000000000000E+00
 0.4197326096009E+00 -0.5196532091523E+00  0.0000000000000E+00
 0.4114302477002E+00 -0.4379818559381E+00  0.0000000000000E+00
 0.4031278858770E+00 -0.3563105027157E+00  0.0000000000000E+00
 0.3953640499575E+00 -0.2745278116898E+00  0.0000000000000E+00
 0.3885312569138E+00 -0.1925699859965E+00  0.0000000000000E+00
 0.3828229328235E+00 -0.1104300373957E+00  0.0000000000000E+00
 0.3782699628018E+00 -0.2813646408445E-01  0.0000000000000E+00
 0.3748072248697E+00  0.5427099693629E-01  0.0000000000000E+00
 0.3723279852793E+00  0.1367553425046E+00  0.0000000000000E+00
 0.3707162990994E+00  0.2192871878241E+00  0.0000000000000E+00
 0.3698626230520E+00  0.3018448841465E+00  0.0000000000000E+00
 0.4853380192193E+00 -0.1178063182993E+01  0.0000000000000E+00
 0.4844065178131E+00 -0.1095760073461E+01  0.0000000000000E+00
 0.4826628627181E+00 -0.1013482814431E+01  0.0000000000000E+00
 0.4799896861621E+00 -0.9312530543456E+00  0.0000000000000E+00
 0.4762627614435E+00 -0.8491001779919E+00  0.0000000000000E+00
 0.4713677309814E+00 -0.7670611886636E+00  0.0000000000000E+00
 0.4652348212151E+00 -0.6851758238594E+00  0.0000000000000E+00
 0.4578971233085E+00 -0.6034725826789E+00  0.0000000000000E+00
 0.4495618794533E+00 -0.5219444779061E+00  0.0000000000000E+00
 0.4406496435805E+00 -0.4405277126782E+00  0.0000000000000E+00
 0.4317374077852E+00 -0.3591109474417E+00  0.0000000000000E+00
 0.4234021641542E+00 -0.2775828426453E+00  0.0000000000000E+00
 0.4160644665964E+00 -0.1958796014326E+00  0.0000000000000E+00
 0.4099315572753E+00 -0.1139942365940E+00  0.0000000000000E+00
 0.4050365273277E+00 -0.3195524723390E-01  0.0000000000000E+00
 0.4013096031704E+00  0.5019762914641E-01  0.0000000000000E+00
 0.3986364272057E+00  0.1324273892518E+00  0.0000000000000E+00
 0.3968927727197E+00  0.2147046482963E+00  0.0000000000000E+00
 0.3959612719321E+00  0.2970077578361E+00  0.0000000000000E+00
 0.5176748031315E+00 -0.1178334388446E+01  0.0000000000000E+00
 0.5166621180613E+00 -0.1096302483968E+01  0.0000000000000E+00
 0.5147831357883E+00 -0.1014296429452E+01  0.0000000000000E+00
 0.5119126640487E+00 -0.9323378730163E+00  0.0000000000000E+00
 0.5079181943651E+00 -0.8504561994364E+00  0.0000000000000E+00
 0.5026777453114E+00 -0.7686884121479E+00  0.0000000000000E+00
 0.4961168917201E+00 -0.6870742491826E+00  0.0000000000000E+00
 0.4882709307628E+00 -0.6056422106060E+00  0.0000000000000E+00
 0.4793609206920E+00 -0.5243853102994E+00  0.0000000000000E+00
 0.4698354523520E+00 -0.4432397514078E+00  0.0000000000000E+00
 0.4603099840896E+00 -0.3620941925070E+00  0.0000000000000E+00
 0.4513999742430E+00 -0.2808372921753E+00  0.0000000000000E+00
 0.4435540136345E+00 -0.1994052535644E+00  0.0000000000000E+00
 0.4369931604885E+00 -0.1177910905623E+00  0.0000000000000E+00
 0.4317527119493E+00 -0.3602330323987E-01  0.0000000000000E+00
 0.4277582428270E+00  0.4585837036842E-01  0.0000000000000E+00
 0.4248877716786E+00  0.1278169268257E+00  0.0000000000000E+00
 0.4230087900146E+00  0.2098229813567E+00  0.0000000000000E+00
 0.4219961055631E+00  0.2918548858427E+00  0.0000000000000E+00
 0.5500080506473E+00 -0.1178622037831E+01  0.0000000000000E+00
 0.5489106454817E+00 -0.1096877782317E+01  0.0000000000000E+00
 0.5468927995602E+00 -0.1015159376191E+01  0.0000000000000E+00
 0.5438214961249E+00 -0.9334884672285E+00  0.0000000000000E+00
 0.5395559449161E+00 -0.8518944401928E+00  0.0000000000000E+00
 0.5339665406536E+00 -0.7704142986701E+00  0.0000000000000E+00
 0.5269742065526E+00 -0.6890877812573E+00  0.0000000000000E+00
 0.5186164457815E+00 -0.6079433890446E+00  0.0000000000000E+00
 0.5091281326510E+00 -0.5269741370774E+00  0.0000000000000E+00
 0.4989858949427E+00 -0.4461162285085E+00  0.0000000000000E+00
 0.4888436573119E+00 -0.3652583199297E+00  0.0000000000000E+00
 0.4793553444056E+00 -0.2842890679358E+00  0.0000000000000E+00
 0.4709975839832E+00 -0.2031446756866E+00  0.0000000000000E+00
 0.4640052503276E+00 -0.1218181582348E+00  0.0000000000000E+00
 0.4584158465796E+00 -0.4033801667599E-01  0.0000000000000E+00
 0.4541502959321E+00  0.4125601038982E-01  0.0000000000000E+00
 0.4510789930880E+00  0.1229269193754E+00  0.0000000000000E+00
 0.4490611477755E+00  0.2046453255169E+00  0.0000000000000E+00
 0.4479637432285E+00  0.2863895810401E+00  0.0000000000000E+00
 0.5823375847483E+00 -0.1178925947981E+01  0.0000000000000E+00
 0.5811517460560E+00 -0.1097485602170E+01  0.0000000000000E+00
 0.5789913230366E+00 -0.1016071105142E+01  0.0000000000000E+00
 0.5757154744390E+00 -0.9347041043087E+00  0.0000000000000E+00
 0.5711751282173E+00 -0.8534139844207E+00  0.0000000000000E+00
 0.5652330552321E+00 -0.7722377492231E+00  0.0000000000000E+00
 0.5578055270715E+00 -0.6912151379102E+00  0.0000000000000E+00
 0.5489322528883E+00 -0.6103746526545E+00  0.0000000000000E+00
 0.5388619230434E+00 -0.5297093097315E+00  0.0000000000000E+00
 0.5280992022682E+00 -0.4491553123021E+00  0.0000000000000E+00
 0.5173364815706E+00 -0.3686013148624E+00  0.0000000000000E+00
 0.5072661519498E+00 -0.2879359719111E+00  0.0000000000000E+00
 0.4983928781155E+00 -0.2070954866168E+00  0.0000000000000E+00
 0.4909653504001E+00 -0.1260728752625E+00  0.0000000000000E+00
 0.4850232779294E+00 -0.4489664002671E-01  0.0000000000000E+00
 0.4804829322690E+00  0.3639347989323E-01  0.0000000000000E+00
 0.4772070842627E+00  0.1177604807511E+00  0.0000000000000E+00
 0.4750466618523E+00  0.1991749777953E+00  0.0000000000000E+00
 0.4738608237786E+00  0.2806153236156E+00  0.0000000000000E+00
 0.6146632317509E+00 -0.1179245927735E+01  0.0000000000000E+00
 0.6133850724925E+00 -0.1098125561208E+01  0.0000000000000E+00
 0.6110781854051E+00 -0.1017031042828E+01  0.0000000000000E+00
 0.6075939047578E+00 -0.9359840196208E+00  0.0000000000000E+00
 0.6027748767280E+00 -0.8550138763261E+00  0.0000000000000E+00
 0.5964762483236E+00 -0.7741576168557E+00  0.0000000000000E+00
 0.5886096395034E+00 -0.6934549810328E+00  0.0000000000000E+00
 0.5792169653885E+00 -0.6129344721698E+00  0.0000000000000E+00
 0.5685607323581E+00 -0.5325891078368E+00  0.0000000000000E+00
 0.5571736420618E+00 -0.4523550912038E+00  0.0000000000000E+00
 0.5457865518431E+00 -0.3721210745598E+00  0.0000000000000E+00
 0.5351303190368E+00 -0.2917757101970E+00  0.0000000000000E+00
 0.5257376452707E+00 -0.2112552012932E+00  0.0000000000000E+00
 0.5178710368958E+00 -0.1305525654266E+00  0.0000000000000E+00
 0.5115724090060E+00 -0.4969630591594E-01  0.0000000000000E+00
 0.5067533815375E+00  0.3127383741244E-01  0.0000000000000E+00
 0.5032691014814E+00  0.1123208606451E+00  0.0000000000000E+00
 0.5009622150030E+00  0.1934153790431E+00  0.0000000000000E+00
 0.4996840563632E+00  0.2745357455796E+00  0.0000000000000E+00
-0.1278896502369E+01 -0.1151672018574E+01  0.0000000000000E+00
-0.1293535989863E+01 -0.1042706098075E+01  0.0000000000000E+00
-0.1306740260238E+01 -0.9335568306302E+00  0.0000000000000E+00
-0.1318644601968E+01 -0.8242604251989E+00  0.0000000000000E+00
-0.1329259354471E+01 -0.7148349793802E+00  0.0000000000000E+00
-0.1338484588244E+01 -0.6052883756386E+00  0.0000000000000E+00
-0.1346107409420E+01 -0.4956230009344E+00  0.0000000000000E+00
-0.1352038793124E+01 -0.3858563250419E+00  0.0000000000000E+00
-0.1356201221531E+01 -0.2760094404429E+00  0.0000000000000E+00
-0.1358419956471E+01 -0.1661003673666E+00  0.0000000000000E+00
-0.1358695454008E+01 -0.5615693613661E-01  0.0000000000000E+00
-0.1357550403351E+01  0.5379250691215E-01  0.0000000000000E+00
-0.1350073384709E+01  0.1634872031569E+00  0.0000000000000E+00
-0.1331799419446E+01  0.2718874909373E+00  0.0000000000000E+00
-0.1302044898758E+01  0.3776416251695E+00  0.0000000000000E+00
-0.1260837701565E+01  0.4793297455530E+00  0.0000000000000E+00
-0.1209962422649E+01  0.5763646246461E+00  0.0000000000000E+00
-0.1151420815372E+01  0.6687610104146E+00  0.0000000000000E+00
-0.1085923484021E+01  0.7560985800172E+00  0.0000000000000E+00
-0.1245637993229E+01 -0.1153140953534E+01  0.0000000000000E+00
-0.1259434638352E+01 -0.1045658265064E+01  0.0000000000000E+00
-0.1271814610865E+01 -0.9380032398803E+00  0.0000000000000E+00
-0.1282897842471E+01 -0.8302113205031E+00  0.0000000000000E+00
-0.1292685410739E+01 -0.7223011985908E+00  0.0000000000000E+00
-0.1301074620519E+01 -0.6142822893251E+00  0.0000000000000E+00
-0.1307858886474E+01 -0.5061589456413E+00  0.0000000000000E+00
-0.1312956191413E+01 -0.3979492180895E+00  0.0000000000000E+00
-0.1316307640679E+01 -0.2896727215968E+00  0.0000000000000E+00
-0.1317777205404E+01 -0.1813431702324E+00  0.0000000000000E+00
-0.1317405808375E+01 -0.7298106903875E-01  0.0000000000000E+00
-0.1315729119569E+01  0.3539258808897E-01  0.0000000000000E+00
-0.1308123727530E+01  0.1435341243932E+00  0.0000000000000E+00
-0.1290374195784E+01  0.2504589646731E+00  0.0000000000000E+00
-0.1261835217099E+01  0.3548850080857E+00  0.0000000000000E+00
-0.1222528306679E+01  0.4554650322152E+00  0.0000000000000E+00
-0.1174136108167E+01  0.5516407687444E+00  0.0000000000000E+00
-0.1118546301820E+01  0.6434246428656E+00  0.0000000000000E+00
-0.1056423855374E+01  0.7304173146964E+00  0.0000000000000E+00
-0.1212379484089E+01 -0.1154609888494E+01  0.0000000000000E+00
-0.1225333286841E+01 -0.1048610432053E+01  0.0000000000000E+00
-0.1236888961493E+01 -0.9424496491304E+00  0.0000000000000E+00
-0.1247151082973E+01 -0.8361622158072E+00  0.0000000000000E+00
-0.1256111467007E+01 -0.7297674178015E+00  0.0000000000000E+00
-0.1263664652793E+01 -0.6232762030117E+00  0.0000000000000E+00
-0.1269610363529E+01 -0.5166948903483E+00  0.0000000000000E+00
-0.1273873589703E+01 -0.4100421111372E+00  0.0000000000000E+00
-0.1276414059827E+01 -0.3033360027507E+00  0.0000000000000E+00
-0.1277134454338E+01 -0.1965859730982E+00  0.0000000000000E+00
-0.1276116162743E+01 -0.8980520194089E-01  0.0000000000000E+00
-0.1273907835787E+01  0.1699266926579E-01  0.0000000000000E+00
-0.1266174070351E+01  0.1235810456296E+00  0.0000000000000E+00
-0.1248948972122E+01  0.2290304384090E+00  0.0000000000000E+00
-0.1221625535439E+01  0.3321283910018E+00  0.0000000000000E+00
-0.1184218911793E+01  0.4316003188775E+00  0.0000000000000E+00
-0.1138309793685E+01  0.5269169128427E+00  0.0000000000000E+00
-0.1085671788268E+01  0.6180882753165E+00  0.0000000000000E+00
-0.1026924226726E+01  0.7047360493755E+00  0.0000000000000E+00
-0.1179120974948E+01 -0.1156078823454E+01  0.0000000000000E+00
-0.1191231935330E+01 -0.1051562599042E+01  0.0000000000000E+00
-0.1201963312121E+01 -0.9468960583805E+00  0.0000000000000E+00
-0.1211404323475E+01 -0.8421131111114E+00  0.0000000000000E+00
-0.1219537523275E+01 -0.7372336370121E+00  0.0000000000000E+00
-0.1226254685067E+01 -0.6322701166982E+00  0.0000000000000E+00
-0.1231361840583E+01 -0.5272308350552E+00  0.0000000000000E+00
-0.1234790987992E+01 -0.4221350041848E+00  0.0000000000000E+00
-0.1236520478975E+01 -0.3169992839045E+00  0.0000000000000E+00
-0.1236491703271E+01 -0.2118287759639E+00  0.0000000000000E+00
-0.1234826517111E+01 -0.1066293348430E+00  0.0000000000000E+00
-0.1232086552004E+01 -0.1407249557388E-02  0.0000000000000E+00
-0.1224224413172E+01  0.1036279668659E+00  0.0000000000000E+00
-0.1207523748460E+01  0.2076019121449E+00  0.0000000000000E+00
-0.1181415853780E+01  0.3093717739179E+00  0.0000000000000E+00
-0.1145909516907E+01  0.4077356055397E+00  0.0000000000000E+00
-0.1102483479202E+01  0.5021930569409E+00  0.0000000000000E+00
-0.1052797274716E+01  0.5927519077675E+00  0.0000000000000E+00
-0.9974245980785E+00  0.6790547840547E+00  0.0000000000000E+00
-0.1145862465808E+01 -0.1157547758415E+01  0.0000000000000E+00
-0.1157130583818E+01 -0.1054514766032E+01  0.0000000000000E+00
-0.1167037662748E+01 -0.9513424676306E+00  0.0000000000000E+00
-0.1175657563978E+01 -0.8480640064155E+00  0.0000000000000E+00
-0.1182963579544E+01 -0.7446998562227E+00  0.0000000000000E+00
-0.1188844717341E+01 -0.6412640303847E+00  0.0000000000000E+00
-0.1193113317638E+01 -0.5377667797621E+00  0.0000000000000E+00
-0.1195708386282E+01 -0.4342278972324E+00  0.0000000000000E+00
-0.1196626898123E+01 -0.3306625650584E+00  0.0000000000000E+00
-0.1195848952204E+01 -0.2270715788297E+00  0.0000000000000E+00
-0.1193536871478E+01 -0.1234534677452E+00  0.0000000000000E+00
-0.1190265268222E+01 -0.1980716838057E-01  0.0000000000000E+00
-0.1182274755993E+01  0.8367488810228E-01  0.0000000000000E+00
-0.1166098524797E+01  0.1861733858807E+00  0.0000000000000E+00
-0.1141206172121E+01  0.2866151568340E+00  0.0000000000000E+00
-0.1107600122020E+01  0.3838708922020E+00  0.0000000000000E+00
-0.1066657164720E+01  0.4774692010392E+00  0.0000000000000E+00
-0.1019922761165E+01  0.5674155402184E+00  0.0000000000000E+00
-0.9679249694309E+00  0.6533735187339E+00  0.0000000000000E+00
-0.1112603956668E+01 -0.1159016693375E+01  0.0000000000000E+00
-0.1123029232307E+01 -0.1057466933021E+01  0.0000000000000E+00
-0.1132112013376E+01 -0.9557888768807E+00  0.0000000000000E+00
-0.1139910804480E+01 -0.8540149017197E+00  0.0000000000000E+00
-0.1146389635812E+01 -0.7521660754333E+00  0.0000000000000E+00
-0.1151434749615E+01 -0.6502579440712E+00  0.0000000000000E+00
-0.1154864794692E+01 -0.5483027244690E+00  0.0000000000000E+00
-0.1156625784571E+01 -0.4463207902801E+00  0.0000000000000E+00
-0.1156733317270E+01 -0.3443258462123E+00  0.0000000000000E+00
-0.1155206201138E+01 -0.2423143816954E+00  0.0000000000000E+00
-0.1152247225846E+01 -0.1402776006473E+00  0.0000000000000E+00
-0.1148443984439E+01 -0.3820708720374E-01  0.0000000000000E+00
-0.1140325098814E+01  0.6372180933864E-01  0.0000000000000E+00
-0.1124673301135E+01  0.1647448596166E+00  0.0000000000000E+00
-0.1100996490462E+01  0.2638585397501E+00  0.0000000000000E+00
-0.1069290727134E+01  0.3600061788643E+00  0.0000000000000E+00
-0.1030830850237E+01  0.4527453451374E+00  0.0000000000000E+00
-0.9870482476130E+00  0.5420791726694E+00  0.0000000000000E+00
-0.9384253407834E+00  0.6276922534130E+00  0.0000000000000E+00
-0.1079345447527E+01 -0.1160485628335E+01  0.0000000000000E+00
-0.1088927880796E+01 -0.1060419100010E+01  0.0000000000000E+00
-0.1097186364004E+01 -0.9602352861308E+00  0.0000000000000E+00
-0.1104164044982E+01 -0.8599657970238E+00  0.0000000000000E+00
-0.1109815692080E+01 -0.7596322946440E+00  0.0000000000000E+00
-0.1114024781889E+01 -0.6592518577578E+00  0.0000000000000E+00
-0.1116616271746E+01 -0.5588386691759E+00  0.0000000000000E+00
-0.1117543182861E+01 -0.4584136833277E+00  0.0000000000000E+00
-0.1116839736418E+01 -0.3579891273662E+00  0.0000000000000E+00
-0.1114563450071E+01 -0.2575571845612E+00  0.0000000000000E+00
-0.1110957580214E+01 -0.1571017335495E+00  0.0000000000000E+00
-0.1106622700657E+01 -0.5660700602692E-01  0.0000000000000E+00
-0.1098375441635E+01  0.4376873057499E-01  0.0000000000000E+00
-0.1083248077473E+01  0.1433163333524E+00  0.0000000000000E+00
-0.1060786808803E+01  0.2411019226662E+00  0.0000000000000E+00
-0.1030981332248E+01  0.3361414655265E+00  0.0000000000000E+00
-0.9950045357551E+00  0.4280214892357E+00  0.0000000000000E+00
-0.9541737340612E+00  0.5167428051204E+00  0.0000000000000E+00
-0.9089257121358E+00  0.6020109880922E+00  0.0000000000000E+00
-0.1046086938387E+01 -0.1161954563296E+01  0.0000000000000E+00
-0.1054826529285E+01 -0.1063371266999E+01  0.0000000000000E+00
-0.1062260714631E+01 -0.9646816953809E+00  0.0000000000000E+00
-0.1068417285485E+01 -0.8659166923280E+00  0.0000000000000E+00
-0.1073241748349E+01 -0.7670985138546E+00  0.0000000000000E+00
-0.1076614814163E+01 -0.6682457714443E+00  0.0000000000000E+00
-0.1078367748801E+01 -0.5693746138828E+00  0.0000000000000E+00
-0.1078460581150E+01 -0.4705065763753E+00  0.0000000000000E+00
-0.1076946155566E+01 -0.3716524085200E+00  0.0000000000000E+00
-0.1073920699005E+01 -0.2727999874270E+00  0.0000000000000E+00
-0.1069667934581E+01 -0.1739258664516E+00  0.0000000000000E+00
-0.1064801416874E+01 -0.7500692485010E-01  0.0000000000000E+00
-0.1056425784456E+01  0.2381565181134E-01  0.0000000000000E+00
-0.1041822853810E+01  0.1218878070883E+00  0.0000000000000E+00
-0.1020577127143E+01  0.2183453055823E+00  0.0000000000000E+00
-0.9926719373617E+00  0.3122767521888E+00  0.0000000000000E+00
-0.9591782212728E+00  0.4032976333339E+00  0.0000000000000E+00
-0.9212992205094E+00  0.4914064375713E+00  0.0000000000000E+00
-0.8794260834883E+00  0.5763297227714E+00  0.0000000000000E+00
-0.1012828429247E+01 -0.1163423498256E+01  0.0000000000000E+00
-0.1020725177774E+01 -0.1066323433989E+01  0.0000000000000E+00
-0.1027335065259E+01 -0.9691281046309E+00  0.0000000000000E+00
-0.1032670525987E+01 -0.8718675876321E+00  0.0000000000000E+00
-0.1036667804617E+01 -0.7745647330652E+00  0.0000000000000E+00
-0.1039204846437E+01 -0.6772396851308E+00  0.0000000000000E+00
-0.1040119225855E+01 -0.5799105585897E+00  0.0000000000000E+00
-0.1039377979440E+01 -0.4825994694230E+00  0.0000000000000E+00
-0.1037052574714E+01 -0.3853156896739E+00  0.0000000000000E+00
-0.1033277947938E+01 -0.2880427902927E+00  0.0000000000000E+00
-0.1028378288949E+01 -0.1907499993537E+00  0.0000000000000E+00
-0.1022980133092E+01 -0.9340684367328E-01  0.0000000000000E+00
-0.1014476127276E+01  0.3862573047696E-02  0.0000000000000E+00
-0.1000397630148E+01  0.1004592808241E+00  0.0000000000000E+00
-0.9803674454841E+00  0.1955886884984E+00  0.0000000000000E+00
-0.9543625424755E+00  0.2884120388510E+00  0.0000000000000E+00
-0.9233519067904E+00  0.3785737774322E+00  0.0000000000000E+00
-0.8884247069577E+00  0.4660700700223E+00  0.0000000000000E+00
-0.8499264548408E+00  0.5506484574506E+00  0.0000000000000E+00
-0.9795699201063E+00 -0.1164892433216E+01  0.0000000000000E+00
-0.9866238262626E+00 -0.1069275600978E+01  0.0000000000000E+00
-0.9924094158868E+00 -0.9735745138810E+00  0.0000000000000E+00
-0.9969237664891E+00 -0.8778184829363E+00  0.0000000000000E+00
-0.1000093860885E+01 -0.7820309522758E+00  0.0000000000000E+00
-0.1001794878711E+01 -0.6862335988173E+00  0.0000000000000E+00
-0.1001870702910E+01 -0.5904465032966E+00  0.0000000000000E+00
-0.1000295377729E+01 -0.4946923624706E+00  0.0000000000000E+00
-0.9971589938620E+00 -0.3989789708278E+00  0.0000000000000E+00
-0.9926351968715E+00 -0.3032855931585E+00  0.0000000000000E+00
-0.9870886433164E+00 -0.2075741322559E+00  0.0000000000000E+00
-0.9811588493097E+00 -0.1118067624965E+00  0.0000000000000E+00
-0.9725264700973E+00 -0.1609050571595E-01  0.0000000000000E+00
-0.9589724064858E+00  0.7903075455998E-01  0.0000000000000E+00
-0.9401577638249E+00  0.1728320714145E+00  0.0000000000000E+00
-0.9160531475893E+00  0.2645473255133E+00  0.0000000000000E+00
-0.8875255923080E+00  0.3538499215304E+00  0.0000000000000E+00
-0.8555501934059E+00  0.4407337024732E+00  0.0000000000000E+00
-0.8204268261932E+00  0.5249671921297E+00  0.0000000000000E+00
-0.9463114109659E+00 -0.1166361368177E+01  0.0000000000000E+00
-0.9525224747514E+00 -0.1072227767967E+01  0.0000000000000E+00
-0.9574837665145E+00 -0.9780209231311E+00  0.0000000000000E+00
-0.9611770069914E+00 -0.8837693782404E+00  0.0000000000000E+00
-0.9635199171535E+00 -0.7894971714864E+00  0.0000000000000E+00
-0.9643849109855E+00 -0.6952275125039E+00  0.0000000000000E+00
-0.9636221799641E+00 -0.6009824480035E+00  0.0000000000000E+00
-0.9612127760186E+00 -0.5067852555182E+00  0.0000000000000E+00
-0.9572654130098E+00 -0.4126422519817E+00  0.0000000000000E+00
-0.9519924458049E+00 -0.3185283960243E+00  0.0000000000000E+00
-0.9457989976841E+00 -0.2243982651580E+00  0.0000000000000E+00
-0.9393375655272E+00 -0.1302066813196E+00  0.0000000000000E+00
-0.9305768129182E+00 -0.3604358447960E-01  0.0000000000000E+00
-0.9175471828235E+00  0.5760222829584E-01  0.0000000000000E+00
-0.8999480821656E+00  0.1500754543306E+00  0.0000000000000E+00
-0.8777437527031E+00  0.2406826121755E+00  0.0000000000000E+00
-0.8516992778257E+00  0.3291260656287E+00  0.0000000000000E+00
-0.8226756798541E+00  0.4153973349242E+00  0.0000000000000E+00
-0.7909271975457E+00  0.4992859268089E+00  0.0000000000000E+00
-0.9130529018256E+00 -0.1167830303137E+01  0.0000000000000E+00
-0.9184211232403E+00 -0.1075179934956E+01  0.0000000000000E+00
-0.9225581171422E+00 -0.9824673323812E+00  0.0000000000000E+00
-0.9254302474937E+00 -0.8897202735446E+00  0.0000000000000E+00
-0.9269459734218E+00 -0.7969633906971E+00  0.0000000000000E+00
-0.9269749432596E+00 -0.7042214261904E+00  0.0000000000000E+00
-0.9253736570186E+00 -0.6115183927104E+00  0.0000000000000E+00
-0.9221301743080E+00 -0.5188781485659E+00  0.0000000000000E+00
-0.9173718321577E+00 -0.4263055331355E+00  0.0000000000000E+00
-0.9113496947383E+00 -0.3337711988900E+00  0.0000000000000E+00
-0.9045093520517E+00 -0.2412223980602E+00  0.0000000000000E+00
-0.8975162817448E+00 -0.1486066001428E+00  0.0000000000000E+00
-0.8886271557392E+00 -0.5599666324325E-01  0.0000000000000E+00
-0.8761219591612E+00  0.3617370203170E-01  0.0000000000000E+00
-0.8597384005064E+00  0.1273188372467E+00  0.0000000000000E+00
-0.8394343578169E+00  0.2168178988378E+00  0.0000000000000E+00
-0.8158729633433E+00  0.3044022097269E+00  0.0000000000000E+00
-0.7898011663024E+00  0.3900609673752E+00  0.0000000000000E+00
-0.7614275688981E+00  0.4736046614881E+00  0.0000000000000E+00
-0.8797943926852E+00 -0.1169299238097E+01  0.0000000000000E+00
-0.8843197717291E+00 -0.1078132101946E+01  0.0000000000000E+00
-0.8876324677699E+00 -0.9869137416313E+00  0.0000000000000E+00
-0.8896834879960E+00 -0.8956711688487E+00  0.0000000000000E+00
-0.8903720296900E+00 -0.8044296099077E+00  0.0000000000000E+00
-0.8895649755337E+00 -0.7132153398769E+00  0.0000000000000E+00
-0.8871251340730E+00 -0.6220543374173E+00  0.0000000000000E+00
-0.8830475725975E+00 -0.5309710416135E+00  0.0000000000000E+00
-0.8774782513056E+00 -0.4399688142894E+00  0.0000000000000E+00
-0.8707069436717E+00 -0.3490140017558E+00  0.0000000000000E+00
-0.8632197064193E+00 -0.2580465309623E+00  0.0000000000000E+00
-0.8556949979624E+00 -0.1670065189660E+00  0.0000000000000E+00
-0.8466774985601E+00 -0.7594974200689E-01  0.0000000000000E+00
-0.8346967354989E+00  0.1474517576755E-01  0.0000000000000E+00
-0.8195287188472E+00  0.1045622201628E+00  0.0000000000000E+00
-0.8011249629307E+00  0.1929531855000E+00  0.0000000000000E+00
-0.7800466488610E+00  0.2796783538252E+00  0.0000000000000E+00
-0.7569266527506E+00  0.3647245998261E+00  0.0000000000000E+00
-0.7319279402506E+00  0.4479233961672E+00  0.0000000000000E+00
-0.8465358835449E+00 -0.1170768173058E+01  0.0000000000000E+00
-0.8502184202179E+00 -0.1081084268935E+01  0.0000000000000E+00
-0.8527068183976E+00 -0.9913601508814E+00  0.0000000000000E+00
-0.8539367284983E+00 -0.9016220641529E+00  0.0000000000000E+00
-0.8537980859583E+00 -0.8118958291183E+00  0.0000000000000E+00
-0.8521550078078E+00 -0.7222092535634E+00  0.0000000000000E+00
-0.8488766111274E+00 -0.6325902821242E+00  0.0000000000000E+00
-0.8439649708870E+00 -0.5430639346611E+00  0.0000000000000E+00
-0.8375846704535E+00 -0.4536320954433E+00  0.0000000000000E+00
-0.8300641926051E+00 -0.3642568046215E+00  0.0000000000000E+00
-0.8219300607870E+00 -0.2748706638644E+00  0.0000000000000E+00
-0.8138737141800E+00 -0.1854064377892E+00  0.0000000000000E+00
-0.8047278413810E+00 -0.9590282077054E-01  0.0000000000000E+00
-0.7932715118366E+00 -0.6683350496594E-02  0.0000000000000E+00
-0.7793190371880E+00  0.8180560307893E-01  0.0000000000000E+00
-0.7628155680445E+00  0.1690884721623E+00  0.0000000000000E+00
-0.7442203343786E+00  0.2549544979234E+00  0.0000000000000E+00
-0.7240521391988E+00  0.3393882322771E+00  0.0000000000000E+00
-0.7024283116030E+00  0.4222421308464E+00  0.0000000000000E+00
-0.8132773744045E+00 -0.1172237108018E+01  0.0000000000000E+00
-0.8161170687067E+00 -0.1084036435924E+01  0.0000000000000E+00
-0.8177811690253E+00 -0.9958065601315E+00  0.0000000000000E+00
-0.8181899690006E+00 -0.9075729594570E+00  0.0000000000000E+00
-0.8172241422266E+00 -0.8193620483289E+00  0.0000000000000E+00
-0.8147450400819E+00 -0.7312031672500E+00  0.0000000000000E+00
-0.8106280881819E+00 -0.6431262268311E+00  0.0000000000000E+00
-0.8048823691764E+00 -0.5551568277088E+00  0.0000000000000E+00
-0.7976910896013E+00 -0.4672953765972E+00  0.0000000000000E+00
-0.7894214415385E+00 -0.3794996074873E+00  0.0000000000000E+00
-0.7806404151546E+00 -0.2916947967666E+00  0.0000000000000E+00
-0.7720524303976E+00 -0.2038063566123E+00  0.0000000000000E+00
-0.7627781842019E+00 -0.1158558995342E+00  0.0000000000000E+00
-0.7518462881743E+00 -0.2811187676074E-01  0.0000000000000E+00
-0.7391093555288E+00  0.5904898599503E-01  0.0000000000000E+00
-0.7245061731583E+00  0.1452237588245E+00  0.0000000000000E+00
-0.7083940198962E+00  0.2302306420217E+00  0.0000000000000E+00
-0.6911776256471E+00  0.3140518647280E+00  0.0000000000000E+00
-0.6729286829555E+00  0.3965608655256E+00  0.0000000000000E+00
-0.7800188652641E+00 -0.1173706042978E+01  0.0000000000000E+00
-0.7820157171956E+00 -0.1086988602913E+01  0.0000000000000E+00
-0.7828555196530E+00 -0.1000252969382E+01  0.0000000000000E+00
-0.7824432095029E+00 -0.9135238547612E+00  0.0000000000000E+00
-0.7806501984949E+00 -0.8268282675395E+00  0.0000000000000E+00
-0.7773350723560E+00 -0.7401970809365E+00  0.0000000000000E+00
-0.7723795652363E+00 -0.6536621715381E+00  0.0000000000000E+00
-0.7657997674659E+00 -0.5672497207564E+00  0.0000000000000E+00
-0.7577975087492E+00 -0.4809586577510E+00  0.0000000000000E+00
-0.7487786904719E+00 -0.3947424103531E+00  0.0000000000000E+00
-0.7393507695222E+00 -0.3085189296687E+00  0.0000000000000E+00
-0.7302311466152E+00 -0.2222062754355E+00  0.0000000000000E+00
-0.7208285270228E+00 -0.1358089782978E+00  0.0000000000000E+00
-0.7104210645120E+00 -0.4954040302488E-01  0.0000000000000E+00
-0.6988996738695E+00  0.3629236891114E-01  0.0000000000000E+00
-0.6861967782721E+00  0.1213590454868E+00  0.0000000000000E+00
-0.6725677054139E+00  0.2055067861199E+00  0.0000000000000E+00
-0.6583031120953E+00  0.2887154971790E+00  0.0000000000000E+00
-0.6434290543080E+00  0.3708796002047E+00  0.0000000000000E+00
-0.7467603561238E+00 -0.1175174977939E+01  0.0000000000000E+00
-0.7479143656844E+00 -0.1089940769903E+01  0.0000000000000E+00
-0.7479298702806E+00 -0.1004699378632E+01  0.0000000000000E+00
-0.7466964500052E+00 -0.9194747500653E+00  0.0000000000000E+00
-0.7440762547632E+00 -0.8342944867502E+00  0.0000000000000E+00
-0.7399251046301E+00 -0.7491909946230E+00  0.0000000000000E+00
-0.7341310422907E+00 -0.6641981162450E+00  0.0000000000000E+00
-0.7267171657554E+00 -0.5793426138040E+00  0.0000000000000E+00
-0.7179039278971E+00 -0.4946219389049E+00  0.0000000000000E+00
-0.7081359394053E+00 -0.4099852132188E+00  0.0000000000000E+00
-0.6980611238899E+00 -0.3253430625709E+00  0.0000000000000E+00
-0.6884098628328E+00 -0.2406061942587E+00  0.0000000000000E+00
-0.6788788698437E+00 -0.1557620570615E+00  0.0000000000000E+00
-0.6689958408497E+00 -0.7096892928903E-01  0.0000000000000E+00
-0.6586899922103E+00  0.1353575182724E-01  0.0000000000000E+00
-0.6478873833859E+00  0.9749433214906E-01  0.0000000000000E+00
-0.6367413909315E+00  0.1807829302182E+00  0.0000000000000E+00
-0.6254285985435E+00  0.2633791296299E+00  0.0000000000000E+00
-0.6139294256604E+00  0.3451983348839E+00  0.0000000000000E+00
-0.7135018469834E+00 -0.1176643912899E+01  0.0000000000000E+00
-0.7138130141732E+00 -0.1092892936892E+01  0.0000000000000E+00
-0.7130042209083E+00 -0.1009145787882E+01  0.0000000000000E+00
-0.7109496905075E+00 -0.9254256453695E+00  0.0000000000000E+00
-0.7075023110315E+00 -0.8417607059608E+00  0.0000000000000E+00
-0.7025151369042E+00 -0.7581849083095E+00  0.0000000000000E+00
-0.6958825193452E+00 -0.6747340609519E+00  0.0000000000000E+00
-0.6876345640448E+00 -0.5914355068517E+00  0.0000000000000E+00
-0.6780103470450E+00 -0.5082852200588E+00  0.0000000000000E+00
-0.6674931883387E+00 -0.4252280160846E+00  0.0000000000000E+00
-0.6567714782575E+00 -0.3421671954730E+00  0.0000000000000E+00
-0.6465885790503E+00 -0.2590061130819E+00  0.0000000000000E+00
-0.6369292126646E+00 -0.1757151358251E+00  0.0000000000000E+00
-0.6275706171874E+00 -0.9239745555317E-01  0.0000000000000E+00
-0.6184803105511E+00 -0.9220865256651E-02  0.0000000000000E+00
-0.6095779884997E+00  0.7362961881131E-01  0.0000000000000E+00
-0.6009150764492E+00  0.1560590743164E+00  0.0000000000000E+00
-0.5925540849918E+00  0.2380427620809E+00  0.0000000000000E+00
-0.5844297970129E+00  0.3195170695631E+00  0.0000000000000E+00
-0.6802433378431E+00 -0.1178112847859E+01  0.0000000000000E+00
-0.6797116626621E+00 -0.1095845103881E+01  0.0000000000000E+00
-0.6780785715360E+00 -0.1013592197132E+01  0.0000000000000E+00
-0.6752029310098E+00 -0.9313765406736E+00  0.0000000000000E+00
-0.6709283672997E+00 -0.8492269251714E+00  0.0000000000000E+00
-0.6651051691783E+00 -0.7671788219961E+00  0.0000000000000E+00
-0.6576339963996E+00 -0.6852700056588E+00  0.0000000000000E+00
-0.6485519623343E+00 -0.6035283998993E+00  0.0000000000000E+00
-0.6381167661928E+00 -0.5219485012127E+00  0.0000000000000E+00
-0.6268504372721E+00 -0.4404708189504E+00  0.0000000000000E+00
-0.6154818326251E+00 -0.3589913283751E+00  0.0000000000000E+00
-0.6047672952679E+00 -0.2774060319051E+00  0.0000000000000E+00
-0.5949795554855E+00 -0.1956682145888E+00  0.0000000000000E+00
-0.5861453935251E+00 -0.1138259818173E+00  0.0000000000000E+00
-0.5782706288919E+00 -0.3197748234054E-01  0.0000000000000E+00
-0.5712685936135E+00  0.4976490547357E-01  0.0000000000000E+00
-0.5650887619668E+00  0.1313352184147E+00  0.0000000000000E+00
-0.5596795714400E+00  0.2127063945319E+00  0.0000000000000E+00
-0.5549301683653E+00  0.2938358042423E+00  0.0000000000000E+00
 0.6802433484435E+00 -0.1178112847849E+01  0.0000000000000E+00
 0.6797116720780E+00 -0.1095845103875E+01  0.0000000000000E+00
 0.6780785797770E+00 -0.1013592197145E+01  0.0000000000000E+00
 0.6752029380933E+00 -0.9313765407239E+00  0.0000000000000E+00
 0.6709283732554E+00 -0.8492269252769E+00  0.0000000000000E+00
 0.6651051740529E+00 -0.7671788221750E+00  0.0000000000000E+00
 0.6576340002627E+00 -0.6852700059262E+00  0.0000000000000E+00
 0.6485519652821E+00 -0.6035284002639E+00  0.0000000000000E+00
 0.6381167683488E+00 -0.5219485016727E+00  0.0000000000000E+00
 0.6268504387797E+00 -0.4404708194920E+00  0.0000000000000E+00
 0.6154818336317E+00 -0.3589913289766E+00  0.0000000000000E+00
 0.6047672959142E+00 -0.2774060325421E+00  0.0000000000000E+00
 0.5949795559123E+00 -0.1956682152389E+00  0.0000000000000E+00
 0.5861453938334E+00 -0.1138259824613E+00  0.0000000000000E+00
 0.5782706291498E+00 -0.3197748296223E-01  0.0000000000000E+00
 0.5712685938666E+00  0.4976490488478E-01  0.0000000000000E+00
 0.5650887622411E+00  0.1313352178655E+00  0.0000000000000E+00
 0.5596795717538E+00  0.2127063940286E+00  0.0000000000000E+00
 0.5549301687313E+00  0.2938358037924E+00  0.0000000000000E+00
 0.7135018570198E+00 -0.1176643912919E+01  0.0000000000000E+00
 0.7138130230836E+00 -0.1092892936945E+01  0.0000000000000E+00
 0.7130042287029E+00 -0.1009145787984E+01  0.0000000000000E+00
 0.7109496972034E+00 -0.9254256455366E+00  0.0000000000000E+00
 0.7075023166577E+00 -0.8417607062105E+00  0.0000000000000E+00
 0.7025151415061E+00 -0.7581849086590E+00  0.0000000000000E+00
 0.6958825229899E+00 -0.6747340614155E+00  0.0000000000000E+00
 0.6876345668242E+00 -0.5914355074377E+00  0.0000000000000E+00
 0.6780103490774E+00 -0.5082852207655E+00  0.0000000000000E+00
 0.6674931897617E+00 -0.4252280168988E+00  0.0000000000000E+00
 0.6567714792105E+00 -0.3421671963741E+00  0.0000000000000E+00
 0.6465885796710E+00 -0.2590061140468E+00  0.0000000000000E+00
 0.6369292131142E+00 -0.1757151368302E+00  0.0000000000000E+00
 0.6275706175752E+00 -0.9239745657483E-01  0.0000000000000E+00
 0.6184803109469E+00 -0.9220866271635E-02  0.0000000000000E+00
 0.6095779889493E+00  0.7362961781919E-01  0.0000000000000E+00
 0.6009150769751E+00  0.1560590733582E+00  0.0000000000000E+00
 0.5925540856125E+00  0.2380427611681E+00  0.0000000000000E+00
 0.5844297977438E+00  0.3195170687102E+00  0.0000000000000E+00
 0.7467603655960E+00 -0.1175174977988E+01  0.0000000000000E+00
 0.7479143740892E+00 -0.1089940770016E+01  0.0000000000000E+00
 0.7479298776287E+00 -0.1004699378822E+01  0.0000000000000E+00
 0.7466964563136E+00 -0.9194747503494E+00  0.0000000000000E+00
 0.7440762600600E+00 -0.8342944871440E+00  0.0000000000000E+00
 0.7399251089593E+00 -0.7491909951431E+00  0.0000000000000E+00
 0.7341310457170E+00 -0.6641981169049E+00  0.0000000000000E+00
 0.7267171683664E+00 -0.5793426146115E+00  0.0000000000000E+00
 0.7179039298061E+00 -0.4946219398584E+00  0.0000000000000E+00
 0.7081359407437E+00 -0.4099852143056E+00  0.0000000000000E+00
 0.6980611247893E+00 -0.3253430637716E+00  0.0000000000000E+00
 0.6884098634278E+00 -0.2406061955515E+00  0.0000000000000E+00
 0.6788788703161E+00 -0.1557620584214E+00  0.0000000000000E+00
 0.6689958413171E+00 -0.7096893068838E-01  0.0000000000000E+00
 0.6586899927439E+00  0.1353575041896E-01  0.0000000000000E+00
 0.6478873840319E+00  0.9749433075359E-01  0.0000000000000E+00
 0.6367413917090E+00  0.1807829288509E+00  0.0000000000000E+00
 0.6254285994712E+00  0.2633791283076E+00  0.0000000000000E+00
 0.6139294267563E+00  0.3451983336280E+00  0.0000000000000E+00
 0.7800188741723E+00 -0.1173706043058E+01  0.0000000000000E+00
 0.7820157250948E+00 -0.1086988603087E+01  0.0000000000000E+00
 0.7828555265545E+00 -0.1000252969661E+01  0.0000000000000E+00
 0.7824432154237E+00 -0.9135238551621E+00  0.0000000000000E+00
 0.7806502034623E+00 -0.8268282680776E+00  0.0000000000000E+00
 0.7773350764125E+00 -0.7401970816272E+00  0.0000000000000E+00
 0.7723795684441E+00 -0.6536621723942E+00  0.0000000000000E+00
 0.7657997699086E+00 -0.5672497217854E+00  0.0000000000000E+00
 0.7577975105347E+00 -0.4809586589513E+00  0.0000000000000E+00
 0.7487786917257E+00 -0.3947424117123E+00  0.0000000000000E+00
 0.7393507703682E+00 -0.3085189311692E+00  0.0000000000000E+00
 0.7302311471845E+00 -0.2222062770562E+00  0.0000000000000E+00
 0.7208285275179E+00 -0.1358089800127E+00  0.0000000000000E+00
 0.7104210650589E+00 -0.4954040480193E-01  0.0000000000000E+00
 0.6988996745410E+00  0.3629236710956E-01  0.0000000000000E+00
 0.6861967791145E+00  0.1213590436880E+00  0.0000000000000E+00
 0.6725677064430E+00  0.2055067843436E+00  0.0000000000000E+00
 0.6583031133299E+00  0.2887154954471E+00  0.0000000000000E+00
 0.6434290557688E+00  0.3708795985458E+00  0.0000000000000E+00
 0.8132773827486E+00 -0.1172237108128E+01  0.0000000000000E+00
 0.8161170761004E+00 -0.1084036436157E+01  0.0000000000000E+00
 0.8177811754804E+00 -0.9958065604997E+00  0.0000000000000E+00
 0.8181899745339E+00 -0.9075729599749E+00  0.0000000000000E+00
 0.8172241468646E+00 -0.8193620490111E+00  0.0000000000000E+00
 0.8147450438657E+00 -0.7312031681112E+00  0.0000000000000E+00
 0.8106280911713E+00 -0.6431262278835E+00  0.0000000000000E+00
 0.8048823714508E+00 -0.5551568289592E+00  0.0000000000000E+00
 0.7976910912633E+00 -0.4672953780442E+00  0.0000000000000E+00
 0.7894214427077E+00 -0.3794996091191E+00  0.0000000000000E+00
 0.7806404159470E+00 -0.2916947985667E+00  0.0000000000000E+00
 0.7720524309413E+00 -0.2038063585610E+00  0.0000000000000E+00
 0.7627781847198E+00 -0.1158559016039E+00  0.0000000000000E+00
 0.7518462888007E+00 -0.2811187891548E-01  0.0000000000000E+00
 0.7391093563381E+00  0.5904898380016E-01  0.0000000000000E+00
 0.7245061741971E+00  0.1452237566224E+00  0.0000000000000E+00
 0.7083940211769E+00  0.2302306398363E+00  0.0000000000000E+00
 0.6911776271886E+00  0.3140518625866E+00  0.0000000000000E+00
 0.6729286847813E+00  0.3965608634636E+00  0.0000000000000E+00
 0.8465358913249E+00 -0.1170768173198E+01  0.0000000000000E+00
 0.8502184271060E+00 -0.1081084269228E+01  0.0000000000000E+00
 0.8527068244062E+00 -0.9913601513384E+00  0.0000000000000E+00
 0.8539367336440E+00 -0.9016220647876E+00  0.0000000000000E+00
 0.8537980902669E+00 -0.8118958299447E+00  0.0000000000000E+00
 0.8521550113189E+00 -0.7222092545953E+00  0.0000000000000E+00
 0.8488766138984E+00 -0.6325902833728E+00  0.0000000000000E+00
 0.8439649729930E+00 -0.5430639361330E+00  0.0000000000000E+00
 0.8375846719920E+00 -0.4536320971370E+00  0.0000000000000E+00
 0.8300641936896E+00 -0.3642568065259E+00  0.0000000000000E+00
 0.8219300615258E+00 -0.2748706659642E+00  0.0000000000000E+00
 0.8138737146981E+00 -0.1854064400657E+00  0.0000000000000E+00
 0.8047278419217E+00 -0.9590282319517E-01  0.0000000000000E+00
 0.7932715125426E+00 -0.6683353029025E-02  0.0000000000000E+00
 0.7793190381351E+00  0.8180560049076E-01  0.0000000000000E+00
 0.7628155692797E+00  0.1690884695568E+00  0.0000000000000E+00
 0.7442203359109E+00  0.2549544953290E+00  0.0000000000000E+00
 0.7240521410473E+00  0.3393882297260E+00  0.0000000000000E+00
 0.7024283137938E+00  0.4222421283815E+00  0.0000000000000E+00
 0.8797943999012E+00 -0.1169299238267E+01  0.0000000000000E+00
 0.8843197781116E+00 -0.1078132102298E+01  0.0000000000000E+00
 0.8876324733320E+00 -0.9869137421770E+00  0.0000000000000E+00
 0.8896834927542E+00 -0.8956711696004E+00  0.0000000000000E+00
 0.8903720336692E+00 -0.8044296108782E+00  0.0000000000000E+00
 0.8895649787720E+00 -0.7132153410794E+00  0.0000000000000E+00
 0.8871251366255E+00 -0.6220543388621E+00  0.0000000000000E+00
 0.8830475745352E+00 -0.5309710433068E+00  0.0000000000000E+00
 0.8774782527206E+00 -0.4399688162299E+00  0.0000000000000E+00
 0.8707069446716E+00 -0.3490140039327E+00  0.0000000000000E+00
 0.8632197071046E+00 -0.2580465333617E+00  0.0000000000000E+00
 0.8556949984549E+00 -0.1670065215704E+00  0.0000000000000E+00
 0.8466774991235E+00 -0.7594974478642E-01  0.0000000000000E+00
 0.8346967362844E+00  0.1474517285743E-01  0.0000000000000E+00
 0.8195287199322E+00  0.1045622171814E+00  0.0000000000000E+00
 0.8011249643623E+00  0.1929531824912E+00  0.0000000000000E+00
 0.7800466506448E+00  0.2796783508217E+00  0.0000000000000E+00
 0.7569266549060E+00  0.3647245968655E+00  0.0000000000000E+00
 0.7319279428062E+00  0.4479233932993E+00  0.0000000000000E+00
 0.9130529084775E+00 -0.1167830303337E+01  0.0000000000000E+00
 0.9184211291173E+00 -0.1075179935369E+01  0.0000000000000E+00
 0.9225581222579E+00 -0.9824673330156E+00  0.0000000000000E+00
 0.9254302518643E+00 -0.8897202744131E+00  0.0000000000000E+00
 0.9269459770715E+00 -0.7969633918117E+00  0.0000000000000E+00
 0.9269749462252E+00 -0.7042214275634E+00  0.0000000000000E+00
 0.9253736593527E+00 -0.6115183943514E+00  0.0000000000000E+00
 0.9221301760774E+00 -0.5188781504806E+00  0.0000000000000E+00
 0.9173718334493E+00 -0.4263055353228E+00  0.0000000000000E+00
 0.9113496956536E+00 -0.3337712013394E+00  0.0000000000000E+00
 0.9045093526834E+00 -0.2412224007593E+00  0.0000000000000E+00
 0.8975162822117E+00 -0.1486066030751E+00  0.0000000000000E+00
 0.8886271563254E+00 -0.5599666637767E-01  0.0000000000000E+00
 0.8761219600262E+00  0.3617369874388E-01  0.0000000000000E+00
 0.8597384017292E+00  0.1273188338720E+00  0.0000000000000E+00
 0.8394343594449E+00  0.2168178954256E+00  0.0000000000000E+00
 0.8158729653788E+00  0.3044022063144E+00  0.0000000000000E+00
 0.7898011687647E+00  0.3900609640050E+00  0.0000000000000E+00
 0.7614275718187E+00  0.4736046582171E+00  0.0000000000000E+00
 0.9463114170538E+00 -0.1166361368407E+01  0.0000000000000E+00
 0.9525224801229E+00 -0.1072227768440E+01  0.0000000000000E+00
 0.9574837711837E+00 -0.9780209238543E+00  0.0000000000000E+00
 0.9611770109745E+00 -0.8837693792259E+00  0.0000000000000E+00
 0.9635199204738E+00 -0.7894971727453E+00  0.0000000000000E+00
 0.9643849136784E+00 -0.6952275140475E+00  0.0000000000000E+00
 0.9636221820798E+00 -0.6009824498407E+00  0.0000000000000E+00
 0.9612127776196E+00 -0.5067852576544E+00  0.0000000000000E+00
 0.9572654141779E+00 -0.4126422544157E+00  0.0000000000000E+00
 0.9519924466356E+00 -0.3185283987462E+00  0.0000000000000E+00
 0.9457989982622E+00 -0.2243982681568E+00  0.0000000000000E+00
 0.9393375659685E+00 -0.1302066845798E+00  0.0000000000000E+00
 0.9305768135273E+00 -0.3604358796892E-01  0.0000000000000E+00
 0.9175471837681E+00  0.5760222463033E-01  0.0000000000000E+00
 0.8999480835263E+00  0.1500754505626E+00  0.0000000000000E+00
 0.8777437545275E+00  0.2406826083600E+00  0.0000000000000E+00
 0.8516992801127E+00  0.3291260618070E+00  0.0000000000000E+00
 0.8226756826234E+00  0.4153973311445E+00  0.0000000000000E+00
 0.7909272008312E+00  0.4992859231349E+00  0.0000000000000E+00
 0.9795699256300E+00 -0.1164892433477E+01  0.0000000000000E+00
 0.9866238311285E+00 -0.1069275601510E+01  0.0000000000000E+00
 0.9924094201095E+00 -0.9735745146929E+00  0.0000000000000E+00
 0.9969237700846E+00 -0.8778184840386E+00  0.0000000000000E+00
 0.1000093863876E+01 -0.7820309536788E+00  0.0000000000000E+00
 0.1001794881132E+01 -0.6862336005316E+00  0.0000000000000E+00
 0.1001870704807E+01 -0.5904465053301E+00  0.0000000000000E+00
 0.1000295379162E+01 -0.4946923648282E+00  0.0000000000000E+00
 0.9971589949066E+00 -0.3989789735085E+00  0.0000000000000E+00
 0.9926351976176E+00 -0.3032855961530E+00  0.0000000000000E+00
 0.9870886438410E+00 -0.2075741355543E+00  0.0000000000000E+00
 0.9811588497253E+00 -0.1118067660845E+00  0.0000000000000E+00
 0.9725264707291E+00 -0.1609050956017E-01  0.0000000000000E+00
 0.9589724075099E+00  0.7903075051678E-01  0.0000000000000E+00
 0.9401577653233E+00  0.1728320672532E+00  0.0000000000000E+00
 0.9160531496101E+00  0.2645473212944E+00  0.0000000000000E+00
 0.8875255948467E+00  0.3538499172997E+00  0.0000000000000E+00
 0.8555501964822E+00  0.4407336982840E+00  0.0000000000000E+00
 0.8204268298437E+00  0.5249671880527E+00  0.0000000000000E+00
 0.1012828434206E+01 -0.1163423498546E+01  0.0000000000000E+00
 0.1020725182134E+01 -0.1066323434581E+01  0.0000000000000E+00
 0.1027335069035E+01 -0.9691281055316E+00  0.0000000000000E+00
 0.1032670529195E+01 -0.8718675888514E+00  0.0000000000000E+00
 0.1036667807278E+01 -0.7745647346124E+00  0.0000000000000E+00
 0.1039204848585E+01 -0.6772396870156E+00  0.0000000000000E+00
 0.1040119227534E+01 -0.5799105608194E+00  0.0000000000000E+00
 0.1039377980704E+01 -0.4825994720020E+00  0.0000000000000E+00
 0.1037052575635E+01 -0.3853156926014E+00  0.0000000000000E+00
 0.1033277948600E+01 -0.2880427935598E+00  0.0000000000000E+00
 0.1028378289420E+01 -0.1907500029518E+00  0.0000000000000E+00
 0.1022980133482E+01 -0.9340684758923E-01  0.0000000000000E+00
 0.1014476127931E+01  0.3862568848579E-02  0.0000000000000E+00
 0.1000397631252E+01  0.1004592764032E+00  0.0000000000000E+00
 0.9803674471204E+00  0.1955886839438E+00  0.0000000000000E+00
 0.9543625446928E+00  0.2884120342288E+00  0.0000000000000E+00
 0.9233519095806E+00  0.3785737727924E+00  0.0000000000000E+00
 0.8884247103409E+00  0.4660700654235E+00  0.0000000000000E+00
 0.8499264588562E+00  0.5506484529706E+00  0.0000000000000E+00
 0.1046086942783E+01 -0.1161954563616E+01  0.0000000000000E+00
 0.1054826533140E+01 -0.1063371267651E+01  0.0000000000000E+00
 0.1062260717961E+01 -0.9646816963702E+00  0.0000000000000E+00
 0.1068417288305E+01 -0.8659166936641E+00  0.0000000000000E+00
 0.1073241750681E+01 -0.7670985155459E+00  0.0000000000000E+00
 0.1076614816038E+01 -0.6682457734997E+00  0.0000000000000E+00
 0.1078367750261E+01 -0.5693746163087E+00  0.0000000000000E+00
 0.1078460582246E+01 -0.4705065791758E+00  0.0000000000000E+00
 0.1076946156364E+01 -0.3716524116943E+00  0.0000000000000E+00
 0.1073920699582E+01 -0.2727999909666E+00  0.0000000000000E+00
 0.1069667934999E+01 -0.1739258703494E+00  0.0000000000000E+00
 0.1064801417239E+01 -0.7500692909395E-01  0.0000000000000E+00
 0.1056425785133E+01  0.2381564725733E-01  0.0000000000000E+00
 0.1041822854994E+01  0.1218878022897E+00  0.0000000000000E+00
 0.1020577128917E+01  0.2183453006344E+00  0.0000000000000E+00
 0.9926719397754E+00  0.3122767471633E+00  0.0000000000000E+00
 0.9591782243146E+00  0.4032976282851E+00  0.0000000000000E+00
 0.9212992241996E+00  0.4914064325630E+00  0.0000000000000E+00
 0.8794260878687E+00  0.5763297178884E+00  0.0000000000000E+00
 0.1079345451359E+01 -0.1160485628686E+01  0.0000000000000E+00
 0.1088927884145E+01 -0.1060419100722E+01  0.0000000000000E+00
 0.1097186366887E+01 -0.9602352872088E+00  0.0000000000000E+00
 0.1104164047415E+01 -0.8599657984769E+00  0.0000000000000E+00
 0.1109815694083E+01 -0.7596322964795E+00  0.0000000000000E+00
 0.1114024783491E+01 -0.6592518599838E+00  0.0000000000000E+00
 0.1116616272988E+01 -0.5588386717980E+00  0.0000000000000E+00
 0.1117543183788E+01 -0.4584136863497E+00  0.0000000000000E+00
 0.1116839737092E+01 -0.3579891307872E+00  0.0000000000000E+00
 0.1114563450564E+01 -0.2575571883733E+00  0.0000000000000E+00
 0.1110957580577E+01 -0.1571017377469E+00  0.0000000000000E+00
 0.1106622700996E+01 -0.5660701059866E-01  0.0000000000000E+00
 0.1098375442335E+01  0.4376872566608E-01  0.0000000000000E+00
 0.1083248078735E+01  0.1433163281761E+00  0.0000000000000E+00
 0.1060786810715E+01  0.2411019173250E+00  0.0000000000000E+00
 0.1030981334858E+01  0.3361414600977E+00  0.0000000000000E+00
 0.9950045390485E+00  0.4280214837778E+00  0.0000000000000E+00
 0.9541737380583E+00  0.5167427997025E+00  0.0000000000000E+00
 0.9089257168812E+00  0.6020109828062E+00  0.0000000000000E+00
 0.1112603959935E+01 -0.1159016693756E+01  0.0000000000000E+00
 0.1123029235151E+01 -0.1057466933793E+01  0.0000000000000E+00
 0.1132112015813E+01 -0.9557888780475E+00  0.0000000000000E+00
 0.1139910806525E+01 -0.8540149032896E+00  0.0000000000000E+00
 0.1146389637485E+01 -0.7521660774130E+00  0.0000000000000E+00
 0.1151434750944E+01 -0.6502579464678E+00  0.0000000000000E+00
 0.1154864795715E+01 -0.5483027272873E+00  0.0000000000000E+00
 0.1156625785331E+01 -0.4463207935235E+00  0.0000000000000E+00
 0.1156733317821E+01 -0.3443258498800E+00  0.0000000000000E+00
 0.1155206201545E+01 -0.2423143857801E+00  0.0000000000000E+00
 0.1152247226156E+01 -0.1402776051444E+00  0.0000000000000E+00
 0.1148443984752E+01 -0.3820709210337E-01  0.0000000000000E+00
 0.1140325099537E+01  0.6372180407483E-01  0.0000000000000E+00
 0.1124673302477E+01  0.1647448540626E+00  0.0000000000000E+00
 0.1100996492512E+01  0.2638585340156E+00  0.0000000000000E+00
 0.1069290729941E+01  0.3600061730321E+00  0.0000000000000E+00
 0.1030830853782E+01  0.4527453392705E+00  0.0000000000000E+00
 0.9870482519170E+00  0.5420791668420E+00  0.0000000000000E+00
 0.9384253458937E+00  0.6276922477240E+00  0.0000000000000E+00
 0.1145862468511E+01 -0.1157547758825E+01  0.0000000000000E+00
 0.1157130586157E+01 -0.1054514766863E+01  0.0000000000000E+00
 0.1167037664739E+01 -0.9513424688861E+00  0.0000000000000E+00
 0.1175657565635E+01 -0.8480640081024E+00  0.0000000000000E+00
 0.1182963580888E+01 -0.7446998583466E+00  0.0000000000000E+00
 0.1188844718398E+01 -0.6412640329519E+00  0.0000000000000E+00
 0.1193113318443E+01 -0.5377667827766E+00  0.0000000000000E+00
 0.1195708386873E+01 -0.4342279006973E+00  0.0000000000000E+00
 0.1196626898550E+01 -0.3306625689729E+00  0.0000000000000E+00
 0.1195848952527E+01 -0.2270715831869E+00  0.0000000000000E+00
 0.1193536871735E+01 -0.1234534725419E+00  0.0000000000000E+00
 0.1190265268509E+01 -0.1980717360809E-01  0.0000000000000E+00
 0.1182274756738E+01  0.8367488248358E-01  0.0000000000000E+00
 0.1166098526219E+01  0.1861733799490E+00  0.0000000000000E+00
 0.1141206174309E+01  0.2866151507062E+00  0.0000000000000E+00
 0.1107600125023E+01  0.3838708859665E+00  0.0000000000000E+00
 0.1066657168516E+01  0.4774691947632E+00  0.0000000000000E+00
 0.1019922765776E+01  0.5674155339815E+00  0.0000000000000E+00
 0.9679249749061E+00  0.6533735126418E+00  0.0000000000000E+00
 0.1179120977088E+01 -0.1156078823895E+01  0.0000000000000E+00
 0.1191231937162E+01 -0.1051562599934E+01  0.0000000000000E+00
 0.1201963313665E+01 -0.9468960597248E+00  0.0000000000000E+00
 0.1211404324746E+01 -0.8421131129151E+00  0.0000000000000E+00
 0.1219537524290E+01 -0.7372336392801E+00  0.0000000000000E+00
 0.1226254685851E+01 -0.6322701194360E+00  0.0000000000000E+00
 0.1231361841170E+01 -0.5272308382660E+00  0.0000000000000E+00
 0.1234790988415E+01 -0.4221350078711E+00  0.0000000000000E+00
 0.1236520479278E+01 -0.3169992880658E+00  0.0000000000000E+00
 0.1236491703509E+01 -0.2118287805937E+00  0.0000000000000E+00
 0.1234826517314E+01 -0.1066293399394E+00  0.0000000000000E+00
 0.1232086552266E+01 -0.1407255112799E-02  0.0000000000000E+00
 0.1224224413940E+01  0.1036279608923E+00  0.0000000000000E+00
 0.1207523749961E+01  0.2076019058355E+00  0.0000000000000E+00
 0.1181415856106E+01  0.3093717673968E+00  0.0000000000000E+00
 0.1145909520106E+01  0.4077355989009E+00  0.0000000000000E+00
 0.1102483483250E+01  0.5021930502559E+00  0.0000000000000E+00
 0.1052797279634E+01  0.5927519011209E+00  0.0000000000000E+00
 0.9974246039186E+00  0.6790547775596E+00  0.0000000000000E+00
 0.1212379485664E+01 -0.1154609888965E+01  0.0000000000000E+00
 0.1225333288168E+01 -0.1048610433004E+01  0.0000000000000E+00
 0.1236888962590E+01 -0.9424496505634E+00  0.0000000000000E+00
 0.1247151083856E+01 -0.8361622177279E+00  0.0000000000000E+00
 0.1256111467692E+01 -0.7297674202137E+00  0.0000000000000E+00
 0.1263664653304E+01 -0.6232762059200E+00  0.0000000000000E+00
 0.1269610363897E+01 -0.5166948937553E+00  0.0000000000000E+00
 0.1273873589957E+01 -0.4100421150449E+00  0.0000000000000E+00
 0.1276414060007E+01 -0.3033360071587E+00  0.0000000000000E+00
 0.1277134454491E+01 -0.1965859780004E+00  0.0000000000000E+00
 0.1276116162893E+01 -0.8980520733696E-01  0.0000000000000E+00
 0.1273907836023E+01  0.1699266338249E-01  0.0000000000000E+00
 0.1266174071142E+01  0.1235810393011E+00  0.0000000000000E+00
 0.1248948973703E+01  0.2290304317219E+00  0.0000000000000E+00
 0.1221625537903E+01  0.3321283840874E+00  0.0000000000000E+00
 0.1184218915188E+01  0.4316003118353E+00  0.0000000000000E+00
 0.1138309797984E+01  0.5269169057486E+00  0.0000000000000E+00
 0.1085671793493E+01  0.6180882682604E+00  0.0000000000000E+00
 0.1026924232931E+01  0.7047360424775E+00  0.0000000000000E+00
 0.1245637994240E+01 -0.1153140954035E+01  0.0000000000000E+00
 0.1259434639173E+01 -0.1045658266075E+01  0.0000000000000E+00
 0.1271814611516E+01 -0.9380032414020E+00  0.0000000000000E+00
 0.1282897842966E+01 -0.8302113225406E+00  0.0000000000000E+00
 0.1292685411094E+01 -0.7223012011472E+00  0.0000000000000E+00
 0.1301074620757E+01 -0.6142822924041E+00  0.0000000000000E+00
 0.1307858886624E+01 -0.5061589492446E+00  0.0000000000000E+00
 0.1312956191499E+01 -0.3979492222187E+00  0.0000000000000E+00
 0.1316307640736E+01 -0.2896727262515E+00  0.0000000000000E+00
 0.1317777205473E+01 -0.1813431754072E+00  0.0000000000000E+00
 0.1317405808471E+01 -0.7298107473448E-01  0.0000000000000E+00
 0.1315729119780E+01  0.3539258187777E-01  0.0000000000000E+00
 0.1308123728344E+01  0.1435341177098E+00  0.0000000000000E+00
 0.1290374197445E+01  0.2504589576084E+00  0.0000000000000E+00
 0.1261835219700E+01  0.3548850007780E+00  0.0000000000000E+00
 0.1222528310271E+01  0.4554650247697E+00  0.0000000000000E+00
 0.1174136112718E+01  0.5516407612413E+00  0.0000000000000E+00
 0.1118546307352E+01  0.6434246353999E+00  0.0000000000000E+00
 0.1056423861944E+01  0.7304173073953E+00  0.0000000000000E+00
 0.1278896502817E+01 -0.1151672019104E+01  0.0000000000000E+00
 0.1293535990179E+01 -0.1042706099146E+01  0.0000000000000E+00
 0.1306740260442E+01 -0.9335568322407E+00  0.0000000000000E+00
 0.1318644602076E+01 -0.8242604273534E+00  0.0000000000000E+00
 0.1329259354497E+01 -0.7148349820807E+00  0.0000000000000E+00
 0.1338484588210E+01 -0.6052883788882E+00  0.0000000000000E+00
 0.1346107409351E+01 -0.4956230047339E+00  0.0000000000000E+00
 0.1352038793042E+01 -0.3858563293925E+00  0.0000000000000E+00
 0.1356201221464E+01 -0.2760094453444E+00  0.0000000000000E+00
 0.1358419956455E+01 -0.1661003728140E+00  0.0000000000000E+00
 0.1358695454050E+01 -0.5615694213201E-01  0.0000000000000E+00
 0.1357550403536E+01  0.5379250037306E-01  0.0000000000000E+00
 0.1350073385546E+01  0.1634871961186E+00  0.0000000000000E+00
 0.1331799421186E+01  0.2718874834949E+00  0.0000000000000E+00
 0.1302044901497E+01  0.3776416174686E+00  0.0000000000000E+00
 0.1260837705354E+01  0.4793297377041E+00  0.0000000000000E+00
 0.1209962427452E+01  0.5763646167340E+00  0.0000000000000E+00
 0.1151420821211E+01  0.6687610025394E+00  0.0000000000000E+00
 0.1085923490956E+01  0.7560985723131E+00  0.0000000000000E+00
-0.5241075387717E+00  0.3828365024885E+00  0.0000000000000E+00
-0.5489124003152E+00  0.4100062281915E+00  0.0000000000000E+00
-0.5737172618587E+00  0.4371759538945E+00  0.0000000000000E+00
-0.5985221234022E+00  0.4643456795974E+00  0.0000000000000E+00
-0.6233269849456E+00  0.4915154053004E+00  0.0000000000000E+00
-0.6481318464891E+00  0.5186851310034E+00  0.0000000000000E+00
-0.6729367080326E+00  0.5458548567064E+00  0.0000000000000E+00
-0.6977415695760E+00  0.5730245824093E+00  0.0000000000000E+00
-0.7225464311195E+00  0.6001943081123E+00  0.0000000000000E+00
-0.7473512926630E+00  0.6273640338153E+00  0.0000000000000E+00
-0.7721561542064E+00  0.6545337595182E+00  0.0000000000000E+00
-0.7969610157499E+00  0.6817034852212E+00  0.0000000000000E+00
-0.8217658772934E+00  0.7088732109242E+00  0.0000000000000E+00
-0.8465707388369E+00  0.7360429366271E+00  0.0000000000000E+00
-0.8713756003803E+00  0.7632126623301E+00  0.0000000000000E+00
-0.8961804619238E+00  0.7903823880331E+00  0.0000000000000E+00
-0.9209853234673E+00  0.8175521137361E+00  0.0000000000000E+00
-0.9457901850107E+00  0.8447218394390E+00  0.0000000000000E+00
-0.9705950465542E+00  0.8718915651420E+00  0.0000000000000E+00
-0.4973724741866E+00  0.3906327015564E+00  0.0000000000000E+00
-0.5212203820320E+00  0.4191990685373E+00  0.0000000000000E+00
-0.5450682898774E+00  0.4477654355183E+00  0.0000000000000E+00
-0.5689161977228E+00  0.4763318024992E+00  0.0000000000000E+00
-0.5927641055682E+00  0.5048981694801E+00  0.0000000000000E+00
-0.6166120134136E+00  0.5334645364611E+00  0.0000000000000E+00
-0.6404599212590E+00  0.5620309034420E+00  0.0000000000000E+00
-0.6643078291044E+00  0.5905972704229E+00  0.0000000000000E+00
-0.6881557369498E+00  0.6191636374039E+00  0.0000000000000E+00
-0.7120036447952E+00  0.6477300043848E+00  0.0000000000000E+00
-0.7358515526406E+00  0.6762963713657E+00  0.0000000000000E+00
-0.7596994604860E+00  0.7048627383467E+00  0.0000000000000E+00
-0.7835473683314E+00  0.7334291053276E+00  0.0000000000000E+00
-0.8073952761768E+00  0.7619954723085E+00  0.0000000000000E+00
-0.8312431840221E+00  0.7905618392895E+00  0.0000000000000E+00
-0.8550910918675E+00  0.8191282062704E+00  0.0000000000000E+00
-0.8789389997129E+00  0.8476945732514E+00  0.0000000000000E+00
-0.9027869075583E+00  0.8762609402323E+00  0.0000000000000E+00
-0.9266348154037E+00  0.9048273072132E+00  0.0000000000000E+00
-0.4704791810931E+00  0.3980072356707E+00  0.0000000000000E+00
-0.4932896417959E+00  0.4278699691922E+00  0.0000000000000E+00
-0.5161001024988E+00  0.4577327027136E+00  0.0000000000000E+00
-0.5389105632016E+00  0.4875954362350E+00  0.0000000000000E+00
-0.5617210239044E+00  0.5174581697564E+00  0.0000000000000E+00
-0.5845314846072E+00  0.5473209032779E+00  0.0000000000000E+00
-0.6073419453101E+00  0.5771836367993E+00  0.0000000000000E+00
-0.6301524060129E+00  0.6070463703207E+00  0.0000000000000E+00
-0.6529628667157E+00  0.6369091038421E+00  0.0000000000000E+00
-0.6757733274185E+00  0.6667718373635E+00  0.0000000000000E+00
-0.6985837881214E+00  0.6966345708850E+00  0.0000000000000E+00
-0.7213942488242E+00  0.7264973044064E+00  0.0000000000000E+00
-0.7442047095270E+00  0.7563600379278E+00  0.0000000000000E+00
-0.7670151702298E+00  0.7862227714492E+00  0.0000000000000E+00
-0.7898256309326E+00  0.8160855049706E+00  0.0000000000000E+00
-0.8126360916355E+00  0.8459482384921E+00  0.0000000000000E+00
-0.8354465523383E+00  0.8758109720135E+00  0.0000000000000E+00
-0.8582570130411E+00  0.9056737055349E+00  0.0000000000000E+00
-0.8810674737439E+00  0.9355364390563E+00  0.0000000000000E+00
-0.4434431133913E+00  0.4049623049046E+00  0.0000000000000E+00
-0.4651476228734E+00  0.4360271534721E+00  0.0000000000000E+00
-0.4868521323554E+00  0.4670920020396E+00  0.0000000000000E+00
-0.5085566418375E+00  0.4981568506071E+00  0.0000000000000E+00
-0.5302611513196E+00  0.5292216991746E+00  0.0000000000000E+00
-0.5519656608017E+00  0.5602865477421E+00  0.0000000000000E+00
-0.5736701702838E+00  0.5913513963096E+00  0.0000000000000E+00
-0.5953746797659E+00  0.6224162448771E+00  0.0000000000000E+00
-0.6170791892479E+00  0.6534810934446E+00  0.0000000000000E+00
-0.6387836987300E+00  0.6845459420121E+00  0.0000000000000E+00
-0.6604882082121E+00  0.7156107905796E+00  0.0000000000000E+00
-0.6821927176942E+00  0.7466756391471E+00  0.0000000000000E+00
-0.7038972271763E+00  0.7777404877146E+00  0.0000000000000E+00
-0.7256017366584E+00  0.8088053362822E+00  0.0000000000000E+00
-0.7473062461404E+00  0.8398701848497E+00  0.0000000000000E+00
-0.7690107556225E+00  0.8709350334172E+00  0.0000000000000E+00
-0.7907152651046E+00  0.9019998819847E+00  0.0000000000000E+00
-0.8124197745867E+00  0.9330647305522E+00  0.0000000000000E+00
-0.8341242840688E+00  0.9641295791197E+00  0.0000000000000E+00
-0.4162795944393E+00  0.4115031806360E+00  0.0000000000000E+00
-0.4368214338124E+00  0.4436848274892E+00  0.0000000000000E+00
-0.4573632731855E+00  0.4758664743423E+00  0.0000000000000E+00
-0.4779051125585E+00  0.5080481211954E+00  0.0000000000000E+00
-0.4984469519316E+00  0.5402297680486E+00  0.0000000000000E+00
-0.5189887913047E+00  0.5724114149017E+00  0.0000000000000E+00
-0.5395306306778E+00  0.6045930617548E+00  0.0000000000000E+00
-0.5600724700509E+00  0.6367747086080E+00  0.0000000000000E+00
-0.5806143094240E+00  0.6689563554611E+00  0.0000000000000E+00
-0.6011561487970E+00  0.7011380023142E+00  0.0000000000000E+00
-0.6216979881701E+00  0.7333196491674E+00  0.0000000000000E+00
-0.6422398275432E+00  0.7655012960205E+00  0.0000000000000E+00
-0.6627816669163E+00  0.7976829428736E+00  0.0000000000000E+00
-0.6833235062894E+00  0.8298645897268E+00  0.0000000000000E+00
-0.7038653456625E+00  0.8620462365799E+00  0.0000000000000E+00
-0.7244071850355E+00  0.8942278834330E+00  0.0000000000000E+00
-0.7449490244086E+00  0.9264095302862E+00  0.0000000000000E+00
-0.7654908637817E+00  0.9585911771393E+00  0.0000000000000E+00
-0.7860327031548E+00  0.9907728239924E+00  0.0000000000000E+00
-0.3890049746149E+00  0.4176409907798E+00  0.0000000000000E+00
-0.4083402172239E+00  0.4508687343098E+00  0.0000000000000E+00
-0.4276754598330E+00  0.4840964778399E+00  0.0000000000000E+00
-0.4470107024420E+00  0.5173242213700E+00  0.0000000000000E+00
-0.4663459450510E+00  0.5505519649000E+00  0.0000000000000E+00
-0.4856811876600E+00  0.5837797084301E+00  0.0000000000000E+00
-0.5050164302691E+00  0.6170074519601E+00  0.0000000000000E+00
-0.5243516728781E+00  0.6502351954902E+00  0.0000000000000E+00
-0.5436869154871E+00  0.6834629390203E+00  0.0000000000000E+00
-0.5630221580962E+00  0.7166906825503E+00  0.0000000000000E+00
-0.5823574007052E+00  0.7499184260804E+00  0.0000000000000E+00
-0.6016926433142E+00  0.7831461696105E+00  0.0000000000000E+00
-0.6210278859232E+00  0.8163739131405E+00  0.0000000000000E+00
-0.6403631285323E+00  0.8496016566706E+00  0.0000000000000E+00
-0.6596983711413E+00  0.8828294002006E+00  0.0000000000000E+00
-0.6790336137503E+00  0.9160571437307E+00  0.0000000000000E+00
-0.6983688563594E+00  0.9492848872608E+00  0.0000000000000E+00
-0.7177040989684E+00  0.9825126307908E+00  0.0000000000000E+00
-0.7370393415774E+00  0.1015740374321E+01  0.0000000000000E+00
-0.3616375814374E+00  0.4233950320155E+00  0.0000000000000E+00
-0.3797367705145E+00  0.4576208248420E+00  0.0000000000000E+00
-0.3978359595916E+00  0.4918466176685E+00  0.0000000000000E+00
-0.4159351486687E+00  0.5260724104950E+00  0.0000000000000E+00
-0.4340343377458E+00  0.5602982033215E+00  0.0000000000000E+00
-0.4521335268229E+00  0.5945239961480E+00  0.0000000000000E+00
-0.4702327159000E+00  0.6287497889745E+00  0.0000000000000E+00
-0.4883319049771E+00  0.6629755818010E+00  0.0000000000000E+00
-0.5064310940542E+00  0.6972013746275E+00  0.0000000000000E+00
-0.5245302831313E+00  0.7314271674540E+00  0.0000000000000E+00
-0.5426294722084E+00  0.7656529602805E+00  0.0000000000000E+00
-0.5607286612855E+00  0.7998787531070E+00  0.0000000000000E+00
-0.5788278503626E+00  0.8341045459335E+00  0.0000000000000E+00
-0.5969270394397E+00  0.8683303387600E+00  0.0000000000000E+00
-0.6150262285168E+00  0.9025561315865E+00  0.0000000000000E+00
-0.6331254175939E+00  0.9367819244129E+00  0.0000000000000E+00
-0.6512246066710E+00  0.9710077172394E+00  0.0000000000000E+00
-0.6693237957481E+00  0.1005233510066E+01  0.0000000000000E+00
-0.6874229848252E+00  0.1039459302892E+01  0.0000000000000E+00
-0.3341971102105E+00  0.4287924375866E+00  0.0000000000000E+00
-0.3510465988283E+00  0.4639985282286E+00  0.0000000000000E+00
-0.3678960874461E+00  0.4992046188705E+00  0.0000000000000E+00
-0.3847455760639E+00  0.5344107095124E+00  0.0000000000000E+00
-0.4015950646816E+00  0.5696168001544E+00  0.0000000000000E+00
-0.4184445532994E+00  0.6048228907963E+00  0.0000000000000E+00
-0.4352940419172E+00  0.6400289814383E+00  0.0000000000000E+00
-0.4521435305350E+00  0.6752350720802E+00  0.0000000000000E+00
-0.4689930191527E+00  0.7104411627221E+00  0.0000000000000E+00
-0.4858425077705E+00  0.7456472533641E+00  0.0000000000000E+00
-0.5026919963883E+00  0.7808533440060E+00  0.0000000000000E+00
-0.5195414850061E+00  0.8160594346480E+00  0.0000000000000E+00
-0.5363909736238E+00  0.8512655252899E+00  0.0000000000000E+00
-0.5532404622416E+00  0.8864716159318E+00  0.0000000000000E+00
-0.5700899508594E+00  0.9216777065738E+00  0.0000000000000E+00
-0.5869394394772E+00  0.9568837972157E+00  0.0000000000000E+00
-0.6037889280950E+00  0.9920898878576E+00  0.0000000000000E+00
-0.6206384167127E+00  0.1027295978500E+01  0.0000000000000E+00
-0.6374879053305E+00  0.1062502069142E+01  0.0000000000000E+00
-0.3066965706001E+00  0.4338489484850E+00  0.0000000000000E+00
-0.3222916391952E+00  0.4700363162541E+00  0.0000000000000E+00
-0.3378867077903E+00  0.5062236840232E+00  0.0000000000000E+00
-0.3534817763854E+00  0.5424110517923E+00  0.0000000000000E+00
-0.3690768449805E+00  0.5785984195614E+00  0.0000000000000E+00
-0.3846719135756E+00  0.6147857873305E+00  0.0000000000000E+00
-0.4002669821708E+00  0.6509731550996E+00  0.0000000000000E+00
-0.4158620507659E+00  0.6871605228687E+00  0.0000000000000E+00
-0.4314571193610E+00  0.7233478906379E+00  0.0000000000000E+00
-0.4470521879561E+00  0.7595352584070E+00  0.0000000000000E+00
-0.4626472565512E+00  0.7957226261761E+00  0.0000000000000E+00
-0.4782423251463E+00  0.8319099939452E+00  0.0000000000000E+00
-0.4938373937414E+00  0.8680973617143E+00  0.0000000000000E+00
-0.5094324623365E+00  0.9042847294834E+00  0.0000000000000E+00
-0.5250275309316E+00  0.9404720972525E+00  0.0000000000000E+00
-0.5406225995268E+00  0.9766594650216E+00  0.0000000000000E+00
-0.5562176681219E+00  0.1012846832791E+01  0.0000000000000E+00
-0.5718127367170E+00  0.1049034200560E+01  0.0000000000000E+00
-0.5874078053121E+00  0.1085221568329E+01  0.0000000000000E+00
-0.2791218293927E+00  0.4385208078592E+00  0.0000000000000E+00
-0.2934394861648E+00  0.4756494588749E+00  0.0000000000000E+00
-0.3077571429369E+00  0.5127781098906E+00  0.0000000000000E+00
-0.3220747997090E+00  0.5499067609063E+00  0.0000000000000E+00
-0.3363924564811E+00  0.5870354119220E+00  0.0000000000000E+00
-0.3507101132532E+00  0.6241640629377E+00  0.0000000000000E+00
-0.3650277700253E+00  0.6612927139534E+00  0.0000000000000E+00
-0.3793454267974E+00  0.6984213649692E+00  0.0000000000000E+00
-0.3936630835695E+00  0.7355500159849E+00  0.0000000000000E+00
-0.4079807403416E+00  0.7726786670006E+00  0.0000000000000E+00
-0.4222983971137E+00  0.8098073180163E+00  0.0000000000000E+00
-0.4366160538858E+00  0.8469359690320E+00  0.0000000000000E+00
-0.4509337106579E+00  0.8840646200477E+00  0.0000000000000E+00
-0.4652513674300E+00  0.9211932710634E+00  0.0000000000000E+00
-0.4795690242021E+00  0.9583219220791E+00  0.0000000000000E+00
-0.4938866809742E+00  0.9954505730948E+00  0.0000000000000E+00
-0.5082043377463E+00  0.1032579224111E+01  0.0000000000000E+00
-0.5225219945184E+00  0.1069707875126E+01  0.0000000000000E+00
-0.5368396512905E+00  0.1106836526142E+01  0.0000000000000E+00
-0.2514639251819E+00  0.4427693913927E+00  0.0000000000000E+00
-0.2644679291393E+00  0.4807632912527E+00  0.0000000000000E+00
-0.2774719330968E+00  0.5187571911127E+00  0.0000000000000E+00
-0.2904759370542E+00  0.5567510909728E+00  0.0000000000000E+00
-0.3034799410116E+00  0.5947449908328E+00  0.0000000000000E+00
-0.3164839449691E+00  0.6327388906929E+00  0.0000000000000E+00
-0.3294879489265E+00  0.6707327905529E+00  0.0000000000000E+00
-0.3424919528839E+00  0.7087266904129E+00  0.0000000000000E+00
-0.3554959568414E+00  0.7467205902730E+00  0.0000000000000E+00
-0.3684999607988E+00  0.7847144901330E+00  0.0000000000000E+00
-0.3815039647562E+00  0.8227083899931E+00  0.0000000000000E+00
-0.3945079687137E+00  0.8607022898531E+00  0.0000000000000E+00
-0.4075119726711E+00  0.8986961897131E+00  0.0000000000000E+00
-0.4205159766285E+00  0.9366900895732E+00  0.0000000000000E+00
-0.4335199805859E+00  0.9746839894332E+00  0.0000000000000E+00
-0.4465239845434E+00  0.1012677889293E+01  0.0000000000000E+00
-0.4595279885008E+00  0.1050671789153E+01  0.0000000000000E+00
-0.4725319924582E+00  0.1088665689013E+01  0.0000000000000E+00
-0.4855359964157E+00  0.1126659588873E+01  0.0000000000000E+00
-0.2237255065535E+00  0.4465773318235E+00  0.0000000000000E+00
-0.2353778815772E+00  0.4853454460208E+00  0.0000000000000E+00
-0.2470302566009E+00  0.5241135602180E+00  0.0000000000000E+00
-0.2586826316245E+00  0.5628816744153E+00  0.0000000000000E+00
-0.2703350066482E+00  0.6016497886126E+00  0.0000000000000E+00
-0.2819873816718E+00  0.6404179028098E+00  0.0000000000000E+00
-0.2936397566955E+00  0.6791860170071E+00  0.0000000000000E+00
-0.3052921317192E+00  0.7179541312043E+00  0.0000000000000E+00
-0.3169445067428E+00  0.7567222454016E+00  0.0000000000000E+00
-0.3285968817665E+00  0.7954903595989E+00  0.0000000000000E+00
-0.3402492567901E+00  0.8342584737961E+00  0.0000000000000E+00
-0.3519016318138E+00  0.8730265879934E+00  0.0000000000000E+00
-0.3635540068375E+00  0.9117947021907E+00  0.0000000000000E+00
-0.3752063818611E+00  0.9505628163879E+00  0.0000000000000E+00
-0.3868587568848E+00  0.9893309305852E+00  0.0000000000000E+00
-0.3985111319084E+00  0.1028099044782E+01  0.0000000000000E+00
-0.4101635069321E+00  0.1066867158980E+01  0.0000000000000E+00
-0.4218158819558E+00  0.1105635273177E+01  0.0000000000000E+00
-0.4334682569794E+00  0.1144403387374E+01  0.0000000000000E+00
-0.1959146411182E+00  0.4499388903646E+00  0.0000000000000E+00
-0.2061810087786E+00  0.4893865877542E+00  0.0000000000000E+00
-0.2164473764389E+00  0.5288342851439E+00  0.0000000000000E+00
-0.2267137440993E+00  0.5682819825336E+00  0.0000000000000E+00
-0.2369801117597E+00  0.6077296799233E+00  0.0000000000000E+00
-0.2472464794201E+00  0.6471773773130E+00  0.0000000000000E+00
-0.2575128470805E+00  0.6866250747027E+00  0.0000000000000E+00
-0.2677792147409E+00  0.7260727720924E+00  0.0000000000000E+00
-0.2780455824013E+00  0.7655204694820E+00  0.0000000000000E+00
-0.2883119500617E+00  0.8049681668717E+00  0.0000000000000E+00
-0.2985783177220E+00  0.8444158642614E+00  0.0000000000000E+00
-0.3088446853824E+00  0.8838635616511E+00  0.0000000000000E+00
-0.3191110530428E+00  0.9233112590408E+00  0.0000000000000E+00
-0.3293774207032E+00  0.9627589564305E+00  0.0000000000000E+00
-0.3396437883636E+00  0.1002206653820E+01  0.0000000000000E+00
-0.3499101560240E+00  0.1041654351210E+01  0.0000000000000E+00
-0.3601765236844E+00  0.1081102048600E+01  0.0000000000000E+00
-0.3704428913448E+00  0.1120549745989E+01  0.0000000000000E+00
-0.3807092590051E+00  0.1159997443379E+01  0.0000000000000E+00
-0.1680410293477E+00  0.4528534155756E+00  0.0000000000000E+00
-0.1768921543896E+00  0.4928873240860E+00  0.0000000000000E+00
-0.1857432794315E+00  0.5329212325965E+00  0.0000000000000E+00
-0.1945944044734E+00  0.5729551411069E+00  0.0000000000000E+00
-0.2034455295152E+00  0.6129890496173E+00  0.0000000000000E+00
-0.2122966545571E+00  0.6530229581278E+00  0.0000000000000E+00
-0.2211477795990E+00  0.6930568666382E+00  0.0000000000000E+00
-0.2299989046409E+00  0.7330907751486E+00  0.0000000000000E+00
-0.2388500296828E+00  0.7731246836591E+00  0.0000000000000E+00
-0.2477011547246E+00  0.8131585921695E+00  0.0000000000000E+00
-0.2565522797665E+00  0.8531925006799E+00  0.0000000000000E+00
-0.2654034048084E+00  0.8932264091904E+00  0.0000000000000E+00
-0.2742545298503E+00  0.9332603177008E+00  0.0000000000000E+00
-0.2831056548921E+00  0.9732942262112E+00  0.0000000000000E+00
-0.2919567799340E+00  0.1013328134722E+01  0.0000000000000E+00
-0.3008079049759E+00  0.1053362043232E+01  0.0000000000000E+00
-0.3096590300178E+00  0.1093395951743E+01  0.0000000000000E+00
-0.3185101550597E+00  0.1133429860253E+01  0.0000000000000E+00
-0.3273612801015E+00  0.1173463768763E+01  0.0000000000000E+00
-0.1401143208464E+00  0.4553218992365E+00  0.0000000000000E+00
-0.1475259700085E+00  0.4958513109285E+00  0.0000000000000E+00
-0.1549376191705E+00  0.5363807226205E+00  0.0000000000000E+00
-0.1623492683326E+00  0.5769101343125E+00  0.0000000000000E+00
-0.1697609174946E+00  0.6174395460045E+00  0.0000000000000E+00
-0.1771725666567E+00  0.6579689576965E+00  0.0000000000000E+00
-0.1845842158187E+00  0.6984983693885E+00  0.0000000000000E+00
-0.1919958649808E+00  0.7390277810805E+00  0.0000000000000E+00
-0.1994075141428E+00  0.7795571927725E+00  0.0000000000000E+00
-0.2068191633048E+00  0.8200866044646E+00  0.0000000000000E+00
-0.2142308124669E+00  0.8606160161566E+00  0.0000000000000E+00
-0.2216424616289E+00  0.9011454278486E+00  0.0000000000000E+00
-0.2290541107910E+00  0.9416748395406E+00  0.0000000000000E+00
-0.2364657599530E+00  0.9822042512326E+00  0.0000000000000E+00
-0.2438774091151E+00  0.1022733662925E+01  0.0000000000000E+00
-0.2512890582771E+00  0.1063263074617E+01  0.0000000000000E+00
-0.2587007074392E+00  0.1103792486309E+01  0.0000000000000E+00
-0.2661123566012E+00  0.1144321898001E+01  0.0000000000000E+00
-0.2735240057633E+00  0.1184851309693E+01  0.0000000000000E+00
-0.1121439916984E+00  0.4573452348171E+00  0.0000000000000E+00
-0.1180967026830E+00  0.4982817607989E+00  0.0000000000000E+00
-0.1240494136676E+00  0.5392182867806E+00  0.0000000000000E+00
-0.1300021246522E+00  0.5801548127624E+00  0.0000000000000E+00
-0.1359548356368E+00  0.6210913387441E+00  0.0000000000000E+00
-0.1419075466214E+00  0.6620278647259E+00  0.0000000000000E+00
-0.1478602576060E+00  0.7029643907077E+00  0.0000000000000E+00
-0.1538129685906E+00  0.7439009166894E+00  0.0000000000000E+00
-0.1597656795751E+00  0.7848374426712E+00  0.0000000000000E+00
-0.1657183905597E+00  0.8257739686529E+00  0.0000000000000E+00
-0.1716711015443E+00  0.8667104946347E+00  0.0000000000000E+00
-0.1776238125289E+00  0.9076470206164E+00  0.0000000000000E+00
-0.1835765235135E+00  0.9485835465982E+00  0.0000000000000E+00
-0.1895292344981E+00  0.9895200725800E+00  0.0000000000000E+00
-0.1954819454827E+00  0.1030456598562E+01  0.0000000000000E+00
-0.2014346564673E+00  0.1071393124543E+01  0.0000000000000E+00
-0.2073873674519E+00  0.1112329650525E+01  0.0000000000000E+00
-0.2133400784365E+00  0.1153266176507E+01  0.0000000000000E+00
-0.2192927894211E+00  0.1194202702489E+01  0.0000000000000E+00
-0.8413885627146E-01  0.4589235298149E+00  0.0000000000000E+00
-0.8861721895939E-01  0.5001800629532E+00  0.0000000000000E+00
-0.9309558164732E-01  0.5414365960915E+00  0.0000000000000E+00
-0.9757394433525E-01  0.5826931292297E+00  0.0000000000000E+00
-0.1020523070232E+00  0.6239496623680E+00  0.0000000000000E+00
-0.1065306697111E+00  0.6652061955063E+00  0.0000000000000E+00
-0.1110090323990E+00  0.7064627286446E+00  0.0000000000000E+00
-0.1154873950870E+00  0.7477192617829E+00  0.0000000000000E+00
-0.1199657577749E+00  0.7889757949212E+00  0.0000000000000E+00
-0.1244441204628E+00  0.8302323280595E+00  0.0000000000000E+00
-0.1289224831508E+00  0.8714888611978E+00  0.0000000000000E+00
-0.1334008458387E+00  0.9127453943361E+00  0.0000000000000E+00
-0.1378792085266E+00  0.9540019274744E+00  0.0000000000000E+00
-0.1423575712146E+00  0.9952584606127E+00  0.0000000000000E+00
-0.1468359339025E+00  0.1036514993751E+01  0.0000000000000E+00
-0.1513142965904E+00  0.1077771526889E+01  0.0000000000000E+00
-0.1557926592784E+00  0.1119028060028E+01  0.0000000000000E+00
-0.1602710219663E+00  0.1160284593166E+01  0.0000000000000E+00
-0.1647493846542E+00  0.1201541126304E+01  0.0000000000000E+00
-0.5610747836923E-01  0.4600556068131E+00  0.0000000000000E+00
-0.5909983820158E-01  0.5015447808148E+00  0.0000000000000E+00
-0.6209219803393E-01  0.5430339548165E+00  0.0000000000000E+00
-0.6508455786628E-01  0.5845231288182E+00  0.0000000000000E+00
-0.6807691769863E-01  0.6260123028200E+00  0.0000000000000E+00
-0.7106927753098E-01  0.6675014768217E+00  0.0000000000000E+00
-0.7406163736334E-01  0.7089906508234E+00  0.0000000000000E+00
-0.7705399719569E-01  0.7504798248252E+00  0.0000000000000E+00
-0.8004635702804E-01  0.7919689988269E+00  0.0000000000000E+00
-0.8303871686039E-01  0.8334581728286E+00  0.0000000000000E+00
-0.8603107669274E-01  0.8749473468303E+00  0.0000000000000E+00
-0.8902343652509E-01  0.9164365208321E+00  0.0000000000000E+00
-0.9201579635744E-01  0.9579256948338E+00  0.0000000000000E+00
-0.9500815618979E-01  0.9994148688355E+00  0.0000000000000E+00
-0.9800051602214E-01  0.1040904042837E+01  0.0000000000000E+00
-0.1009928758545E+00  0.1082393216839E+01  0.0000000000000E+00
-0.1039852356868E+00  0.1123882390841E+01  0.0000000000000E+00
-0.1069775955192E+00  0.1165371564842E+01  0.0000000000000E+00
-0.1099699553515E+00  0.1206860738844E+01  0.0000000000000E+00
-0.2805830974039E-01  0.4607386669267E+00  0.0000000000000E+00
-0.2955662089814E-01  0.5023709751786E+00  0.0000000000000E+00
-0.3105493205590E-01  0.5440032834305E+00  0.0000000000000E+00
-0.3255324321365E-01  0.5856355916824E+00  0.0000000000000E+00
-0.3405155437141E-01  0.6272678999343E+00  0.0000000000000E+00
-0.3554986552916E-01  0.6689002081862E+00  0.0000000000000E+00
-0.3704817668692E-01  0.7105325164381E+00  0.0000000000000E+00
-0.3854648784467E-01  0.7521648246900E+00  0.0000000000000E+00
-0.4004479900242E-01  0.7937971329419E+00  0.0000000000000E+00
-0.4154311016018E-01  0.8354294411938E+00  0.0000000000000E+00
-0.4304142131793E-01  0.8770617494457E+00  0.0000000000000E+00
-0.4453973247569E-01  0.9186940576976E+00  0.0000000000000E+00
-0.4603804363344E-01  0.9603263659495E+00  0.0000000000000E+00
-0.4753635479120E-01  0.1001958674201E+01  0.0000000000000E+00
-0.4903466594895E-01  0.1043590982453E+01  0.0000000000000E+00
-0.5053297710671E-01  0.1085223290705E+01  0.0000000000000E+00
-0.5203128826446E-01  0.1126855598957E+01  0.0000000000000E+00
-0.5352959942222E-01  0.1168487907209E+01  0.0000000000000E+00
-0.5502791057997E-01  0.1210120215461E+01  0.0000000000000E+00
 0.2860756622583E-09  0.4609678550140E+00  0.0000000000000E+00
 0.5721514265632E-09  0.5026493319786E+00  0.0000000000000E+00
 0.8582273643404E-09  0.5443308089433E+00  0.0000000000000E+00
 0.1144303288240E-08  0.5860122859079E+00  0.0000000000000E+00
 0.1430379267650E-08  0.6276937628726E+00  0.0000000000000E+00
 0.1716455108283E-08  0.6693752398372E+00  0.0000000000000E+00
 0.2002531059938E-08  0.7110567168019E+00  0.0000000000000E+00
 0.2288607011593E-08  0.7527381937665E+00  0.0000000000000E+00
 0.2574682879981E-08  0.7944196707312E+00  0.0000000000000E+00
 0.2860758831636E-08  0.8361011476958E+00  0.0000000000000E+00
 0.3146834755536E-08  0.8777826246605E+00  0.0000000000000E+00
 0.3432910790458E-08  0.9194641016251E+00  0.0000000000000E+00
 0.3718986714357E-08  0.9611455785898E+00  0.0000000000000E+00
 0.4005062638256E-08  0.1002827055554E+01  0.0000000000000E+00
 0.4291138673178E-08  0.1044508532519E+01  0.0000000000000E+00
 0.4577214430544E-08  0.1086190009484E+01  0.0000000000000E+00
 0.4863290520977E-08  0.1127871486448E+01  0.0000000000000E+00
 0.5149366278343E-08  0.1169552963413E+01  0.0000000000000E+00
 0.5435442368776E-08  0.1211234440378E+01  0.0000000000000E+00
 0.2805831031206E-01  0.4607386669015E+00  0.0000000000000E+00
 0.2955662204149E-01  0.5023709751282E+00  0.0000000000000E+00
 0.3105493377092E-01  0.5440032833549E+00  0.0000000000000E+00
 0.3255324550035E-01  0.5856355915817E+00  0.0000000000000E+00
 0.3405155722978E-01  0.6272678998084E+00  0.0000000000000E+00
 0.3554986895921E-01  0.6689002080351E+00  0.0000000000000E+00
 0.3704818068864E-01  0.7105325162618E+00  0.0000000000000E+00
 0.3854649241807E-01  0.7521648244885E+00  0.0000000000000E+00
 0.4004480414750E-01  0.7937971327152E+00  0.0000000000000E+00
 0.4154311587693E-01  0.8354294409419E+00  0.0000000000000E+00
 0.4304142760636E-01  0.8770617491687E+00  0.0000000000000E+00
 0.4453973933579E-01  0.9186940573954E+00  0.0000000000000E+00
 0.4603805106522E-01  0.9603263656221E+00  0.0000000000000E+00
 0.4753636279465E-01  0.1001958673849E+01  0.0000000000000E+00
 0.4903467452408E-01  0.1043590982076E+01  0.0000000000000E+00
 0.5053298625351E-01  0.1085223290302E+01  0.0000000000000E+00
 0.5203129798294E-01  0.1126855598529E+01  0.0000000000000E+00
 0.5352960971237E-01  0.1168487906756E+01  0.0000000000000E+00
 0.5502792144180E-01  0.1210120214982E+01  0.0000000000000E+00
 0.5610747893947E-01  0.4600556067638E+00  0.0000000000000E+00
 0.5909983934207E-01  0.5015447807163E+00  0.0000000000000E+00
 0.6209219974467E-01  0.5430339546687E+00  0.0000000000000E+00
 0.6508456014726E-01  0.5845231286212E+00  0.0000000000000E+00
 0.6807692054986E-01  0.6260123025737E+00  0.0000000000000E+00
 0.7106928095246E-01  0.6675014765262E+00  0.0000000000000E+00
 0.7406164135505E-01  0.7089906504786E+00  0.0000000000000E+00
 0.7705400175765E-01  0.7504798244311E+00  0.0000000000000E+00
 0.8004636216024E-01  0.7919689983836E+00  0.0000000000000E+00
 0.8303872256284E-01  0.8334581723360E+00  0.0000000000000E+00
 0.8603108296544E-01  0.8749473462885E+00  0.0000000000000E+00
 0.8902344336803E-01  0.9164365202410E+00  0.0000000000000E+00
 0.9201580377063E-01  0.9579256941934E+00  0.0000000000000E+00
 0.9500816417323E-01  0.9994148681459E+00  0.0000000000000E+00
 0.9800052457582E-01  0.1040904042098E+01  0.0000000000000E+00
 0.1009928849784E+00  0.1082393216051E+01  0.0000000000000E+00
 0.1039852453810E+00  0.1123882390003E+01  0.0000000000000E+00
 0.1069776057836E+00  0.1165371563956E+01  0.0000000000000E+00
 0.1099699661862E+00  0.1206860737908E+01  0.0000000000000E+00
 0.8413885683948E-01  0.4589235297423E+00  0.0000000000000E+00
 0.8861722009544E-01  0.5001800628080E+00  0.0000000000000E+00
 0.9309558335140E-01  0.5414365958738E+00  0.0000000000000E+00
 0.9757394660735E-01  0.5826931289395E+00  0.0000000000000E+00
 0.1020523098633E+00  0.6239496620052E+00  0.0000000000000E+00
 0.1065306731193E+00  0.6652061950710E+00  0.0000000000000E+00
 0.1110090363752E+00  0.7064627281367E+00  0.0000000000000E+00
 0.1154873996312E+00  0.7477192612024E+00  0.0000000000000E+00
 0.1199657628871E+00  0.7889757942682E+00  0.0000000000000E+00
 0.1244441261431E+00  0.8302323273339E+00  0.0000000000000E+00
 0.1289224893991E+00  0.8714888603996E+00  0.0000000000000E+00
 0.1334008526550E+00  0.9127453934654E+00  0.0000000000000E+00
 0.1378792159110E+00  0.9540019265311E+00  0.0000000000000E+00
 0.1423575791669E+00  0.9952584595968E+00  0.0000000000000E+00
 0.1468359424229E+00  0.1036514992663E+01  0.0000000000000E+00
 0.1513143056788E+00  0.1077771525728E+01  0.0000000000000E+00
 0.1557926689348E+00  0.1119028058794E+01  0.0000000000000E+00
 0.1602710321908E+00  0.1160284591860E+01  0.0000000000000E+00
 0.1647493954467E+00  0.1201541124925E+01  0.0000000000000E+00
 0.1121439922631E+00  0.4573452347218E+00  0.0000000000000E+00
 0.1180967038124E+00  0.4982817606082E+00  0.0000000000000E+00
 0.1240494153618E+00  0.5392182864946E+00  0.0000000000000E+00
 0.1300021269111E+00  0.5801548123811E+00  0.0000000000000E+00
 0.1359548384605E+00  0.6210913382675E+00  0.0000000000000E+00
 0.1419075500098E+00  0.6620278641539E+00  0.0000000000000E+00
 0.1478602615592E+00  0.7029643900404E+00  0.0000000000000E+00
 0.1538129731085E+00  0.7439009159268E+00  0.0000000000000E+00
 0.1597656846578E+00  0.7848374418132E+00  0.0000000000000E+00
 0.1657183962072E+00  0.8257739676996E+00  0.0000000000000E+00
 0.1716711077565E+00  0.8667104935861E+00  0.0000000000000E+00
 0.1776238193059E+00  0.9076470194725E+00  0.0000000000000E+00
 0.1835765308552E+00  0.9485835453589E+00  0.0000000000000E+00
 0.1895292424046E+00  0.9895200712454E+00  0.0000000000000E+00
 0.1954819539539E+00  0.1030456597132E+01  0.0000000000000E+00
 0.2014346655032E+00  0.1071393123018E+01  0.0000000000000E+00
 0.2073873770526E+00  0.1112329648905E+01  0.0000000000000E+00
 0.2133400886019E+00  0.1153266174791E+01  0.0000000000000E+00
 0.2192928001513E+00  0.1194202700677E+01  0.0000000000000E+00
 0.1401143214071E+00  0.4553218991187E+00  0.0000000000000E+00
 0.1475259711299E+00  0.4958513106929E+00  0.0000000000000E+00
 0.1549376208526E+00  0.5363807222671E+00  0.0000000000000E+00
 0.1623492705753E+00  0.5769101338413E+00  0.0000000000000E+00
 0.1697609202981E+00  0.6174395454155E+00  0.0000000000000E+00
 0.1771725700208E+00  0.6579689569897E+00  0.0000000000000E+00
 0.1845842197436E+00  0.6984983685639E+00  0.0000000000000E+00
 0.1919958694663E+00  0.7390277801381E+00  0.0000000000000E+00
 0.1994075191891E+00  0.7795571917124E+00  0.0000000000000E+00
 0.2068191689118E+00  0.8200866032866E+00  0.0000000000000E+00
 0.2142308186346E+00  0.8606160148608E+00  0.0000000000000E+00
 0.2216424683573E+00  0.9011454264350E+00  0.0000000000000E+00
 0.2290541180800E+00  0.9416748380092E+00  0.0000000000000E+00
 0.2364657678028E+00  0.9822042495834E+00  0.0000000000000E+00
 0.2438774175255E+00  0.1022733661158E+01  0.0000000000000E+00
 0.2512890672483E+00  0.1063263072732E+01  0.0000000000000E+00
 0.2587007169710E+00  0.1103792484306E+01  0.0000000000000E+00
 0.2661123666938E+00  0.1144321895880E+01  0.0000000000000E+00
 0.2735240164165E+00  0.1184851307454E+01  0.0000000000000E+00
 0.1680410299043E+00  0.4528534154353E+00  0.0000000000000E+00
 0.1768921555027E+00  0.4928873238054E+00  0.0000000000000E+00
 0.1857432811012E+00  0.5329212321756E+00  0.0000000000000E+00
 0.1945944066996E+00  0.5729551405457E+00  0.0000000000000E+00
 0.2034455322981E+00  0.6129890489159E+00  0.0000000000000E+00
 0.2122966578965E+00  0.6530229572860E+00  0.0000000000000E+00
 0.2211477834950E+00  0.6930568656562E+00  0.0000000000000E+00
 0.2299989090934E+00  0.7330907740263E+00  0.0000000000000E+00
 0.2388500346918E+00  0.7731246823965E+00  0.0000000000000E+00
 0.2477011602903E+00  0.8131585907666E+00  0.0000000000000E+00
 0.2565522858887E+00  0.8531924991368E+00  0.0000000000000E+00
 0.2654034114872E+00  0.8932264075069E+00  0.0000000000000E+00
 0.2742545370856E+00  0.9332603158771E+00  0.0000000000000E+00
 0.2831056626841E+00  0.9732942242472E+00  0.0000000000000E+00
 0.2919567882825E+00  0.1013328132617E+01  0.0000000000000E+00
 0.3008079138810E+00  0.1053362040987E+01  0.0000000000000E+00
 0.3096590394794E+00  0.1093395949358E+01  0.0000000000000E+00
 0.3185101650779E+00  0.1133429857728E+01  0.0000000000000E+00
 0.3273612906763E+00  0.1173463766098E+01  0.0000000000000E+00
 0.1959146416683E+00  0.4499388902022E+00  0.0000000000000E+00
 0.2061810098788E+00  0.4893865874296E+00  0.0000000000000E+00
 0.2164473780893E+00  0.5288342846570E+00  0.0000000000000E+00
 0.2267137462998E+00  0.5682819818844E+00  0.0000000000000E+00
 0.2369801145103E+00  0.6077296791117E+00  0.0000000000000E+00
 0.2472464827208E+00  0.6471773763391E+00  0.0000000000000E+00
 0.2575128509313E+00  0.6866250735665E+00  0.0000000000000E+00
 0.2677792191418E+00  0.7260727707939E+00  0.0000000000000E+00
 0.2780455873523E+00  0.7655204680212E+00  0.0000000000000E+00
 0.2883119555628E+00  0.8049681652486E+00  0.0000000000000E+00
 0.2985783237733E+00  0.8444158624760E+00  0.0000000000000E+00
 0.3088446919838E+00  0.8838635597034E+00  0.0000000000000E+00
 0.3191110601943E+00  0.9233112569307E+00  0.0000000000000E+00
 0.3293774284048E+00  0.9627589541581E+00  0.0000000000000E+00
 0.3396437966153E+00  0.1002206651385E+01  0.0000000000000E+00
 0.3499101648258E+00  0.1041654348613E+01  0.0000000000000E+00
 0.3601765330363E+00  0.1081102045840E+01  0.0000000000000E+00
 0.3704429012468E+00  0.1120549743068E+01  0.0000000000000E+00
 0.3807092694573E+00  0.1159997440295E+01  0.0000000000000E+00
 0.2237255070970E+00  0.4465773316393E+00  0.0000000000000E+00
 0.2353778826642E+00  0.4853454456524E+00  0.0000000000000E+00
 0.2470302582313E+00  0.5241135596654E+00  0.0000000000000E+00
 0.2586826337985E+00  0.5628816736785E+00  0.0000000000000E+00
 0.2703350093657E+00  0.6016497876915E+00  0.0000000000000E+00
 0.2819873849328E+00  0.6404179017046E+00  0.0000000000000E+00
 0.2936397605000E+00  0.6791860157177E+00  0.0000000000000E+00
 0.3052921360671E+00  0.7179541297307E+00  0.0000000000000E+00
 0.3169445116343E+00  0.7567222437438E+00  0.0000000000000E+00
 0.3285968872014E+00  0.7954903577569E+00  0.0000000000000E+00
 0.3402492627686E+00  0.8342584717699E+00  0.0000000000000E+00
 0.3519016383358E+00  0.8730265857830E+00  0.0000000000000E+00
 0.3635540139029E+00  0.9117946997960E+00  0.0000000000000E+00
 0.3752063894701E+00  0.9505628138091E+00  0.0000000000000E+00
 0.3868587650372E+00  0.9893309278222E+00  0.0000000000000E+00
 0.3985111406044E+00  0.1028099041835E+01  0.0000000000000E+00
 0.4101635161715E+00  0.1066867155848E+01  0.0000000000000E+00
 0.4218158917387E+00  0.1105635269861E+01  0.0000000000000E+00
 0.4334682673059E+00  0.1144403383874E+01  0.0000000000000E+00
 0.2514639257183E+00  0.4427693911874E+00  0.0000000000000E+00
 0.2644679302121E+00  0.4807632908421E+00  0.0000000000000E+00
 0.2774719347060E+00  0.5187571904969E+00  0.0000000000000E+00
 0.2904759391998E+00  0.5567510901517E+00  0.0000000000000E+00
 0.3034799436937E+00  0.5947449898064E+00  0.0000000000000E+00
 0.3164839481875E+00  0.6327388894612E+00  0.0000000000000E+00
 0.3294879526813E+00  0.6707327891159E+00  0.0000000000000E+00
 0.3424919571752E+00  0.7087266887707E+00  0.0000000000000E+00
 0.3554959616690E+00  0.7467205884254E+00  0.0000000000000E+00
 0.3684999661629E+00  0.7847144880802E+00  0.0000000000000E+00
 0.3815039706567E+00  0.8227083877350E+00  0.0000000000000E+00
 0.3945079751505E+00  0.8607022873897E+00  0.0000000000000E+00
 0.4075119796444E+00  0.8986961870445E+00  0.0000000000000E+00
 0.4205159841382E+00  0.9366900866992E+00  0.0000000000000E+00
 0.4335199886321E+00  0.9746839863540E+00  0.0000000000000E+00
 0.4465239931259E+00  0.1012677886009E+01  0.0000000000000E+00
 0.4595279976197E+00  0.1050671785664E+01  0.0000000000000E+00
 0.4725320021136E+00  0.1088665685318E+01  0.0000000000000E+00
 0.4855360066074E+00  0.1126659584973E+01  0.0000000000000E+00
 0.2791218299219E+00  0.4385208076351E+00  0.0000000000000E+00
 0.2934394872232E+00  0.4756494584267E+00  0.0000000000000E+00
 0.3077571445244E+00  0.5127781092184E+00  0.0000000000000E+00
 0.3220748018257E+00  0.5499067600100E+00  0.0000000000000E+00
 0.3363924591269E+00  0.5870354108016E+00  0.0000000000000E+00
 0.3507101164282E+00  0.6241640615933E+00  0.0000000000000E+00
 0.3650277737294E+00  0.6612927123849E+00  0.0000000000000E+00
 0.3793454310307E+00  0.6984213631766E+00  0.0000000000000E+00
 0.3936630883319E+00  0.7355500139682E+00  0.0000000000000E+00
 0.4079807456332E+00  0.7726786647598E+00  0.0000000000000E+00
 0.4222984029344E+00  0.8098073155515E+00  0.0000000000000E+00
 0.4366160602357E+00  0.8469359663431E+00  0.0000000000000E+00
 0.4509337175369E+00  0.8840646171348E+00  0.0000000000000E+00
 0.4652513748382E+00  0.9211932679264E+00  0.0000000000000E+00
 0.4795690321395E+00  0.9583219187180E+00  0.0000000000000E+00
 0.4938866894407E+00  0.9954505695097E+00  0.0000000000000E+00
 0.5082043467420E+00  0.1032579220301E+01  0.0000000000000E+00
 0.5225220040432E+00  0.1069707871093E+01  0.0000000000000E+00
 0.5368396613445E+00  0.1106836521885E+01  0.0000000000000E+00
 0.3066965711232E+00  0.4338489482471E+00  0.0000000000000E+00
 0.3222916402414E+00  0.4700363157784E+00  0.0000000000000E+00
 0.3378867093596E+00  0.5062236833096E+00  0.0000000000000E+00
 0.3534817784778E+00  0.5424110508409E+00  0.0000000000000E+00
 0.3690768475959E+00  0.5785984183721E+00  0.0000000000000E+00
 0.3846719167141E+00  0.6147857859034E+00  0.0000000000000E+00
 0.4002669858323E+00  0.6509731534347E+00  0.0000000000000E+00
 0.4158620549505E+00  0.6871605209659E+00  0.0000000000000E+00
 0.4314571240687E+00  0.7233478884972E+00  0.0000000000000E+00
 0.4470521931869E+00  0.7595352560285E+00  0.0000000000000E+00
 0.4626472623051E+00  0.7957226235597E+00  0.0000000000000E+00
 0.4782423314233E+00  0.8319099910910E+00  0.0000000000000E+00
 0.4938374005415E+00  0.8680973586222E+00  0.0000000000000E+00
 0.5094324696597E+00  0.9042847261535E+00  0.0000000000000E+00
 0.5250275387779E+00  0.9404720936848E+00  0.0000000000000E+00
 0.5406226078961E+00  0.9766594612160E+00  0.0000000000000E+00
 0.5562176770143E+00  0.1012846828747E+01  0.0000000000000E+00
 0.5718127461325E+00  0.1049034196279E+01  0.0000000000000E+00
 0.5874078152507E+00  0.1085221563810E+01  0.0000000000000E+00
 0.3341971107314E+00  0.4287924373437E+00  0.0000000000000E+00
 0.3510465998701E+00  0.4639985277428E+00  0.0000000000000E+00
 0.3678960890087E+00  0.4992046181418E+00  0.0000000000000E+00
 0.3847455781474E+00  0.5344107085408E+00  0.0000000000000E+00
 0.4015950672860E+00  0.5696167989399E+00  0.0000000000000E+00
 0.4184445564247E+00  0.6048228893389E+00  0.0000000000000E+00
 0.4352940455633E+00  0.6400289797380E+00  0.0000000000000E+00
 0.4521435347020E+00  0.6752350701370E+00  0.0000000000000E+00
 0.4689930238406E+00  0.7104411605360E+00  0.0000000000000E+00
 0.4858425129793E+00  0.7456472509351E+00  0.0000000000000E+00
 0.5026920021179E+00  0.7808533413341E+00  0.0000000000000E+00
 0.5195414912566E+00  0.8160594317332E+00  0.0000000000000E+00
 0.5363909803952E+00  0.8512655221322E+00  0.0000000000000E+00
 0.5532404695339E+00  0.8864716125313E+00  0.0000000000000E+00
 0.5700899586725E+00  0.9216777029303E+00  0.0000000000000E+00
 0.5869394478112E+00  0.9568837933293E+00  0.0000000000000E+00
 0.6037889369498E+00  0.9920898837284E+00  0.0000000000000E+00
 0.6206384260885E+00  0.1027295974127E+01  0.0000000000000E+00
 0.6374879152271E+00  0.1062502064526E+01  0.0000000000000E+00
 0.3616375819568E+00  0.4233950317695E+00  0.0000000000000E+00
 0.3797367715532E+00  0.4576208243499E+00  0.0000000000000E+00
 0.3978359611496E+00  0.4918466169303E+00  0.0000000000000E+00
 0.4159351507460E+00  0.5260724095108E+00  0.0000000000000E+00
 0.4340343403424E+00  0.5602982020912E+00  0.0000000000000E+00
 0.4521335299388E+00  0.5945239946716E+00  0.0000000000000E+00
 0.4702327195353E+00  0.6287497872521E+00  0.0000000000000E+00
 0.4883319091317E+00  0.6629755798325E+00  0.0000000000000E+00
 0.5064310987281E+00  0.6972013724129E+00  0.0000000000000E+00
 0.5245302883245E+00  0.7314271649934E+00  0.0000000000000E+00
 0.5426294779209E+00  0.7656529575738E+00  0.0000000000000E+00
 0.5607286675173E+00  0.7998787501542E+00  0.0000000000000E+00
 0.5788278571138E+00  0.8341045427347E+00  0.0000000000000E+00
 0.5969270467102E+00  0.8683303353151E+00  0.0000000000000E+00
 0.6150262363066E+00  0.9025561278956E+00  0.0000000000000E+00
 0.6331254259030E+00  0.9367819204760E+00  0.0000000000000E+00
 0.6512246154994E+00  0.9710077130564E+00  0.0000000000000E+00
 0.6693238050958E+00  0.1005233505637E+01  0.0000000000000E+00
 0.6874229946923E+00  0.1039459298217E+01  0.0000000000000E+00
 0.3890049751294E+00  0.4176409905240E+00  0.0000000000000E+00
 0.4083402182530E+00  0.4508687337983E+00  0.0000000000000E+00
 0.4276754613766E+00  0.4840964770726E+00  0.0000000000000E+00
 0.4470107045002E+00  0.5173242203469E+00  0.0000000000000E+00
 0.4663459476237E+00  0.5505519636212E+00  0.0000000000000E+00
 0.4856811907473E+00  0.5837797068956E+00  0.0000000000000E+00
 0.5050164338709E+00  0.6170074501699E+00  0.0000000000000E+00
 0.5243516769945E+00  0.6502351934442E+00  0.0000000000000E+00
 0.5436869201180E+00  0.6834629367185E+00  0.0000000000000E+00
 0.5630221632416E+00  0.7166906799928E+00  0.0000000000000E+00
 0.5823574063652E+00  0.7499184232671E+00  0.0000000000000E+00
 0.6016926494888E+00  0.7831461665414E+00  0.0000000000000E+00
 0.6210278926123E+00  0.8163739098157E+00  0.0000000000000E+00
 0.6403631357359E+00  0.8496016530900E+00  0.0000000000000E+00
 0.6596983788595E+00  0.8828293963643E+00  0.0000000000000E+00
 0.6790336219831E+00  0.9160571396386E+00  0.0000000000000E+00
 0.6983688651066E+00  0.9492848829129E+00  0.0000000000000E+00
 0.7177041082302E+00  0.9825126261872E+00  0.0000000000000E+00
 0.7370393513538E+00  0.1015740369462E+01  0.0000000000000E+00
 0.4162795949455E+00  0.4115031803644E+00  0.0000000000000E+00
 0.4368214348248E+00  0.4436848269459E+00  0.0000000000000E+00
 0.4573632747041E+00  0.4758664735274E+00  0.0000000000000E+00
 0.4779051145834E+00  0.5080481201089E+00  0.0000000000000E+00
 0.4984469544626E+00  0.5402297666905E+00  0.0000000000000E+00
 0.5189887943419E+00  0.5724114132720E+00  0.0000000000000E+00
 0.5395306342212E+00  0.6045930598535E+00  0.0000000000000E+00
 0.5600724741005E+00  0.6367747064350E+00  0.0000000000000E+00
 0.5806143139798E+00  0.6689563530165E+00  0.0000000000000E+00
 0.6011561538591E+00  0.7011379995980E+00  0.0000000000000E+00
 0.6216979937384E+00  0.7333196461795E+00  0.0000000000000E+00
 0.6422398336177E+00  0.7655012927610E+00  0.0000000000000E+00
 0.6627816734970E+00  0.7976829393425E+00  0.0000000000000E+00
 0.6833235133763E+00  0.8298645859240E+00  0.0000000000000E+00
 0.7038653532555E+00  0.8620462325056E+00  0.0000000000000E+00
 0.7244071931348E+00  0.8942278790871E+00  0.0000000000000E+00
 0.7449490330141E+00  0.9264095256686E+00  0.0000000000000E+00
 0.7654908728934E+00  0.9585911722501E+00  0.0000000000000E+00
 0.7860327127727E+00  0.9907728188316E+00  0.0000000000000E+00
 0.4434431138861E+00  0.4049623046123E+00  0.0000000000000E+00
 0.4651476238630E+00  0.4360271528875E+00  0.0000000000000E+00
 0.4868521338399E+00  0.4670920011626E+00  0.0000000000000E+00
 0.5085566438169E+00  0.4981568494378E+00  0.0000000000000E+00
 0.5302611537938E+00  0.5292216977130E+00  0.0000000000000E+00
 0.5519656637707E+00  0.5602865459881E+00  0.0000000000000E+00
 0.5736701737476E+00  0.5913513942633E+00  0.0000000000000E+00
 0.5953746837245E+00  0.6224162425385E+00  0.0000000000000E+00
 0.6170791937015E+00  0.6534810908137E+00  0.0000000000000E+00
 0.6387837036784E+00  0.6845459390888E+00  0.0000000000000E+00
 0.6604882136553E+00  0.7156107873640E+00  0.0000000000000E+00
 0.6821927236322E+00  0.7466756356392E+00  0.0000000000000E+00
 0.7038972336091E+00  0.7777404839143E+00  0.0000000000000E+00
 0.7256017435861E+00  0.8088053321895E+00  0.0000000000000E+00
 0.7473062535630E+00  0.8398701804647E+00  0.0000000000000E+00
 0.7690107635399E+00  0.8709350287399E+00  0.0000000000000E+00
 0.7907152735168E+00  0.9019998770150E+00  0.0000000000000E+00
 0.8124197834938E+00  0.9330647252902E+00  0.0000000000000E+00
 0.8341242934707E+00  0.9641295735654E+00  0.0000000000000E+00
 0.4704791815732E+00  0.3980072353552E+00  0.0000000000000E+00
 0.4932896427561E+00  0.4278699685610E+00  0.0000000000000E+00
 0.5161001039390E+00  0.4577327017669E+00  0.0000000000000E+00
 0.5389105651219E+00  0.4875954349727E+00  0.0000000000000E+00
 0.5617210263048E+00  0.5174581681785E+00  0.0000000000000E+00
 0.5845314874877E+00  0.5473209013844E+00  0.0000000000000E+00
 0.6073419486706E+00  0.5771836345902E+00  0.0000000000000E+00
 0.6301524098535E+00  0.6070463677961E+00  0.0000000000000E+00
 0.6529628710365E+00  0.6369091010019E+00  0.0000000000000E+00
 0.6757733322194E+00  0.6667718342078E+00  0.0000000000000E+00
 0.6985837934023E+00  0.6966345674136E+00  0.0000000000000E+00
 0.7213942545852E+00  0.7264973006194E+00  0.0000000000000E+00
 0.7442047157681E+00  0.7563600338253E+00  0.0000000000000E+00
 0.7670151769510E+00  0.7862227670311E+00  0.0000000000000E+00
 0.7898256381339E+00  0.8160855002370E+00  0.0000000000000E+00
 0.8126360993168E+00  0.8459482334428E+00  0.0000000000000E+00
 0.8354465604997E+00  0.8758109666487E+00  0.0000000000000E+00
 0.8582570216826E+00  0.9056736998545E+00  0.0000000000000E+00
 0.8810674828655E+00  0.9355364330604E+00  0.0000000000000E+00
 0.4973724746499E+00  0.3906327012162E+00  0.0000000000000E+00
 0.5212203829587E+00  0.4191990678570E+00  0.0000000000000E+00
 0.5450682912674E+00  0.4477654344978E+00  0.0000000000000E+00
 0.5689161995761E+00  0.4763318011386E+00  0.0000000000000E+00
 0.5927641078849E+00  0.5048981677794E+00  0.0000000000000E+00
 0.6166120161936E+00  0.5334645344202E+00  0.0000000000000E+00
 0.6404599245023E+00  0.5620309010610E+00  0.0000000000000E+00
 0.6643078328111E+00  0.5905972677017E+00  0.0000000000000E+00
 0.6881557411198E+00  0.6191636343425E+00  0.0000000000000E+00
 0.7120036494285E+00  0.6477300009833E+00  0.0000000000000E+00
 0.7358515577373E+00  0.6762963676241E+00  0.0000000000000E+00
 0.7596994660460E+00  0.7048627342649E+00  0.0000000000000E+00
 0.7835473743547E+00  0.7334291009057E+00  0.0000000000000E+00
 0.8073952826635E+00  0.7619954675465E+00  0.0000000000000E+00
 0.8312431909722E+00  0.7905618341873E+00  0.0000000000000E+00
 0.8550910992809E+00  0.8191282008280E+00  0.0000000000000E+00
 0.8789390075897E+00  0.8476945674688E+00  0.0000000000000E+00
 0.9027869158984E+00  0.8762609341096E+00  0.0000000000000E+00
 0.9266348242071E+00  0.9048273007504E+00  0.0000000000000E+00
 0.5241075392167E+00  0.3828365021242E+00  0.0000000000000E+00
 0.5489124012050E+00  0.4100062274629E+00  0.0000000000000E+00
 0.5737172631934E+00  0.4371759528015E+00  0.0000000000000E+00
 0.5985221251818E+00  0.4643456781402E+00  0.0000000000000E+00
 0.6233269871702E+00  0.4915154034788E+00  0.0000000000000E+00
 0.6481318491586E+00  0.5186851288175E+00  0.0000000000000E+00
 0.6729367111470E+00  0.5458548541562E+00  0.0000000000000E+00
 0.6977415731353E+00  0.5730245794948E+00  0.0000000000000E+00
 0.7225464351237E+00  0.6001943048335E+00  0.0000000000000E+00
 0.7473512971121E+00  0.6273640301721E+00  0.0000000000000E+00
 0.7721561591005E+00  0.6545337555108E+00  0.0000000000000E+00
 0.7969610210889E+00  0.6817034808494E+00  0.0000000000000E+00
 0.8217658830773E+00  0.7088732061881E+00  0.0000000000000E+00
 0.8465707450657E+00  0.7360429315268E+00  0.0000000000000E+00
 0.8713756070540E+00  0.7632126568654E+00  0.0000000000000E+00
 0.8961804690424E+00  0.7903823822041E+00  0.0000000000000E+00
 0.9209853310308E+00  0.8175521075427E+00  0.0000000000000E+00
 0.9457901930192E+00  0.8447218328814E+00  0.0000000000000E+00
 0.9705950550076E+00  0.8718915582200E+00  0.0000000000000E+00
</DataArray>
</Points>
<Cells>
<DataArray type="Int64" Name="connectivity" format="ascii">
0 11 438 243
243 438 439 244
244 439 440 245
245 440 441 246
246 441 442 247
247 442 443 248
248 443 444 249
249 444 445 250
250 445 446 251
251 446 447 252
252 447 448 253
253 448 449 254
254 449 450 255
255 450 451 256
256 451 452 257
257 452 453 258
258 453 454 259
259 454 455 260
260 455 456 261
261 456 457 262
262 457 458 263
263 458 459 264
264 459 460 265
265 460 461 266
266 461 462 267
267 462 463 268
268 463 464 269
269 464 465 270
270 465 466 271
271 466 467 272
272 467 468 273
273 468 469 274
274 469 470 275
275 470 471 276
276 471 472 277
277 472 473 278
278 473 474 279
279 474 475 280
280 475 476 281
281 476 477 282
282 477 89 3
11 12 478 438
438 478 479 439
439 479 480 440
440 480 481 441
441 481 482 442
442 482 483 443
443 483 484 444
444 484 485 445
445 485 486 446
446 486 487 447
447 487 488 448
448 488 489 449
449 489 490 450
450 490 491 451
451 491 492 452
452 492 493 453
453 493 494 454
454 494 495 455
455 495 496 456
456 496 497 457
457 497 498 458
458 498 499 459
459 499 500 460
460 500 501 461
461 501 502 462
462 502 503 463
463 503 504 464
464 504 505 465
465 505 506 466
466 506 507 467
467 507 508 468
468 508 509 469
469 509 510 470
470 510 511 471
471 511 512 472
472 512 513 473
473 513 514 474
474 514 515 475
475 515 516 476
476 516 517 477
477 517 90 89
12 13 518 478
478 518 519 479
479 519 520 480
480 520 521 481
481 521 522 482
482 522 523 483
483 523 524 484
484 524 525 485
485 525 526 486
486 526 527 487
487 527 528 488
488 528 529 489
489 529 530 490
490 530 531 491
491 531 532 492
492 532 533 493
493 533 534 494
494 534 535 495
495 535 536 496
496 536 537 497
497 537 538 498
498 538 539 499
499 539 540 500
500 540 541 501
501 541 542 502
502 542 543 503
503 543 544 504
504 544 545 505
505 545 546 506
506 546 547 507
507 547 548 508
508 548 549 509
509 549 550 510
510 550 551 511
511 551 552 512
512 552 553 513
513 553 554 514
514 554 555 515
515 555 556 516
516 556 557 517
517 557 91 90
13 14 558 518
518 558 559 519
519 559 560 520
520 560 561 521
521 561 562 522
522 562 563 523
523 563 564 524
524 564 565 525
525 565 566 526
526 566 567 527
527 567 568 528
528 568 569 529
529 569 570 530
530 570 571 531
531 571 572 532
532 572 573 533
533 573 574 534
534 574 575 535
535 575 576 536
536 576 577 537
537 577 578 538
538 578 579 539
539 579 580 540
540 580 581 541
541 581 582 542
542 582 583 543
543 583 584 544
544 584 585 545
545 585 586 546
546 586 587 547
547 587 588 548
548 588 589 549
549 589 590 550
550 590 591 551
551 591 592 552
552 592 593 553
553 593 594 554
554 594 595 555
555 595 596 556
556 596 597 557
557 597 92 91
14 15 598 558
558 598 599 559
559 599 600 560
560 600 601 561
561 601 602 562
562 602 603 563
563 603 604 564
564 604 605 565
565 605 606 566
566 606 607 567
567 607 608 568
568 608 609 569
569 609 610 570
570 610 611 571
571 611 612 572
572 612 613 573
573 613 614 574
574 614 615 575
575 615 616 576
576 616 617 577
577 617 618 578
578 618 619 579
579 619 620 580
580 620 621 581
581 621 622 582
582 622 623 583
583 623 624 584
584 624 625 585
585 625 626 586
586 626 627 587
587 627 628 588
588 628 629 589
589 629 630 590
590 630 631 591
591 631 632 592
592 632 633 593
593 633 634 594
594 634 635 595
595 635 636 596
596 636 637 597
597 637 93 92
15 16 638 598
598 638 639 599
599 639 640 600
600 640 641 601
601 641 642 602
602 642 643 603
603 643 644 604
604 644 645 605
605 645 646 606
606 646 647 607
607 647 648 608
608 648 649 609
609 649 650 610
610 650 651 611
611 651 652 612
612 652 653 613
613 653 654 614
614 654 655 615
615 655 656 616
616 656 657 617
617 657 658 618
618 658 659 619
619 659 660 620
620 660 661 621
621 661 662 622
622 662 663 623
623 663 664 624
624 664 665 625
625 665 666 626
626 666 667 627
627 667 668 628
628 668 669 629
629 669 670 630
630 670 671 631
631 671 672 632
632 672 673 633
633 673 674 634
634 674 675 635
635 675 676 636
636 676 677 637
637 677 94 93
16 17 678 638
638 678 679 639
639 679 680 640
640 680 681 641
641 681 682 642
642 682 683 643
643 683 684 644
644 684 685 645
645 685 686 646
646 686 687 647
647 687 688 648
648 688 689 649
649 689 690 650
650 690 691 651
651 691 692 652
652 692 693 653
653 693 694 654
654 694 695 655
655 695 696 656
656 696 697 657
657 697 698 658
658 698 699 659
659 699 700 660
660 700 701 661
661 701 702 662
662 702 703 663
663 703 704 664
664 704 705 665
665 705 706 666
666 706 707 667
667 707 708 668
668 708 709 669
669 709 710 670
670 710 711 671
671 711 712 672
672 712 713 673
673 713 714 674
674 714 715 675
675 715 716 676
676 716 717 677
677 717 95 94
17 18 718 678
678 718 719 679
679 719 720 680
680 720 721 681
681 721 722 682
682 722 723 683
683 723 724 684
684 724 725 685
685 725 726 686
686 726 727 687
687 727 728 688
688 728 729 689
689 729 730 690
690 730 731 691
691 731 732 692
692 732 733 693
693 733 734 694
694 734 735 695
695 735 736 696
696 736 737 697
697 737 738 698
698 738 739 699
699 739 740 700
700 740 741 701
701 741 742 702
702 742 743 703
703 743 744 704
704 744 745 705
705 745 746 706
706 746 747 707
707 747 748 708
708 748 749 709
709 749 750 710
710 750 751 711
711 751 752 712
712 752 753 713
713 753 754 714
714 754 755 715
715 755 756 716
716 756 757 717
717 757 96 95
18 19 758 718
718 758 759 719
719 759 760 720
720 760 761 721
721 761 762 722
722 762 763 723
723 763 764 724
724 764 765 725
725 765 766 726
726 766 767 727
727 767 768 728
728 768 769 729
729 769 770 730
730 770 771 731
731 771 772 732
732 772 773 733
733 773 774 734
734 774 775 735
735 775 776 736
736 776 777 737
737 777 778 738
738 778 779 739
739 779 780 740
740 780 781 741
741 781 782 742
742 782 783 743
743 783 784 744
744 784 785 745
745 785 786 746
746 786 787 747
747 787 788 748
748 788 789 749
749 789 790 750
750 790 791 751
751 791 792 752
752 792 793 753
753 793 794 754
754 794 795 755
755 795 796 756
756 796 797 757
757 797 97 96
19 20 798 758
758 798 799 759
759 799 800 760
760 800 801 761
761 801 802 762
762 802 803 763
763 803 804 764
764 804 805 765
765 805 806 766
766 806 807 767
767 807 808 768
768 808 809 769
769 809 810 770
770 810 811 771
771 811 812 772
772 812 813 773
773 813 814 774
774 814 815 775
775 815 816 776
776 816 817 777
777 817 818 778
778 818 819 779
779 819 820 780
780 820 821 781
781 821 822 782
782 822 823 783
783 823 824 784
784 824 825 785
785 825 826 786
786 826 827 787
787 827 828 788
788 828 829 789
789 829 830 790
790 830 831 791
791 831 832 792
792 832 833 793
793 833 834 794
794 834 835 795
795 835 836 796
796 836 837 797
797 837 98 97
20 21 838 798
798 838 839 799
799 839 840 800
800 840 841 801
801 841 842 802
802 842 843 803
803 843 844 804
804 844 845 805
805 845 846 806
806 846 847 807
807 847 848 808
808 848 849 809
809 849 850 810
810 850 851 811
811 851 852 812
812 852 853 813
813 853 854 814
814 854 855 815
815 855 856 816
816 856 857 817
817 857 858 818
818 858 859 819
819 859 860 820
820 860 861 821
821 861 862 822
822 862 863 823
823 863 864 824
824 864 865 825
825 865 866 826
826 866 867 827
827 867 868 828
828 868 869 829
829 869 870 830
830 870 871 831
831 871 872 832
832 872 873 833
833 873 874 834
834 874 875 835
835 875 876 836
836 876 877 837
837 877 99 98
21 22 878 838
838 878 879 839
839 879 880 840
840 880 881 841
841 881 882 842
842 882 883 843
843 883 884 844
844 884 885 845
845 885 886 846
846 886 887 847
847 887 888 848
848 888 889 849
849 889 890 850
850 890 891 851
851 891 892 852
852 892 893 853
853 893 894 854
854 894 895 855
855 895 896 856
856 896 897 857
857 897 898 858
858 898 899 859
859 899 900 860
860 900 901 861
861 901 902 862
862 902 903 863
863 903 904 864
864 904 905 865
865 905 906 866
866 906 907 867
867 907 908 868
868 908 909 869
869 909 910 870
870 910 911 871
871 911 912 872
872 912 913 873
873 913 914 874
874 914 915 875
875 915 916 876
876 916 917 877
877 917 100 99
22 23 918 878
878 918 919 879
879 919 920 880
880 920 921 881
881 921 922 882
882 922 923 883
883 923 924 884
884 924 925 885
885 925 926 886
886 926 927 887
887 927 928 888
888 928 929 889
889 929 930 890
890 930 931 891
891 931 932 892
892 932 933 893
893 933 934 894
894 934 935 895
895 935 936 896
896 936 937 897
897 937 938 898
898 938 939 899
899 939 940 900
900 940 941 901
901 941 942 902
902 942 943 903
903 943 944 904
904 944 945 905
905 945 946 906
906 946 947 907
907 947 948 908
908 948 949 909
909 949 950 910
910 950 951 911
911 951 952 912
912 952 953 913
913 953 954 914
914 954 955 915
915 955 956 916
916 956 957 917
917 957 101 100
23 24 958 918
918 958 959 919
919 959 960 920
920 960 961 921
921 961 962 922
922 962 963 923
923 963 964 924
924 964 965 925
925 965 966 926
926 966 967 927
927 967 968 928
928 968 969 929
929 969 970 930
930 970 971 931
931 971 972 932
932 972 973 933
933 973 974 934
934 974 975 935
935 975 976 936
936 976 977 937
937 977 978 938
938 978 979 939
939 979 980 940
940 980 981 941
941 981 982 942
942 982 983 943
943 983 984 944
944 984 985 945
945 985 986 946
946 986 987 947
947 987 988 948
948 988 989 949
949 989 990 950
950 990 991 951
951 991 992 952
952 992 993 953
953 993 994 954
954 994 995 955
955 995 996 956
956 996 997 957
957 997 102 101
24 25 998 958
958 998 999 959
959 999 1000 960
960 1000 1001 961
961 1001 1002 962
962 1002 1003 963
963 1003 1004 964
964 1004 1005 965
965 1005 1006 966
966 1006 1007 967
967 1007 1008 968
968 1008 1009 969
969 1009 1010 970
970 1010 1011 971
971 1011 1012 972
972 1012 1013 973
973 1013 1014 974
974 1014 1015 975
975 1015 1016 976
976 1016 1017 977
977 1017 1018 978
978 1018 1019 979
979 1019 1020 980
980 1020 1021 981
981 1021 1022 982
982 1022 1023 983
983 1023 1024 984
984 1024 1025 985
985 1025 1026 986
986 1026 1027 987
987 1027 1028 988
988 1028 1029 989
989 1029 1030 990
990 1030 1031 991
991 1031 1032 992
992 1032 1033 993
993 1033 1034 994
994 1034 1035 995
995 1035 1036 996
996 1036 1037 997
997 1037 103 102
25 26 1038 998
998 1038 1039 999
999 1039 1040 1000
1000 1040 1041 1001
1001 1041 1042 1002
1002 1042 1043 1003
1003 1043 1044 1004
1004 1044 1045 1005
1005 1045 1046 1006
1006 1046 1047 1007
1007 1047 1048 1008
1008 1048 1049 1009
1009 1049 1050 1010
1010 1050 1051 1011
1011 1051 1052 1012
1012 1052 1053 1013
1013 1053 1054 1014
1014 1054 1055 1015
1015 1055 1056 1016
1016 1056 1057 1017
1017 1057 1058 1018
1018 1058 1059 1019
1019 1059 1060 1020
1020 1060 1061 1021
1021 1061 1062 1022
1022 1062 1063 1023
1023 1063 1064 1024
1024 1064 1065 1025
1025 1065 1066 1026
1026 1066 1067 1027
1027 1067 1068 1028
1028 1068 1069 1029
1029 1069 1070 1030
1030 1070 1071 1031
1031 1071 1072 1032
1032 1072 1073 1033
1033 1073 1074 1034
1034 1074 1075 1035
1035 1075 1076 1036
1036 1076 1077 1037
1037 1077 104 103
26 27 1078 1038
1038 1078 1079 1039
1039 1079 1080 1040
1040 1080 1081 1041
1041 1081 1082 1042
1042 1082 1083 1043
1043 1083 1084 1044
1044 1084 1085 1045
1045 1085 1086 1046
1046 1086 1087 1047
1047 1087 1088 1048
1048 1088 1089 1049
1049 1089 1090 1050
1050 1090 1091 1051
1051 1091 1092 1052
1052 1092 1093 1053
1053 1093 1094 1054
1054 1094 1095 1055
1055 1095 1096 1056
1056 1096 1097 1057
1057 1097 1098 1058
1058 1098 1099 1059
1059 1099 1100 1060
1060 1100 1101 1061
1061 1101 1102 1062
1062 1102 1103 1063
1063 1103 1104 1064
1064 1104 1105 1065
1065 1105 1106 1066
1066 1106 1107 1067
1067 1107 1108 1068
1068 1108 1109 1069
1069 1109 1110 1070
1070 1110 1111 1071
1071 1111 1112 1072
1072 1112 1113 1073
1073 1113 1114 1074
1074 1114 1115 1075
1075 1115 1116 1076
1076 1116 1117 1077
1077 1117 105 104
27 28 1118 1078
1078 1118 1119 1079
1079 1119 1120 1080
1080 1120 1121 1081
1081 1121 1122 1082
1082 1122 1123 1083
1083 1123 1124 1084
1084 1124 1125 1085
1085 1125 1126 1086
1086 1126 1127 1087
1087 1127 1128 1088
1088 1128 1129 1089
1089 1129 1130 1090
1090 1130 1131 1091
1091 1131 1132 1092
1092 1132 1133 1093
1093 1133 1134 1094
1094 1134 1135 1095
1095 1135 1136 1096
1096 1136 1137 1097
1097 1137 1138 1098
1098 1138 1139 1099
1099 1139 1140 1100
1100 1140 1141 1101
1101 1141 1142 1102
1102 1142 1143 1103
1103 1143 1144 1104
1104 1144 1145 1105
1105 1145 1146 1106
1106 1146 1147 1107
1107 1147 1148 1108
1108 1148 1149 1109
1109 1149 1150 1110
1110 1150 1151 1111
1111 1151 1152 1112
1112 1152 1153 1113
1113 1153 1154 1114
1114 1154 1155 1115
1115 1155 1156 1116
1116 1156 1157 1117
1117 1157 106 105
28 29 1158 1118
1118 1158 1159 1119
1119 1159 1160 1120
1120 1160 1161 1121
1121 1161 1162 1122
1122 1162 1163 1123
1123 1163 1164 1124
1124 1164 1165 1125
1125 1165 1166 1126
1126 1166 1167 1127
1127 1167 1168 1128
1128 1168 1169 1129
1129 1169 1170 1130
1130 1170 1171 1131
1131 1171 1172 1132
1132 1172 1173 1133
1133 1173 1174 1134
1134 1174 1175 1135
1135 1175 1176 1136
1136 1176 1177 1137
1137 1177 1178 1138
1138 1178 1179 1139
1139 1179 1180 1140
1140 1180 1181 1141
1141 1181 1182 1142
1142 1182 1183 1143
1143 1183 1184 1144
1144 1184 1185 1145
1145 1185 1186 1146
1146 1186 1187 1147
1147 1187 1188 1148
1148 1188 1189 1149
1149 1189 1190 1150
1150 1190 1191 1151
1151 1191 1192 1152
1152 1192 1193 1153
1153 1193 1194 1154
1154 1194 1195 1155
1155 1195 1196 1156
1156 1196 1197 1157
1157 1197 107 106
29 30 1198 1158
1158 1198 1199 1159
1159 1199 1200 1160
1160 1200 1201 1161
1161 1201 1202 1162
1162 1202 1203 1163
1163 1203 1204 1164
1164 1204 1205 1165
1165 1205 1206 1166
1166 1206 1207 1167
1167 1207 1208 1168
1168 1208 1209 1169
1169 1209 1210 1170
1170 1210 1211 1171
1171 1211 1212 1172
1172 1212 1213 1173
1173 1213 1214 1174
1174 1214 1215 1175
1175 1215 1216 1176
1176 1216 1217 1177
1177 1217 1218 1178
1178 1218 1219 1179
1179 1219 1220 1180
1180 1220 1221 1181
1181 1221 1222 1182
1182 1222 1223 1183
1183 1223 1224 1184
1184 1224 1225 1185
1185 1225 1226 1186
1186 1226 1227 1187
1187 1227 1228 1188
1188 1228 1229 1189
1189 1229 1230 1190
1190 1230 1231 1191
1191 1231 1232 1192
1192 1232 1233 1193
1193 1233 1234 1194
1194 1234 1235 1195
1195 1235 1236 1196
1196 1236 1237 1197
1197 1237 4 107
30 31 1238 1198
1198 1238 1239 1199
1199 1239 1240 1200
1200 1240 1241 1201
1201 1241 1242 1202
1202 1242 1243 1203
1203 1243 1244 1204
1204 1244 1245 1205
1205 1245 1246 1206
1206 1246 1247 1207
1207 1247 1248 1208
1208 1248 1249 1209
1209 1249 1250 1210
1210 1250 1251 1211
1211 1251 1252 1212
1212 1252 1253 1213
1213 1253 1254 1214
1214 1254 1255 1215
1215 1255 1256 1216
1216 1256 1257 1217
1217 1257 1258 1218
1218 1258 1259 1219
1219 1259 1260 1220
1220 1260 1261 1221
1221 1261 1262 1222
1222 1262 1263 1223
1223 1263 1264 1224
1224 1264 1265 1225
1225 1265 1266 1226
1226 1266 1267 1227
1227 1267 1268 1228
1228 1268 1269 1229
1229 1269 1270 1230
1230 1270 1271 1231
1231 1271 1272 1232
1232 1272 1273 1233
1233 1273 1274 1234
1234 1274 1275 1235
1235 1275 1276 1236
1236 1276 1277 1237
1237 1277 108 4
31 32 1278 1238
1238 1278 1279 1239
1239 1279 1280 1240
1240 1280 1281 1241
1241 1281 1282 1242
1242 1282 1283 1243
1243 1283 1284 1244
1244 1284 1285 1245
1245 1285 1286 1246
1246 1286 1287 1247
1247 1287 1288 1248
1248 1288 1289 1249
1249 1289 1290 1250
1250 1290 1291 1251
1251 1291 1292 1252
1252 1292 1293 1253
1253 1293 1294 1254
1254 1294 1295 1255
1255 1295 1296 1256
1256 1296 1297 1257
1257 1297 1298 1258
1258 1298 1299 1259
1259 1299 1300 1260
1260 1300 1301 1261
1261 1301 1302 1262
1262 1302 1303 1263
1263 1303 1304 1264
1264 1304 1305 1265
1265 1305 1306 1266
1266 1306 1307 1267
1267 1307 1308 1268
1268 1308 1309 1269
1269 1309 1310 1270
1270 1310 1311 1271
1271 1311 1312 1272
1272 1312 1313 1273
1273 1313 1314 1274
1274 1314 1315 1275
1275 1315 1316 1276
1276 1316 1317 1277
1277 1317 109 108
32 33 1318 1278
1278 1318 1319 1279
1279 1319 1320 1280
1280 1320 1321 1281
1281 1321 1322 1282
1282 1322 1323 1283
1283 1323 1324 1284
1284 1324 1325 1285
1285 1325 1326 1286
1286 1326 1327 1287
1287 1327 1328 1288
1288 1328 1329 1289
1289 1329 1330 1290
1290 1330 1331 1291
1291 1331 1332 1292
1292 1332 1333 1293
1293 1333 1334 1294
1294 1334 1335 1295
1295 1335 1336 1296
1296 1336 1337 1297
1297 1337 1338 1298
1298 1338 1339 1299
1299 1339 1340 1300
1300 1340 1341 1301
1301 1341 1342 1302
1302 1342 1343 1303
1303 1343 1344 1304
1304 1344 1345 1305
1305 1345 1346 1306
1306 1346 1347 1307
1307 1347 1348 1308
1308 1348 1349 1309
1309 1349 1350 1310
1310 1350 1351 1311
1311 1351 1352 1312
1312 1352 1353 1313
1313 1353 1354 1314
1314 1354 1355 1315
1315 1355 1356 1316
1316 1356 1357 1317
1317 1357 110 109
33 34 1358 1318
1318 1358 1359 1319
1319 1359 1360 1320
1320 1360 1361 1321
1321 1361 1362 1322
1322 1362 1363 1323
1323 1363 1364 1324
1324 1364 1365 1325
1325 1365 1366 1326
1326 1366 1367 1327
1327 1367 1368 1328
1328 1368 1369 1329
1329 1369 1370 1330
1330 1370 1371 1331
1331 1371 1372 1332
1332 1372 1373 1333
1333 1373 1374 1334
1334 1374 1375 1335
1335 1375 1376 1336
1336 1376 1377 1337
1337 1377 1378 1338
1338 1378 1379 1339
1339 1379 1380 1340
1340 1380 1381 1341
1341 1381 1382 1342
1342 1382 1383 1343
1343 1383 1384 1344
1344 1384 1385 1345
1345 1385 1386 1346
1346 1386 1387 1347
1347 1387 1388 1348
1348 1388 1389 1349
1349 1389 1390 1350
1350 1390 1391 1351
1351 1391 1392 1352
1352 1392 1393 1353
1353 1393 1394 1354
1354 1394 1395 1355
1355 1395 1396 1356
1356 1396 1397 1357
1357 1397 111 110
34 35 1398 1358
1358 1398 1399 1359
1359 1399 1400 1360
1360 1400 1401 1361
1361 1401 1402 1362
1362 1402 1403 1363
1363 1403 1404 1364
1364 1404 1405 1365
1365 1405 1406 1366
1366 1406 1407 1367
1367 1407 1408 1368
1368 1408 1409 1369
1369 1409 1410 1370
1370 1410 1411 1371
1371 1411 1412 1372
1372 1412 1413 1373
1373 1413 1414 1374
1374 1414 1415 1375
1375 1415 1416 1376
1376 1416 1417 1377
1377 1417 1418 1378
1378 1418 1419 1379
1379 1419 1420 1380
1380 1420 1421 1381
1381 1421 1422 1382
1382 1422 1423 1383
1383 1423 1424 1384
1384 1424 1425 1385
1385 1425 1426 1386
1386 1426 1427 1387
1387 1427 1428 1388
1388 1428 1429 1389
1389 1429 1430 1390
1390 1430 1431 1391
1391 1431 1432 1392
1392 1432 1433 1393
1393 1433 1434 1394
1394 1434 1435 1395
1395 1435 1436 1396
1396 1436 1437 1397
1397 1437 112 111
35 36 1438 1398
1398 1438 1439 1399
1399 1439 1440 1400
1400 1440 1441 1401
1401 1441 1442 1402
1402 1442 1443 1403
1403 1443 1444 1404
1404 1444 1445 1405
1405 1445 1446 1406
1406 1446 1447 1407
1407 1447 1448 1408
1408 1448 1449 1409
1409 1449 1450 1410
1410 1450 1451 1411
1411 1451 1452 1412
1412 1452 1453 1413
1413 1453 1454 1414
1414 1454 1455 1415
1415 1455 1456 1416
1416 1456 1457 1417
1417 1457 1458 1418
1418 1458 1459 1419
1419 1459 1460 1420
1420 1460 1461 1421
1421 1461 1462 1422
1422 1462 1463 1423
1423 1463 1464 1424
1424 1464 1465 1425
1425 1465 1466 1426
1426 1466 1467 1427
1427 1467 1468 1428
1428 1468 1469 1429
1429 1469 1470 1430
1430 1470 1471 1431
1431 1471 1472 1432
1432 1472 1473 1433
1433 1473 1474 1434
1434 1474 1475 1435
1435 1475 1476 1436
1436 1476 1477 1437
1437 1477 113 112
36 37 1478 1438
1438 1478 1479 1439
1439 1479 1480 1440
1440 1480 1481 1441
1441 1481 1482 1442
1442 1482 1483 1443
1443 1483 1484 1444
1444 1484 1485 1445
1445 1485 1486 1446
1446 1486 1487 1447
1447 1487 1488 1448
1448 1488 1489 1449
1449 1489 1490 1450
1450 1490 1491 1451
1451 1491 1492 1452
1452 1492 1493 1453
1453 1493 1494 1454
1454 1494 1495 1455
1455 1495 1496 1456
1456 1496 1497 1457
1457 1497 1498 1458
1458 1498 1499 1459
1459 1499 1500 1460
1460 1500 1501 1461
1461 1501 1502 1462
1462 1502 1503 1463
1463 1503 1504 1464
1464 1504 1505 1465
1465 1505 1506 1466
1466 1506 1507 1467
1467 1507 1508 1468
1468 1508 1509 1469
1469 1509 1510 1470
1470 1510 1511 1471
1471 1511 1512 1472
1472 1512 1513 1473
1473 1513 1514 1474
1474 1514 1515 1475
1475 1515 1516 1476
1476 1516 1517 1477
1477 1517 114 113
37 38 1518 1478
1478 1518 1519 1479
1479 1519 1520 1480
1480 1520 1521 1481
1481 1521 1522 1482
1482 1522 1523 1483
1483 1523 1524 1484
1484 1524 1525 1485
1485 1525 1526 1486
1486 1526 1527 1487
1487 1527 1528 1488
1488 1528 1529 1489
1489 1529 1530 1490
1490 1530 1531 1491
1491 1531 1532 1492
1492 1532 1533 1493
1493 1533 1534 1494
1494 1534 1535 1495
1495 1535 1536 1496
1496 1536 1537 1497
1497 1537 1538 1498
1498 1538 1539 1499
1499 1539 1540 1500
1500 1540 1541 1501
1501 1541 1542 1502
1502 1542 1543 1503
1503 1543 1544 1504
1504 1544 1545 1505
1505 1545 1546 1506
1506 1546 1547 1507
1507 1547 1548 1508
1508 1548 1549 1509
1509 1549 1550 1510
1510 1550 1551 1511
1511 1551 1552 1512
1512 1552 1553 1513
1513 1553 1554 1514
1514 1554 1555 1515
1515 1555 1556 1516
1516 1556 1557 1517
1517 1557 115 114
38 39 1558 1518
1518 1558 1559 1519
1519 1559 1560 1520
1520 1560 1561 1521
1521 1561 1562 1522
1522 1562 1563 1523
1523 1563 1564 1524
1524 1564 1565 1525
1525 1565 1566 1526
1526 1566 1567 1527
1527 1567 1568 1528
1528 1568 1569 1529
1529 1569 1570 1530
1530 1570 1571 1531
1531 1571 1572 1532
1532 1572 1573 1533
1533 1573 1574 1534
1534 1574 1575 1535
1535 1575 1576 1536
1536 1576 1577 1537
1537 1577 1578 1538
1538 1578 1579 1539
1539 1579 1580 1540
1540 1580 1581 1541
1541 1581 1582 1542
1542 1582 1583 1543
1543 1583 1584 1544
1544 1584 1585 1545
1545 1585 1586 1546
1546 1586 1587 1547
1547 1587 1588 1548
1548 1588 1589 1549
1549 1589 1590 1550
1550 1590 1591 1551
1551 1591 1592 1552
1552 1592 1593 1553
1553 1593 1594 1554
1554 1594 1595 1555
1555 1595 1596 1556
1556 1596 1597 1557
1557 1597 116 115
39 40 1598 1558
1558 1598 1599 1559
1559 1599 1600 1560
1560 1600 1601 1561
1561 1601 1602 1562
1562 1602 1603 1563
1563 1603 1604 1564
1564 1604 1605 1565
1565 1605 1606 1566
1566 1606 1607 1567
1567 1607 1608 1568
1568 1608 1609 1569
1569 1609 1610 1570
1570 1610 1611 1571
1571 1611 1612 1572
1572 1612 1613 1573
1573 1613 1614 1574
1574 1614 1615 1575
1575 1615 1616 1576
1576 1616 1617 1577
1577 1617 1618 1578
1578 1618 1619 1579
1579 1619 1620 1580
1580 1620 1621 1581
1581 1621 1622 1582
1582 1622 1623 1583
1583 1623 1624 1584
1584 1624 1625 1585
1585 1625 1626 1586
1586 1626 1627 1587
1587 1627 1628 1588
1588 1628 1629 1589
1589 1629 1630 1590
1590 1630 1631 1591
1591 1631 1632 1592
1592 1632 1633 1593
1593 1633 1634 1594
1594 1634 1635 1595
1595 1635 1636 1596
1596 1636 1637 1597
1597 1637 117 116
40 41 1638 1598
1598 1638 1639 1599
1599 1639 1640 1600
1600 1640 1641 1601
1601 1641 1642 1602
1602 1642 1643 1603
1603 1643 1644 1604
1604 1644 1645 1605
1605 1645 1646 1606
1606 1646 1647 1607
1607 1647 1648 1608
1608 1648 1649 1609
1609 1649 1650 1610
1610 1650 1651 1611
1611 1651 1652 1612
1612 1652 1653 1613
1613 1653 1654 1614
1614 1654 1655 1615
1615 1655 1656 1616
1616 1656 1657 1617
1617 1657 1658 1618
1618 1658 1659 1619
1619 1659 1660 1620
1620 1660 1661 1621
1621 1661 1662 1622
1622 1662 1663 1623
1623 1663 1664 1624
1624 1664 1665 1625
1625 1665 1666 1626
1626 1666 1667 1627
1627 1667 1668 1628
1628 1668 1669 1629
1629 1669 1670 1630
1630 1670 1671 1631
1631 1671 1672 1632
1632 1672 1673 1633
1633 1673 1674 1634
1634 1674 1675 1635
1635 1675 1676 1636
1636 1676 1677 1637
1637 1677 118 117
41 42 1678 1638
1638 1678 1679 1639
1639 1679 1680 1640
1640 1680 1681 1641
1641 1681 1682 1642
1642 1682 1683 1643
1643 1683 1684 1644
1644 1684 1685 1645
1645 1685 1686 1646
1646 1686 1687 1647
1647 1687 1688 1648
1648 1688 1689 1649
1649 1689 1690 1650
1650 1690 1691 1651
1651 1691 1692 1652
1652 1692 1693 1653
1653 1693 1694 1654
1654 1694 1695 1655
1655 1695 1696 1656
1656 1696 1697 1657
1657 1697 1698 1658
1658 1698 1699 1659
1659 1699 1700 1660
1660 1700 1701 1661
1661 1701 1702 1662
1662 1702 1703 1663
1663 1703 1704 1664
1664 1704 1705 1665
1665 1705 1706 1666
1666 1706 1707 1667
1667 1707 1708 1668
1668 1708 1709 1669
1669 1709 1710 1670
1670 1710 1711 1671
1671 1711 1712 1672
1672 1712 1713 1673
1673 1713 1714 1674
1674 1714 1715 1675
1675 1715 1716 1676
1676 1716 1717 1677
1677 1717 119 118
42 43 1718 1678
1678 1718 1719 1679
1679 1719 1720 1680
1680 1720 1721 1681
1681 1721 1722 1682
1682 1722 1723 1683
1683 1723 1724 1684
1684 1724 1725 1685
1685 1725 1726 1686
1686 1726 1727 1687
1687 1727 1728 1688
1688 1728 1729 1689
1689 1729 1730 1690
1690 1730 1731 1691
1691 1731 1732 1692
1692 1732 1733 1693
1693 1733 1734 1694
1694 1734 1735 1695
1695 1735 1736 1696
1696 1736 1737 1697
1697 1737 1738 1698
1698 1738 1739 1699
1699 1739 1740 1700
1700 1740 1741 1701
1701 1741 1742 1702
1702 1742 1743 1703
1703 1743 1744 1704
1704 1744 1745 1705
1705 1745 1746 1706
1706 1746 1747 1707
1707 1747 1748 1708
1708 1748 1749 1709
1709 1749 1750 1710
1710 1750 1751 1711
1711 1751 1752 1712
1712 1752 1753 1713
1713 1753 1754 1714
1714 1754 1755 1715
1715 1755 1756 1716
1716 1756 1757 1717
1717 1757 120 119
43 44 1758 1718
1718 1758 1759 1719
1719 1759 1760 1720
1720 1760 1761 1721
1721 1761 1762 1722
1722 1762 1763 1723
1723 1763 1764 1724
1724 1764 1765 1725
1725 1765 1766 1726
1726 1766 1767 1727
1727 1767 1768 1728
1728 1768 1769 1729
1729 1769 1770 1730
1730 1770 1771 1731
1731 1771 1772 1732
1732 1772 1773 1733
1733 1773 1774 1734
1734 1774 1775 1735
1735 1775 1776 1736
1736 1776 1777 1737
1737 1777 1778 1738
1738 1778 1779 1739
1739 1779 1780 1740
1740 1780 1781 1741
1741 1781 1782 1742
1742 1782 1783 1743
1743 1783 1784 1744
1744 1784 1785 1745
1745 1785 1786 1746
1746 1786 1787 1747
1747 1787 1788 1748
1748 1788 1789 1749
1749 1789 1790 1750
1750 1790 1791 1751
1751 1791 1792 1752
1752 1792 1793 1753
1753 1793 1794 1754
1754 1794 1795 1755
1755 1795 1796 1756
1756 1796 1797 1757
1757 1797 121 120
44 45 1798 1758
1758 1798 1799 1759
1759 1799 1800 1760
1760 1800 1801 1761
1761 1801 1802 1762
1762 1802 1803 1763
1763 1803 1804 1764
1764 1804 1805 1765
1765 1805 1806 1766
1766 1806 1807 1767
1767 1807 1808 1768
1768 1808 1809 1769
1769 1809 1810 1770
1770 1810 1811 1771
1771 1811 1812 1772
1772 1812 1813 1773
1773 1813 1814 1774
1774 1814 1815 1775
1775 1815 1816 1776
1776 1816 1817 1777
1777 1817 1818 1778
1778 1818 1819 1779
1779 1819 1820 1780
1780 1820 1821 1781
1781 1821 1822 1782
1782 1822 1823 1783
1783 1823 1824 1784
1784 1824 1825 1785
1785 1825 1826 1786
1786 1826 1827 1787
1787 1827 1828 1788
1788 1828 1829 1789
1789 1829 1830 1790
1790 1830 1831 1791
1791 1831 1832 1792
1792 1832 1833 1793
1793 1833 1834 1794
1794 1834 1835 1795
1795 1835 1836 1796
1796 1836 1837 1797
1797 1837 122 121
45 46 1838 1798
1798 1838 1839 1799
1799 1839 1840 1800
1800 1840 1841 1801
1801 1841 1842 1802
1802 1842 1843 1803
1803 1843 1844 1804
1804 1844 1845 1805
1805 1845 1846 1806
1806 1846 1847 1807
1807 1847 1848 1808
1808 1848 1849 1809
1809 1849 1850 1810
1810 1850 1851 1811
1811 1851 1852 1812
1812 1852 1853 1813
1813 1853 1854 1814
1814 1854 1855 1815
1815 1855 1856 1816
1816 1856 1857 1817
1817 1857 1858 1818
1818 1858 1859 1819
1819 1859 1860 1820
1820 1860 1861 1821
1821 1861 1862 1822
1822 1862 1863 1823
1823 1863 1864 1824
1824 1864 1865 1825
1825 1865 1866 1826
1826 1866 1867 1827
1827 1867 1868 1828
1828 1868 1869 1829
1829 1869 1870 1830
1830 1870 1871 1831
1831 1871 1872 1832
1832 1872 1873 1833
1833 1873 1874 1834
1834 1874 1875 1835
1835 1875 1876 1836
1836 1876 1877 1837
1837 1877 123 122
46 47 1878 1838
1838 1878 1879 1839
1839 1879 1880 1840
1840 1880 1881 1841
1841 1881 1882 1842
1842 1882 1883 1843
1843 1883 1884 1844
1844 1884 1885 1845
1845 1885 1886 1846
1846 1886 1887 1847
1847 1887 1888 1848
1848 1888 1889 1849
1849 1889 1890 1850
1850 1890 1891 1851
1851 1891 1892 1852
1852 1892 1893 1853
1853 1893 1894 1854
1854 1894 1895 1855
1855 1895 1896 1856
1856 1896 1897 1857
1857 1897 1898 1858
1858 1898 1899 1859
1859 1899 1900 1860
1860 1900 1901 1861
1861 1901 1902 1862
1862 1902 1903 1863
1863 1903 1904 1864
1864 1904 1905 1865
1865 1905 1906 1866
1866 1906 1907 1867
1867 1907 1908 1868
1868 1908 1909 1869
1869 1909 1910 1870
1870 1910 1911 1871
1871 1911 1912 1872
1872 1912 1913 1873
1873 1913 1914 1874
1874 1914 1915 1875
1875 1915 1916 1876
1876 1916 1917 1877
1877 1917 124 123
47 48 1918 1878
1878 1918 1919 1879
1879 1919 1920 1880
1880 1920 1921 1881
1881 1921 1922 1882
1882 1922 1923 1883
1883 1923 1924 1884
1884 1924 1925 1885
1885 1925 1926 1886
1886 1926 1927 1887
1887 1927 1928 1888
1888 1928 1929 1889
1889 1929 1930 1890
1890 1930 1931 1891
1891 1931 1932 1892
1892 1932 1933 1893
1893 1933 1934 1894
1894 1934 1935 1895
1895 1935 1936 1896
1896 1936 1937 1897
1897 1937 1938 1898
1898 1938 1939 1899
1899 1939 1940 1900
1900 1940 1941 1901
1901 1941 1942 1902
1902 1942 1943 1903
1903 1943 1944 1904
1904 1944 1945 1905
1905 1945 1946 1906
1906 1946 1947 1907
1907 1947 1948 1908
1908 1948 1949 1909
1909 1949 1950 1910
1910 1950 1951 1911
1911 1951 1952 1912
1912 1952 1953 1913
1913 1953 1954 1914
1914 1954 1955 1915
1915 1955 1956 1916
1916 1956 1957 1917
1917 1957 125 124
48 49 1958 1918
1918 1958 1959 1919
1919 1959 1960 1920
1920 1960 1961 1921
1921 1961 1962 1922
1922 1962 1963 1923
1923 1963 1964 1924
1924 1964 1965 1925
1925 1965 1966 1926
1926 1966 1967 1927
1927 1967 1968 1928
1928 1968 1969 1929
1929 1969 1970 1930
1930 1970 1971 1931
1931 1971 1972 1932
1932 1972 1973 1933
1933 1973 1974 1934
1934 1974 1975 1935
1935 1975 1976 1936
1936 1976 1977 1937
1937 1977 1978 1938
1938 1978 1979 1939
1939 1979 1980 1940
1940 1980 1981 1941
1941 1981 1982 1942
1942 1982 1983 1943
1943 1983 1984 1944
1944 1984 1985 1945
1945 1985 1986 1946
1946 1986 1987 1947
1947 1987 1988 1948
1948 1988 1989 1949
1949 1989 1990 1950
1950 1990 1991 1951
1951 1991 1992 1952
1952 1992 1993 1953
1953 1993 1994 1954
1954 1994 1995 1955
1955 1995 1996 1956
1956 1996 1997 1957
1957 1997 126 125
49 1 1998 1958
1958 1998 1999 1959
1959 1999 2000 1960
1960 2000 2001 1961
1961 2001 2002 1962
1962 2002 2003 1963
1963 2003 2004 1964
1964 2004 2005 1965
1965 2005 2006 1966
1966 2006 2007 1967
1967 2007 2008 1968
1968 2008 2009 1969
1969 2009 2010 1970
1970 2010 2011 1971
1971 2011 2012 1972
1972 2012 2013 1973
1973 2013 2014 1974
1974 2014 2015 1975
1975 2015 2016 1976
1976 2016 2017 1977
1977 2017 2018 1978
1978 2018 2019 1979
1979 2019 2020 1980
1980 2020 2021 1981
1981 2021 2022 1982
1982 2022 2023 1983
1983 2023 2024 1984
1984 2024 2025 1985
1985 2025 2026 1986
1986 2026 2027 1987
1987 2027 2028 1988
1988 2028 2029 1989
1989 2029 2030 1990
1990 2030 2031 1991
1991 2031 2032 1992
1992 2032 2033 1993
1993 2033 2034 1994
1994 2034 2035 1995
1995 2035 2036 1996
1996 2036 2037 1997
1997 2037 127 126
1 50 2038 1998
1998 2038 2039 1999
1999 2039 2040 2000
2000 2040 2041 2001
2001 2041 2042 2002
2002 2042 2043 2003
2003 2043 2044 2004
2004 2044 2045 2005
2005 2045 2046 2006
2006 2046 2047 2007
2007 2047 2048 2008
2008 2048 2049 2009
2009 2049 2050 2010
2010 2050 2051 2011
2011 2051 2052 2012
2012 2052 2053 2013
2013 2053 2054 2014
2014 2054 2055 2015
2015 2055 2056 2016
2016 2056 2057 2017
2017 2057 2058 2018
2018 2058 2059 2019
2019 2059 2060 2020
2020 2060 2061 2021
2021 2061 2062 2022
2022 2062 2063 2023
2023 2063 2064 2024
2024 2064 2065 2025
2025 2065 2066 2026
2026 2066 2067 2027
2027 2067 2068 2028
2028 2068 2069 2029
2029 2069 2070 2030
2030 2070 2071 2031
2031 2071 2072 2032
2032 2072 2073 2033
2033 2073 2074 2034
2034 2074 2075 2035
2035 2075 2076 2036
2036 2076 2077 2037
2037 2077 128 127
50 51 2078 2038
2038 2078 2079 2039
2039 2079 2080 2040
2040 2080 2081 2041
2041 2081 2082 2042
2042 2082 2083 2043
2043 2083 2084 2044
2044 2084 2085 2045
2045 2085 2086 2046
2046 2086 2087 2047
2047 2087 2088 2048
2048 2088 2089 2049
2049 2089 2090 2050
2050 2090 2091 2051
2051 2091 2092 2052
2052 2092 2093 2053
2053 2093 2094 2054
2054 2094 2095 2055
2055 2095 2096 2056
2056 2096 2097 2057
2057 2097 2098 2058
2058 2098 2099 2059
2059 2099 2100 2060
2060 2100 2101 2061
2061 2101 2102 2062
2062 2102 2103 2063
2063 2103 2104 2064
2064 2104 2105 2065
2065 2105 2106 2066
2066 2106 2107 2067
2067 2107 2108 2068
2068 2108 2109 2069
2069 2109 2110 2070
2070 2110 2111 2071
2071 2111 2112 2072
2072 2112 2113 2073
2073 2113 2114 2074
2074 2114 2115 2075
2075 2115 2116 2076
2076 2116 2117 2077
2077 2117 129 128
51 52 2118 2078
2078 2118 2119 2079
2079 2119 2120 2080
2080 2120 2121 2081
2081 2121 2122 2082
2082 2122 2123 2083
2083 2123 2124 2084
2084 2124 2125 2085
2085 2125 2126 2086
2086 2126 2127 2087
2087 2127 2128 2088
2088 2128 2129 2089
2089 2129 2130 2090
2090 2130 2131 2091
2091 2131 2132 2092
2092 2132 2133 2093
2093 2133 2134 2094
2094 2134 2135 2095
2095 2135 2136 2096
2096 2136 2137 2097
2097 2137 2138 2098
2098 2138 2139 2099
2099 2139 2140 2100
2100 2140 2141 2101
2101 2141 2142 2102
2102 2142 2143 2103
2103 2143 2144 2104
2104 2144 2145 2105
2105 2145 2146 2106
2106 2146 2147 2107
2107 2147 2148 2108
2108 2148 2149 2109
2109 2149 2150 2110
2110 2150 2151 2111
2111 2151 2152 2112
2112 2152 2153 2113
2113 2153 2154 2114
2114 2154 2155 2115
2115 2155 2156 2116
2116 2156 2157 2117
2117 2157 130 129
52 53 2158 2118
2118 2158 2159 2119
2119 2159 2160 2120
2120 2160 2161 2121
2121 2161 2162 2122
2122 2162 2163 2123
2123 2163 2164 2124
2124 2164 2165 2125
2125 2165 2166 2126
2126 2166 2167 2127
2127 2167 2168 2128
2128 2168 2169 2129
2129 2169 2170 2130
2130 2170 2171 2131
2131 2171 2172 2132
2132 2172 2173 2133
2133 2173 2174 2134
2134 2174 2175 2135
2135 2175 2176 2136
2136 2176 2177 2137
2137 2177 2178 2138
2138 2178 2179 2139
2139 2179 2180 2140
2140 2180 2181 2141
2141 2181 2182 2142
2142 2182 2183 2143
2143 2183 2184 2144
2144 2184 2185 2145
2145 2185 2186 2146
2146 2186 2187 2147
2147 2187 2188 2148
2148 2188 2189 2149
2149 2189 2190 2150
2150 2190 2191 2151
2151 2191 2192 2152
2152 2192 2193 2153
2153 2193 2194 2154
2154 2194 2195 2155
2155 2195 2196 2156
2156 2196 2197 2157
2157 2197 131 130
53 54 2198 2158
2158 2198 2199 2159
2159 2199 2200 2160
2160 2200 2201 2161
2161 2201 2202 2162
2162 2202 2203 2163
2163 2203 2204 2164
2164 2204 2205 2165
2165 2205 2206 2166
2166 2206 2207 2167
2167 2207 2208 2168
2168 2208 2209 2169
2169 2209 2210 2170
2170 2210 2211 2171
2171 2211 2212 2172
2172 2212 2213 2173
2173 2213 2214 2174
2174 2214 2215 2175
2175 2215 2216 2176
2176 2216 2217 2177
2177 2217 2218 2178
2178 2218 2219 2179
2179 2219 2220 2180
2180 2220 2221 2181
2181 2221 2222 2182
2182 2222 2223 2183
2183 2223 2224 2184
2184 2224 2225 2185
2185 2225 2226 2186
2186 2226 2227 2187
2187 2227 2228 2188
2188 2228 2229 2189
2189 2229 2230 2190
2190 2230 2231 2191
2191 2231 2232 2192
2192 2232 2233 2193
2193 2233 2234 2194
2194 2234 2235 2195
2195 2235 2236 2196
2196 2236 2237 2197
2197 2237 132 131
54 55 2238 2198
2198 2238 2239 2199
2199 2239 2240 2200
2200 2240 2241 2201
2201 2241 2242 2202
2202 2242 2243 2203
2203 2243 2244 2204
2204 2244 2245 2205
2205 2245 2246 2206
2206 2246 2247 2207
2207 2247 2248 2208
2208 2248 2249 2209
2209 2249 2250 2210
2210 2250 2251 2211
2211 2251 2252 2212
2212 2252 2253 2213
2213 2253 2254 2214
2214 2254 2255 2215
2215 2255 2256 2216
2216 2256 2257 2217
2217 2257 2258 2218
2218 2258 2259 2219
2219 2259 2260 2220
2220 2260 2261 2221
2221 2261 2262 2222
2222 2262 2263 2223
2223 2263 2264 2224
2224 2264 2265 2225
2225 2265 2266 2226
2226 2266 2267 2227
2227 2267 2268 2228
2228 2268 2269 2229
2229 2269 2270 2230
2230 2270 2271 2231
2231 2271 2272 2232
2232 2272 2273 2233
2233 2273 2274 2234
2234 2274 2275 2235
2235 2275 2276 2236
2236 2276 2277 2237
2237 2277 133 132
55 56 2278 2238
2238 2278 2279 2239
2239 2279 2280 2240
2240 2280 2281 2241
2241 2281 2282 2242
2242 2282 2283 2243
2243 2283 2284 2244
2244 2284 2285 2245
2245 2285 2286 2246
2246 2286 2287 2247
2247 2287 2288 2248
2248 2288 2289 2249
2249 2289 2290 2250
2250 2290 2291 2251
2251 2291 2292 2252
2252 2292 2293 2253
2253 2293 2294 2254
2254 2294 2295 2255
2255 2295 2296 2256
2256 2296 2297 2257
2257 2297 2298 2258
2258 2298 2299 2259
2259 2299 2300 2260
2260 2300 2301 2261
2261 2301 2302 2262
2262 2302 2303 2263
2263 2303 2304 2264
2264 2304 2305 2265
2265 2305 2306 2266
2266 2306 2307 2267
2267 2307 2308 2268
2268 2308 2309 2269
2269 2309 2310 2270
2270 2310 2311 2271
2271 2311 2312 2272
2272 2312 2313 2273
2273 2313 2314 2274
2274 2314 2315 2275
2275 2315 2316 2276
2276 2316 2317 2277
2277 2317 134 133
56 57 2318 2278
2278 2318 2319 2279
2279 2319 2320 2280
2280 2320 2321 2281
2281 2321 2322 2282
2282 2322 2323 2283
2283 2323 2324 2284
2284 2324 2325 2285
2285 2325 2326 2286
2286 2326 2327 2287
2287 2327 2328 2288
2288 2328 2329 2289
2289 2329 2330 2290
2290 2330 2331 2291
2291 2331 2332 2292
2292 2332 2333 2293
2293 2333 2334 2294
2294 2334 2335 2295
2295 2335 2336 2296
2296 2336 2337 2297
2297 2337 2338 2298
2298 2338 2339 2299
2299 2339 2340 2300
2300 2340 2341 2301
2301 2341 2342 2302
2302 2342 2343 2303
2303 2343 2344 2304
2304 2344 2345 2305
2305 2345 2346 2306
2306 2346 2347 2307
2307 2347 2348 2308
2308 2348 2349 2309
2309 2349 2350 2310
2310 2350 2351 2311
2311 2351 2352 2312
2312 2352 2353 2313
2313 2353 2354 2314
2314 2354 2355 2315
2315 2355 2356 2316
2316 2356 2357 2317
2317 2357 135 134
57 58 2358 2318
2318 2358 2359 2319
2319 2359 2360 2320
2320 2360 2361 2321
2321 2361 2362 2322
2322 2362 2363 2323
2323 2363 2364 2324
2324 2364 2365 2325
2325 2365 2366 2326
2326 2366 2367 2327
2327 2367 2368 2328
2328 2368 2369 2329
2329 2369 2370 2330
2330 2370 2371 2331
2331 2371 2372 2332
2332 2372 2373 2333
2333 2373 2374 2334
2334 2374 2375 2335
2335 2375 2376 2336
2336 2376 2377 2337
2337 2377 2378 2338
2338 2378 2379 2339
2339 2379 2380 2340
2340 2380 2381 2341
2341 2381 2382 2342
2342 2382 2383 2343
2343 2383 2384 2344
2344 2384 2385 2345
2345 2385 2386 2346
2346 2386 2387 2347
2347 2387 2388 2348
2348 2388 2389 2349
2349 2389 2390 2350
2350 2390 2391 2351
2351 2391 2392 2352
2352 2392 2393 2353
2353 2393 2394 2354
2354 2394 2395 2355
2355 2395 2396 2356
2356 2396 2397 2357
2357 2397 136 135
58 59 2398 2358
2358 2398 2399 2359
2359 2399 2400 2360
2360 2400 2401 2361
2361 2401 2402 2362
2362 2402 2403 2363
2363 2403 2404 2364
2364 2404 2405 2365
2365 2405 2406 2366
2366 2406 2407 2367
2367 2407 2408 2368
2368 2408 2409 2369
2369 2409 2410 2370
2370 2410 2411 2371
2371 2411 2412 2372
2372 2412 2413 2373
2373 2413 2414 2374
2374 2414 2415 2375
2375 2415 2416 2376
2376 2416 2417 2377
2377 2417 2418 2378
2378 2418 2419 2379
2379 2419 2420 2380
2380 2420 2421 2381
2381 2421 2422 2382
2382 2422 2423 2383
2383 2423 2424 2384
2384 2424 2425 2385
2385 2425 2426 2386
2386 2426 2427 2387
2387 2427 2428 2388
2388 2428 2429 2389
2389 2429 2430 2390
2390 2430 2431 2391
2391 2431 2432 2392
2392 2432 2433 2393
2393 2433 2434 2394
2394 2434 2435 2395
2395 2435 2436 2396
2396 2436 2437 2397
2397 2437 137 136
59 60 2438 2398
2398 2438 2439 2399
2399 2439 2440 2400
2400 2440 2441 2401
2401 2441 2442 2402
2402 2442 2443 2403
2403 2443 2444 2404
2404 2444 2445 2405
2405 2445 2446 2406
2406 2446 2447 2407
2407 2447 2448 2408
2408 2448 2449 2409
2409 2449 2450 2410
2410 2450 2451 2411
2411 2451 2452 2412
2412 2452 2453 2413
2413 2453 2454 2414
2414 2454 2455 2415
2415 2455 2456 2416
2416 2456 2457 2417
2417 2457 2458 2418
2418 2458 2459 2419
2419 2459 2460 2420
2420 2460 2461 2421
2421 2461 2462 2422
2422 2462 2463 2423
2423 2463 2464 2424
2424 2464 2465 2425
2425 2465 2466 2426
2426 2466 2467 2427
2427 2467 2468 2428
2428 2468 2469 2429
2429 2469 2470 2430
2430 2470 2471 2431
2431 2471 2472 2432
2432 2472 2473 2433
2433 2473 2474 2434
2434 2474 2475 2435
2435 2475 2476 2436
2436 2476 2477 2437
2437 2477 138 137
60 61 2478 2438
2438 2478 2479 2439
2439 2479 2480 2440
2440 2480 2481 2441
2441 2481 2482 2442
2442 2482 2483 2443
2443 2483 2484 2444
2444 2484 2485 2445
2445 2485 2486 2446
2446 2486 2487 2447
2447 2487 2488 2448
2448 2488 2489 2449
2449 2489 2490 2450
2450 2490 2491 2451
2451 2491 2492 2452
2452 2492 2493 2453
2453 2493 2494 2454
2454 2494 2495 2455
2455 2495 2496 2456
2456 2496 2497 2457
2457 2497 2498 2458
2458 2498 2499 2459
2459 2499 2500 2460
2460 2500 2501 2461
2461 2501 2502 2462
2462 2502 2503 2463
2463 2503 2504 2464
2464 2504 2505 2465
2465 2505 2506 2466
2466 2506 2507 2467
2467 2507 2508 2468
2468 2508 2509 2469
2469 2509 2510 2470
2470 2510 2511 2471
2471 2511 2512 2472
2472 2512 2513 2473
2473 2513 2514 2474
2474 2514 2515 2475
2475 2515 2516 2476
2476 2516 2517 2477
2477 2517 139 138
61 62 2518 2478
2478 2518 2519 2479
2479 2519 2520 2480
2480 2520 2521 2481
2481 2521 2522 2482
2482 2522 2523 2483
2483 2523 2524 2484
2484 2524 2525 2485
2485 2525 2526 2486
2486 2526 2527 2487
2487 2527 2528 2488
2488 2528 2529 2489
2489 2529 2530 2490
2490 2530 2531 2491
2491 2531 2532 2492
2492 2532 2533 2493
2493 2533 2534 2494
2494 2534 2535 2495
2495 2535 2536 2496
2496 2536 2537 2497
2497 2537 2538 2498
2498 2538 2539 2499
2499 2539 2540 2500
2500 2540 2541 2501
2501 2541 2542 2502
2502 2542 2543 2503
2503 2543 2544 2504
2504 2544 2545 2505
2505 2545 2546 2506
2506 2546 2547 2507
2507 2547 2548 2508
2508 2548 2549 2509
2509 2549 2550 2510
2510 2550 2551 2511
2511 2551 2552 2512
2512 2552 2553 2513
2513 2553 2554 2514
2514 2554 2555 2515
2515 2555 2556 2516
2516 2556 2557 2517
2517 2557 140 139
62 63 2558 2518
2518 2558 2559 2519
2519 2559 2560 2520
2520 2560 2561 2521
2521 2561 2562 2522
2522 2562 2563 2523
2523 2563 2564 2524
2524 2564 2565 2525
2525 2565 2566 2526
2526 2566 2567 2527
2527 2567 2568 2528
2528 2568 2569 2529
2529 2569 2570 2530
2530 2570 2571 2531
2531 2571 2572 2532
2532 2572 2573 2533
2533 2573 2574 2534
2534 2574 2575 2535
2535 2575 2576 2536
2536 2576 2577 2537
2537 2577 2578 2538
2538 2578 2579 2539
2539 2579 2580 2540
2540 2580 2581 2541
2541 2581 2582 2542
2542 2582 2583 2543
2543 2583 2584 2544
2544 2584 2585 2545
2545 2585 2586 2546
2546 2586 2587 2547
2547 2587 2588 2548
2548 2588 2589 2549
2549 2589 2590 2550
2550 2590 2591 2551
2551 2591 2592 2552
2552 2592 2593 2553
2553 2593 2594 2554
2554 2594 2595 2555
2555 2595 2596 2556
2556 2596 2597 2557
2557 2597 141 140
63 64 2598 2558
2558 2598 2599 2559
2559 2599 2600 2560
2560 2600 2601 2561
2561 2601 2602 2562
2562 2602 2603 2563
2563 2603 2604 2564
2564 2604 2605 2565
2565 2605 2606 2566
2566 2606 2607 2567
2567 2607 2608 2568
2568 2608 2609 2569
2569 2609 2610 2570
2570 2610 2611 2571
2571 2611 2612 2572
2572 2612 2613 2573
2573 2613 2614 2574
2574 2614 2615 2575
2575 2615 2616 2576
2576 2616 2617 2577
2577 2617 2618 2578
2578 2618 2619 2579
2579 2619 2620 2580
2580 2620 2621 2581
2581 2621 2622 2582
2582 2622 2623 2583
2583 2623 2624 2584
2584 2624 2625 2585
2585 2625 2626 2586
2586 2626 2627 2587
2587 2627 2628 2588
2588 2628 2629 2589
2589 2629 2630 2590
2590 2630 2631 2591
2591 2631 2632 2592
2592 2632 2633 2593
2593 2633 2634 2594
2594 2634 2635 2595
2595 2635 2636 2596
2596 2636 2637 2597
2597 2637 142 141
64 65 2638 2598
2598 2638 2639 2599
2599 2639 2640 2600
2600 2640 2641 2601
2601 2641 2642 2602
2602 2642 2643 2603
2603 2643 2644 2604
2604 2644 2645 2605
2605 2645 2646 2606
2606 2646 2647 2607
2607 2647 2648 2608
2608 2648 2649 2609
2609 2649 2650 2610
2610 2650 2651 2611
2611 2651 2652 2612
2612 2652 2653 2613
2613 2653 2654 2614
2614 2654 2655 2615
2615 2655 2656 2616
2616 2656 2657 2617
2617 2657 2658 2618
2618 2658 2659 2619
2619 2659 2660 2620
2620 2660 2661 2621
2621 2661 2662 2622
2622 2662 2663 2623
2623 2663 2664 2624
2624 2664 2665 2625
2625 2665 2666 2626
2626 2666 2667 2627
2627 2667 2668 2628
2628 2668 2669 2629
2629 2669 2670 2630
2630 2670 2671 2631
2631 2671 2672 2632
2632 2672 2673 2633
2633 2673 2674 2634
2634 2674 2675 2635
2635 2675 2676 2636
2636 2676 2677 2637
2637 2677 143 142
65 66 2678 2638
2638 2678 2679 2639
2639 2679 2680 2640
2640 2680 2681 2641
2641 2681 2682 2642
2642 2682 2683 2643
2643 2683 2684 2644
2644 2684 2685 2645
2645 2685 2686 2646
2646 2686 2687 2647
2647 2687 2688 2648
2648 2688 2689 2649
2649 2689 2690 2650
2650 2690 2691 2651
2651 2691 2692 2652
2652 2692 2693 2653
2653 2693 2694 2654
2654 2694 2695 2655
2655 2695 2696 2656
2656 2696 2697 2657
2657 2697 2698 2658
2658 2698 2699 2659
2659 2699 2700 2660
2660 2700 2701 2661
2661 2701 2702 2662
2662 2702 2703 2663
2663 2703 2704 2664
2664 2704 2705 2665
2665 2705 2706 2666
2666 2706 2707 2667
2667 2707 2708 2668
2668 2708 2709 2669
2669 2709 2710 2670
2670 2710 2711 2671
2671 2711 2712 2672
2672 2712 2713 2673
2673 2713 2714 2674
2674 2714 2715 2675
2675 2715 2716 2676
2676 2716 2717 2677
2677 2717 144 143
66 67 2718 2678
2678 2718 2719 2679
2679 2719 2720 2680
2680 2720 2721 2681
2681 2721 2722 2682
2682 2722 2723 2683
2683 2723 2724 2684
2684 2724 2725 2685
2685 2725 2726 2686
2686 2726 2727 2687
2687 2727 2728 2688
2688 2728 2729 2689
2689 2729 2730 2690
2690 2730 2731 2691
2691 2731 2732 2692
2692 2732 2733 2693
2693 2733 2734 2694
2694 2734 2735 2695
2695 2735 2736 2696
2696 2736 2737 2697
2697 2737 2738 2698
2698 2738 2739 2699
2699 2739 2740 2700
2700 2740 2741 2701
2701 2741 2742 2702
2702 2742 2743 2703
2703 2743 2744 2704
2704 2744 2745 2705
2705 2745 2746 2706
2706 2746 2747 2707
2707 2747 2748 2708
2708 2748 2749 2709
2709 2749 2750 2710
2710 2750 2751 2711
2711 2751 2752 2712
2712 2752 2753 2713
2713 2753 2754 2714
2714 2754 2755 2715
2715 2755 2756 2716
2716 2756 2757 2717
2717 2757 145 144
67 68 2758 2718
2718 2758 2759 2719
2719 2759 2760 2720
2720 2760 2761 2721
2721 2761 2762 2722
2722 2762 2763 2723
2723 2763 2764 2724
2724 2764 2765 2725
2725 2765 2766 2726
2726 2766 2767 2727
2727 2767 2768 2728
2728 2768 2769 2729
2729 2769 2770 2730
2730 2770 2771 2731
2731 2771 2772 2732
2732 2772 2773 2733
2733 2773 2774 2734
2734 2774 2775 2735
2735 2775 2776 2736
2736 2776 2777 2737
2737 2777 2778 2738
2738 2778 2779 2739
2739 2779 2780 2740
2740 2780 2781 2741
2741 2781 2782 2742
2742 2782 2783 2743
2743 2783 2784 2744
2744 2784 2785 2745
2745 2785 2786 2746
2746 2786 2787 2747
2747 2787 2788 2748
2748 2788 2789 2749
2749 2789 2790 2750
2750 2790 2791 2751
2751 2791 2792 2752
2752 2792 2793 2753
2753 2793 2794 2754
2754 2794 2795 2755
2755 2795 2796 2756
2756 2796 2797 2757
2757 2797 146 145
68 69 2798 2758
2758 2798 2799 2759
2759 2799 2800 2760
2760 2800 2801 2761
2761 2801 2802 2762
2762 2802 2803 2763
2763 2803 2804 2764
2764 2804 2805 2765
2765 2805 2806 2766
2766 2806 2807 2767
2767 2807 2808 2768
2768 2808 2809 2769
2769 2809 2810 2770
2770 2810 2811 2771
2771 2811 2812 2772
2772 2812 2813 2773
2773 2813 2814 2774
2774 2814 2815 2775
2775 2815 2816 2776
2776 2816 2817 2777
2777 2817 2818 2778
2778 2818 2819 2779
2779 2819 2820 2780
2780 2820 2821 2781
2781 2821 2822 2782
2782 2822 2823 2783
2783 2823 2824 2784
2784 2824 2825 2785
2785 2825 2826 2786
2786 2826 2827 2787
2787 2827 2828 2788
2788 2828 2829 2789
2789 2829 2830 2790
2790 2830 2831 2791
2791 2831 2832 2792
2792 2832 2833 2793
2793 2833 2834 2794
2794 2834 2835 2795
2795 2835 2836 2796
2796 2836 2837 2797
2797 2837 5 146
69 70 2838 2798
2798 2838 2839 2799
2799 2839 2840 2800
2800 2840 2841 2801
2801 2841 2842 2802
2802 2842 2843 2803
2803 2843 2844 2804
2804 2844 2845 2805
2805 2845 2846 2806
2806 2846 2847 2807
2807 2847 2848 2808
2808 2848 2849 2809
2809 2849 2850 2810
2810 2850 2851 2811
2811 2851 2852 2812
2812 2852 2853 2813
2813 2853 2854 2814
2814 2854 2855 2815
2815 2855 2856 2816
2816 2856 2857 2817
2817 2857 2858 2818
2818 2858 2859 2819
2819 2859 2860 2820
2820 2860 2861 2821
2821 2861 2862 2822
2822 2862 2863 2823
2823 2863 2864 2824
2824 2864 2865 2825
2825 2865 2866 2826
2826 2866 2867 2827
2827 2867 2868 2828
2828 2868 2869 2829
2829 2869 2870 2830
2830 2870 2871 2831
2831 2871 2872 2832
2832 2872 2873 2833
2833 2873 2874 2834
2834 2874 2875 2835
2835 2875 2876 2836
2836 2876 2877 2837
2837 2877 147 5
70 71 2878 2838
2838 2878 2879 2839
2839 2879 2880 2840
2840 2880 2881 2841
2841 2881 2882 2842
2842 2882 2883 2843
2843 2883 2884 2844
2844 2884 2885 2845
2845 2885 2886 2846
2846 2886 2887 2847
2847 2887 2888 2848
2848 2888 2889 2849
2849 2889 2890 2850
2850 2890 2891 2851
2851 2891 2892 2852
2852 2892 2893 2853
2853 2893 2894 2854
2854 2894 2895 2855
2855 2895 2896 2856
2856 2896 2897 2857
2857 2897 2898 2858
2858 2898 2899 2859
2859 2899 2900 2860
2860 2900 2901 2861
2861 2901 2902 2862
2862 2902 2903 2863
2863 2903 2904 2864
2864 2904 2905 2865
2865 2905 2906 2866
2866 2906 2907 2867
2867 2907 2908 2868
2868 2908 2909 2869
2869 2909 2910 2870
2870 2910 2911 2871
2871 2911 2912 2872
2872 2912 2913 2873
2873 2913 2914 2874
2874 2914 2915 2875
2875 2915 2916 2876
2876 2916 2917 2877
2877 2917 148 147
71 72 2918 2878
2878 2918 2919 2879
2879 2919 2920 2880
2880 2920 2921 2881
2881 2921 2922 2882
2882 2922 2923 2883
2883 2923 2924 2884
2884 2924 2925 2885
2885 2925 2926 2886
2886 2926 2927 2887
2887 2927 2928 2888
2888 2928 2929 2889
2889 2929 2930 2890
2890 2930 2931 2891
2891 2931 2932 2892
2892 2932 2933 2893
2893 2933 2934 2894
2894 2934 2935 2895
2895 2935 2936 2896
2896 2936 2937 2897
2897 2937 2938 2898
2898 2938 2939 2899
2899 2939 2940 2900
2900 2940 2941 2901
2901 2941 2942 2902
2902 2942 2943 2903
2903 2943 2944 2904
2904 2944 2945 2905
2905 2945 2946 2906
2906 2946 2947 2907
2907 2947 2948 2908
2908 2948 2949 2909
2909 2949 2950 2910
2910 2950 2951 2911
2911 2951 2952 2912
2912 2952 2953 2913
2913 2953 2954 2914
2914 2954 2955 2915
2915 2955 2956 2916
2916 2956 2957 2917
2917 2957 149 148
72 73 2958 2918
2918 2958 2959 2919
2919 2959 2960 2920
2920 2960 2961 2921
2921 2961 2962 2922
2922 2962 2963 2923
2923 2963 2964 2924
2924 2964 2965 2925
2925 2965 2966 2926
2926 2966 2967 2927
2927 2967 2968 2928
2928 2968 2969 2929
2929 2969 2970 2930
2930 2970 2971 2931
2931 2971 2972 2932
2932 2972 2973 2933
2933 2973 2974 2934
2934 2974 2975 2935
2935 2975 2976 2936
2936 2976 2977 2937
2937 2977 2978 2938
2938 2978 2979 2939
2939 2979 2980 2940
2940 2980 2981 2941
2941 2981 2982 2942
2942 2982 2983 2943
2943 2983 2984 2944
2944 2984 2985 2945
2945 2985 2986 2946
2946 2986 2987 2947
2947 2987 2988 2948
2948 2988 2989 2949
2949 2989 2990 2950
2950 2990 2991 2951
2951 2991 2992 2952
2952 2992 2993 2953
2953 2993 2994 2954
2954 2994 2995 2955
2955 2995 2996 2956
2956 2996 2997 2957
2957 2997 150 149
73 74 2998 2958
2958 2998 2999 2959
2959 2999 3000 2960
2960 3000 3001 2961
2961 3001 3002 2962
2962 3002 3003 2963
2963 3003 3004 2964
2964 3004 3005 2965
2965 3005 3006 2966
2966 3006 3007 2967
2967 3007 3008 2968
2968 3008 3009 2969
2969 3009 3010 2970
2970 3010 3011 2971
2971 3011 3012 2972
2972 3012 3013 2973
2973 3013 3014 2974
2974 3014 3015 2975
2975 3015 3016 2976
2976 3016 3017 2977
2977 3017 3018 2978
2978 3018 3019 2979
2979 3019 3020 2980
2980 3020 3021 2981
2981 3021 3022 2982
2982 3022 3023 2983
2983 3023 3024 2984
2984 3024 3025 2985
2985 3025 3026 2986
2986 3026 3027 2987
2987 3027 3028 2988
2988 3028 3029 2989
2989 3029 3030 2990
2990 3030 3031 2991
2991 3031 3032 2992
2992 3032 3033 2993
2993 3033 3034 2994
2994 3034 3035 2995
2995 3035 3036 2996
2996 3036 3037 2997
2997 3037 151 150
74 75 3038 2998
2998 3038 3039 2999
2999 3039 3040 3000
3000 3040 3041 3001
3001 3041 3042 3002
3002 3042 3043 3003
3003 3043 3044 3004
3004 3044 3045 3005
3005 3045 3046 3006
3006 3046 3047 3007
3007 3047 3048 3008
3008 3048 3049 3009
3009 3049 3050 3010
3010 3050 3051 3011
3011 3051 3052 3012
3012 3052 3053 3013
3013 3053 3054 3014
3014 3054 3055 3015
3015 3055 3056 3016
3016 3056 3057 3017
3017 3057 3058 3018
3018 3058 3059 3019
3019 3059 3060 3020
3020 3060 3061 3021
3021 3061 3062 3022
3022 3062 3063 3023
3023 3063 3064 3024
3024 3064 3065 3025
3025 3065 3066 3026
3026 3066 3067 3027
3027 3067 3068 3028
3028 3068 3069 3029
3029 3069 3070 3030
3030 3070 3071 3031
3031 3071 3072 3032
3032 3072 3073 3033
3033 3073 3074 3034
3034 3074 3075 3035
3035 3075 3076 3036
3036 3076 3077 3037
3037 3077 152 151
75 76 3078 3038
3038 3078 3079 3039
3039 3079 3080 3040
3040 3080 3081 3041
3041 3081 3082 3042
3042 3082 3083 3043
3043 3083 3084 3044
3044 3084 3085 3045
3045 3085 3086 3046
3046 3086 3087 3047
3047 3087 3088 3048
3048 3088 3089 3049
3049 3089 3090 3050
3050 3090 3091 3051
3051 3091 3092 3052
3052 3092 3093 3053
3053 3093 3094 3054
3054 3094 3095 3055
3055 3095 3096 3056
3056 3096 3097 3057
3057 3097 3098 3058
3058 3098 3099 3059
3059 3099 3100 3060
3060 3100 3101 3061
3061 3101 3102 3062
3062 3102 3103 3063
3063 3103 3104 3064
3064 3104 3105 3065
3065 3105 3106 3066
3066 3106 3107 3067
3067 3107 3108 3068
3068 3108 3109 3069
3069 3109 3110 3070
3070 3110 3111 3071
3071 3111 3112 3072
3072 3112 3113 3073
3073 3113 3114 3074
3074 3114 3115 3075
3075 3115 3116 3076
3076 3116 3117 3077
3077 3117 153 152
76 77 3118 3078
3078 3118 3119 3079
3079 3119 3120 3080
3080 3120 3121 3081
3081 3121 3122 3082
3082 3122 3123 3083
3083 3123 3124 3084
3084 3124 3125 3085
3085 3125 3126 3086
3086 3126 3127 3087
3087 3127 3128 3088
3088 3128 3129 3089
3089 3129 3130 3090
3090 3130 3131 3091
3091 3131 3132 3092
3092 3132 3133 3093
3093 3133 3134 3094
3094 3134 3135 3095
3095 3135 3136 3096
3096 3136 3137 3097
3097 3137 3138 3098
3098 3138 3139 3099
3099 3139 3140 3100
3100 3140 3141 3101
3101 3141 3142 3102
3102 3142 3143 3103
3103 3143 3144 3104
3104 3144 3145 3105
3105 3145 3146 3106
3106 3146 3147 3107
3107 3147 3148 3108
3108 3148 3149 3109
3109 3149 3150 3110
3110 3150 3151 3111
3111 3151 3152 3112
3112 3152 3153 3113
3113 3153 3154 3114
3114 3154 3155 3115
3115 3155 3156 3116
3116 3156 3157 3117
3117 3157 154 153
77 78 3158 3118
3118 3158 3159 3119
3119 3159 3160 3120
3120 3160 3161 3121
3121 3161 3162 3122
3122 3162 3163 3123
3123 3163 3164 3124
3124 3164 3165 3125
3125 3165 3166 3126
3126 3166 3167 3127
3127 3167 3168 3128
3128 3168 3169 3129
3129 3169 3170 3130
3130 3170 3171 3131
3131 3171 3172 3132
3132 3172 3173 3133
3133 3173 3174 3134
3134 3174 3175 3135
3135 3175 3176 3136
3136 3176 3177 3137
3137 3177 3178 3138
3138 3178 3179 3139
3139 3179 3180 3140
3140 3180 3181 3141
3141 3181 3182 3142
3142 3182 3183 3143
3143 3183 3184 3144
3144 3184 3185 3145
3145 3185 3186 3146
3146 3186 3187 3147
3147 3187 3188 3148
3148 3188 3189 3149
3149 3189 3190 3150
3150 3190 3191 3151
3151 3191 3192 3152
3152 3192 3193 3153
3153 3193 3194 3154
3154 3194 3195 3155
3155 3195 3196 3156
3156 3196 3197 3157
3157 3197 155 154
78 79 3198 3158
3158 3198 3199 3159
3159 3199 3200 3160
3160 3200 3201 3161
3161 3201 3202 3162
3162 3202 3203 3163
3163 3203 3204 3164
3164 3204 3205 3165
3165 3205 3206 3166
3166 3206 3207 3167
3167 3207 3208 3168
3168 3208 3209 3169
3169 3209 3210 3170
3170 3210 3211 3171
3171 3211 3212 3172
3172 3212 3213 3173
3173 3213 3214 3174
3174 3214 3215 3175
3175 3215 3216 3176
3176 3216 3217 3177
3177 3217 3218 3178
3178 3218 3219 3179
3179 3219 3220 3180
3180 3220 3221 3181
3181 3221 3222 3182
3182 3222 3223 3183
3183 3223 3224 3184
3184 3224 3225 3185
3185 3225 3226 3186
3186 3226 3227 3187
3187 3227 3228 3188
3188 3228 3229 3189
3189 3229 3230 3190
3190 3230 3231 3191
3191 3231 3232 3192
3192 3232 3233 3193
3193 3233 3234 3194
3194 3234 3235 3195
3195 3235 3236 3196
3196 3236 3237 3197
3197 3237 156 155
79 80 3238 3198
3198 3238 3239 3199
3199 3239 3240 3200
3200 3240 3241 3201
3201 3241 3242 3202
3202 3242 3243 3203
3203 3243 3244 3204
3204 3244 3245 3205
3205 3245 3246 3206
3206 3246 3247 3207
3207 3247 3248 3208
3208 3248 3249 3209
3209 3249 3250 3210
3210 3250 3251 3211
3211 3251 3252 3212
3212 3252 3253 3213
3213 3253 3254 3214
3214 3254 3255 3215
3215 3255 3256 3216
3216 3256 3257 3217
3217 3257 3258 3218
3218 3258 3259 3219
3219 3259 3260 3220
3220 3260 3261 3221
3221 3261 3262 3222
3222 3262 3263 3223
3223 3263 3264 3224
3224 3264 3265 3225
3225 3265 3266 3226
3226 3266 3267 3227
3227 3267 3268 3228
3228 3268 3269 3229
3229 3269 3270 3230
3230 3270 3271 3231
3231 3271 3272 3232
3232 3272 3273 3233
3233 3273 3274 3234
3234 3274 3275 3235
3235 3275 3276 3236
3236 3276 3277 3237
3237 3277 157 156
80 81 3278 3238
3238 3278 3279 3239
3239 3279 3280 3240
3240 3280 3281 3241
3241 3281 3282 3242
3242 3282 3283 3243
3243 3283 3284 3244
3244 3284 3285 3245
3245 3285 3286 3246
3246 3286 3287 3247
3247 3287 3288 3248
3248 3288 3289 3249
3249 3289 3290 3250
3250 3290 3291 3251
3251 3291 3292 3252
3252 3292 3293 3253
3253 3293 3294 3254
3254 3294 3295 3255
3255 3295 3296 3256
3256 3296 3297 3257
3257 3297 3298 3258
3258 3298 3299 3259
3259 3299 3300 3260
3260 3300 3301 3261
3261 3301 3302 3262
3262 3302 3303 3263
3263 3303 3304 3264
3264 3304 3305 3265
3265 3305 3306 3266
3266 3306 3307 3267
3267 3307 3308 3268
3268 3308 3309 3269
3269 3309 3310 3270
3270 3310 3311 3271
3271 3311 3312 3272
3272 3312 3313 3273
3273 3313 3314 3274
3274 3314 3315 3275
3275 3315 3316 3276
3276 3316 3317 3277
3277 3317 158 157
81 82 3318 3278
3278 3318 3319 3279
3279 3319 3320 3280
3280 3320 3321 3281
3281 3321 3322 3282
3282 3322 3323 3283
3283 3323 3324 3284
3284 3324 3325 3285
3285 3325 3326 3286
3286 3326 3327 3287
3287 3327 3328 3288
3288 3328 3329 3289
3289 3329 3330 3290
3290 3330 3331 3291
3291 3331 3332 3292
3292 3332 3333 3293
3293 3333 3334 3294
3294 3334 3335 3295
3295 3335 3336 3296
3296 3336 3337 3297
3297 3337 3338 3298
3298 3338 3339 3299
3299 3339 3340 3300
3300 3340 3341 3301
3301 3341 3342 3302
3302 3342 3343 3303
3303 3343 3344 3304
3304 3344 3345 3305
3305 3345 3346 3306
3306 3346 3347 3307
3307 3347 3348 3308
3308 3348 3349 3309
3309 3349 3350 3310
3310 3350 3351 3311
3311 3351 3352 3312
3312 3352 3353 3313
3313 3353 3354 3314
3314 3354 3355 3315
3315 3355 3356 3316
3316 3356 3357 3317
3317 3357 159 158
82 83 3358 3318
3318 3358 3359 3319
3319 3359 3360 3320
3320 3360 3361 3321
3321 3361 3362 3322
3322 3362 3363 3323
3323 3363 3364 3324
3324 3364 3365 3325
3325 3365 3366 3326
3326 3366 3367 3327
3327 3367 3368 3328
3328 3368 3369 3329
3329 3369 3370 3330
3330 3370 3371 3331
3331 3371 3372 3332
3332 3372 3373 3333
3333 3373 3374 3334
3334 3374 3375 3335
3335 3375 3376 3336
3336 3376 3377 3337
3337 3377 3378 3338
3338 3378 3379 3339
3339 3379 3380 3340
3340 3380 3381 3341
3341 3381 3382 3342
3342 3382 3383 3343
3343 3383 3384 3344
3344 3384 3385 3345
3345 3385 3386 3346
3346 3386 3387 3347
3347 3387 3388 3348
3348 3388 3389 3349
3349 3389 3390 3350
3350 3390 3391 3351
3351 3391 3392 3352
3352 3392 3393 3353
3353 3393 3394 3354
3354 3394 3395 3355
3355 3395 3396 3356
3356 3396 3397 3357
3357 3397 160 159
83 84 3398 3358
3358 3398 3399 3359
3359 3399 3400 3360
3360 3400 3401 3361
3361 3401 3402 3362
3362 3402 3403 3363
3363 3403 3404 3364
3364 3404 3405 3365
3365 3405 3406 3366
3366 3406 3407 3367
3367 3407 3408 3368
3368 3408 3409 3369
3369 3409 3410 3370
3370 3410 3411 3371
3371 3411 3412 3372
3372 3412 3413 3373
3373 3413 3414 3374
3374 3414 3415 3375
3375 3415 3416 3376
3376 3416 3417 3377
3377 3417 3418 3378
3378 3418 3419 3379
3379 3419 3420 3380
3380 3420 3421 3381
3381 3421 3422 3382
3382 3422 3423 3383
3383 3423 3424 3384
3384 3424 3425 3385
3385 3425 3426 3386
3386 3426 3427 3387
3387 3427 3428 3388
3388 3428 3429 3389
3389 3429 3430 3390
3390 3430 3431 3391
3391 3431 3432 3392
3392 3432 3433 3393
3393 3433 3434 3394
3394 3434 3435 3395
3395 3435 3436 3396
3396 3436 3437 3397
3397 3437 161 160
84 85 3438 3398
3398 3438 3439 3399
3399 3439 3440 3400
3400 3440 3441 3401
3401 3441 3442 3402
3402 3442 3443 3403
3403 3443 3444 3404
3404 3444 3445 3405
3405 3445 3446 3406
3406 3446 3447 3407
3407 3447 3448 3408
3408 3448 3449 3409
3409 3449 3450 3410
3410 3450 3451 3411
3411 3451 3452 3412
3412 3452 3453 3413
3413 3453 3454 3414
3414 3454 3455 3415
3415 3455 3456 3416
3416 3456 3457 3417
3417 3457 3458 3418
3418 3458 3459 3419
3419 3459 3460 3420
3420 3460 3461 3421
3421 3461 3462 3422
3422 3462 3463 3423
3423 3463 3464 3424
3424 3464 3465 3425
3425 3465 3466 3426
3426 3466 3467 3427
3427 3467 3468 3428
3428 3468 3469 3429
3429 3469 3470 3430
3430 3470 3471 3431
3431 3471 3472 3432
3432 3472 3473 3433
3433 3473 3474 3434
3434 3474 3475 3435
3435 3475 3476 3436
3436 3476 3477 3437
3437 3477 162 161
85 86 3478 3438
3438 3478 3479 3439
3439 3479 3480 3440
3440 3480 3481 3441
3441 3481 3482 3442
3442 3482 3483 3443
3443 3483 3484 3444
3444 3484 3485 3445
3445 3485 3486 3446
3446 3486 3487 3447
3447 3487 3488 3448
3448 3488 3489 3449
3449 3489 3490 3450
3450 3490 3491 3451
3451 3491 3492 3452
3452 3492 3493 3453
3453 3493 3494 3454
3454 3494 3495 3455
3455 3495 3496 3456
3456 3496 3497 3457
3457 3497 3498 3458
3458 3498 3499 3459
3459 3499 3500 3460
3460 3500 3501 3461
3461 3501 3502 3462
3462 3502 3503 3463
3463 3503 3504 3464
3464 3504 3505 3465
3465 3505 3506 3466
3466 3506 3507 3467
3467 3507 3508 3468
3468 3508 3509 3469
3469 3509 3510 3470
3470 3510 3511 3471
3471 3511 3512 3472
3472 3512 3513 3473
3473 3513 3514 3474
3474 3514 3515 3475
3475 3515 3516 3476
3476 3516 3517 3477
3477 3517 163 162
86 87 3518 3478
3478 3518 3519 3479
3479 3519 3520 3480
3480 3520 3521 3481
3481 3521 3522 3482
3482 3522 3523 3483
3483 3523 3524 3484
3484 3524 3525 3485
3485 3525 3526 3486
3486 3526 3527 3487
3487 3527 3528 3488
3488 3528 3529 3489
3489 3529 3530 3490
3490 3530 3531 3491
3491 3531 3532 3492
3492 3532 3533 3493
3493 3533 3534 3494
3494 3534 3535 3495
3495 3535 3536 3496
3496 3536 3537 3497
3497 3537 3538 3498
3498 3538 3539 3499
3499 3539 3540 3500
3500 3540 3541 3501
3501 3541 3542 3502
3502 3542 3543 3503
3503 3543 3544 3504
3504 3544 3545 3505
3505 3545 3546 3506
3506 3546 3547 3507
3507 3547 3548 3508
3508 3548 3549 3509
3509 3549 3550 3510
3510 3550 3551 3511
3511 3551 3552 3512
3512 3552 3553 3513
3513 3553 3554 3514
3514 3554 3555 3515
3515 3555 3556 3516
3516 3556 3557 3517
3517 3557 164 163
87 88 3558 3518
3518 3558 3559 3519
3519 3559 3560 3520
3520 3560 3561 3521
3521 3561 3562 3522
3522 3562 3563 3523
3523 3563 3564 3524
3524 3564 3565 3525
3525 3565 3566 3526
3526 3566 3567 3527
3527 3567 3568 3528
3528 3568 3569 3529
3529 3569 3570 3530
3530 3570 3571 3531
3531 3571 3572 3532
3532 3572 3573 3533
3533 3573 3574 3534
3534 3574 3575 3535
3535 3575 3576 3536
3536 3576 3577 3537
3537 3577 3578 3538
3538 3578 3579 3539
3539 3579 3580 3540
3540 3580 3581 3541
3541 3581 3582 3542
3542 3582 3583 3543
3543 3583 3584 3544
3544 3584 3585 3545
3545 3585 3586 3546
3546 3586 3587 3547
3547 3587 3588 3548
3548 3588 3589 3549
3549 3589 3590 3550
3550 3590 3591 3551
3551 3591 3592 3552
3552 3592 3593 3553
3553 3593 3594 3554
3554 3594 3595 3555
3555 3595 3596 3556
3556 3596 3597 3557
3557 3597 165 164
88 2 322 3558
3558 322 321 3559
3559 321 320 3560
3560 320 319 3561
3561 319 318 3562
3562 318 317 3563
3563 317 316 3564
3564 316 315 3565
3565 315 314 3566
3566 314 313 3567
3567 313 312 3568
3568 312 311 3569
3569 311 310 3570
3570 310 309 3571
3571 309 308 3572
3572 308 307 3573
3573 307 306 3574
3574 306 305 3575
3575 305 304 3576
3576 304 303 3577
3577 303 302 3578
3578 302 301 3579
3579 301 300 3580
3580 300 299 3581
3581 299 298 3582
3582 298 297 3583
3583 297 296 3584
3584 296 295 3585
3585 295 294 3586
3586 294 293 3587
3587 293 292 3588
3588 292 291 3589
3589 291 290 3590
3590 290 289 3591
3591 289 288 3592
3592 288 287 3593
3593 287 286 3594
3594 286 285 3595
3595 285 284 3596
3596 284 283 3597
3597 283 6 165
4 108 3598 380
380 3598 3599 379
379 3599 3600 378
378 3600 3601 377
377 3601 3602 376
376 3602 3603 375
375 3603 3604 374
374 3604 3605 373
373 3605 3606 372
372 3606 3607 371
371 3607 3608 370
370 3608 3609 369
369 3609 3610 368
368 3610 3611 367
367 3611 3612 366
366 3612 3613 365
365 3613 3614 364
364 3614 3615 363
363 3615 3616 362
362 3616 323 9
108 109 3617 3598
3598 3617 3618 3599
3599 3618 3619 3600
3600 3619 3620 3601
3601 3620 3621 3602
3602 3621 3622 3603
3603 3622 3623 3604
3604 3623 3624 3605
3605 3624 3625 3606
3606 3625 3626 3607
3607 3626 3627 3608
3608 3627 3628 3609
3609 3628 3629 3610
3610 3629 3630 3611
3611 3630 3631 3612
3612 3631 3632 3613
3613 3632 3633 3614
3614 3633 3634 3615
3615 3634 3635 3616
3616 3635 324 323
109 110 3636 3617
3617 3636 3637 3618
3618 3637 3638 3619
3619 3638 3639 3620
3620 3639 3640 3621
3621 3640 3641 3622
3622 3641 3642 3623
3623 3642 3643 3624
3624 3643 3644 3625
3625 3644 3645 3626
3626 3645 3646 3627
3627 3646 3647 3628
3628 3647 3648 3629
3629 3648 3649 3630
3630 3649 3650 3631
3631 3650 3651 3632
3632 3651 3652 3633
3633 3652 3653 3634
3634 3653 3654 3635
3635 3654 325 324
110 111 3655 3636
3636 3655 3656 3637
3637 3656 3657 3638
3638 3657 3658 3639
3639 3658 3659 3640
3640 3659 3660 3641
3641 3660 3661 3642
3642 3661 3662 3643
3643 3662 3663 3644
3644 3663 3664 3645
3645 3664 3665 3646
3646 3665 3666 3647
3647 3666 3667 3648
3648 3667 3668 3649
3649 3668 3669 3650
3650 3669 3670 3651
3651 3670 3671 3652
3652 3671 3672 3653
3653 3672 3673 3654
3654 3673 326 325
111 112 3674 3655
3655 3674 3675 3656
3656 3675 3676 3657
3657 3676 3677 3658
3658 3677 3678 3659
3659 3678 3679 3660
3660 3679 3680 3661
3661 3680 3681 3662
3662 3681 3682 3663
3663 3682 3683 3664
3664 3683 3684 3665
3665 3684 3685 3666
3666 3685 3686 3667
3667 3686 3687 3668
3668 3687 3688 3669
3669 3688 3689 3670
3670 3689 3690 3671
3671 3690 3691 3672
3672 3691 3692 3673
3673 3692 327 326
112 113 3693 3674
3674 3693 3694 3675
3675 3694 3695 3676
3676 3695 3696 3677
3677 3696 3697 3678
3678 3697 3698 3679
3679 3698 3699 3680
3680 3699 3700 3681
3681 3700 3701 3682
3682 3701 3702 3683
3683 3702 3703 3684
3684 3703 3704 3685
3685 3704 3705 3686
3686 3705 3706 3687
3687 3706 3707 3688
3688 3707 3708 3689
3689 3708 3709 3690
3690 3709 3710 3691
3691 3710 3711 3692
3692 3711 328 327
113 114 3712 3693
3693 3712 3713 3694
3694 3713 3714 3695
3695 3714 3715 3696
3696 3715 3716 3697
3697 3716 3717 3698
3698 3717 3718 3699
3699 3718 3719 3700
3700 3719 3720 3701
3701 3720 3721 3702
3702 3721 3722 3703
3703 3722 3723 3704
3704 3723 3724 3705
3705 3724 3725 3706
3706 3725 3726 3707
3707 3726 3727 3708
3708 3727 3728 3709
3709 3728 3729 3710
3710 3729 3730 3711
3711 3730 329 328
114 115 3731 3712
3712 3731 3732 3713
3713 3732 3733 3714
3714 3733 3734 3715
3715 3734 3735 3716
3716 3735 3736 3717
3717 3736 3737 3718
3718 3737 3738 3719
3719 3738 3739 3720
3720 3739 3740 3721
3721 3740 3741 3722
3722 3741 3742 3723
3723 3742 3743 3724
3724 3743 3744 3725
3725 3744 3745 3726
3726 3745 3746 3727
3727 3746 3747 3728
3728 3747 3748 3729
3729 3748 3749 3730
3730 3749 330 329
115 116 3750 3731
3731 3750 3751 3732
3732 3751 3752 3733
3733 3752 3753 3734
3734 3753 3754 3735
3735 3754 3755 3736
3736 3755 3756 3737
3737 3756 3757 3738
3738 3757 3758 3739
3739 3758 3759 3740
3740 3759 3760 3741
3741 3760 3761 3742
3742 3761 3762 3743
3743 3762 3763 3744
3744 3763 3764 3745
3745 3764 3765 3746
3746 3765 3766 3747
3747 3766 3767 3748
3748 3767 3768 3749
3749 3768 331 330
116 117 3769 3750
3750 3769 3770 3751
3751 3770 3771 3752
3752 3771 3772 3753
3753 3772 3773 3754
3754 3773 3774 3755
3755 3774 3775 3756
3756 3775 3776 3757
3757 3776 3777 3758
3758 3777 3778 3759
3759 3778 3779 3760
3760 3779 3780 3761
3761 3780 3781 3762
3762 3781 3782 3763
3763 3782 3783 3764
3764 3783 3784 3765
3765 3784 3785 3766
3766 3785 3786 3767
3767 3786 3787 3768
3768 3787 332 331
117 118 3788 3769
3769 3788 3789 3770
3770 3789 3790 3771
3771 3790 3791 3772
3772 3791 3792 3773
3773 3792 3793 3774
3774 3793 3794 3775
3775 3794 3795 3776
3776 3795 3796 3777
3777 3796 3797 3778
3778 3797 3798 3779
3779 3798 3799 3780
3780 3799 3800 3781
3781 3800 3801 3782
3782 3801 3802 3783
3783 3802 3803 3784
3784 3803 3804 3785
3785 3804 3805 3786
3786 3805 3806 3787
3787 3806 333 332
118 119 3807 3788
3788 3807 3808 3789
3789 3808 3809 3790
3790 3809 3810 3791
3791 3810 3811 3792
3792 3811 3812 3793
3793 3812 3813 3794
3794 3813 3814 3795
3795 3814 3815 3796
3796 3815 3816 3797
3797 3816 3817 3798
3798 3817 3818 3799
3799 3818 3819 3800
3800 3819 3820 3801
3801 3820 3821 3802
3802 3821 3822 3803
3803 3822 3823 3804
3804 3823 3824 3805
3805 3824 3825 3806
3806 3825 334 333
119 120 3826 3807
3807 3826 3827 3808
3808 3827 3828 3809
3809 3828 3829 3810
3810 3829 3830 3811
3811 3830 3831 3812
3812 3831 3832 3813
3813 3832 3833 3814
3814 3833 3834 3815
3815 3834 3835 3816
3816 3835 3836 3817
3817 3836 3837 3818
3818 3837 3838 3819
3819 3838 3839 3820
3820 3839 3840 3821
3821 3840 3841 3822
3822 3841 3842 3823
3823 3842 3843 3824
3824 3843 3844 3825
3825 3844 335 334
120 121 3845 3826
3826 3845 3846 3827
3827 3846 3847 3828
3828 3847 3848 3829
3829 3848 3849 3830
3830 3849 3850 3831
3831 3850 3851 3832
3832 3851 3852 3833
3833 3852 3853 3834
3834 3853 3854 3835
3835 3854 3855 3836
3836 3855 3856 3837
3837 3856 3857 3838
3838 3857 3858 3839
3839 3858 3859 3840
3840 3859 3860 3841
3841 3860 3861 3842
3842 3861 3862 3843
3843 3862 3863 3844
3844 3863 336 335
121 122 3864 3845
3845 3864 3865 3846
3846 3865 3866 3847
3847 3866 3867 3848
3848 3867 3868 3849
3849 3868 3869 3850
3850 3869 3870 3851
3851 3870 3871 3852
3852 3871 3872 3853
3853 3872 3873 3854
3854 3873 3874 3855
3855 3874 3875 3856
3856 3875 3876 3857
3857 3876 3877 3858
3858 3877 3878 3859
3859 3878 3879 3860
3860 3879 3880 3861
3861 3880 3881 3862
3862 3881 3882 3863
3863 3882 337 336
122 123 3883 3864
3864 3883 3884 3865
3865 3884 3885 3866
3866 3885 3886 3867
3867 3886 3887 3868
3868 3887 3888 3869
3869 3888 3889 3870
3870 3889 3890 3871
3871 3890 3891 3872
3872 3891 3892 3873
3873 3892 3893 3874
3874 3893 3894 3875
3875 3894 3895 3876
3876 3895 3896 3877
3877 3896 3897 3878
3878 3897 3898 3879
3879 3898 3899 3880
3880 3899 3900 3881
3881 3900 3901 3882
3882 3901 338 337
123 124 3902 3883
3883 3902 3903 3884
3884 3903 3904 3885
3885 3904 3905 3886
3886 3905 3906 3887
3887 3906 3907 3888
3888 3907 3908 3889
3889 3908 3909 3890
3890 3909 3910 3891
3891 3910 3911 3892
3892 3911 3912 3893
3893 3912 3913 3894
3894 3913 3914 3895
3895 3914 3915 3896
3896 3915 3916 3897
3897 3916 3917 3898
3898 3917 3918 3899
3899 3918 3919 3900
3900 3919 3920 3901
3901 3920 339 338
124 125 3921 3902
3902 3921 3922 3903
3903 3922 3923 3904
3904 3923 3924 3905
3905 3924 3925 3906
3906 3925 3926 3907
3907 3926 3927 3908
3908 3927 3928 3909
3909 3928 3929 3910
3910 3929 3930 3911
3911 3930 3931 3912
3912 3931 3932 3913
3913 3932 3933 3914
3914 3933 3934 3915
3915 3934 3935 3916
3916 3935 3936 3917
3917 3936 3937 3918
3918 3937 3938 3919
3919 3938 3939 3920
3920 3939 340 339
125 126 3940 3921
3921 3940 3941 3922
3922 3941 3942 3923
3923 3942 3943 3924
3924 3943 3944 3925
3925 3944 3945 3926
3926 3945 3946 3927
3927 3946 3947 3928
3928 3947 3948 3929
3929 3948 3949 3930
3930 3949 3950 3931
3931 3950 3951 3932
3932 3951 3952 3933
3933 3952 3953 3934
3934 3953 3954 3935
3935 3954 3955 3936
3936 3955 3956 3937
3937 3956 3957 3938
3938 3957 3958 3939
3939 3958 341 340
126 127 3959 3940
3940 3959 3960 3941
3941 3960 3961 3942
3942 3961 3962 3943
3943 3962 3963 3944
3944 3963 3964 3945
3945 3964 3965 3946
3946 3965 3966 3947
3947 3966 3967 3948
3948 3967 3968 3949
3949 3968 3969 3950
3950 3969 3970 3951
3951 3970 3971 3952
3952 3971 3972 3953
3953 3972 3973 3954
3954 3973 3974 3955
3955 3974 3975 3956
3956 3975 3976 3957
3957 3976 3977 3958
3958 3977 342 341
127 128 3978 3959
3959 3978 3979 3960
3960 3979 3980 3961
3961 3980 3981 3962
3962 3981 3982 3963
3963 3982 3983 3964
3964 3983 3984 3965
3965 3984 3985 3966
3966 3985 3986 3967
3967 3986 3987 3968
3968 3987 3988 3969
3969 3988 3989 3970
3970 3989 3990 3971
3971 3990 3991 3972
3972 3991 3992 3973
3973 3992 3993 3974
3974 3993 3994 3975
3975 3994 3995 3976
3976 3995 3996 3977
3977 3996 343 342
128 129 3997 3978
3978 3997 3998 3979
3979 3998 3999 3980
3980 3999 4000 3981
3981 4000 4001 3982
3982 4001 4002 3983
3983 4002 4003 3984
3984 4003 4004 3985
3985 4004 4005 3986
3986 4005 4006 3987
3987 4006 4007 3988
3988 4007 4008 3989
3989 4008 4009 3990
3990 4009 4010 3991
3991 4010 4011 3992
3992 4011 4012 3993
3993 4012 4013 3994
3994 4013 4014 3995
3995 4014 4015 3996
3996 4015 344 343
129 130 4016 3997
3997 4016 4017 3998
3998 4017 4018 3999
3999 4018 4019 4000
4000 4019 4020 4001
4001 4020 4021 4002
4002 4021 4022 4003
4003 4022 4023 4004
4004 4023 4024 4005
4005 4024 4025 4006
4006 4025 4026 4007
4007 4026 4027 4008
4008 4027 4028 4009
4009 4028 4029 4010
4010 4029 4030 4011
4011 4030 4031 4012
4012 4031 4032 4013
4013 4032 4033 4014
4014 4033 4034 4015
4015 4034 345 344
130 131 4035 4016
4016 4035 4036 4017
4017 4036 4037 4018
4018 4037 4038 4019
4019 4038 4039 4020
4020 4039 4040 4021
4021 4040 4041 4022
4022 4041 4042 4023
4023 4042 4043 4024
4024 4043 4044 4025
4025 4044 4045 4026
4026 4045 4046 4027
4027 4046 4047 4028
4028 4047 4048 4029
4029 4048 4049 4030
4030 4049 4050 4031
4031 4050 4051 4032
4032 4051 4052 4033
4033 4052 4053 4034
4034 4053 346 345
131 132 4054 4035
4035 4054 4055 4036
4036 4055 4056 4037
4037 4056 4057 4038
4038 4057 4058 4039
4039 4058 4059 4040
4040 4059 4060 4041
4041 4060 4061 4042
4042 4061 4062 4043
4043 4062 4063 4044
4044 4063 4064 4045
4045 4064 4065 4046
4046 4065 4066 4047
4047 4066 4067 4048
4048 4067 4068 4049
4049 4068 4069 4050
4050 4069 4070 4051
4051 4070 4071 4052
4052 4071 4072 4053
4053 4072 347 346
132 133 4073 4054
4054 4073 4074 4055
4055 4074 4075 4056
4056 4075 4076 4057
4057 4076 4077 4058
4058 4077 4078 4059
4059 4078 4079 4060
4060 4079 4080 4061
4061 4080 4081 4062
4062 4081 4082 4063
4063 4082 4083 4064
4064 4083 4084 4065
4065 4084 4085 4066
4066 4085 4086 4067
4067 4086 4087 4068
4068 4087 4088 4069
4069 4088 4089 4070
4070 4089 4090 4071
4071 4090 4091 4072
4072 4091 348 347
133 134 4092 4073
4073 4092 4093 4074
4074 4093 4094 4075
4075 4094 4095 4076
4076 4095 4096 4077
4077 4096 4097 4078
4078 4097 4098 4079
4079 4098 4099 4080
4080 4099 4100 4081
4081 4100 4101 4082
4082 4101 4102 4083
4083 4102 4103 4084
4084 4103 4104 4085
4085 4104 4105 4086
4086 4105 4106 4087
4087 4106 4107 4088
4088 4107 4108 4089
4089 4108 4109 4090
4090 4109 4110 4091
4091 4110 349 348
134 135 4111 4092
4092 4111 4112 4093
4093 4112 4113 4094
4094 4113 4114 4095
4095 4114 4115 4096
4096 4115 4116 4097
4097 4116 4117 4098
4098 4117 4118 4099
4099 4118 4119 4100
4100 4119 4120 4101
4101 4120 4121 4102
4102 4121 4122 4103
4103 4122 4123 4104
4104 4123 4124 4105
4105 4124 4125 4106
4106 4125 4126 4107
4107 4126 4127 4108
4108 4127 4128 4109
4109 4128 4129 4110
4110 4129 350 349
135 136 4130 4111
4111 4130 4131 4112
4112 4131 4132 4113
4113 4132 4133 4114
4114 4133 4134 4115
4115 4134 4135 4116
4116 4135 4136 4117
4117 4136 4137 4118
4118 4137 4138 4119
4119 4138 4139 4120
4120 4139 4140 4121
4121 4140 4141 4122
4122 4141 4142 4123
4123 4142 4143 4124
4124 4143 4144 4125
4125 4144 4145 4126
4126 4145 4146 4127
4127 4146 4147 4128
4128 4147 4148 4129
4129 4148 351 350
136 137 4149 4130
4130 4149 4150 4131
4131 4150 4151 4132
4132 4151 4152 4133
4133 4152 4153 4134
4134 4153 4154 4135
4135 4154 4155 4136
4136 4155 4156 4137
4137 4156 4157 4138
4138 4157 4158 4139
4139 4158 4159 4140
4140 4159 4160 4141
4141 4160 4161 4142
4142 4161 4162 4143
4143 4162 4163 4144
4144 4163 4164 4145
4145 4164 4165 4146
4146 4165 4166 4147
4147 4166 4167 4148
4148 4167 352 351
137 138 4168 4149
4149 4168 4169 4150
4150 4169 4170 4151
4151 4170 4171 4152
4152 4171 4172 4153
4153 4172 4173 4154
4154 4173 4174 4155
4155 4174 4175 4156
4156 4175 4176 4157
4157 4176 4177 4158
4158 4177 4178 4159
4159 4178 4179 4160
4160 4179 4180 4161
4161 4180 4181 4162
4162 4181 4182 4163
4163 4182 4183 4164
4164 4183 4184 4165
4165 4184 4185 4166
4166 4185 4186 4167
4167 4186 353 352
138 139 4187 4168
4168 4187 4188 4169
4169 4188 4189 4170
4170 4189 4190 4171
4171 4190 4191 4172
4172 4191 4192 4173
4173 4192 4193 4174
4174 4193 4194 4175
4175 4194 4195 4176
4176 4195 4196 4177
4177 4196 4197 4178
4178 4197 4198 4179
4179 4198 4199 4180
4180 4199 4200 4181
4181 4200 4201 4182
4182 4201 4202 4183
4183 4202 4203 4184
4184 4203 4204 4185
4185 4204 4205 4186
4186 4205 354 353
139 140 4206 4187
4187 4206 4207 4188
4188 4207 4208 4189
4189 4208 4209 4190
4190 4209 4210 4191
4191 4210 4211 4192
4192 4211 4212 4193
4193 4212 4213 4194
4194 4213 4214 4195
4195 4214 4215 4196
4196 4215 4216 4197
4197 4216 4217 4198
4198 4217 4218 4199
4199 4218 4219 4200
4200 4219 4220 4201
4201 4220 4221 4202
4202 4221 4222 4203
4203 4222 4223 4204
4204 4223 4224 4205
4205 4224 355 354
140 141 4225 4206
4206 4225 4226 4207
4207 4226 4227 4208
4208 4227 4228 4209
4209 4228 4229 4210
4210 4229 4230 4211
4211 4230 4231 4212
4212 4231 4232 4213
4213 4232 4233 4214
4214 4233 4234 4215
4215 4234 4235 4216
4216 4235 4236 4217
4217 4236 4237 4218
4218 4237 4238 4219
4219 4238 4239 4220
4220 4239 4240 4221
4221 4240 4241 4222
4222 4241 4242 4223
4223 4242 4243 4224
4224 4243 356 355
141 142 4244 4225
4225 4244 4245 4226
4226 4245 4246 4227
4227 4246 4247 4228
4228 4247 4248 4229
4229 4248 4249 4230
4230 4249 4250 4231
4231 4250 4251 4232
4232 4251 4252 4233
4233 4252 4253 4234
4234 4253 4254 4235
4235 4254 4255 4236
4236 4255 4256 4237
4237 4256 4257 4238
4238 4257 4258 4239
4239 4258 4259 4240
4240 4259 4260 4241
4241 4260 4261 4242
4242 4261 4262 4243
4243 4262 357 356
142 143 4263 4244
4244 4263 4264 4245
4245 4264 4265 4246
4246 4265 4266 4247
4247 4266 4267 4248
4248 4267 4268 4249
4249 4268 4269 4250
4250 4269 4270 4251
4251 4270 4271 4252
4252 4271 4272 4253
4253 4272 4273 4254
4254 4273 4274 4255
4255 4274 4275 4256
4256 4275 4276 4257
4257 4276 4277 4258
4258 4277 4278 4259
4259 4278 4279 4260
4260 4279 4280 4261
4261 4280 4281 4262
4262 4281 358 357
143 144 4282 4263
4263 4282 4283 4264
4264 4283 4284 4265
4265 4284 4285 4266
4266 4285 4286 4267
4267 4286 4287 4268
4268 4287 4288 4269
4269 4288 4289 4270
4270 4289 4290 4271
4271 4290 4291 4272
4272 4291 4292 4273
4273 4292 4293 4274
4274 4293 4294 4275
4275 4294 4295 4276
4276 4295 4296 4277
4277 4296 4297 4278
4278 4297 4298 4279
4279 4298 4299 4280
4280 4299 4300 4281
4281 4300 359 358
144 145 4301 4282
4282 4301 4302 4283
4283 4302 4303 4284
4284 4303 4304 4285
4285 4304 4305 4286
4286 4305 4306 4287
4287 4306 4307 4288
4288 4307 4308 4289
4289 4308 4309 4290
4290 4309 4310 4291
4291 4310 4311 4292
4292 4311 4312 4293
4293 4312 4313 4294
4294 4313 4314 4295
4295 4314 4315 4296
4296 4315 4316 4297
4297 4316 4317 4298
4298 4317 4318 4299
4299 4318 4319 4300
4300 4319 360 359
145 146 4320 4301
4301 4320 4321 4302
4302 4321 4322 4303
4303 4322 4323 4304
4304 4323 4324 4305
4305 4324 4325 4306
4306 4325 4326 4307
4307 4326 4327 4308
4308 4327 4328 4309
4309 4328 4329 4310
4310 4329 4330 4311
4311 4330 4331 4312
4312 4331 4332 4313
4313 4332 4333 4314
4314 4333 4334 4315
4315 4334 4335 4316
4316 4335 4336 4317
4317 4336 4337 4318
4318 4337 4338 4319
4319 4338 361 360
146 5 399 4320
4320 399 398 4321
4321 398 397 4322
4322 397 396 4323
4323 396 395 4324
4324 395 394 4325
4325 394 393 4326
4326 393 392 4327
4327 392 391 4328
4328 391 390 4329
4329 390 389 4330
4330 389 388 4331
4331 388 387 4332
4332 387 386 4333
4333 386 385 4334
4334 385 384 4335
4335 384 383 4336
4336 383 382 4337
4337 382 381 4338
4338 381 10 361
3 89 4339 166
166 4339 4340 167
167 4340 4341 168
168 4341 4342 169
169 4342 4343 170
170 4343 4344 171
171 4344 4345 172
172 4345 4346 173
173 4346 4347 174
174 4347 4348 175
175 4348 4349 176
176 4349 4350 177
177 4350 4351 178
178 4351 4352 179
179 4352 4353 180
180 4353 4354 181
181 4354 4355 182
182 4355 4356 183
183 4356 4357 184
184 4357 418 7
89 90 4358 4339
4339 4358 4359 4340
4340 4359 4360 4341
4341 4360 4361 4342
4342 4361 4362 4343
4343 4362 4363 4344
4344 4363 4364 4345
4345 4364 4365 4346
4346 4365 4366 4347
4347 4366 4367 4348
4348 4367 4368 4349
4349 4368 4369 4350
4350 4369 4370 4351
4351 4370 4371 4352
4352 4371 4372 4353
4353 4372 4373 4354
4354 4373 4374 4355
4355 4374 4375 4356
4356 4375 4376 4357
4357 4376 417 418
90 91 4377 4358
4358 4377 4378 4359
4359 4378 4379 4360
4360 4379 4380 4361
4361 4380 4381 4362
4362 4381 4382 4363
4363 4382 4383 4364
4364 4383 4384 4365
4365 4384 4385 4366
4366 4385 4386 4367
4367 4386 4387 4368
4368 4387 4388 4369
4369 4388 4389 4370
4370 4389 4390 4371
4371 4390 4391 4372
4372 4391 4392 4373
4373 4392 4393 4374
4374 4393 4394 4375
4375 4394 4395 4376
4376 4395 416 417
91 92 4396 4377
4377 4396 4397 4378
4378 4397 4398 4379
4379 4398 4399 4380
4380 4399 4400 4381
4381 4400 4401 4382
4382 4401 4402 4383
4383 4402 4403 4384
4384 4403 4404 4385
4385 4404 4405 4386
4386 4405 4406 4387
4387 4406 4407 4388
4388 4407 4408 4389
4389 4408 4409 4390
4390 4409 4410 4391
4391 4410 4411 4392
4392 4411 4412 4393
4393 4412 4413 4394
4394 4413 4414 4395
4395 4414 415 416
92 93 4415 4396
4396 4415 4416 4397
4397 4416 4417 4398
4398 4417 4418 4399
4399 4418 4419 4400
4400 4419 4420 4401
4401 4420 4421 4402
4402 4421 4422 4403
4403 4422 4423 4404
4404 4423 4424 4405
4405 4424 4425 4406
4406 4425 4426 4407
4407 4426 4427 4408
4408 4427 4428 4409
4409 4428 4429 4410
4410 4429 4430 4411
4411 4430 4431 4412
4412 4431 4432 4413
4413 4432 4433 4414
4414 4433 414 415
93 94 4434 4415
4415 4434 4435 4416
4416 4435 4436 4417
4417 4436 4437 4418
4418 4437 4438 4419
4419 4438 4439 4420
4420 4439 4440 4421
4421 4440 4441 4422
4422 4441 4442 4423
4423 4442 4443 4424
4424 4443 4444 4425
4425 4444 4445 4426
4426 4445 4446 4427
4427 4446 4447 4428
4428 4447 4448 4429
4429 4448 4449 4430
4430 4449 4450 4431
4431 4450 4451 4432
4432 4451 4452 4433
4433 4452 413 414
94 95 4453 4434
4434 4453 4454 4435
4435 4454 4455 4436
4436 4455 4456 4437
4437 4456 4457 4438
4438 4457 4458 4439
4439 4458 4459 4440
4440 4459 4460 4441
4441 4460 4461 4442
4442 4461 4462 4443
4443 4462 4463 4444
4444 4463 4464 4445
4445 4464 4465 4446
4446 4465 4466 4447
4447 4466 4467 4448
4448 4467 4468 4449
4449 4468 4469 4450
4450 4469 4470 4451
4451 4470 4471 4452
4452 4471 412 413
95 96 4472 4453
4453 4472 4473 4454
4454 4473 4474 4455
4455 4474 4475 4456
4456 4475 4476 4457
4457 4476 4477 4458
4458 4477 4478 4459
4459 4478 4479 4460
4460 4479 4480 4461
4461 4480 4481 4462
4462 4481 4482 4463
4463 4482 4483 4464
4464 4483 4484 4465
4465 4484 4485 4466
4466 4485 4486 4467
4467 4486 4487 4468
4468 4487 4488 4469
4469 4488 4489 4470
4470 4489 4490 4471
4471 4490 411 412
96 97 4491 4472
4472 4491 4492 4473
4473 4492 4493 4474
4474 4493 4494 4475
4475 4494 4495 4476
4476 4495 4496 4477
4477 4496 4497 4478
4478 4497 4498 4479
4479 4498 4499 4480
4480 4499 4500 4481
4481 4500 4501 4482
4482 4501 4502 4483
4483 4502 4503 4484
4484 4503 4504 4485
4485 4504 4505 4486
4486 4505 4506 4487
4487 4506 4507 4488
4488 4507 4508 4489
4489 4508 4509 4490
4490 4509 410 411
97 98 4510 4491
4491 4510 4511 4492
4492 4511 4512 4493
4493 4512 4513 4494
4494 4513 4514 4495
4495 4514 4515 4496
4496 4515 4516 4497
4497 4516 4517 4498
4498 4517 4518 4499
4499 4518 4519 4500
4500 4519 4520 4501
4501 4520 4521 4502
4502 4521 4522 4503
4503 4522 4523 4504
4504 4523 4524 4505
4505 4524 4525 4506
4506 4525 4526 4507
4507 4526 4527 4508
4508 4527 4528 4509
4509 4528 409 410
98 99 4529 4510
4510 4529 4530 4511
4511 4530 4531 4512
4512 4531 4532 4513
4513 4532 4533 4514
4514 4533 4534 4515
4515 4534 4535 4516
4516 4535 4536 4517
4517 4536 4537 4518
4518 4537 4538 4519
4519 4538 4539 4520
4520 4539 4540 4521
4521 4540 4541 4522
4522 4541 4542 4523
4523 4542 4543 4524
4524 4543 4544 4525
4525 4544 4545 4526
4526 4545 4546 4527
4527 4546 4547 4528
4528 4547 408 409
99 100 4548 4529
4529 4548 4549 4530
4530 4549 4550 4531
4531 4550 4551 4532
4532 4551 4552 4533
4533 4552 4553 4534
4534 4553 4554 4535
4535 4554 4555 4536
4536 4555 4556 4537
4537 4556 4557 4538
4538 4557 4558 4539
4539 4558 4559 4540
4540 4559 4560 4541
4541 4560 4561 4542
4542 4561 4562 4543
4543 4562 4563 4544
4544 4563 4564 4545
4545 4564 4565 4546
4546 4565 4566 4547
4547 4566 407 408
100 101 4567 4548
4548 4567 4568 4549
4549 4568 4569 4550
4550 4569 4570 4551
4551 4570 4571 4552
4552 4571 4572 4553
4553 4572 4573 4554
4554 4573 4574 4555
4555 4574 4575 4556
4556 4575 4576 4557
4557 4576 4577 4558
4558 4577 4578 4559
4559 4578 4579 4560
4560 4579 4580 4561
4561 4580 4581 4562
4562 4581 4582 4563
4563 4582 4583 4564
4564 4583 4584 4565
4565 4584 4585 4566
4566 4585 406 407
101 102 4586 4567
4567 4586 4587 4568
4568 4587 4588 4569
4569 4588 4589 4570
4570 4589 4590 4571
4571 4590 4591 4572
4572 4591 4592 4573
4573 4592 4593 4574
4574 4593 4594 4575
4575 4594 4595 4576
4576 4595 4596 4577
4577 4596 4597 4578
4578 4597 4598 4579
4579 4598 4599 4580
4580 4599 4600 4581
4581 4600 4601 4582
4582 4601 4602 4583
4583 4602 4603 4584
4584 4603 4604 4585
4585 4604 405 406
102 103 4605 4586
4586 4605 4606 4587
4587 4606 4607 4588
4588 4607 4608 4589
4589 4608 4609 4590
4590 4609 4610 4591
4591 4610 4611 4592
4592 4611 4612 4593
4593 4612 4613 4594
4594 4613 4614 4595
4595 4614 4615 4596
4596 4615 4616 4597
4597 4616 4617 4598
4598 4617 4618 4599
4599 4618 4619 4600
4600 4619 4620 4601
4601 4620 4621 4602
4602 4621 4622 4603
4603 4622 4623 4604
4604 4623 404 405
103 104 4624 4605
4605 4624 4625 4606
4606 4625 4626 4607
4607 4626 4627 4608
4608 4627 4628 4609
4609 4628 4629 4610
4610 4629 4630 4611
4611 4630 4631 4612
4612 4631 4632 4613
4613 4632 4633 4614
4614 4633 4634 4615
4615 4634 4635 4616
4616 4635 4636 4617
4617 4636 4637 4618
4618 4637 4638 4619
4619 4638 4639 4620
4620 4639 4640 4621
4621 4640 4641 4622
4622 4641 4642 4623
4623 4642 403 404
104 105 4643 4624
4624 4643 4644 4625
4625 4644 4645 4626
4626 4645 4646 4627
4627 4646 4647 4628
4628 4647 4648 4629
4629 4648 4649 4630
4630 4649 4650 4631
4631 4650 4651 4632
4632 4651 4652 4633
4633 4652 4653 4634
4634 4653 4654 4635
4635 4654 4655 4636
4636 4655 4656 4637
4637 4656 4657 4638
4638 4657 4658 4639
4639 4658 4659 4640
4640 4659 4660 4641
4641 4660 4661 4642
4642 4661 402 403
105 106 4662 4643
4643 4662 4663 4644
4644 4663 4664 4645
4645 4664 4665 4646
4646 4665 4666 4647
4647 4666 4667 4648
4648 4667 4668 4649
4649 4668 4669 4650
4650 4669 4670 4651
4651 4670 4671 4652
4652 4671 4672 4653
4653 4672 4673 4654
4654 4673 4674 4655
4655 4674 4675 4656
4656 4675 4676 4657
4657 4676 4677 4658
4658 4677 4678 4659
4659 4678 4679 4660
4660 4679 4680 4661
4661 4680 401 402
106 107 4681 4662
4662 4681 4682 4663
4663 4682 4683 4664
4664 4683 4684 4665
4665 4684 4685 4666
4666 4685 4686 4667
4667 4686 4687 4668
4668 4687 4688 4669
4669 4688 4689 4670
4670 4689 4690 4671
4671 4690 4691 4672
4672 4691 4692 4673
4673 4692 4693 4674
4674 4693 4694 4675
4675 4694 4695 4676
4676 4695 4696 4677
4677 4696 4697 4678
4678 4697 4698 4679
4679 4698 4699 4680
4680 4699 400 401
107 4 380 4681
4681 380 379 4682
4682 379 378 4683
4683 378 377 4684
4684 377 376 4685
4685 376 375 4686
4686 375 374 4687
4687 374 373 4688
4688 373 372 4689
4689 372 371 4690
4690 371 370 4691
4691 370 369 4692
4692 369 368 4693
4693 368 367 4694
4694 367 366 4695
4695 366 365 4696
4696 365 364 4697
4697 364 363 4698
4698 363 362 4699
4699 362 9 400
5 147 4700 399
399 4700 4701 398
398 4701 4702 397
397 4702 4703 396
396 4703 4704 395
395 4704 4705 394
394 4705 4706 393
393 4706 4707 392
392 4707 4708 391
391 4708 4709 390
390 4709 4710 389
389 4710 4711 388
388 4711 4712 387
387 4712 4713 386
386 4713 4714 385
385 4714 4715 384
384 4715 4716 383
383 4716 4717 382
382 4717 4718 381
381 4718 419 10
147 148 4719 4700
4700 4719 4720 4701
4701 4720 4721 4702
4702 4721 4722 4703
4703 4722 4723 4704
4704 4723 4724 4705
4705 4724 4725 4706
4706 4725 4726 4707
4707 4726 4727 4708
4708 4727 4728 4709
4709 4728 4729 4710
4710 4729 4730 4711
4711 4730 4731 4712
4712 4731 4732 4713
4713 4732 4733 4714
4714 4733 4734 4715
4715 4734 4735 4716
4716 4735 4736 4717
4717 4736 4737 4718
4718 4737 420 419
148 149 4738 4719
4719 4738 4739 4720
4720 4739 4740 4721
4721 4740 4741 4722
4722 4741 4742 4723
4723 4742 4743 4724
4724 4743 4744 4725
4725 4744 4745 4726
4726 4745 4746 4727
4727 4746 4747 4728
4728 4747 4748 4729
4729 4748 4749 4730
4730 4749 4750 4731
4731 4750 4751 4732
4732 4751 4752 4733
4733 4752 4753 4734
4734 4753 4754 4735
4735 4754 4755 4736
4736 4755 4756 4737
4737 4756 421 420
149 150 4757 4738
4738 4757 4758 4739
4739 4758 4759 4740
4740 4759 4760 4741
4741 4760 4761 4742
4742 4761 4762 4743
4743 4762 4763 4744
4744 4763 4764 4745
4745 4764 4765 4746
4746 4765 4766 4747
4747 4766 4767 4748
4748 4767 4768 4749
4749 4768 4769 4750
4750 4769 4770 4751
4751 4770 4771 4752
4752 4771 4772 4753
4753 4772 4773 4754
4754 4773 4774 4755
4755 4774 4775 4756
4756 4775 422 421
150 151 4776 4757
4757 4776 4777 4758
4758 4777 4778 4759
4759 4778 4779 4760
4760 4779 4780 4761
4761 4780 4781 4762
4762 4781 4782 4763
4763 4782 4783 4764
4764 4783 4784 4765
4765 4784 4785 4766
4766 4785 4786 4767
4767 4786 4787 4768
4768 4787 4788 4769
4769 4788 4789 4770
4770 4789 4790 4771
4771 4790 4791 4772
4772 4791 4792 4773
4773 4792 4793 4774
4774 4793 4794 4775
4775 4794 423 422
151 152 4795 4776
4776 4795 4796 4777
4777 4796 4797 4778
4778 4797 4798 4779
4779 4798 4799 4780
4780 4799 4800 4781
4781 4800 4801 4782
4782 4801 4802 4783
4783 4802 4803 4784
4784 4803 4804 4785
4785 4804 4805 4786
4786 4805 4806 4787
4787 4806 4807 4788
4788 4807 4808 4789
4789 4808 4809 4790
4790 4809 4810 4791
4791 4810 4811 4792
4792 4811 4812 4793
4793 4812 4813 4794
4794 4813 424 423
152 153 4814 4795
4795 4814 4815 4796
4796 4815 4816 4797
4797 4816 4817 4798
4798 4817 4818 4799
4799 4818 4819 4800
4800 4819 4820 4801
4801 4820 4821 4802
4802 4821 4822 4803
4803 4822 4823 4804
4804 4823 4824 4805
4805 4824 4825 4806
4806 4825 4826 4807
4807 4826 4827 4808
4808 4827 4828 4809
4809 4828 4829 4810
4810 4829 4830 4811
4811 4830 4831 4812
4812 4831 4832 4813
4813 4832 425 424
153 154 4833 4814
4814 4833 4834 4815
4815 4834 4835 4816
4816 4835 4836 4817
4817 4836 4837 4818
4818 4837 4838 4819
4819 4838 4839 4820
4820 4839 4840 4821
4821 4840 4841 4822
4822 4841 4842 4823
4823 4842 4843 4824
4824 4843 4844 4825
4825 4844 4845 4826
4826 4845 4846 4827
4827 4846 4847 4828
4828 4847 4848 4829
4829 4848 4849 4830
4830 4849 4850 4831
4831 4850 4851 4832
4832 4851 426 425
154 155 4852 4833
4833 4852 4853 4834
4834 4853 4854 4835
4835 4854 4855 4836
4836 4855 4856 4837
4837 4856 4857 4838
4838 4857 4858 4839
4839 4858 4859 4840
4840 4859 4860 4841
4841 4860 4861 4842
4842 4861 4862 4843
4843 4862 4863 4844
4844 4863 4864 4845
4845 4864 4865 4846
4846 4865 4866 4847
4847 4866 4867 4848
4848 4867 4868 4849
4849 4868 4869 4850
4850 4869 4870 4851
4851 4870 427 426
155 156 4871 4852
4852 4871 4872 4853
4853 4872 4873 4854
4854 4873 4874 4855
4855 4874 4875 4856
4856 4875 4876 4857
4857 4876 4877 4858
4858 4877 4878 4859
4859 4878 4879 4860
4860 4879 4880 4861
4861 4880 4881 4862
4862 4881 4882 4863
4863 4882 4883 4864
4864 4883 4884 4865
4865 4884 4885 4866
4866 4885 4886 4867
4867 4886 4887 4868
4868 4887 4888 4869
4869 4888 4889 4870
4870 4889 428 427
156 157 4890 4871
4871 4890 4891 4872
4872 4891 4892 4873
4873 4892 4893 4874
4874 4893 4894 4875
4875 4894 4895 4876
4876 4895 4896 4877
4877 4896 4897 4878
4878 4897 4898 4879
4879 4898 4899 4880
4880 4899 4900 4881
4881 4900 4901 4882
4882 4901 4902 4883
4883 4902 4903 4884
4884 4903 4904 4885
4885 4904 4905 4886
4886 4905 4906 4887
4887 4906 4907 4888
4888 4907 4908 4889
4889 4908 429 428
157 158 4909 4890
4890 4909 4910 4891
4891 4910 4911 4892
4892 4911 4912 4893
4893 4912 4913 4894
4894 4913 4914 4895
4895 4914 4915 4896
4896 4915 4916 4897
4897 4916 4917 4898
4898 4917 4918 4899
4899 4918 4919 4900
4900 4919 4920 4901
4901 4920 4921 4902
4902 4921 4922 4903
4903 4922 4923 4904
4904 4923 4924 4905
4905 4924 4925 4906
4906 4925 4926 4907
4907 4926 4927 4908
4908 4927 430 429
158 159 4928 4909
4909 4928 4929 4910
4910 4929 4930 4911
4911 4930 4931 4912
4912 4931 4932 4913
4913 4932 4933 4914
4914 4933 4934 4915
4915 4934 4935 4916
4916 4935 4936 4917
4917 4936 4937 4918
4918 4937 4938 4919
4919 4938 4939 4920
4920 4939 4940 4921
4921 4940 4941 4922
4922 4941 4942 4923
4923 4942 4943 4924
4924 4943 4944 4925
4925 4944 4945 4926
4926 4945 4946 4927
4927 4946 431 430
159 160 4947 4928
4928 4947 4948 4929
4929 4948 4949 4930
4930 4949 4950 4931
4931 4950 4951 4932
4932 4951 4952 4933
4933 4952 4953 4934
4934 4953 4954 4935
4935 4954 4955 4936
4936 4955 4956 4937
4937 4956 4957 4938
4938 4957 4958 4939
4939 4958 4959 4940
4940 4959 4960 4941
4941 4960 4961 4942
4942 4961 4962 4943
4943 4962 4963 4944
4944 4963 4964 4945
4945 4964 4965 4946
4946 4965 432 431
160 161 4966 4947
4947 4966 4967 4948
4948 4967 4968 4949
4949 4968 4969 4950
4950 4969 4970 4951
4951 4970 4971 4952
4952 4971 4972 4953
4953 4972 4973 4954
4954 4973 4974 4955
4955 4974 4975 4956
4956 4975 4976 4957
4957 4976 4977 4958
4958 4977 4978 4959
4959 4978 4979 4960
4960 4979 4980 4961
4961 4980 4981 4962
4962 4981 4982 4963
4963 4982 4983 4964
4964 4983 4984 4965
4965 4984 433 432
161 162 4985 4966
4966 4985 4986 4967
4967 4986 4987 4968
4968 4987 4988 4969
4969 4988 4989 4970
4970 4989 4990 4971
4971 4990 4991 4972
4972 4991 4992 4973
4973 4992 4993 4974
4974 4993 4994 4975
4975 4994 4995 4976
4976 4995 4996 4977
4977 4996 4997 4978
4978 4997 4998 4979
4979 4998 4999 4980
4980 4999 5000 4981
4981 5000 5001 4982
4982 5001 5002 4983
4983 5002 5003 4984
4984 5003 434 433
162 163 5004 4985
4985 5004 5005 4986
4986 5005 5006 4987
4987 5006 5007 4988
4988 5007 5008 4989
4989 5008 5009 4990
4990 5009 5010 4991
4991 5010 5011 4992
4992 5011 5012 4993
4993 5012 5013 4994
4994 5013 5014 4995
4995 5014 5015 4996
4996 5015 5016 4997
4997 5016 5017 4998
4998 5017 5018 4999
4999 5018 5019 5000
5000 5019 5020 5001
5001 5020 5021 5002
5002 5021 5022 5003
5003 5022 435 434
163 164 5023 5004
5004 5023 5024 5005
5005 5024 5025 5006
5006 5025 5026 5007
5007 5026 5027 5008
5008 5027 5028 5009
5009 5028 5029 5010
5010 5029 5030 5011
5011 5030 5031 5012
5012 5031 5032 5013
5013 5032 5033 5014
5014 5033 5034 5015
5015 5034 5035 5016
5016 5035 5036 5017
5017 5036 5037 5018
5018 5037 5038 5019
5019 5038 5039 5020
5020 5039 5040 5021
5021 5040 5041 5022
5022 5041 436 435
164 165 5042 5023
5023 5042 5043 5024
5024 5043 5044 5025
5025 5044 5045 5026
5026 5045 5046 5027
5027 5046 5047 5028
5028 5047 5048 5029
5029 5048 5049 5030
5030 5049 5050 5031
5031 5050 5051 5032
5032 5051 5052 5033
5033 5052 5053 5034
5034 5053 5054 5035
5035 5054 5055 5036
5036 5055 5056 5037
5037 5056 5057 5038
5038 5057 5058 5039
5039 5058 5059 5040
5040 5059 5060 5041
5041 5060 437 436
165 6 242 5042
5042 242 241 5043
5043 241 240 5044
5044 240 239 5045
5045 239 238 5046
5046 238 237 5047
5047 237 236 5048
5048 236 235 5049
5049 235 234 5050
5050 234 233 5051
5051 233 232 5052
5052 232 231 5053
5053 231 230 5054
5054 230 229 5055
5055 229 228 5056
5056 228 227 5057
5057 227 226 5058
5058 226 225 5059
5059 225 224 5060
5060 224 8 437
9 323 5061 400
400 5061 5062 401
401 5062 5063 402
402 5063 5064 403
403 5064 5065 404
404 5065 5066 405
405 5066 5067 406
406 5067 5068 407
407 5068 5069 408
408 5069 5070 409
409 5070 5071 410
410 5071 5072 411
411 5072 5073 412
412 5073 5074 413
413 5074 5075 414
414 5075 5076 415
415 5076 5077 416
416 5077 5078 417
417 5078 5079 418
418 5079 185 7
323 324 5080 5061
5061 5080 5081 5062
5062 5081 5082 5063
5063 5082 5083 5064
5064 5083 5084 5065
5065 5084 5085 5066
5066 5085 5086 5067
5067 5086 5087 5068
5068 5087 5088 5069
5069 5088 5089 5070
5070 5089 5090 5071
5071 5090 5091 5072
5072 5091 5092 5073
5073 5092 5093 5074
5074 5093 5094 5075
5075 5094 5095 5076
5076 5095 5096 5077
5077 5096 5097 5078
5078 5097 5098 5079
5079 5098 186 185
324 325 5099 5080
5080 5099 5100 5081
5081 5100 5101 5082
5082 5101 5102 5083
5083 5102 5103 5084
5084 5103 5104 5085
5085 5104 5105 5086
5086 5105 5106 5087
5087 5106 5107 5088
5088 5107 5108 5089
5089 5108 5109 5090
5090 5109 5110 5091
5091 5110 5111 5092
5092 5111 5112 5093
5093 5112 5113 5094
5094 5113 5114 5095
5095 5114 5115 5096
5096 5115 5116 5097
5097 5116 5117 5098
5098 5117 187 186
325 326 5118 5099
5099 5118 5119 5100
5100 5119 5120 5101
5101 5120 5121 5102
5102 5121 5122 5103
5103 5122 5123 5104
5104 5123 5124 5105
5105 5124 5125 5106
5106 5125 5126 5107
5107 5126 5127 5108
5108 5127 5128 5109
5109 5128 5129 5110
5110 5129 5130 5111
5111 5130 5131 5112
5112 5131 5132 5113
5113 5132 5133 5114
5114 5133 5134 5115
5115 5134 5135 5116
5116 5135 5136 5117
5117 5136 188 187
326 327 5137 5118
5118 5137 5138 5119
5119 5138 5139 5120
5120 5139 5140 5121
5121 5140 5141 5122
5122 5141 5142 5123
5123 5142 5143 5124
5124 5143 5144 5125
5125 5144 5145 5126
5126 5145 5146 5127
5127 5146 5147 5128
5128 5147 5148 5129
5129 5148 5149 5130
5130 5149 5150 5131
5131 5150 5151 5132
5132 5151 5152 5133
5133 5152 5153 5134
5134 5153 5154 5135
5135 5154 5155 5136
5136 5155 189 188
327 328 5156 5137
5137 5156 5157 5138
5138 5157 5158 5139
5139 5158 5159 5140
5140 5159 5160 5141
5141 5160 5161 5142
5142 5161 5162 5143
5143 5162 5163 5144
5144 5163 5164 5145
5145 5164 5165 5146
5146 5165 5166 5147
5147 5166 5167 5148
5148 5167 5168 5149
5149 5168 5169 5150
5150 5169 5170 5151
5151 5170 5171 5152
5152 5171 5172 5153
5153 5172 5173 5154
5154 5173 5174 5155
5155 5174 190 189
328 329 5175 5156
5156 5175 5176 5157
5157 5176 5177 5158
5158 5177 5178 5159
5159 5178 5179 5160
5160 5179 5180 5161
5161 5180 5181 5162
5162 5181 5182 5163
5163 5182 5183 5164
5164 5183 5184 5165
5165 5184 5185 5166
5166 5185 5186 5167
5167 5186 5187 5168
5168 5187 5188 5169
5169 5188 5189 5170
5170 5189 5190 5171
5171 5190 5191 5172
5172 5191 5192 5173
5173 5192 5193 5174
5174 5193 191 190
329 330 5194 5175
5175 5194 5195 5176
5176 5195 5196 5177
5177 5196 5197 5178
5178 5197 5198 5179
5179 5198 5199 5180
5180 5199 5200 5181
5181 5200 5201 5182
5182 5201 5202 5183
5183 5202 5203 5184
5184 5203 5204 5185
5185 5204 5205 5186
5186 5205 5206 5187
5187 5206 5207 5188
5188 5207 5208 5189
5189 5208 5209 5190
5190 5209 5210 5191
5191 5210 5211 5192
5192 5211 5212 5193
5193 5212 192 191
330 331 5213 5194
5194 5213 5214 5195
5195 5214 5215 5196
5196 5215 5216 5197
5197 5216 5217 5198
5198 5217 5218 5199
5199 5218 5219 5200
5200 5219 5220 5201
5201 5220 5221 5202
5202 5221 5222 5203
5203 5222 5223 5204
5204 5223 5224 5205
5205 5224 5225 5206
5206 5225 5226 5207
5207 5226 5227 5208
5208 5227 5228 5209
5209 5228 5229 5210
5210 5229 5230 5211
5211 5230 5231 5212
5212 5231 193 192
331 332 5232 5213
5213 5232 5233 5214
5214 5233 5234 5215
5215 5234 5235 5216
5216 5235 5236 5217
5217 5236 5237 5218
5218 5237 5238 5219
5219 5238 5239 5220
5220 5239 5240 5221
5221 5240 5241 5222
5222 5241 5242 5223
5223 5242 5243 5224
5224 5243 5244 5225
5225 5244 5245 5226
5226 5245 5246 5227
5227 5246 5247 5228
5228 5247 5248 5229
5229 5248 5249 5230
5230 5249 5250 5231
5231 5250 194 193
332 333 5251 5232
5232 5251 5252 5233
5233 5252 5253 5234
5234 5253 5254 5235
5235 5254 5255 5236
5236 5255 5256 5237
5237 5256 5257 5238
5238 5257 5258 5239
5239 5258 5259 5240
5240 5259 5260 5241
5241 5260 5261 5242
5242 5261 5262 5243
5243 5262 5263 5244
5244 5263 5264 5245
5245 5264 5265 5246
5246 5265 5266 5247
5247 5266 5267 5248
5248 5267 5268 5249
5249 5268 5269 5250
5250 5269 195 194
333 334 5270 5251
5251 5270 5271 5252
5252 5271 5272 5253
5253 5272 5273 5254
5254 5273 5274 5255
5255 5274 5275 5256
5256 5275 5276 5257
5257 5276 5277 5258
5258 5277 5278 5259
5259 5278 5279 5260
5260 5279 5280 5261
5261 5280 5281 5262
5262 5281 5282 5263
5263 5282 5283 5264
5264 5283 5284 5265
5265 5284 5285 5266
5266 5285 5286 5267
5267 5286 5287 5268
5268 5287 5288 5269
5269 5288 196 195
334 335 5289 5270
5270 5289 5290 5271
5271 5290 5291 5272
5272 5291 5292 5273
5273 5292 5293 5274
5274 5293 5294 5275
5275 5294 5295 5276
5276 5295 5296 5277
5277 5296 5297 5278
5278 5297 5298 5279
5279 5298 5299 5280
5280 5299 5300 5281
5281 5300 5301 5282
5282 5301 5302 5283
5283 5302 5303 5284
5284 5303 5304 5285
5285 5304 5305 5286
5286 5305 5306 5287
5287 5306 5307 5288
5288 5307 197 196
335 336 5308 5289
5289 5308 5309 5290
5290 5309 5310 5291
5291 5310 5311 5292
5292 5311 5312 5293
5293 5312 5313 5294
5294 5313 5314 5295
5295 5314 5315 5296
5296 5315 5316 5297
5297 5316 5317 5298
5298 5317 5318 5299
5299 5318 5319 5300
5300 5319 5320 5301
5301 5320 5321 5302
5302 5321 5322 5303
5303 5322 5323 5304
5304 5323 5324 5305
5305 5324 5325 5306
5306 5325 5326 5307
5307 5326 198 197
336 337 5327 5308
5308 5327 5328 5309
5309 5328 5329 5310
5310 5329 5330 5311
5311 5330 5331 5312
5312 5331 5332 5313
5313 5332 5333 5314
5314 5333 5334 5315
5315 5334 5335 5316
5316 5335 5336 5317
5317 5336 5337 5318
5318 5337 5338 5319
5319 5338 5339 5320
5320 5339 5340 5321
5321 5340 5341 5322
5322 5341 5342 5323
5323 5342 5343 5324
5324 5343 5344 5325
5325 5344 5345 5326
5326 5345 199 198
337 338 5346 5327
5327 5346 5347 5328
5328 5347 5348 5329
5329 5348 5349 5330
5330 5349 5350 5331
5331 5350 5351 5332
5332 5351 5352 5333
5333 5352 5353 5334
5334 5353 5354 5335
5335 5354 5355 5336
5336 5355 5356 5337
5337 5356 5357 5338
5338 5357 5358 5339
5339 5358 5359 5340
5340 5359 5360 5341
5341 5360 5361 5342
5342 5361 5362 5343
5343 5362 5363 5344
5344 5363 5364 5345
5345 5364 200 199
338 339 5365 5346
5346 5365 5366 5347
5347 5366 5367 5348
5348 5367 5368 5349
5349 5368 5369 5350
5350 5369 5370 5351
5351 5370 5371 5352
5352 5371 5372 5353
5353 5372 5373 5354
5354 5373 5374 5355
5355 5374 5375 5356
5356 5375 5376 5357
5357 5376 5377 5358
5358 5377 5378 5359
5359 5378 5379 5360
5360 5379 5380 5361
5361 5380 5381 5362
5362 5381 5382 5363
5363 5382 5383 5364
5364 5383 201 200
339 340 5384 5365
5365 5384 5385 5366
5366 5385 5386 5367
5367 5386 5387 5368
5368 5387 5388 5369
5369 5388 5389 5370
5370 5389 5390 5371
5371 5390 5391 5372
5372 5391 5392 5373
5373 5392 5393 5374
5374 5393 5394 5375
5375 5394 5395 5376
5376 5395 5396 5377
5377 5396 5397 5378
5378 5397 5398 5379
5379 5398 5399 5380
5380 5399 5400 5381
5381 5400 5401 5382
5382 5401 5402 5383
5383 5402 202 201
340 341 5403 5384
5384 5403 5404 5385
5385 5404 5405 5386
5386 5405 5406 5387
5387 5406 5407 5388
5388 5407 5408 5389
5389 5408 5409 5390
5390 5409 5410 5391
5391 5410 5411 5392
5392 5411 5412 5393
5393 5412 5413 5394
5394 5413 5414 5395
5395 5414 5415 5396
5396 5415 5416 5397
5397 5416 5417 5398
5398 5417 5418 5399
5399 5418 5419 5400
5400 5419 5420 5401
5401 5420 5421 5402
5402 5421 203 202
341 342 5422 5403
5403 5422 5423 5404
5404 5423 5424 5405
5405 5424 5425 5406
5406 5425 5426 5407
5407 5426 5427 5408
5408 5427 5428 5409
5409 5428 5429 5410
5410 5429 5430 5411
5411 5430 5431 5412
5412 5431 5432 5413
5413 5432 5433 5414
5414 5433 5434 5415
5415 5434 5435 5416
5416 5435 5436 5417
5417 5436 5437 5418
5418 5437 5438 5419
5419 5438 5439 5420
5420 5439 5440 5421
5421 5440 204 203
342 343 5441 5422
5422 5441 5442 5423
5423 5442 5443 5424
5424 5443 5444 5425
5425 5444 5445 5426
5426 5445 5446 5427
5427 5446 5447 5428
5428 5447 5448 5429
5429 5448 5449 5430
5430 5449 5450 5431
5431 5450 5451 5432
5432 5451 5452 5433
5433 5452 5453 5434
5434 5453 5454 5435
5435 5454 5455 5436
5436 5455 5456 5437
5437 5456 5457 5438
5438 5457 5458 5439
5439 5458 5459 5440
5440 5459 205 204
343 344 5460 5441
5441 5460 5461 5442
5442 5461 5462 5443
5443 5462 5463 5444
5444 5463 5464 5445
5445 5464 5465 5446
5446 5465 5466 5447
5447 5466 5467 5448
5448 5467 5468 5449
5449 5468 5469 5450
5450 5469 5470 5451
5451 5470 5471 5452
5452 5471 5472 5453
5453 5472 5473 5454
5454 5473 5474 5455
5455 5474 5475 5456
5456 5475 5476 5457
5457 5476 5477 5458
5458 5477 5478 5459
5459 5478 206 205
344 345 5479 5460
5460 5479 5480 5461
5461 5480 5481 5462
5462 5481 5482 5463
5463 5482 5483 5464
5464 5483 5484 5465
5465 5484 5485 5466
5466 5485 5486 5467
5467 5486 5487 5468
5468 5487 5488 5469
5469 5488 5489 5470
5470 5489 5490 5471
5471 5490 5491 5472
5472 5491 5492 5473
5473 5492 5493 5474
5474 5493 5494 5475
5475 5494 5495 5476
5476 5495 5496 5477
5477 5496 5497 5478
5478 5497 207 206
345 346 5498 5479
5479 5498 5499 5480
5480 5499 5500 5481
5481 5500 5501 5482
5482 5501 5502 5483
5483 5502 5503 5484
5484 5503 5504 5485
5485 5504 5505 5486
5486 5505 5506 5487
5487 5506 5507 5488
5488 5507 5508 5489
5489 5508 5509 5490
5490 5509 5510 5491
5491 5510 5511 5492
5492 5511 5512 5493
5493 5512 5513 5494
5494 5513 5514 5495
5495 5514 5515 5496
5496 5515 5516 5497
5497 5516 208 207
346 347 5517 5498
5498 5517 5518 5499
5499 5518 5519 5500
5500 5519 5520 5501
5501 5520 5521 5502
5502 5521 5522 5503
5503 5522 5523 5504
5504 5523 5524 5505
5505 5524 5525 5506
5506 5525 5526 5507
5507 5526 5527 5508
5508 5527 5528 5509
5509 5528 5529 5510
5510 5529 5530 5511
5511 5530 5531 5512
5512 5531 5532 5513
5513 5532 5533 5514
5514 5533 5534 5515
5515 5534 5535 5516
5516 5535 209 208
347 348 5536 5517
5517 5536 5537 5518
5518 5537 5538 5519
5519 5538 5539 5520
5520 5539 5540 5521
5521 5540 5541 5522
5522 5541 5542 5523
5523 5542 5543 5524
5524 5543 5544 5525
5525 5544 5545 5526
5526 5545 5546 5527
5527 5546 5547 5528
5528 5547 5548 5529
5529 5548 5549 5530
5530 5549 5550 5531
5531 5550 5551 5532
5532 5551 5552 5533
5533 5552 5553 5534
5534 5553 5554 5535
5535 5554 210 209
348 349 5555 5536
5536 5555 5556 5537
5537 5556 5557 5538
5538 5557 5558 5539
5539 5558 5559 5540
5540 5559 5560 5541
5541 5560 5561 5542
5542 5561 5562 5543
5543 5562 5563 5544
5544 5563 5564 5545
5545 5564 5565 5546
5546 5565 5566 5547
5547 5566 5567 5548
5548 5567 5568 5549
5549 5568 5569 5550
5550 5569 5570 5551
5551 5570 5571 5552
5552 5571 5572 5553
5553 5572 5573 5554
5554 5573 211 210
349 350 5574 5555
5555 5574 5575 5556
5556 5575 5576 5557
5557 5576 5577 5558
5558 5577 5578 5559
5559 5578 5579 5560
5560 5579 5580 5561
5561 5580 5581 5562
5562 5581 5582 5563
5563 5582 5583 5564
5564 5583 5584 5565
5565 5584 5585 5566
5566 5585 5586 5567
5567 5586 5587 5568
5568 5587 5588 5569
5569 5588 5589 5570
5570 5589 5590 5571
5571 5590 5591 5572
5572 5591 5592 5573
5573 5592 212 211
350 351 5593 5574
5574 5593 5594 5575
5575 5594 5595 5576
5576 5595 5596 5577
5577 5596 5597 5578
5578 5597 5598 5579
5579 5598 5599 5580
5580 5599 5600 5581
5581 5600 5601 5582
5582 5601 5602 5583
5583 5602 5603 5584
5584 5603 5604 5585
5585 5604 5605 5586
5586 5605 5606 5587
5587 5606 5607 5588
5588 5607 5608 5589
5589 5608 5609 5590
5590 5609 5610 5591
5591 5610 5611 5592
5592 5611 213 212
351 352 5612 5593
5593 5612 5613 5594
5594 5613 5614 5595
5595 5614 5615 5596
5596 5615 5616 5597
5597 5616 5617 5598
5598 5617 5618 5599
5599 5618 5619 5600
5600 5619 5620 5601
5601 5620 5621 5602
5602 5621 5622 5603
5603 5622 5623 5604
5604 5623 5624 5605
5605 5624 5625 5606
5606 5625 5626 5607
5607 5626 5627 5608
5608 5627 5628 5609
5609 5628 5629 5610
5610 5629 5630 5611
5611 5630 214 213
352 353 5631 5612
5612 5631 5632 5613
5613 5632 5633 5614
5614 5633 5634 5615
5615 5634 5635 5616
5616 5635 5636 5617
5617 5636 5637 5618
5618 5637 5638 5619
5619 5638 5639 5620
5620 5639 5640 5621
5621 5640 5641 5622
5622 5641 5642 5623
5623 5642 5643 5624
5624 5643 5644 5625
5625 5644 5645 5626
5626 5645 5646 5627
5627 5646 5647 5628
5628 5647 5648 5629
5629 5648 5649 5630
5630 5649 215 214
353 354 5650 5631
5631 5650 5651 5632
5632 5651 5652 5633
5633 5652 5653 5634
5634 5653 5654 5635
5635 5654 5655 5636
5636 5655 5656 5637
5637 5656 5657 5638
5638 5657 5658 5639
5639 5658 5659 5640
5640 5659 5660 5641
5641 5660 5661 5642
5642 5661 5662 5643
5643 5662 5663 5644
5644 5663 5664 5645
5645 5664 5665 5646
5646 5665 5666 5647
5647 5666 5667 5648
5648 5667 5668 5649
5649 5668 216 215
354 355 5669 5650
5650 5669 5670 5651
5651 5670 5671 5652
5652 5671 5672 5653
5653 5672 5673 5654
5654 5673 5674 5655
5655 5674 5675 5656
5656 5675 5676 5657
5657 5676 5677 5658
5658 5677 5678 5659
5659 5678 5679 5660
5660 5679 5680 5661
5661 5680 5681 5662
5662 5681 5682 5663
5663 5682 5683 5664
5664 5683 5684 5665
5665 5684 5685 5666
5666 5685 5686 5667
5667 5686 5687 5668
5668 5687 217 216
355 356 5688 5669
5669 5688 5689 5670
5670 5689 5690 5671
5671 5690 5691 5672
5672 5691 5692 5673
5673 5692 5693 5674
5674 5693 5694 5675
5675 5694 5695 5676
5676 5695 5696 5677
5677 5696 5697 5678
5678 5697 5698 5679
5679 5698 5699 5680
5680 5699 5700 5681
5681 5700 5701 5682
5682 5701 5702 5683
5683 5702 5703 5684
5684 5703 5704 5685
5685 5704 5705 5686
5686 5705 5706 5687
5687 5706 218 217
356 357 5707 5688
5688 5707 5708 5689
5689 5708 5709 5690
5690 5709 5710 5691
5691 5710 5711 5692
5692 5711 5712 5693
5693 5712 5713 5694
5694 5713 5714 5695
5695 5714 5715 5696
5696 5715 5716 5697
5697 5716 5717 5698
5698 5717 5718 5699
5699 5718 5719 5700
5700 5719 5720 5701
5701 5720 5721 5702
5702 5721 5722 5703
5703 5722 5723 5704
5704 5723 5724 5705
5705 5724 5725 5706
5706 5725 219 218
357 358 5726 5707
5707 5726 5727 5708
5708 5727 5728 5709
5709 5728 5729 5710
5710 5729 5730 5711
5711 5730 5731 5712
5712 5731 5732 5713
5713 5732 5733 5714
5714 5733 5734 5715
5715 5734 5735 5716
5716 5735 5736 5717
5717 5736 5737 5718
5718 5737 5738 5719
5719 5738 5739 5720
5720 5739 5740 5721
5721 5740 5741 5722
5722 5741 5742 5723
5723 5742 5743 5724
5724 5743 5744 5725
5725 5744 220 219
358 359 5745 5726
5726 5745 5746 5727
5727 5746 5747 5728
5728 5747 5748 5729
5729 5748 5749 5730
5730 5749 5750 5731
5731 5750 5751 5732
5732 5751 5752 5733
5733 5752 5753 5734
5734 5753 5754 5735
5735 5754 5755 5736
5736 5755 5756 5737
5737 5756 5757 5738
5738 5757 5758 5739
5739 5758 5759 5740
5740 5759 5760 5741
5741 5760 5761 5742
5742 5761 5762 5743
5743 5762 5763 5744
5744 5763 221 220
359 360 5764 5745
5745 5764 5765 5746
5746 5765 5766 5747
5747 5766 5767 5748
5748 5767 5768 5749
5749 5768 5769 5750
5750 5769 5770 5751
5751 5770 5771 5752
5752 5771 5772 5753
5753 5772 5773 5754
5754 5773 5774 5755
5755 5774 5775 5756
5756 5775 5776 5757
5757 5776 5777 5758
5758 5777 5778 5759
5759 5778 5779 5760
5760 5779 5780 5761
5761 5780 5781 5762
5762 5781 5782 5763
5763 5782 222 221
360 361 5783 5764
5764 5783 5784 5765
5765 5784 5785 5766
5766 5785 5786 5767
5767 5786 5787 5768
5768 5787 5788 5769
5769 5788 5789 5770
5770 5789 5790 5771
5771 5790 5791 5772
5772 5791 5792 5773
5773 5792 5793 5774
5774 5793 5794 5775
5775 5794 5795 5776
5776 5795 5796 5777
5777 5796 5797 5778
5778 5797 5798 5779
5779 5798 5799 5780
5780 5799 5800 5781
5781 5800 5801 5782
5782 5801 223 222
361 10 419 5783
5783 419 420 5784
5784 420 421 5785
5785 421 422 5786
5786 422 423 5787
5787 423 424 5788
5788 424 425 5789
5789 425 426 5790
5790 426 427 5791
5791 427 428 5792
5792 428 429 5793
5793 429 430 5794
5794 430 431 5795
5795 431 432 5796
5796 432 433 5797
5797 433 434 5798
5798 434 435 5799
5799 435 436 5800
5800 436 437 5801
5801 437 8 223
</DataArray>
<DataArray type="Int64" Name="offsets" format="ascii">
4
8
12
16
20
24
28
32
36
40
44
48
52
56
60
64
68
72
76
80
84
88
92
96
100
104
108
112
116
120
124
128
132
136
140
144
148
152
156
160
164
168
172
176
180
184
188
192
196
200
204
208
212
216
220
224
228
232
236
240
244
248
252
256
260
264
268
272
276
280
284
288
292
296
300
304
308
312
316
320
324
328
332
336
340
344
348
352
356
360
364
368
372
376
380
384
388
392
396
400
404
408
412
416
420
424
428
432
436
440
444
448
452
456
460
464
468
472
476
480
484
488
492
496
500
504
508
512
516
520
524
528
532
536
540
544
548
552
556
560
564
568
572
576
580
584
588
592
596
600
604
608
612
616
620
624
628
632
636
640
644
648
652
656
660
664
668
672
676
680
684
688
692
696
700
704
708
712
716
720
724
728
732
736
740
744
748
752
756
760
764
768
772
776
780
784
788
792
796
800
804
808
812
816
820
824
828
832
836
840
844
848
852
856
860
864
868
872
876
880
884
888
892
896
900
904
908
912
916
920
924
928
932
936
940
944
948
952
956
960
964
968
972
976
980
984
988
992
996
1000
1004
1008
1012
1016
1020
1024
1028
1032
1036
1040
1044
1048
1052
1056
1060
1064
1068
1072
1076
1080
1084
1088
1092
1096
1100
1104
1108
1112
1116
1120
1124
1128
1132
1136
1140
1144
1148
1152
1156
1160
1164
1168
1172
1176
1180
1184
1188
1192
1196
1200
1204
1208
1212
1216
1220
1224
1228
1232
1236
1240
1244
1248
1252
1256
1260
1264
1268
1272
1276
1280
1284
1288
1292
1296
1300
1304
1308
1312
1316
1320
1324
1328
1332
1336
1340
1344
1348
1352
1356
1360
1364
1368
1372
1376
1380
1384
1388
1392
1396
1400
1404
1408
1412
1416
1420
1424
1428
1432
1436
1440
1444
1448
1452
1456
1460
1464
1468
1472
1476
1480
1484
1488
1492
1496
1500
1504
1508
1512
1516
1520
1524
1528
1532
1536
1540
1544
1548
1552
1556
1560
1564
1568
1572
1576
1580
1584
1588
1592
1596
1600
1604
1608
1612
1616
1620
1624
1628
1632
1636
1640
1644
1648
1652
1656
1660
1664
1668
1672
1676
1680
1684
1688
1692
1696
1700
1704
1708
1712
1716
1720
1724
1728
1732
1736
1740
1744
1748
1752
1756
1760
1764
1768
1772
1776
1780
1784
1788
1792
1796
1800
1804
1808
1812
1816
1820
1824
1828
1832
1836
1840
1844
1848
1852
1856
1860
1864
1868
1872
1876
1880
1884
1888
1892
1896
1900
1904
1908
1912
1916
1920
1924
1928
1932
1936
1940
1944
1948
1952
1956
1960
1964
1968
1972
1976
1980
1984
1988
1992
1996
2000
2004
2008
2012
2016
2020
2024
2028
2032
2036
2040
2044
2048
2052
2056
2060
2064
2068
2072
2076
2080
2084
2088
2092
2096
2100
2104
2108
2112
2116
2120
2124
2128
2132
2136
2140
2144
2148
2152
2156
2160
2164
2168
2172
2176
2180
2184
2188
2192
2196
2200
2204
2208
2212
2216
2220
2224
2228
2232
2236
2240
2244
2248
2252
2256
2260
2264
2268
2272
2276
2280
2284
2288
2292
2296
2300
2304
2308
2312
2316
2320
2324
2328
2332
2336
2340
2344
2348
2352
2356
2360
2364
2368
2372
2376
2380
2384
2388
2392
2396
2400
2404
2408
2412
2416
2420
2424
2428
2432
2436
2440
2444
2448
2452
2456
2460
2464
2468
2472
2476
2480
2484
2488
2492
2496
2500
2504
2508
2512
2516
2520
2524
2528
2532
2536
2540
2544
2548
2552
2556
2560
2564
2568
2572
2576
2580
2584
2588
2592
2596
2600
2604
2608
2612
2616
2620
2624
2628
2632
2636
2640
2644
2648
2652
2656
2660
2664
2668
2672
2676
2680
2684
2688
2692
2696
2700
2704
2708
2712
2716
2720
2724
2728
2732
2736
2740
2744
2748
2752
2756
2760
2764
2768
2772
2776
2780
2784
2788
2792
2796
2800
2804
2808
2812
2816
2820
2824
2828
2832
2836
2840
2844
2848
2852
2856
2860
2864
2868
2872
2876
2880
2884
2888
2892
2896
2900
2904
2908
2912
2916
2920
2924
2928
2932
2936
2940
2944
2948
2952
2956
2960
2964
2968
2972
2976
2980
2984
2988
2992
2996
3000
3004
3008
3012
3016
3020
3024
3028
3032
3036
3040
3044
3048
3052
3056
3060
3064
3068
3072
3076
3080
3084
3088
3092
3096
3100
3104
3108
3112
3116
3120
3124
3128
3132
3136
3140
3144
3148
3152
3156
3160
3164
3168
3172
3176
3180
3184
3188
3192
3196
3200
3204
3208
3212
3216
3220
3224
3228
3232
3236
3240
3244
3248
3252
3256
3260
3264
3268
3272
3276
3280
3284
3288
3292
3296
3300
3304
3308
3312
3316
3320
3324
3328
3332
3336
3340
3344
3348
3352
3356
3360
3364
3368
3372
3376
3380
3384
3388
3392
3396
3400
3404
3408
3412
3416
3420
3424
3428
3432
3436
3440
3444
3448
3452
3456
3460
3464
3468
3472
3476
3480
3484
3488
3492
3496
3500
3504
3508
3512
3516
3520
3524
3528
3532
3536
3540
3544
3548
3552
3556
3560
3564
3568
3572
3576
3580
3584
3588
3592
3596
3600
3604
3608
3612
3616
3620
3624
3628
3632
3636
3640
3644
3648
3652
3656
3660
3664
3668
3672
3676
3680
3684
3688
3692
3696
3700
3704
3708
3712
3716
3720
3724
3728
3732
3736
3740
3744
3748
3752
3756
3760
3764
3768
3772
3776
3780
3784
3788
3792
3796
3800
3804
3808
3812
3816
3820
3824
3828
3832
3836
3840
3844
3848
3852
3856
3860
3864
3868
3872
3876
3880
3884
3888
3892
3896
3900
3904
3908
3912
3916
3920
3924
3928
3932
3936
3940
3944
3948
3952
3956
3960
3964
3968
3972
3976
3980
3984
3988
3992
3996
4000
4004
4008
4012
4016
4020
4024
4028
4032
4036
4040
4044
4048
4052
4056
4060
4064
4068
4072
4076
4080
4084
4088
4092
4096
4100
4104
4108
4112
4116
4120
4124
4128
4132
4136
4140
4144
4148
4152
4156
4160
4164
4168
4172
4176
4180
4184
4188
4192
4196
4200
4204
4208
4212
4216
4220
4224
4228
4232
4236
4240
4244
4248
4252
4256
4260
4264
4268
4272
4276
4280
4284
4288
4292
4296
4300
4304
4308
4312
4316
4320
4324
4328
4332
4336
4340
4344
4348
4352
4356
4360
4364
4368
4372
4376
4380
4384
4388
4392
4396
4400
4404
4408
4412
4416
4420
4424
4428
4432
4436
4440
4444
4448
4452
4456
4460
4464
4468
4472
4476
4480
4484
4488
4492
4496
4500
4504
4508
4512
4516
4520
4524
4528
4532
4536
4540
4544
4548
4552
4556
4560
4564
4568
4572
4576
4580
4584
4588
4592
4596
4600
4604
4608
4612
4616
4620
4624
4628
4632
4636
4640
4644
4648
4652
4656
4660
4664
4668
4672
4676
4680
4684
4688
4692
4696
4700
4704
4708
4712
4716
4720
4724
4728
4732
4736
4740
4744
4748
4752
4756
4760
4764
4768
4772
4776
4780
4784
4788
4792
4796
4800
4804
4808
4812
4816
4820
4824
4828
4832
4836
4840
4844
4848
4852
4856
4860
4864
4868
4872
4876
4880
4884
4888
4892
4896
4900
4904
4908
4912
4916
4920
4924
4928
4932
4936
4940
4944
4948
4952
4956
4960
4964
4968
4972
4976
4980
4984
4988
4992
4996
5000
5004
5008
5012
5016
5020
5024
5028
5032
5036
5040
5044
5048
5052
5056
5060
5064
5068
5072
5076
5080
5084
5088
5092
5096
5100
5104
5108
5112
5116
5120
5124
5128
5132
5136
5140
5144
5148
5152
5156
5160
5164
5168
5172
5176
5180
5184
5188
5192
5196
5200
5204
5208
5212
5216
5220
5224
5228
5232
5236
5240
5244
5248
5252
5256
5260
5264
5268
5272
5276
5280
5284
5288
5292
5296
5300
5304
5308
5312
5316
5320
5324
5328
5332
5336
5340
5344
5348
5352
5356
5360
5364
5368
5372
5376
5380
5384
5388
5392
5396
5400
5404
5408
5412
5416
5420
5424
5428
5432
5436
5440
5444
5448
5452
5456
5460
5464
5468
5472
5476
5480
5484
5488
5492
5496
5500
5504
5508
5512
5516
5520
5524
5528
5532
5536
5540
5544
5548
5552
5556
5560
5564
5568
5572
5576
5580
5584
5588
5592
5596
5600
5604
5608
5612
5616
5620
5624
5628
5632
5636
5640
5644
5648
5652
5656
5660
5664
5668
5672
5676
5680
5684
5688
5692
5696
5700
5704
5708
5712
5716
5720
5724
5728
5732
5736
5740
5744
5748
5752
5756
5760
5764
5768
5772
5776
5780
5784
5788
5792
5796
5800
5804
5808
5812
5816
5820
5824
5828
5832
5836
5840
5844
5848
5852
5856
5860
5864
5868
5872
5876
5880
5884
5888
5892
5896
5900
5904
5908
5912
5916
5920
5924
5928
5932
5936
5940
5944
5948
5952
5956
5960
5964
5968
5972
5976
5980
5984
5988
5992
5996
6000
6004
6008
6012
6016
6020
6024
6028
6032
6036
6040
6044
6048
6052
6056
6060
6064
6068
6072
6076
6080
6084
6088
6092
6096
6100
6104
6108
6112
6116
6120
6124
6128
6132
6136
6140
6144
6148
6152
6156
6160
6164
6168
6172
6176
6180
6184
6188
6192
6196
6200
6204
6208
6212
6216
6220
6224
6228
6232
6236
6240
6244
6248
6252
6256
6260
6264
6268
6272
6276
6280
6284
6288
6292
6296
6300
6304
6308
6312
6316
6320
6324
6328
6332
6336
6340
6344
6348
6352
6356
6360
6364
6368
6372
6376
6380
6384
6388
6392
6396
6400
6404
6408
6412
6416
6420
6424
6428
6432
6436
6440
6444
6448
6452
6456
6460
6464
6468
6472
6476
6480
6484
6488
6492
6496
6500
6504
6508
6512
6516
6520
6524
6528
6532
6536
6540
6544
6548
6552
6556
6560
6564
6568
6572
6576
6580
6584
6588
6592
6596
6600
6604
6608
6612
6616
6620
6624
6628
6632
6636
6640
6644
6648
6652
6656
6660
6664
6668
6672
6676
6680
6684
6688
6692
6696
6700
6704
6708
6712
6716
6720
6724
6728
6732
6736
6740
6744
6748
6752
6756
6760
6764
6768
6772
6776
6780
6784
6788
6792
6796
6800
6804
6808
6812
6816
6820
6824
6828
6832
6836
6840
6844
6848
6852
6856
6860
6864
6868
6872
6876
6880
6884
6888
6892
6896
6900
6904
6908
6912
6916
6920
6924
6928
6932
6936
6940
6944
6948
6952
6956
6960
6964
6968
6972
6976
6980
6984
6988
6992
6996
7000
7004
7008
7012
7016
7020
7024
7028
7032
7036
7040
7044
7048
7052
7056
7060
7064
7068
7072
7076
7080
7084
7088
7092
7096
7100
7104
7108
7112
7116
7120
7124
7128
7132
7136
7140
7144
7148
7152
7156
7160
7164
7168
7172
7176
7180
7184
7188
7192
7196
7200
7204
7208
7212
7216
7220
7224
7228
7232
7236
7240
7244
7248
7252
7256
7260
7264
7268
7272
7276
7280
7284
7288
7292
7296
7300
7304
7308
7312
7316
7320
7324
7328
7332
7336
7340
7344
7348
7352
7356
7360
7364
7368
7372
7376
7380
7384
7388
7392
7396
7400
7404
7408
7412
7416
7420
7424
7428
7432
7436
7440
7444
7448
7452
7456
7460
7464
7468
7472
7476
7480
7484
7488
7492
7496
7500
7504
7508
7512
7516
7520
7524
7528
7532
7536
7540
7544
7548
7552
7556
7560
7564
7568
7572
7576
7580
7584
7588
7592
7596
7600
7604
7608
7612
7616
7620
7624
7628
7632
7636
7640
7644
7648
7652
7656
7660
7664
7668
7672
7676
7680
7684
7688
7692
7696
7700
7704
7708
7712
7716
7720
7724
7728
7732
7736
7740
7744
7748
7752
7756
7760
7764
7768
7772
7776
7780
7784
7788
7792
7796
7800
7804
7808
7812
7816
7820
7824
7828
7832
7836
7840
7844
7848
7852
7856
7860
7864
7868
7872
7876
7880
7884
7888
7892
7896
7900
7904
7908
7912
7916
7920
7924
7928
7932
7936
7940
7944
7948
7952
7956
7960
7964
7968
7972
7976
7980
7984
7988
7992
7996
8000
8004
8008
8012
8016
8020
8024
8028
8032
8036
8040
8044
8048
8052
8056
8060
8064
8068
8072
8076
8080
8084
8088
8092
8096
8100
8104
8108
8112
8116
8120
8124
8128
8132
8136
8140
8144
8148
8152
8156
8160
8164
8168
8172
8176
8180
8184
8188
8192
8196
8200
8204
8208
8212
8216
8220
8224
8228
8232
8236
8240
8244
8248
8252
8256
8260
8264
8268
8272
8276
8280
8284
8288
8292
8296
8300
8304
8308
8312
8316
8320
8324
8328
8332
8336
8340
8344
8348
8352
8356
8360
8364
8368
8372
8376
8380
8384
8388
8392
8396
8400
8404
8408
8412
8416
8420
8424
8428
8432
8436
8440
8444
8448
8452
8456
8460
8464
8468
8472
8476
8480
8484
8488
8492
8496
8500
8504
8508
8512
8516
8520
8524
8528
8532
8536
8540
8544
8548
8552
8556
8560
8564
8568
8572
8576
8580
8584
8588
8592
8596
8600
8604
8608
8612
8616
8620
8624
8628
8632
8636
8640
8644
8648
8652
8656
8660
8664
8668
8672
8676
8680
8684
8688
8692
8696
8700
8704
8708
8712
8716
8720
8724
8728
8732
8736
8740
8744
8748
8752
8756
8760
8764
8768
8772
8776
8780
8784
8788
8792
8796
8800
8804
8808
8812
8816
8820
8824
8828
8832
8836
8840
8844
8848
8852
8856
8860
8864
8868
8872
8876
8880
8884
8888
8892
8896
8900
8904
8908
8912
8916
8920
8924
8928
8932
8936
8940
8944
8948
8952
8956
8960
8964
8968
8972
8976
8980
8984
8988
8992
8996
9000
9004
9008
9012
9016
9020
9024
9028
9032
9036
9040
9044
9048
9052
9056
9060
9064
9068
9072
9076
9080
9084
9088
9092
9096
9100
9104
9108
9112
9116
9120
9124
9128
9132
9136
9140
9144
9148
9152
9156
9160
9164
9168
9172
9176
9180
9184
9188
9192
9196
9200
9204
9208
9212
9216
9220
9224
9228
9232
9236
9240
9244
9248
9252
9256
9260
9264
9268
9272
9276
9280
9284
9288
9292
9296
9300
9304
9308
9312
9316
9320
9324
9328
9332
9336
9340
9344
9348
9352
9356
9360
9364
9368
9372
9376
9380
9384
9388
9392
9396
9400
9404
9408
9412
9416
9420
9424
9428
9432
9436
9440
9444
9448
9452
9456
9460
9464
9468
9472
9476
9480
9484
9488
9492
9496
9500
9504
9508
9512
9516
9520
9524
9528
9532
9536
9540
9544
9548
9552
9556
9560
9564
9568
9572
9576
9580
9584
9588
9592
9596
9600
9604
9608
9612
9616
9620
9624
9628
9632
9636
9640
9644
9648
9652
9656
9660
9664
9668
9672
9676
9680
9684
9688
9692
9696
9700
9704
9708
9712
9716
9720
9724
9728
9732
9736
9740
9744
9748
9752
9756
9760
9764
9768
9772
9776
9780
9784
9788
9792
9796
9800
9804
9808
9812
9816
9820
9824
9828
9832
9836
9840
9844
9848
9852
9856
9860
9864
9868
9872
9876
9880
9884
9888
9892
9896
9900
9904
9908
9912
9916
9920
9924
9928
9932
9936
9940
9944
9948
9952
9956
9960
9964
9968
9972
9976
9980
9984
9988
9992
9996
10000
10004
10008
10012
10016
10020
10024
10028
10032
10036
10040
10044
10048
10052
10056
10060
10064
10068
10072
10076
10080
10084
10088
10092
10096
10100
10104
10108
10112
10116
10120
10124
10128
10132
10136
10140
10144
10148
10152
10156
10160
10164
10168
10172
10176
10180
10184
10188
10192
10196
10200
10204
10208
10212
10216
10220
10224
10228
10232
10236
10240
10244
10248
10252
10256
10260
10264
10268
10272
10276
10280
10284
10288
10292
10296
10300
10304
10308
10312
10316
10320
10324
10328
10332
10336
10340
10344
10348
10352
10356
10360
10364
10368
10372
10376
10380
10384
10388
10392
10396
10400
10404
10408
10412
10416
10420
10424
10428
10432
10436
10440
10444
10448
10452
10456
10460
10464
10468
10472
10476
10480
10484
10488
10492
10496
10500
10504
10508
10512
10516
10520
10524
10528
10532
10536
10540
10544
10548
10552
10556
10560
10564
10568
10572
10576
10580
10584
10588
10592
10596
10600
10604
10608
10612
10616
10620
10624
10628
10632
10636
10640
10644
10648
10652
10656
10660
10664
10668
10672
10676
10680
10684
10688
10692
10696
10700
10704
10708
10712
10716
10720
10724
10728
10732
10736
10740
10744
10748
10752
10756
10760
10764
10768
10772
10776
10780
10784
10788
10792
10796
10800
10804
10808
10812
10816
10820
10824
10828
10832
10836
10840
10844
10848
10852
10856
10860
10864
10868
10872
10876
10880
10884
10888
10892
10896
10900
10904
10908
10912
10916
10920
10924
10928
10932
10936
10940
10944
10948
10952
10956
10960
10964
10968
10972
10976
10980
10984
10988
10992
10996
11000
11004
11008
11012
11016
11020
11024
11028
11032
11036
11040
11044
11048
11052
11056
11060
11064
11068
11072
11076
11080
11084
11088
11092
11096
11100
11104
11108
11112
11116
11120
11124
11128
11132
11136
11140
11144
11148
11152
11156
11160
11164
11168
11172
11176
11180
11184
11188
11192
11196
11200
11204
11208
11212
11216
11220
11224
11228
11232
11236
11240
11244
11248
11252
11256
11260
11264
11268
11272
11276
11280
11284
11288
11292
11296
11300
11304
11308
11312
11316
11320
11324
11328
11332
11336
11340
11344
11348
11352
11356
11360
11364
11368
11372
11376
11380
11384
11388
11392
11396
11400
11404
11408
11412
11416
11420
11424
11428
11432
11436
11440
11444
11448
11452
11456
11460
11464
11468
11472
11476
11480
11484
11488
11492
11496
11500
11504
11508
11512
11516
11520
11524
11528
11532
11536
11540
11544
11548
11552
11556
11560
11564
11568
11572
11576
11580
11584
11588
11592
11596
11600
11604
11608
11612
11616
11620
11624
11628
11632
11636
11640
11644
11648
11652
11656
11660
11664
11668
11672
11676
11680
11684
11688
11692
11696
11700
11704
11708
11712
11716
11720
11724
11728
11732
11736
11740
11744
11748
11752
11756
11760
11764
11768
11772
11776
11780
11784
11788
11792
11796
11800
11804
11808
11812
11816
11820
11824
11828
11832
11836
11840
11844
11848
11852
11856
11860
11864
11868
11872
11876
11880
11884
11888
11892
11896
11900
11904
11908
11912
11916
11920
11924
11928
11932
11936
11940
11944
11948
11952
11956
11960
11964
11968
11972
11976
11980
11984
11988
11992
11996
12000
12004
12008
12012
12016
12020
12024
12028
12032
12036
12040
12044
12048
12052
12056
12060
12064
12068
12072
12076
12080
12084
12088
12092
12096
12100
12104
12108
12112
12116
12120
12124
12128
12132
12136
12140
12144
12148
12152
12156
12160
12164
12168
12172
12176
12180
12184
12188
12192
12196
12200
12204
12208
12212
12216
12220
12224
12228
12232
12236
12240
12244
12248
12252
12256
12260
12264
12268
12272
12276
12280
12284
12288
12292
12296
12300
12304
12308
12312
12316
12320
12324
12328
12332
12336
12340
12344
12348
12352
12356
12360
12364
12368
12372
12376
12380
12384
12388
12392
12396
12400
12404
12408
12412
12416
12420
12424
12428
12432
12436
12440
12444
12448
12452
12456
12460
12464
12468
12472
12476
12480
12484
12488
12492
12496
12500
12504
12508
12512
12516
12520
12524
12528
12532
12536
12540
12544
12548
12552
12556
12560
12564
12568
12572
12576
12580
12584
12588
12592
12596
12600
12604
12608
12612
12616
12620
12624
12628
12632
12636
12640
12644
12648
12652
12656
12660
12664
12668
12672
12676
12680
12684
12688
12692
12696
12700
12704
12708
12712
12716
12720
12724
12728
12732
12736
12740
12744
12748
12752
12756
12760
12764
12768
12772
12776
12780
12784
12788
12792
12796
12800
12804
12808
12812
12816
12820
12824
12828
12832
12836
12840
12844
12848
12852
12856
12860
12864
12868
12872
12876
12880
12884
12888
12892
12896
12900
12904
12908
12912
12916
12920
12924
12928
12932
12936
12940
12944
12948
12952
12956
12960
12964
12968
12972
12976
12980
12984
12988
12992
12996
13000
13004
13008
13012
13016
13020
13024
13028
13032
13036
13040
13044
13048
13052
13056
13060
13064
13068
13072
13076
13080
13084
13088
13092
13096
13100
13104
13108
13112
13116
13120
13124
13128
13132
13136
13140
13144
13148
13152
13156
13160
13164
13168
13172
13176
13180
13184
13188
13192
13196
13200
13204
13208
13212
13216
13220
13224
13228
13232
13236
13240
13244
13248
13252
13256
13260
13264
13268
13272
13276
13280
13284
13288
13292
13296
13300
13304
13308
13312
13316
13320
13324
13328
13332
13336
13340
13344
13348
13352
13356
13360
13364
13368
13372
13376
13380
13384
13388
13392
13396
13400
13404
13408
13412
13416
13420
13424
13428
13432
13436
13440
13444
13448
13452
13456
13460
13464
13468
13472
13476
13480
13484
13488
13492
13496
13500
13504
13508
13512
13516
13520
13524
13528
13532
13536
13540
13544
13548
13552
13556
13560
13564
13568
13572
13576
13580
13584
13588
13592
13596
13600
13604
13608
13612
13616
13620
13624
13628
13632
13636
13640
13644
13648
13652
13656
13660
13664
13668
13672
13676
13680
13684
13688
13692
13696
13700
13704
13708
13712
13716
13720
13724
13728
13732
13736
13740
13744
13748
13752
13756
13760
13764
13768
13772
13776
13780
13784
13788
13792
13796
13800
13804
13808
13812
13816
13820
13824
13828
13832
13836
13840
13844
13848
13852
13856
13860
13864
13868
13872
13876
13880
13884
13888
13892
13896
13900
13904
13908
13912
13916
13920
13924
13928
13932
13936
13940
13944
13948
13952
13956
13960
13964
13968
13972
13976
13980
13984
13988
13992
13996
14000
14004
14008
14012
14016
14020
14024
14028
14032
14036
14040
14044
14048
14052
14056
14060
14064
14068
14072
14076
14080
14084
14088
14092
14096
14100
14104
14108
14112
14116
14120
14124
14128
14132
14136
14140
14144
14148
14152
14156
14160
14164
14168
14172
14176
14180
14184
14188
14192
14196
14200
14204
14208
14212
14216
14220
14224
14228
14232
14236
14240
14244
14248
14252
14256
14260
14264
14268
14272
14276
14280
14284
14288
14292
14296
14300
14304
14308
14312
14316
14320
14324
14328
14332
14336
14340
14344
14348
14352
14356
14360
14364
14368
14372
14376
14380
14384
14388
14392
14396
14400
14404
14408
14412
14416
14420
14424
14428
14432
14436
14440
14444
14448
14452
14456
14460
14464
14468
14472
14476
14480
14484
14488
14492
14496
14500
14504
14508
14512
14516
14520
14524
14528
14532
14536
14540
14544
14548
14552
14556
14560
14564
14568
14572
14576
14580
14584
14588
14592
14596
14600
14604
14608
14612
14616
14620
14624
14628
14632
14636
14640
14644
14648
14652
14656
14660
14664
14668
14672
14676
14680
14684
14688
14692
14696
14700
14704
14708
14712
14716
14720
14724
14728
14732
14736
14740
14744
14748
14752
14756
14760
14764
14768
14772
14776
14780
14784
14788
14792
14796
14800
14804
14808
14812
14816
14820
14824
14828
14832
14836
14840
14844
14848
14852
14856
14860
14864
14868
14872
14876
14880
14884
14888
14892
14896
14900
14904
14908
14912
14916
14920
14924
14928
14932
14936
14940
14944
14948
14952
14956
14960
14964
14968
14972
14976
14980
14984
14988
14992
14996
15000
15004
15008
15012
15016
15020
15024
15028
15032
15036
15040
15044
15048
15052
15056
15060
15064
15068
15072
15076
15080
15084
15088
15092
15096
15100
15104
15108
15112
15116
15120
15124
15128
15132
15136
15140
15144
15148
15152
15156
15160
15164
15168
15172
15176
15180
15184
15188
15192
15196
15200
15204
15208
15212
15216
15220
15224
15228
15232
15236
15240
15244
15248
15252
15256
15260
15264
15268
15272
15276
15280
15284
15288
15292
15296
15300
15304
15308
15312
15316
15320
15324
15328
15332
15336
15340
15344
15348
15352
15356
15360
15364
15368
15372
15376
15380
15384
15388
15392
15396
15400
15404
15408
15412
15416
15420
15424
15428
15432
15436
15440
15444
15448
15452
15456
15460
15464
15468
15472
15476
15480
15484
15488
15492
15496
15500
15504
15508
15512
15516
15520
15524
15528
15532
15536
15540
15544
15548
15552
15556
15560
15564
15568
15572
15576
15580
15584
15588
15592
15596
15600
15604
15608
15612
15616
15620
15624
15628
15632
15636
15640
15644
15648
15652
15656
15660
15664
15668
15672
15676
15680
15684
15688
15692
15696
15700
15704
15708
15712
15716
15720
15724
15728
15732
15736
15740
15744
15748
15752
15756
15760
15764
15768
15772
15776
15780
15784
15788
15792
15796
15800
15804
15808
15812
15816
15820
15824
15828
15832
15836
15840
15844
15848
15852
15856
15860
15864
15868
15872
15876
15880
15884
15888
15892
15896
15900
15904
15908
15912
15916
15920
15924
15928
15932
15936
15940
15944
15948
15952
15956
15960
15964
15968
15972
15976
15980
15984
15988
15992
15996
16000
16004
16008
16012
16016
16020
16024
16028
16032
16036
16040
16044
16048
16052
16056
16060
16064
16068
16072
16076
16080
16084
16088
16092
16096
16100
16104
16108
16112
16116
16120
16124
16128
16132
16136
16140
16144
16148
16152
16156
16160
16164
16168
16172
16176
16180
16184
16188
16192
16196
16200
16204
16208
16212
16216
16220
16224
16228
16232
16236
16240
16244
16248
16252
16256
16260
16264
16268
16272
16276
16280
16284
16288
16292
16296
16300
16304
16308
16312
16316
16320
16324
16328
16332
16336
16340
16344
16348
16352
16356
16360
16364
16368
16372
16376
16380
16384
16388
16392
16396
16400
16404
16408
16412
16416
16420
16424
16428
16432
16436
16440
16444
16448
16452
16456
16460
16464
16468
16472
16476
16480
16484
16488
16492
16496
16500
16504
16508
16512
16516
16520
16524
16528
16532
16536
16540
16544
16548
16552
16556
16560
16564
16568
16572
16576
16580
16584
16588
16592
16596
16600
16604
16608
16612
16616
16620
16624
16628
16632
16636
16640
16644
16648
16652
16656
16660
16664
16668
16672
16676
16680
16684
16688
16692
16696
16700
16704
16708
16712
16716
16720
16724
16728
16732
16736
16740
16744
16748
16752
16756
16760
16764
16768
16772
16776
16780
16784
16788
16792
16796
16800
16804
16808
16812
16816
16820
16824
16828
16832
16836
16840
16844
16848
16852
16856
16860
16864
16868
16872
16876
16880
16884
16888
16892
16896
16900
16904
16908
16912
16916
16920
16924
16928
16932
16936
16940
16944
16948
16952
16956
16960
16964
16968
16972
16976
16980
16984
16988
16992
16996
17000
17004
17008
17012
17016
17020
17024
17028
17032
17036
17040
17044
17048
17052
17056
17060
17064
17068
17072
17076
17080
17084
17088
17092
17096
17100
17104
17108
17112
17116
17120
17124
17128
17132
17136
17140
17144
17148
17152
17156
17160
17164
17168
17172
17176
17180
17184
17188
17192
17196
17200
17204
17208
17212
17216
17220
17224
17228
17232
17236
17240
17244
17248
17252
17256
17260
17264
17268
17272
17276
17280
17284
17288
17292
17296
17300
17304
17308
17312
17316
17320
17324
17328
17332
17336
17340
17344
17348
17352
17356
17360
17364
17368
17372
17376
17380
17384
17388
17392
17396
17400
17404
17408
17412
17416
17420
17424
17428
17432
17436
17440
17444
17448
17452
17456
17460
17464
17468
17472
17476
17480
17484
17488
17492
17496
17500
17504
17508
17512
17516
17520
17524
17528
17532
17536
17540
17544
17548
17552
17556
17560
17564
17568
17572
17576
17580
17584
17588
17592
17596
17600
17604
17608
17612
17616
17620
17624
17628
17632
17636
17640
17644
17648
17652
17656
17660
17664
17668
17672
17676
17680
17684
17688
17692
17696
17700
17704
17708
17712
17716
17720
17724
17728
17732
17736
17740
17744
17748
17752
17756
17760
17764
17768
17772
17776
17780
17784
17788
17792
17796
17800
17804
17808
17812
17816
17820
17824
17828
17832
17836
17840
17844
17848
17852
17856
17860
17864
17868
17872
17876
17880
17884
17888
17892
17896
17900
17904
17908
17912
17916
17920
17924
17928
17932
17936
17940
17944
17948
17952
17956
17960
17964
17968
17972
17976
17980
17984
17988
17992
17996
18000
18004
18008
18012
18016
18020
18024
18028
18032
18036
18040
18044
18048
18052
18056
18060
18064
18068
18072
18076
18080
18084
18088
18092
18096
18100
18104
18108
18112
18116
18120
18124
18128
18132
18136
18140
18144
18148
18152
18156
18160
18164
18168
18172
18176
18180
18184
18188
18192
18196
18200
18204
18208
18212
18216
18220
18224
18228
18232
18236
18240
18244
18248
18252
18256
18260
18264
18268
18272
18276
18280
18284
18288
18292
18296
18300
18304
18308
18312
18316
18320
18324
18328
18332
18336
18340
18344
18348
18352
18356
18360
18364
18368
18372
18376
18380
18384
18388
18392
18396
18400
18404
18408
18412
18416
18420
18424
18428
18432
18436
18440
18444
18448
18452
18456
18460
18464
18468
18472
18476
18480
18484
18488
18492
18496
18500
18504
18508
18512
18516
18520
18524
18528
18532
18536
18540
18544
18548
18552
18556
18560
18564
18568
18572
18576
18580
18584
18588
18592
18596
18600
18604
18608
18612
18616
18620
18624
18628
18632
18636
18640
18644
18648
18652
18656
18660
18664
18668
18672
18676
18680
18684
18688
18692
18696
18700
18704
18708
18712
18716
18720
18724
18728
18732
18736
18740
18744
18748
18752
18756
18760
18764
18768
18772
18776
18780
18784
18788
18792
18796
18800
18804
18808
18812
18816
18820
18824
18828
18832
18836
18840
18844
18848
18852
18856
18860
18864
18868
18872
18876
18880
18884
18888
18892
18896
18900
18904
18908
18912
18916
18920
18924
18928
18932
18936
18940
18944
18948
18952
18956
18960
18964
18968
18972
18976
18980
18984
18988
18992
18996
19000
19004
19008
19012
19016
19020
19024
19028
19032
19036
19040
19044
19048
19052
19056
19060
19064
19068
19072
19076
19080
19084
19088
19092
19096
19100
19104
19108
19112
19116
19120
19124
19128
19132
19136
19140
19144
19148
19152
19156
19160
19164
19168
19172
19176
19180
19184
19188
19192
19196
19200
19204
19208
19212
19216
19220
19224
19228
19232
19236
19240
19244
19248
19252
19256
19260
19264
19268
19272
19276
19280
19284
19288
19292
19296
19300
19304
19308
19312
19316
19320
19324
19328
19332
19336
19340
19344
19348
19352
19356
19360
19364
19368
19372
19376
19380
19384
19388
19392
19396
19400
19404
19408
19412
19416
19420
19424
19428
19432
19436
19440
19444
19448
19452
19456
19460
19464
19468
19472
19476
19480
19484
19488
19492
19496
19500
19504
19508
19512
19516
19520
19524
19528
19532
19536
19540
19544
19548
19552
19556
19560
19564
19568
19572
19576
19580
19584
19588
19592
19596
19600
19604
19608
19612
19616
19620
19624
19628
19632
19636
19640
19644
19648
19652
19656
19660
19664
19668
19672
19676
19680
19684
19688
19692
19696
19700
19704
19708
19712
19716
19720
19724
19728
19732
19736
19740
19744
19748
19752
19756
19760
19764
19768
19772
19776
19780
19784
19788
19792
19796
19800
19804
19808
19812
19816
19820
19824
19828
19832
19836
19840
19844
19848
19852
19856
19860
19864
19868
19872
19876
19880
19884
19888
19892
19896
19900
19904
19908
19912
19916
19920
19924
19928
19932
19936
19940
19944
19948
19952
19956
19960
19964
19968
19972
19976
19980
19984
19988
19992
19996
20000
20004
20008
20012
20016
20020
20024
20028
20032
20036
20040
20044
20048
20052
20056
20060
20064
20068
20072
20076
20080
20084
20088
20092
20096
20100
20104
20108
20112
20116
20120
20124
20128
20132
20136
20140
20144
20148
20152
20156
20160
20164
20168
20172
20176
20180
20184
20188
20192
20196
20200
20204
20208
20212
20216
20220
20224
20228
20232
20236
20240
20244
20248
20252
20256
20260
20264
20268
20272
20276
20280
20284
20288
20292
20296
20300
20304
20308
20312
20316
20320
20324
20328
20332
20336
20340
20344
20348
20352
20356
20360
20364
20368
20372
20376
20380
20384
20388
20392
20396
20400
20404
20408
20412
20416
20420
20424
20428
20432
20436
20440
20444
20448
20452
20456
20460
20464
20468
20472
20476
20480
20484
20488
20492
20496
20500
20504
20508
20512
20516
20520
20524
20528
20532
20536
20540
20544
20548
20552
20556
20560
20564
20568
20572
20576
20580
20584
20588
20592
20596
20600
20604
20608
20612
20616
20620
20624
20628
20632
20636
20640
20644
20648
20652
20656
20660
20664
20668
20672
20676
20680
20684
20688
20692
20696
20700
20704
20708
20712
20716
20720
20724
20728
20732
20736
20740
20744
20748
20752
20756
20760
20764
20768
20772
20776
20780
20784
20788
20792
20796
20800
20804
20808
20812
20816
20820
20824
20828
20832
20836
20840
20844
20848
20852
20856
20860
20864
20868
20872
20876
20880
20884
20888
20892
20896
20900
20904
20908
20912
20916
20920
20924
20928
20932
20936
20940
20944
20948
20952
20956
20960
20964
20968
20972
20976
20980
20984
20988
20992
20996
21000
21004
21008
21012
21016
21020
21024
21028
21032
21036
21040
21044
21048
21052
21056
21060
21064
21068
21072
21076
21080
21084
21088
21092
21096
21100
21104
21108
21112
21116
21120
21124
21128
21132
21136
21140
21144
21148
21152
21156
21160
21164
21168
21172
21176
21180
21184
21188
21192
21196
21200
21204
21208
21212
21216
21220
21224
21228
21232
21236
21240
21244
21248
21252
21256
21260
21264
21268
21272
21276
21280
21284
21288
21292
21296
21300
21304
21308
21312
21316
21320
21324
21328
21332
21336
21340
21344
21348
21352
21356
21360
21364
21368
21372
21376
21380
21384
21388
21392
21396
21400
21404
21408
21412
21416
21420
21424
21428
21432
21436
21440
21444
21448
21452
21456
21460
21464
21468
21472
21476
21480
21484
21488
21492
21496
21500
21504
21508
21512
21516
21520
21524
21528
21532
21536
21540
21544
21548
21552
21556
21560
21564
21568
21572
21576
21580
21584
21588
21592
21596
21600
21604
21608
21612
21616
21620
21624
21628
21632
21636
21640
21644
21648
21652
21656
21660
21664
21668
21672
21676
21680
21684
21688
21692
21696
21700
21704
21708
21712
21716
21720
21724
21728
21732
21736
21740
21744
21748
21752
21756
21760
21764
21768
21772
21776
21780
21784
21788
21792
21796
21800
21804
21808
21812
21816
21820
21824
21828
21832
21836
21840
21844
21848
21852
21856
21860
21864
21868
21872
21876
21880
21884
21888
21892
21896
21900
21904
21908
21912
21916
21920
21924
21928
21932
21936
21940
21944
21948
21952
21956
21960
21964
21968
21972
21976
21980
21984
21988
21992
21996
22000
22004
22008
22012
22016
22020
22024
22028
22032
22036
22040
22044
22048
22052
22056
22060
22064
22068
22072
22076
22080
22084
22088
22092
22096
22100
22104
22108
22112
22116
22120
22124
22128
22132
22136
22140
22144
22148
22152
22156
22160
22164
22168
22172
22176
22180
22184
22188
22192
22196
22200
22204
22208
22212
22216
22220
22224
22228
22232
22236
22240
22244
22248
22252
22256
22260
22264
22268
22272
22276
22280
22284
22288
22292
22296
22300
22304
22308
22312
22316
22320
22324
22328
22332
22336
22340
22344
22348
22352
22356
22360
22364
22368
22372
22376
22380
22384
22388
22392
22396
22400
22404
22408
22412
22416
22420
22424
22428
22432
22436
22440
22444
22448
22452
22456
22460
22464
22468
22472
22476
22480
22484
22488
22492
22496
22500
22504
22508
22512
22516
22520
22524
22528
22532
22536
22540
22544
22548
22552
22556
22560
22564
22568
22572
22576
22580
22584
22588
22592
22596
22600
22604
22608
22612
22616
22620
22624
22628
22632
22636
22640
22644
22648
22652
22656
22660
22664
22668
22672
22676
22680
22684
22688
22692
22696
22700
22704
22708
22712
22716
22720
</DataArray>
<DataArray type="Int64" Name="types" format="ascii">
9
9
9
9
9
9
9
9
9
9
9
9
9
9
9
9
9
9
9
9
9
9
9
9
9
9
9
9
9
9
9
9
9
9
9
9
9
9
9
9
9
9
9
9
9
9
9
9
9
9
9
9
9
9
9
9
9
9
9
9
9
9
9
9
9
9
9
9
9
9
9
9
9
9
9
9
9
9
9
9
9
9
9
9
9
9
9
9
9
9
9
9
9
9
9
9
9
9
9
9
9
9
9
9
9
9
9
9
9
9
9
9
9
9
9
9
9
9
9
9
9
9
9
9
9
9
9
9
9
9
9
9
9
9
9
9
9
9
9
9
9
9
9
9
9
9
9
9
9
9
9
9
9
9
9
9
9
9
9
9
9
9
9
9
9
9
9
9
9
9
9
9
9
9
9
9
9
9
9
9
9
9
9
9
9
9
9
9
9
9
9
9
9
9
9
9
9
9
9
9
9
9
9
9
9
9
9
9
9
9
9
9
9
9
9
9
9
9
9
9
9
9
9
9
9
9
9
9
9
9
9
9
9
9
9
9
9
9
9
9
9
9
9
9
9
9
9
9
9
9
9
9
9
9
9
9
9
9
9
9
9
9
9
9
9
9
9
9
9
9
9
9
9
9
9
9
9
9
9
9
9
9
9
9
9
9
9
9
9
9
9
9
9
9
9
9
9
9
9
9
9
9
9
9
9
9
9
9
9
9
9
9
9
9
9
9
9
9
9
9
9
9
9
9
9
9
9
9
9
9
9
9
9
9
9
9
9
9
9
9
9
9
9
9
9
9
9
9
9
9
9
9
9
9
9
9
9
9
9
9
9
9
9
9
9
9
9
9
9
9
9
9
9
9
9
9
9
9
9
9
9
9
9
9
9
9
9
9
9
9
9
9
9
9
9
9
9
9
9
9
9
9
9
9
9
9
9
9
9
9
9
9
9
9
9
9
9
9
9
9
9
9
9
9
9
9
9
9
9
9
9
9
9
9
9
9
9
9
9
9
9
9
9
9
9
9
9
9
9
9
9
9
9
9
9
9
9
9
9
9
9
9
9
9
9
9
9
9
9
9
9
9
9
9
9
9
9
9
9
9
9
9
9
9
9
9
9
9
9
9
9
9
9
9
9
9
9
9
9
9
9
9
9
9
9
9
9
9
9
9
9
9
9
9
9
9
9
9
9
9
9
9
9
9
9
9
9
9
9
9
9
9
9
9
9
9
9
9
9
9
9
9
9
9
9
9
9
9
9
9
9
9
9
9
9
9
9
9
9
9
9
9
9
9
9
9
9
9
9
9
9
9
9
9
9
9
9
9
9
9
9
9
9
9
9
9
9
9
9
9
9
9
9
9
9
9
9
9
9
9
9
9
9
9
9
9
9
9
9
9
9
9
9
9
9
9
9
9
9
9
9
9
9
9
9
9
9
9
9
9
9
9
9
9
9
9
9
9
9
9
9
9
9
9
9
9
9
9
9
9
9
9
9
9
9
9
9
9
9
9
9
9
9
9
9
9
9
9
9
9
9
9
9
9
9
9
9
9
9
9
9
9
9
9
9
9
9
9
9
9
9
9
9
9
9
9
9
9
9
9
9
9
9
9
9
9
9
9
9
9
9
9
9
9
9
9
9
9
9
9
9
9
9
9
9
9
9
9
9
9
9
9
9
9
9
9
9
9
9
9
9
9
9
9
9
9
9
9
9
9
9
9
9
9
9
9
9
9
9
9
9
9
9
9
9
9
9
9
9
9
9
9
9
9
9
9
9
9
9
9
9
9
9
9
9
9
9
9
9
9
9
9
9
9
9
9
9
9
9
9
9
9
9
9
9
9
9
9
9
9
9
9
9
9
9
9
9
9
9
9
9
9
9
9
9
9
9
9
9
9
9
9
9
9
9
9
9
9
9
9
9
9
9
9
9
9
9
9
9
9
9
9
9
9
9
9
9
9
9
9
9
9
9
9
9
9
9
9
9
9
9
9
9
9
9
9
9
9
9
9
9
9
9
9
9
9
9
9
9
9
9
9
9
9
9
9
9
9
9
9
9
9
9
9
9
9
9
9
9
9
9
9
9
9
9
9
9
9
9
9
9
9
9
9
9
9
9
9
9
9
9
9
9
9
9
9
9
9
9
9
9
9
9
9
9
9
9
9
9
9
9
9
9
9
9
9
9
9
9
9
9
9
9
9
9
9
9
9
9
9
9
9
9
9
9
9
9
9
9
9
9
9
9
9
9
9
9
9
9
9
9
9
9
9
9
9
9
9
9
9
9
9
9
9
9
9
9
9
9
9
9
9
9
9
9
9
9
9
9
9
9
9
9
9
9
9
9
9
9
9
9
9
9
9
9
9
9
9
9
9
9
9
9
9
9
9
9
9
9
9
9
9
9
9
9
9
9
9
9
9
9
9
9
9
9
9
9
9
9
9
9
9
9
9
9
9
9
9
9
9
9
9
9
9
9
9
9
9
9
9
9
9
9
9
9
9
9
9
9
9
9
9
9
9
9
9
9
9
9
9
9
9
9
9
9
9
9
9
9
9
9
9
9
9
9
9
9
9
9
9
9
9
9
9
9
9
9
9
9
9
9
9
9
9
9
9
9
9
9
9
9
9
9
9
9
9
9
9
9
9
9
9
9
9
9
9
9
9
9
9
9
9
9
9
9
9
9
9
9
9
9
9
9
9
9
9
9
9
9
9
9
9
9
9
9
9
9
9
9
9
9
9
9
9
9
9
9
9
9
9
9
9
9
9
9
9
9
9
9
9
9
9
9
9
9
9
9
9
9
9
9
9
9
9
9
9
9
9
9
9
9
9
9
9
9
9
9
9
9
9
9
9
9
9
9
9
9
9
9
9
9
9
9
9
9
9
9
9
9
9
9
9
9
9
9
9
9
9
9
9
9
9
9
9
9
9
9
9
9
9
9
9
9
9
9
9
9
9
9
9
9
9
9
9
9
9
9
9
9
9
9
9
9
9
9
9
9
9
9
9
9
9
9
9
9
9
9
9
9
9
9
9
9
9
9
9
9
9
9
9
9
9
9
9
9
9
9
9
9
9
9
9
9
9
9
9
9
9
9
9
9
9
9
9
9
9
9
9
9
9
9
9
9
9
9
9
9
9
9
9
9
9
9
9
9
9
9
9
9
9
9
9
9
9
9
9
9
9
9
9
9
9
9
9
9
9
9
9
9
9
9
9
9
9
9
9
9
9
9
9
9
9
9
9
9
9
9
9
9
9
9
9
9
9
9
9
9
9
9
9
9
9
9
9
9
9
9
9
9
9
9
9
9
9
9
9
9
9
9
9
9
9
9
9
9
9
9
9
9
9
9
9
9
9
9
9
9
9
9
9
9
9
9
9
9
9
9
9
9
9
9
9
9
9
9
9
9
9
9
9
9
9
9
9
9
9
9
9
9
9
9
9
9
9
9
9
9
9
9
9
9
9
9
9
9
9
9
9
9
9
9
9
9
9
9
9
9
9
9
9
9
9
9
9
9
9
9
9
9
9
9
9
9
9
9
9
9
9
9
9
9
9
9
9
9
9
9
9
9
9
9
9
9
9
9
9
9
9
9
9
9
9
9
9
9
9
9
9
9
9
9
9
9
9
9
9
9
9
9
9
9
9
9
9
9
9
9
9
9
9
9
9
9
9
9
9
9
9
9
9
9
9
9
9
9
9
9
9
9
9
9
9
9
9
9
9
9
9
9
9
9
9
9
9
9
9
9
9
9
9
9
9
9
9
9
9
9
9
9
9
9
9
9
9
9
9
9
9
9
9
9
9
9
9
9
9
9
9
9
9
9
9
9
9
9
9
9
9
9
9
9
9
9
9
9
9
9
9
9
9
9
9
9
9
9
9
9
9
9
9
9
9
9
9
9
9
9
9
9
9
9
9
9
9
9
9
9
9
9
9
9
9
9
9
9
9
9
9
9
9
9
9
9
9
9
9
9
9
9
9
9
9
9
9
9
9
9
9
9
9
9
9
9
9
9
9
9
9
9
9
9
9
9
9
9
9
9
9
9
9
9
9
9
9
9
9
9
9
9
9
9
9
9
9
9
9
9
9
9
9
9
9
9
9
9
9
9
9
9
9
9
9
9
9
9
9
9
9
9
9
9
9
9
9
9
9
9
9
9
9
9
9
9
9
9
9
9
9
9
9
9
9
9
9
9
9
9
9
9
9
9
9
9
9
9
9
9
9
9
9
9
9
9
9
9
9
9
9
9
9
9
9
9
9
9
9
9
9
9
9
9
9
9
9
9
9
9
9
9
9
9
9
9
9
9
9
9
9
9
9
9
9
9
9
9
9
9
9
9
9
9
9
9
9
9
9
9
9
9
9
9
9
9
9
9
9
9
9
9
9
9
9
9
9
9
9
9
9
9
9
9
9
9
9
9
9
9
9
9
9
9
9
9
9
9
9
9
9
9
9
9
9
9
9
9
9
9
9
9
9
9
9
9
9
9
9
9
9
9
9
9
9
9
9
9
9
9
9
9
9
9
9
9
9
9
9
9
9
9
9
9
9
9
9
9
9
9
9
9
9
9
9
9
9
9
9
9
9
9
9
9
9
9
9
9
9
9
9
9
9
9
9
9
9
9
9
9
9
9
9
9
9
9
9
9
9
9
9
9
9
9
9
9
9
9
9
9
9
9
9
9
9
9
9
9
9
9
9
9
9
9
9
9
9
9
9
9
9
9
9
9
9
9
9
9
9
9
9
9
9
9
9
9
9
9
9
9
9
9
9
9
9
9
9
9
9
9
9
9
9
9
9
9
9
9
9
9
9
9
9
9
9
9
9
9
9
9
9
9
9
9
9
9
9
9
9
9
9
9
9
9
9
9
9
9
9
9
9
9
9
9
9
9
9
9
9
9
9
9
9
9
9
9
9
9
9
9
9
9
9
9
9
9
9
9
9
9
9
9
9
9
9
9
9
9
9
9
9
9
9
9
9
9
9
9
9
9
9
9
9
9
9
9
9
9
9
9
9
9
9
9
9
9
9
9
9
9
9
9
9
9
9
9
9
9
9
9
9
9
9
9
9
9
9
9
9
9
9
9
9
9
9
9
9
9
9
9
9
9
9
9
9
9
9
9
9
9
9
9
9
9
9
9
9
9
9
9
9
9
9
9
9
9
9
9
9
9
9
9
9
9
9
9
9
9
9
9
9
9
9
9
9
9
9
9
9
9
9
9
9
9
9
9
9
9
9
9
9
9
9
9
9
9
9
9
9
9
9
9
9
9
9
9
9
9
9
9
9
9
9
9
9
9
9
9
9
9
9
9
9
9
9
9
9
9
9
9
9
9
9
9
9
9
9
9
9
9
9
9
9
9
9
9
9
9
9
9
9
9
9
9
9
9
9
9
9
9
9
9
9
9
9
9
9
9
9
9
9
9
9
9
9
9
9
9
9
9
9
9
9
9
9
9
9
9
9
9
9
9
9
9
9
9
9
9
9
9
9
9
9
9
9
9
9
9
9
9
9
9
9
9
9
9
9
9
9
9
9
9
9
9
9
9
9
9
9
9
9
9
9
9
9
9
9
9
9
9
9
9
9
9
9
9
9
9
9
9
9
9
9
9
9
9
9
9
9
9
9
9
9
9
9
9
9
9
9
9
9
9
9
9
9
9
9
9
9
9
9
9
9
9
9
9
9
9
9
9
9
9
9
9
9
9
9
9
9
9
9
9
9
9
9
9
9
9
9
9
9
9
9
9
9
9
9
9
9
9
9
9
9
9
9
9
9
9
9
9
9
9
9
9
9
9
9
9
9
9
9
9
9
9
9
9
9
9
9
9
9
9
9
9
9
9
9
9
9
9
9
9
9
9
9
9
9
9
9
9
9
9
9
9
9
9
9
9
9
9
9
9
9
9
9
9
9
9
9
9
9
9
9
9
9
9
9
9
9
9
9
9
9
9
9
9
9
9
9
9
9
9
9
9
9
9
9
9
9
9
9
9
9
9
9
9
9
9
9
9
9
9
9
9
9
9
9
9
9
9
9
9
9
9
9
9
9
9
9
9
9
9
9
9
9
9
9
9
9
9
9
9
9
9
9
9
9
9
9
9
9
9
9
9
9
9
9
9
9
9
9
9
9
9
9
9
9
9
9
9
9
9
9
9
9
9
9
9
9
9
9
9
9
9
9
9
9
9
9
9
9
9
9
9
9
9
9
9
9
9
9
9
9
9
9
9
9
9
9
9
9
9
9
9
9
9
9
9
9
9
9
9
9
9
9
9
9
9
9
9
9
9
9
9
9
9
9
9
9
9
9
9
9
9
9
9
9
9
9
9
9
9
9
9
9
9
9
9
9
9
9
9
9
9
9
9
9
9
9
9
9
9
9
9
9
9
9
9
9
9
9
9
9
9
9
9
9
9
9
9
9
9
9
9
9
9
9
9
9
9
9
9
9
9
9
9
9
9
9
9
9
9
9
9
9
9
9
9
9
9
9
9
9
9
9
9
9
9
9
9
9
9
9
9
9
9
9
9
9
9
9
9
9
9
9
9
9
9
9
9
9
9
9
9
9
9
9
9
9
9
9
9
9
9
9
9
9
9
9
9
9
9
9
9
9
9
9
9
9
9
9
9
9
9
9
9
9
9
9
9
9
9
9
9
9
9
9
9
9
9
9
9
9
9
9
9
9
9
9
9
9
9
9
9
9
9
9
9
9
9
9
9
9
9
9
9
9
9
9
9
9
9
9
9
9
9
9
9
9
9
9
9
9
9
9
9
9
9
9
9
9
9
9
9
9
9
9
9
9
9
9
9
9
9
9
9
9
9
9
9
9
9
9
9
9
9
9
9
9
9
9
9
9
9
9
9
9
9
9
9
9
9
9
9
9
9
9
9
9
9
9
9
9
9
9
9
9
9
9
9
9
9
9
9
9
9
9
9
9
9
9
9
9
9
9
9
9
9
9
9
9
9
9
9
9
9
9
9
9
9
9
9
9
9
9
9
9
9
9
9
9
9
9
9
9
9
9
9
9
9
9
9
9
9
9
9
9
9
9
9
9
9
9
9
9
9
9
9
9
9
9
9
9
9
9
9
9
9
9
9
9
9
9
9
9
9
9
9
9
9
9
9
9
9
9
9
9
9
9
9
9
9
9
9
9
9
9
9
9
9
9
9
9
9
9
9
9
9
9
9
9
9
9
9
9
9
9
9
9
9
9
9
9
9
9
9
9
9
9
9
9
9
9
9
9
9
9
9
9
9
9
9
9
9
9
9
9
9
9
9
9
9
9
9
9
9
9
9
9
9
9
9
9
9
9
9
9
9
9
9
9
9
9
9
9
9
9
9
9
9
9
9
9
9
9
9
9
9
9
9
9
9
9
9
9
9
9
9
9
9
9
9
9
9
9
9
9
9
9
9
9
9
9
9
9
9
9
9
9
9
9
9
9
9
9
9
9
9
9
9
9
9
9
9
9
9
9
9
9
9
9
9
9
9
9
9
9
9
9
9
9
9
9
9
9
9
9
9
9
9
9
9
9
9
9
9
9
9
9
9
9
9
9
9
9
9
9
9
9
9
9
9
9
9
9
9
9
9
9
9
9
9
9
9
9
9
9
9
9
9
9
9
9
9
9
9
9
9
9
9
9
9
9
9
9
9
9
9
9
9
9
9
9
9
9
9
9
9
9
9
9
9
9
9
9
9
9
9
9
9
9
9
9
9
9
9
9
9
9
9
9
9
9
9
9
9
9
9
9
9
9
9
9
9
9
9
9
9
9
9
9
9
9
9
9
9
9
9
9
9
9
9
9
9
9
9
9
9
9
9
9
9
9
9
9
9
9
9
9
9
9
9
9
9
9
9
9
9
9
9
9
9
9
9
9
9
9
9
9
9
9
9
9
9
9
9
9
9
9
9
9
9
9
9
9
9
9
9
9
9
9
9
9
9
9
9
9
9
9
9
9
9
9
9
9
9
9
9
9
9
9
9
9
9
9
9
9
9
9
9
9
9
9
9
9
9
9
9
9
9
9
9
9
9
9
9
9
9
9
9
9
9
9
9
9
9
9
9
9
9
9
9
9
9
9
9
9
9
9
9
9
9
9
9
9
9
9
9
9
9
9
9
9
9
9
9
9
9
9
9
9
9
9
9
9
9
9
9
9
9
9
9
9
9
9
9
9
9
9
9
9
9
9
9
9
9
9
9
9
9
9
9
9
9
9
9
9
9
9
9
9
9
9
9
9
9
9
9
9
9
9
9
9
9
9
9
9
9
9
9
9
9
9
9
9
9
9
9
9
9
9
9
9
9
9
9
9
9
9
9
9
9
9
9
9
9
9
9
9
9
9
9
9
9
9
9
9
9
9
9
9
9
9
9
9
9
9
9
9
9
9
9
9
9
9
9
9
9
9
9
9
9
9
9
9
9
9
9
9
9
9
9
9
9
9
9
9
9
9
9
9
9
9
9
9
9
9
9
9
9
9
9
9
9
9
9
9
9
9
9
9
9
9
9
9
9
9
9
9
9
9
9
9
9
9
9
9
9
9
9
9
9
9
9
9
9
9
9
9
9
9
9
9
9
9
9
9
9
9
9
9
9
9
9
9
9
9
9
9
9
9
9
9
9
9
9
9
9
9
9
9
9
9
9
9
9
9
9
9
9
9
9
9
9
9
9
9
9
9
9
9
9
9
9
9
9
9
9
9
9
9
9
9
9
9
9
9
9
9
9
9
9
9
9
9
9
9
9
9
9
9
9
9
9
9
9
9
9
9
9
9
9
9
9
9
9
9
9
9
9
9
9
9
9
9
9
9
9
9
9
9
9
9
9
9
9
9
9
9
9
9
9
9
9
9
9
9
9
9
9
9
9
9
9
9
9
9
9
9
9
9
9
9
9
9
9
9
9
9
9
9
9
9
9
9
9
9
9
9
9
9
9
9
9
9
9
9
9
9
9
9
9
9
9
9
9
9
9
9
9
9
9
9
9
9
9
9
9
9
9
9
9
9
9
9
9
9
9
9
9
9
9
9
9
9
9
9
9
9
9
9
9
9
9
9
9
9
9
9
9
9
9
9
9
9
9
9
9
9
9
9
9
9
9
9
9
9
9
9
9
9
9
9
9
9
9
9
9
9
9
9
9
9
9
9
9
9
9
9
9
9
9
9
9
9
9
9
9
9
9
9
9
9
9
9
9
9
9
9
9
9
9
9
9
9
9
9
9
9
9
9
9
9
9
9
9
9
9
9
9
9
9
9
9
9
9
9
9
9
9
9
9
9
9
9
9
9
9
9
9
9
9
9
9
9
9
9
9
9
9
9
9
9
9
9
9
9
9
9
9
9
9
9
9
9
9
9
9
9
9
9
9
9
9
9
9
9
9
9
9
9
9
9
9
9
9
9
9
9
9
9
9
9
9
9
9
9
9
9
9
9
9
9
9
9
9
9
9
9
9
9
9
9
9
9
9
9
9
9
9
9
9
9
9
9
9
9
9
9
9
9
9
9
9
9
9
9
9
9
9
9
9
9
9
9
9
9
9
9
9
9
9
9
9
9
9
9
9
9
9
9
9
9
9
9
9
9
9
9
9
9
9
9
9
9
9
9
9
9
9
9
9
9
9
9
9
9
9
9
9
9
9
9
9
9
9
9
9
9
9
9
9
9
9
9
9
9
9
9
9
9
9
9
9
9
9
9
9
9
9
9
9
9
9
9
9
9
9
9
9
9
9
9
9
9
9
9
9
9
9
9
9
9
9
9
9
9
9
9
9
9
9
9
9
9
9
9
9
9
9
9
9
9
9
9
9
9
9
9
9
9
9
9
9
9
9
9
9
9
9
9
9
9
9
9
9
9
9
9
9
9
9
9
9
9
9
9
9
9
9
9
9
9
9
9
9
9
9
9
9
9
9
9
9
9
9
9
9
9
9
9
9
9
9
9
9
9
9
9
9
9
9
9
9
9
9
9
9
9
9
9
9
9
9
9
9
9
9
9
9
9
9
9
9
9
9
9
9
9
9
9
9
9
9
9
9
9
9
9
9
9
9
9
9
9
9
9
9
9
9
9
9
9
9
9
9
9
9
9
9
9
9
9
9
9
9
9
9
9
9
9
9
9
9
9
9
9
9
9
9
9
9
9
9
9
9
9
9
9
9
9
9
9
9
9
9
9
9
9
9
9
9
9
9
9
9
9
9
9
9
9
9
9
9
9
9
9
9
9
9
9
9
9
9
9
9
9
9
9
9
9
9
9
9
9
9
9
9
9
9
9
9
9
9
9
9
9
9
9
9
9
9
9
9
9
9
9
9
9
9
9
9
9
9
9
9
9
9
9
9
9
9
9
9
9
9
9
9
9
9
9
9
9
9
9
9
9
9
9
9
9
9
9
9
9
9
9
9
9
9
9
9
9
9
9
9
9
9
9
9
9
9
9
9
9
9
9
9
9
9
9
9
9
9
9
9
9
9
9
9
9
9
9
9
9
9
9
9
9
9
9
9
9
9
9
9
9
9
9
9
9
9
9
9
9
9
9
9
9
9
9
9
9
9
9
9
9
9
9
9
9
9
9
9
9
9
9
9
9
9
9
9
9
9
9
9
9
9
9
9
9
9
9
9
9
9
9
9
9
9
9
9
9
9
9
9
9
9
9
9
9
9
9
9
9
9
9
9
9
9
9
9
9
9
9
9
9
9
9
9
9
9
9
9
9
9
9
9
9
9
9
9
9
9
9
9
9
9
9
9
9
9
9
9
9
9
9
9
9
9
9
9
9
9
9
9
9
9
9
9
9
9
9
9
9
9
9
9
9
9
9
9
9
9
9
9
9
9
9
9
9
9
9
9
9
9
9
9
9
9
9
9
9
9
9
9
9
9
9
9
9
9
9
9
9
9
9
9
9
9
9
9
9
9
9
9
9
9
9
9
9
9
9
9
9
9
9
9
9
9
9
9
9
9
9
9
9
9
9
9
9
9
9
9
9
9
9
9
9
9
9
9
9
9
9
9
9
9
9
9
9
9
9
9
9
9
9
9
9
9
9
9
9
9
9
9
9
9
9
9
9
9
9
9
9
9
9
9
9
9
9
9
9
9
9
9
9
9
9
9
9
9
9
9
9
9
9
9
9
9
9
9
9
9
9
9
9
9
9
9
9
9
9
9
9
9
9
9
9
9
9
9
9
9
9
9
9
9
9
9
9
9
9
9
9
9
9
9
9
9
9
9
9
9
9
9
9
9
9
9
9
9
9
9
9
9
9
9
9
9
9
9
9
9
9
9
9
9
9
9
9
9
9
9
9
9
9
9
9
9
9
9
9
9
9
9
9
9
9
9
9
9
9
9
9
9
9
9
9
9
9
9
9
9
9
9
9
9
9
9
9
9
9
9
9
9
9
9
9
9
9
9
9
9
9
9
9
9
9
9
9
9
9
9
9
9
9
9
9
9
9
9
9
9
9
9
9
9
9
9
9
9
9
9
9
9
9
9
9
9
9
9
9
9
9
9
9
9
9
9
9
9
9
9
9
9
9
9
9
9
9
9
9
9
9
9
9
9
9
9
9
9
9
9
9
9
9
9
9
9
9
9
9
9
9
9
9
9
9
9
9
9
9
9
9
9
9
9
9
9
9
9
9
9
9
9
9
9
9
9
9
9
9
9
9
9
9
9
9
9
9
9
9
9
9
9
9
9
9
9
9
9
9
9
9
9
9
9
9
9
9
9
9
9
9
9
9
9
9
9
9
9
9
9
9
9
9
9
9
9
9
9
9
9
9
9
9
9
9
9
9
9
9
9
9
9
9
9
9
9
9
9
9
9
9
9
9
9
9
9
9
9
9
9
9
9
9
9
9
9
9
9
9
9
9
9
9
9
9
9
9
9
9
9
9
9
9
9
9
9
9
9
9
9
9
9
9
9
9
9
9
9
9
9
9
9
9
9
9
9
9
9
9
9
9
9
9
9
9
9
9
9
9
9
9
9
9
9
9
9
9
9
9
9
9
9
9
9
9
9
9
9
9
9
9
9
9
9
9
9
9
9
9
9
9
9
9
9
9
9
9
9
9
9
9
9
9
9
9
9
9
9
9
9
9
9
9
9
9
9
9
9
9
9
9
9
9
9
9
9
9
9
9
9
9
9
9
9
9
9
9
9
9
9
9
9
9
9
9
9
9
9
9
9
9
9
9
9
9
9
9
9
9
9
9
9
9
9
9
9
9
9
9
9
9
9
9
9
9
9
9
9
9
9
9
9
9
9
9
9
9
9
9
9
9
9
9
9
9
9
9
9
9
9
9
9
9
9
9
9
9
9
9
9
9
9
9
9
9
9
9
9
9
9
9
9
9
9
9
9
9
9
9
9
9
9
9
9
9
9
9
9
9
9
9
9
9
9
9
9
9
9
9
9
9
9
9
9
9
9
9
9
9
9
9
9
9
9
9
9
9
9
9
9
9
9
9
9
9
9
9
9
9
9
9
9
9
9
9
9
9
9
9
9
9
9
9
9
9
9
9
9
9
9
9
9
9
9
9
9
9
9
9
9
9
9
9
9
9
9
9
9
9
9
9
9
9
9
9
9
9
9
9
9
9
9
9
9
9
9
9
9
9
9
9
9
9
9
9
9
9
9
9
9
9
9
9
9
9
9
9
9
9
9
9
9
9
9
9
9
9
9
9
9
9
9
9
9
9
9
9
9
9
9
9
9
9
9
9
9
9
9
9
9
9
9
9
9
9
9
9
9
9
9
9
9
9
9
9
9
9
9
9
9
9
9
9
9
9
9
9
9
9
9
9
9
9
9
9
9
9
9
9
9
9
9
9
9
9
9
9
9
9
9
9
9
9
9
9
9
9
9
9
9
9
9
9
9
9
9
9
9
9
</DataArray>
</Cells>
<PointData Vectors="'U'">
<DataArray type="Float64" Name="U" NumberOfComponents="2" ComponentName0="U1" ComponentName1="U2" format="ascii">
-0.1339284873902E-36 -0.3336932188348E-36
-0.2805882811333E-37 -0.2894617329481E-37
-0.1093690558347E-36  0.2730237140397E-36
-0.1913224167064E-01 -0.3653926916077E-01
-0.7137709836180E-02 -0.1768618740573E-01
 0.7137709942397E-02 -0.1768618748126E-01
 0.1913224161282E-01 -0.3653926912477E-01
-0.2823006116680E+00 -0.4233960893062E+00
 0.2823006154478E+00 -0.4233960849311E+00
-0.2808332743743E+00 -0.5970118217405E+00
 0.2808332741300E+00 -0.5970118217147E+00
 0.3959348613839E-37 -0.2143778131319E-36
 0.3198370005462E-37 -0.1829440019600E-36
 0.3123395216794E-37 -0.1687184499494E-36
 0.3120429675329E-37 -0.1600591413988E-36
 0.3093863983122E-37 -0.1537216649232E-36
 0.3034726076975E-37 -0.1485290023518E-36
 0.2948439414453E-37 -0.1439670334749E-36
 0.2841381642709E-37 -0.1397802806442E-36
 0.2718623670470E-37 -0.1358296025965E-36
 0.2583891814655E-37 -0.1320339543310E-36
 0.2439888477744E-37 -0.1283436802966E-36
 0.2288588797186E-37 -0.1247271455223E-36
 0.2131457907495E-37 -0.1211635653135E-36
 0.1969600686609E-37 -0.1176389403480E-36
 0.1803863703210E-37 -0.1141436452973E-36
 0.1634905048912E-37 -0.1106709432316E-36
 0.1463242836975E-37 -0.1072160405806E-36
 0.1289289453683E-37 -0.1037754691526E-36
 0.1113376171883E-37 -0.1003466721788E-36
 0.9357711388836E-38 -0.9692772105200E-37
 0.7566927304774E-38 -0.9351711774793E-37
 0.5763196058605E-38 -0.9011365463576E-37
 0.3947983777300E-38 -0.8671631331851E-37
 0.2122495266109E-38 -0.8332419059837E-37
 0.2877200581081E-39 -0.7993644346795E-37
-0.1555531447598E-38 -0.7655224765725E-37
-0.3406599448334E-38 -0.7317076594215E-37
-0.5264952101475E-38 -0.6979112354925E-37
-0.7130167524028E-38 -0.6641238875771E-37
-0.9001919475867E-38 -0.6303355732542E-37
-0.1087996600289E-37 -0.5965353973241E-37
-0.1276414048550E-37 -0.5627115049097E-37
-0.1465434466447E-37 -0.5288509895283E-37
-0.1655054331277E-37 -0.4949398117196E-37
-0.1845276029548E-37 -0.4609627247208E-37
-0.2036107581806E-37 -0.4269032043112E-37
-0.2227562470861E-37 -0.3927433803843E-37
-0.2419659561625E-37 -0.3584639680827E-37
-0.2612423103829E-37 -0.3240441964916E-37
-0.3000074013959E-37 -0.2546926009973E-37
-0.3195037879659E-37 -0.2197110899225E-37
-0.3390821706600E-37 -0.1844896535902E-37
-0.3587479286410E-37 -0.1489987960841E-37
-0.3785071341512E-37 -0.1132069412381E-37
-0.3983666041148E-37 -0.7708028270938E-38
-0.4183339602552E-37 -0.4058261062925E-38
-0.4384176985704E-37 -0.3675110108805E-39
-0.4586272692373E-37  0.3368387408548E-38
-0.4789731682738E-37  0.7153911358803E-38
-0.4994670425891E-37  0.1099388216650E-37
-0.5201218104076E-37  0.1489350380276E-37
-0.5409517994714E-37  0.1885840861514E-37
-0.5619729059222E-37  0.2289471192751E-37
-0.5832027773516E-37  0.2700907754731E-37
-0.6046610241956E-37  0.3120879677355E-37
-0.6263694644426E-37  0.3550188423124E-37
-0.6483524075141E-37  0.3989719483691E-37
-0.6706369841254E-37  0.4440456752077E-37
-0.6932535298439E-37  0.4903500313389E-37
-0.7162360306886E-37  0.5380088643290E-37
-0.7396226393654E-37  0.5871626566226E-37
-0.7634562687404E-37  0.6379720781439E-37
-0.7877852654322E-37  0.6906225519856E-37
-0.8126641556757E-37  0.7453301888717E-37
-0.8381544342385E-37  0.8023495993983E-37
-0.8643253241941E-37  0.8619843203545E-37
-0.8912543518571E-37  0.9246009365665E-37
-0.9190274215679E-37  0.9906485087976E-37
-0.9477377740024E-37  0.1060685733036E-36
-0.9774826544343E-37  0.1135419501025E-36
-0.1008355523092E-36  0.1215760360181E-36
-0.1040430020741E-36  0.1302902729224E-36
-0.1073729973016E-36  0.1398439337586E-36
-0.1108181123717E-36  0.1504513240455E-36
-0.1143567048388E-36  0.1623963493362E-36
-0.1179689620369E-36  0.1760165549778E-36
-0.1218045519620E-36  0.1914864449428E-36
-0.1274030494427E-36  0.2073413641593E-36
-0.1775973503143E-01 -0.3251189267900E-01
-0.1668781892650E-01 -0.2993570372810E-01
-0.1576667551163E-01 -0.2806662877605E-01
-0.1496508902098E-01 -0.2659799716671E-01
-0.1425204441226E-01 -0.2538930372649E-01
-0.1360470495030E-01 -0.2436423296165E-01
-0.1300686823155E-01 -0.2347723770931E-01
-0.1244726322454E-01 -0.2269893319879E-01
-0.1191798503143E-01 -0.2200913128579E-01
-0.1141337465461E-01 -0.2139322848819E-01
-0.1092926941296E-01 -0.2084021425320E-01
-0.1046251696356E-01 -0.2034150889234E-01
-0.1001066244624E-01 -0.1989025004866E-01
-0.9571746216794E-02 -0.1948083368062E-01
-0.9144171954362E-02 -0.1910860619401E-01
-0.8726620506089E-02 -0.1876965006449E-01
-0.8317995282119E-02 -0.1846062885320E-01
-0.7917393862723E-02 -0.1817866974051E-01
-0.7524104675655E-02 -0.1792125868329E-01
-0.6756771215953E-02 -0.1747174772889E-01
-0.6380114328023E-02 -0.1727575750125E-01
-0.6007417452205E-02 -0.1709694381299E-01
-0.5638333442055E-02 -0.1693405688720E-01
-0.5272520103985E-02 -0.1678594464496E-01
-0.4909648809945E-02 -0.1665156693891E-01
-0.4549410140932E-02 -0.1652999153805E-01
-0.4191516071229E-02 -0.1642038616881E-01
-0.3835700161757E-02 -0.1632200998835E-01
-0.3481716651106E-02 -0.1623420567614E-01
-0.3129338971288E-02 -0.1615639247190E-01
-0.2778358004365E-02 -0.1608806018554E-01
-0.2428580235991E-02 -0.1602876411426E-01
-0.2079825891567E-02 -0.1597812076740E-01
-0.1731927094793E-02 -0.1593580430369E-01
-0.1384726066062E-02 -0.1590154359911E-01
-0.1038073362593E-02 -0.1587511987503E-01
-0.6918261591520E-03 -0.1585636482914E-01
-0.3458465627841E-03 -0.1584515922537E-01
 0.4614005011394E-10 -0.1584143190953E-01
 0.3458466550872E-03 -0.1584515922773E-01
 0.6918262515245E-03 -0.1585636483388E-01
 0.1038073455082E-02 -0.1587511988218E-01
 0.1384726158717E-02 -0.1590154360873E-01
 0.1731927187664E-02 -0.1593580431585E-01
 0.2079825984710E-02 -0.1597812078219E-01
 0.2428580329463E-02 -0.1602876413180E-01
 0.2778358098227E-02 -0.1608806020595E-01
 0.3129339065608E-02 -0.1615639249534E-01
 0.3481716745957E-02 -0.1623420570279E-01
 0.3835700257219E-02 -0.1632201001840E-01
 0.4191516167390E-02 -0.1642038620251E-01
 0.4549410237888E-02 -0.1652999157565E-01
 0.4909648907801E-02 -0.1665156698070E-01
 0.5272520202860E-02 -0.1678594469128E-01
 0.5638333542078E-02 -0.1693405693841E-01
 0.6007417553519E-02 -0.1709694386952E-01
 0.6380114430787E-02 -0.1727575756356E-01
 0.6756771320342E-02 -0.1747174779752E-01
 0.7524104776475E-02 -0.1792125876168E-01
 0.7917393958119E-02 -0.1817866982162E-01
 0.8317995372071E-02 -0.1846062893688E-01
 0.8726620590570E-02 -0.1876965015057E-01
 0.9144172033335E-02 -0.1910860628226E-01
 0.9571746290207E-02 -0.1948083377080E-01
 0.1001066251402E-01 -0.1989025014045E-01
 0.1046251702563E-01 -0.2034150898539E-01
 0.1092926946921E-01 -0.2084021434708E-01
 0.1141337470491E-01 -0.2139322858238E-01
 0.1191798507562E-01 -0.2200913137968E-01
 0.1244726326243E-01 -0.2269893329165E-01
 0.1300686826288E-01 -0.2347723780027E-01
 0.1360470497472E-01 -0.2436423304963E-01
 0.1425204442923E-01 -0.2538930381016E-01
 0.1496508902955E-01 -0.2659799724428E-01
 0.1576667551009E-01 -0.2806662884478E-01
 0.1668781891176E-01 -0.2993570378313E-01
 0.1775973499894E-01 -0.3251189270869E-01
-0.1503634153797E+00 -0.9953685763999E-01
-0.2252486442243E+00 -0.1504212147512E+00
-0.2822599993881E+00 -0.1839856181020E+00
-0.3272095163306E+00 -0.2097852053058E+00
-0.3634166173696E+00 -0.2307660094051E+00
-0.3926663147153E+00 -0.2483991481764E+00
-0.4160508283982E+00 -0.2633735499015E+00
-0.4342654007954E+00 -0.2760894583485E+00
-0.4477298855303E+00 -0.2867516800543E+00
-0.4566411915912E+00 -0.2954671765038E+00
-0.4610649701773E+00 -0.3023236702945E+00
-0.4610947907165E+00 -0.3073222893396E+00
-0.4561253890591E+00 -0.3109159788225E+00
-0.4457603840535E+00 -0.3146440324508E+00
-0.4302094768523E+00 -0.3202207215373E+00
-0.4098133463447E+00 -0.3292756834615E+00
-0.3848833403654E+00 -0.3429322813302E+00
-0.3554150533108E+00 -0.3620252648030E+00
-0.3212214970055E+00 -0.3878965860254E+00
-0.2611336775801E+00 -0.4466429760415E+00
-0.2390280936667E+00 -0.4740792398793E+00
-0.2156985661902E+00 -0.5069446972407E+00
-0.1901042991560E+00 -0.5475769555464E+00
-0.1621408722256E+00 -0.5967173500170E+00
-0.1337316332873E+00 -0.6515289784369E+00
-0.1064440757590E+00 -0.7089231355341E+00
-0.8069160365237E-01 -0.7668912098233E+00
-0.5667485330010E-01 -0.8239989379969E+00
-0.3557977180229E-01 -0.8794987608595E+00
-0.1823250498624E-01 -0.9326319485729E+00
-0.4832288782592E-02 -0.9825544341329E+00
 0.4775434006600E-02 -0.1028457820967E+01
 0.1091899488640E-01 -0.1069627940920E+01
 0.1400693827864E-01 -0.1105461019498E+01
 0.1448540929034E-01 -0.1135455692677E+01
 0.1282288842496E-01 -0.1159211261350E+01
 0.9507139118970E-02 -0.1176416220104E+01
 0.5050355288857E-02 -0.1186842819790E+01
-0.7633795817696E-09 -0.1190340384551E+01
-0.5050356750520E-02 -0.1186842818370E+01
-0.9507140392850E-02 -0.1176416217288E+01
-0.1282288939755E-01 -0.1159211257175E+01
-0.1448540985558E-01 -0.1135455687203E+01
-0.1400693833780E-01 -0.1105461012797E+01
-0.1091899434696E-01 -0.1069627933076E+01
-0.4775432789372E-02 -0.1028457812110E+01
 0.4832290744998E-02 -0.9825544243867E+00
 0.1823250773426E-01 -0.9326319380840E+00
 0.3557977532519E-01 -0.8794987497938E+00
 0.5667485749830E-01 -0.8239989265220E+00
 0.8069160830082E-01 -0.7668911980779E+00
 0.1064440807250E+00 -0.7089231237359E+00
 0.1337316385533E+00 -0.6515289669393E+00
 0.1621408776377E+00 -0.5967173392900E+00
 0.1901043042331E+00 -0.5475769464050E+00
 0.2156985707296E+00 -0.5069446899108E+00
 0.2390280979039E+00 -0.4740792338182E+00
 0.2611336815832E+00 -0.4466429709192E+00
 0.3212215001527E+00 -0.3878965829586E+00
 0.3554150558761E+00 -0.3620252626495E+00
 0.3848833424002E+00 -0.3429322798439E+00
 0.4098133478929E+00 -0.3292756824728E+00
 0.4302094779428E+00 -0.3202207209157E+00
 0.4457603847109E+00 -0.3146440320560E+00
 0.4561253893117E+00 -0.3109159785241E+00
 0.4610947906217E+00 -0.3073222890190E+00
 0.4610649698356E+00 -0.3023236699003E+00
 0.4566411910538E+00 -0.2954671760546E+00
 0.4477298848384E+00 -0.2867516795670E+00
 0.4342653999930E+00 -0.2760894578407E+00
 0.4160508275232E+00 -0.2633735493912E+00
 0.3926663138020E+00 -0.2483991476790E+00
 0.3634166164538E+00 -0.2307660089368E+00
 0.3272095154494E+00 -0.2097852048832E+00
 0.2822599985849E+00 -0.1839856177432E+00
 0.2252486435511E+00 -0.1504212144828E+00
 0.1503634148982E+00 -0.9953685752165E-01
-0.3932613081866E-03 -0.6950161664344E-03
-0.6352143972998E-03 -0.1194233435009E-02
-0.8191903377899E-03 -0.1661893876254E-02
-0.9617961251182E-03 -0.2111436873780E-02
-0.1073889278120E-02 -0.2552079770985E-02
-0.1161189630051E-02 -0.2988631835653E-02
-0.1227852826275E-02 -0.3424076831369E-02
-0.1276822867814E-02 -0.3860509294000E-02
-0.1310363158740E-02 -0.4299528678890E-02
-0.1330254305051E-02 -0.4742481035362E-02
-0.1337944338006E-02 -0.5190599643758E-02
-0.1334642637376E-02 -0.5645118957733E-02
-0.1321389276311E-02 -0.6107367251132E-02
-0.1299110149057E-02 -0.6578877275344E-02
-0.1268642426581E-02 -0.7061577078836E-02
-0.1230966402320E-02 -0.7558454623562E-02
-0.1187999555141E-02 -0.8073130115922E-02
-0.1142581889669E-02 -0.8607369115741E-02
-0.1097271162732E-02 -0.9161024837473E-02
-0.1054123358689E-02 -0.9734034397772E-02
-0.1015105024841E-02 -0.1032714399463E-01
-0.9824273553939E-03 -0.1094195087944E-01
-0.9587572265908E-03 -0.1158074625593E-01
-0.9473639447159E-03 -0.1224641943387E-01
-0.9522597146186E-03 -0.1294239749302E-01
-0.9783799965520E-03 -0.1367255913678E-01
-0.1031723140880E-02 -0.1444085419168E-01
-0.1119194145493E-02 -0.1525120850957E-01
-0.1248647929579E-02 -0.1610835271105E-01
-0.1429434464220E-02 -0.1701835090240E-01
-0.1672943161230E-02 -0.1798859594488E-01
-0.1993214730037E-02 -0.1902812624450E-01
-0.2407928989789E-02 -0.2014814140564E-01
-0.2939898499129E-02 -0.2136242312984E-01
-0.3619369762440E-02 -0.2268699579054E-01
-0.4485806878154E-02 -0.2413824940128E-01
-0.5594679857599E-02 -0.2573823841774E-01
-0.7025671927950E-02 -0.2754569657722E-01
-0.8984548127323E-02 -0.2966610365109E-01
-0.1168732074348E-01 -0.3257115548999E-01
 0.1168732069641E-01 -0.3257115545465E-01
 0.8984548086472E-02 -0.2966610361908E-01
 0.7025671889885E-02 -0.2754569654826E-01
 0.5594679821740E-02 -0.2573823839045E-01
 0.4485806844212E-02 -0.2413824937546E-01
 0.3619369730225E-02 -0.2268699576597E-01
 0.2939898468518E-02 -0.2136242310637E-01
 0.2407928960692E-02 -0.2014814138316E-01
 0.1993214702386E-02 -0.1902812622291E-01
 0.1672943134975E-02 -0.1798859592409E-01
 0.1429434439319E-02 -0.1701835088237E-01
 0.1248647905998E-02 -0.1610835269173E-01
 0.1119194123200E-02 -0.1525120849093E-01
 0.1031723119845E-02 -0.1444085417371E-01
 0.9783799767439E-03 -0.1367255911945E-01
 0.9522596960074E-03 -0.1294239747632E-01
 0.9473639272706E-03 -0.1224641941779E-01
 0.9587572102801E-03 -0.1158074624046E-01
 0.9824273401855E-03 -0.1094195086458E-01
 0.1015105010701E-02 -0.1032714398039E-01
 0.1054123345584E-02 -0.9734034384135E-02
 0.1097271150624E-02 -0.9161024824439E-02
 0.1142581878522E-02 -0.8607369103308E-02
 0.1187999544918E-02 -0.8073130104089E-02
 0.1230966392981E-02 -0.7558454612329E-02
 0.1268642418090E-02 -0.7061577068208E-02
 0.1299110141373E-02 -0.6578877265329E-02
 0.1321389269396E-02 -0.6107367241738E-02
 0.1334642631191E-02 -0.5645118948970E-02
 0.1337944332511E-02 -0.5190599635635E-02
 0.1330254300205E-02 -0.4742481027889E-02
 0.1310363154504E-02 -0.4299528672077E-02
 0.1276822864147E-02 -0.3860509287857E-02
 0.1227852823137E-02 -0.3424076825907E-02
 0.1161189627405E-02 -0.2988631830882E-02
 0.1073889275930E-02 -0.2552079766917E-02
 0.9617961233534E-03 -0.2111436870429E-02
 0.8191903364247E-03 -0.1661893873637E-02
 0.6352143963251E-03 -0.1194233433152E-02
 0.3932613076104E-03 -0.6950161653763E-03
-0.2698459044784E+00 -0.6102791778925E+00
-0.2584850231064E+00 -0.6233827517670E+00
-0.2467161326265E+00 -0.6362231949961E+00
-0.2345410394427E+00 -0.6487291265404E+00
-0.2219694400253E+00 -0.6608338028164E+00
-0.2090156034522E+00 -0.6724739916039E+00
-0.1956969149746E+00 -0.6835894869916E+00
-0.1820330475916E+00 -0.6941235734875E+00
-0.1680454945142E+00 -0.7040233542412E+00
-0.1537569724977E+00 -0.7132395827755E+00
-0.1391913078869E+00 -0.7217255622438E+00
-0.1243734086721E+00 -0.7294378468163E+00
-0.1093291826040E+00 -0.7363370051324E+00
-0.9408539071665E-01 -0.7423879615662E+00
-0.7866948917768E-01 -0.7475601460834E+00
-0.6310946539869E-01 -0.7518275755890E+00
-0.4743371420958E-01 -0.7551689136065E+00
-0.3167092917101E-01 -0.7575675107260E+00
-0.1585001296216E-01 -0.7590114440475E+00
-0.1188833476107E-09 -0.7594935497224E+00
 0.1585001272430E-01 -0.7590114440465E+00
 0.3167092893290E-01 -0.7575675107240E+00
 0.4743371397105E-01 -0.7551689136035E+00
 0.6310946515958E-01 -0.7518275755850E+00
 0.7866948893788E-01 -0.7475601460782E+00
 0.9408539047605E-01 -0.7423879615598E+00
 0.1093291823626E+00 -0.7363370051248E+00
 0.1243734084297E+00 -0.7294378468073E+00
 0.1391913076437E+00 -0.7217255622335E+00
 0.1537569722538E+00 -0.7132395827638E+00
 0.1680454942696E+00 -0.7040233542280E+00
 0.1820330473465E+00 -0.6941235734727E+00
 0.1956969147290E+00 -0.6835894869747E+00
 0.2090156032063E+00 -0.6724739915847E+00
 0.2219694397792E+00 -0.6608338027950E+00
 0.2345410391967E+00 -0.6487291265170E+00
 0.2467161323808E+00 -0.6362231949710E+00
 0.2584850228612E+00 -0.6233827517409E+00
 0.2698459042337E+00 -0.6102791778659E+00
-0.2791205883245E+00 -0.5584673119316E+00
-0.2761397547412E+00 -0.5197855248587E+00
-0.2722380587539E+00 -0.4810436496420E+00
-0.2676873018650E+00 -0.4424860665433E+00
-0.2626475894514E+00 -0.4043458809743E+00
-0.2571775684324E+00 -0.3668477526174E+00
-0.2512332341695E+00 -0.3302169299991E+00
-0.2446592625947E+00 -0.2946768922127E+00
-0.2371622956423E+00 -0.2604413370083E+00
-0.2283282450050E+00 -0.2276923139447E+00
-0.2176844068685E+00 -0.1965601177691E+00
-0.2047769472965E+00 -0.1671465272977E+00
-0.1892677140886E+00 -0.1395683387039E+00
-0.1709686636285E+00 -0.1139924124013E+00
-0.1498274787446E+00 -0.9065000335353E-01
-0.1259050248263E+00 -0.6983035820916E-01
-0.9936526460277E-01 -0.5185599125169E-01
-0.7047437132328E-01 -0.3704005398198E-01
-0.3959475753549E-01 -0.2562334001377E-01
 0.2791205881000E+00 -0.5584673118936E+00
 0.2761397545341E+00 -0.5197855248051E+00
 0.2722380585673E+00 -0.4810436495695E+00
 0.2676873017051E+00 -0.4424860664490E+00
 0.2626475893282E+00 -0.4043458808559E+00
 0.2571775683607E+00 -0.3668477524740E+00
 0.2512332341703E+00 -0.3302169298320E+00
 0.2446592626964E+00 -0.2946768920271E+00
 0.2371622958793E+00 -0.2604413368146E+00
 0.2283282454151E+00 -0.2276923137570E+00
 0.2176844074836E+00 -0.1965601176027E+00
 0.2047769481323E+00 -0.1671465271657E+00
 0.1892677151365E+00 -0.1395683386138E+00
 0.1709686648512E+00 -0.1139924123536E+00
 0.1498274800747E+00 -0.9065000334273E-01
 0.1259050261683E+00 -0.6983035822593E-01
 0.9936526583749E-01 -0.5185599128686E-01
 0.7047437231519E-01 -0.3704005403036E-01
 0.3959475814581E-01 -0.2562334007551E-01
-0.2920787247081E+00 -0.5987899225232E+00
-0.3026483026967E+00 -0.5993422937059E+00
-0.3124130514782E+00 -0.5986645024617E+00
-0.3212839461432E+00 -0.5967498893207E+00
-0.3291793863226E+00 -0.5935833997782E+00
-0.3360183634616E+00 -0.5891527934918E+00
-0.3417186514646E+00 -0.5834523678199E+00
-0.3461966641029E+00 -0.5764860541237E+00
-0.3493680668815E+00 -0.5682700998450E+00
-0.3511489365426E+00 -0.5588359237046E+00
-0.3514575430032E+00 -0.5482333758253E+00
-0.3502169883520E+00 -0.5365345803615E+00
-0.3473590873937E+00 -0.5238384819739E+00
-0.3428300574569E+00 -0.5102761566891E+00
-0.3365988016433E+00 -0.4960167838034E+00
-0.3286688822651E+00 -0.4812738975038E+00
-0.3190950520095E+00 -0.4663102406490E+00
-0.3080060707012E+00 -0.4514393425615E+00
-0.2956204144336E+00 -0.4370051989137E+00
 0.2920787246265E+00 -0.5987899221449E+00
 0.3026483027701E+00 -0.5993422929688E+00
 0.3124130516989E+00 -0.5986645013610E+00
 0.3212839465043E+00 -0.5967498878538E+00
 0.3291793868179E+00 -0.5935833979454E+00
 0.3360183640856E+00 -0.5891527912966E+00
 0.3417186522131E+00 -0.5834523652698E+00
 0.3461966649731E+00 -0.5764860512303E+00
 0.3493680678729E+00 -0.5682700966248E+00
 0.3511489376574E+00 -0.5588359201791E+00
 0.3514575442473E+00 -0.5482333720219E+00
 0.3502169897359E+00 -0.5365345763136E+00
 0.3473590889339E+00 -0.5238384777213E+00
 0.3428300591773E+00 -0.5102761522774E+00
 0.3365988035765E+00 -0.4960167792836E+00
 0.3286688844540E+00 -0.4812738929298E+00
 0.3190950545072E+00 -0.4663102360746E+00
 0.3080060735689E+00 -0.4514393380330E+00
 0.2956204177336E+00 -0.4370051944608E+00
-0.3314809622025E-03 -0.5856638560940E-03
-0.5917356582132E-03 -0.1123454143536E-02
-0.7756061286072E-03 -0.1604207416794E-02
-0.9199357925206E-03 -0.2065679126447E-02
-0.1032546936980E-02 -0.2515770187694E-02
-0.1120145642220E-02 -0.2960253670077E-02
-0.1186837762069E-02 -0.3402484532469E-02
-0.1235669494840E-02 -0.3844821009824E-02
-0.1268929754046E-02 -0.4289040599778E-02
-0.1288419000569E-02 -0.4736614230347E-02
-0.1295590779326E-02 -0.5188863401836E-02
-0.1291651449137E-02 -0.5647082841442E-02
-0.1277628983536E-02 -0.6112636724857E-02
-0.1254425547883E-02 -0.6587067503842E-02
-0.1222834691979E-02 -0.7072281179124E-02
-0.1183797885900E-02 -0.7570680953203E-02
-0.1139268236017E-02 -0.8084677511956E-02
-0.1092193337332E-02 -0.8615779046414E-02
-0.1045201353750E-02 -0.9164595228441E-02
-0.1000336035100E-02 -0.9731581644904E-02
-0.9595160940464E-03 -0.1031760002246E-01
-0.9249035782786E-03 -0.1092409366745E-01
-0.8991268207016E-03 -0.1155303883398E-01
-0.8854303944919E-03 -0.1220689319679E-01
-0.8878184484785E-03 -0.1288853613537E-01
-0.9112466832770E-03 -0.1360116092265E-01
-0.9617392277433E-03 -0.1434817437936E-01
-0.1046187622099E-02 -0.1513317222078E-01
-0.1172425008162E-02 -0.1596018400761E-01
-0.1349809333618E-02 -0.1683405708112E-01
-0.1589765888089E-02 -0.1776060754749E-01
-0.1906412884860E-02 -0.1874678339208E-01
-0.2317551247429E-02 -0.1980098693195E-01
-0.2846188491662E-02 -0.2093341000106E-01
-0.3522431316431E-02 -0.2215639097790E-01
-0.4385321043104E-02 -0.2348421702238E-01
-0.5485365591292E-02 -0.2493183374896E-01
-0.6915731716526E-02 -0.2651869907295E-01
-0.8811471243671E-02 -0.2832580011108E-01
-0.1176150069669E-01 -0.3025228708605E-01
-0.2885725840169E-03 -0.5321429595373E-03
-0.5443394897835E-03 -0.1060321455291E-02
-0.7323823948704E-03 -0.1553384605005E-02
-0.8772996829934E-03 -0.2023104091760E-02
-0.9906780315859E-03 -0.2481160770531E-02
-0.1078569108232E-02 -0.2932529008673E-02
-0.1145352967472E-02 -0.3380831768877E-02
-0.1194093584689E-02 -0.3828524298081E-02
-0.1227121946088E-02 -0.4277489430118E-02
-0.1246254588235E-02 -0.4729273332863E-02
-0.1252952945830E-02 -0.5185250583514E-02
-0.1248422228752E-02 -0.5646745782637E-02
-0.1233682524385E-02 -0.6115126028205E-02
-0.1209617322628E-02 -0.6591899524676E-02
-0.1177022710613E-02 -0.7078810129514E-02
-0.1136900416177E-02 -0.7577772355386E-02
-0.1091218003328E-02 -0.8090558691443E-02
-0.1042861737325E-02 -0.8618490325730E-02
-0.9944571212120E-03 -0.9162479915405E-02
-0.9480850050563E-03 -0.9723303510718E-02
-0.9056706976249E-03 -0.1030191153704E-01
-0.8693642696140E-03 -0.1089962452419E-01
-0.8417796521863E-03 -0.1151814554477E-01
-0.8261547580189E-03 -0.1215954523834E-01
-0.8265033989719E-03 -0.1282621305406E-01
-0.8477924234253E-03 -0.1352078749006E-01
-0.8960334392352E-03 -0.1424616038040E-01
-0.9781227648841E-03 -0.1500542266064E-01
-0.1101943986231E-02 -0.1580188171238E-01
-0.1276917258411E-02 -0.1663930623597E-01
-0.1514551053107E-02 -0.1752206147411E-01
-0.1829089186343E-02 -0.1845520585658E-01
-0.2238493542229E-02 -0.1944468928947E-01
-0.2765837267901E-02 -0.2049767230815E-01
-0.3441027507727E-02 -0.2162298258320E-01
-0.4302030011824E-02 -0.2283072028813E-01
-0.5402021520773E-02 -0.2412354268506E-01
-0.6827444208163E-02 -0.2550360280812E-01
-0.8750569369317E-02 -0.2695011464578E-01
-0.1174415730105E-01 -0.2834209489984E-01
-0.2573641147449E-03 -0.5009762288088E-03
-0.5002674703729E-03 -0.1012977387511E-02
-0.6890894615800E-03 -0.1508490554142E-02
-0.8347404144930E-03 -0.1984479886715E-02
-0.9485238841296E-03 -0.2448577554170E-02
-0.1036693899467E-02 -0.2905769491657E-02
-0.1103552653247E-02 -0.3359361243654E-02
-0.1152222338548E-02 -0.3811822331000E-02
-0.1185048463422E-02 -0.4265047539209E-02
-0.1203863028685E-02 -0.4720609375494E-02
-0.1210133512979E-02 -0.5179898445653E-02
-0.1205066016600E-02 -0.5644238730434E-02
-0.1189676830754E-02 -0.6114970153772E-02
-0.1164846948446E-02 -0.6593520852997E-02
-0.1131409456743E-02 -0.7081432718208E-02
-0.1090444839253E-02 -0.7580251040969E-02
-0.1043912680863E-02 -0.8091367778921E-02
-0.9945871804604E-03 -0.8615963531052E-02
-0.9450464446881E-03 -0.9155052401191E-02
-0.8974085995394E-03 -0.9709565521916E-02
-0.8536362879669E-03 -0.1028049526199E-01
-0.8158961996122E-03 -0.1086905069144E-01
-0.7868092534584E-03 -0.1147669414728E-01
-0.7696226784046E-03 -0.1210515116033E-01
-0.7683670185532E-03 -0.1275638194413E-01
-0.7880150837568E-03 -0.1343254555711E-01
-0.8345637697259E-03 -0.1413603756327E-01
-0.9149288444939E-03 -0.1486939597916E-01
-0.1037074209988E-02 -0.1563521184570E-01
-0.1210519904156E-02 -0.1643627888975E-01
-0.1446889289290E-02 -0.1727567096493E-01
-0.1760571452149E-02 -0.1815678700227E-01
-0.2169665422791E-02 -0.1908348447233E-01
-0.2697270127972E-02 -0.2006032601558E-01
-0.3372936105456E-02 -0.2109292539309E-01
-0.4234739299701E-02 -0.2218612328678E-01
-0.5336614081112E-02 -0.2333433580454E-01
-0.6767668277597E-02 -0.2451873405902E-01
-0.8716237199344E-02 -0.2568711369649E-01
-0.1162126797813E-01 -0.2678656755115E-01
-0.2334045414254E-03 -0.4809160985108E-03
-0.4611168212808E-03 -0.9780197883192E-03
-0.6470355028030E-03 -0.1470572738405E-02
-0.7925974156353E-03 -0.1949778417112E-02
-0.9064611725350E-03 -0.2418341418761E-02
-0.9947309526577E-03 -0.2880196114169E-02
-0.1061606457020E-02 -0.3338282438828E-02
-0.1110187308060E-02 -0.3794895756980E-02
-0.1142823040279E-02 -0.4251876591063E-02
-0.1161349095927E-02 -0.4710770088048E-02
-0.1167236437921E-02 -0.5172947344017E-02
-0.1161692578176E-02 -0.5639702511641E-02
-0.1145735488692E-02 -0.6112320271717E-02
-0.1120259480429E-02 -0.6592119688553E-02
-0.1086150483833E-02 -0.7080443792083E-02
-0.1044559972489E-02 -0.7578558758231E-02
-0.9974246616361E-03 -0.8087605233090E-02
-0.9473974467094E-03 -0.8608649196114E-02
-0.8969883259270E-03 -0.9142708567780E-02
-0.8483397919616E-03 -0.9690759742642E-02
-0.8034631106806E-03 -0.1025378711215E-01
-0.7645608271999E-03 -0.1083288815262E-01
-0.7342778101730E-03 -0.1142930886716E-01
-0.7158825194759E-03 -0.1204446846570E-01
-0.7134259064849E-03 -0.1267994993671E-01
-0.7318869462343E-03 -0.1333748562085E-01
-0.7772556078629E-03 -0.1401900078441E-01
-0.8564782282438E-03 -0.1472648585051E-01
-0.9776103072978E-03 -0.1546185133897E-01
-0.1150288913392E-02 -0.1622701712660E-01
-0.1386265352134E-02 -0.1702393402258E-01
-0.1700064061527E-02 -0.1785458928100E-01
-0.2109884073181E-02 -0.1872109333801E-01
-0.2638767079232E-02 -0.1962585730750E-01
-0.3316027328578E-02 -0.2057159652875E-01
-0.4179798633113E-02 -0.2155890429541E-01
-0.5284692104610E-02 -0.2257584520701E-01
-0.6721881623784E-02 -0.2359327442312E-01
-0.8667404433572E-02 -0.2456586686570E-01
-0.1141543157903E-01 -0.2549896863066E-01
-0.2141288592689E-03 -0.4671400187448E-03
-0.4266884014381E-03 -0.9518912083419E-03
-0.6071204544372E-03 -0.1439247167593E-02
-0.7513222729519E-03 -0.1919089885016E-02
-0.8647897735042E-03 -0.2390557963034E-02
-0.9529078823188E-03 -0.2855985598936E-02
-0.1019680484066E-02 -0.3317759553321E-02
-0.1068123826395E-02 -0.3777903350203E-02
-0.1100561047451E-02 -0.4238125585943E-02
-0.1118818619307E-02 -0.4699898558299E-02
-0.1124365039954E-02 -0.5164539254744E-02
-0.1118408906497E-02 -0.5633285274057E-02
-0.1101974915043E-02 -0.6107342770488E-02
-0.1075981396277E-02 -0.6587907314160E-02
-0.1041370290036E-02 -0.7076139704130E-02
-0.9993495211691E-03 -0.7573088849810E-02
-0.9518245106475E-03 -0.8079713151323E-02
-0.9013324600095E-03 -0.8596977635572E-02
-0.8503087269585E-03 -0.9125853777766E-02
-0.8009068282030E-03 -0.9667294704473E-02
-0.7551868537686E-03 -0.1022223557421E-01
-0.7153976981825E-03 -0.1079165679948E-01
-0.6842199622261E-03 -0.1137660673214E-01
-0.6649514591581E-03 -0.1197823234723E-01
-0.6616661742690E-03 -0.1259778332707E-01
-0.6793520598284E-03 -0.1323660904320E-01
-0.7240009730300E-03 -0.1389619822767E-01
-0.8025965514318E-03 -0.1457802615719E-01
-0.9232862946743E-03 -0.1528338017577E-01
-0.1095824601279E-02 -0.1601341296993E-01
-0.1332083661409E-02 -0.1676912373676E-01
-0.1646693816756E-02 -0.1755133598583E-01
-0.2057890943327E-02 -0.1836075654522E-01
-0.2588593156673E-02 -0.1919807171578E-01
-0.3267839379019E-02 -0.2006372262915E-01
-0.4133556612767E-02 -0.2095527486316E-01
-0.5240251954961E-02 -0.2185740882382E-01
-0.6676137386280E-02 -0.2274075251134E-01
-0.8588735925597E-02 -0.2357871600473E-01
-0.1115539573852E-01 -0.2440895602636E-01
-0.1980254726621E-03 -0.4572336765977E-03
-0.3963193974976E-03 -0.9320108948519E-03
-0.5697278307210E-03 -0.1413552989419E-02
-0.7113166871010E-03 -0.1892285042493E-02
-0.8237809598396E-03 -0.2365253301093E-02
-0.9114354766723E-03 -0.2833238011649E-02
-0.9779387218251E-03 -0.3297920887155E-02
-0.1026165295251E-02 -0.3760979223051E-02
-0.1058377516426E-02 -0.4223930441037E-02
-0.1076376404681E-02 -0.4688131955762E-02
-0.1081620427967E-02 -0.5154816213780E-02
-0.1075317521558E-02 -0.5625140542072E-02
-0.1058502363320E-02 -0.6100214930826E-02
-0.1032122365177E-02 -0.6581105999099E-02
-0.9971716197481E-03 -0.7068810642909E-02
-0.9548999206078E-03 -0.7564201868069E-02
-0.9071772627570E-03 -0.8068094322212E-02
-0.8564354403886E-03 -0.8581358894129E-02
-0.8050360013295E-03 -0.9104893733779E-02
-0.7551330710128E-03 -0.9639587259382E-02
-0.7088305370547E-03 -0.1018629557509E-01
-0.6684273431169E-03 -0.1074587597502E-01
-0.6366465557818E-03 -0.1131919399779E-01
-0.6168201897987E-03 -0.1190715387325E-01
-0.6130470715056E-03 -0.1251071007371E-01
-0.6303271852701E-03 -0.1313086920994E-01
-0.6746607815958E-03 -0.1376872313994E-01
-0.7530706365159E-03 -0.1442527942267E-01
-0.8737887210866E-03 -0.1510127323720E-01
-0.1046673546459E-02 -0.1579720206089E-01
-0.1283694332453E-02 -0.1651328329047E-01
-0.1599539644008E-02 -0.1724941879141E-01
-0.2012404451822E-02 -0.1800523989505E-01
-0.2544986046154E-02 -0.1878015406190E-01
-0.3225888233125E-02 -0.1957303495346E-01
-0.4092379740460E-02 -0.2037972351286E-01
-0.5197356121053E-02 -0.2118450372071E-01
-0.6621175186317E-02 -0.2196346763031E-01
-0.8478153139220E-02 -0.2270799566526E-01
-0.1086190433322E-01 -0.2346899294126E-01
-0.1841679715625E-03 -0.4498575362919E-03
-0.3693151061512E-03 -0.9166071099798E-03
-0.5349105219489E-03 -0.1392463654166E-02
-0.6728531513932E-03 -0.1869041332670E-02
-0.7836695190096E-03 -0.2342370957077E-02
-0.8705027264682E-03 -0.2811995044711E-02
-0.9365358998353E-03 -0.3278856578125E-02
-0.9844405981957E-03 -0.3744234550459E-02
-0.1016384498053E-02 -0.4209413215364E-02
-0.1034124515373E-02 -0.4675600717156E-02
-0.1039100007587E-02 -0.5143918896092E-02
-0.1032515107465E-02 -0.5615425057308E-02
-0.1015415302893E-02 -0.6091120338268E-02
-0.9887775756796E-03 -0.6571941700028E-02
-0.9536409352103E-03 -0.7058738129754E-02
-0.9112844105518E-03 -0.7552234267719E-02
-0.8635409844814E-03 -0.8053123140524E-02
-0.8127479730496E-03 -0.8562184661410E-02
-0.7611972987876E-03 -0.9080229131118E-02
-0.7110363758550E-03 -0.9608056093762E-02
-0.6644058729248E-03 -0.1014642315431E-01
-0.6236537728717E-03 -0.1069606038628E-01
-0.5915479949158E-03 -0.1125766315477E-01
-0.5714567172733E-03 -0.1183191872502E-01
-0.5675042180733E-03 -0.1241952049658E-01
-0.5847043041101E-03 -0.1302117103098E-01
-0.6290685865327E-03 -0.1363760883986E-01
-0.7076558540255E-03 -0.1426942944863E-01
-0.8287684684171E-03 -0.1491689453398E-01
-0.1002345334257E-02 -0.1557996051001E-01
-0.1240415184987E-02 -0.1625822782714E-01
-0.1557663170753E-02 -0.1695090609358E-01
-0.1972150710749E-02 -0.1765686184058E-01
-0.2506221113182E-02 -0.1837466122103E-01
-0.3187801908008E-02 -0.1910229643022E-01
-0.4052906996161E-02 -0.1983508831899E-01
-0.5151191433641E-02 -0.2055909400675E-01
-0.6552132466207E-02 -0.2125781868891E-01
-0.8338733416112E-02 -0.2193599334172E-01
-0.1054843501087E-01 -0.2264679167614E-01
-0.1719650890696E-03 -0.4442118114531E-03
-0.3450728922407E-03 -0.9044646251897E-03
-0.5025483432104E-03 -0.1375070479301E-02
-0.6360760464555E-03 -0.1848943815881E-02
-0.7446388586392E-03 -0.2321779918829E-02
-0.8302734924926E-03 -0.2792250486607E-02
-0.8956129992892E-03 -0.3260622636681E-02
-0.9430711136437E-03 -0.3727758454838E-02
-0.9746889831844E-03 -0.4194682339378E-02
-0.9921606283189E-03 -0.4662427870606E-02
-0.9968962067521E-03 -0.5131985390042E-02
-0.9900915676832E-03 -0.5604296593298E-02
-0.9728014884142E-03 -0.6080245083239E-02
-0.9460297554210E-03 -0.6560639690616E-02
-0.9108517548492E-03 -0.7046194288669E-02
-0.8685653339599E-03 -0.7537503603175E-02
-0.8209662284497E-03 -0.8035152136588E-02
-0.7703072741432E-03 -0.8539830167791E-02
-0.7188160871198E-03 -0.9052252570366E-02
-0.6686284190877E-03 -0.9573116856186E-02
-0.6219142681786E-03 -0.1010307096505E-01
-0.5810666146002E-03 -0.1064271652515E-01
-0.5488971550431E-03 -0.1119259041628E-01
-0.5288096184729E-03 -0.1175318603937E-01
-0.5249527434791E-03 -0.1232496714194E-01
-0.5423538506991E-03 -0.1290837007487E-01
-0.5870350171508E-03 -0.1350382562719E-01
-0.6660831914880E-03 -0.1411157699823E-01
-0.7878515092268E-03 -0.1473149410038E-01
-0.9623274864026E-03 -0.1536310513049E-01
-0.1201551622540E-02 -0.1600554998712E-01
-0.1520133625761E-02 -0.1665755839062E-01
-0.1935895937659E-02 -0.1731751808111E-01
-0.2470669023675E-02 -0.1798355444773E-01
-0.3151418115275E-02 -0.1865338130989E-01
-0.4012276197826E-02 -0.1932274422198E-01
-0.5098365088454E-02 -0.1998065518046E-01
-0.6467143495420E-02 -0.2061781826056E-01
-0.8175001231030E-02 -0.2124753174750E-01
-0.1022340990309E-01 -0.2191980592404E-01
-0.1610247846436E-03 -0.4397916475220E-03
-0.3231028519082E-03 -0.8947387260048E-03
-0.4724454154053E-03 -0.1360624419269E-02
-0.6010309362765E-03 -0.1831561006136E-02
-0.7068167934271E-03 -0.2303298680281E-02
-0.7908830662246E-03 -0.2773958878732E-02
-0.8552945443896E-03 -0.3243246137056E-02
-0.9021682431120E-03 -0.3711619843983E-02
-0.9333910985137E-03 -0.4179833124442E-02
-0.9505766329420E-03 -0.4648728693179E-02
-0.9550954182035E-03 -0.5119150124585E-02
-0.9481294347561E-03 -0.5591912008486E-02
-0.9307393010976E-03 -0.6067774873864E-02
-0.9039507404540E-03 -0.6547421899412E-02
-0.8688667613622E-03 -0.7031441736435E-02
-0.8267955295705E-03 -0.7520311763248E-02
-0.7794958858379E-03 -0.8014515996938E-02
-0.7291447085766E-03 -0.8514655643093E-02
-0.6779105829157E-03 -0.9021346707777E-02
-0.6279141952437E-03 -0.9535178586114E-02
-0.5813476201907E-03 -0.1005668460257E-01
-0.5406429391130E-03 -0.1058633962950E-01
-0.5086519193342E-03 -0.1112453359295E-01
-0.4888109467574E-03 -0.1167158731393E-01
-0.4852903716399E-03 -0.1222776434850E-01
-0.5031282496260E-03 -0.1279327182613E-01
-0.5483524697980E-03 -0.1336827906444E-01
-0.6280660189234E-03 -0.1395273775451E-01
-0.7506486097398E-03 -0.1454620741798E-01
-0.9260986610551E-03 -0.1514789643629E-01
-0.1166413668538E-02 -0.1575662911336E-01
-0.1486049048748E-02 -0.1637084704943E-01
-0.1902475163752E-02 -0.1698871258132E-01
-0.2436839521261E-02 -0.1760825407458E-01
-0.3114853917643E-02 -0.1822738750800E-01
-0.3968228029097E-02 -0.1884290673842E-01
-0.5036761944512E-02 -0.1944717046689E-01
-0.6366116381510E-02 -0.2003691638526E-01
-0.7991406020913E-02 -0.2063022697587E-01
-0.9892041795518E-02 -0.2127172666808E-01
-0.1510779136702E-03 -0.4362640187218E-03
-0.3030164072546E-03 -0.8868321260170E-03
-0.4443837278971E-03 -0.1348526747487E-02
-0.5676963640109E-03 -0.1816486989661E-02
-0.6702803514324E-03 -0.2286720762908E-02
-0.7524367496855E-03 -0.2757045615804E-02
-0.8156869075033E-03 -0.3226730437521E-02
-0.8618316642403E-03 -0.3695869891131E-02
-0.8925826316274E-03 -0.4164948606988E-02
-0.9094574810223E-03 -0.4634610614136E-02
-0.9137771751879E-03 -0.5105543008909E-02
-0.9067035274246E-03 -0.5578425644833E-02
-0.8892981607532E-03 -0.6053892928431E-02
-0.8626026477551E-03 -0.6532505251131E-02
-0.8277391799706E-03 -0.7014733670228E-02
-0.7860192371465E-03 -0.7500947030082E-02
-0.7391652368468E-03 -0.7991534084273E-02
-0.6892850417048E-03 -0.8487007334507E-02
-0.6384928488162E-03 -0.8987883080715E-02
-0.5888917492405E-03 -0.9494641109824E-02
-0.5426890168612E-03 -0.1000769968846E-01
-0.5023488436381E-03 -0.1052741116942E-01
-0.4707574108881E-03 -0.1105403031131E-01
-0.4513788792048E-03 -0.1158772542924E-01
-0.4484004229695E-03 -0.1212858780659E-01
-0.4668655188422E-03 -0.1267663127152E-01
-0.5127997801952E-03 -0.1323180935440E-01
-0.5933064391108E-03 -0.1379384206590E-01
-0.7167639943235E-03 -0.1436205697132E-01
-0.8931400555957E-03 -0.1493544405326E-01
-0.1134330243331E-02 -0.1551264318998E-01
-0.1454553795110E-02 -0.1609197613080E-01
-0.1870814667548E-02 -0.1667159481348E-01
-0.2403411088358E-02 -0.1724970636092E-01
-0.3076541289777E-02 -0.1782477168885E-01
-0.3919099618411E-02 -0.1839496014969E-01
-0.4965257939085E-02 -0.1895586067246E-01
-0.6249897252959E-02 -0.1950883350627E-01
-0.7791804291033E-02 -0.2007409565389E-01
-0.9557562146747E-02 -0.2069034535207E-01
-0.1419338219126E-03 -0.4334012590467E-03
-0.2845075932331E-03 -0.8803150861511E-03
-0.4181501942526E-03 -0.1338305178951E-02
-0.5360096456200E-03 -0.1803360165877E-02
-0.6350647931444E-03 -0.2271834701530E-02
-0.7150109078568E-03 -0.2741417409831E-02
-0.7768775906265E-03 -0.3211060474169E-02
-0.8221482314420E-03 -0.3680544767441E-02
-0.8523459396303E-03 -0.4150100675839E-02
-0.8688802927220E-03 -0.4620173331833E-02
-0.8730135453902E-03 -0.5091288800938E-02
-0.8658807751812E-03 -0.5563988091215E-02
-0.8485389238551E-03 -0.6038778471434E-02
-0.8220387439372E-03 -0.6516100612048E-02
-0.7875137146582E-03 -0.6996313996256E-02
-0.7462727318714E-03 -0.7479685405040E-02
-0.7000021102809E-03 -0.7966512030951E-02
-0.6507461335450E-03 -0.8457218175949E-02
-0.6005683590992E-03 -0.8952221313028E-02
-0.5515521343614E-03 -0.9451893137066E-02
-0.5059134054108E-03 -0.9956539602533E-02
-0.4661408510392E-03 -0.1046639682012E-01
-0.4351479820623E-03 -0.1098159655843E-01
-0.4164201512942E-03 -0.1150217384819E-01
-0.4141546932537E-03 -0.1202807426924E-01
-0.4333927901589E-03 -0.1255915289667E-01
-0.4801467025194E-03 -0.1309519163542E-01
-0.5615011224606E-03 -0.1363573611416E-01
-0.6858029551943E-03 -0.1417995555029E-01
-0.8629450318067E-03 -0.1472671407362E-01
-0.1104660777594E-02 -0.1527458284134E-01
-0.1424852101286E-02 -0.1582190667927E-01
-0.1839947501722E-02 -0.1636700093100E-01
-0.2369246699567E-02 -0.1690845619098E-01
-0.3035230233395E-02 -0.1744548999081E-01
-0.3863754349544E-02 -0.1797774467083E-01
-0.4883433433897E-02 -0.1850365312799E-01
-0.6119758554684E-02 -0.1902788199258E-01
-0.7579362304778E-02 -0.1957106651619E-01
-0.9221984232816E-02 -0.2016623881557E-01
-0.1334536049288E-03 -0.4310430908467E-03
-0.2673351933455E-03 -0.8748733051337E-03
-0.3935488452717E-03 -0.1329588914912E-02
-0.5058853910474E-03 -0.1791868563926E-02
-0.6011734152524E-03 -0.2258437305751E-02
-0.6786558225660E-03 -0.2726971583852E-02
-0.7389354708095E-03 -0.3196207938450E-02
-0.7831914523091E-03 -0.3665668434391E-02
-0.8127532375713E-03 -0.4135351371307E-02
-0.8289137194732E-03 -0.4605509114839E-02
-0.8328687184784E-03 -0.5076506698083E-02
-0.8257201580035E-03 -0.5548745280024E-02
-0.8085142415846E-03 -0.6022605681309E-02
-0.7823040959199E-03 -0.6498412110327E-02
-0.7482272135658E-03 -0.6976417446526E-02
-0.7075848055407E-03 -0.7456791466668E-02
-0.6620271088810E-03 -0.7939742748902E-02
-0.6135389063687E-03 -0.8425608206902E-02
-0.5641358873475E-03 -0.8914708547723E-02
-0.5158795581838E-03 -0.9407310866057E-02
-0.4709882620502E-03 -0.9903613749926E-02
-0.4319671738008E-03 -0.1040374487250E-01
-0.4017490072615E-03 -0.1090772554207E-01
-0.3838323010325E-03 -0.1141547603667E-01
-0.3824161727650E-03 -0.1192682149755E-01
-0.4025296507359E-03 -0.1244149111212E-01
-0.4501580815916E-03 -0.1295913705255E-01
-0.5323465516270E-03 -0.1347918421717E-01
-0.6573783993559E-03 -0.1400071093392E-01
-0.8350270245657E-03 -0.1452253788946E-01
-0.1076804254728E-02 -0.1504326680128E-01
-0.1396217716985E-02 -0.1556138254395E-01
-0.1809022341290E-02 -0.1607549653567E-01
-0.2333397000333E-02 -0.1658472018933E-01
-0.2989968199201E-02 -0.1708912875968E-01
-0.3801487124012E-02 -0.1758977954788E-01
-0.4791338134658E-02 -0.1808745784333E-01
-0.5977107281774E-02 -0.1858904450293E-01
-0.7356615681030E-02 -0.1911455476999E-01
-0.8886565870112E-02 -0.1969194169970E-01
-0.1255334697987E-03 -0.4290739029830E-03
-0.2513079237230E-03 -0.8702734615519E-03
-0.3704050962052E-03 -0.1322086944481E-02
-0.4772278734158E-03 -0.1781748296240E-02
-0.5685863892806E-03 -0.2246341319000E-02
-0.6433994569779E-03 -0.2713603408142E-02
-0.7019118391995E-03 -0.3182136004430E-02
-0.7450214739899E-03 -0.3651255360244E-02
-0.7738662359392E-03 -0.4120754258490E-02
-0.7896175506129E-03 -0.4590703245287E-02
-0.7933987630239E-03 -0.5061310127491E-02
-0.7862727296446E-03 -0.5532837865929E-02
-0.7692688781112E-03 -0.6005542972061E-02
-0.7434360716774E-03 -0.6479636697246E-02
-0.7099091680433E-03 -0.6955269671546E-02
-0.6699771608827E-03 -0.7432518926747E-02
-0.6252538771714E-03 -0.7911507068433E-02
-0.5776674841376E-03 -0.8392484821930E-02
-0.5291876122186E-03 -0.8875679028085E-02
-0.4818516725584E-03 -0.9361256963147E-02
-0.4378742735034E-03 -0.9849316263513E-02
-0.3997688762404E-03 -0.1033988502976E-01
-0.3704785118387E-03 -0.1083288685363E-01
-0.3535057332009E-03 -0.1132814512931E-01
-0.3530415770818E-03 -0.1182538847654E-01
-0.3740912426140E-03 -0.1232425109413E-01
-0.4225976460993E-03 -0.1282429448022E-01
-0.5055436298043E-03 -0.1332487202673E-01
-0.6311163450829E-03 -0.1382503162181E-01
-0.8089258186734E-03 -0.1432362207606E-01
-0.1050205824675E-02 -0.1481935827321E-01
-0.1367999851636E-02 -0.1531095673233E-01
-0.1777306370542E-02 -0.1579741897567E-01
-0.2295093507922E-02 -0.1627845565256E-01
-0.2940065863147E-02 -0.1675501634155E-01
-0.3731928943483E-02 -0.1722942365957E-01
-0.4689315940861E-02 -0.1770431723747E-01
-0.5823329424353E-02 -0.1818794622129E-01
-0.7125573145720E-02 -0.1869912760391E-01
-0.8552089343247E-02 -0.1926141005733E-01
-0.1180940620689E-03 -0.4274086094538E-03
-0.2362728100661E-03 -0.8663400488031E-03
-0.3485660080755E-03 -0.1315570470680E-02
-0.4499388305386E-03 -0.1772778950622E-02
-0.5372679918635E-03 -0.2235379073501E-02
-0.6092514241381E-03 -0.2701211365336E-02
-0.6658419748501E-03 -0.3168803346428E-02
-0.7076854932254E-03 -0.3637313036745E-02
-0.7357360849432E-03 -0.4106355797102E-02
-0.7510425400981E-03 -0.4575834558530E-02
-0.7546515302794E-03 -0.5045806702275E-02
-0.7475817062450E-03 -0.5516400832721E-02
-0.7308399991940E-03 -0.5987752520661E-02
-0.7054647418983E-03 -0.6459963868924E-02
-0.6725821104464E-03 -0.6933087311852E-02
-0.6334647573253E-03 -0.7407110991702E-02
-0.5896893980381E-03 -0.7882074141387E-02
-0.5431294407688E-03 -0.8358142912548E-02
-0.4957093683157E-03 -0.8835453786147E-02
-0.4494399670780E-03 -0.9314079825280E-02
-0.4065260293578E-03 -0.9794025059222E-02
-0.3694809555701E-03 -0.1027522753994E-01
-0.3412486588871E-03 -0.1075752591605E-01
-0.3253256090961E-03 -0.1124066384655E-01
-0.3258836694264E-03 -0.1172429590838E-01
-0.3478910806221E-03 -0.1220799000564E-01
-0.3972313807871E-03 -0.1269125278158E-01
-0.4808016335041E-03 -0.1317341041297E-01
-0.6066604016891E-03 -0.1365353331722E-01
-0.7842123020794E-03 -0.1413055893401E-01
-0.1024361194702E-02 -0.1460338163228E-01
-0.1339625851880E-02 -0.1507101738697E-01
-0.1744183264495E-02 -0.1553291747843E-01
-0.2253734946825E-02 -0.1598942217161E-01
-0.2885057424672E-02 -0.1644231312451E-01
-0.3654962394039E-02 -0.1689498485046E-01
-0.4577881822475E-02 -0.1735147844631E-01
-0.5659714304344E-02 -0.1782078731305E-01
-0.6887820112419E-02 -0.1832025057558E-01
-0.8219032303719E-02 -0.1886966248478E-01
-0.1110734238699E-03 -0.4259835442878E-03
-0.2221062852298E-03 -0.8629395299899E-03
-0.3278986866009E-03 -0.1309859123538E-02
-0.4239220984936E-03 -0.1764777964835E-02
-0.5071721685604E-03 -0.2225403536924E-02
-0.5762067173234E-03 -0.2689700594692E-02
-0.6307469960696E-03 -0.3156167333938E-02
-0.6712184849742E-03 -0.3623844198196E-02
-0.6984035755626E-03 -0.4092196644929E-02
-0.7132304239877E-03 -0.4560976035392E-02
-0.7166666837887E-03 -0.5030098306004E-02
-0.7096826095444E-03 -0.5499563277862E-02
-0.6932574432482E-03 -0.5969389975019E-02
-0.6684132191659E-03 -0.6439575498808E-02
-0.6362619517256E-03 -0.6910078055773E-02
-0.5980561305968E-03 -0.7380800600137E-02
-0.5553343090029E-03 -0.7851701696850E-02
-0.5099161168389E-03 -0.8322864946332E-02
-0.4636809909768E-03 -0.8794340416621E-02
-0.4186102318467E-03 -0.9266113061642E-02
-0.3768927181569E-03 -0.9738101178310E-02
-0.3410333528851E-03 -0.1021016261860E-01
-0.3139671077146E-03 -0.1068206369446E-01
-0.2991735648661E-03 -0.1115348465645E-01
-0.3007933618681E-03 -0.1162402697150E-01
-0.3237435660852E-03 -0.1209321855154E-01
-0.3738304580854E-03 -0.1256054349770E-01
-0.4578415133423E-03 -0.1302533985367E-01
-0.5836752861464E-03 -0.1348674590120E-01
-0.7604918274795E-03 -0.1394383734218E-01
-0.9988190543092E-03 -0.1439573898185E-01
-0.1310601133731E-02 -0.1484181262844E-01
-0.1709147478237E-02 -0.1528198989216E-01
-0.2208869633252E-02 -0.1571723440766E-01
-0.2824660912477E-02 -0.1615008087640E-01
-0.3570652009653E-02 -0.1658479085066E-01
-0.4457638869318E-02 -0.1702642063423E-01
-0.5487423924627E-02 -0.1748426608275E-01
-0.6644607333009E-02 -0.1797409682274E-01
-0.7887673553589E-02 -0.1851253221014E-01
-0.1044222266145E-03 -0.4247504219368E-03
-0.2087074334726E-03 -0.8599693117524E-03
-0.3082879557049E-03 -0.1304810297245E-02
-0.3990861438116E-03 -0.1757595008323E-02
-0.4782466296187E-03 -0.2216287786384E-02
-0.5442489787723E-03 -0.2678984893820E-02
-0.5966357827730E-03 -0.3144186415220E-02
-0.6356441413174E-03 -0.3610848685466E-02
-0.6618995426686E-03 -0.4078312846326E-02
-0.6762140968828E-03 -0.4546195408299E-02
-0.6794758350958E-03 -0.5014281268563E-02
-0.6726034575825E-03 -0.5482448330711E-02
-0.6565439856636E-03 -0.5950604294090E-02
-0.6322979603034E-03 -0.6418645748981E-02
-0.6009582848033E-03 -0.6886440691021E-02
-0.5637536991841E-03 -0.7353810583794E-02
-0.5221832316992E-03 -0.7820636207605E-02
-0.4780129780202E-03 -0.8286921015015E-02
-0.4330767189210E-03 -0.8752632923885E-02
-0.3893230620214E-03 -0.9217675149706E-02
-0.3489188177127E-03 -0.9681888364541E-02
-0.3143518987727E-03 -0.1014506012051E-01
-0.2885382523397E-03 -0.1060689664403E-01
-0.2749292608656E-03 -0.1106703016477E-01
-0.2776215891524E-03 -0.1152502832229E-01
-0.3014661867056E-03 -0.1198040281684E-01
-0.3521737268362E-03 -0.1243264386718E-01
-0.4363985646284E-03 -0.1288113516851E-01
-0.5618494470621E-03 -0.1332512067300E-01
-0.7374063337663E-03 -0.1376385362146E-01
-0.9731818244374E-03 -0.1419672615837E-01
-0.1280506940685E-02 -0.1462347369399E-01
-0.1671796036766E-02 -0.1504451531057E-01
-0.2160176247484E-02 -0.1546140575968E-01
-0.2758741641933E-02 -0.1587733424398E-01
-0.3479189463303E-02 -0.1629723296693E-01
-0.4329224478492E-02 -0.1672685760426E-01
-0.5307486815851E-02 -0.1717550591419E-01
-0.6396921957036E-02 -0.1765740252717E-01
-0.7558159030965E-02 -0.1818649024730E-01
-0.9810046712872E-04 -0.4236722239703E-03
-0.1959928720575E-03 -0.8573499424988E-03
-0.2896338851628E-03 -0.1300310945633E-02
-0.3753452510811E-03 -0.1751106834726E-02
-0.4504357557071E-03 -0.2207923616023E-02
-0.5133532308571E-03 -0.2668987655607E-02
-0.5635068269757E-03 -0.3132821777186E-02
-0.6009759233725E-03 -0.3598324938483E-02
-0.6262454152139E-03 -0.4064736872981E-02
-0.6400179150660E-03 -0.4531555749195E-02
-0.6431027669640E-03 -0.4998446600236E-02
-0.6363649971309E-03 -0.5465173167374E-02
-0.6207156045607E-03 -0.5931537683845E-02
-0.5971290493290E-03 -0.6397341038902E-02
-0.5666746700725E-03 -0.6862365156302E-02
-0.5305540650018E-03 -0.7326353783638E-02
-0.4902251095358E-03 -0.7789113005898E-02
-0.4473999970731E-03 -0.8250568873441E-02
-0.4038656291649E-03 -0.8710611634200E-02
-0.3615343825168E-03 -0.9169069233211E-02
-0.3225447697465E-03 -0.9625712834941E-02
-0.2893591943917E-03 -0.1008026942370E-01
-0.2648643449278E-03 -0.1053239686792E-01
-0.2524717646671E-03 -0.1098169371053E-01
-0.2562209542559E-03 -0.1142771130902E-01
-0.2808814029288E-03 -0.1186996633412E-01
-0.3320497688561E-03 -0.1230798008472E-01
-0.4162245036433E-03 -0.1274121045949E-01
-0.5408968795240E-03 -0.1316903766516E-01
-0.7146353915553E-03 -0.1359092216128E-01
-0.9471050340137E-03 -0.1400654786974E-01
-0.1248996493289E-02 -0.1441603599730E-01
-0.1631818871532E-02 -0.1482028229634E-01
-0.2107444662486E-02 -0.1522138349889E-01
-0.2687280297471E-02 -0.1562307779597E-01
-0.3380851735837E-02 -0.1603079113480E-01
-0.4193276777560E-02 -0.1645072796967E-01
-0.5120804838633E-02 -0.1689199119809E-01
-0.6145543030536E-02 -0.1736735557295E-01
-0.7230541890317E-02 -0.1788851479912E-01
-0.9207512903415E-04 -0.4227203308826E-03
-0.1838928634357E-03 -0.8550195033343E-03
-0.2718494490305E-03 -0.1296271269168E-02
-0.3526198809091E-03 -0.1745212773089E-02
-0.4236825871899E-03 -0.2200219733297E-02
-0.4834880803011E-03 -0.2659642062720E-02
-0.5313499258703E-03 -0.3122038403158E-02
-0.5672181478827E-03 -0.3586271132931E-02
-0.5914538624845E-03 -0.4051498500001E-02
-0.6046580952392E-03 -0.4517116014642E-02
-0.6075637266233E-03 -0.4982680256055E-02
-0.6009809723520E-03 -0.5447849091886E-02
-0.5857817533716E-03 -0.5912325601689E-02
-0.5629104724347E-03 -0.6375820056574E-02
-0.5334089130348E-03 -0.6838032597390E-02
-0.4984483121329E-03 -0.7298633142240E-02
-0.4594435494614E-03 -0.7757356374082E-02
-0.4180520466824E-03 -0.8214053983912E-02
-0.3760120858988E-03 -0.8668543167356E-02
-0.3351959761777E-03 -0.9120583037671E-02
-0.2977076297119E-03 -0.9569883210889E-02
-0.2659754268785E-03 -0.1001611949367E-01
-0.2428465071984E-03 -0.1045891245783E-01
-0.2316807710675E-03 -0.1089784014103E-01
-0.2364471491219E-03 -0.1133245336406E-01
-0.2618182286986E-03 -0.1176229232706E-01
-0.3132585438330E-03 -0.1218693071602E-01
-0.3970889957326E-03 -0.1260592413809E-01
-0.5205582229494E-03 -0.1301881287504E-01
-0.6918963417588E-03 -0.1342528561297E-01
-0.9202956220844E-03 -0.1382533174446E-01
-0.1215790045802E-02 -0.1421945791199E-01
-0.1588988549989E-02 -0.1460901276999E-01
-0.2050557880006E-02 -0.1499657634642E-01
-0.2610346073379E-02 -0.1538633192235E-01
-0.3275969897443E-02 -0.1578404635475E-01
-0.4050414422250E-02 -0.1619617993823E-01
-0.4928166555952E-02 -0.1663151442873E-01
-0.5891085797285E-02 -0.1710150826738E-01
-0.6904802594481E-02 -0.1761598989284E-01
-0.8631849560906E-04 -0.4218724792867E-03
-0.1723483477669E-03 -0.8529295138131E-03
-0.2548584304938E-03 -0.1292619842599E-02
-0.3308365385883E-03 -0.1739830877796E-02
-0.3979301325065E-03 -0.2193099823403E-02
-0.4546174498147E-03 -0.2650890792444E-02
-0.5001476758739E-03 -0.3111805655421E-02
-0.5343670511022E-03 -0.3574685997450E-02
-0.5575294924847E-03 -0.4038625514234E-02
-0.5701431802791E-03 -0.4502931531276E-02
-0.5728677727767E-03 -0.4967063408096E-02
-0.5664584239929E-03 -0.5430581659571E-02
-0.5517456431303E-03 -0.5893096808429E-02
-0.5296403920070E-03 -0.6354233801151E-02
-0.5011533399091E-03 -0.6813615430368E-02
-0.4674223053082E-03 -0.7270841786341E-02
-0.4298171643813E-03 -0.7725579626728E-02
-0.3899392940366E-03 -0.8177609575105E-02
-0.3494761901273E-03 -0.8626680462695E-02
-0.3102560026806E-03 -0.9072488884315E-02
-0.2743416839231E-03 -0.9514690582314E-02
-0.2441191171873E-03 -0.9952919098966E-02
-0.2223856320244E-03 -0.1038676798977E-01
-0.2124376633972E-03 -0.1081580673811E-01
-0.2181601575357E-03 -0.1123959953894E-01
-0.2441135202195E-03 -0.1165772607939E-01
-0.2956126500770E-03 -0.1206983019547E-01
-0.3787806881713E-03 -0.1247558393857E-01
-0.5006012381705E-03 -0.1287470528562E-01
-0.6689436938000E-03 -0.1326712450474E-01
-0.8925094426464E-03 -0.1365314115416E-01
-0.1180669295036E-02 -0.1403363723451E-01
-0.1543150016180E-02 -0.1441038184597E-01
-0.1989475700468E-02 -0.1478637568530E-01
-0.2528074551985E-02 -0.1516615019550E-01
-0.3164906597864E-02 -0.1555568552540E-01
-0.3901224293572E-02 -0.1596155216338E-01
-0.4730263083888E-02 -0.1639213841696E-01
-0.5634041343928E-02 -0.1685770648948E-01
-0.6580849615049E-02 -0.1736662489335E-01
-0.8080691178701E-04 -0.4211112788512E-03
-0.1613086641482E-03 -0.8510419002383E-03
-0.2385936058990E-03 -0.1289299836186E-02
-0.3099273731456E-03 -0.1734894689263E-02
-0.3731221847429E-03 -0.2186500644523E-02
-0.4267019085204E-03 -0.2642685419451E-02
-0.4698767562845E-03 -0.3102097499093E-02
-0.5024117918371E-03 -0.3563569357933E-02
-0.5244695670661E-03 -0.4026144262323E-02
-0.5364745469236E-03 -0.4489054412023E-02
-0.5390171614979E-03 -0.4951672708999E-02
-0.5327980132016E-03 -0.5413470823807E-02
-0.5186045353220E-03 -0.5873973451865E-02
-0.4973114235585E-03 -0.6332725648617E-02
-0.4698950742441E-03 -0.6789277413411E-02
-0.4374569884200E-03 -0.7243163108450E-02
-0.4013199132573E-03 -0.7693985194751E-02
-0.3630275905045E-03 -0.8141456720806E-02
-0.3242142205208E-03 -0.8585262854587E-02
-0.2866594985698E-03 -0.9025043786867E-02
-0.2523790275853E-03 -0.9460408682157E-02
-0.2237077985250E-03 -0.9890957152487E-02
-0.2033831773514E-03 -0.1031626514896E-01
-0.1946264214964E-03 -0.1073590426739E-01
-0.2012252498490E-03 -0.1114946414753E-01
-0.2276129904842E-03 -0.1155657738200E-01
-0.2789382333591E-03 -0.1195697234248E-01
-0.3611078045067E-03 -0.1235045183463E-01
-0.4808207601118E-03 -0.1273692357783E-01
-0.6455679408564E-03 -0.1311656617944E-01
-0.8635482195435E-03 -0.1348998674657E-01
-0.1143471497824E-02 -0.1385842539349E-01
-0.1494210783252E-02 -0.1422403403593E-01
-0.1924220342183E-02 -0.1459017153244E-01
-0.2440650010322E-02 -0.1496163052545E-01
-0.3048039487776E-02 -0.1534450100936E-01
-0.3746257161590E-02 -0.1574535597749E-01
-0.4527693731954E-02 -0.1617215653316E-01
-0.5374834621860E-02 -0.1663407515042E-01
-0.6258470262037E-02 -0.1713832813494E-01
-0.7551986191145E-04 -0.4204231167400E-03
-0.1507297891772E-03 -0.8493267201960E-03
-0.2229952003230E-03 -0.1286266067575E-02
-0.2898296453263E-03 -0.1730350531386E-02
-0.3492037917902E-03 -0.2180370241790E-02
-0.3996996743304E-03 -0.2634985650093E-02
-0.4405090101279E-03 -0.3092892466474E-02
-0.4713353713695E-03 -0.3552922458096E-02
-0.4922647071582E-03 -0.4014080053089E-02
-0.5036469344345E-03 -0.4475533899625E-02
-0.5060077578672E-03 -0.4936580535056E-02
-0.4999943640681E-03 -0.5396611092099E-02
-0.4863500447342E-03 -0.5855071169941E-02
-0.4659109173238E-03 -0.6311431434056E-02
-0.4396163158222E-03 -0.6765173727445E-02
-0.4085286826301E-03 -0.7215770852858E-02
-0.3739214364253E-03 -0.7662764717886E-02
-0.3372788515983E-03 -0.8105804441025E-02
-0.3001790586704E-03 -0.8544516192552E-02
-0.2643488514410E-03 -0.8978489618120E-02
-0.2317500989167E-03 -0.9407294151863E-02
-0.2046586241570E-03 -0.9830503156093E-02
-0.1857418550052E-03 -0.1024768345953E-01
-0.1781343828619E-03 -0.1065841812355E-01
-0.1855137814390E-03 -0.1106233248445E-01
-0.2121719702600E-03 -0.1145912301625E-01
-0.2630755789509E-03 -0.1184861384258E-01
-0.3438983583960E-03 -0.1223074879406E-01
-0.4610382191013E-03 -0.1260563246417E-01
-0.6215939362336E-03 -0.1297369299781E-01
-0.8332561613506E-03 -0.1333583668703E-01
-0.1104083575160E-02 -0.1369363955173E-01
-0.1442131837294E-02 -0.1404959629203E-01
-0.1854864098465E-02 -0.1440736430697E-01
-0.2348291320211E-02 -0.1477192184999E-01
-0.2925750071409E-02 -0.1514938694985E-01
-0.3586023993186E-02 -0.1554625908596E-01
-0.4320985733041E-02 -0.1597005768995E-01
-0.5113792505778E-02 -0.1642899828973E-01
-0.5937630362846E-02 -0.1692919910596E-01
-0.7043927349516E-04 -0.4197973354060E-03
-0.1405729662951E-03 -0.8477604328457E-03
-0.2080095892283E-03 -0.1283482686619E-02
-0.2704851494479E-03 -0.1726155266763E-02
-0.3261214884213E-03 -0.2174666321456E-02
-0.3735673551937E-03 -0.2627758480007E-02
-0.4120123399510E-03 -0.3084173441989E-02
-0.4411154595659E-03 -0.3542748103088E-02
-0.4608995689210E-03 -0.4002457432592E-02
-0.4716489769593E-03 -0.4462416638612E-02
-0.4738294614307E-03 -0.4921855201375E-02
-0.4680364185457E-03 -0.5380091680943E-02
-0.4549684500740E-03 -0.5836499204030E-02
-0.4354212440910E-03 -0.6290479544921E-02
-0.4102946212361E-03 -0.6741451064716E-02
-0.3806093824329E-03 -0.7188829208356E-02
-0.3475873833008E-03 -0.7632099148117E-02
-0.3126514229707E-03 -0.8070849825024E-02
-0.2773205932018E-03 -0.8504652999843E-02
-0.2432642425956E-03 -0.8933053333555E-02
-0.2123841652995E-03 -0.9355586879484E-02
-0.1868889034829E-03 -0.9771807726112E-02
-0.1693662169257E-03 -0.1018128109395E-01
-0.1628528638164E-03 -0.1058360954308E-01
-0.1709038076991E-03 -0.1097846258513E-01
-0.1976559373575E-03 -0.1136560923235E-01
-0.2478794225016E-03 -0.1174497764405E-01
-0.3270000432380E-03 -0.1211665931642E-01
-0.4411008169770E-03 -0.1248095859114E-01
-0.5968789567449E-03 -0.1283854977776E-01
-0.8015164078566E-03 -0.1319062564486E-01
-0.1062436398283E-02 -0.1353907278684E-01
-0.1386919408297E-02 -0.1388668835145E-01
-0.1781518884702E-02 -0.1423737331082E-01
-0.2251241052995E-02 -0.1459622751212E-01
-0.2798415675202E-02 -0.1496933441492E-01
-0.3420997009102E-02 -0.1536306736875E-01
-0.4110599046991E-02 -0.1578451159207E-01
-0.4851184785366E-02 -0.1624102538168E-01
-0.5618273445332E-02 -0.1673781406675E-01
-0.6554898544972E-04 -0.4192256065718E-03
-0.1308036323697E-03 -0.8463245683336E-03
-0.1935882149598E-03 -0.1280921344784E-02
-0.2518396396522E-03 -0.1722274435562E-02
-0.3038233697532E-03 -0.2169354799133E-02
-0.3482604875146E-03 -0.2620977336048E-02
-0.3843514418553E-03 -0.3075927330315E-02
-0.4117251258550E-03 -0.3533050668251E-02
-0.4303534794315E-03 -0.3991300352114E-02
-0.4404637275443E-03 -0.4449746880750E-02
-0.4424666368174E-03 -0.4907561145765E-02
-0.4369077992572E-03 -0.5363996662902E-02
-0.4244410110889E-03 -0.5818360516178E-02
-0.4058200855260E-03 -0.6269991021839E-02
-0.3819031864868E-03 -0.6718247725128E-02
-0.3536670495348E-03 -0.7162492909829E-02
-0.3222797317289E-03 -0.7602158866595E-02
-0.2891004309001E-03 -0.8036778176781E-02
-0.2555861004158E-03 -0.8465872667098E-02
-0.2233440557857E-03 -0.8888947243897E-02
-0.1942097603276E-03 -0.9305510398190E-02
-0.1703165677288E-03 -0.9715103184671E-02
-0.1541631435706E-03 -0.1011729574490E-01
-0.1486776498576E-03 -0.1051171686525E-01
-0.1572805308303E-03 -0.1089808700501E-01
-0.1839408383523E-03 -0.1127625419679E-01
-0.2332190168592E-03 -0.1164625624076E-01
-0.3102798530761E-03 -0.1200833572501E-01
-0.4208804382382E-03 -0.1236299599270E-01
-0.5713105636051E-03 -0.1271115048376E-01
-0.7682474452740E-03 -0.1305426261087E-01
-0.1018499397449E-02 -0.1339450257526E-01
-0.1328617659111E-02 -0.1373493084950E-01
-0.1704327556388E-02 -0.1407964264225E-01
-0.2149757049724E-02 -0.1443380654275E-01
-0.2666404426949E-02 -0.1480342501935E-01
-0.3251610884871E-02 -0.1519471177905E-01
-0.3896935102788E-02 -0.1561433646780E-01
-0.4587241742462E-02 -0.1606889652485E-01
-0.5300222079371E-02 -0.1656286819595E-01
-0.6083433781314E-04 -0.4187014482712E-03
-0.1213905719366E-03 -0.8450046928026E-03
-0.1796866864851E-03 -0.1278559737702E-02
-0.2338422884986E-03 -0.1718680712620E-02
-0.2822590624972E-03 -0.2164408519939E-02
-0.3237339192716E-03 -0.2614621241163E-02
-0.3574884011117E-03 -0.3068144654700E-02
-0.3831334780121E-03 -0.3523836008585E-02
-0.4006010243458E-03 -0.3980632248467E-02
-0.4100691636387E-03 -0.4437566630455E-02
-0.4118985408301E-03 -0.4893759079948E-02
-0.4065871742181E-03 -0.5348405100868E-02
-0.3947442884783E-03 -0.5800751904838E-02
-0.3770807263951E-03 -0.6250079662843E-02
-0.3544111291702E-03 -0.6695693718061E-02
-0.3276659019285E-03 -0.7136907347552E-02
-0.2979570961252E-03 -0.7573103812407E-02
-0.2665781140579E-03 -0.8003763179117E-02
-0.2349205978821E-03 -0.8428361673627E-02
-0.2045252486230E-03 -0.8846369324715E-02
-0.1771550694725E-03 -0.9257272328866E-02
-0.1548605652388E-03 -0.9660604196718E-02
-0.1400422377583E-03 -0.1005594553623E-01
-0.1355093628706E-03 -0.1044295681440E-01
-0.1445365921667E-03 -0.1082141458757E-01
-0.1709132249004E-03 -0.1119125037443E-01
-0.2189779885511E-03 -0.1155261480492E-01
-0.2936234839025E-03 -0.1190590217953E-01
-0.4002723645585E-03 -0.1225181107398E-01
-0.5448043490830E-03 -0.1259148417878E-01
-0.7333995904973E-03 -0.1292663762685E-01
-0.9722755719345E-03 -0.1325969778516E-01
-0.1267302291687E-02 -0.1359395157873E-01
-0.1623456762206E-02 -0.1393364517504E-01
-0.2044106074891E-02 -0.1428397334021E-01
-0.2530072120025E-02 -0.1465082468713E-01
-0.3078264768191E-02 -0.1504023437687E-01
-0.3680347730839E-02 -0.1545848198982E-01
-0.4322140590087E-02 -0.1591150281994E-01
-0.4983334036326E-02 -0.1640318674386E-01
-0.5628185249409E-04 -0.4182198477663E-03
-0.1123052471660E-03 -0.8437895949992E-03
-0.1662640334971E-03 -0.1276380436948E-02
-0.2164451922252E-03 -0.1715352627114E-02
-0.2613796340788E-03 -0.2159806140084E-02
-0.2999420766574E-03 -0.2608674025533E-02
-0.3313831724579E-03 -0.3060819120215E-02
-0.3553062159610E-03 -0.3515111298555E-02
-0.3716125851237E-03 -0.3970476055085E-02
-0.3804386682372E-03 -0.4425915738303E-02
-0.3820997404764E-03 -0.4880506109282E-02
-0.3770486196804E-03 -0.5333391167245E-02
-0.3658504644733E-03 -0.5783764115985E-02
-0.3491723475057E-03 -0.6230852128692E-02
-0.3277837693769E-03 -0.6673910868571E-02
-0.3025666973641E-03 -0.7112208683839E-02
-0.2745750236607E-03 -0.7545083622652E-02
-0.2450341357637E-03 -0.7971967074483E-02
-0.2152671701115E-03 -0.8392293831827E-02
-0.1867436860346E-03 -0.8805503555472E-02
-0.1611482647838E-03 -0.9211064856121E-02
-0.1404411887942E-03 -0.9608508439432E-02
-0.1269161294199E-03 -0.9997429957523E-02
-0.1232537148945E-03 -0.1037752578638E-01
-0.1325722254674E-03 -0.1074863220219E-01
-0.1584702278416E-03 -0.1111076682607E-01
-0.2050540173449E-03 -0.1146419415209E-01
-0.2769345616313E-03 -0.1180945839883E-01
-0.3791938534545E-03 -0.1214744713262E-01
-0.5173016423501E-03 -0.1247952028288E-01
-0.6969516184785E-03 -0.1280762753801E-01
-0.9237969472366E-03 -0.1313442439249E-01
-0.1203075025143E-02 -0.1346339025744E-01
-0.1539091138955E-02 -0.1379888506776E-01
-0.1934559119615E-02 -0.1414609641104E-01
-0.2389760403632E-02 -0.1451077734463E-01
-0.2901325653268E-02 -0.1489877627623E-01
-0.3461148046305E-02 -0.1531601377199E-01
-0.4056024869093E-02 -0.1576785404304E-01
-0.4667491248979E-02 -0.1625770646938E-01
-0.5187898306072E-04 -0.4177769639127E-03
-0.1035212644550E-03 -0.8426706409448E-03
-0.1532820894550E-03 -0.1274369947549E-02
-0.1996029283131E-03 -0.1712273498360E-02
-0.2411374672191E-03 -0.2155531155420E-02
-0.2768391446297E-03 -0.2603123596667E-02
-0.3059939656912E-03 -0.3053947166709E-02
-0.3282061091115E-03 -0.3506884825952E-02
-0.3433548258277E-03 -0.3960854160191E-02
-0.3515414827834E-03 -0.4414831950937E-02
-0.3530405174083E-03 -0.4867855823322E-02
-0.3482619774109E-03 -0.5319024246996E-02
-0.3377276614486E-03 -0.5767481947338E-02
-0.3220603174106E-03 -0.6212408047091E-02
-0.3019829076642E-03 -0.6653012926268E-02
-0.2783270097850E-03 -0.7088523975550E-02
-0.2520862772797E-03 -0.7518237781799E-02
-0.2244158756839E-03 -0.7941540858999E-02
-0.1965672654012E-03 -0.8357830549102E-02
-0.1699344352633E-03 -0.8766520279627E-02
-0.1461177891413E-03 -0.9167065226474E-02
-0.1269803373625E-03 -0.9558997290171E-02
-0.1147006965261E-03 -0.9941930806266E-02
-0.1118216576845E-03 -0.1031560112132E-01
-0.1212952857486E-03 -0.1067990643310E-01
-0.1465193906042E-03 -0.1103495140245E-01
-0.1913583690909E-03 -0.1138111352263E-01
-0.2601337370619E-03 -0.1171908308668E-01
-0.3575826314964E-03 -0.1204992842928E-01
-0.4887672307087E-03 -0.1237521318518E-01
-0.6589075817402E-03 -0.1269710087368E-01
-0.8731204928620E-03 -0.1301845011362E-01
-0.1136058877996E-02 -0.1334290210097E-01
-0.1451428654309E-02 -0.1367489919413E-01
-0.1821387969235E-02 -0.1401959652199E-01
-0.2245796154321E-02 -0.1438259883191E-01
-0.2721131317880E-02 -0.1476956757623E-01
-0.3239611516217E-02 -0.1518609779713E-01
-0.3789015688568E-02 -0.1563706202981E-01
-0.4352590983626E-02 -0.1612546948232E-01
-0.4761391751084E-04 -0.4173698899246E-03
-0.9501394801284E-04 -0.8416412575068E-03
-0.1407049818251E-03 -0.1272517942973E-02
-0.1832721659029E-03 -0.1709430549493E-02
-0.2214861186947E-03 -0.2151571061290E-02
-0.2543791849527E-03 -0.2597961274138E-02
-0.2812775545897E-03 -0.3047527528706E-02
-0.3017934064168E-03 -0.3499165758394E-02
-0.3157911315389E-03 -0.3951788326185E-02
-0.3233431299955E-03 -0.4404350925473E-02
-0.3246872557103E-03 -0.4855858360389E-02
-0.3201932035445E-03 -0.5305369024631E-02
-0.3103402563164E-03 -0.5751984344362E-02
-0.2957064811123E-03 -0.6194840114133E-02
-0.2769670986553E-03 -0.6633105675271E-02
-0.2549014975775E-03 -0.7065971300763E-02
-0.2304411047369E-03 -0.7492695778047E-02
-0.2046687004704E-03 -0.7912624486246E-02
-0.1787609636544E-03 -0.8325121101969E-02
-0.1540320227154E-03 -0.8729576578244E-02
-0.1319925913770E-03 -0.9125436258799E-02
-0.1144017153484E-03 -0.9512236520883E-02
-0.1033152079087E-03 -0.9889613123670E-02
-0.1011294374555E-03 -0.1025734234752E-01
-0.1106211678559E-03 -0.1061538520372E-01
-0.1349783821670E-03 -0.1096393282076E-01
-0.1778153092782E-03 -0.1130347316989E-01
-0.2431576829189E-03 -0.1163483706092E-01
-0.3353953434407E-03 -0.1195926382727E-01
-0.4591871383673E-03 -0.1227850626263E-01
-0.6192938518280E-03 -0.1259492196153E-01
-0.8203244931781E-03 -0.1291154812893E-01
-0.1066394177825E-02 -0.1323216044529E-01
-0.1360676904612E-02 -0.1356125779624E-01
-0.1704862803867E-02 -0.1390394450628E-01
-0.2098491497050E-02 -0.1426567134935E-01
-0.2537993485559E-02 -0.1465191832409E-01
-0.3015984405025E-02 -0.1506798837295E-01
-0.3521217864039E-02 -0.1551833029092E-01
-0.4038540009937E-02 -0.1600561684484E-01
-0.4347542211937E-04 -0.4169964626340E-03
-0.8675999779962E-04 -0.8406965159177E-03
-0.1284987112118E-03 -0.1270816640717E-02
-0.1674113266996E-03 -0.1706814167795E-02
-0.2023801746364E-03 -0.2147916628208E-02
-0.2325162097388E-03 -0.2593181190150E-02
-0.2571895244849E-03 -0.3041560813791E-02
-0.2760261882119E-03 -0.3491963896769E-02
-0.2888820016583E-03 -0.3943299582101E-02
-0.2958058062557E-03 -0.4394506216017E-02
-0.2970028111409E-03 -0.4844560449750E-02
-0.2928047068623E-03 -0.5292485555983E-02
-0.2836491887997E-03 -0.5737344487393E-02
-0.2700694441788E-03 -0.6178234191728E-02
-0.2526919189668E-03 -0.6614287043717E-02
-0.2322421626776E-03 -0.7044659887753E-02
-0.2095874931002E-03 -0.7468577264180E-02
-0.1857362131982E-03 -0.7885347077225E-02
-0.1617872154511E-03 -0.8294302917224E-02
-0.1389706535202E-03 -0.8694816650115E-02
-0.1187023141277E-03 -0.9086326858066E-02
-0.1026309728523E-03 -0.9468376988193E-02
-0.9268239391406E-04 -0.9840626112041E-02
-0.9109856405782E-04 -0.1020289238367E-01
-0.1004726282780E-03 -0.1055519932409E-01
-0.1237746082162E-03 -0.1089782261314E-01
-0.1643614216588E-03 -0.1123135675035E-01
-0.2259580227531E-03 -0.1155676609197E-01
-0.3126059902322E-03 -0.1187545002608E-01
-0.4285664927700E-03 -0.1218933536082E-01
-0.5781563971456E-03 -0.1250095437472E-01
-0.7655053504523E-03 -0.1281350005113E-01
-0.9942352138673E-03 -0.1313085863046E-01
-0.1267050213058E-02 -0.1345756458306E-01
-0.1585250577087E-02 -0.1379865894813E-01
-0.1948144311621E-02 -0.1415943838927E-01
-0.2352200962303E-02 -0.1454521078217E-01
-0.2790488973424E-02 -0.1496101891698E-01
-0.3252723423918E-02 -0.1541094603850E-01
-0.3725251716779E-02 -0.1589738095996E-01
-0.3945271742778E-04 -0.4166551079698E-03
-0.7873721438938E-04 -0.8398327936196E-03
-0.1166308040976E-03 -0.1269260290163E-02
-0.1519802924683E-03 -0.1704417286264E-02
-0.1837751102349E-03 -0.2144561279002E-02
-0.2112042240591E-03 -0.2588779754343E-02
-0.2336844712551E-03 -0.3036049106855E-02
-0.2508606683485E-03 -0.3485289426345E-02
-0.2625854020442E-03 -0.3935408098973E-02
-0.2688887442820E-03 -0.4385329239129E-02
-0.2699468608801E-03 -0.4834005435115E-02
-0.2660556749937E-03 -0.5280429326085E-02
-0.2576122620713E-03 -0.5723629869746E-02
-0.2451048509298E-03 -0.6162669400028E-02
-0.2291102283775E-03 -0.6596647211389E-02
-0.2102985997992E-03 -0.7024690244371E-02
-0.1894714084258E-03 -0.7445992220342E-02
-0.1675604817777E-03 -0.7859827132903E-02
-0.1455840530407E-03 -0.8265501855279E-02
-0.1246843951120E-03 -0.8662372191944E-02
-0.1061774367235E-03 -0.9049872524313E-02
-0.9159579077076E-04 -0.9427555309633E-02
-0.8272845092608E-04 -0.9795104023050E-02
-0.8165570356611E-04 -0.1015237868838E-01
-0.9077952284944E-04 -0.1049946395094E-01
-0.1128447373732E-03 -0.1083671693994E-01
-0.1509448531654E-03 -0.1116483351426E-01
-0.2085002164194E-03 -0.1148490346024E-01
-0.2892043812640E-03 -0.1179847441671E-01
-0.3969274982718E-03 -0.1210763179213E-01
-0.5355583002643E-03 -0.1241506380376E-01
-0.7087747896258E-03 -0.1272409827222E-01
-0.9197474519959E-03 -0.1303871131138E-01
-0.1170767385173E-02 -0.1336345645353E-01
-0.1462813990771E-02 -0.1370330386639E-01
-0.1795039059798E-02 -0.1406340019091E-01
-0.2164022544164E-02 -0.1444889293995E-01
-0.2563327544269E-02 -0.1486459463790E-01
-0.2983613968302E-02 -0.1531427326456E-01
-0.3412644817877E-02 -0.1580007797600E-01
-0.3553537958659E-04 -0.4163447149865E-03
-0.7092427722349E-04 -0.8390474981445E-03
-0.1050700264907E-03 -0.1267844750790E-02
-0.1369401545395E-03 -0.1702234865791E-02
-0.1656271585778E-03 -0.2141500554457E-02
-0.1903972477118E-03 -0.2584755179630E-02
-0.2107161622091E-03 -0.3030995604586E-02
-0.2262514543653E-03 -0.3479152673477E-02
-0.2368570802329E-03 -0.3928133055993E-02
-0.2425485475514E-03 -0.4376849224241E-02
-0.2434762336047E-03 -0.4824233283068E-02
-0.2399023876284E-03 -0.5269251294736E-02
-0.2321844346408E-03 -0.5710902366968E-02
-0.2207656556319E-03 -0.6148218204190E-02
-0.2061724233886E-03 -0.6580268714155E-02
-0.1890182352815E-03 -0.7006154285937E-02
-0.1700370205592E-03 -0.7425041116139E-02
-0.1500822468009E-03 -0.7836172745868E-02
-0.1300887742615E-03 -0.8238832491059E-02
-0.1111073265157E-03 -0.8632362772687E-02
-0.9434937575491E-04 -0.9016195849571E-02
-0.8122591479771E-04 -0.9389894517570E-02
-0.7338298579271E-04 -0.9753167007728E-02
-0.7273250287679E-04 -0.1010591434777E-01
-0.8147847201817E-04 -0.1044827995290E-01
-0.1021341575322E-03 -0.1078069826314E-01
-0.1375245032843E-03 -0.1110396029871E-01
-0.1907624221385E-03 -0.1141927224512E-01
-0.2651946196381E-03 -0.1172831758799E-01
-0.3643075286688E-03 -0.1203332490408E-01
-0.4915775092390E-03 -0.1233712043604E-01
-0.6502574296987E-03 -0.1264314780328E-01
-0.8431052352560E-03 -0.1295545533225E-01
-0.1072050000407E-02 -0.1327860297638E-01
-0.1337810922541E-02 -0.1361748648165E-01
-0.1639447796114E-02 -0.1397710972646E-01
-0.1973709619543E-02 -0.1436247307309E-01
-0.2334685730526E-02 -0.1477818648185E-01
-0.2713962488786E-02 -0.1522774657875E-01
-0.3100642808079E-02 -0.1571310076561E-01
-0.3171326183229E-04 -0.4160645326553E-03
-0.6330056566284E-04 -0.8383388406452E-03
-0.9378614795132E-04 -0.1266567143765E-02
-0.1222530005647E-03 -0.1700263461280E-02
-0.1478931911802E-03 -0.2138731656031E-02
-0.1700493235401E-03 -0.2581107065050E-02
-0.1882376673392E-03 -0.3026404282448E-02
-0.2021517725556E-03 -0.3473563873564E-02
-0.2116508480150E-03 -0.3921492503804E-02
-0.2167394984316E-03 -0.4369093154191E-02
-0.2175452203025E-03 -0.4815280579825E-02
-0.2142985163301E-03 -0.5258997931458E-02
-0.2073181027595E-03 -0.5699218297671E-02
-0.1970023859405E-03 -0.6134946494944E-02
-0.1838266825783E-03 -0.6565226544028E-02
-0.1683465552923E-03 -0.6989135459829E-02
-0.1512269132510E-03 -0.7405815069559E-02
-0.1332411095300E-03 -0.7814481807763E-02
-0.1152381006699E-03 -0.8214398388157E-02
-0.9817365530681E-04 -0.8604896196637E-02
-0.8315054622152E-04 -0.8985406996282E-02
-0.7145314252638E-04 -0.9355504683470E-02
-0.6457890609801E-04 -0.9714921920377E-02
-0.6426535444638E-04 -0.1006359909388E-01
-0.7251246432704E-04 -0.1040173517459E-01
-0.9159637551277E-04 -0.1072983687755E-01
-0.1240691731139E-03 -0.1104878332676E-01
-0.1727343508681E-03 -0.1135988735946E-01
-0.2405936334777E-03 -0.1166495551322E-01
-0.3307573434495E-03 -0.1196634426770E-01
-0.4463048115091E-03 -0.1226700091688E-01
-0.5900886844281E-03 -0.1257046770382E-01
-0.7644898993259E-03 -0.1288085027409E-01
-0.9711211382087E-03 -0.1320270572498E-01
-0.1210494191249E-02 -0.1354085512273E-01
-0.1481631266925E-02 -0.1390016918935E-01
-0.1781498473175E-02 -0.1428551514747E-01
-0.2104735067994E-02 -0.1470132600247E-01
-0.2443834882473E-02 -0.1515086574649E-01
-0.2789173716787E-02 -0.1563591269541E-01
-0.2797643204150E-04 -0.4158140850172E-03
-0.5584601447628E-04 -0.8377056495995E-03
-0.8274974725540E-04 -0.1265425563611E-02
-0.1078817338784E-03 -0.1698500858160E-02
-0.1305306112911E-03 -0.2136253055737E-02
-0.1501145176268E-03 -0.2577836031322E-02
-0.1662014677351E-03 -0.3022279594979E-02
-0.1785136639187E-03 -0.3468532954240E-02
-0.1869188354981E-03 -0.3915503229829E-02
-0.1914138422763E-03 -0.4362085700242E-02
-0.1921058666851E-03 -0.4807180519355E-02
-0.1891954109807E-03 -0.5249711241540E-02
-0.1829633729729E-03 -0.5688628476473E-02
-0.1737633981233E-03 -0.6122913662648E-02
-0.1620192034153E-03 -0.6551588243798E-02
-0.1482273233582E-03 -0.6973708865067E-02
-0.1329822800002E-03 -0.7388396000354E-02
-0.1169757009643E-03 -0.7794842209379E-02
-0.1009683113949E-03 -0.8192292362283E-02
-0.8581780445137E-04 -0.8580068850398E-02
-0.7251438634979E-04 -0.8957604151444E-02
-0.6221126791646E-04 -0.9324483506064E-02
-0.5625226206198E-04 -0.9680463069731E-02
-0.5619510877666E-04 -0.1002552024750E-01
-0.6383040770008E-04 -0.1035990559558E-01
-0.8119237143896E-04 -0.1068419229902E-01
-0.1105566866098E-03 -0.1099933981840E-01
-0.1544161248954E-03 -0.1130675734473E-01
-0.2154297615299E-03 -0.1160836144558E-01
-0.2963394274537E-03 -0.1190662153146E-01
-0.3998420149402E-03 -0.1220458995678E-01
-0.5284129548240E-03 -0.1250589218158E-01
-0.6840882394482E-03 -0.1281467876204E-01
-0.8682044537822E-03 -0.1313549754025E-01
-0.1081111571461E-02 -0.1347309730472E-01
-0.1321840039446E-02 -0.1383222693935E-01
-0.1587612329122E-02 -0.1421763491168E-01
-0.1873635218490E-02 -0.1463360096823E-01
-0.2173291246031E-02 -0.1508319090389E-01
-0.2478169933150E-02 -0.1556804222256E-01
-0.2431512317206E-04 -0.4155931013259E-03
-0.4854099710525E-04 -0.8371472173772E-03
-0.7193205242530E-04 -0.1264418839568E-02
-0.9378992108718E-04 -0.1696945768388E-02
-0.1134972600735E-03 -0.2134064164701E-02
-0.1305469151199E-03 -0.2574943404802E-02
-0.1445595465434E-03 -0.3018626209253E-02
-0.1552881561433E-03 -0.3464069336460E-02
-0.1626117205372E-03 -0.3910180629441E-02
-0.1665220498851E-03 -0.4355849155160E-02
-0.1671082483908E-03 -0.4799962885608E-02
-0.1645423732407E-03 -0.5241428784771E-02
-0.1590683247777E-03 -0.5679178259663E-02
-0.1509951238858E-03 -0.6112172664571E-02
-0.1406944304447E-03 -0.6539413995271E-02
-0.1286027874199E-03 -0.6959941365293E-02
-0.1152431062462E-03 -0.7372856775640E-02
-0.1012238331165E-03 -0.7777332030508E-02
-0.8721535443216E-04 -0.8172596730370E-02
-0.7397447141123E-04 -0.8557966029358E-02
-0.6237534929996E-04 -0.8932873951418E-02
-0.5343598739806E-04 -0.9296916857865E-02
-0.4834204563593E-04 -0.9649872911805E-02
-0.4846674169727E-04 -0.9991753580848E-02
-0.5538663707687E-04 -0.1032285638106E-01
-0.7088991756082E-04 -0.1064381451028E-01
-0.9697299402087E-04 -0.1095565941957E-01
-0.1358171492207E-03 -0.1125988594191E-01
-0.1897413973103E-03 -0.1155850754921E-01
-0.2611264496643E-03 -0.1185409198214E-01
-0.3523003180289E-03 -0.1214978164085E-01
-0.4653820770281E-03 -0.1244927143012E-01
-0.6020912726262E-03 -0.1275674660091E-01
-0.7635235334822E-03 -0.1307674177463E-01
-0.9499059897751E-03 -0.1341393799428E-01
-0.1160315628084E-02 -0.1377297485722E-01
-0.1392263174845E-02 -0.1415849656548E-01
-0.1641535851507E-02 -0.1457465159641E-01
-0.1902386983233E-02 -0.1502433841738E-01
-0.2167568006746E-02 -0.1550907827350E-01
-0.2071969405389E-04 -0.4154014585789E-03
-0.4136623134949E-04 -0.8366631740119E-03
-0.6130480905546E-04 -0.1263546338464E-02
-0.7994166384763E-04 -0.1695597577085E-02
-0.9675133510682E-04 -0.2132165053186E-02
-0.1113006142593E-03 -0.2572430945805E-02
-0.1232634667107E-03 -0.3015448770790E-02
-0.1324254160122E-03 -0.3460181755186E-02
-0.1386789371138E-03 -0.3905538585857E-02
-0.1420130607799E-03 -0.4350403367333E-02
-0.1425007303992E-03 -0.4793654031171E-02
-0.1402869177100E-03 -0.5234183688371E-02
-0.1355792636336E-03 -0.5670907584196E-02
-0.1286423088841E-03 -0.6102770085271E-02
-0.1197952750003E-03 -0.6528756700313E-02
-0.1094138768224E-03 -0.6947891693725E-02
-0.9794833872140E-04 -0.7359261345691E-02
-0.8592263380982E-04 -0.7762019716929E-02
-0.7391493725308E-04 -0.8155383542095E-02
-0.6257866204275E-04 -0.8538662239765E-02
-0.5266886506051E-04 -0.8911291872961E-02
-0.4506477184474E-04 -0.9272879285309E-02
-0.4078995211344E-04 -0.9623222679816E-02
-0.4102898292872E-04 -0.9962364096159E-02
-0.4714038592721E-04 -0.1029064282250E-01
-0.6066286964779E-04 -0.1060874506619E-01
-0.8331126527923E-04 -0.1091776545640E-01
-0.1169550014234E-03 -0.1121927345286E-01
-0.1635756927841E-03 -0.1151536629089E-01
-0.2251998338995E-03 -0.1180869584913E-01
-0.3037988498760E-03 -0.1210248048856E-01
-0.4011539910435E-03 -0.1240047225944E-01
-0.5186932458064E-03 -0.1270688279296E-01
-0.6573014725134E-03 -0.1302623155563E-01
-0.8171158532836E-03 -0.1336313806772E-01
-0.9972916011182E-03 -0.1372214606786E-01
-0.1195653404051E-02 -0.1410780992416E-01
-0.1408578275504E-02 -0.1452416733891E-01
-0.1631173745830E-02 -0.1497397734325E-01
-0.1857308386536E-02 -0.1545866633532E-01
-0.1718059848735E-04 -0.4152391344254E-03
-0.3430270312418E-04 -0.8362533837782E-03
-0.5084017183016E-04 -0.1262807802671E-02
-0.6630149114430E-04 -0.1694456132699E-02
-0.8025132025019E-04 -0.2130556216043E-02
-0.9232972028737E-04 -0.2570300617566E-02
-0.1022644388111E-03 -0.3012751700837E-02
-0.1098748859469E-03 -0.3456878100703E-02
-0.1150688659329E-03 -0.3901589360891E-02
-0.1178345097286E-03 -0.4345765678271E-02
-0.1182302122443E-03 -0.4788276854353E-02
-0.1163750217075E-03 -0.5228004655424E-02
-0.1124409648323E-03 -0.5663851000632E-02
-0.1066482432542E-03 -0.6094746189956E-02
-0.9926332681575E-04 -0.6519662053956E-02
-0.9060038984993E-04 -0.6937610548777E-02
-0.8103604295107E-04 -0.7347664868104E-02
-0.7100866645752E-04 -0.7748964242134E-02
-0.6100259874285E-04 -0.8140714790880E-02
-0.5156570192117E-04 -0.8522221472999E-02
-0.4333127587507E-04 -0.8892922586648E-02
-0.3703670857498E-04 -0.9252434458472E-02
-0.3354010930967E-04 -0.9600572947353E-02
-0.3383391185071E-04 -0.9937406717302E-02
-0.3905522822487E-04 -0.1026331116719E-01
-0.5049043764389E-04 -0.1057901806025E-01
-0.6957097912761E-04 -0.1088567602168E-01
-0.9785434325352E-04 -0.1118491790626E-01
-0.1369873199589E-03 -0.1147891161486E-01
-0.1886484320192E-03 -0.1177037938431E-01
-0.2544633599072E-03 -0.1206260230418E-01
-0.3358915980559E-03 -0.1235937856481E-01
-0.4340908471486E-03 -0.1266493947946E-01
-0.5497606283750E-03 -0.1298378909605E-01
-0.6829754737722E-03 -0.1332049296195E-01
-0.8329946599311E-03 -0.1367951299771E-01
-0.9979773098492E-03 -0.1406532802032E-01
-0.1174896868624E-02 -0.1448188416317E-01
-0.1359700225214E-02 -0.1493182643816E-01
-0.1547335090672E-02 -0.1541650518500E-01
-0.1368836098362E-04 -0.4151061688904E-03
-0.2733160471369E-04 -0.8359178611524E-03
-0.4051061491302E-04 -0.1262203218074E-02
-0.5283426872336E-04 -0.1693521574961E-02
-0.6395592565404E-04 -0.2129238378548E-02
-0.7358834026738E-04 -0.2568554392570E-02
-0.8151338151803E-04 -0.3010539023821E-02
-0.8758540783158E-04 -0.3454165281086E-02
-0.9172901019308E-04 -0.3898343498134E-02
-0.9393293888435E-04 -0.4341950865378E-02
-0.9424236070896E-04 -0.4783850776361E-02
-0.9275136477904E-04 -0.5222915969976E-02
-0.8959690893894E-04 -0.5658037700541E-02
-0.8495498469761E-04 -0.6088134970778E-02
-0.7903905810974E-04 -0.6512168608971E-02
-0.7210117258978E-04 -0.6929140679221E-02
-0.6444355004160E-04 -0.7338113818686E-02
-0.5641803642486E-04 -0.7738215251727E-02
-0.4841376459125E-04 -0.8128642601842E-02
-0.4087122780293E-04 -0.8508697449071E-02
-0.3429974856274E-04 -0.8877820269416E-02
-0.2929231744825E-04 -0.9235635567012E-02
-0.2653877908906E-04 -0.9581974121739E-02
-0.2683652586900E-04 -0.9916926892298E-02
-0.3109849658182E-04 -0.1024089933631E-01
-0.4035644098346E-04 -0.1055466095530E-01
-0.5575701205044E-04 -0.1085940490060E-01
-0.7854585514932E-04 -0.1115681604070E-01
-0.1100372866857E-03 -0.1144911992071E-01
-0.1515672887356E-03 -0.1173909574506E-01
-0.2044250372403E-03 -0.1203007485208E-01
-0.2697617764960E-03 -0.1232589167026E-01
-0.3484825831704E-03 -0.1263079183860E-01
-0.4411225122985E-03 -0.1294926507014E-01
-0.5477155609800E-03 -0.1328583151571E-01
-0.6676456883672E-03 -0.1364488573888E-01
-0.7994224544495E-03 -0.1403084509915E-01
-0.9406203462924E-03 -0.1444758228242E-01
-0.1088012813342E-02 -0.1489765167201E-01
-0.1237595311666E-02 -0.1538234418772E-01
-0.1023355776911E-04 -0.4150026337092E-03
-0.2043428454513E-04 -0.8356567035039E-03
-0.3028885751254E-04 -0.1261732708103E-02
-0.3950512264486E-04 -0.1692794196099E-02
-0.4782403656122E-04 -0.2128212338510E-02
-0.5503057934583E-04 -0.2567194093398E-02
-0.6096097668672E-04 -0.3008814223765E-02
-0.6550533676860E-04 -0.3452049106038E-02
-0.6860615920534E-04 -0.3895809739684E-02
-0.7025399782449E-04 -0.4338971091467E-02
-0.7048183175254E-04 -0.4780391719911E-02
-0.6935955918314E-04 -0.5218937499774E-02
-0.6698950970727E-04 -0.5653491538879E-02
-0.6350357485279E-04 -0.6082964186034E-02
-0.5906202089124E-04 -0.6506307831352E-02
-0.5385429006952E-04 -0.6922516957894E-02
-0.4810759403495E-04 -0.7330646087672E-02
-0.4208648568413E-04 -0.7729813188655E-02
-0.3608378835213E-04 -0.8119209394492E-02
-0.3043116199362E-04 -0.8498133826807E-02
-0.2551216709000E-04 -0.8866028873463E-02
-0.2177334501668E-04 -0.9222525659535E-02
-0.1973403575797E-04 -0.9567466865112E-02
-0.1999428628141E-04 -0.9900961105096E-02
-0.2324068145811E-04 -0.1022343753154E-01
-0.3024855283701E-04 -0.1053569528074E-01
-0.4187872961137E-04 -0.1083896234202E-01
-0.5906519319405E-04 -0.1113496411662E-01
-0.8279180134814E-04 -0.1142597086173E-01
-0.1140564860722E-03 -0.1171480570366E-01
-0.1538194398526E-03 -0.1200483838461E-01
-0.2029345293331E-03 -0.1229993057595E-01
-0.2620682894574E-03 -0.1260433796450E-01
-0.3316077879749E-03 -0.1292253806935E-01
-0.4115637653538E-03 -0.1325901499747E-01
-0.5014607729539E-03 -0.1361811069815E-01
-0.6001709377209E-03 -0.1400419497297E-01
-0.7058728961174E-03 -0.1442108429711E-01
-0.8161561522293E-03 -0.1487126419911E-01
-0.9280389666625E-03 -0.1535598110515E-01
-0.6806801894337E-05 -0.4149286083474E-03
-0.1359220596279E-04 -0.8354700384798E-03
-0.2014780142237E-04 -0.1261396450764E-02
-0.2627937418809E-04 -0.1692274331718E-02
-0.3181466946395E-04 -0.2127478841325E-02
-0.3661053864244E-04 -0.2566221265716E-02
-0.4055772055513E-04 -0.3007580128507E-02
-0.4358264701703E-04 -0.3450534192100E-02
-0.4564654227816E-04 -0.3893994957215E-02
-0.4674263368242E-04 -0.4336835862118E-02
-0.4689248345279E-04 -0.4777912090384E-02
-0.4614237272080E-04 -0.5216084697454E-02
-0.4456033551094E-04 -0.5650231051731E-02
-0.4223424983631E-04 -0.6079255392237E-02
-0.3927103838662E-04 -0.6502104146309E-02
-0.3579719074647E-04 -0.6917766443128E-02
-0.3196444122417E-04 -0.7325291060076E-02
-0.2794947757237E-04 -0.7723789397756E-02
-0.2394798045983E-04 -0.8112448018333E-02
-0.2018167242959E-04 -0.8490564378644E-02
-0.1690700873714E-04 -0.8857582349240E-02
-0.1442254058760E-04 -0.9213137924148E-02
-0.1307542559265E-04 -0.9557082441304E-02
-0.1326664610325E-04 -0.9889537295478E-02
-0.1545481567328E-04 -0.1021094873052E-01
-0.2015753659225E-04 -0.1052213719905E-01
-0.2794908157892E-04 -0.1082435568128E-01
-0.3945196666596E-04 -0.1111935856674E-01
-0.5532117987632E-04 -0.1140944797832E-01
-0.7622005483130E-04 -0.1169747820243E-01
-0.1027855141504E-03 -0.1198684604523E-01
-0.1355822372383E-03 -0.1228143213228E-01
-0.1750487467354E-03 -0.1258549874619E-01
-0.2214363523855E-03 -0.1290351414700E-01
-0.2747452558595E-03 -0.1323993631612E-01
-0.3346521967215E-03 -0.1359906951351E-01
-0.4004005842281E-03 -0.1398524970868E-01
-0.4707752062835E-03 -0.1440225371615E-01
-0.5441735916803E-03 -0.1485251874955E-01
-0.6186182029467E-03 -0.1533726036536E-01
-0.3398731451920E-05 -0.4148841620093E-03
-0.6786912832063E-05 -0.8353579845413E-03
-0.1006047771858E-04 -0.1261194616331E-02
-0.1312248357000E-04 -0.1691962278589E-02
-0.1588693414904E-04 -0.2127038485375E-02
-0.1828231469433E-04 -0.2565637081459E-02
-0.2025397221843E-04 -0.3006838820753E-02
-0.2176503204301E-04 -0.3449623889140E-02
-0.2279597507666E-04 -0.3892904097928E-02
-0.2334327347511E-04 -0.4335551991751E-02
-0.2341758175939E-04 -0.4776420760332E-02
-0.2304194535381E-04 -0.5214368600823E-02
-0.2225032545640E-04 -0.5648269469769E-02
-0.2108664596835E-04 -0.6077023969072E-02
-0.1960439161320E-04 -0.6499574974385E-02
-0.1786686554258E-04 -0.6914908427232E-02
-0.1595001292118E-04 -0.7322069679182E-02
-0.1394227353899E-04 -0.7720166208368E-02
-0.1194162754781E-04 -0.8108381859876E-02
-0.1005912130753E-04 -0.8486013128298E-02
-0.8423207179625E-05 -0.8852504820716E-02
-0.7183417951410E-05 -0.9207495908422E-02
-0.6513611555334E-05 -0.9550842987041E-02
-0.6614563933055E-05 -0.9882675186309E-02
-0.7715847866033E-05 -0.1020344907153E-01
-0.1007647707416E-04 -0.1051399794374E-01
-0.1398370123072E-04 -0.1081558981917E-01
-0.1974873326131E-04 -0.1110999649338E-01
-0.2769878758989E-04 -0.1139953917836E-01
-0.3816493999297E-04 -0.1168709076990E-01
-0.5146468605460E-04 -0.1197606416453E-01
-0.6787899412841E-04 -0.1227035115831E-01
-0.8762537742480E-04 -0.1257421776032E-01
-0.1108274777691E-03 -0.1289212645857E-01
-0.1374833221075E-03 -0.1322851941105E-01
-0.1674294106530E-03 -0.1358767822472E-01
-0.2002860666032E-03 -0.1397391862721E-01
-0.2354454110913E-03 -0.1439099383253E-01
-0.2721075745903E-03 -0.1484131240986E-01
-0.3092868691099E-03 -0.1532607175528E-01
-0.2934555810158E-13 -0.4148693411283E-03
-0.5781031035823E-13 -0.8353206235316E-03
-0.8607719571840E-13 -0.1261127323991E-02
-0.1166900777394E-12 -0.1691858237327E-02
-0.1538240021470E-12 -0.2126891655801E-02
-0.2029734887110E-12 -0.2565442270737E-02
-0.2705032378647E-12 -0.3006591575132E-02
-0.3632641062956E-12 -0.3449320227985E-02
-0.4881641965659E-12 -0.3892540145728E-02
-0.6517564266062E-12 -0.4335123578979E-02
-0.8600863077302E-12 -0.4775923058000E-02
-0.1118220099849E-11 -0.5213795832713E-02
-0.1430223994792E-11 -0.5647614727676E-02
-0.1798793752839E-11 -0.6076279137222E-02
-0.2225147149870E-11 -0.6498730757456E-02
-0.2708618052072E-11 -0.6913954471484E-02
-0.3246177632255E-11 -0.7320994492455E-02
-0.3832226203038E-11 -0.7718956994019E-02
-0.4458426683396E-11 -0.8107024919893E-02
-0.5113447859584E-11 -0.8484494450037E-02
-0.5781566198015E-11 -0.8850810711539E-02
-0.6442110733751E-11 -0.9205613677428E-02
-0.7068609586547E-11 -0.9548761706380E-02
-0.7627724840642E-11 -0.9880386517600E-02
-0.8078586410942E-11 -0.1020094812788E-01
-0.8372552651181E-11 -0.1051128413076E-01
-0.8452141764259E-11 -0.1081266756127E-01
-0.8251885286192E-11 -0.1110687601901E-01
-0.7698654214128E-11 -0.1139623707377E-01
-0.6714045985845E-11 -0.1168362980987E-01
-0.5216514720185E-11 -0.1197247246252E-01
-0.3127068048947E-11 -0.1226666051761E-01
-0.3738259701791E-12 -0.1257046118803E-01
 0.3100061873873E-11 -0.1288833500197E-01
 0.7328970763609E-11 -0.1322471881867E-01
 0.1231792445822E-10 -0.1358388668786E-01
 0.1803908411535E-10 -0.1397014759971E-01
 0.2442029911620E-10 -0.1438724693398E-01
 0.3134963122431E-10 -0.1483758376890E-01
 0.3866806874697E-10 -0.1532234950704E-01
 0.3398731393200E-05 -0.4148841619941E-03
 0.6786912716467E-05 -0.8353579845117E-03
 0.1006047754658E-04 -0.1261194616288E-02
 0.1312248333697E-04 -0.1691962278534E-02
 0.1588693384200E-04 -0.2127038485310E-02
 0.1828231428929E-04 -0.2565637081387E-02
 0.2025397167863E-04 -0.3006838820675E-02
 0.2176503131801E-04 -0.3449623889060E-02
 0.2279597410219E-04 -0.3892904097849E-02
 0.2334327217378E-04 -0.4335551991675E-02
 0.2341758004176E-04 -0.4776420760264E-02
 0.2304194312028E-04 -0.5214368600767E-02
 0.2225032259924E-04 -0.5648269469731E-02
 0.2108664237445E-04 -0.6077023969058E-02
 0.1960438716707E-04 -0.6499574974401E-02
 0.1786686012994E-04 -0.6914908427286E-02
 0.1595000643385E-04 -0.7322069679284E-02
 0.1394226588002E-04 -0.7720166208526E-02
 0.1194161863676E-04 -0.8108381860102E-02
 0.1005911108671E-04 -0.8486013128604E-02
 0.8423195622626E-05 -0.8852504821115E-02
 0.7183405073170E-05 -0.9207495908927E-02
 0.6513597423562E-05 -0.9550842987663E-02
 0.6614548682178E-05 -0.9882675187062E-02
 0.7715831711753E-05 -0.1020344907242E-01
 0.1007646032976E-04 -0.1051399794478E-01
 0.1398368432410E-04 -0.1081558982037E-01
 0.1974871675135E-04 -0.1110999649473E-01
 0.2769877218167E-04 -0.1139953917987E-01
 0.3816492654866E-04 -0.1168709077155E-01
 0.5146467559950E-04 -0.1197606416632E-01
 0.6787898784649E-04 -0.1227035116022E-01
 0.8762537664418E-04 -0.1257421776232E-01
 0.1108274839325E-03 -0.1289212646065E-01
 0.1374833367271E-03 -0.1322851941319E-01
 0.1674294352520E-03 -0.1358767822689E-01
 0.2002861026499E-03 -0.1397391862942E-01
 0.2354454599095E-03 -0.1439099383477E-01
 0.2721076372802E-03 -0.1484131241213E-01
 0.3092869464524E-03 -0.1532607175760E-01
 0.6806801835529E-05 -0.4149286083171E-03
 0.1359220584727E-04 -0.8354700384206E-03
 0.2014780125083E-04 -0.1261396450678E-02
 0.2627937395614E-04 -0.1692274331608E-02
 0.3181466915875E-04 -0.2127478841196E-02
 0.3661053824010E-04 -0.2566221265571E-02
 0.4055772001896E-04 -0.3007580128352E-02
 0.4358264629662E-04 -0.3450534191939E-02
 0.4564654130926E-04 -0.3893994957056E-02
 0.4674263238765E-04 -0.4336835861967E-02
 0.4689248174275E-04 -0.4777912090248E-02
 0.4614237049594E-04 -0.5216084697343E-02
 0.4456033266364E-04 -0.5650231051655E-02
 0.4223424625351E-04 -0.6079255392207E-02
 0.3927103395290E-04 -0.6502104146340E-02
 0.3579718534757E-04 -0.6917766443235E-02
 0.3196443475195E-04 -0.7325291060276E-02
 0.2794946992980E-04 -0.7723789398071E-02
 0.2394797156624E-04 -0.8112448018783E-02
 0.2018166222701E-04 -0.8490564379254E-02
 0.1690699719863E-04 -0.8857582350035E-02
 0.1442252772733E-04 -0.9213137925154E-02
 0.1307541147736E-04 -0.9557082442547E-02
 0.1326663086592E-04 -0.9889537296982E-02
 0.1545479952782E-04 -0.1021094873231E-01
 0.2015751985002E-04 -0.1052213720114E-01
 0.2794906466538E-04 -0.1082435568367E-01
 0.3945195013748E-04 -0.1111935856945E-01
 0.5532116443556E-04 -0.1140944798134E-01
 0.7622004133843E-04 -0.1169747820574E-01
 0.1027855036293E-03 -0.1198684604881E-01
 0.1355822308732E-03 -0.1228143213609E-01
 0.1750487458560E-03 -0.1258549875020E-01
 0.2214363584387E-03 -0.1290351415117E-01
 0.2747452703641E-03 -0.1323993632040E-01
 0.3346522212099E-03 -0.1359906951788E-01
 0.4004006201798E-03 -0.1398524971311E-01
 0.4707752550343E-03 -0.1440225372064E-01
 0.5441736543418E-03 -0.1485251875410E-01
 0.6186182803082E-03 -0.1533726037000E-01
 0.1023355771016E-04 -0.4150026336638E-03
 0.2043428442972E-04 -0.8356567034150E-03
 0.3028885734178E-04 -0.1261732707974E-02
 0.3950512241469E-04 -0.1692794195935E-02
 0.4782403625906E-04 -0.2128212338315E-02
 0.5503057894799E-04 -0.2567194093180E-02
 0.6096097615658E-04 -0.3008814223531E-02
 0.6550533605581E-04 -0.3452049105797E-02
 0.6860615824569E-04 -0.3895809739444E-02
 0.7025399654062E-04 -0.4338971091239E-02
 0.7048183005512E-04 -0.4780391719707E-02
 0.6935955697271E-04 -0.5218937499605E-02
 0.6698950687635E-04 -0.5653491538762E-02
 0.6350357128843E-04 -0.6082964185987E-02
 0.5906201647813E-04 -0.6506307831396E-02
 0.5385428469350E-04 -0.6922516958051E-02
 0.4810758758786E-04 -0.7330646087969E-02
 0.4208647806883E-04 -0.7729813189122E-02
 0.3608377948766E-04 -0.8119209395162E-02
 0.3043115182145E-04 -0.8498133827717E-02
 0.2551215558236E-04 -0.8866028874650E-02
 0.2177333218648E-04 -0.9222525661039E-02
 0.1973402167023E-04 -0.9567466866970E-02
 0.1999427106684E-04 -0.9900961107346E-02
 0.2324066532767E-04 -0.1022343753421E-01
 0.3024853609866E-04 -0.1053569528387E-01
 0.4187871268662E-04 -0.1083896234562E-01
 0.5906517663517E-04 -0.1113496412069E-01
 0.8279178585362E-04 -0.1142597086627E-01
 0.1140564724988E-03 -0.1171480570864E-01
 0.1538194292220E-03 -0.1200483838999E-01
 0.2029345228295E-03 -0.1229993058169E-01
 0.2620682884135E-03 -0.1260433797053E-01
 0.3316077938443E-03 -0.1292253807562E-01
 0.4115637796665E-03 -0.1325901500392E-01
 0.5014607972575E-03 -0.1361811070473E-01
 0.6001709735136E-03 -0.1400419497965E-01
 0.7058729447556E-03 -0.1442108430387E-01
 0.8161562148433E-03 -0.1487126420597E-01
 0.9280390440558E-03 -0.1535598111215E-01
 0.1368836092446E-04 -0.4151061688298E-03
 0.2733160459844E-04 -0.8359178610338E-03
 0.4051061474335E-04 -0.1262203217901E-02
 0.5283426849568E-04 -0.1693521574742E-02
 0.6395592535615E-04 -0.2129238378288E-02
 0.7358833987582E-04 -0.2568554392279E-02
 0.8151338099633E-04 -0.3010539023509E-02
 0.8758540712943E-04 -0.3454165280764E-02
 0.9172900924632E-04 -0.3898343497813E-02
 0.9393293761567E-04 -0.4341950865073E-02
 0.9424235902912E-04 -0.4783850776085E-02
 0.9275136258872E-04 -0.5222915969748E-02
 0.8959690613084E-04 -0.5658037700382E-02
 0.8495498115896E-04 -0.6088134970711E-02
 0.7903905372541E-04 -0.6512168609023E-02
 0.7210116724572E-04 -0.6929140679424E-02
 0.6444354362961E-04 -0.7338113819074E-02
 0.5641802884770E-04 -0.7738215252341E-02
 0.4841375576749E-04 -0.8128642602727E-02
 0.4087121767337E-04 -0.8508697450274E-02
 0.3429973709844E-04 -0.8877820270988E-02
 0.2929230466035E-04 -0.9235635569006E-02
 0.2653876504016E-04 -0.9581974124206E-02
 0.2683651068665E-04 -0.9916926895289E-02
 0.3109848047297E-04 -0.1024089933986E-01
 0.4035642425122E-04 -0.1055466095946E-01
 0.5575699511087E-04 -0.1085940490538E-01
 0.7854583854885E-04 -0.1115681604612E-01
 0.1100372711170E-03 -0.1144911992676E-01
 0.1515672750505E-03 -0.1173909575171E-01
 0.2044250264574E-03 -0.1203007485927E-01
 0.2697617697993E-03 -0.1232589167793E-01
 0.3484825818966E-03 -0.1263079184667E-01
 0.4411225179104E-03 -0.1294926507854E-01
 0.5477155750234E-03 -0.1328583152435E-01
 0.6676457124108E-03 -0.1364488574770E-01
 0.7994224900182E-03 -0.1403084510811E-01
 0.9406203947716E-03 -0.1444758229150E-01
 0.1088012875890E-02 -0.1489765168124E-01
 0.1237595389105E-02 -0.1538234419712E-01
 0.1718059842792E-04 -0.4152391343496E-03
 0.3430270300913E-04 -0.8362533836299E-03
 0.5084017166188E-04 -0.1262807802456E-02
 0.6630149091982E-04 -0.1694456132425E-02
 0.8025131995777E-04 -0.2130556215719E-02
 0.9232971990387E-04 -0.2570300617202E-02
 0.1022644383002E-03 -0.3012751700446E-02
 0.1098748852584E-03 -0.3456878100298E-02
 0.1150688650026E-03 -0.3901589360488E-02
 0.1178345084793E-03 -0.4345765677886E-02
 0.1182302105870E-03 -0.4788276854005E-02
 0.1163750195429E-03 -0.5228004655135E-02
 0.1124409620533E-03 -0.5663851000427E-02
 0.1066482397485E-03 -0.6094746189865E-02
 0.9926332246823E-04 -0.6519662054013E-02
 0.9060038454677E-04 -0.6937610549020E-02
 0.8103603658410E-04 -0.7347664868578E-02
 0.7100865892928E-04 -0.7748964242889E-02
 0.6100258997141E-04 -0.8140714791971E-02
 0.5156569184646E-04 -0.8522221474487E-02
 0.4333126446669E-04 -0.8892922588597E-02
 0.3703669584178E-04 -0.9252434460947E-02
 0.3354009531124E-04 -0.9600572950421E-02
 0.3383389671045E-04 -0.9937406721024E-02
 0.3905521214467E-04 -0.1026331117162E-01
 0.5049042092072E-04 -0.1057901806544E-01
 0.6957096217040E-04 -0.1088567602766E-01
 0.9785432660121E-04 -0.1118491791303E-01
 0.1369873042966E-03 -0.1147891162243E-01
 0.1886484181924E-03 -0.1177037939264E-01
 0.2544633489300E-03 -0.1206260231320E-01
 0.3358915911118E-03 -0.1235937857444E-01
 0.4340908455795E-03 -0.1266493948961E-01
 0.5497606336557E-03 -0.1298378910661E-01
 0.6829754874680E-03 -0.1332049297282E-01
 0.8329946836385E-03 -0.1367951300881E-01
 0.9979773451277E-03 -0.1406532803161E-01
 0.1174896916896E-02 -0.1448188417463E-01
 0.1359700287675E-02 -0.1493182644980E-01
 0.1547335168170E-02 -0.1541650519688E-01
 0.2071969399411E-04 -0.4154014584878E-03
 0.4136623123468E-04 -0.8366631738337E-03
 0.6130480888886E-04 -0.1263546338205E-02
 0.7994166362703E-04 -0.1695597576755E-02
 0.9675133482107E-04 -0.2132165052796E-02
 0.1113006138856E-03 -0.2572430945367E-02
 0.1232634662130E-03 -0.3015448770320E-02
 0.1324254153402E-03 -0.3460181754699E-02
 0.1386789362035E-03 -0.3905538585370E-02
 0.1420130595541E-03 -0.4350403366867E-02
 0.1425007287691E-03 -0.4793654030748E-02
 0.1402869155765E-03 -0.5234183688017E-02
 0.1355792608900E-03 -0.5670907583942E-02
 0.1286423054183E-03 -0.6102770085151E-02
 0.1197952706975E-03 -0.6528756700368E-02
 0.1094138715690E-03 -0.6947891694001E-02
 0.9794833240922E-04 -0.7359261346243E-02
 0.8592262634121E-04 -0.7762019717815E-02
 0.7391492854555E-04 -0.8155383543383E-02
 0.6257865203514E-04 -0.8538662241527E-02
 0.5266885372067E-04 -0.8911291875275E-02
 0.4506475917886E-04 -0.9272879288253E-02
 0.4078993817742E-04 -0.9623222683472E-02
 0.4102896784099E-04 -0.9962364100602E-02
 0.4714036988351E-04 -0.1029064282780E-01
 0.6066285293749E-04 -0.1060874507240E-01
 0.8331124830269E-04 -0.1091776546356E-01
 0.1169549847103E-03 -0.1121927346099E-01
 0.1635756770102E-03 -0.1151536629998E-01
 0.2251998199020E-03 -0.1180869585914E-01
 0.3037988386638E-03 -0.1210248049942E-01
 0.4011539837991E-03 -0.1240047227106E-01
 0.5186932438772E-03 -0.1270688280522E-01
 0.6573014773886E-03 -0.1302623156840E-01
 0.8171158665526E-03 -0.1336313808087E-01
 0.9972916244117E-03 -0.1372214608131E-01
 0.1195653438972E-02 -0.1410780993784E-01
 0.1408578323522E-02 -0.1452416735281E-01
 0.1631173808184E-02 -0.1497397735739E-01
 0.1857308464109E-02 -0.1545866634976E-01
 0.2431512311187E-04 -0.4155931012196E-03
 0.4854099699069E-04 -0.8371472171690E-03
 0.7193205226067E-04 -0.1264418839265E-02
 0.9378992087118E-04 -0.1696945768002E-02
 0.1134972597956E-03 -0.2134064164245E-02
 0.1305469147578E-03 -0.2574943404290E-02
 0.1445595460611E-03 -0.3018626208702E-02
 0.1552881554907E-03 -0.3464069335889E-02
 0.1626117196503E-03 -0.3910180628869E-02
 0.1665220486869E-03 -0.4355849154611E-02
 0.1671082467925E-03 -0.4799962885107E-02
 0.1645423711437E-03 -0.5241428784348E-02
 0.1590683220755E-03 -0.5679178259354E-02
 0.1509951204667E-03 -0.6112172664416E-02
 0.1406944261944E-03 -0.6539413995318E-02
 0.1286027822249E-03 -0.6959941365595E-02
 0.1152430999985E-03 -0.7372856776259E-02
 0.1012238257182E-03 -0.7777332031516E-02
 0.8721534580010E-04 -0.8172596731843E-02
 0.7397446148306E-04 -0.8557966031381E-02
 0.6237533804150E-04 -0.8932873954083E-02
 0.5343597481241E-04 -0.9296916861265E-02
 0.4834203177469E-04 -0.9649872916035E-02
 0.4846672667314E-04 -0.9991753585997E-02
 0.5538662107828E-04 -0.1032285638721E-01
 0.7088990086830E-04 -0.1064381451750E-01
 0.9697297702464E-04 -0.1095565942791E-01
 0.1358171324393E-03 -0.1125988595139E-01
 0.1897413814083E-03 -0.1155850755983E-01
 0.2611264354691E-03 -0.1185409199386E-01
 0.3523003065425E-03 -0.1214978165358E-01
 0.4653820694313E-03 -0.1244927144375E-01
 0.6020912702727E-03 -0.1275674661531E-01
 0.7635235378775E-03 -0.1307674178965E-01
 0.9499060025371E-03 -0.1341393800978E-01
 0.1160315650884E-02 -0.1377297487309E-01
 0.1392263209337E-02 -0.1415849658164E-01
 0.1641535899219E-02 -0.1457465161284E-01
 0.1902387045458E-02 -0.1502433843410E-01
 0.2167568084411E-02 -0.1550907829059E-01
 0.2797643198082E-04 -0.4158140848956E-03
 0.5584601436200E-04 -0.8377056493613E-03
 0.8274974709303E-04 -0.1265425563265E-02
 0.1078817336676E-03 -0.1698500857718E-02
 0.1305306110222E-03 -0.2136253055215E-02
 0.1501145172779E-03 -0.2577836030735E-02
 0.1662014672704E-03 -0.3022279594347E-02
 0.1785136632883E-03 -0.3468532953584E-02
 0.1869188346380E-03 -0.3915503229171E-02
 0.1914138411095E-03 -0.4362085699607E-02
 0.1921058651232E-03 -0.4807180518773E-02
 0.1891954089252E-03 -0.5249711241044E-02
 0.1829633703180E-03 -0.5688628476104E-02
 0.1737633947577E-03 -0.6122913662451E-02
 0.1620191992250E-03 -0.6551588243828E-02
 0.1482273182302E-03 -0.6973708865385E-02
 0.1329822738265E-03 -0.7388396001031E-02
 0.1169756936468E-03 -0.7794842210494E-02
 0.1009683028498E-03 -0.8192292363926E-02
 0.8581779461497E-04 -0.8580068852668E-02
 0.7251437518568E-04 -0.8957604154444E-02
 0.6221125542426E-04 -0.9324483509903E-02
 0.5625224828842E-04 -0.9680463074518E-02
 0.5619509382792E-04 -0.1002552025334E-01
 0.6383039175625E-04 -0.1035990560257E-01
 0.8119235477042E-04 -0.1068419230724E-01
 0.1105566695951E-03 -0.1099933982791E-01
 0.1544161080400E-03 -0.1130675735557E-01
 0.2154297454856E-03 -0.1160836145773E-01
 0.2963394130358E-03 -0.1190662154490E-01
 0.3998420031423E-03 -0.1220458997140E-01
 0.5284129468242E-03 -0.1250589219727E-01
 0.6840882366068E-03 -0.1281467877863E-01
 0.8682044576230E-03 -0.1313549755759E-01
 0.1081111583634E-02 -0.1347309732264E-01
 0.1321840061671E-02 -0.1383222695772E-01
 0.1587612363112E-02 -0.1421763493041E-01
 0.1873635265843E-02 -0.1463360098728E-01
 0.2173291308107E-02 -0.1508319092331E-01
 0.2478170010924E-02 -0.1556804224243E-01
 0.3171326177103E-04 -0.4160645325182E-03
 0.6330056554885E-04 -0.8383388403768E-03
 0.9378614779149E-04 -0.1266567143375E-02
 0.1222530003599E-03 -0.1700263460782E-02
 0.1478931909215E-03 -0.2138731655442E-02
 0.1700493232061E-03 -0.2581107064388E-02
 0.1882376668944E-03 -0.3026404281735E-02
 0.2021517719501E-03 -0.3473563872821E-02
 0.2116508471848E-03 -0.3921492503057E-02
 0.2167394973000E-03 -0.4369093153468E-02
 0.2175452187811E-03 -0.4815280579158E-02
 0.2142985143211E-03 -0.5258997930885E-02
 0.2073181001575E-03 -0.5699218297235E-02
 0.1970023826346E-03 -0.6134946494698E-02
 0.1838266784554E-03 -0.6565226544032E-02
 0.1683465502395E-03 -0.6989135460152E-02
 0.1512269071606E-03 -0.7405815070280E-02
 0.1332411023037E-03 -0.7814481808973E-02
 0.1152380922233E-03 -0.8214398389956E-02
 0.9817364557461E-04 -0.8604896199136E-02
 0.8315053516489E-04 -0.8985406999599E-02
 0.7145313014121E-04 -0.9355504687729E-02
 0.6457889242555E-04 -0.9714921925702E-02
 0.6426533958563E-04 -0.1006359910039E-01
 0.7251244844871E-04 -0.1040173518240E-01
 0.9159635887589E-04 -0.1072983688676E-01
 0.1240691560837E-03 -0.1104878333744E-01
 0.1727343339354E-03 -0.1135988737165E-01
 0.2405936172790E-03 -0.1166495552691E-01
 0.3307573287863E-03 -0.1196634428287E-01
 0.4463047993646E-03 -0.1226700093342E-01
 0.5900886759767E-03 -0.1257046772161E-01
 0.7644898959341E-03 -0.1288085029294E-01
 0.9711211414202E-03 -0.1320270574471E-01
 0.1210494202750E-02 -0.1354085514315E-01
 0.1481631288490E-02 -0.1390016921032E-01
 0.1781498506588E-02 -0.1428551516888E-01
 0.2104735114932E-02 -0.1470132602427E-01
 0.2443834944375E-02 -0.1515086576872E-01
 0.2789173794690E-02 -0.1563591271819E-01
 0.3553537952466E-04 -0.4163447148340E-03
 0.7092427710979E-04 -0.8390474978458E-03
 0.1050700263337E-03 -0.1267844750356E-02
 0.1369401543413E-03 -0.1702234865237E-02
 0.1656271583305E-03 -0.2141500553801E-02
 0.1903972473944E-03 -0.2584755178892E-02
 0.2107161617863E-03 -0.3030995603790E-02
 0.2262514537873E-03 -0.3479152672646E-02
 0.2368570794358E-03 -0.3928133055155E-02
 0.2425485464584E-03 -0.4376849223426E-02
 0.2434762321279E-03 -0.4824233282312E-02
 0.2399023856705E-03 -0.5269251294078E-02
 0.2321844320969E-03 -0.5710902366459E-02
 0.2207656523920E-03 -0.6148218203885E-02
 0.2061724193401E-03 -0.6580268714121E-02
 0.1890182303120E-03 -0.7006154286251E-02
 0.1700370145612E-03 -0.7425041116889E-02
 0.1500822396760E-03 -0.7836172747156E-02
 0.1300887659247E-03 -0.8238832492995E-02
 0.1111073169001E-03 -0.8632362775395E-02
 0.9434936481910E-04 -0.9016195853184E-02
 0.8122590253350E-04 -0.9389894522226E-02
 0.7338297223545E-04 -0.9753167013568E-02
 0.7273248811754E-04 -0.1010591435493E-01
 0.8147845621740E-04 -0.1044827996151E-01
 0.1021341409363E-03 -0.1078069827331E-01
 0.1375244862436E-03 -0.1110396031054E-01
 0.1907624051273E-03 -0.1141927225865E-01
 0.2651946032757E-03 -0.1172831760323E-01
 0.3643075137406E-03 -0.1203332492100E-01
 0.4915774967156E-03 -0.1233712045453E-01
 0.6502574207492E-03 -0.1264314782321E-01
 0.8431052312526E-03 -0.1295545535341E-01
 0.1072050002915E-02 -0.1327860299857E-01
 0.1337810933287E-02 -0.1361748650467E-01
 0.1639447816931E-02 -0.1397710975013E-01
 0.1973709652298E-02 -0.1436247309730E-01
 0.2334685776990E-02 -0.1477818650653E-01
 0.2713962550488E-02 -0.1522774660396E-01
 0.3100642886131E-02 -0.1571310079147E-01
 0.3945271736509E-04 -0.4166551078017E-03
 0.7873721427595E-04 -0.8398327932905E-03
 0.1166308039437E-03 -0.1269260289684E-02
 0.1519802922775E-03 -0.1704417285653E-02
 0.1837751100001E-03 -0.2144561278278E-02
 0.2112042237599E-03 -0.2588779753528E-02
 0.2336844708564E-03 -0.3036049105975E-02
 0.2508606678005E-03 -0.3485289425425E-02
 0.2625854012830E-03 -0.3935408098041E-02
 0.2688887432310E-03 -0.4385329238219E-02
 0.2699468594518E-03 -0.4834005434264E-02
 0.2660556730914E-03 -0.5280429325337E-02
 0.2576122595907E-03 -0.5723629869155E-02
 0.2451048477618E-03 -0.6162669399655E-02
 0.2291102244101E-03 -0.6596647211307E-02
 0.2102985949208E-03 -0.7024690244663E-02
 0.1894714025291E-03 -0.7445992221107E-02
 0.1675604747643E-03 -0.7859827134250E-02
 0.1455840448249E-03 -0.8265501857332E-02
 0.1246843856255E-03 -0.8662372194840E-02
 0.1061774259220E-03 -0.9049872528198E-02
 0.9159577864184E-04 -0.9427555314662E-02
 0.8272843749879E-04 -0.9795104029380E-02
 0.8165568892289E-04 -0.1015237869617E-01
 0.9077950713969E-04 -0.1049946396033E-01
 0.1128447208294E-03 -0.1083671695106E-01
 0.1509448361216E-03 -0.1116483352723E-01
 0.2085001993315E-03 -0.1148490347511E-01
 0.2892043647318E-03 -0.1179847443350E-01
 0.3969274830621E-03 -0.1210763181081E-01
 0.5355582873329E-03 -0.1241506382424E-01
 0.7087747801344E-03 -0.1272409829434E-01
 0.9197474473213E-03 -0.1303871133493E-01
 0.1170767386902E-02 -0.1336345647829E-01
 0.1462814000675E-02 -0.1370330389212E-01
 0.1795039079778E-02 -0.1406340021742E-01
 0.2164022576176E-02 -0.1444889296710E-01
 0.2563327590194E-02 -0.1486459466562E-01
 0.2983614029778E-02 -0.1531427329290E-01
 0.3412644896100E-02 -0.1580007800512E-01
 0.4347542205580E-04 -0.4169964624503E-03
 0.8675999768645E-04 -0.8406965155580E-03
 0.1284987110612E-03 -0.1270816640195E-02
 0.1674113265167E-03 -0.1706814167127E-02
 0.2023801744152E-03 -0.2147916627417E-02
 0.2325162094594E-03 -0.2593181189258E-02
 0.2571895241123E-03 -0.3041560812826E-02
 0.2760261876962E-03 -0.3491963895757E-02
 0.2888820009356E-03 -0.3943299581074E-02
 0.2958058052497E-03 -0.4394506215008E-02
 0.2970028097646E-03 -0.4844560448800E-02
 0.2928047050195E-03 -0.5292485555138E-02
 0.2836491863871E-03 -0.5737344486711E-02
 0.2700694410881E-03 -0.6178234191275E-02
 0.2526919150870E-03 -0.6614287043572E-02
 0.2322421578977E-03 -0.7044659888008E-02
 0.2095874873133E-03 -0.7468577264940E-02
 0.1857362063061E-03 -0.7885347078611E-02
 0.1617872073674E-03 -0.8294302919371E-02
 0.1389706441752E-03 -0.8694816653173E-02
 0.1187023034743E-03 -0.9086326862197E-02
 0.1026309608734E-03 -0.9468376993567E-02
 0.9268238063218E-04 -0.9840626118833E-02
 0.9109854954625E-04 -0.1020289239206E-01
 0.1004726126742E-03 -0.1055519933423E-01
 0.1237745917377E-03 -0.1089782262519E-01
 0.1643614046218E-03 -0.1123135676443E-01
 0.2259580055932E-03 -0.1155676610816E-01
 0.3126059735275E-03 -0.1187545004442E-01
 0.4285664772662E-03 -0.1218933538129E-01
 0.5781563837808E-03 -0.1250095439722E-01
 0.7655053403784E-03 -0.1281350007550E-01
 0.9942352084641E-03 -0.1313085865648E-01
 0.1267050213935E-02 -0.1345756461048E-01
 0.1585250586060E-02 -0.1379865897670E-01
 0.1948144330668E-02 -0.1415943841875E-01
 0.2352200993484E-02 -0.1454521081241E-01
 0.2790489018742E-02 -0.1496101894791E-01
 0.3252723485137E-02 -0.1541094607017E-01
 0.3725251795199E-02 -0.1589738099254E-01
 0.4761391744628E-04 -0.4173698897253E-03
 0.9501394789990E-04 -0.8416412571164E-03
 0.1407049816780E-03 -0.1272517942405E-02
 0.1832721657286E-03 -0.1709430548768E-02
 0.2214861184882E-03 -0.2151571060430E-02
 0.2543791846946E-03 -0.2597961273169E-02
 0.2812775542451E-03 -0.3047527527655E-02
 0.3017934059356E-03 -0.3499165757290E-02
 0.3157911308573E-03 -0.3951788325058E-02
 0.3233431290374E-03 -0.4404350924360E-02
 0.3246872543892E-03 -0.4855858359333E-02
 0.3201932017649E-03 -0.5305369023681E-02
 0.3103402539761E-03 -0.5751984343579E-02
 0.2957064781041E-03 -0.6194840113589E-02
 0.2769670948691E-03 -0.6633105675050E-02
 0.2549014929032E-03 -0.7065971300964E-02
 0.2304410990682E-03 -0.7492695778783E-02
 0.2046686937091E-03 -0.7912624487649E-02
 0.1787609557138E-03 -0.8325121104186E-02
 0.1540320135243E-03 -0.8729576581437E-02
 0.1319925808854E-03 -0.9125436263145E-02
 0.1144017035346E-03 -0.9512236526570E-02
 0.1033151947884E-03 -0.9889613130892E-02
 0.1011294230922E-03 -0.1025734235647E-01
 0.1106211523745E-03 -0.1061538521459E-01
 0.1349783657690E-03 -0.1096393283371E-01
 0.1778152922607E-03 -0.1130347318507E-01
 0.2431576656951E-03 -0.1163483707844E-01
 0.3353953265647E-03 -0.1195926384716E-01
 0.4591871225610E-03 -0.1227850628490E-01
 0.6192938380087E-03 -0.1259492198608E-01
 0.8203244824848E-03 -0.1291154815560E-01
 0.1066394171639E-02 -0.1323216047385E-01
 0.1360676904563E-02 -0.1356125782642E-01
 0.1704862811822E-02 -0.1390394453781E-01
 0.2098491515066E-02 -0.1426567138197E-01
 0.2537993515812E-02 -0.1465191835762E-01
 0.3015984449661E-02 -0.1506798840729E-01
 0.3521217924967E-02 -0.1551833032614E-01
 0.4038540088579E-02 -0.1600561688113E-01
 0.5187898299504E-04 -0.4177769636975E-03
 0.1035212643423E-03 -0.8426706405235E-03
 0.1532820893118E-03 -0.1274369946936E-02
 0.1996029281480E-03 -0.1712273497578E-02
 0.2411374670285E-03 -0.2155531154492E-02
 0.2768391443945E-03 -0.2603123595620E-02
 0.3059939653763E-03 -0.3053947165571E-02
 0.3282061086668E-03 -0.3506884824752E-02
 0.3433548251894E-03 -0.3960854158963E-02
 0.3515414818756E-03 -0.4414831949717E-02
 0.3530405161451E-03 -0.4867855822154E-02
 0.3482619756978E-03 -0.5319024245933E-02
 0.3377276591846E-03 -0.5767481946444E-02
 0.3220603144895E-03 -0.6212408046442E-02
 0.3019829039772E-03 -0.6653012925954E-02
 0.2783270052230E-03 -0.7088523975678E-02
 0.2520862717370E-03 -0.7518237782491E-02
 0.2244158690628E-03 -0.7941540860395E-02
 0.1965672576145E-03 -0.8357830551361E-02
 0.1699344262385E-03 -0.8766520282926E-02
 0.1461177788256E-03 -0.9167065231005E-02
 0.1269803257295E-03 -0.9558997296138E-02
 0.1147006835843E-03 -0.9941930813883E-02
 0.1118216434875E-03 -0.1031560113080E-01
 0.1212952704079E-03 -0.1067990644465E-01
 0.1465193743045E-03 -0.1103495141627E-01
 0.1913583521084E-03 -0.1138111353888E-01
 0.2601337197861E-03 -0.1171908310550E-01
 0.3575826144549E-03 -0.1204992845072E-01
 0.4887672145963E-03 -0.1237521320926E-01
 0.6589075674503E-03 -0.1269710090032E-01
 0.8731204815172E-03 -0.1301845014266E-01
 0.1136058870975E-02 -0.1334290213217E-01
 0.1451428653263E-02 -0.1367489922721E-01
 0.1821387976080E-02 -0.1401959655663E-01
 0.2245796171204E-02 -0.1438259886785E-01
 0.2721131347104E-02 -0.1476956761324E-01
 0.3239611560089E-02 -0.1518609783510E-01
 0.3789015749167E-02 -0.1563706206881E-01
 0.4352591062517E-02 -0.1612546952258E-01
 0.5628185242714E-04 -0.4182198475353E-03
 0.1123052470534E-03 -0.8437895945468E-03
 0.1662640333580E-03 -0.1276380436291E-02
 0.2164451920701E-03 -0.1715352626274E-02
 0.2613796339051E-03 -0.2159806139086E-02
 0.2999420764464E-03 -0.2608674024407E-02
 0.3313831721744E-03 -0.3060819118989E-02
 0.3553062155546E-03 -0.3515111297258E-02
 0.3716125845307E-03 -0.3970476053751E-02
 0.3804386673819E-03 -0.4425915736971E-02
 0.3820997392737E-03 -0.4880506107996E-02
 0.3770486180368E-03 -0.5333391166060E-02
 0.3658504622891E-03 -0.5783764114968E-02
 0.3491723446760E-03 -0.6230852127925E-02
 0.3277837657943E-03 -0.6673910868149E-02
 0.3025666929207E-03 -0.7112208683875E-02
 0.2745750182516E-03 -0.7545083623276E-02
 0.2450341292917E-03 -0.7971967075846E-02
 0.2152671624893E-03 -0.8392293834099E-02
 0.1867436771884E-03 -0.8805503558844E-02
 0.1611482546579E-03 -0.9211064860800E-02
 0.1404411773578E-03 -0.9608508445640E-02
 0.1269161166742E-03 -0.9997429965494E-02
 0.1232537008828E-03 -0.1037752579635E-01
 0.1325722102872E-03 -0.1074863221440E-01
 0.1584702116600E-03 -0.1111076684072E-01
 0.2050540004163E-03 -0.1146419416939E-01
 0.2769345443192E-03 -0.1180945841893E-01
 0.3791938362578E-03 -0.1214744715561E-01
 0.5173016259335E-03 -0.1247952030879E-01
 0.6969516037076E-03 -0.1280762756677E-01
 0.9237969352135E-03 -0.1313442442396E-01
 0.1203075017241E-02 -0.1346339029137E-01
 0.1539091136842E-02 -0.1379888510386E-01
 0.1934559125259E-02 -0.1414609644897E-01
 0.2389760419273E-02 -0.1451077738408E-01
 0.2901325681354E-02 -0.1489877631695E-01
 0.3461148089323E-02 -0.1531601381385E-01
 0.4056024929320E-02 -0.1576785408610E-01
 0.4667491328149E-02 -0.1625770651390E-01
 0.6083433774476E-04 -0.4187014480242E-03
 0.1213905718240E-03 -0.8450046923189E-03
 0.1796866863503E-03 -0.1278559737000E-02
 0.2338422883542E-03 -0.1718680711722E-02
 0.2822590623415E-03 -0.2164408518873E-02
 0.3237339190862E-03 -0.2614621239957E-02
 0.3574884008611E-03 -0.3068144653384E-02
 0.3831334776457E-03 -0.3523836007189E-02
 0.4006010237996E-03 -0.3980632247025E-02
 0.4100691628377E-03 -0.4437566629005E-02
 0.4118985396898E-03 -0.4893759078536E-02
 0.4065871726464E-03 -0.5348405099551E-02
 0.3947442863768E-03 -0.5800751903687E-02
 0.3770807236606E-03 -0.6250079661942E-02
 0.3544111256967E-03 -0.6695693717511E-02
 0.3276658976094E-03 -0.7136907347474E-02
 0.2979570908568E-03 -0.7573103812938E-02
 0.2665781077436E-03 -0.8003763180418E-02
 0.2349205904345E-03 -0.8428361675880E-02
 0.2045252399674E-03 -0.8846369328124E-02
 0.1771550595508E-03 -0.9257272333655E-02
 0.1548605540154E-03 -0.9660604203127E-02
 0.1400422252271E-03 -0.1005594554451E-01
 0.1355093490645E-03 -0.1044295682482E-01
 0.1445365771689E-03 -0.1082141460038E-01
 0.1709132088595E-03 -0.1119125038988E-01
 0.2189779716985E-03 -0.1155261482323E-01
 0.2936234665741E-03 -0.1190590220089E-01
 0.4002723472221E-03 -0.1225181109851E-01
 0.5448043323701E-03 -0.1259148420653E-01
 0.7333995752415E-03 -0.1292663765777E-01
 0.9722755592125E-03 -0.1325969781913E-01
 0.1267302282861E-02 -0.1359395161551E-01
 0.1623456758958E-02 -0.1393364521431E-01
 0.2044106079242E-02 -0.1428397338161E-01
 0.2530072134314E-02 -0.1465082473032E-01
 0.3078264795020E-02 -0.1504023442156E-01
 0.3680347772903E-02 -0.1545848203585E-01
 0.4322140649892E-02 -0.1591150286737E-01
 0.4983334115804E-02 -0.1640318679299E-01
 0.6554898537973E-04 -0.4192256063087E-03
 0.1308036322571E-03 -0.8463245678186E-03
 0.1935882148297E-03 -0.1280921344036E-02
 0.2518396395192E-03 -0.1722274434606E-02
 0.3038233696167E-03 -0.2169354797998E-02
 0.3482604873561E-03 -0.2620977334763E-02
 0.3843514416390E-03 -0.3075927328909E-02
 0.4117251255298E-03 -0.3533050666755E-02
 0.4303534789335E-03 -0.3991300350560E-02
 0.4404637267989E-03 -0.4449746879177E-02
 0.4424666357411E-03 -0.4907561144220E-02
 0.4369077977593E-03 -0.5363996661444E-02
 0.4244410090726E-03 -0.5818360514879E-02
 0.4058200828898E-03 -0.6269991020788E-02
 0.3819031831265E-03 -0.6718247724431E-02
 0.3536670453453E-03 -0.7162492909613E-02
 0.3222797266078E-03 -0.7602158867007E-02
 0.2891004247516E-03 -0.8036778177990E-02
 0.2555860931528E-03 -0.8465872669299E-02
 0.2233440473327E-03 -0.8888947247306E-02
 0.1942097506242E-03 -0.9305510403048E-02
 0.1703165567349E-03 -0.9715103191236E-02
 0.1541631312730E-03 -0.1011729575345E-01
 0.1486776362785E-03 -0.1051171687607E-01
 0.1572805160385E-03 -0.1089808701838E-01
 0.1839408224772E-03 -0.1127625421299E-01
 0.2332190001082E-03 -0.1164625626005E-01
 0.3102798357561E-03 -0.1200833574760E-01
 0.4208804207834E-03 -0.1236299601875E-01
 0.5713105466104E-03 -0.1271115051335E-01
 0.7682474295367E-03 -0.1305426264399E-01
 0.1018499384015E-02 -0.1339450261180E-01
 0.1328617649326E-02 -0.1373493088922E-01
 0.1704327551944E-02 -0.1407964268483E-01
 0.2149757052690E-02 -0.1443380658782E-01
 0.2666404439768E-02 -0.1480342506651E-01
 0.3251610910315E-02 -0.1519471182799E-01
 0.3896935143787E-02 -0.1561433651831E-01
 0.4587241801786E-02 -0.1606889657700E-01
 0.5300222159190E-02 -0.1656286825007E-01
 0.7043927342336E-04 -0.4197973351267E-03
 0.1405729661825E-03 -0.8477604322992E-03
 0.2080095891030E-03 -0.1283482685826E-02
 0.2704851493270E-03 -0.1726155265750E-02
 0.3261214883049E-03 -0.2174666320252E-02
 0.3735673550632E-03 -0.2627758478642E-02
 0.4120123397701E-03 -0.3084173440492E-02
 0.4411154592830E-03 -0.3542748101489E-02
 0.4608995684721E-03 -0.4002457430923E-02
 0.4716489762704E-03 -0.4462416636910E-02
 0.4738294604195E-03 -0.4921855199689E-02
 0.4680364171229E-03 -0.5380091679332E-02
 0.4549684481447E-03 -0.5836499202569E-02
 0.4354212415558E-03 -0.6290479543703E-02
 0.4102946179926E-03 -0.6741451063852E-02
 0.3806093783777E-03 -0.7188829207978E-02
 0.3475873783330E-03 -0.7632099148381E-02
 0.3126514169957E-03 -0.8070849826109E-02
 0.2773205861330E-03 -0.8504653001954E-02
 0.2432642343570E-03 -0.8933053336924E-02
 0.2123841558286E-03 -0.9355586884365E-02
 0.1868888927353E-03 -0.9771807732785E-02
 0.1693662048814E-03 -0.1018128110271E-01
 0.1628528504870E-03 -0.1058360955424E-01
 0.1709037931386E-03 -0.1097846259900E-01
 0.1976559216760E-03 -0.1136560924925E-01
 0.2478794058816E-03 -0.1174497766426E-01
 0.3270000259559E-03 -0.1211665934019E-01
 0.4411007994311E-03 -0.1248095861868E-01
 0.5968789394904E-03 -0.1283854980919E-01
 0.8015163916495E-03 -0.1319062568021E-01
 0.1062436384133E-02 -0.1353907282600E-01
 0.1386919397525E-02 -0.1388668839422E-01
 0.1781518879004E-02 -0.1423737335688E-01
 0.2251241054485E-02 -0.1459622756106E-01
 0.2798415686430E-02 -0.1496933446633E-01
 0.3420997033025E-02 -0.1536306742225E-01
 0.4110599086800E-02 -0.1578451164742E-01
 0.4851184844140E-02 -0.1624102543892E-01
 0.5618273525523E-02 -0.1673781412627E-01
 0.7551986183758E-04 -0.4204231164443E-03
 0.1507297890644E-03 -0.8493267196179E-03
 0.2229952002030E-03 -0.1286266066736E-02
 0.2898296452184E-03 -0.1730350530316E-02
 0.3492037916951E-03 -0.2180370240518E-02
 0.3996996742291E-03 -0.2634985648648E-02
 0.4405090099833E-03 -0.3092892464886E-02
 0.4713353711296E-03 -0.3552922456392E-02
 0.4922647067589E-03 -0.4014080051300E-02
 0.5036469338025E-03 -0.4475533897788E-02
 0.5060077569214E-03 -0.4936580533220E-02
 0.4999943627212E-03 -0.5396611090324E-02
 0.4863500428932E-03 -0.5855071168304E-02
 0.4659109148915E-03 -0.6311431432653E-02
 0.4396163126984E-03 -0.6765173726391E-02
 0.4085286787133E-03 -0.7215770852293E-02
 0.3739214316163E-03 -0.7662764717972E-02
 0.3372788458039E-03 -0.8105804441951E-02
 0.3001790518048E-03 -0.8544516194534E-02
 0.2643488434281E-03 -0.8978489621404E-02
 0.2317500896923E-03 -0.9407294156720E-02
 0.2046586136729E-03 -0.9830503162821E-02
 0.1857418432345E-03 -0.1024768346845E-01
 0.1781343698058E-03 -0.1065841813500E-01
 0.1855137671371E-03 -0.1106233249877E-01
 0.2121719548025E-03 -0.1145912303378E-01
 0.2630755624949E-03 -0.1184861386366E-01
 0.3438983411863E-03 -0.1223074881898E-01
 0.4610382014981E-03 -0.1260563249318E-01
 0.6215939187489E-03 -0.1297369303107E-01
 0.8332561446947E-03 -0.1333583672462E-01
 0.1104083560299E-02 -0.1369363959359E-01
 0.1442131825519E-02 -0.1404959633798E-01
 0.1854864091464E-02 -0.1440736435667E-01
 0.2348291320138E-02 -0.1477192190305E-01
 0.2925750080921E-02 -0.1514938700580E-01
 0.3586024015437E-02 -0.1554625914437E-01
 0.4320985771519E-02 -0.1597005775053E-01
 0.5113792563919E-02 -0.1642899835252E-01
 0.5937630443440E-02 -0.1692919917136E-01
 0.8080691171080E-04 -0.4211112785389E-03
 0.1613086640352E-03 -0.8510418996284E-03
 0.2385936057847E-03 -0.1289299835302E-02
 0.3099273730514E-03 -0.1734894688135E-02
 0.3731221846701E-03 -0.2186500643183E-02
 0.4267019084494E-03 -0.2642685417927E-02
 0.4698767561770E-03 -0.3102097497412E-02
 0.5024117916405E-03 -0.3563569356122E-02
 0.5244695667163E-03 -0.4026144260411E-02
 0.5364745463481E-03 -0.4489054410045E-02
 0.5390171606174E-03 -0.4951672707004E-02
 0.5327980119306E-03 -0.5413470821855E-02
 0.5186045335700E-03 -0.5873973450035E-02
 0.4973114212306E-03 -0.6332725647008E-02
 0.4698950712424E-03 -0.6789277412144E-02
 0.4374569846451E-03 -0.7243163107669E-02
 0.4013199086120E-03 -0.7693985194627E-02
 0.3630275848972E-03 -0.8141456721536E-02
 0.3242142138671E-03 -0.8585262856398E-02
 0.2866594907937E-03 -0.9025043790018E-02
 0.2523790186214E-03 -0.9460408686938E-02
 0.2237077883215E-03 -0.9890957159213E-02
 0.2033831658751E-03 -0.1031626515797E-01
 0.1946264087385E-03 -0.1073590427906E-01
 0.2012252358346E-03 -0.1114946416223E-01
 0.2276129752838E-03 -0.1155657740011E-01
 0.2789382171040E-03 -0.1195697236437E-01
 0.3611077874091E-03 -0.1235045186064E-01
 0.4808207424921E-03 -0.1273692360827E-01
 0.6455679231800E-03 -0.1311656621453E-01
 0.8635482024700E-03 -0.1348998678642E-01
 0.1143471482269E-02 -0.1385842543810E-01
 0.1494210770466E-02 -0.1422403408516E-01
 0.1924220333837E-02 -0.1459017158597E-01
 0.2440650008602E-02 -0.1496163058287E-01
 0.3048039495443E-02 -0.1534450107018E-01
 0.3746257182009E-02 -0.1574535604120E-01
 0.4527693768942E-02 -0.1617215659941E-01
 0.5374834679269E-02 -0.1663407521923E-01
 0.6258470343064E-02 -0.1713832820675E-01
 0.8631849552796E-04 -0.4218724789574E-03
 0.1723483476427E-03 -0.8529295131696E-03
 0.2548584303608E-03 -0.1292619841666E-02
 0.3308365384660E-03 -0.1739830876603E-02
 0.3979301323935E-03 -0.2193099821978E-02
 0.4546174496888E-03 -0.2650890790816E-02
 0.5001476756953E-03 -0.3111805653613E-02
 0.5343670508177E-03 -0.3574685995484E-02
 0.5575294920315E-03 -0.4038625512136E-02
 0.5701431795872E-03 -0.4502931529080E-02
 0.5728677717701E-03 -0.4967063405846E-02
 0.5664584225905E-03 -0.5430581657326E-02
 0.5517456412464E-03 -0.5893096806265E-02
 0.5296403895518E-03 -0.6354233799165E-02
 0.5011533367900E-03 -0.6813615428678E-02
 0.4674223014311E-03 -0.7270841785091E-02
 0.4298171596539E-03 -0.7725579626086E-02
 0.3899392883718E-03 -0.8177609575268E-02
 0.3494761834444E-03 -0.8626680463891E-02
 0.3102559949062E-03 -0.9072488886802E-02
 0.2743416749924E-03 -0.9514690586381E-02
 0.2441191070465E-03 -0.9952919104935E-02
 0.2223856206343E-03 -0.1038676799799E-01
 0.2124376507387E-03 -0.1081580674895E-01
 0.2181601436174E-03 -0.1123959955279E-01
 0.2441135050880E-03 -0.1165772609666E-01
 0.2956126338306E-03 -0.1206983021654E-01
 0.3787806709783E-03 -0.1247558396383E-01
 0.5006012202941E-03 -0.1287470531540E-01
 0.6689436756336E-03 -0.1326712453931E-01
 0.8925094247615E-03 -0.1365314119371E-01
 0.1180669278245E-02 -0.1403363727908E-01
 0.1543150001621E-02 -0.1441038189547E-01
 0.1989475689699E-02 -0.1478637573947E-01
 0.2528074547096E-02 -0.1516615025394E-01
 0.3164906601573E-02 -0.1555568558761E-01
 0.3901224309281E-02 -0.1596155222884E-01
 0.4730263115575E-02 -0.1639213848524E-01
 0.5634041395717E-02 -0.1685770656056E-01
 0.6580849690448E-02 -0.1736662496768E-01
 0.9207512894763E-04 -0.4227203305361E-03
 0.1838928632992E-03 -0.8550195026568E-03
 0.2718494488771E-03 -0.1296271268184E-02
 0.3526198807561E-03 -0.1745212771828E-02
 0.4236825870329E-03 -0.2200219731787E-02
 0.4834880801150E-03 -0.2659642060985E-02
 0.5313499256138E-03 -0.3122038401218E-02
 0.5672181475025E-03 -0.3586271130805E-02
 0.5914538619190E-03 -0.4051498497711E-02
 0.6046580944208E-03 -0.4517116012218E-02
 0.6075637254797E-03 -0.4982680253538E-02
 0.6009809708064E-03 -0.5447849089331E-02
 0.5857817513432E-03 -0.5912325599171E-02
 0.5629104698388E-03 -0.6375820054187E-02
 0.5334089097840E-03 -0.6838032595251E-02
 0.4984483081383E-03 -0.7298633140489E-02
 0.4594435446356E-03 -0.7757356372886E-02
 0.4180520409430E-03 -0.8214053983465E-02
 0.3760120791691E-03 -0.8668543167883E-02
 0.3351959683873E-03 -0.9120583039428E-02
 0.2977076207972E-03 -0.9569883214167E-02
 0.2659754167843E-03 -0.1001611949879E-01
 0.2428464958810E-03 -0.1045891246515E-01
 0.2316807584988E-03 -0.1089784015092E-01
 0.2364471352959E-03 -0.1133245337693E-01
 0.2618182136406E-03 -0.1176229234332E-01
 0.3132585276111E-03 -0.1218693073609E-01
 0.3970889784742E-03 -0.1260592416237E-01
 0.5205582048636E-03 -0.1301881290392E-01
 0.6918963231694E-03 -0.1342528564677E-01
 0.9202956034761E-03 -0.1382533178341E-01
 0.1215790027884E-02 -0.1421945795622E-01
 0.1588988533779E-02 -0.1460901281946E-01
 0.2050557866939E-02 -0.1499657640094E-01
 0.2610346065435E-02 -0.1538633198155E-01
 0.3275969897271E-02 -0.1578404641813E-01
 0.4050414433277E-02 -0.1619618000523E-01
 0.4928166582312E-02 -0.1663151449887E-01
 0.5891085843397E-02 -0.1710150834057E-01
 0.6904802664209E-02 -0.1761598996956E-01
 0.9810046703623E-04 -0.4236722236064E-03
 0.1959928719077E-03 -0.8573499417869E-03
 0.2896338849872E-03 -0.1300310944598E-02
 0.3753452508943E-03 -0.1751106833397E-02
 0.4504357555015E-03 -0.2207923614426E-02
 0.5133532306050E-03 -0.2668987653763E-02
 0.5635068266340E-03 -0.3132821775110E-02
 0.6009759228879E-03 -0.3598324936191E-02
 0.6262454145262E-03 -0.4064736870490E-02
 0.6400179141104E-03 -0.4531555746533E-02
 0.6431027656718E-03 -0.4998446597440E-02
 0.6363649954296E-03 -0.5465173164496E-02
 0.6207156023743E-03 -0.5931537680957E-02
 0.5971290465781E-03 -0.6397341036095E-02
 0.5666746666746E-03 -0.6862365153690E-02
 0.5305540608732E-03 -0.7326353781359E-02
 0.4902251045940E-03 -0.7789113004114E-02
 0.4473999912405E-03 -0.8250568872343E-02
 0.4038656223691E-03 -0.8710611634009E-02
 0.3615343746904E-03 -0.9169069234182E-02
 0.3225447608279E-03 -0.9625712837360E-02
 0.2893591843252E-03 -0.1008026942788E-01
 0.2648643336662E-03 -0.1053239687423E-01
 0.2524717521750E-03 -0.1098169371935E-01
 0.2562209405148E-03 -0.1142771132076E-01
 0.2808813879449E-03 -0.1186996634920E-01
 0.3320497526706E-03 -0.1230798010359E-01
 0.4162244863461E-03 -0.1274121048258E-01
 0.5408968612740E-03 -0.1316903769290E-01
 0.7146353726100E-03 -0.1359092219404E-01
 0.9471050147735E-03 -0.1400654790781E-01
 0.1248996474359E-02 -0.1441603604088E-01
 0.1631818853806E-02 -0.1482028234547E-01
 0.2107444647266E-02 -0.1522138355345E-01
 0.2687280286606E-02 -0.1562307785563E-01
 0.3380851731887E-02 -0.1603079119910E-01
 0.4193276783950E-02 -0.1645072803799E-01
 0.5120804859645E-02 -0.1689199126989E-01
 0.6145543070906E-02 -0.1736735564808E-01
 0.7230541954313E-02 -0.1788851487806E-01
 0.1044222265155E-03 -0.4247504215552E-03
 0.2087074333081E-03 -0.8599693110057E-03
 0.3082879555048E-03 -0.1304810296159E-02
 0.3990861435877E-03 -0.1757595006925E-02
 0.4782466293599E-03 -0.2216287784698E-02
 0.5442489784478E-03 -0.2678984891863E-02
 0.5966357823382E-03 -0.3144186413004E-02
 0.6356441407193E-03 -0.3610848683001E-02
 0.6618995418486E-03 -0.4078312843627E-02
 0.6762140957789E-03 -0.4546195405389E-02
 0.6794758336429E-03 -0.5014281265476E-02
 0.6726034557125E-03 -0.5482448327498E-02
 0.6565439833053E-03 -0.5950604290817E-02
 0.6322979573822E-03 -0.6418645745737E-02
 0.6009582812420E-03 -0.6886440687915E-02
 0.5637536949038E-03 -0.7353810580960E-02
 0.5221832266225E-03 -0.7820636205202E-02
 0.4780129720742E-03 -0.8286921013230E-02
 0.4330767120376E-03 -0.8752632922933E-02
 0.3893230541370E-03 -0.9217675149837E-02
 0.3489188087677E-03 -0.9681888366037E-02
 0.3143518887119E-03 -0.1014506012369E-01
 0.2885382411137E-03 -0.1060689664924E-01
 0.2749292484328E-03 -0.1106703017241E-01
 0.2776215754841E-03 -0.1152502833276E-01
 0.3014661717918E-03 -0.1198040283059E-01
 0.3521737106944E-03 -0.1243264388467E-01
 0.4363985473150E-03 -0.1288113519019E-01
 0.5618494286897E-03 -0.1332512069934E-01
 0.7374063145307E-03 -0.1376385365289E-01
 0.9731818046577E-03 -0.1419672619524E-01
 0.1280506920863E-02 -0.1462347373658E-01
 0.1671796017671E-02 -0.1504451535901E-01
 0.2160176230272E-02 -0.1546140581391E-01
 0.2758741628306E-02 -0.1587733430377E-01
 0.3479189455702E-02 -0.1629723303183E-01
 0.4329224480309E-02 -0.1672685767365E-01
 0.5307486831499E-02 -0.1717550598742E-01
 0.6396921991590E-02 -0.1765740260403E-01
 0.7558159089152E-02 -0.1818649032826E-01
 0.1110734237636E-03 -0.4259835438884E-03
 0.2221062850493E-03 -0.8629395292080E-03
 0.3278986863740E-03 -0.1309859122400E-02
 0.4239220982288E-03 -0.1764777963367E-02
 0.5071721682427E-03 -0.2225403535147E-02
 0.5762067169193E-03 -0.2689700592620E-02
 0.6307469955332E-03 -0.3156167331577E-02
 0.6712184842527E-03 -0.3623844195553E-02
 0.6984035745994E-03 -0.4092196642015E-02
 0.7132304227237E-03 -0.4560976032226E-02
 0.7166666821625E-03 -0.5030098302618E-02
 0.7096826074923E-03 -0.5499563274302E-02
 0.6932574407034E-03 -0.5969389971349E-02
 0.6684132160588E-03 -0.6439575495111E-02
 0.6362619479838E-03 -0.6910078052155E-02
 0.5980561261464E-03 -0.7380800596727E-02
 0.5553343037712E-03 -0.7851701693803E-02
 0.5099161107577E-03 -0.8322864943827E-02
 0.4636809839827E-03 -0.8794340414869E-02
 0.4186102238799E-03 -0.9266113060885E-02
 0.3768927091605E-03 -0.9738101178825E-02
 0.3410333428050E-03 -0.1021016262070E-01
 0.3139670965000E-03 -0.1068206369850E-01
 0.2991735524711E-03 -0.1115348466280E-01
 0.3007933482558E-03 -0.1162402698058E-01
 0.3237435512321E-03 -0.1209321856380E-01
 0.3738304419888E-03 -0.1256054351362E-01
 0.4578414960293E-03 -0.1302533987373E-01
 0.5836752676884E-03 -0.1348674592590E-01
 0.7604918080154E-03 -0.1394383737199E-01
 0.9988190340817E-03 -0.1439573901720E-01
 0.1310601113142E-02 -0.1484181266968E-01
 0.1709147457928E-02 -0.1528198993951E-01
 0.2208869614228E-02 -0.1571723446119E-01
 0.2824660896273E-02 -0.1615008093594E-01
 0.3570651998559E-02 -0.1658479091583E-01
 0.4457638866654E-02 -0.1702642070438E-01
 0.5487423934910E-02 -0.1748426615718E-01
 0.6644607361666E-02 -0.1797409690110E-01
 0.7887673605874E-02 -0.1851253229288E-01
 0.1180940619546E-03 -0.4274086090360E-03
 0.2362728098679E-03 -0.8663400479855E-03
 0.3485660078190E-03 -0.1315570469489E-02
 0.4499388302286E-03 -0.1772778949083E-02
 0.5372679914810E-03 -0.2235379071631E-02
 0.6092514236466E-03 -0.2701211363145E-02
 0.6658419742028E-03 -0.3168803343917E-02
 0.7076854923704E-03 -0.3637313033918E-02
 0.7357360838259E-03 -0.4106355793966E-02
 0.7510425386622E-03 -0.4575834555101E-02
 0.7546515284673E-03 -0.5045806698581E-02
 0.7475817039969E-03 -0.5516400828804E-02
 0.7308399964479E-03 -0.5987752516581E-02
 0.7054647385890E-03 -0.6459963864762E-02
 0.6725821065064E-03 -0.6933087307707E-02
 0.6334647526853E-03 -0.7407110987699E-02
 0.5896893926302E-03 -0.7882074137673E-02
 0.5431294345295E-03 -0.8358142909298E-02
 0.4957093611861E-03 -0.8835453783562E-02
 0.4494399590023E-03 -0.9314079823596E-02
 0.4065260202823E-03 -0.9794025058706E-02
 0.3694809454424E-03 -0.1027522754090E-01
 0.3412486476560E-03 -0.1075752591883E-01
 0.3253255967130E-03 -0.1124066385151E-01
 0.3258836558482E-03 -0.1172429591596E-01
 0.3478910658146E-03 -0.1220799001628E-01
 0.3972313647310E-03 -0.1269125279576E-01
 0.4808016162016E-03 -0.1317341043121E-01
 0.6066603831755E-03 -0.1365353334003E-01
 0.7842122824427E-03 -0.1413055896192E-01
 0.1024361174114E-02 -0.1460338166578E-01
 0.1339625830648E-02 -0.1507101742649E-01
 0.1744183243135E-02 -0.1553291752430E-01
 0.2253734926185E-02 -0.1598942222400E-01
 0.2885057406101E-02 -0.1644231318337E-01
 0.3654962379643E-02 -0.1689498491549E-01
 0.4577881815452E-02 -0.1735147851687E-01
 0.5659714309276E-02 -0.1782078738835E-01
 0.6887820135091E-02 -0.1832025065517E-01
 0.8219032349990E-02 -0.1886966256905E-01
 0.1255334696756E-03 -0.4290739025466E-03
 0.2513079235053E-03 -0.8702734606979E-03
 0.3704050959161E-03 -0.1322086943236E-02
 0.4772278730557E-03 -0.1781748294627E-02
 0.5685863888265E-03 -0.2246341317034E-02
 0.6433994563907E-03 -0.2713603405827E-02
 0.7019118384318E-03 -0.3182136001764E-02
 0.7450214729908E-03 -0.3651255357226E-02
 0.7738662346563E-03 -0.4120754255124E-02
 0.7896175489930E-03 -0.4590703241586E-02
 0.7933987610128E-03 -0.5061310123480E-02
 0.7862727271867E-03 -0.5532837861647E-02
 0.7692688751486E-03 -0.6005542967563E-02
 0.7434360681495E-03 -0.6479636692608E-02
 0.7099091638869E-03 -0.6955269666862E-02
 0.6699771560332E-03 -0.7432518922137E-02
 0.6252538715653E-03 -0.7911507064037E-02
 0.5776674777160E-03 -0.8392484817913E-02
 0.5291876049271E-03 -0.8875679024642E-02
 0.4818516643454E-03 -0.9361256960502E-02
 0.4378742643188E-03 -0.9849316261925E-02
 0.3997688660338E-03 -0.1033988502953E-01
 0.3704785005595E-03 -0.1083288685508E-01
 0.3535057207991E-03 -0.1132814513281E-01
 0.3530415635100E-03 -0.1182538848251E-01
 0.3740912278303E-03 -0.1232425110302E-01
 0.4225976300710E-03 -0.1282429449251E-01
 0.5055436125138E-03 -0.1332487204294E-01
 0.6311163265350E-03 -0.1382503164250E-01
 0.8089257989117E-03 -0.1432362210178E-01
 0.1050205803808E-02 -0.1481935830452E-01
 0.1367999829882E-02 -0.1531095676974E-01
 0.1777306348296E-02 -0.1579741901962E-01
 0.2295093485872E-02 -0.1627845570334E-01
 0.2940065842444E-02 -0.1675501639924E-01
 0.3731928926011E-02 -0.1722942372398E-01
 0.4689315929642E-02 -0.1770431730803E-01
 0.5823329423971E-02 -0.1818794629712E-01
 0.7125573162312E-02 -0.1869912768440E-01
 0.8552089383370E-02 -0.1926141014281E-01
 0.1334536047960E-03 -0.4310430903912E-03
 0.2673351931063E-03 -0.8748733042426E-03
 0.3935488449464E-03 -0.1329588913612E-02
 0.5058853906317E-03 -0.1791868562238E-02
 0.6011734147191E-03 -0.2258437303686E-02
 0.6786558218739E-03 -0.2726971581408E-02
 0.7389354699111E-03 -0.3196207935622E-02
 0.7831914511550E-03 -0.3665668431175E-02
 0.8127532361115E-03 -0.4135351367704E-02
 0.8289137176573E-03 -0.4605509110860E-02
 0.8328687162555E-03 -0.5076506693749E-02
 0.8257201553218E-03 -0.5548745275370E-02
 0.8085142383903E-03 -0.6022605676388E-02
 0.7823040921566E-03 -0.6498412105207E-02
 0.7482272091746E-03 -0.6976417441297E-02
 0.7075848004612E-03 -0.7456791461442E-02
 0.6620271030540E-03 -0.7939742743812E-02
 0.6135388997397E-03 -0.8425608202105E-02
 0.5641358798665E-03 -0.8914708543403E-02
 0.5158795498035E-03 -0.9407310862426E-02
 0.4709882527238E-03 -0.9903613747232E-02
 0.4319671634807E-03 -0.1040374487103E-01
 0.4017489958987E-03 -0.1090772554214E-01
 0.3838322885766E-03 -0.1141547603864E-01
 0.3824161591663E-03 -0.1192682150181E-01
 0.4025296359471E-03 -0.1244149111912E-01
 0.4501580655707E-03 -0.1295913706278E-01
 0.5323465343407E-03 -0.1347918423116E-01
 0.6573783807846E-03 -0.1400071095223E-01
 0.8350270047159E-03 -0.1452253791270E-01
 0.1076804233653E-02 -0.1504326683005E-01
 0.1396217694822E-02 -0.1556138257884E-01
 0.1809022318322E-02 -0.1607549657722E-01
 0.2333396977091E-02 -0.1658472023797E-01
 0.2989968176626E-02 -0.1708912881565E-01
 0.3801487103733E-02 -0.1758977961114E-01
 0.4791338119453E-02 -0.1808745791338E-01
 0.5977107276150E-02 -0.1858904457885E-01
 0.7356615691449E-02 -0.1911455485100E-01
 0.8886565903925E-02 -0.1969194178601E-01
 0.1419338217689E-03 -0.4334012585716E-03
 0.2845075929700E-03 -0.8803150852219E-03
 0.4181501938870E-03 -0.1338305177594E-02
 0.5360096451425E-03 -0.1803360164112E-02
 0.6350647925238E-03 -0.2271834699362E-02
 0.7150109070502E-03 -0.2741417407253E-02
 0.7768775895872E-03 -0.3211060471173E-02
 0.8221482301221E-03 -0.3680544764020E-02
 0.8523459379822E-03 -0.4150100671992E-02
 0.8688802906982E-03 -0.4620173327569E-02
 0.8730135429429E-03 -0.5091288796275E-02
 0.8658807722621E-03 -0.5563988086185E-02
 0.8485389204140E-03 -0.6038778466084E-02
 0.8220387399218E-03 -0.6516100606442E-02
 0.7875137100136E-03 -0.6996313990477E-02
 0.7462727265410E-03 -0.7479685399194E-02
 0.7000021042096E-03 -0.7966512025161E-02
 0.6507461266824E-03 -0.8457218170364E-02
 0.6005683513997E-03 -0.8952221307818E-02
 0.5515521257818E-03 -0.9451893132434E-02
 0.5059133959078E-03 -0.9956539598710E-02
 0.4661408405682E-03 -0.1046639681737E-01
 0.4351479705763E-03 -0.1098159655707E-01
 0.4164201387437E-03 -0.1150217384855E-01
 0.4141546795883E-03 -0.1202807427171E-01
 0.4333927753285E-03 -0.1255915290169E-01
 0.4801466864760E-03 -0.1309519164345E-01
 0.5615011051599E-03 -0.1363573612575E-01
 0.6858029365983E-03 -0.1417995556602E-01
 0.8629450118920E-03 -0.1472671409410E-01
 0.1104660756368E-02 -0.1527458286722E-01
 0.1424852078816E-02 -0.1582190671122E-01
 0.1839947478188E-02 -0.1636700096965E-01
 0.2369246675350E-02 -0.1690845623691E-01
 0.3035230209224E-02 -0.1744549004443E-01
 0.3863754326765E-02 -0.1797774473230E-01
 0.4883433414973E-02 -0.1850365319694E-01
 0.6119758543935E-02 -0.1902788206809E-01
 0.7579362308932E-02 -0.1957106659727E-01
 0.9221984260125E-02 -0.2016623890227E-01
 0.1510779135144E-03 -0.4362640182264E-03
 0.3030164069648E-03 -0.8868321250485E-03
 0.4443837274862E-03 -0.1348526746072E-02
 0.5676963634642E-03 -0.1816486987815E-02
 0.6702803507153E-03 -0.2286720760630E-02
 0.7524367487543E-03 -0.2757045613085E-02
 0.8156869063124E-03 -0.3226730434349E-02
 0.8618316627439E-03 -0.3695869887497E-02
 0.8925826297800E-03 -0.4164948602891E-02
 0.9094574787791E-03 -0.4634610609581E-02
 0.9137771725040E-03 -0.5105543003914E-02
 0.9067035242547E-03 -0.5578425639424E-02
 0.8892981570507E-03 -0.6053892922652E-02
 0.8626026434711E-03 -0.6532505245040E-02
 0.8277391750539E-03 -0.7014733663901E-02
 0.7860192315443E-03 -0.7500947023616E-02
 0.7391652305077E-03 -0.7991534077785E-02
 0.6892850345822E-03 -0.8487007328132E-02
 0.6384928408684E-03 -0.8987883074614E-02
 0.5888917404282E-03 -0.9494641104183E-02
 0.5426890071449E-03 -0.1000769968349E-01
 0.5023488329760E-03 -0.1052741116539E-01
 0.4707573992357E-03 -0.1105403030849E-01
 0.4513788665144E-03 -0.1158772542796E-01
 0.4484004091917E-03 -0.1212858780721E-01
 0.4668655039261E-03 -0.1267663127446E-01
 0.5127997640900E-03 -0.1323180936012E-01
 0.5933064217655E-03 -0.1379384207494E-01
 0.7167639756875E-03 -0.1436205698424E-01
 0.8931400356234E-03 -0.1493544407071E-01
 0.1134330221993E-02 -0.1551264321263E-01
 0.1454553772417E-02 -0.1609197615938E-01
 0.1870814643590E-02 -0.1667159484872E-01
 0.2403411063379E-02 -0.1724970640352E-01
 0.3076541264299E-02 -0.1782477173943E-01
 0.3919099593479E-02 -0.1839496020860E-01
 0.4965257916773E-02 -0.1895586073957E-01
 0.6249897237269E-02 -0.1950883358072E-01
 0.7791804288846E-02 -0.2007409573449E-01
 0.9557562167318E-02 -0.2069034543864E-01
 0.1610247844741E-03 -0.4397916470053E-03
 0.3231028515884E-03 -0.8947387249953E-03
 0.4724454149434E-03 -0.1360624417793E-02
 0.6010309356525E-03 -0.1831561004203E-02
 0.7068167926036E-03 -0.2303298677887E-02
 0.7908830651585E-03 -0.2773958875863E-02
 0.8552945430367E-03 -0.3243246133699E-02
 0.9021682414285E-03 -0.3711619840130E-02
 0.9333910964566E-03 -0.4179833120088E-02
 0.9505766304687E-03 -0.4648728688331E-02
 0.9550954152715E-03 -0.5119150119255E-02
 0.9481294313227E-03 -0.5591912002699E-02
 0.9307392971193E-03 -0.6067774867657E-02
 0.9039507358853E-03 -0.6547421892839E-02
 0.8688667561552E-03 -0.7031441729564E-02
 0.8267955236756E-03 -0.7520311756169E-02
 0.7794958792071E-03 -0.8014515989757E-02
 0.7291447011670E-03 -0.8514655635936E-02
 0.6779105746890E-03 -0.9021346700790E-02
 0.6279141861643E-03 -0.9535178579468E-02
 0.5813476102222E-03 -0.1005668459646E-01
 0.5406429282167E-03 -0.1058633962416E-01
 0.5086519074684E-03 -0.1112453358865E-01
 0.4888109338771E-03 -0.1167158731097E-01
 0.4852903576974E-03 -0.1222776434721E-01
 0.5031282345720E-03 -0.1279327182691E-01
 0.5483524535814E-03 -0.1336827906774E-01
 0.6280660014905E-03 -0.1395273776084E-01
 0.7506485910329E-03 -0.1454620742791E-01
 0.9260986410140E-03 -0.1514789645045E-01
 0.1166413647107E-02 -0.1575662913246E-01
 0.1486049025893E-02 -0.1637084707421E-01
 0.1902475139491E-02 -0.1698871261261E-01
 0.2436839495717E-02 -0.1760825411320E-01
 0.3114853891148E-02 -0.1822738755475E-01
 0.3968228002390E-02 -0.1884290679392E-01
 0.5036761919216E-02 -0.1944717053129E-01
 0.6366116361151E-02 -0.2003691645786E-01
 0.7991406012341E-02 -0.2063022705533E-01
 0.9892041809068E-02 -0.2127172675388E-01
 0.1719650888845E-03 -0.4442118109140E-03
 0.3450728918867E-03 -0.9044646241369E-03
 0.5025483426905E-03 -0.1375070477759E-02
 0.6360760457448E-03 -0.1848943813855E-02
 0.7446388576990E-03 -0.2321779916310E-02
 0.8302734912810E-03 -0.2792250483579E-02
 0.8956129977641E-03 -0.3260622633131E-02
 0.9430711117634E-03 -0.3727758450756E-02
 0.9746889809078E-03 -0.4194682334762E-02
 0.9921606256053E-03 -0.4662427865459E-02
 0.9968962035611E-03 -0.5131985384376E-02
 0.9900915639744E-03 -0.5604296587135E-02
 0.9728014841466E-03 -0.6080245076611E-02
 0.9460297505520E-03 -0.6560639683569E-02
 0.9108517493339E-03 -0.7046194281265E-02
 0.8685653277518E-03 -0.7537503595494E-02
 0.8209662215037E-03 -0.8035152128728E-02
 0.7703072664194E-03 -0.8539830159865E-02
 0.7188160785831E-03 -0.9052252562507E-02
 0.6686284097057E-03 -0.9573116848548E-02
 0.6219142579175E-03 -0.1010307095782E-01
 0.5810666034243E-03 -0.1064271651852E-01
 0.5488971429136E-03 -0.1119259041050E-01
 0.5288096053478E-03 -0.1175318603471E-01
 0.5249527293138E-03 -0.1232496713872E-01
 0.5423538354468E-03 -0.1290837007346E-01
 0.5870350007628E-03 -0.1350382562801E-01
 0.6660831739112E-03 -0.1411157700175E-01
 0.7878514904012E-03 -0.1473149410715E-01
 0.9623274662607E-03 -0.1536310514114E-01
 0.1201551601009E-02 -0.1600555000235E-01
 0.1520133602777E-02 -0.1665755841120E-01
 0.1935895913181E-02 -0.1731751810791E-01
 0.2470668997734E-02 -0.1798355448168E-01
 0.3151418088038E-02 -0.1865338135195E-01
 0.4012276169742E-02 -0.1932274427306E-01
 0.5098365060656E-02 -0.1998065524107E-01
 0.6467143470781E-02 -0.2061781833031E-01
 0.8175001216096E-02 -0.2124753182497E-01
 0.1022340990928E-01 -0.2191980600830E-01
 0.1841679713596E-03 -0.4498575357290E-03
 0.3693151057579E-03 -0.9166071088804E-03
 0.5349105213627E-03 -0.1392463652551E-02
 0.6728531505854E-03 -0.1869041330541E-02
 0.7836695179419E-03 -0.2342370954421E-02
 0.8705027251008E-03 -0.2811995041512E-02
 0.9365358981283E-03 -0.3278856574370E-02
 0.9844405961095E-03 -0.3744234546141E-02
 0.1016384495548E-02 -0.4209413210480E-02
 0.1034124512410E-02 -0.4675600711709E-02
 0.1039100004128E-02 -0.5143918890092E-02
 0.1032515103470E-02 -0.5615425050773E-02
 0.1015415298323E-02 -0.6091120331226E-02
 0.9887775704954E-03 -0.6571941692519E-02
 0.9536409293695E-03 -0.7058738121832E-02
 0.9112844040103E-03 -0.7552234259455E-02
 0.8635409771967E-03 -0.8053123132007E-02
 0.8127479649845E-03 -0.8562184652739E-02
 0.7611972899098E-03 -0.9080229122412E-02
 0.7110363661341E-03 -0.9608056085158E-02
 0.6644058623296E-03 -0.1014642314597E-01
 0.6236537613687E-03 -0.1069606037838E-01
 0.5915479824691E-03 -0.1125766314752E-01
 0.5714567038441E-03 -0.1183191871868E-01
 0.5675042036210E-03 -0.1241952049143E-01
 0.5847042885914E-03 -0.1302117102734E-01
 0.6290685699028E-03 -0.1363760883813E-01
 0.7076558362348E-03 -0.1426942944925E-01
 0.8287684494075E-03 -0.1491689453746E-01
 0.1002345313959E-02 -0.1557996051694E-01
 0.1240415163323E-02 -0.1625822783822E-01
 0.1557663147638E-02 -0.1695090610957E-01
 0.1972150686105E-02 -0.1765686186238E-01
 0.2506221086970E-02 -0.1837466124961E-01
 0.3187801880265E-02 -0.1910229646670E-01
 0.4052906967090E-02 -0.1983508836451E-01
 0.5151191403883E-02 -0.2055909406227E-01
 0.6552132437823E-02 -0.2125781875454E-01
 0.8338733394955E-02 -0.2193599341614E-01
 0.1054843500929E-01 -0.2264679175792E-01
 0.1980254724382E-03 -0.4572336760086E-03
 0.3963193970582E-03 -0.9320108937011E-03
 0.5697278300584E-03 -0.1413552987724E-02
 0.7113166861848E-03 -0.1892285040250E-02
 0.8237809586335E-03 -0.2365253298287E-02
 0.9114354751394E-03 -0.2833238008266E-02
 0.9779387199277E-03 -0.3297920883185E-02
 0.1026165292951E-02 -0.3760979218488E-02
 0.1058377513685E-02 -0.4223930435880E-02
 0.1076376401461E-02 -0.4688131950014E-02
 0.1081620424230E-02 -0.5154816207449E-02
 0.1075317517266E-02 -0.5625140535174E-02
 0.1058502358437E-02 -0.6100214923382E-02
 0.1032122359664E-02 -0.6581105991144E-02
 0.9971716135653E-03 -0.7068810634490E-02
 0.9548999137136E-03 -0.7564201859247E-02
 0.9071772551110E-03 -0.8068094313065E-02
 0.8564354319558E-03 -0.8581358884745E-02
 0.8050359920793E-03 -0.9104893724261E-02
 0.7551330609164E-03 -0.9639587249848E-02
 0.7088305260824E-03 -0.1018629556568E-01
 0.6684273312374E-03 -0.1074587596589E-01
 0.6366465429617E-03 -0.1131919398911E-01
 0.6168201760026E-03 -0.1190715386525E-01
 0.6130470566966E-03 -0.1251071006663E-01
 0.6303271694095E-03 -0.1313086920408E-01
 0.6746607646436E-03 -0.1376872313565E-01
 0.7530706184276E-03 -0.1442527942033E-01
 0.8737887018094E-03 -0.1510127323729E-01
 0.1046673525927E-02 -0.1579720206396E-01
 0.1283694310589E-02 -0.1651328329716E-01
 0.1599539620720E-02 -0.1724941880246E-01
 0.2012404427013E-02 -0.1800523991133E-01
 0.2544986019740E-02 -0.1878015408442E-01
 0.3225888205056E-02 -0.1957303498340E-01
 0.4092379710751E-02 -0.2037972355157E-01
 0.5197356089916E-02 -0.2118450376959E-01
 0.6621175154896E-02 -0.2196346769016E-01
 0.8478153112177E-02 -0.2270799573518E-01
 0.1086190432342E-01 -0.2346899301937E-01
 0.2141288590201E-03 -0.4671400181263E-03
 0.4266884009441E-03 -0.9518912071325E-03
 0.6071204536864E-03 -0.1439247165806E-02
 0.7513222719153E-03 -0.1919089882644E-02
 0.8647897721495E-03 -0.2390557960063E-02
 0.9529078806118E-03 -0.2855985595356E-02
 0.1019680481971E-02 -0.3317759549125E-02
 0.1068123823874E-02 -0.3777903345388E-02
 0.1100561044467E-02 -0.4238125580510E-02
 0.1118818615824E-02 -0.4699898552250E-02
 0.1124365035933E-02 -0.5164539248088E-02
 0.1118408901901E-02 -0.5633285266806E-02
 0.1101974909836E-02 -0.6107342762660E-02
 0.1075981390422E-02 -0.6587907305782E-02
 0.1041370283496E-02 -0.7076139695240E-02
 0.9993495139038E-03 -0.7573088840461E-02
 0.9518245026184E-03 -0.8079713141582E-02
 0.9013324511829E-03 -0.8596977625515E-02
 0.8503087173050E-03 -0.9125853767482E-02
 0.8009068176945E-03 -0.9667294694059E-02
 0.7551868423760E-03 -0.1022223556378E-01
 0.7153976858758E-03 -0.1079165678916E-01
 0.6842199489741E-03 -0.1137660672209E-01
 0.6649514449287E-03 -0.1197823233762E-01
 0.6616661590289E-03 -0.1259778331811E-01
 0.6793520435435E-03 -0.1323660903515E-01
 0.7240009556652E-03 -0.1389619822082E-01
 0.8025965329490E-03 -0.1457802615188E-01
 0.9232862750273E-03 -0.1528338017242E-01
 0.1095824580410E-02 -0.1601341296902E-01
 0.1332083639246E-02 -0.1676912373886E-01
 0.1646693793213E-02 -0.1755133599164E-01
 0.2057890918300E-02 -0.1836075655554E-01
 0.2588593130058E-02 -0.1919807173159E-01
 0.3267839350717E-02 -0.2006372265162E-01
 0.4133556582680E-02 -0.2095527489373E-01
 0.5240251922992E-02 -0.2185740886425E-01
 0.6676137352692E-02 -0.2274075256327E-01
 0.8588735893325E-02 -0.2357871606821E-01
 0.1115539572005E-01 -0.2440895609922E-01
 0.2334045411456E-03 -0.4809160978576E-03
 0.4611168207206E-03 -0.9780197870397E-03
 0.6470355019505E-03 -0.1470572736508E-02
 0.7925974144668E-03 -0.1949778414590E-02
 0.9064611710225E-03 -0.2418341415607E-02
 0.9947309507693E-03 -0.2880196110377E-02
 0.1061606454720E-02 -0.3338282434396E-02
 0.1110187305313E-02 -0.3794895751907E-02
 0.1142823037049E-02 -0.4251876585352E-02
 0.1161349092175E-02 -0.4710770081702E-02
 0.1167236433609E-02 -0.5172947337043E-02
 0.1161692573268E-02 -0.5639702504049E-02
 0.1145735483153E-02 -0.6112320263522E-02
 0.1120259474222E-02 -0.6592119679776E-02
 0.1086150476922E-02 -0.7080443782754E-02
 0.1044559964835E-02 -0.7578558748395E-02
 0.9974246532032E-03 -0.8087605222802E-02
 0.9473974374642E-03 -0.8608649185437E-02
 0.8969883158401E-03 -0.9142708556786E-02
 0.8483397810043E-03 -0.9690759731409E-02
 0.8034630988238E-03 -0.1025378710077E-01
 0.7645608144143E-03 -0.1083288814119E-01
 0.7342777964293E-03 -0.1142930885580E-01
 0.7158825047442E-03 -0.1204446845455E-01
 0.7134258907354E-03 -0.1267994992594E-01
 0.7318869294366E-03 -0.1333748561067E-01
 0.7772555899866E-03 -0.1401900077506E-01
 0.8564782092568E-03 -0.1472648584227E-01
 0.9776102871614E-03 -0.1546185133218E-01
 0.1150288892058E-02 -0.1622701712166E-01
 0.1386265329541E-02 -0.1702393401999E-01
 0.1700064037599E-02 -0.1785458928134E-01
 0.2109884047822E-02 -0.1872109334201E-01
 0.2638767052334E-02 -0.1962585731602E-01
 0.3316027300028E-02 -0.2057159654288E-01
 0.4179798602767E-02 -0.2155890431654E-01
 0.5284692072226E-02 -0.2257584523700E-01
 0.6721881588988E-02 -0.2359327446442E-01
 0.8667404397186E-02 -0.2456586691994E-01
 0.1141543155158E-01 -0.2549896869603E-01
 0.2573641144253E-03 -0.5009762281119E-03
 0.5002674697313E-03 -0.1012977386143E-02
 0.6890894606118E-03 -0.1508490552112E-02
 0.8347404131826E-03 -0.1984479884021E-02
 0.9485238824523E-03 -0.2448577550814E-02
 0.1036693897392E-02 -0.2905769487639E-02
 0.1103552650739E-02 -0.3359361238976E-02
 0.1152222335572E-02 -0.3811822325664E-02
 0.1185048459941E-02 -0.4265047533218E-02
 0.1203863024660E-02 -0.4720609368854E-02
 0.1210133508373E-02 -0.5179898438371E-02
 0.1205066011376E-02 -0.5644238722518E-02
 0.1189676824876E-02 -0.6114970145234E-02
 0.1164846941877E-02 -0.6593520843853E-02
 0.1131409449449E-02 -0.7081432708480E-02
 0.1090444831195E-02 -0.7580251030690E-02
 0.1043912672007E-02 -0.8091367768138E-02
 0.9945871707727E-03 -0.8615963519815E-02
 0.9450464341383E-03 -0.9155052389555E-02
 0.8974085880973E-03 -0.9709565509939E-02
 0.8536362756025E-03 -0.1028049524974E-01
 0.8158961862961E-03 -0.1086905067898E-01
 0.7868092391622E-03 -0.1147669413471E-01
 0.7696226631001E-03 -0.1210515114774E-01
 0.7683670022130E-03 -0.1275638193165E-01
 0.7880150663532E-03 -0.1343254554490E-01
 0.8345637512320E-03 -0.1413603755151E-01
 0.9149288248818E-03 -0.1486939596807E-01
 0.1037074189226E-02 -0.1563521183552E-01
 0.1210519882205E-02 -0.1643627888081E-01
 0.1446889266102E-02 -0.1727567095760E-01
 0.1760571427661E-02 -0.1815678699701E-01
 0.2169665396921E-02 -0.1908348446974E-01
 0.2697270100622E-02 -0.2006032601635E-01
 0.3372936076520E-02 -0.2109292539812E-01
 0.4234739269035E-02 -0.2218612329725E-01
 0.5336614048465E-02 -0.2333433582213E-01
 0.6767668242415E-02 -0.2451873408645E-01
 0.8716237160504E-02 -0.2568711373738E-01
 0.1162126794193E-01 -0.2678656760555E-01
 0.2885725836431E-03 -0.5321429587801E-03
 0.5443394890420E-03 -0.1060321453805E-02
 0.7323823937746E-03 -0.1553384602810E-02
 0.8772996815342E-03 -0.2023104088869E-02
 0.9906780297389E-03 -0.2481160766954E-02
 0.1078569105967E-02 -0.2932529004415E-02
 0.1145352964754E-02 -0.3380831763943E-02
 0.1194093581482E-02 -0.3828524292477E-02
 0.1227121942354E-02 -0.4277489423849E-02
 0.1246254583936E-02 -0.4729273325936E-02
 0.1252952940928E-02 -0.5185250575936E-02
 0.1248422223208E-02 -0.5646745774417E-02
 0.1233682518163E-02 -0.6115126019351E-02
 0.1209617315691E-02 -0.6591899515200E-02
 0.1177022702925E-02 -0.7078810119431E-02
 0.1136900407702E-02 -0.7577772344721E-02
 0.1091217994031E-02 -0.8090558680229E-02
 0.1042861727172E-02 -0.8618490314006E-02
 0.9944571101707E-03 -0.9162479903207E-02
 0.9480849930941E-03 -0.9723303498084E-02
 0.9056706847099E-03 -0.1030191152401E-01
 0.8693642557162E-03 -0.1089962451081E-01
 0.8417796372769E-03 -0.1151814553108E-01
 0.8261547420704E-03 -0.1215954522443E-01
 0.8265033819577E-03 -0.1282621304000E-01
 0.8477924053190E-03 -0.1352078747596E-01
 0.8960334200112E-03 -0.1424616036637E-01
 0.9781227445168E-03 -0.1500542264682E-01
 0.1101943964693E-02 -0.1580188169894E-01
 0.1276917235671E-02 -0.1663930622311E-01
 0.1514551029127E-02 -0.1752206146209E-01
 0.1829089161075E-02 -0.1845520584571E-01
 0.2238493515605E-02 -0.1944468928015E-01
 0.2765837239839E-02 -0.2049767230086E-01
 0.3441027478131E-02 -0.2162298257857E-01
 0.4302029980579E-02 -0.2283072028696E-01
 0.5402021487654E-02 -0.2412354268856E-01
 0.6827444172870E-02 -0.2550360281838E-01
 0.8750569329954E-02 -0.2695011466761E-01
 0.1174415725764E-01 -0.2834209493717E-01
 0.3314809617492E-03 -0.5856638552400E-03
 0.5917356573539E-03 -0.1123454141884E-02
 0.7756061273782E-03 -0.1604207414402E-02
 0.9199357909085E-03 -0.2065679123337E-02
 0.1032546934962E-02 -0.2515770183878E-02
 0.1120145639764E-02 -0.2960253665567E-02
 0.1186837759141E-02 -0.3402484527273E-02
 0.1235669491402E-02 -0.3844821003950E-02
 0.1268929750060E-02 -0.4289040593235E-02
 0.1288418995997E-02 -0.4736614223142E-02
 0.1295590774127E-02 -0.5188863393977E-02
 0.1291651443272E-02 -0.5647082832938E-02
 0.1277628976967E-02 -0.6112636715717E-02
 0.1254425540573E-02 -0.6587067494074E-02
 0.1222834683890E-02 -0.7072281168739E-02
 0.1183797876997E-02 -0.7570680942216E-02
 0.1139268226264E-02 -0.8084677500388E-02
 0.1092193326693E-02 -0.8615779034287E-02
 0.1045201342189E-02 -0.9164595215774E-02
 0.1000336022583E-02 -0.9731581631713E-02
 0.9595160805390E-03 -0.1031760000876E-01
 0.9249035637491E-03 -0.1092409365327E-01
 0.8991268051198E-03 -0.1155303881933E-01
 0.8854303778290E-03 -0.1220689318171E-01
 0.8878184307069E-03 -0.1288853611989E-01
 0.9112466643695E-03 -0.1360116090683E-01
 0.9617392076729E-03 -0.1434817436324E-01
 0.1046187600840E-02 -0.1513317220442E-01
 0.1172424985687E-02 -0.1596018399110E-01
 0.1349809309899E-02 -0.1683405706454E-01
 0.1589765863094E-02 -0.1776060753094E-01
 0.1906412858549E-02 -0.1874678337572E-01
 0.2317551219748E-02 -0.1980098691593E-01
 0.2846188462540E-02 -0.2093340998562E-01
 0.3522431285777E-02 -0.2215639096330E-01
 0.4385321010815E-02 -0.2348421700895E-01
 0.5485365557194E-02 -0.2493183373723E-01
 0.6915731680409E-02 -0.2651869906382E-01
 0.8811471204795E-02 -0.2832580010718E-01
 0.1176150064964E-01 -0.3025228709522E-01
-0.3786221170877E-01 -0.2548765847780E-01
-0.6737697328379E-01 -0.3701878907957E-01
-0.9497569997811E-01 -0.5198029623116E-01
-0.1203458755173E+00 -0.7014584012290E-01
-0.1432451171754E+00 -0.9122021092456E-01
-0.1635157763231E+00 -0.1148953287838E+00
-0.1810918528447E+00 -0.1408889869043E+00
-0.1960132530659E+00 -0.1689685143848E+00
-0.2084507839360E+00 -0.1989591091337E+00
-0.2187221040278E+00 -0.2307338686983E+00
-0.2272596314602E+00 -0.2641835476062E+00
-0.2345196679823E+00 -0.2991744051719E+00
-0.2409017591173E+00 -0.3355308253724E+00
-0.2466865407117E+00 -0.3730474595658E+00
-0.2520222070106E+00 -0.4115068982130E+00
-0.2569487005963E+00 -0.4506927421639E+00
-0.2614047921979E+00 -0.4903913509102E+00
-0.2652315444004E+00 -0.5303893734789E+00
-0.2681399355022E+00 -0.5704708916890E+00
-0.3610499724452E-01 -0.2537460488971E-01
-0.6423900414404E-01 -0.3703340913082E-01
-0.9052856511450E-01 -0.5215550076565E-01
-0.1147074994548E+00 -0.7052494333549E-01
-0.1365571645425E+00 -0.9186176801698E-01
-0.1559278422864E+00 -0.1158704997801E+00
-0.1727506673028E+00 -0.1422753835547E+00
-0.1870552804528E+00 -0.1708431027448E+00
-0.1989967007528E+00 -0.2013926724107E+00
-0.2088725367652E+00 -0.2337890339047E+00
-0.2170937415680E+00 -0.2679164975077E+00
-0.2240986427122E+00 -0.3036410913856E+00
-0.2302704085452E+00 -0.3407925238365E+00
-0.2358770475226E+00 -0.3791729157949E+00
-0.2410594739549E+00 -0.4185729519308E+00
-0.2458525654596E+00 -0.4587849657636E+00
-0.2501928322562E+00 -0.4996059557148E+00
-0.2539169069898E+00 -0.5408331438509E+00
-0.2567616190907E+00 -0.5822056652354E+00
-0.3432036805862E-01 -0.2528179309638E-01
-0.6105514905775E-01 -0.3707643364083E-01
-0.8601823559466E-01 -0.5237030654665E-01
-0.1089851272774E+00 -0.7095325922909E-01
-0.1297604706072E+00 -0.9255764311391E-01
-0.1482037045036E+00 -0.1168988988243E+00
-0.1642449837616E+00 -0.1437071910062E+00
-0.1779055187495E+00 -0.1727491199077E+00
-0.1893258269202E+00 -0.2038388467409E+00
-0.1987840643102E+00 -0.2368346570326E+00
-0.2066694808699E+00 -0.2716163245891E+00
-0.2134009529290E+00 -0.3080506452796E+00
-0.2193442666680E+00 -0.3459727981258E+00
-0.2247544070550E+00 -0.3851923955054E+00
-0.2297645157637E+00 -0.4255084170971E+00
-0.2344043772590E+00 -0.4667215927052E+00
-0.2386076121836E+00 -0.5086363476346E+00
-0.2422162383792E+00 -0.5510425562374E+00
-0.2449931437659E+00 -0.5936761718359E+00
-0.3250653963297E-01 -0.2520639574922E-01
-0.5782182262568E-01 -0.3714197286865E-01
-0.8144059009216E-01 -0.5261499721329E-01
-0.1031754020545E+00 -0.7141780297438E-01
-0.1228531793012E+00 -0.9329215462753E-01
-0.1403433493684E+00 -0.1179627456201E+00
-0.1555766313772E+00 -0.1451650954084E+00
-0.1685673899374E+00 -0.1746660980878E+00
-0.1794428324032E+00 -0.2062760877146E+00
-0.1884622069479E+00 -0.2398481354867E+00
-0.1959927958901E+00 -0.2752589041823E+00
-0.2024328480343E+00 -0.3123768236590E+00
-0.2081299059143E+00 -0.3510427835586E+00
-0.2133254586103E+00 -0.3910739141898E+00
-0.2181445315483E+00 -0.4322771979141E+00
-0.2226118979045E+00 -0.4744605248448E+00
-0.2266609034672E+00 -0.5174306995843E+00
-0.2301421799752E+00 -0.5609757990835E+00
-0.2328393048543E+00 -0.6048386577078E+00
-0.3066246833244E-01 -0.2514595717149E-01
-0.5453675032744E-01 -0.3722489957565E-01
-0.7679297905235E-01 -0.5288112822762E-01
-0.9727633306307E-01 -0.7190688953761E-01
-0.1158346801735E+00 -0.9405087577821E-01
-0.1323478771675E+00 -0.1190454161074E+00
-0.1467484454663E+00 -0.1466307657291E+00
-0.1590452785957E+00 -0.1765743334279E+00
-0.1693533486840E+00 -0.2086834779627E+00
-0.1779134915075E+00 -0.2428072517779E+00
-0.1850707903362E+00 -0.2788203920029E+00
-0.1912018861146E+00 -0.3165936766191E+00
-0.1966353163052E+00 -0.3559739199039E+00
-0.2015986509192E+00 -0.3967856457390E+00
-0.2062085910705E+00 -0.4388432293846E+00
-0.2104857500136E+00 -0.4819599923596E+00
-0.2143650008708E+00 -0.5259450095660E+00
-0.2177060324724E+00 -0.5705880887996E+00
-0.2203089265568E+00 -0.6156416755386E+00
-0.2878772568922E-01 -0.2509829591993E-01
-0.5119877348672E-01 -0.3732072741920E-01
-0.7207407242192E-01 -0.5316121522522E-01
-0.9128723775432E-01 -0.7240997698735E-01
-0.1087055687080E+00 -0.9482053496100E-01
-0.1242194865349E+00 -0.1201313760751E+00
-0.1377642777444E+00 -0.1480868367305E+00
-0.1493445453527E+00 -0.1784549468904E+00
-0.1590639889510E+00 -0.2110407695744E+00
-0.1671454870774E+00 -0.2456903312523E+00
-0.1739117247684E+00 -0.2822774164910E+00
-0.1797169079235E+00 -0.3206757267050E+00
-0.1848699071478E+00 -0.3607381122492E+00
-0.1895840269085E+00 -0.4022962295731E+00
-0.1939676927065E+00 -0.4451710789694E+00
-0.1980381904910E+00 -0.4891807414081E+00
-0.2017328872081E+00 -0.5341371627073E+00
-0.2049202346132E+00 -0.5798337761367E+00
-0.2074140261854E+00 -0.6260323236694E+00
-0.2688240335423E-01 -0.2506147022619E-01
-0.4780770282748E-01 -0.3742547987058E-01
-0.6728373458524E-01 -0.5344857238092E-01
-0.8520866596441E-01 -0.7291751044069E-01
-0.1014676168547E+00 -0.9558891867036E-01
-0.1159614753841E+00 -0.1212061253665E+00
-0.1286290215147E+00 -0.1495169000205E+00
-0.1394715706638E+00 -0.1802899097537E+00
-0.1485824070814E+00 -0.2133284563315E+00
-0.1561668689327E+00 -0.2484763538731E+00
-0.1625250734840E+00 -0.2856072210032E+00
-0.1679880933022E+00 -0.3245981114031E+00
-0.1728445665629E+00 -0.3653079133360E+00
-0.1772932899363E+00 -0.4075750629835E+00
-0.1814345504321E+00 -0.4512266352669E+00
-0.1852829329807E+00 -0.4960852353285E+00
-0.1887788079114E+00 -0.5419662304129E+00
-0.1917990332345E+00 -0.5886673896560E+00
-0.1941694636455E+00 -0.6359584162522E+00
-0.2494704275502E-01 -0.2503374481699E-01
-0.4436419805326E-01 -0.3753560953861E-01
-0.6242290286136E-01 -0.5373719660371E-01
-0.7904230423266E-01 -0.7342081459106E-01
-0.9412370481522E-01 -0.9634479710541E-01
-0.1075781919084E+00 -0.1222561700048E+00
-0.1193485725807E+00 -0.1509055201501E+00
-0.1294337192161E+00 -0.1820621056586E+00
-0.1379172588553E+00 -0.2155278806668E+00
-0.1449873689440E+00 -0.2511451045181E+00
-0.1509214570829E+00 -0.2887878464578E+00
-0.1560268748060E+00 -0.3283368010272E+00
-0.1605715548413E+00 -0.3696567991944E+00
-0.1647396106562E+00 -0.4125927078529E+00
-0.1686233244670E+00 -0.4569772818333E+00
-0.1722350227218E+00 -0.5026375527832E+00
-0.1755183816508E+00 -0.5493925985594E+00
-0.1783584570995E+00 -0.5970445946012E+00
-0.1805923654412E+00 -0.6453696776657E+00
-0.2298257949238E-01 -0.2501356648485E-01
-0.4086966993776E-01 -0.3764793935264E-01
-0.5749348514843E-01 -0.5402168320865E-01
-0.7279089441868E-01 -0.7391200807895E-01
-0.8667776823686E-01 -0.9707786106899E-01
-0.9907500719236E-01 -0.1232689931906E+00
-0.1099298209960E+00 -0.1522382437780E+00
-0.1192393445193E+00 -0.1837553773333E+00
-0.1270782136467E+00 -0.2176213163202E+00
-0.1336177887439E+00 -0.2536772867457E+00
-0.1391126511789E+00 -0.2917982720635E+00
-0.1438459390343E+00 -0.3318687683047E+00
-0.1480644821369E+00 -0.3737593840628E+00
-0.1519375686556E+00 -0.4173210788865E+00
-0.1555495785832E+00 -0.4623919665127E+00
-0.1589108986422E+00 -0.5088033959457E+00
-0.1619687385306E+00 -0.5563782063070E+00
-0.1646163167484E+00 -0.6049227328332E+00
-0.1667018103247E+00 -0.6542182180271E+00
-0.2099029746165E-01 -0.2499954583748E-01
-0.3732619453776E-01 -0.3775962169746E-01
-0.5249826158816E-01 -0.5429716663322E-01
-0.6645814351022E-01 -0.7438394351759E-01
-0.7913472404465E-01 -0.9777867998994E-01
-0.9045825581826E-01 -0.1242330440713E+00
-0.1003806011255E+00 -0.1535016247898E+00
-0.1088977423288E+00 -0.1853545892431E+00
-0.1160759055362E+00 -0.2195920668599E+00
-0.1220699430658E+00 -0.2560546545178E+00
-0.1271115159564E+00 -0.2946185780115E+00
-0.1314591358267E+00 -0.3351721836797E+00
-0.1353381901360E+00 -0.3775916328538E+00
-0.1389030149595E+00 -0.4217336342855E+00
-0.1422301602690E+00 -0.4674413515551E+00
-0.1453283180278E+00 -0.5145502806569E+00
-0.1481484435236E+00 -0.5628868998372E+00
-0.1505920233741E+00 -0.6122613133828E+00
-0.1525184561399E+00 -0.6624588336406E+00
-0.1897178968075E-01 -0.2499044318943E-01
-0.3373643950953E-01 -0.3786810837072E-01
-0.4744079834365E-01 -0.5455927643993E-01
-0.6004864342901E-01 -0.7483016191925E-01
-0.7150040527283E-01 -0.9843866960727E-01
-0.8173518681630E-01 -0.1251377298815E+00
-0.9070965545120E-01 -0.1546832467356E+00
-0.9841912254970E-01 -0.1868456816097E+00
-0.1049219084895E+00 -0.2214245497914E+00
-0.1103566333515E+00 -0.2582601236792E+00
-0.1149319624942E+00 -0.2972300814807E+00
-0.1188814330294E+00 -0.3382265693237E+00
-0.1224086955587E+00 -0.3811310176784E+00
-0.1256530158954E+00 -0.4258055165811E+00
-0.1286831647699E+00 -0.4720979486906E+00
-0.1315063426763E+00 -0.5198477184434E+00
-0.1340774682694E+00 -0.5688847084632E+00
-0.1363065028495E+00 -0.6190223469795E+00
-0.1380644299788E+00 -0.6700491416634E+00
-0.1692892345663E-01 -0.2498515795126E-01
-0.3010359681703E-01 -0.3797112929004E-01
-0.4232536443321E-01 -0.5480410649600E-01
-0.5356778721495E-01 -0.7524486162821E-01
-0.6378148481966E-01 -0.9905007265950E-01
-0.7291389670293E-01 -0.1259734183517E+00
-0.8092657454612E-01 -0.1557717527993E+00
-0.8781455206939E-01 -0.1882157298234E+00
-0.9362867759961E-01 -0.2231043845437E+00
-0.9849158275847E-01 -0.2602778861765E+00
-0.1025888767496E+00 -0.2996154729320E+00
-0.1061288274752E+00 -0.3410129502201E+00
-0.1092930910138E+00 -0.3843566736743E+00
-0.1122057525048E+00 -0.4295137090490E+00
-0.1149278415214E+00 -0.4763362910445E+00
-0.1174652462589E+00 -0.5246674344750E+00
-0.1197770761122E+00 -0.5743401221560E+00
-0.1217820427808E+00 -0.6251706385669E+00
-0.1233632306867E+00 -0.6769498721328E+00
-0.1486380861227E-01 -0.2498272045420E-01
-0.2643132123362E-01 -0.3806667707327E-01
-0.3715685383541E-01 -0.5502819292307E-01
-0.4702168787201E-01 -0.7562287660551E-01
-0.5598539892141E-01 -0.9960594708964E-01
-0.6400326005229E-01 -0.1267314442740E+00
-0.7104173346386E-01 -0.1567568760275E+00
-0.7709589381111E-01 -0.1894530002344E+00
-0.8220948702131E-01 -0.2246184730710E+00
-0.8648936905166E-01 -0.2620935127859E+00
-0.9009804399037E-01 -0.3017589363112E+00
-0.9321826056049E-01 -0.3435139855863E+00
-0.9600945488489E-01 -0.3872495363384E+00
-0.9858043007137E-01 -0.4328371802452E+00
-0.1009845059386E+00 -0.4801330969682E+00
-0.1032264217799E+00 -0.5289835659518E+00
-0.1052697113978E+00 -0.5792243227927E+00
-0.1070421640120E+00 -0.6306740322772E+00
-0.1084395801874E+00 -0.6831252461373E+00
-0.1277876781698E-01 -0.2498228570708E-01
-0.2272367294050E-01 -0.3815299601425E-01
-0.3194071118569E-01 -0.5522849870975E-01
-0.4041709847151E-01 -0.7595966201382E-01
-0.4812026903207E-01 -0.1001001602847E+00
-0.5501285602765E-01 -0.1274041194717E+00
-0.6106622242297E-01 -0.1576294697008E+00
-0.6627573919029E-01 -0.1905470027136E+00
-0.7067836109691E-01 -0.2259550738757E+00
-0.7436535127115E-01 -0.2636940459007E+00
-0.7747606867820E-01 -0.3036462563642E+00
-0.8016753160441E-01 -0.3457140862192E+00
-0.8257676062490E-01 -0.3897924666430E+00
-0.8479718615457E-01 -0.4357570198027E+00
-0.8687444634454E-01 -0.4834674247328E+00
-0.8881228212242E-01 -0.5327728426389E+00
-0.9057888657347E-01 -0.5835113882381E+00
-0.9211148349822E-01 -0.6355036497887E+00
-0.9331924286356E-01 -0.6885432621353E+00
-0.1067630833606E-01 -0.2498312866159E-01
-0.1898506302883E-01 -0.3822857432553E-01
-0.2668285997355E-01 -0.5540240328103E-01
-0.3376133284182E-01 -0.7625128525779E-01
-0.4019482183277E-01 -0.1005273877416E+00
-0.4595289080524E-01 -0.1279847449518E+00
-0.5101177173791E-01 -0.1583815369774E+00
-0.5536733384501E-01 -0.1914885393646E+00
-0.5904999844660E-01 -0.2271038690980E+00
-0.6213558977745E-01 -0.2650680825614E+00
-0.6474028887838E-01 -0.3052649141727E+00
-0.6699520700200E-01 -0.3475995195759E+00
-0.6901478224873E-01 -0.3919703650297E+00
-0.7087699368487E-01 -0.4382565642073E+00
-0.7261982394590E-01 -0.4863208153434E+00
-0.7424615328035E-01 -0.5360147503198E+00
-0.7572906213976E-01 -0.5871784785738E+00
-0.7701556977271E-01 -0.6396340966070E+00
-0.7802885429996E-01 -0.6931758866957E+00
-0.8559094620298E-02 -0.2498464065575E-01
-0.1522020062187E-01 -0.3829213882606E-01
-0.2138963156453E-01 -0.5554769576732E-01
-0.2706218491839E-01 -0.7649442108638E-01
-0.3221830510896E-01 -0.1008831149262E+00
-0.3683411308315E-01 -0.1284676243225E+00
-0.4089066742848E-01 -0.1590062592355E+00
-0.4438449215083E-01 -0.1922697491419E+00
-0.4733968349028E-01 -0.2280560248269E+00
-0.4981675291319E-01 -0.2662058484551E+00
-0.5190867687218E-01 -0.3066041722672E+00
-0.5372051499438E-01 -0.3491585041783E+00
-0.5534398409785E-01 -0.3937702752547E+00
-0.5684154607499E-01 -0.4403215124911E+00
-0.5824355236750E-01 -0.4886774235819E+00
-0.5955214533641E-01 -0.5386916799793E+00
-0.6074550382187E-01 -0.5902060028296E+00
-0.6178078184448E-01 -0.6430436329072E+00
-0.6259574995748E-01 -0.6969991962901E+00
-0.6429921569865E-02 -0.2498632673708E-01
-0.1143404176044E-01 -0.3834265129134E-01
-0.1606769619031E-01 -0.5566257067284E-01
-0.2032784944381E-01 -0.7668634908239E-01
-0.2420040404398E-01 -0.1011636404341E+00
-0.2766772922843E-01 -0.1288480764437E+00
-0.3071566612703E-01 -0.1594980209164E+00
-0.3334151123877E-01 -0.1928841459610E+00
-0.3556319822637E-01 -0.2288042419630E+00
-0.3742602516376E-01 -0.2670992599159E+00
-0.3899974281586E-01 -0.3076551458475E+00
-0.4036324490233E-01 -0.3503812888962E+00
-0.4158541603064E-01 -0.3951814720825E+00
-0.4271314832878E-01 -0.4419400241313E+00
-0.4376918379186E-01 -0.4905241284938E+00
-0.4475503143173E-01 -0.5407890520565E+00
-0.4565415182539E-01 -0.5925777531138E+00
-0.4643413003404E-01 -0.6457143031820E+00
-0.4704782894843E-01 -0.6999934795976E+00
-0.4291688154198E-02 -0.2498780371526E-01
-0.7631739144360E-02 -0.3837930606618E-01
-0.1072399448862E-01 -0.5574562532835E-01
-0.1356684212175E-01 -0.7682495287269E-01
-0.1615115547590E-01 -0.1013660799273E+00
-0.1846531489285E-01 -0.1291224470701E+00
-0.2049990521484E-01 -0.1598524310066E+00
-0.2225307937461E-01 -0.1933266508758E+00
-0.2373672788474E-01 -0.2293427987081E+00
-0.2498100901450E-01 -0.2677419755224E+00
-0.2603243205600E-01 -0.3084108621453E+00
-0.2694363979518E-01 -0.3512602193854E+00
-0.2776060147976E-01 -0.3961955352275E+00
-0.2851460020854E-01 -0.4431028018726E+00
-0.2922078648895E-01 -0.4918506266080E+00
-0.2988011850859E-01 -0.5422954198518E+00
-0.3048148481868E-01 -0.5942810133528E+00
-0.3100313792402E-01 -0.6476320391243E+00
-0.3141342633485E-01 -0.7021433201643E+00
-0.2147371257896E-02 -0.2498879878313E-01
-0.3818592514625E-02 -0.3840152855175E-01
-0.5365669554957E-02 -0.5579585848077E-01
-0.6787919594627E-02 -0.7690872023525E-01
-0.8080861007488E-02 -0.1014883699563E+00
-0.9238724521257E-02 -0.1292881186103E+00
-0.1025681009963E-01 -0.1600663403363E+00
-0.1113418102688E-01 -0.1935936175668E+00
-0.1187676311511E-01 -0.2296675839675E+00
-0.1249962341756E-01 -0.2681294365578E+00
-0.1302601921535E-01 -0.3088663070227E+00
-0.1348228596044E-01 -0.3517897904208E+00
-0.1389142212700E-01 -0.3968064078128E+00
-0.1426907574792E-01 -0.4438031572845E+00
-0.1462281871450E-01 -0.4926495053720E+00
-0.1495311551273E-01 -0.5432025499128E+00
-0.1525438436258E-01 -0.5953066422610E+00
-0.1551570947771E-01 -0.6487867373676E+00
-0.1572119593654E-01 -0.7034376603292E+00
 0.3449705521241E-09 -0.2498914860253E-01
 0.5563599025926E-09 -0.3840897430178E-01
 0.6897914461845E-09 -0.5581266958152E-01
 0.7539739943496E-09 -0.7693674355174E-01
 0.7579564753613E-09 -0.1015292710892E+00
 0.7119295153402E-09 -0.1293435174686E+00
 0.6277752762074E-09 -0.1601378542481E+00
 0.5191174712316E-09 -0.1936828507909E+00
 0.4004704345917E-09 -0.2297761214039E+00
 0.2852914571250E-09 -0.2682588960970E+00
 0.1835717133858E-09 -0.3090184585045E+00
 0.1004329952536E-09 -0.3519666836502E+00
 0.3646682955605E-10 -0.3970104386455E+00
-0.1068056754150E-10 -0.4440370581754E+00
-0.4458955427111E-10 -0.4929162960067E+00
-0.6882583392098E-10 -0.5435054793065E+00
-0.8644696070093E-10 -0.5956491318488E+00
-0.9976952597412E-10 -0.6491723140079E+00
-0.1103490632204E-09 -0.7038698472792E+00
 0.2147371947489E-02 -0.2498879878359E-01
 0.3818593626799E-02 -0.3840152854949E-01
 0.5365670933891E-02 -0.5579585847564E-01
 0.6787921101876E-02 -0.7690872022740E-01
 0.8080862522678E-02 -0.1014883699461E+00
 0.9238725944393E-02 -0.1292881185979E+00
 0.1025681135448E-01 -0.1600663403222E+00
 0.1113418206446E-01 -0.1935936175515E+00
 0.1187676391547E-01 -0.2296675839515E+00
 0.1249962398765E-01 -0.2681294365418E+00
 0.1302601958210E-01 -0.3088663070074E+00
 0.1348228616101E-01 -0.3517897904068E+00
 0.1389142219972E-01 -0.3968064078005E+00
 0.1426907572641E-01 -0.4438031572741E+00
 0.1462281862523E-01 -0.4926495053634E+00
 0.1495311537504E-01 -0.5432025499060E+00
 0.1525438418967E-01 -0.5953066422560E+00
 0.1551570927817E-01 -0.6487867373641E+00
 0.1572119571583E-01 -0.7034376603272E+00
 0.4291688842749E-02 -0.2498780371621E-01
 0.7631740254899E-02 -0.3837930606173E-01
 0.1072399586562E-01 -0.5574562531819E-01
 0.1356684362691E-01 -0.7682495285711E-01
 0.1615115698893E-01 -0.1013660799068E+00
 0.1846531631383E-01 -0.1291224470455E+00
 0.2049990646759E-01 -0.1598524309785E+00
 0.2225308041024E-01 -0.1933266508453E+00
 0.2373672868336E-01 -0.2293427986762E+00
 0.2498100958313E-01 -0.2677419754905E+00
 0.2603243242157E-01 -0.3084108621149E+00
 0.2694363999486E-01 -0.3512602193575E+00
 0.2776060155183E-01 -0.3961955352030E+00
 0.2851460018659E-01 -0.4431028018518E+00
 0.2922078639941E-01 -0.4918506265909E+00
 0.2988011837076E-01 -0.5422954198382E+00
 0.3048148464573E-01 -0.5942810133426E+00
 0.3100313772448E-01 -0.6476320391173E+00
 0.3141342611409E-01 -0.7021433201601E+00
 0.6429922256695E-02 -0.2498632673860E-01
 0.1143404286828E-01 -0.3834265128482E-01
 0.1606769756411E-01 -0.5566257065783E-01
 0.2032785094551E-01 -0.7668634905933E-01
 0.2420040555344E-01 -0.1011636404038E+00
 0.2766773064582E-01 -0.1288480764072E+00
 0.3071566737630E-01 -0.1594980208747E+00
 0.3334151227116E-01 -0.1928841459155E+00
 0.3556319902210E-01 -0.2288042419155E+00
 0.3742602572995E-01 -0.2670992598683E+00
 0.3899974317947E-01 -0.3076551458020E+00
 0.4036324510052E-01 -0.3503812888546E+00
 0.4158541610163E-01 -0.3951814720458E+00
 0.4271314830610E-01 -0.4419400241002E+00
 0.4376918370187E-01 -0.4905241284681E+00
 0.4475503129367E-01 -0.5407890520362E+00
 0.4565415165238E-01 -0.5925777530986E+00
 0.4643412983451E-01 -0.6457143031716E+00
 0.4704782872759E-01 -0.6999934795914E+00
 0.8559095304746E-02 -0.2498464065793E-01
 0.1522020172598E-01 -0.3829213881765E-01
 0.2138963293390E-01 -0.5554769574774E-01
 0.2706218641532E-01 -0.7649442105620E-01
 0.3221830661347E-01 -0.1008831148865E+00
 0.3683411449557E-01 -0.1284676242744E+00
 0.4089066867293E-01 -0.1590062591805E+00
 0.4438449317871E-01 -0.1922697490819E+00
 0.4733968428200E-01 -0.2280560247641E+00
 0.4981675347598E-01 -0.2662058483922E+00
 0.5190867723307E-01 -0.3066041722070E+00
 0.5372051519049E-01 -0.3491585041231E+00
 0.5534398416734E-01 -0.3937702752061E+00
 0.5684154605129E-01 -0.4403215124498E+00
 0.5824355227688E-01 -0.4886774235479E+00
 0.5955214519802E-01 -0.5386916799524E+00
 0.6074550364875E-01 -0.5902060028094E+00
 0.6178078164496E-01 -0.6430436328932E+00
 0.6259574973654E-01 -0.6969991962818E+00
 0.1067630901749E-01 -0.2498312866457E-01
 0.1898506412822E-01 -0.3822857431548E-01
 0.2668286133733E-01 -0.5540240325725E-01
 0.3376133433271E-01 -0.7625128522098E-01
 0.4019482333102E-01 -0.1005273876930E+00
 0.4595289221136E-01 -0.1279847448929E+00
 0.5101177297622E-01 -0.1583815369099E+00
 0.5536733486716E-01 -0.1914885392907E+00
 0.5904999923321E-01 -0.2271038690204E+00
 0.6213559033590E-01 -0.2650680824835E+00
 0.6474028923579E-01 -0.3052649140981E+00
 0.6699520719546E-01 -0.3475995195074E+00
 0.6901478231630E-01 -0.3919703649694E+00
 0.7087699365986E-01 -0.4382565641560E+00
 0.7261982385445E-01 -0.4863208153012E+00
 0.7424615314153E-01 -0.5360147502863E+00
 0.7572906196651E-01 -0.5871784785486E+00
 0.7701556957319E-01 -0.6396340965895E+00
 0.7802885407891E-01 -0.6931758866852E+00
 0.1277876849481E-01 -0.2498228571103E-01
 0.2272367403425E-01 -0.3815299600288E-01
 0.3194071254280E-01 -0.5522849868224E-01
 0.4041709995517E-01 -0.7595966197099E-01
 0.4812027052280E-01 -0.1001001602279E+00
 0.5501285742619E-01 -0.1274041194027E+00
 0.6106622365389E-01 -0.1576294696214E+00
 0.6627574020551E-01 -0.1905470026264E+00
 0.7067836187733E-01 -0.2259550737840E+00
 0.7436535182436E-01 -0.2636940458085E+00
 0.7747606903140E-01 -0.3036462562757E+00
 0.8016753179466E-01 -0.3457140861380E+00
 0.8257676069015E-01 -0.3897924665714E+00
 0.8479718612796E-01 -0.4357570197416E+00
 0.8687444625209E-01 -0.4834674246824E+00
 0.8881228198306E-01 -0.5327728425990E+00
 0.9057888640003E-01 -0.5835113882080E+00
 0.9211148329871E-01 -0.6355036497677E+00
 0.9331924264239E-01 -0.6885432621226E+00
 0.1486380928594E-01 -0.2498272045933E-01
 0.2643132232088E-01 -0.3806667706094E-01
 0.3715685518483E-01 -0.5502819289240E-01
 0.4702168934733E-01 -0.7562287655739E-01
 0.5598540040346E-01 -0.9960594702555E-01
 0.6400326144205E-01 -0.1267314441956E+00
 0.7104173468620E-01 -0.1567568759370E+00
 0.7709589481827E-01 -0.1894530001347E+00
 0.8220948779453E-01 -0.2246184729658E+00
 0.8648936959875E-01 -0.2620935126800E+00
 0.9009804433865E-01 -0.3017589362093E+00
 0.9321826074699E-01 -0.3435139854926E+00
 0.9600945494741E-01 -0.3872495362557E+00
 0.9858043004288E-01 -0.4328371801747E+00
 0.1009845058450E+00 -0.4801330969100E+00
 0.1032264216399E+00 -0.5289835659056E+00
 0.1052697112241E+00 -0.5792243227577E+00
 0.1070421638125E+00 -0.6306740322527E+00
 0.1084395799662E+00 -0.6831252461222E+00
 0.1692892412565E-01 -0.2498515795781E-01
 0.3010359789705E-01 -0.3797112927721E-01
 0.4232536577406E-01 -0.5480410646284E-01
 0.5356778868096E-01 -0.7524486157566E-01
 0.6378148629197E-01 -0.9905007258907E-01
 0.7291389808280E-01 -0.1259734182652E+00
 0.8092657575875E-01 -0.1557717526988E+00
 0.8781455306742E-01 -0.1882157297122E+00
 0.9362867836463E-01 -0.2231043844259E+00
 0.9849158329860E-01 -0.2602778860575E+00
 0.1025888770922E+00 -0.2996154728174E+00
 0.1061288276575E+00 -0.3410129501146E+00
 0.1092930910732E+00 -0.3843566735810E+00
 0.1122057524742E+00 -0.4295137089695E+00
 0.1149278414263E+00 -0.4763362909788E+00
 0.1174652461181E+00 -0.5246674344226E+00
 0.1197770759383E+00 -0.5743401221162E+00
 0.1217820425813E+00 -0.6251706385388E+00
 0.1233632304653E+00 -0.6769498721155E+00
 0.1897179034469E-01 -0.2499044319769E-01
 0.3373644058166E-01 -0.3786810835788E-01
 0.4744079967516E-01 -0.5455927640504E-01
 0.6004864488485E-01 -0.7483016186327E-01
 0.7150040673445E-01 -0.9843866953165E-01
 0.8173518818527E-01 -0.1251377297880E+00
 0.9070965665308E-01 -0.1546832466263E+00
 0.9841912353757E-01 -0.1868456814881E+00
 0.1049219092454E+00 -0.2214245496620E+00
 0.1103566338839E+00 -0.2582601235480E+00
 0.1149319628306E+00 -0.2972300813541E+00
 0.1188814332069E+00 -0.3382265692069E+00
 0.1224086956146E+00 -0.3811310175751E+00
 0.1256530158623E+00 -0.4258055164929E+00
 0.1286831646733E+00 -0.4720979486177E+00
 0.1315063425346E+00 -0.5198477183851E+00
 0.1340774680951E+00 -0.5688847084188E+00
 0.1363065026499E+00 -0.6190223469480E+00
 0.1380644297573E+00 -0.6700491416436E+00
 0.2099029812015E-01 -0.2499954584777E-01
 0.3732619560146E-01 -0.3775962168521E-01
 0.5249826290970E-01 -0.5429716659749E-01
 0.6645814495517E-01 -0.7438394345930E-01
 0.7913472549477E-01 -0.9777867991040E-01
 0.9045825717543E-01 -0.1242330439721E+00
 0.1003806023157E+00 -0.1535016246730E+00
 0.1088977433056E+00 -0.1853545891122E+00
 0.1160759062822E+00 -0.2195920667199E+00
 0.1220699435897E+00 -0.2560546543753E+00
 0.1271115162860E+00 -0.2946185778735E+00
 0.1314591359989E+00 -0.3351721835523E+00
 0.1353381901881E+00 -0.3775916327410E+00
 0.1389030149237E+00 -0.4217336341891E+00
 0.1422301601707E+00 -0.4674413514753E+00
 0.1453283178850E+00 -0.5145502805930E+00
 0.1481484433488E+00 -0.5628868997882E+00
 0.1505920231744E+00 -0.6122613133478E+00
 0.1525184559184E+00 -0.6624588336184E+00
 0.2298258014516E-01 -0.2501356649754E-01
 0.4086967099265E-01 -0.3764793934164E-01
 0.5749348645954E-01 -0.5402168317306E-01
 0.7279089585219E-01 -0.7391200801962E-01
 0.8667776967482E-01 -0.9707786098698E-01
 0.9907500853696E-01 -0.1232689930871E+00
 0.1099298221737E+00 -0.1522382436551E+00
 0.1192393454842E+00 -0.1837553771945E+00
 0.1270782143819E+00 -0.2176213161708E+00
 0.1336177892585E+00 -0.2536772865929E+00
 0.1391126515011E+00 -0.2917982719151E+00
 0.1438459392008E+00 -0.3318687681675E+00
 0.1480644821848E+00 -0.3737593839411E+00
 0.1519375686169E+00 -0.4173210787824E+00
 0.1555495784828E+00 -0.4623919664265E+00
 0.1589108984983E+00 -0.5088033958764E+00
 0.1619687383552E+00 -0.5563782062536E+00
 0.1646163165487E+00 -0.6049227327947E+00
 0.1667018101032E+00 -0.6542182180024E+00
 0.2494704340191E-01 -0.2503374483251E-01
 0.4436419909910E-01 -0.3753560952960E-01
 0.6242290416178E-01 -0.5373719656937E-01
 0.7904230565435E-01 -0.7342081453209E-01
 0.9412370624051E-01 -0.9634479702252E-01
 0.1075781932398E+00 -0.1222561698988E+00
 0.1193485737451E+00 -0.1509055200227E+00
 0.1294337201683E+00 -0.1820621055133E+00
 0.1379172595789E+00 -0.2155278805093E+00
 0.1449873694488E+00 -0.2511451043562E+00
 0.1509214573971E+00 -0.2887878463000E+00
 0.1560268749664E+00 -0.3283368008809E+00
 0.1605715548847E+00 -0.3696567990645E+00
 0.1647396106144E+00 -0.4125927077417E+00
 0.1686233243645E+00 -0.4569772817411E+00
 0.1722350225765E+00 -0.5026375527090E+00
 0.1755183814747E+00 -0.5493925985019E+00
 0.1783584568995E+00 -0.5970445945593E+00
 0.1805923652199E+00 -0.6453696776384E+00
 0.2688240399516E-01 -0.2506147024501E-01
 0.4780770386422E-01 -0.3742547986441E-01
 0.6728373587488E-01 -0.5344857234907E-01
 0.8520866737412E-01 -0.7291751038364E-01
 0.1014676182670E+00 -0.9558891858832E-01
 0.1159614767018E+00 -0.1212061252597E+00
 0.1286290226653E+00 -0.1495168998903E+00
 0.1394715716026E+00 -0.1802899096034E+00
 0.1485824077929E+00 -0.2133284561672E+00
 0.1561668694271E+00 -0.2484763537032E+00
 0.1625250737897E+00 -0.2856072208369E+00
 0.1679880934562E+00 -0.3245981112485E+00
 0.1728445666016E+00 -0.3653079131986E+00
 0.1772932898911E+00 -0.4075750628659E+00
 0.1814345503273E+00 -0.4512266351693E+00
 0.1852829328338E+00 -0.4960852352497E+00
 0.1887788077344E+00 -0.5419662303516E+00
 0.1917990330343E+00 -0.5886673896109E+00
 0.1941694634243E+00 -0.6359584162222E+00
 0.2878772632425E-01 -0.2509829594258E-01
 0.5119877451450E-01 -0.3732072741680E-01
 0.7207407370094E-01 -0.5316121519725E-01
 0.9128723915208E-01 -0.7240997693397E-01
 0.1087055701072E+00 -0.9482053488175E-01
 0.1242194878386E+00 -0.1201313759696E+00
 0.1377642788806E+00 -0.1480868365993E+00
 0.1493445462776E+00 -0.1784549467368E+00
 0.1590639896497E+00 -0.2110407694048E+00
 0.1671454875608E+00 -0.2456903310756E+00
 0.1739117250652E+00 -0.2822774163172E+00
 0.1797169080706E+00 -0.3206757265430E+00
 0.1848699071816E+00 -0.3607381121050E+00
 0.1895840268598E+00 -0.4022962294497E+00
 0.1939676925993E+00 -0.4451710788669E+00
 0.1980381903425E+00 -0.4891807413253E+00
 0.2017328870301E+00 -0.5341371626426E+00
 0.2049202344126E+00 -0.5798337760885E+00
 0.2074140259642E+00 -0.6260323236368E+00
 0.3066246896175E-01 -0.2514595719855E-01
 0.5453675134663E-01 -0.3722489957808E-01
 0.7679298032116E-01 -0.5288112820507E-01
 0.9727633444918E-01 -0.7190688948980E-01
 0.1158346815596E+00 -0.9405087570385E-01
 0.1323478784570E+00 -0.1190454160051E+00
 0.1467484465878E+00 -0.1466307655989E+00
 0.1590452795063E+00 -0.1765743332729E+00
 0.1693533493695E+00 -0.2086834777893E+00
 0.1779134919795E+00 -0.2428072515957E+00
 0.1850707906237E+00 -0.2788203918227E+00
 0.1912018862547E+00 -0.3165936764506E+00
 0.1966353163337E+00 -0.3559739197538E+00
 0.2015986508668E+00 -0.3967856456104E+00
 0.2062085909607E+00 -0.4388432292778E+00
 0.2104857498633E+00 -0.4819599922733E+00
 0.2143650006916E+00 -0.5259450094983E+00
 0.2177060322711E+00 -0.5705880887486E+00
 0.2203089263356E+00 -0.6156416755034E+00
 0.3250654025691E-01 -0.2520639578137E-01
 0.5782182363691E-01 -0.3714197287709E-01
 0.8144059135145E-01 -0.5261499719788E-01
 0.1031754034294E+00 -0.7141780293426E-01
 0.1228531806746E+00 -0.9329215456037E-01
 0.1403433506438E+00 -0.1179627455234E+00
 0.1555766324839E+00 -0.1451650952814E+00
 0.1685673908332E+00 -0.1746660979331E+00
 0.1794428330751E+00 -0.2062760875391E+00
 0.1884622074080E+00 -0.2398481353005E+00
 0.1959927961680E+00 -0.2752589039970E+00
 0.2024328481670E+00 -0.3123768234851E+00
 0.2081299059375E+00 -0.3510427834034E+00
 0.2133254585541E+00 -0.3910739140568E+00
 0.2181445314359E+00 -0.4322771978037E+00
 0.2226118977523E+00 -0.4744605247557E+00
 0.2266609032866E+00 -0.5174306995142E+00
 0.2301421797732E+00 -0.5609757990303E+00
 0.2328393046329E+00 -0.6048386576703E+00
 0.3432036867773E-01 -0.2528179313438E-01
 0.6105515006191E-01 -0.3707643365664E-01
 0.8601823684541E-01 -0.5237030654031E-01
 0.1089851286421E+00 -0.7095325919900E-01
 0.1297604719683E+00 -0.9255764305645E-01
 0.1482037057650E+00 -0.1168988987357E+00
 0.1642449848533E+00 -0.1437071908847E+00
 0.1779055196304E+00 -0.1727491197555E+00
 0.1893258275781E+00 -0.2038388465649E+00
 0.1987840647581E+00 -0.2368346568437E+00
 0.2066694811379E+00 -0.2716163243998E+00
 0.2134009530542E+00 -0.3080506451012E+00
 0.2193442666858E+00 -0.3459727979662E+00
 0.2247544069950E+00 -0.3851923953687E+00
 0.2297645156485E+00 -0.4255084169838E+00
 0.2344043771048E+00 -0.4667215926139E+00
 0.2386076120015E+00 -0.5086363475627E+00
 0.2422162381761E+00 -0.5510425561826E+00
 0.2449931435442E+00 -0.5936761717966E+00
 0.3610499785956E-01 -0.2537460493444E-01
 0.6423900514239E-01 -0.3703340915555E-01
 0.9052856635806E-01 -0.5215550077057E-01
 0.1147075008103E+00 -0.7052494331803E-01
 0.1365571658922E+00 -0.9186176797197E-01
 0.1559278435342E+00 -0.1158704997021E+00
 0.1727506683796E+00 -0.1422753834410E+00
 0.1870552813186E+00 -0.1708431025970E+00
 0.1989967013965E+00 -0.2013926722361E+00
 0.2088725372007E+00 -0.2337890337146E+00
 0.2170937418259E+00 -0.2679164973156E+00
 0.2240986428297E+00 -0.3036410912038E+00
 0.2302704085574E+00 -0.3407925236735E+00
 0.2358770474586E+00 -0.3791729156552E+00
 0.2410594738370E+00 -0.4185729518152E+00
 0.2458525653035E+00 -0.4587849656708E+00
 0.2501928320725E+00 -0.4996059556420E+00
 0.2539169067854E+00 -0.5408331437953E+00
 0.2567616188684E+00 -0.5822056651949E+00
 0.3786221232076E-01 -0.2548765853029E-01
 0.6737697427792E-01 -0.3701878911504E-01
 0.9497570121619E-01 -0.5198029624981E-01
 0.1203458768652E+00 -0.7014584012095E-01
 0.1432451185145E+00 -0.9122021089500E-01
 0.1635157775579E+00 -0.1148953287194E+00
 0.1810918539069E+00 -0.1408889868010E+00
 0.1960132539167E+00 -0.1689685142437E+00
 0.2084507845654E+00 -0.1989591089623E+00
 0.2187221044506E+00 -0.2307338685086E+00
 0.2272596317077E+00 -0.2641835474126E+00
 0.2345196680920E+00 -0.2991744049877E+00
 0.2409017591238E+00 -0.3355308252069E+00
 0.2466865406438E+00 -0.3730474594238E+00
 0.2520222068900E+00 -0.4115068980957E+00
 0.2569487004382E+00 -0.4506927420700E+00
 0.2614047920126E+00 -0.4903913508372E+00
 0.2652315441946E+00 -0.5303893734237E+00
 0.2681399352791E+00 -0.5704708916486E+00
-0.1351344633689E+00 -0.7258173561285E-01
-0.2145905362730E+00 -0.1261590398936E+00
-0.2734457484420E+00 -0.1647775639023E+00
-0.3194393985584E+00 -0.1939067837603E+00
-0.3563080330836E+00 -0.2174754350050E+00
-0.3861056321860E+00 -0.2372714126409E+00
-0.4100356712062E+00 -0.2541974047898E+00
-0.4288618275106E+00 -0.2687650152566E+00
-0.4430519314718E+00 -0.2812649774527E+00
-0.4528410906604E+00 -0.2918605284832E+00
-0.4583307414138E+00 -0.3006580518550E+00
-0.4596107974184E+00 -0.3077141214112E+00
-0.4560701063465E+00 -0.3135640866564E+00
-0.4472597115265E+00 -0.3195635471683E+00
-0.4333273179384E+00 -0.3272212002644E+00
-0.4146164947849E+00 -0.3380958491647E+00
-0.3914674834427E+00 -0.3532976913884E+00
-0.3639534858917E+00 -0.3736945746326E+00
-0.3319740703949E+00 -0.4006736947298E+00
-0.1220724933513E+00 -0.6062336513119E-01
-0.2021529537427E+00 -0.1060562037369E+00
-0.2632678431939E+00 -0.1464771966200E+00
-0.3105589329271E+00 -0.1783667389462E+00
-0.3482711832677E+00 -0.2043008759417E+00
-0.3787063085621E+00 -0.2261727466446E+00
-0.4032220952916E+00 -0.2450135198209E+00
-0.4226648205135E+00 -0.2614324348962E+00
-0.4375594819298E+00 -0.2757887613255E+00
-0.4481886867770E+00 -0.2882947452660E+00
-0.4546903332451E+00 -0.2990932988750E+00
-0.4571537065013E+00 -0.3082669018366E+00
-0.4549788159003E+00 -0.3163423492904E+00
-0.4476991332207E+00 -0.3245919129154E+00
-0.4354084159009E+00 -0.3343890511173E+00
-0.4184247446718E+00 -0.3471831998883E+00
-0.3971085884279E+00 -0.3640604691142E+00
-0.3715886771786E+00 -0.3859062451550E+00
-0.3418287600301E+00 -0.4141111660460E+00
-0.1114520366010E+00 -0.5290079964592E-01
-0.1898727239652E+00 -0.9166045652579E-01
-0.2520484095055E+00 -0.1302470114135E+00
-0.3006720711078E+00 -0.1635695524653E+00
-0.3393194794582E+00 -0.1914453392944E+00
-0.3704627833657E+00 -0.2152164714524E+00
-0.3955937386483E+00 -0.2358905742646E+00
-0.4156523977789E+00 -0.2541249895370E+00
-0.4312274152426E+00 -0.2703293243887E+00
-0.4426533374696E+00 -0.2847578308725E+00
-0.4501076862794E+00 -0.2975838180469E+00
-0.4536943397341E+00 -0.3088975891466E+00
-0.4528289565369E+00 -0.3192077529518E+00
-0.4470373021641E+00 -0.3297133234364E+00
-0.4363756845580E+00 -0.3416853747254E+00
-0.4211284591554E+00 -0.3564729076740E+00
-0.4016582097602E+00 -0.3751193131977E+00
-0.3781308730417E+00 -0.3985062261265E+00
-0.3505502736307E+00 -0.4280173634407E+00
-0.1026198238684E+00 -0.4746538562022E-01
-0.1783699174302E+00 -0.8084692591475E-01
-0.2404797478061E+00 -0.1167294575402E+00
-0.2899840616100E+00 -0.1500065123967E+00
-0.3295265991582E+00 -0.1791570022482E+00
-0.3613940601029E+00 -0.2045394387450E+00
-0.3871503068040E+00 -0.2269078103176E+00
-0.4078139861510E+00 -0.2468852069299E+00
-0.4240386194703E+00 -0.2649011611160E+00
-0.4362126443201E+00 -0.2812387277692E+00
-0.4445575928079E+00 -0.2960917516389E+00
-0.4492042706836E+00 -0.3095516829143E+00
-0.4495870378968E+00 -0.3221044922637E+00
-0.4452292372059E+00 -0.3348776391990E+00
-0.4361602848400E+00 -0.3490498695624E+00
-0.4226280938149E+00 -0.3658758033554E+00
-0.4049849807164E+00 -0.3863454307674E+00
-0.3834153394459E+00 -0.4113193853441E+00
-0.3579329169852E+00 -0.4421347491831E+00
-0.9514306363610E-01 -0.4340248271253E-01
-0.1677524044767E+00 -0.7251618319426E-01
-0.2289865279760E+00 -0.1055644263515E+00
-0.2788097082655E+00 -0.1379896842121E+00
-0.3190226619805E+00 -0.1676896351126E+00
-0.3515543223482E+00 -0.1942960134286E+00
-0.3779108587112E+00 -0.2181562899245E+00
-0.3991523245400E+00 -0.2397638951123E+00
-0.4159862107863E+00 -0.2595249828522E+00
-0.4288534640105E+00 -0.2777317803065E+00
-0.4380223265942E+00 -0.2945880149934E+00
-0.4436592616839E+00 -0.3101819935364E+00
-0.4452206956249E+00 -0.3249745023518E+00
-0.4422312618203E+00 -0.3400181725834E+00
-0.4347004493280E+00 -0.3564008484331E+00
-0.4228385982075E+00 -0.3752826259194E+00
-0.4069789214502E+00 -0.3975914063244E+00
-0.3873085253117E+00 -0.4241470673549E+00
-0.3638301423132E+00 -0.4562043931236E+00
-0.8870689708852E-01 -0.4025211678576E-01
-0.1579880176534E+00 -0.6596256806402E-01
-0.2177881896673E+00 -0.9634672204770E-01
-0.2674113200452E+00 -0.1275165127473E+00
-0.3079815598867E+00 -0.1572205026217E+00
-0.3410309470040E+00 -0.1846340838227E+00
-0.3679174202214E+00 -0.2097333798174E+00
-0.3896855177969E+00 -0.2328184263541E+00
-0.4070750904831E+00 -0.2542272832404E+00
-0.4205724029251E+00 -0.2742372872575E+00
-0.4304922048152E+00 -0.2930497915857E+00
-0.4370416562229E+00 -0.3107459336076E+00
-0.4397031358522E+00 -0.3277582217262E+00
-0.4380060346251E+00 -0.3450590940077E+00
-0.4319446018219E+00 -0.3636423879269E+00
-0.4216915901290E+00 -0.3845696771029E+00
-0.4075551012400E+00 -0.4086971371041E+00
-0.3897144389776E+00 -0.4367863677134E+00
-0.3681495856509E+00 -0.4699813098442E+00
-0.8308086587142E-01 -0.3774371389383E-01
-0.1489977064148E+00 -0.6072477455942E-01
-0.2069891339700E+00 -0.8871375025161E-01
-0.2559764086923E+00 -0.1184688449633E+00
-0.2965713306534E+00 -0.1478080285070E+00
-0.3299348497857E+00 -0.1756639681216E+00
-0.3572334406218E+00 -0.2017298439255E+00
-0.3794483038313E+00 -0.2261083842535E+00
-0.3973230070230E+00 -0.2490388327179E+00
-0.4113766408386E+00 -0.2707605608546E+00
-0.4219665816748E+00 -0.2914593727386E+00
-0.4293421859290E+00 -0.3112044822478E+00
-0.4330159800483E+00 -0.3303960090164E+00
-0.4325258635219E+00 -0.3499198040873E+00
-0.4278542784529E+00 -0.3706706125001E+00
-0.4191375703302E+00 -0.3936053864920E+00
-0.4066554921670E+00 -0.4194992574475E+00
-0.3905738145428E+00 -0.4490414528171E+00
-0.3708459987349E+00 -0.4832466047412E+00
-0.7809218170172E-01 -0.3570587499151E-01
-0.1406914693113E+00 -0.5648503318291E-01
-0.1966289406713E+00 -0.8236835850443E-01
-0.2446304682568E+00 -0.1106876115112E+00
-0.2849342655259E+00 -0.1394338396158E+00
-0.3183815878224E+00 -0.1674421303838E+00
-0.3459379983198E+00 -0.1942159946167E+00
-0.3684908018845E+00 -0.2196884702807E+00
-0.3867608840135E+00 -0.2439915554156E+00
-0.4012845622998E+00 -0.2673103377339E+00
-0.4124547750551E+00 -0.2898031304046E+00
-0.4205613382352E+00 -0.3115219678076E+00
-0.4251511776218E+00 -0.3328295275630E+00
-0.4257749512765E+00 -0.3545185071859E+00
-0.4224061574302E+00 -0.3773790237769E+00
-0.4151471916762E+00 -0.4022570850461E+00
-0.4042486103626E+00 -0.4298389278482E+00
-0.3898606345296E+00 -0.4607317309625E+00
-0.3719118166213E+00 -0.4958115979573E+00
-0.7360914076141E-01 -0.3402342305163E-01
-0.1329816303441E+00 -0.5301655006449E-01
-0.1867111040011E+00 -0.7707128796922E-01
-0.2334532096157E+00 -0.1040090969708E+00
-0.2731830462063E+00 -0.1320351859540E+00
-0.3064793236233E+00 -0.1599794714251E+00
-0.3341170409065E+00 -0.1872339843709E+00
-0.3568750395986E+00 -0.2136014977063E+00
-0.3754318312378E+00 -0.2391143210549E+00
-0.3903258381291E+00 -0.2638965061993E+00
-0.4019766459271E+00 -0.2880703744558E+00
-0.4107102790412E+00 -0.3116659769399E+00
-0.4161122388991E+00 -0.3350030783345E+00
-0.4177507715443E+00 -0.3587752397248E+00
-0.4155931324741E+00 -0.3836631450680E+00
-0.4097113706664E+00 -0.4103967196132E+00
-0.4003277681553E+00 -0.4395678468875E+00
-0.3875773391134E+00 -0.4716964044533E+00
-0.3713684539925E+00 -0.5075182220554E+00
-0.6953003752740E-01 -0.3261557950591E-01
-0.1257878682387E+00 -0.5015259725971E-01
-0.1772193612135E+00 -0.7263035685319E-01
-0.2224921061242E+00 -0.9827953995643E-01
-0.2614033433745E+00 -0.1255272724893E+00
-0.2943231975876E+00 -0.1532536980654E+00
-0.3218562952633E+00 -0.1807986453035E+00
-0.3446702228100E+00 -0.2078741335347E+00
-0.3633889646479E+00 -0.2344289865540E+00
-0.3785407080594E+00 -0.2605274904138E+00
-0.3905626505726E+00 -0.2862519746354E+00
-0.3998112792765E+00 -0.3116071472545E+00
-0.4059148657645E+00 -0.3368647102910E+00
-0.4084646969493E+00 -0.3626144188027E+00
-0.4074245259204E+00 -0.3894243359072E+00
-0.4028404900314E+00 -0.4179053283165E+00
-0.3949085326387E+00 -0.4485523044742E+00
-0.3837499221384E+00 -0.4817965530440E+00
-0.3692589940656E+00 -0.5182374076433E+00
-0.6577556189129E-01 -0.3142375007831E-01
-0.1190387859208E+00 -0.4776767862068E-01
-0.1681272067231E+00 -0.6889054788289E-01
-0.2117724694192E+00 -0.9336040974658E-01
-0.2496583912806E+00 -0.1198167925876E+00
-0.2819937695379E+00 -0.1472207426930E+00
-0.3092367248213E+00 -0.1749020035812E+00
-0.3319483800750E+00 -0.2025161904426E+00
-0.3506925553918E+00 -0.2299478075874E+00
-0.3659785385757E+00 -0.2572078953066E+00
-0.3782532884208E+00 -0.2843388831820E+00
-0.3878976053014E+00 -0.3113187590574E+00
-0.3945870087120E+00 -0.3383670123987E+00
-0.3979419716693E+00 -0.3659668489241E+00
-0.3979256051330E+00 -0.3945727562813E+00
-0.3945629860542E+00 -0.4246762765839E+00
-0.3880259069085E+00 -0.4566756365493E+00
-0.3784234608672E+00 -0.4909155684718E+00
-0.3656423917430E+00 -0.5278665782664E+00
-0.6228342089619E-01 -0.3040427367248E-01
-0.1126720146481E+00 -0.4576549464359E-01
-0.1594035267586E+00 -0.6572604797641E-01
-0.2013046809092E+00 -0.8912945691056E-01
-0.2379936729248E+00 -0.1148097946249E+00
-0.2695576223651E+00 -0.1418235924002E+00
-0.2963321619868E+00 -0.1695188203306E+00
-0.3187810452998E+00 -0.1975221974879E+00
-0.3374071963094E+00 -0.2256725749859E+00
-0.3526959375901E+00 -0.2539369036318E+00
-0.3650980209552E+00 -0.2823208207263E+00
-0.3750128857982E+00 -0.3107761793653E+00
-0.3821683823475E+00 -0.3394675486191E+00
-0.3862211090224E+00 -0.3687711583667E+00
-0.3871365536054E+00 -0.3990295131110E+00
-0.3849235720071E+00 -0.4306174378111E+00
-0.3797315560460E+00 -0.4638394959891E+00
-0.3716583212089E+00 -0.4989585875782E+00
-0.3605890443328E+00 -0.5363268196949E+00
-0.5900444354404E-01 -0.2952389269105E-01
-0.1066337011675E+00 -0.4407096668879E-01
-0.1510159704572E+00 -0.6303407508843E-01
-0.1910893170393E+00 -0.8547997269259E-01
-0.2264410550667E+00 -0.1104160439096E+00
-0.2570689472768E+00 -0.1369986400061E+00
-0.2832084552083E+00 -0.1646117956867E+00
-0.3052370611446E+00 -0.1928740917645E+00
-0.3235993919330E+00 -0.2215951147705E+00
-0.3387547724458E+00 -0.2507076013507E+00
-0.3511538431663E+00 -0.2801853470526E+00
-0.3612100439279E+00 -0.3099562734885E+00
-0.3687094999457E+00 -0.3401289548066E+00
-0.3733527863336E+00 -0.3709746704965E+00
-0.3751110053898E+00 -0.4027280753306E+00
-0.3739812556994E+00 -0.4356525586719E+00
-0.3700912493044E+00 -0.4699643477126E+00
-0.3635271112987E+00 -0.5058513862521E+00
-0.3541775423459E+00 -0.5435600161577E+00
-0.5589970447582E-01 -0.2875680366611E-01
-0.1008777614398E+00 -0.4262477620283E-01
-0.1429329631196E+00 -0.6073013570492E-01
-0.1811207687772E+00 -0.8231936411898E-01
-0.2150222115513E+00 -0.1065512892582E+00
-0.2445714560975E+00 -0.1326800608367E+00
-0.2699235552885E+00 -0.1601359477717E+00
-0.2913813246821E+00 -0.1885442311914E+00
-0.3093357225523E+00 -0.2176986539228E+00
-0.3242203468535E+00 -0.2475071252068E+00
-0.3364837258410E+00 -0.2779174149499E+00
-0.3465499444786E+00 -0.3088368876427E+00
-0.3542703302502E+00 -0.3403187364530E+00
-0.3593983058394E+00 -0.3725337180681E+00
-0.3619141932206E+00 -0.4056150465017E+00
-0.3618072013814E+00 -0.4397220533614E+00
-0.3591825684923E+00 -0.4749895743783E+00
-0.3541123832063E+00 -0.5115390991593E+00
-0.3464924561967E+00 -0.5495260956823E+00
-0.5293836781437E-01 -0.2808266523860E-01
-0.9536507705356E-01 -0.4137951547415E-01
-0.1351248848574E+00 -0.5874437017823E-01
-0.1713897928378E+00 -0.7956755131549E-01
-0.2037513659073E+00 -0.1031382955552E+00
-0.2321002849947E+00 -0.1288027387154E+00
-0.2565281251443E+00 -0.1560420851826E+00
-0.2772742314734E+00 -0.1844982845570E+00
-0.2946815713854E+00 -0.2139596212425E+00
-0.3091598761574E+00 -0.2443174204246E+00
-0.3211551164551E+00 -0.2754993970785E+00
-0.3310999430969E+00 -0.3073964777186E+00
-0.3389187300031E+00 -0.3400087863415E+00
-0.3444277101235E+00 -0.3734133641534E+00
-0.3476206926812E+00 -0.4076502836076E+00
-0.3484823571939E+00 -0.4427834362993E+00
-0.3470928054696E+00 -0.4788735787891E+00
-0.3435050539471E+00 -0.5159851558635E+00
-0.3376231127561E+00 -0.5542004619721E+00
-0.5009605418769E-01 -0.2748520341847E-01
-0.9006271461416E-01 -0.4029689709034E-01
-0.1275647236247E+00 -0.5701870952660E-01
-0.1618853013306E+00 -0.7715541080480E-01
-0.1926374459459E+00 -0.1001071619401E+00
-0.2196837331890E+00 -0.1253041658109E+00
-0.2430663989710E+00 -0.1522794610467E+00
-0.2629715926771E+00 -0.1806977907014E+00
-0.2797003269910E+00 -0.2103495802387E+00
-0.2936413026856E+00 -0.2411163895745E+00
-0.3052386260872E+00 -0.2729115291637E+00
-0.3149325192299E+00 -0.3056139574706E+00
-0.3227288961359E+00 -0.3391746978324E+00
-0.3285177072225E+00 -0.3735863421209E+00
-0.3323117275886E+00 -0.4088061637186E+00
-0.3340945561201E+00 -0.4448113237798E+00
-0.3339167750639E+00 -0.4815944013818E+00
-0.3318034666666E+00 -0.5191709780776E+00
-0.3276634869830E+00 -0.5575717922797E+00
-0.4735360160562E-01 -0.2695119486045E-01
-0.8494320108334E-01 -0.3934565781086E-01
-0.1202283855785E+00 -0.5550463990196E-01
-0.1525956017068E+00 -0.7502335420713E-01
-0.1816857525170E+00 -0.9739524188079E-01
-0.2073447772943E+00 -0.1221256295368E+00
-0.2295771200337E+00 -0.1487977468915E+00
-0.2485248455777E+00 -0.1771023173241E+00
-0.2644529482020E+00 -0.2068371024725E+00
-0.2777324280005E+00 -0.2378792483428E+00
-0.2888069520521E+00 -0.2701326912843E+00
-0.2981241297454E+00 -0.3034688717427E+00
-0.3057800960245E+00 -0.3377951117764E+00
-0.3117499225238E+00 -0.3730312814090E+00
-0.3160720532408E+00 -0.4090649291484E+00
-0.3187346185234E+00 -0.4457966373863E+00
-0.3197536917350E+00 -0.4831508909302E+00
-0.3191128454157E+00 -0.5210979905403E+00
-0.3167136256147E+00 -0.5596405715600E+00
-0.4469613815899E-01 -0.2646962546889E-01
-0.7998385800469E-01 -0.3849993111949E-01
-0.1130947648242E+00 -0.5416139412893E-01
-0.1435092300694E+00 -0.7312011317175E-01
-0.1708992432971E+00 -0.9494683921983E-01
-0.1951023476238E+00 -0.1192129098682E+00
-0.2160944584802E+00 -0.1455484676972E+00
-0.2339814233262E+00 -0.1736712142032E+00
-0.2489977834304E+00 -0.2033894803444E+00
-0.2615003029723E+00 -0.2345799376500E+00
-0.2719340214276E+00 -0.2671414312322E+00
-0.2807542944473E+00 -0.3009419618725E+00
-0.2881558674164E+00 -0.3358515519659E+00
-0.2942099900185E+00 -0.3717309754559E+00
-0.2989881199213E+00 -0.4084141506914E+00
-0.3024903811128E+00 -0.4457398445038E+00
-0.3047012751408E+00 -0.4835657984510E+00
-0.3055438076570E+00 -0.5217931241443E+00
-0.3048835392908E+00 -0.5604216672553E+00
-0.4211247177259E-01 -0.2603102754258E-01
-0.7516614711837E-01 -0.3773756814888E-01
-0.1061455712697E+00 -0.5295474358859E-01
-0.1346155328762E+00 -0.7140167301276E-01
-0.1602795029040E+00 -0.9271279246034E-01
-0.1829723805660E+00 -0.1165166379419E+00
-0.2026488481064E+00 -0.1424860157981E+00
-0.2193852032954E+00 -0.1703650143230E+00
-0.2333905385244E+00 -0.1999741797673E+00
-0.2450108083054E+00 -0.2311925407627E+00
-0.2546943110681E+00 -0.2639170878427E+00
-0.2629048267869E+00 -0.2980160443905E+00
-0.2699434837297E+00 -0.3333290551669E+00
-0.2759877908105E+00 -0.3696721821022E+00
-0.2811486035235E+00 -0.4068432859525E+00
-0.2854459909259E+00 -0.4446389673396E+00
-0.2888393079647E+00 -0.4828650338835E+00
-0.2912041791956E+00 -0.5213378777872E+00
-0.2923022841860E+00 -0.5599543210951E+00
 0.4211247234828E-01 -0.2603102760673E-01
 0.7516614805271E-01 -0.3773756819915E-01
 0.1061455724276E+00 -0.5295474362331E-01
 0.1346155341255E+00 -0.7140167302332E-01
 0.1602795041301E+00 -0.9271279243366E-01
 0.1829723816789E+00 -0.1165166378652E+00
 0.2026488490443E+00 -0.1424860156634E+00
 0.2193852040256E+00 -0.1703650141298E+00
 0.2333905390421E+00 -0.1999741795226E+00
 0.2450108086287E+00 -0.2311925404798E+00
 0.2546943112291E+00 -0.2639170875368E+00
 0.2629048268247E+00 -0.2980160440749E+00
 0.2699434836873E+00 -0.3333290548491E+00
 0.2759877907211E+00 -0.3696721817850E+00
 0.2811486034104E+00 -0.4068432856361E+00
 0.2854459908053E+00 -0.4446389670213E+00
 0.2888393078465E+00 -0.4828650335590E+00
 0.2912041790870E+00 -0.5213378774512E+00
 0.2923022840913E+00 -0.5599543207405E+00
 0.4469613869980E-01 -0.2646962553619E-01
 0.7998385888062E-01 -0.3849993117364E-01
 0.1130947659034E+00 -0.5416139416619E-01
 0.1435092312234E+00 -0.7312011317965E-01
 0.1708992444160E+00 -0.9494683918106E-01
 0.1951023486234E+00 -0.1192129097665E+00
 0.2160944593046E+00 -0.1455484675222E+00
 0.2339814239479E+00 -0.1736712139533E+00
 0.2489977838483E+00 -0.2033894800268E+00
 0.2615003032068E+00 -0.2345799372783E+00
 0.2719340215113E+00 -0.2671414308216E+00
 0.2807542944202E+00 -0.3009419614360E+00
 0.2881558673296E+00 -0.3358515515074E+00
 0.2942099899096E+00 -0.3717309749754E+00
 0.2989881198156E+00 -0.4084141501872E+00
 0.3024903810279E+00 -0.4457398439703E+00
 0.3047012750864E+00 -0.4835657978811E+00
 0.3055438076411E+00 -0.5217931235288E+00
 0.3048835393185E+00 -0.5604216665827E+00
 0.4735360211168E-01 -0.2695119493155E-01
 0.8494320190030E-01 -0.3934565787081E-01
 0.1202283865775E+00 -0.5550463994464E-01
 0.1525956027630E+00 -0.7502335421577E-01
 0.1816857535258E+00 -0.9739524183354E-01
 0.2073447781775E+00 -0.1221256294138E+00
 0.2295771207418E+00 -0.1487977466802E+00
 0.2485248460886E+00 -0.1771023170223E+00
 0.2644529485184E+00 -0.2068371020878E+00
 0.2777324281453E+00 -0.2378792478892E+00
 0.2888069520584E+00 -0.2701326907776E+00
 0.2981241296538E+00 -0.3034688711955E+00
 0.3057800958936E+00 -0.3377951111891E+00
 0.3117499223949E+00 -0.3730312807779E+00
 0.3160720531410E+00 -0.4090649284689E+00
 0.3187346184714E+00 -0.4457966366488E+00
 0.3197536917402E+00 -0.4831508901236E+00
 0.3191128454865E+00 -0.5210979896505E+00
 0.3167136257578E+00 -0.5596405705708E+00
 0.5009605465938E-01 -0.2748520349400E-01
 0.9006271537185E-01 -0.4029689715796E-01
 0.1275647245422E+00 -0.5701870957750E-01
 0.1618853022868E+00 -0.7715541081740E-01
 0.1926374468419E+00 -0.1001071618877E+00
 0.2196837339534E+00 -0.1253041656700E+00
 0.2430663995610E+00 -0.1522794608032E+00
 0.2629715930760E+00 -0.1806977903525E+00
 0.2797003272057E+00 -0.2103495797927E+00
 0.2936413027412E+00 -0.2411163890466E+00
 0.3052386260172E+00 -0.2729115285702E+00
 0.3149325190756E+00 -0.3056139568242E+00
 0.3227288959626E+00 -0.3391746971296E+00
 0.3285177070745E+00 -0.3735863413536E+00
 0.3323117274944E+00 -0.4088061628784E+00
 0.3340945560990E+00 -0.4448113228519E+00
 0.3339167751251E+00 -0.4815944003501E+00
 0.3318034668190E+00 -0.5191709769221E+00
 0.3276634872354E+00 -0.5575717909780E+00
 0.5293836825227E-01 -0.2808266531919E-01
 0.9536507775180E-01 -0.4137951555130E-01
 0.1351248856921E+00 -0.5874437024001E-01
 0.1713897936920E+00 -0.7956755133499E-01
 0.2037513666883E+00 -0.1031382955006E+00
 0.2321002856383E+00 -0.1288027385598E+00
 0.2565281256149E+00 -0.1560420849103E+00
 0.2772742317600E+00 -0.1844982841657E+00
 0.2946815714990E+00 -0.2139596207415E+00
 0.3091598761254E+00 -0.2443174198304E+00
 0.3211551163113E+00 -0.2754993964084E+00
 0.3310999428833E+00 -0.3073964769854E+00
 0.3389187297904E+00 -0.3400087855378E+00
 0.3444277099585E+00 -0.3734133632661E+00
 0.3476206925934E+00 -0.4076502826234E+00
 0.3484823572029E+00 -0.4427834351971E+00
 0.3470928055842E+00 -0.4788735775468E+00
 0.3435050541772E+00 -0.5159851544542E+00
 0.3376231131126E+00 -0.5542004603653E+00
 0.5589970488063E-01 -0.2875680375240E-01
 0.1008777620785E+00 -0.4262477629136E-01
 0.1429329638702E+00 -0.6073013578005E-01
 0.1811207695274E+00 -0.8231936414791E-01
 0.2150222122152E+00 -0.1065512892039E+00
 0.2445714566189E+00 -0.1326800606690E+00
 0.2699235556391E+00 -0.1601359474741E+00
 0.2913813248571E+00 -0.1885442307623E+00
 0.3093357225666E+00 -0.2176986533732E+00
 0.3242203467367E+00 -0.2475071245548E+00
 0.3364837256272E+00 -0.2779174142139E+00
 0.3465499442102E+00 -0.3088368868362E+00
 0.3542703300024E+00 -0.3403187355644E+00
 0.3593983056611E+00 -0.3725337170787E+00
 0.3619141931415E+00 -0.4056150453925E+00
 0.3618072014212E+00 -0.4397220521038E+00
 0.3591825686595E+00 -0.4749895729434E+00
 0.3541123835116E+00 -0.5115390975117E+00
 0.3464924566534E+00 -0.5495260937814E+00
 0.5900444391656E-01 -0.2952389278364E-01
 0.1066337017463E+00 -0.4407096679048E-01
 0.1510159711223E+00 -0.6303407517912E-01
 0.1910893176835E+00 -0.8547997273298E-01
 0.2264410556117E+00 -0.1104160438573E+00
 0.2570689476751E+00 -0.1369986398281E+00
 0.2832084554394E+00 -0.1646117953664E+00
 0.3052370612097E+00 -0.1928740913019E+00
 0.3235993918511E+00 -0.2215951141787E+00
 0.3387547722483E+00 -0.2507076006499E+00
 0.3511538428876E+00 -0.2801853462624E+00
 0.3612100436105E+00 -0.3099562726230E+00
 0.3687094996687E+00 -0.3401289538502E+00
 0.3733527861469E+00 -0.3709746694245E+00
 0.3751110053233E+00 -0.4027280741171E+00
 0.3739812557724E+00 -0.4356525572803E+00
 0.3700912495250E+00 -0.4699643461059E+00
 0.3635271116786E+00 -0.5058513843851E+00
 0.3541775429006E+00 -0.5435600139771E+00
 0.6228342123718E-01 -0.3040427377197E-01
 0.1126720151666E+00 -0.4576549476008E-01
 0.1594035273365E+00 -0.6572604808446E-01
 0.2013046814452E+00 -0.8912945696372E-01
 0.2379936733495E+00 -0.1148097945755E+00
 0.2695576226399E+00 -0.1418235922132E+00
 0.2963321620996E+00 -0.1695188199900E+00
 0.3187810452577E+00 -0.1975221969960E+00
 0.3374071961352E+00 -0.2256725743586E+00
 0.3526959373170E+00 -0.2539369028913E+00
 0.3650980206175E+00 -0.2823208198940E+00
 0.3750128854388E+00 -0.3107761784558E+00
 0.3821683820481E+00 -0.3394675476130E+00
 0.3862211088339E+00 -0.3687711572327E+00
 0.3871365535570E+00 -0.3990295118158E+00
 0.3849235721175E+00 -0.4306174363090E+00
 0.3797315563230E+00 -0.4638394942342E+00
 0.3716583216650E+00 -0.4989585855140E+00
 0.3605890449851E+00 -0.5363268172531E+00
 0.6577556220139E-01 -0.3142375018524E-01
 0.1190387863781E+00 -0.4776767875346E-01
 0.1681272072118E+00 -0.6889054800957E-01
 0.2117724698448E+00 -0.9336040981291E-01
 0.2496583915835E+00 -0.1198167925409E+00
 0.2819937696895E+00 -0.1472207424969E+00
 0.3092367248177E+00 -0.1749020032218E+00
 0.3319483799294E+00 -0.2025161899254E+00
 0.3506925551303E+00 -0.2299478069312E+00
 0.3659785382331E+00 -0.2572078945362E+00
 0.3782532880315E+00 -0.2843388823200E+00
 0.3878976049082E+00 -0.3113187581194E+00
 0.3945870083986E+00 -0.3383670113615E+00
 0.3979419714868E+00 -0.3659668477495E+00
 0.3979256051101E+00 -0.3945727549281E+00
 0.3945629862085E+00 -0.4246762749968E+00
 0.3880259072475E+00 -0.4566756346726E+00
 0.3784234614034E+00 -0.4909155662361E+00
 0.3656423924950E+00 -0.5278665755863E+00
 0.6953003780695E-01 -0.3261557962078E-01
 0.1257878686333E+00 -0.5015259740995E-01
 0.1772193616101E+00 -0.7263035699898E-01
 0.2224921064367E+00 -0.9827954003512E-01
 0.2614033435543E+00 -0.1255272724437E+00
 0.2943231976166E+00 -0.1532536978594E+00
 0.3218562951462E+00 -0.1807986449264E+00
 0.3446702225655E+00 -0.2078741329958E+00
 0.3633889643053E+00 -0.2344289858759E+00
 0.3785407076545E+00 -0.2605274896235E+00
 0.3905626501398E+00 -0.2862519737568E+00
 0.3998112788586E+00 -0.3116071463039E+00
 0.4059148654465E+00 -0.3368647092416E+00
 0.4084646967822E+00 -0.3626144176093E+00
 0.4074245259320E+00 -0.3894243345205E+00
 0.4028404902384E+00 -0.4179053266711E+00
 0.3949085330476E+00 -0.4485523025041E+00
 0.3837499227617E+00 -0.4817965506657E+00
 0.3692589949222E+00 -0.5182374047520E+00
 0.7360914101026E-01 -0.3402342317479E-01
 0.1329816306736E+00 -0.5301655023291E-01
 0.1867111043021E+00 -0.7707128813351E-01
 0.2334532098124E+00 -0.1040090970595E+00
 0.2731830462621E+00 -0.1320351859064E+00
 0.3064793235313E+00 -0.1599794712070E+00
 0.3341170406798E+00 -0.1872339839763E+00
 0.3568750392609E+00 -0.2136014971495E+00
 0.3754318308210E+00 -0.2391143203620E+00
 0.3903258376698E+00 -0.2638965053994E+00
 0.4019766454596E+00 -0.2880703735737E+00
 0.4107102786083E+00 -0.3116659759928E+00
 0.4161122385867E+00 -0.3350030772918E+00
 0.4177507714032E+00 -0.3587752385345E+00
 0.4155931325313E+00 -0.3836631436725E+00
 0.4097113709368E+00 -0.4103967179369E+00
 0.4003277686448E+00 -0.4395678448538E+00
 0.3875773398340E+00 -0.4716964019642E+00
 0.3713684549625E+00 -0.5075182189845E+00
 0.7809218191887E-01 -0.3570587512320E-01
 0.1406914695720E+00 -0.5648503336954E-01
 0.1966289408723E+00 -0.8236835868510E-01
 0.2446304683342E+00 -0.1106876116054E+00
 0.2849342654570E+00 -0.1394338395610E+00
 0.3183815876116E+00 -0.1674421301501E+00
 0.3459379979882E+00 -0.1942159942044E+00
 0.3684908014603E+00 -0.2196884697096E+00
 0.3867608835304E+00 -0.2439915547152E+00
 0.4012845617949E+00 -0.2673103369350E+00
 0.4124547745625E+00 -0.2898031295323E+00
 0.4205613377979E+00 -0.3115219668795E+00
 0.4251511773260E+00 -0.3328295265453E+00
 0.4257749511731E+00 -0.3545185060198E+00
 0.4224061575452E+00 -0.3773790223967E+00
 0.4151471920233E+00 -0.4022570833664E+00
 0.4042486109466E+00 -0.4298389257819E+00
 0.3898606353613E+00 -0.4607317283964E+00
 0.3719118177177E+00 -0.4958115947424E+00
 0.8308086605467E-01 -0.3774371403399E-01
 0.1489977066016E+00 -0.6072477476320E-01
 0.2069891340653E+00 -0.8871375044434E-01
 0.2559764086470E+00 -0.1184688450558E+00
 0.2965713304596E+00 -0.1478080284377E+00
 0.3299348494596E+00 -0.1756639678675E+00
 0.3572334401913E+00 -0.2017298434951E+00
 0.3794483033281E+00 -0.2261083836721E+00
 0.3973230064821E+00 -0.2490388320178E+00
 0.4113766402972E+00 -0.2707605600671E+00
 0.4219665811669E+00 -0.2914593718891E+00
 0.4293421854980E+00 -0.3112044813538E+00
 0.4330159797808E+00 -0.3303960080411E+00
 0.4325258634688E+00 -0.3499198029654E+00
 0.4278542786396E+00 -0.3706706111582E+00
 0.4191375707689E+00 -0.3936053848355E+00
 0.4066554928618E+00 -0.4194992553793E+00
 0.3905738155033E+00 -0.4490414502093E+00
 0.3708459999757E+00 -0.4832466014215E+00
 0.8870689723381E-01 -0.4025211693389E-01
 0.1579880177589E+00 -0.6596256828220E-01
 0.2177881896499E+00 -0.9634672224503E-01
 0.2674113198735E+00 -0.1275165128274E+00
 0.3079815595689E+00 -0.1572205025278E+00
 0.3410309465671E+00 -0.1846340835425E+00
 0.3679174196993E+00 -0.2097333793686E+00
 0.3896855172234E+00 -0.2328184257669E+00
 0.4070750898935E+00 -0.2542272825485E+00
 0.4205724023566E+00 -0.2742372864922E+00
 0.4304922043020E+00 -0.2930497907715E+00
 0.4370416558091E+00 -0.3107459327621E+00
 0.4397031356246E+00 -0.3277582208096E+00
 0.4380060346356E+00 -0.3450590929486E+00
 0.4319446020950E+00 -0.3636423866446E+00
 0.4216915906761E+00 -0.3845696754945E+00
 0.4075551020647E+00 -0.4086971350634E+00
 0.3897144400885E+00 -0.4367863650993E+00
 0.3681495870597E+00 -0.4699813064614E+00
 0.9514306373661E-01 -0.4340248286738E-01
 0.1677524044909E+00 -0.7251618342130E-01
 0.2289865278376E+00 -0.1055644265413E+00
 0.2788097079642E+00 -0.1379896842645E+00
 0.3190226615410E+00 -0.1676896349818E+00
 0.3515543218070E+00 -0.1942960131164E+00
 0.3779108581058E+00 -0.2181562894579E+00
 0.3991523239051E+00 -0.2397638945244E+00
 0.4159862101572E+00 -0.2595249821767E+00
 0.4288534634245E+00 -0.2777317795735E+00
 0.4380223260856E+00 -0.2945880142264E+00
 0.4436592612981E+00 -0.3101819927526E+00
 0.4452206954494E+00 -0.3249745015086E+00
 0.4422312619077E+00 -0.3400181716040E+00
 0.4347004497028E+00 -0.3564008472297E+00
 0.4228385988808E+00 -0.3752826243814E+00
 0.4069789224259E+00 -0.3975914043382E+00
 0.3873085265981E+00 -0.4241470647679E+00
 0.3638301439196E+00 -0.4562043897203E+00
 0.1026198239132E+00 -0.4746538577905E-01
 0.1783699173396E+00 -0.8084692614048E-01
 0.2404797475374E+00 -0.1167294577033E+00
 0.2899840611772E+00 -0.1500065124006E+00
 0.3295265986017E+00 -0.1791570020664E+00
 0.3613940594656E+00 -0.2045394383958E+00
 0.3871503061249E+00 -0.2269078098347E+00
 0.4078139854644E+00 -0.2468852063468E+00
 0.4240386188111E+00 -0.2649011604648E+00
 0.4362126437260E+00 -0.2812387270782E+00
 0.4445575923140E+00 -0.2960917509301E+00
 0.4492042703364E+00 -0.3095516822043E+00
 0.4495870377849E+00 -0.3221044915073E+00
 0.4452292373835E+00 -0.3348776383140E+00
 0.4361602853319E+00 -0.3490498684542E+00
 0.4226280946324E+00 -0.3658758019066E+00
 0.4049849818651E+00 -0.3863454288583E+00
 0.3834153409355E+00 -0.4113193828140E+00
 0.3579329188240E+00 -0.4421347457999E+00
 0.1114520365729E+00 -0.5290079980340E-01
 0.1898727237521E+00 -0.9166045673133E-01
 0.2520484090972E+00 -0.1302470115198E+00
 0.3006720705449E+00 -0.1635695523939E+00
 0.3393194787929E+00 -0.1914453390481E+00
 0.3704627826425E+00 -0.2152164710635E+00
 0.3955937379055E+00 -0.2358905737685E+00
 0.4156523970499E+00 -0.2541249889648E+00
 0.4312274145624E+00 -0.2703293237694E+00
 0.4426533368765E+00 -0.2847578302321E+00
 0.4501076858097E+00 -0.2975838174060E+00
 0.4536943394356E+00 -0.3088975885210E+00
 0.4528289565002E+00 -0.3192077522938E+00
 0.4470373024448E+00 -0.3297133226584E+00
 0.4363756851817E+00 -0.3416853737260E+00
 0.4211284601346E+00 -0.3564729063293E+00
 0.4016582111037E+00 -0.3751193113835E+00
 0.3781308747632E+00 -0.3985062236767E+00
 0.3505502757412E+00 -0.4280173601126E+00
 0.1220724932232E+00 -0.6062336527486E-01
 0.2021529533849E+00 -0.1060562038875E+00
 0.2632678426408E+00 -0.1464771966213E+00
 0.3105589322419E+00 -0.1783667387712E+00
 0.3482711825050E+00 -0.2043008756222E+00
 0.3787063077643E+00 -0.2261727462164E+00
 0.4032220944951E+00 -0.2450135193157E+00
 0.4226648197514E+00 -0.2614324343406E+00
 0.4375594812375E+00 -0.2757887607449E+00
 0.4481886861940E+00 -0.2882947446838E+00
 0.4546903328089E+00 -0.2990932983105E+00
 0.4571537062613E+00 -0.3082669013049E+00
 0.4549788159497E+00 -0.3163423487413E+00
 0.4476991336168E+00 -0.3245919122554E+00
 0.4354084166699E+00 -0.3343890502373E+00
 0.4184247458286E+00 -0.3471831986581E+00
 0.3971085899863E+00 -0.3640604674063E+00
 0.3715886791594E+00 -0.3859062428006E+00
 0.3418287624525E+00 -0.4141111627983E+00
 0.1351344630935E+00 -0.7258173572383E-01
 0.2145905357495E+00 -0.1261590399015E+00
 0.2734457477521E+00 -0.1647775637397E+00
 0.3194393977658E+00 -0.1939067834636E+00
 0.3563080322373E+00 -0.2174754346100E+00
 0.3861056313249E+00 -0.2372714121761E+00
 0.4100356703659E+00 -0.2541974042799E+00
 0.4288618267242E+00 -0.2687650147228E+00
 0.4430519307757E+00 -0.2812649769164E+00
 0.4528410900961E+00 -0.2918605279653E+00
 0.4583307410204E+00 -0.3006580513736E+00
 0.4596107972461E+00 -0.3077141209817E+00
 0.4560701064923E+00 -0.3135640862261E+00
 0.4472597120489E+00 -0.3195635466365E+00
 0.4333273188639E+00 -0.3272211995117E+00
 0.4146164961325E+00 -0.3380958480547E+00
 0.3914674852329E+00 -0.3532976897918E+00
 0.3639534881557E+00 -0.3736945723799E+00
 0.3319740731655E+00 -0.4006736915736E+00
-0.2811567308286E+00 -0.6134985871322E+00
-0.2917891810909E+00 -0.6156675556181E+00
-0.3016045576019E+00 -0.6166101843846E+00
-0.3105381735240E+00 -0.6162712361232E+00
-0.3185053343175E+00 -0.6146161009198E+00
-0.3254180419217E+00 -0.6116173581877E+00
-0.3311839904734E+00 -0.6072531668614E+00
-0.3357074530261E+00 -0.6015089603773E+00
-0.3388896795923E+00 -0.5943798696149E+00
-0.3406296050793E+00 -0.5858736058758E+00
-0.3408249350260E+00 -0.5760139284140E+00
-0.3393738628875E+00 -0.5648449821880E+00
-0.3361777674264E+00 -0.5524368701649E+00
-0.3311454521615E+00 -0.5388929149522E+00
-0.3241998636398E+00 -0.5243591746354E+00
-0.3152887986650E+00 -0.5090367675474E+00
-0.3044026498038E+00 -0.4931975837777E+00
-0.2916023573600E+00 -0.4772011618132E+00
-0.2770748865835E+00 -0.4615114451840E+00
-0.2696786737944E+00 -0.6282347782774E+00
-0.2802691316724E+00 -0.6320351306156E+00
-0.2900834689020E+00 -0.6346653678171E+00
-0.2990286887052E+00 -0.6360227257479E+00
-0.3070189364213E+00 -0.6360438125284E+00
-0.3139612898657E+00 -0.6346800473514E+00
-0.3197566227005E+00 -0.6318910590475E+00
-0.3242998340169E+00 -0.6276430423110E+00
-0.3274803288103E+00 -0.6219096613787E+00
-0.3291823293949E+00 -0.6146740742033E+00
-0.3292852375205E+00 -0.6059318339305E+00
-0.3276641869122E+00 -0.5956948107721E+00
-0.3241910114590E+00 -0.5839965377684E+00
-0.3187360063203E+00 -0.5708996296411E+00
-0.3111711782966E+00 -0.5565062560191E+00
-0.3013765027308E+00 -0.5409732481177E+00
-0.2892519847227E+00 -0.5245341502370E+00
-0.2747444633641E+00 -0.5075331148142E+00
-0.2579001362801E+00 -0.4904748351574E+00
-0.2577175858284E+00 -0.6427940153090E+00
-0.2681581254513E+00 -0.6483246915804E+00
-0.2778788343618E+00 -0.6527178594379E+00
-0.2867638153408E+00 -0.6558742949565E+00
-0.2947136208052E+00 -0.6577105732302E+00
-0.3016282202019E+00 -0.6581594876876E+00
-0.3074013123680E+00 -0.6571630805449E+00
-0.3119193590926E+00 -0.6546698402212E+00
-0.3150612367943E+00 -0.6506340687737E+00
-0.3166980195196E+00 -0.6450167056648E+00
-0.3166926058959E+00 -0.6377871208917E+00
-0.3148991668738E+00 -0.6289258560401E+00
-0.3111624149240E+00 -0.6184285765847E+00
-0.3053167451664E+00 -0.6063117983995E+00
-0.2971854416309E+00 -0.5926213916081E+00
-0.2865804134875E+00 -0.5774456302918E+00
-0.2733041598716E+00 -0.5609363018786E+00
-0.2571568568960E+00 -0.5433449114640E+00
-0.2379648406908E+00 -0.5250919173053E+00
-0.2452787649208E+00 -0.6570662448141E+00
-0.2554889272973E+00 -0.6643932741178E+00
-0.2650266234111E+00 -0.6706262551537E+00
-0.2737684564536E+00 -0.6756704397304E+00
-0.2816031181543E+00 -0.6794371909596E+00
-0.2884208071104E+00 -0.6818473402351E+00
-0.2941067238188E+00 -0.6828298759288E+00
-0.2985381416210E+00 -0.6823195303456E+00
-0.3015830501816E+00 -0.6802556845505E+00
-0.3030990915324E+00 -0.6765823191789E+00
-0.3029323251156E+00 -0.6712488051065E+00
-0.3009155220990E+00 -0.6642114206811E+00
-0.2968657354131E+00 -0.6554356925077E+00
-0.2905808132677E+00 -0.6448998794566E+00
-0.2818343399744E+00 -0.6326002446377E+00
-0.2703682180999E+00 -0.6185593675136E+00
-0.2558812286010E+00 -0.6028399597559E+00
-0.2380110369300E+00 -0.5855695757151E+00
-0.2163005495654E+00 -0.5669898401912E+00
-0.2323758879294E+00 -0.6709561474893E+00
-0.2422829924827E+00 -0.6801190541041E+00
-0.2515581217339E+00 -0.6882453324659E+00
-0.2600758796467E+00 -0.6952458210712E+00
-0.2677172459928E+00 -0.7010312957646E+00
-0.2743632451398E+00 -0.7055174798905E+00
-0.2798896397793E+00 -0.7086255687281E+00
-0.2841634277854E+00 -0.7102813828534E+00
-0.2870404920318E+00 -0.7104144745894E+00
-0.2883635962783E+00 -0.7089578036486E+00
-0.2879600995292E+00 -0.7058479601560E+00
-0.2856389252998E+00 -0.7010258755084E+00
-0.2811862827504E+00 -0.6944380015665E+00
-0.2743594436489E+00 -0.6860380264682E+00
-0.2648774668591E+00 -0.6757892985737E+00
-0.2524068881560E+00 -0.6636682567788E+00
-0.2365387026640E+00 -0.6496692797475E+00
-0.2167483379606E+00 -0.6338112705494E+00
-0.1923183398676E+00 -0.6161440446947E+00
-0.2190275678571E+00 -0.6843799840583E+00
-0.2285660193454E+00 -0.6953940555506E+00
-0.2375073588993E+00 -0.7054429689317E+00
-0.2457266969124E+00 -0.7144423287859E+00
-0.2530999421629E+00 -0.7223048510399E+00
-0.2595003544674E+00 -0.7289449198052E+00
-0.2647944045069E+00 -0.7342801317825E+00
-0.2688382835373E+00 -0.7382312951227E+00
-0.2714749724984E+00 -0.7407220155676E+00
-0.2725314086422E+00 -0.7416783520238E+00
-0.2718152284119E+00 -0.7410286976886E+00
-0.2691105527963E+00 -0.7387038342167E+00
-0.2641721989796E+00 -0.7346370344008E+00
-0.2567174688256E+00 -0.7287640130839E+00
-0.2464142018362E+00 -0.7210223740259E+00
-0.2328629350348E+00 -0.7113498281852E+00
-0.2155693412288E+00 -0.6996795590851E+00
-0.1938999952520E+00 -0.6859285297963E+00
-0.1670078556623E+00 -0.6699666471534E+00
-0.2052580909973E+00 -0.6972643448005E+00
-0.2143700462866E+00 -0.7101271270597E+00
-0.2229155474250E+00 -0.7221070511957E+00
-0.2307708515392E+00 -0.7331236931284E+00
-0.2378084645362E+00 -0.7430924569882E+00
-0.2438952138507E+00 -0.7519283294381E+00
-0.2488890134753E+00 -0.7595476101689E+00
-0.2526355535580E+00 -0.7658683670707E+00
-0.2549650911738E+00 -0.7708102806932E+00
-0.2556891003071E+00 -0.7742942677947E+00
-0.2545963912040E+00 -0.7762419894568E+00
-0.2514482386910E+00 -0.7765751601373E+00
-0.2459719678568E+00 -0.7752144086663E+00
-0.2378522832670E+00 -0.7720772475779E+00
-0.2267193568863E+00 -0.7670743754394E+00
-0.2121322794028E+00 -0.7601029128011E+00
-0.1935559695587E+00 -0.7510338908077E+00
-0.1703295759309E+00 -0.7396888652469E+00
-0.1416281277483E+00 -0.7257954405196E+00
-0.1910962065470E+00 -0.7095467987950E+00
-0.1997332488617E+00 -0.7242454048076E+00
-0.2078311657233E+00 -0.7381501519300E+00
-0.2152672717059E+00 -0.7511836453864E+00
-0.2219116037142E+00 -0.7632637873559E+00
-0.2276256888685E+00 -0.7743066180276E+00
-0.2322598854185E+00 -0.7842278787501E+00
-0.2356502988422E+00 -0.7929435481165E+00
-0.2376155260182E+00 -0.8003697245431E+00
-0.2379531326051E+00 -0.8064220785431E+00
-0.2364356182819E+00 -0.8110149110154E+00
-0.2328055597296E+00 -0.8140596697934E+00
-0.2267695847150E+00 -0.8154625931557E+00
-0.2179908054214E+00 -0.8151209156920E+00
-0.2060793519332E+00 -0.8129167267543E+00
-0.1905807937352E+00 -0.8087070162253E+00
-0.1709628605862E+00 -0.8023076190905E+00
-0.1466026236322E+00 -0.7934676284250E+00
-0.1167822667032E+00 -0.7818321466694E+00
-0.1765700790213E+00 -0.7211679838248E+00
-0.1846910401086E+00 -0.7376793357819E+00
-0.1922980767627E+00 -0.7534890509309E+00
-0.1992693640192E+00 -0.7685217690512E+00
-0.2054731805743E+00 -0.7826971104994E+00
-0.2107668843323E+00 -0.7959316722597E+00
-0.2149946076749E+00 -0.8081402283769E+00
-0.2179844185838E+00 -0.8192361162759E+00
-0.2195452131158E+00 -0.8291309651848E+00
-0.2194633474320E+00 -0.8377338643885E+00
-0.2174989070650E+00 -0.8449499376420E+00
-0.2133814861188E+00 -0.8506781443791E+00
-0.2068053848704E+00 -0.8548079709968E+00
-0.1974242422650E+00 -0.8572144947118E+00
-0.1848453553313E+00 -0.8577510819548E+00
-0.1686244464651E+00 -0.8562387432905E+00
-0.1482626289419E+00 -0.8524509986089E+00
-0.1232094560546E+00 -0.8460935771668E+00
-0.9287657300968E-01 -0.8367793752816E+00
-0.1616951298599E+00 -0.7320471320386E+00
-0.1692534376864E+00 -0.7503151441025E+00
-0.1763239562995E+00 -0.7679761226149E+00
-0.1827863369321E+00 -0.7849560795404E+00
-0.1885085398934E+00 -0.8011755941331E+00
-0.1933457971418E+00 -0.8165510902059E+00
-0.1971385555612E+00 -0.8309956040331E+00
-0.1997099345047E+00 -0.8444188941678E+00
-0.2008629495186E+00 -0.8567269186901E+00
-0.2003775895415E+00 -0.8678206934597E+00
-0.1980077730849E+00 -0.8775944655509E+00
-0.1934782263799E+00 -0.8859330385418E+00
-0.1864814169826E+00 -0.8927079901862E+00
-0.1766748582496E+00 -0.8977724392737E+00
-0.1636794251157E+00 -0.9009539743943E+00
-0.1470798595989E+00 -0.9020454199942E+00
-0.1264295384866E+00 -0.9007934621666E+00
-0.1012624379726E+00 -0.8968859902944E+00
-0.7111716181676E-01 -0.8899402792144E+00
-0.1464909844116E+00 -0.7421049524671E+00
-0.1534369670389E+00 -0.7620389941315E+00
-0.1599245557377E+00 -0.7814613431419E+00
-0.1658363311997E+00 -0.8002990015804E+00
-0.1710421535184E+00 -0.8184728861126E+00
-0.1753980570705E+00 -0.8358985425426E+00
-0.1787444203802E+00 -0.8524864941344E+00
-0.1809037832323E+00 -0.8681420467621E+00
-0.1816785456763E+00 -0.8827645138346E+00
-0.1808486926628E+00 -0.8962458373569E+00
-0.1781696673000E+00 -0.9084685440704E+00
-0.1733705598191E+00 -0.9193029291753E+00
-0.1661528883447E+00 -0.9286033293188E+00
-0.1561904329344E+00 -0.9362033558657E+00
-0.1431308622330E+00 -0.9419100476225E+00
-0.1266002811055E+00 -0.9454971392990E+00
-0.1062122324295E+00 -0.9466981280787E+00
-0.8158312589720E-01 -0.9452006140263E+00
-0.5235602524552E-01 -0.9406449297182E+00
-0.1309848170715E+00 -0.7512735059012E+00
-0.1372714609236E+00 -0.7727559442079E+00
-0.1431335010383E+00 -0.7938201178008E+00
-0.1484584656966E+00 -0.8143937431487E+00
-0.1531208096975E+00 -0.8343975596027E+00
-0.1569807927009E+00 -0.8537456261218E+00
-0.1598828925305E+00 -0.8723453141191E+00
-0.1616540279056E+00 -0.8900968491649E+00
-0.1621018083343E+00 -0.9068923512440E+00
-0.1610129885354E+00 -0.9226143484700E+00
-0.1581523084513E+00 -0.9371337333521E+00
-0.1532619495569E+00 -0.9503071255404E+00
-0.1460619319695E+00 -0.9619736241883E+00
-0.1362519118902E+00 -0.9719510007569E+00
-0.1235150056494E+00 -0.9800315303757E+00
-0.1075244193637E+00 -0.9859779259932E+00
-0.8795373074029E-01 -0.9895202499328E+00
-0.6449143203879E-01 -0.9903552805721E+00
-0.3685934521227E-01 -0.9881504383607E+00
-0.1152078133862E+00 -0.7594950413020E+00
-0.1207935386485E+00 -0.7823873486806E+00
-0.1259933072909E+00 -0.8049501319942E+00
-0.1307019013179E+00 -0.8271115534095E+00
-0.1348012793988E+00 -0.8487917581397E+00
-0.1381595161162E+00 -0.8699028574768E+00
-0.1406294824220E+00 -0.8903486501146E+00
-0.1420474859805E+00 -0.9100239771773E+00
-0.1422320734001E+00 -0.9288136756898E+00
-0.1409831830075E+00 -0.9465911248368E+00
-0.1380818488433E+00 -0.9632163937771E+00
-0.1332906948634E+00 -0.9785340207564E+00
-0.1263555165501E+00 -0.9923704989827E+00
-0.1170083124463E+00 -0.1004531631763E+01
-0.1049721728403E+00 -0.1014800063192E+01
-0.8996840836515E-01 -0.1022933497640E+01
-0.7172611252852E-01 -0.1028664383463E+01
-0.4999384956702E-01 -0.1031702074974E+01
-0.2455220027561E-01 -0.1031738501389E+01
-0.9919291008147E-01 -0.7667203875683E+00
-0.1040423451882E+00 -0.7908675668532E+00
-0.1085494148306E+00 -0.8147667754756E+00
-0.1126185252371E+00 -0.8383463570696E+00
-0.1161420501553E+00 -0.8615255500098E+00
-0.1189993917217E+00 -0.8842142354042E+00
-0.1210559362770E+00 -0.9063124685579E+00
-0.1221620872741E+00 -0.9277097310162E+00
-0.1221525587576E+00 -0.9482838933681E+00
-0.1208461104560E+00 -0.9678999100489E+00
-0.1180459145436E+00 -0.9864082916714E+00
-0.1135407627530E+00 -0.1003643432335E+01
-0.1071073412203E+00 -0.1019421920134E+01
-0.9851380207264E-01 -0.1033541036333E+01
-0.8752481811303E-01 -0.1045777753383E+01
-0.7390817777631E-01 -0.1055888663298E+01
-0.5744270670393E-01 -0.1063611366968E+01
-0.3792684439447E-01 -0.1068667850112E+01
-0.1518659115360E-01 -0.1070770136096E+01
-0.8297366541286E-01 -0.7729077255278E+00
-0.8705745817787E-01 -0.7981414803593E+00
-0.9084725335925E-01 -0.8231995296392E+00
-0.9425935778097E-01 -0.8480101694010E+00
-0.9719931157682E-01 -0.8724915372990E+00
-0.9956110510556E-01 -0.8965511902799E+00
-0.1012263961146E+00 -0.9200855168696E+00
-0.1020638792198E+00 -0.9429789581814E+00
-0.1019289674461E+00 -0.9651030543164E+00
-0.1006639452733E+00 -0.9863153626242E+00
-0.9809875380492E-01 -0.1006458320432E+01
-0.9405256772098E-01 -0.1025358155924E+01
-0.8833631048809E-01 -0.1042823992213E+01
-0.8075621377675E-01 -0.1058647341805E+01
-0.7111843926780E-01 -0.1072602245152E+01
-0.5923462421521E-01 -0.1084446348754E+01
-0.4492797357592E-01 -0.1093923209842E+01
-0.2803922067964E-01 -0.1100766001683E+01
-0.8431499303546E-02 -0.1104702525333E+01
-0.6658401814641E-01 -0.7780216512444E+00
-0.6987856187622E-01 -0.8041625597011E+00
-0.7293187320462E-01 -0.8301890323172E+00
-0.7567422722467E-01 -0.8560291506542E+00
-0.7802679973187E-01 -0.8815998864436E+00
-0.7990105223461E-01 -0.9068065628675E+00
-0.8119817858421E-01 -0.9315422031418E+00
-0.8180873600863E-01 -0.9556867716034E+00
-0.8161259165855E-01 -0.9791063470485E+00
-0.8047931414249E-01 -0.1001652294220E+01
-0.7826913328806E-01 -0.1023160521882E+01
-0.7483457656192E-01 -0.1043450939135E+01
-0.7002285888319E-01 -0.1062327246700E+01
-0.6367904358603E-01 -0.1079577223856E+01
-0.5564989622142E-01 -0.1094973685686E+01
-0.4578821605366E-01 -0.1108276273437E+01
-0.3395726433831E-01 -0.1119234180992E+01
-0.2003475868620E-01 -0.1127589792724E+01
-0.3915847896548E-02 -0.1133083000106E+01
-0.5005785052177E-01 -0.7820328296466E+00
-0.5254469839051E-01 -0.8088921186626E+00
-0.5484691053738E-01 -0.8356859204291E+00
-0.5691050516947E-01 -0.8623420132946E+00
-0.5867439199235E-01 -0.8887762675028E+00
-0.6006992284523E-01 -0.9148920333753E+00
-0.6102052699542E-01 -0.9405794646677E+00
-0.6144152353944E-01 -0.9657148072143E+00
-0.6124021022097E-01 -0.9901597106003E+00
-0.6031632482189E-01 -0.1013760641661E+01
-0.5856296504099E-01 -0.1036348494880E+01
-0.5586803222688E-01 -0.1057738507493E+01
-0.5211622780801E-01 -0.1077730595294E+01
-0.4719157330900E-01 -0.1096110224714E+01
-0.4098034343697E-01 -0.1112649920801E+01
-0.3337420275446E-01 -0.1127111469950E+01
-0.2427324040177E-01 -0.1139248803000E+01
-0.1358853851244E-01 -0.1148811438683E+01
-0.1243963283913E-02 -0.1155548258950E+01
-0.3342910452099E-01 -0.7849175644716E+00
-0.3509461421523E-01 -0.8122983844865E+00
-0.3663517863394E-01 -0.8396493535957E+00
-0.3801397308056E-01 -0.8668979401787E+00
-0.3918929806643E-01 -0.8939590996633E+00
-0.4011428692387E-01 -0.9207346218864E+00
-0.4073668955813E-01 -0.9471124510129E+00
-0.4099879362814E-01 -0.9729660269332E+00
-0.4083754940211E-01 -0.9981537184574E+00
-0.4018496111997E-01 -0.1022518434588E+01
-0.3896879776926E-01 -0.1045887510015E+01
-0.3711365764229E-01 -0.1068072964112E+01
-0.3454239072607E-01 -0.1088872227183E+01
-0.3117783886466E-01 -0.1108069410018E+01
-0.2694479732474E-01 -0.1125437159031E+01
-0.2177204108328E-01 -0.1140739086491E+01
-0.1559421040801E-01 -0.1153732695169E+01
-0.8353338613262E-02 -0.1164172639502E+01
 0.1769274888819E-06 -0.1171814108162E+01
-0.1673177065404E-01 -0.7866575612405E+00
-0.1756683886998E-01 -0.8143559670099E+00
-0.1833885263489E-01 -0.8420461623138E+00
-0.1902913909086E-01 -0.8696553770113E+00
-0.1961654670334E-01 -0.8970979484736E+00
-0.2007730156091E-01 -0.9242746495663E+00
-0.2038490791962E-01 -0.9510720128246E+00
-0.2051012349322E-01 -0.9773617116404E+00
-0.2042104251594E-01 -0.1003000076179E+01
-0.2008331745377E-01 -0.1027827834013E+01
-0.1946054426410E-01 -0.1051670170738E+01
-0.1851482533934E-01 -0.1074337202516E+01
-0.1720750739569E-01 -0.1095624938425E+01
-0.1550006815424E-01 -0.1115316783056E+01
-0.1335509750388E-01 -0.1133185587558E+01
-0.1073729099692E-01 -0.1148996201410E+01
-0.7614354877447E-02 -0.1162508413542E+01
-0.3957717993543E-02 -0.1173480112758E+01
 0.2570351674445E-03 -0.1181670451346E+01
 0.4465205982740E-10 -0.7872396654623E+00
 0.2070832394452E-09 -0.8150452911066E+00
 0.3668074732843E-09 -0.8428499580994E+00
 0.5218758758474E-09 -0.8705808016145E+00
 0.6699412136157E-09 -0.8981519339313E+00
 0.8082394753472E-09 -0.9254637667286E+00
 0.9335774375785E-09 -0.9524023377805E+00
 0.1042311570387E-08 -0.9788387068763E+00
 0.1130333160404E-08 -0.1004628501154E+01
 0.1193093623897E-08 -0.1029611700974E+01
 0.1225618717626E-08 -0.1053612761112E+01
 0.1222564049996E-08 -0.1076441156561E+01
 0.1178300790272E-08 -0.1097892425362E+01
 0.1087009149359E-08 -0.1117749750560E+01
 0.9428127167865E-09 -0.1135786079059E+01
 0.7399212353931E-09 -0.1151766719236E+01
 0.4727855884568E-09 -0.1165452299637E+01
 0.1362225887647E-09 -0.1176601917084E+01
-0.2744580118730E-09 -0.1184976269675E+01
 0.1673177074273E-01 -0.7866575612047E+00
 0.1756683928303E-01 -0.8143559669354E+00
 0.1833885336696E-01 -0.8420461621964E+00
 0.1902914013276E-01 -0.8696553768469E+00
 0.1961654804124E-01 -0.8970979482579E+00
 0.2007730317554E-01 -0.9242746492951E+00
 0.2038490978539E-01 -0.9510720124938E+00
 0.2051012557737E-01 -0.9773617112459E+00
 0.2042104477758E-01 -0.1003000075717E+01
 0.2008331984302E-01 -0.1027827833480E+01
 0.1946054672119E-01 -0.1051670170130E+01
 0.1851482779391E-01 -0.1074337201831E+01
 0.1720750976616E-01 -0.1095624937660E+01
 0.1550007034741E-01 -0.1115316782208E+01
 0.1335509941475E-01 -0.1133185586624E+01
 0.1073729250888E-01 -0.1148996200387E+01
 0.7614355862671E-02 -0.1162508412426E+01
 0.3957718313731E-02 -0.1173480111546E+01
-0.2570356601064E-03 -0.1181670450033E+01
 0.3342910460784E-01 -0.7849175644010E+00
 0.3509461462493E-01 -0.8122983843395E+00
 0.3663517936134E-01 -0.8396493533641E+00
 0.3801397411680E-01 -0.8668979398543E+00
 0.3918929939821E-01 -0.8939590992377E+00
 0.4011428853267E-01 -0.9207346213510E+00
 0.4073669141935E-01 -0.9471124503595E+00
 0.4099879571027E-01 -0.9729660261538E+00
 0.4083755166581E-01 -0.9981537175442E+00
 0.4018496351719E-01 -0.1022518433534E+01
 0.3896880024234E-01 -0.1045887508813E+01
 0.3711366012317E-01 -0.1068072962756E+01
 0.3454239313562E-01 -0.1088872225668E+01
 0.3117784111214E-01 -0.1108069408338E+01
 0.2694479930760E-01 -0.1125437157179E+01
 0.2177204268714E-01 -0.1140739084463E+01
 0.1559421150701E-01 -0.1153732692957E+01
 0.8353339070749E-02 -0.1164172637099E+01
-0.1772580735526E-06 -0.1171814105557E+01
 0.5005785060564E-01 -0.7820328295421E+00
 0.5254469879478E-01 -0.8088921184452E+00
 0.5484691125719E-01 -0.8356859200868E+00
 0.5691050619651E-01 -0.8623420128152E+00
 0.5867439331411E-01 -0.8887762668736E+00
 0.6006992444434E-01 -0.9148920325839E+00
 0.6102052884886E-01 -0.9405794637017E+00
 0.6144152561769E-01 -0.9657148060616E+00
 0.6124021248716E-01 -0.9901597092493E+00
 0.6031632723089E-01 -0.1013760640101E+01
 0.5856296753852E-01 -0.1036348493101E+01
 0.5586803474860E-01 -0.1057738505486E+01
 0.5211623027876E-01 -0.1077730593049E+01
 0.4719157564211E-01 -0.1096110222223E+01
 0.4098034553386E-01 -0.1112649918057E+01
 0.3337420450444E-01 -0.1127111466944E+01
 0.2427324168223E-01 -0.1139248799721E+01
 0.1358853918943E-01 -0.1148811435120E+01
 0.1243963212996E-02 -0.1155548255090E+01
 0.6658401822602E-01 -0.7780216511073E+00
 0.6987856227268E-01 -0.8041625594160E+00
 0.7293187391344E-01 -0.8301890318684E+00
 0.7567422823819E-01 -0.8560291500257E+00
 0.7802680103867E-01 -0.8815998856190E+00
 0.7990105381883E-01 -0.9068065618302E+00
 0.8119818042487E-01 -0.9315422018756E+00
 0.8180873807889E-01 -0.9556867700923E+00
 0.8161259392484E-01 -0.9791063452772E+00
 0.8047931656364E-01 -0.1001652292174E+01
 0.7826913581438E-01 -0.1023160519548E+01
 0.7483457913419E-01 -0.1043450936501E+01
 0.7002286143177E-01 -0.1062327243754E+01
 0.6367904602996E-01 -0.1079577220588E+01
 0.5564989846773E-01 -0.1094973682083E+01
 0.4578821799694E-01 -0.1108276269490E+01
 0.3395726586062E-01 -0.1119234176688E+01
 0.2003475965747E-01 -0.1127589788049E+01
 0.3915848175356E-02 -0.1133082995043E+01
 0.8297366548715E-01 -0.7729077253592E+00
 0.8705745856449E-01 -0.7981414800090E+00
 0.9084725405413E-01 -0.8231995290883E+00
 0.9425935877725E-01 -0.8480101686299E+00
 0.9719931286430E-01 -0.8724915362877E+00
 0.9956110667018E-01 -0.8965511890081E+00
 0.1012263979379E+00 -0.9200855153175E+00
 0.1020638812780E+00 -0.9429789563292E+00
 0.1019289697097E+00 -0.9651030521451E+00
 0.1006639477061E+00 -0.9863153601161E+00
 0.9809875636276E-01 -0.1006458317570E+01
 0.9405257035115E-01 -0.1025358152694E+01
 0.8833631312796E-01 -0.1042823988599E+01
 0.8075621635273E-01 -0.1058647337796E+01
 0.7111844169427E-01 -0.1072602240734E+01
 0.5923462639372E-01 -0.1084446343914E+01
 0.4492797539470E-01 -0.1093923204566E+01
 0.2803922201371E-01 -0.1100765995955E+01
 0.8431500015385E-02 -0.1104702519132E+01
 0.9919291014978E-01 -0.7667203873692E+00
 0.1040423455638E+00 -0.7908675664403E+00
 0.1085494155098E+00 -0.8147667748268E+00
 0.1126185262138E+00 -0.8383463561623E+00
 0.1161420514208E+00 -0.8615255488206E+00
 0.1189993932637E+00 -0.8842142339097E+00
 0.1210559380799E+00 -0.9063124667344E+00
 0.1221620893178E+00 -0.9277097288406E+00
 0.1221525610170E+00 -0.9482838908181E+00
 0.1208461129004E+00 -0.9678999071033E+00
 0.1180459171357E+00 -0.9864082883103E+00
 0.1135407654476E+00 -0.1003643428540E+01
 0.1071073439632E+00 -0.1019421915889E+01
 0.9851380479928E-01 -0.1033541031623E+01
 0.8752482074698E-01 -0.1045777748194E+01
 0.7390818022791E-01 -0.1055888657616E+01
 0.5744270886929E-01 -0.1063611360778E+01
 0.3792684615498E-01 -0.1068667843395E+01
 0.1518659237640E-01 -0.1070770128830E+01
 0.1152078134467E+00 -0.7594950410745E+00
 0.1207935390092E+00 -0.7823873482095E+00
 0.1259933079487E+00 -0.8049501312552E+00
 0.1307019022676E+00 -0.8271115523771E+00
 0.1348012806330E+00 -0.8487917567879E+00
 0.1381595176248E+00 -0.8699028557792E+00
 0.1406294841922E+00 -0.8903486480445E+00
 0.1420474879960E+00 -0.9100239747087E+00
 0.1422320756410E+00 -0.9288136727970E+00
 0.1409831854493E+00 -0.9465911214956E+00
 0.1380818514561E+00 -0.9632163899647E+00
 0.1332906976109E+00 -0.9785340164521E+00
 0.1263555193883E+00 -0.9923704941678E+00
 0.1170083153215E+00 -0.1004531626421E+01
 0.1049721756876E+00 -0.1014800057308E+01
 0.8996841110640E-01 -0.1022933491200E+01
 0.7172611507018E-01 -0.1028664376452E+01
 0.4999385179911E-01 -0.1031702067374E+01
 0.2455220207137E-01 -0.1031738493176E+01
 0.1309848171235E+00 -0.7512735056467E+00
 0.1372714612683E+00 -0.7727559436825E+00
 0.1431335016728E+00 -0.7938201169778E+00
 0.1484584666166E+00 -0.8143937420008E+00
 0.1531208108969E+00 -0.8343975581014E+00
 0.1569807941717E+00 -0.8537456242384E+00
 0.1598828942627E+00 -0.8723453118244E+00
 0.1616540298868E+00 -0.8900968464301E+00
 0.1621018105497E+00 -0.9068923480406E+00
 0.1610129909670E+00 -0.9226143447711E+00
 0.1581523110772E+00 -0.9371337291321E+00
 0.1532619523505E+00 -0.9503071207759E+00
 0.1460619348978E+00 -0.9619736188588E+00
 0.1362519149124E+00 -0.9719509948443E+00
 0.1235150087143E+00 -0.9800315238647E+00
 0.1075244224070E+00 -0.9859779188704E+00
 0.8795373368189E-01 -0.9895202421847E+00
 0.6449143477979E-01 -0.9903552721831E+00
 0.3685934763348E-01 -0.9881504293090E+00
 0.1464909844544E+00 -0.7421049521881E+00
 0.1534369673660E+00 -0.7620389935568E+00
 0.1599245563465E+00 -0.7814613422435E+00
 0.1658363320865E+00 -0.8002990003293E+00
 0.1710421546783E+00 -0.8184728844789E+00
 0.1753980584973E+00 -0.8358985404956E+00
 0.1787444220665E+00 -0.8524864916430E+00
 0.1809037851695E+00 -0.8681420437953E+00
 0.1816785478543E+00 -0.8827645103618E+00
 0.1808486950701E+00 -0.8962458333483E+00
 0.1781696699226E+00 -0.9084685394981E+00
 0.1733705626404E+00 -0.9193029240135E+00
 0.1661528913435E+00 -0.9286033235448E+00
 0.1561904360840E+00 -0.9362033494602E+00
 0.1431308654981E+00 -0.9419100405697E+00
 0.1266002844388E+00 -0.9454971315867E+00
 0.1062122357678E+00 -0.9466981196964E+00
 0.8158312915656E-01 -0.9452006049626E+00
 0.5235602831711E-01 -0.9406449199564E+00
 0.1616951298930E+00 -0.7320471317382E+00
 0.1692534379947E+00 -0.7503151434855E+00
 0.1763239568805E+00 -0.7679761216524E+00
 0.1827863377827E+00 -0.7849560782024E+00
 0.1885085410093E+00 -0.8011755923888E+00
 0.1933457985183E+00 -0.8165510880234E+00
 0.1971385571929E+00 -0.8309956013802E+00
 0.1997099363861E+00 -0.8444188910116E+00
 0.2008629516438E+00 -0.8567269149983E+00
 0.2003775919046E+00 -0.8678206892006E+00
 0.1980077756792E+00 -0.8775944606942E+00
 0.1934782291981E+00 -0.8859330330593E+00
 0.1864814200155E+00 -0.8927079840529E+00
 0.1766748614846E+00 -0.8977724324686E+00
 0.1636794285346E+00 -0.9009539669011E+00
 0.1470798631741E+00 -0.9020454118016E+00
 0.1264295421759E+00 -0.9007934532679E+00
 0.1012624417122E+00 -0.8968859806850E+00
 0.7111716551340E-01 -0.8899402688869E+00
 0.1765700790450E+00 -0.7211679835073E+00
 0.1846910403985E+00 -0.7376793351317E+00
 0.1922980773161E+00 -0.7534890499187E+00
 0.1992693648328E+00 -0.7685217676467E+00
 0.2054731816443E+00 -0.7826971086713E+00
 0.2107668856545E+00 -0.7959316699756E+00
 0.2149946092451E+00 -0.8081402256037E+00
 0.2179844203985E+00 -0.8192361129799E+00
 0.2195452151720E+00 -0.8291309613323E+00
 0.2194633497276E+00 -0.8377338599461E+00
 0.2174989095989E+00 -0.8449499325775E+00
 0.2133814888912E+00 -0.8506781386620E+00
 0.2068053878819E+00 -0.8548079645997E+00
 0.1974242455162E+00 -0.8572144876111E+00
 0.1848453588204E+00 -0.8577510741327E+00
 0.1686244501850E+00 -0.8562387347358E+00
 0.1482626328741E+00 -0.8524509893180E+00
 0.1232094601612E+00 -0.8460935671432E+00
 0.9287657722134E-01 -0.8367793645321E+00
 0.1910962065631E+00 -0.7095467984655E+00
 0.1997332491363E+00 -0.7242454041350E+00
 0.2078311662530E+00 -0.7381501508849E+00
 0.2152672724867E+00 -0.7511836439383E+00
 0.2219116047417E+00 -0.7632637854733E+00
 0.2276256901381E+00 -0.7743066156778E+00
 0.2322598869258E+00 -0.7842278758994E+00
 0.2356503005839E+00 -0.7929435447306E+00
 0.2376155279920E+00 -0.8003697205875E+00
 0.2379531348104E+00 -0.8064220739832E+00
 0.2364356207203E+00 -0.8110149058172E+00
 0.2328055624052E+00 -0.8140596639244E+00
 0.2267695876346E+00 -0.8154625865858E+00
 0.2179908085946E+00 -0.8151209083947E+00
 0.2060793553711E+00 -0.8129167187089E+00
 0.1905807974484E+00 -0.8087070074190E+00
 0.1709628645802E+00 -0.8023076095211E+00
 0.1466026278983E+00 -0.7934676181034E+00
 0.1167822712041E+00 -0.7818321356193E+00
 0.2052580910059E+00 -0.6972643444609E+00
 0.2143700465458E+00 -0.7101271263693E+00
 0.2229155479306E+00 -0.7221070501253E+00
 0.2307708522859E+00 -0.7331236916481E+00
 0.2378084655184E+00 -0.7430924550667E+00
 0.2438952150628E+00 -0.7519283270430E+00
 0.2488890149121E+00 -0.7595476072671E+00
 0.2526355552154E+00 -0.7658683636283E+00
 0.2549650930490E+00 -0.7708102766759E+00
 0.2556891023994E+00 -0.7742942631682E+00
 0.2545963935156E+00 -0.7762419841872E+00
 0.2514482412276E+00 -0.7765751541917E+00
 0.2459719706285E+00 -0.7752144020137E+00
 0.2378522862890E+00 -0.7720772401905E+00
 0.2267193601794E+00 -0.7670743672949E+00
 0.2121322829933E+00 -0.7601029038854E+00
 0.1935559734764E+00 -0.7510338811194E+00
 0.1703295802029E+00 -0.7396888548038E+00
 0.1416281323835E+00 -0.7257954293646E+00
 0.2190275678564E+00 -0.6843799837075E+00
 0.2285660195856E+00 -0.6953940548412E+00
 0.2375073593751E+00 -0.7054429678358E+00
 0.2457266976174E+00 -0.7144423272749E+00
 0.2530999430906E+00 -0.7223048490840E+00
 0.2595003556112E+00 -0.7289449173740E+00
 0.2647944058609E+00 -0.7342801288448E+00
 0.2688382850964E+00 -0.7382312916470E+00
 0.2714749742593E+00 -0.7407220115222E+00
 0.2725314106038E+00 -0.7416783473774E+00
 0.2718152305763E+00 -0.7410286924103E+00
 0.2691105551697E+00 -0.7387038282768E+00
 0.2641722015738E+00 -0.7346370277713E+00
 0.2567174716595E+00 -0.7287640057400E+00
 0.2464142049379E+00 -0.7210223659475E+00
 0.2328629384439E+00 -0.7113498193604E+00
 0.2155693449985E+00 -0.6996795495152E+00
 0.1938999994504E+00 -0.6859285195048E+00
 0.1670078603677E+00 -0.6699666362019E+00
 0.2323758879177E+00 -0.6709561471273E+00
 0.2422829927002E+00 -0.6801190533765E+00
 0.2515581221743E+00 -0.6882453313471E+00
 0.2600758803030E+00 -0.6952458195352E+00
 0.2677172468573E+00 -0.7010312937844E+00
 0.2743632462054E+00 -0.7055174774389E+00
 0.2798896410393E+00 -0.7086255657780E+00
 0.2841634292342E+00 -0.7102813793776E+00
 0.2870404936653E+00 -0.7104144705617E+00
 0.2883635980947E+00 -0.7089577990434E+00
 0.2879601015298E+00 -0.7058479549493E+00
 0.2856389274903E+00 -0.7010258696779E+00
 0.2811862851421E+00 -0.6944379950927E+00
 0.2743594462614E+00 -0.6860380193350E+00
 0.2648774697227E+00 -0.6757892907703E+00
 0.2524068913165E+00 -0.6636682483023E+00
 0.2365387061891E+00 -0.6496692706078E+00
 0.2167483419496E+00 -0.6338112607782E+00
 0.1923183444663E+00 -0.6161440343644E+00
 0.2452787648967E+00 -0.6570662444420E+00
 0.2554889274892E+00 -0.6643932733750E+00
 0.2650266238120E+00 -0.6706262540178E+00
 0.2737684570556E+00 -0.6756704381788E+00
 0.2816031189494E+00 -0.6794371889696E+00
 0.2884208080909E+00 -0.6818473377841E+00
 0.2941067249776E+00 -0.6828298729951E+00
 0.2985381429520E+00 -0.6823195269090E+00
 0.3015830516801E+00 -0.6802556805922E+00
 0.3030990931958E+00 -0.6765823146826E+00
 0.3029323269439E+00 -0.6712488000588E+00
 0.3009155240962E+00 -0.6642114150723E+00
 0.2968657375883E+00 -0.6554356863333E+00
 0.2905808156370E+00 -0.6448998727184E+00
 0.2818343425642E+00 -0.6326002373465E+00
 0.2703682209511E+00 -0.6185593596924E+00
 0.2558812317772E+00 -0.6028399514453E+00
 0.2380110405307E+00 -0.5855695669830E+00
 0.2163005537534E+00 -0.5669898311505E+00
 0.2577175857907E+00 -0.6427940149298E+00
 0.2681581256151E+00 -0.6483246908288E+00
 0.2778788347192E+00 -0.6527178582955E+00
 0.2867638158835E+00 -0.6558742934049E+00
 0.2947136215251E+00 -0.6577105712517E+00
 0.3016282210912E+00 -0.6581594852657E+00
 0.3074013134196E+00 -0.6571630776650E+00
 0.3119193603004E+00 -0.6546698368710E+00
 0.3150612381536E+00 -0.6506340649441E+00
 0.3166980210273E+00 -0.6450167013504E+00
 0.3166926075516E+00 -0.6377871160919E+00
 0.3148991686804E+00 -0.6289258507603E+00
 0.3111624168891E+00 -0.6184285708382E+00
 0.3053167473039E+00 -0.6063117922093E+00
 0.2971854439638E+00 -0.5926213850100E+00
 0.2865804160518E+00 -0.5774456233380E+00
 0.2733041627236E+00 -0.5609362946429E+00
 0.2571568601252E+00 -0.5433449040482E+00
 0.2379648444446E+00 -0.5250919098472E+00
 0.2696786737428E+00 -0.6282347778944E+00
 0.2802691318069E+00 -0.6320351298617E+00
 0.2900834692141E+00 -0.6346653666784E+00
 0.2990286891867E+00 -0.6360227242107E+00
 0.3070189370644E+00 -0.6360438105806E+00
 0.3139612906632E+00 -0.6346800449834E+00
 0.3197566236458E+00 -0.6318910562522E+00
 0.3242998351045E+00 -0.6276430390849E+00
 0.3274803300361E+00 -0.6219096577223E+00
 0.3291823307568E+00 -0.6146740701221E+00
 0.3292852390190E+00 -0.6059318294360E+00
 0.3276641885519E+00 -0.5956948058829E+00
 0.3241910132493E+00 -0.5839965325121E+00
 0.3187360082776E+00 -0.5708996240556E+00
 0.3111711804469E+00 -0.5565062501548E+00
 0.3013765051135E+00 -0.5409732420393E+00
 0.2892519873969E+00 -0.5245341440245E+00
 0.2747444664173E+00 -0.5075331085620E+00
 0.2579001398413E+00 -0.4904748289659E+00
 0.2811567307630E+00 -0.6134985867495E+00
 0.2917891811950E+00 -0.6156675548698E+00
 0.3016045578676E+00 -0.6166101832606E+00
 0.3105381739439E+00 -0.6162712346151E+00
 0.3185053348846E+00 -0.6146160990217E+00
 0.3254180426296E+00 -0.6116173558970E+00
 0.3311839913165E+00 -0.6072531641786E+00
 0.3357074539999E+00 -0.6015089573071E+00
 0.3388896806944E+00 -0.5943798661666E+00
 0.3406296063095E+00 -0.5858736020641E+00
 0.3408249363873E+00 -0.5760139242598E+00
 0.3393738643874E+00 -0.5648449777195E+00
 0.3361777690780E+00 -0.5524368654183E+00
 0.3311454539855E+00 -0.5388929099724E+00
 0.3241998656665E+00 -0.5243591694769E+00
 0.3152888009373E+00 -0.5090367622733E+00
 0.3044026523805E+00 -0.4931975784575E+00
 0.2916023603182E+00 -0.4772011565166E+00
 0.2770748900165E+00 -0.4615114399656E+00
</DataArray>
</PointData>
   <DataArray type="Float64" Name="Load" NumberOfComponents="1"    ComponentName0="Load" format="ascii">
 0.3884410182869E+01
 0.3408072611395E+01
 0.3070984389525E+01
 0.2958870437185E+01
 0.2891315643638E+01
 0.2860279214099E+01
 0.2849306803304E+01
 0.2852891308221E+01
 0.2867404783425E+01
 0.2891059195325E+01
 0.2923015227640E+01
 0.2963173627314E+01
 0.3012068548184E+01
 0.3070951284453E+01
 0.3142240481131E+01
 0.3230713758840E+01
 0.3338489301740E+01
 0.3457279490391E+01
 0.3577314500669E+01
 0.3697178279853E+01
 0.3820063658083E+01
 0.3949990853658E+01
 0.4090396233172E+01
 0.4243871875768E+01
 0.4412141666825E+01
 0.4595731720673E+01
 0.4793079374902E+01
 0.5002759012933E+01
 0.5226696249034E+01
 0.5467690476906E+01
 0.5727015926152E+01
 0.6004875369638E+01
 0.6300019342560E+01
 0.6608434897792E+01
 0.6924401138461E+01
 0.7250752956619E+01
 0.7668375984845E+01
 0.8234467356910E+01
 0.9406088197911E+01
 0.9838322255074E+01
 0.1665073294783E+02
 0.3342047891249E+01
 0.3414589227867E+01
 0.3159300918874E+01
 0.3017083598702E+01
 0.2946233388481E+01
 0.2906761901697E+01
 0.2890057547004E+01
 0.2888650402479E+01
 0.2899033654154E+01
 0.2919124110999E+01
 0.2947925874569E+01
 0.2985176127843E+01
 0.3031236079258E+01
 0.3087134780375E+01
 0.3154592617877E+01
 0.3235189967590E+01
 0.3328337830538E+01
 0.3430407728626E+01
 0.3537219033216E+01
 0.3646992369313E+01
 0.3760640317953E+01
 0.3880362960009E+01
 0.4008412412784E+01
 0.4146540373869E+01
 0.4295725144260E+01
 0.4455994207148E+01
 0.4626654834329E+01
 0.4807049507438E+01
 0.4997025579094E+01
 0.5196491091863E+01
 0.5404531167196E+01
 0.5618741559863E+01
 0.5834796844855E+01
 0.6046779220000E+01
 0.6249974106295E+01
 0.6451488093177E+01
 0.6655283121128E+01
 0.6887838526399E+01
 0.6977552163445E+01
 0.5961592834540E+01
 0.1145105302632E+02
 0.3052739162658E+01
 0.3270316768483E+01
 0.3184362803586E+01
 0.3057472093725E+01
 0.2986255292563E+01
 0.2945026290884E+01
 0.2924720147883E+01
 0.2919855276205E+01
 0.2926877083271E+01
 0.2943797964330E+01
 0.2969543895708E+01
 0.3003740034570E+01
 0.3046568368639E+01
 0.3098706967292E+01
 0.3160930348188E+01
 0.3233180890184E+01
 0.3314300165634E+01
 0.3402778094163E+01
 0.3497102762107E+01
 0.3596048110468E+01
 0.3699436304209E+01
 0.3808144840714E+01
 0.3923393854911E+01
 0.4046160061141E+01
 0.4176836899414E+01
 0.4315210398779E+01
 0.4460784503810E+01
 0.4612822224229E+01
 0.4770005429958E+01
 0.4930380184606E+01
 0.5091143962086E+01
 0.5247982013293E+01
 0.5394757760174E+01
 0.5524248076311E+01
 0.5631269161220E+01
 0.5710744292867E+01
 0.5741046764585E+01
 0.5666263681333E+01
 0.5176578263572E+01
 0.4544597109866E+01
 0.9899222458654E+01
 0.2877537160732E+01
 0.3126188278945E+01
 0.3152909679686E+01
 0.3075764774859E+01
 0.3013010249622E+01
 0.2974204376260E+01
 0.2953111393777E+01
 0.2946219693435E+01
 0.2950751538252E+01
 0.2964944964962E+01
 0.2987791186944E+01
 0.3018850207299E+01
 0.3058129752188E+01
 0.3105905673283E+01
 0.3162207275494E+01
 0.3226247548649E+01
 0.3296905195903E+01
 0.3373692178044E+01
 0.3456375336631E+01
 0.3544285287976E+01
 0.3636827305876E+01
 0.3734012458401E+01
 0.3836232277948E+01
 0.3943802805116E+01
 0.4056660583828E+01
 0.4174373213894E+01
 0.4296330115219E+01
 0.4421469560731E+01
 0.4547703872766E+01
 0.4671897538080E+01
 0.4789909723321E+01
 0.4896191621913E+01
 0.4983635943501E+01
 0.5044440094354E+01
 0.5071176377836E+01
 0.5051209645340E+01
 0.4951002929889E+01
 0.4682572092313E+01
 0.4126132382488E+01
 0.4248725225893E+01
 0.9177813852898E+01
 0.2762509558267E+01
 0.3006514300087E+01
 0.3097114427129E+01
 0.3071820727908E+01
 0.3027359179409E+01
 0.2994524162750E+01
 0.2975104620314E+01
 0.2967650246876E+01
 0.2970552319381E+01
 0.2982498274434E+01
 0.3002643656869E+01
 0.3030543703004E+01
 0.3066051017172E+01
 0.3109089009167E+01
 0.3159206087714E+01
 0.3215350508137E+01
 0.3276586211006E+01
 0.3342921469311E+01
 0.3414714398952E+01
 0.3491687150109E+01
 0.3573136142768E+01
 0.3658553609343E+01
 0.3747714284480E+01
 0.3840405167226E+01
 0.3936194392521E+01
 0.4034421388877E+01
 0.4134245086798E+01
 0.4234247855407E+01
 0.4331823933048E+01
 0.4423133623238E+01
 0.4503249591518E+01
 0.4566005178887E+01
 0.4604047847533E+01
 0.4609494802873E+01
 0.4573720229384E+01
 0.4482178449918E+01
 0.4301408527514E+01
 0.3976747997828E+01
 0.3608117089932E+01
 0.4372528127450E+01
 0.8719311237235E+01
 0.2682567206534E+01
 0.2911146059094E+01
 0.3035068834243E+01
 0.3052116567146E+01
 0.3030190838502E+01
 0.3006626363649E+01
 0.2990844144464E+01
 0.2984172245355E+01
 0.2986271401508E+01
 0.2996453981804E+01
 0.3014129862741E+01
 0.3038904910916E+01
 0.3070518998965E+01
 0.3108638625476E+01
 0.3152546826538E+01
 0.3201152164591E+01
 0.3253710660438E+01
 0.3310460373790E+01
 0.3372003418999E+01
 0.3438298680903E+01
 0.3508656669547E+01
 0.3582284497673E+01
 0.3658530379092E+01
 0.3736780276915E+01
 0.3816305623824E+01
 0.3896225113014E+01
 0.3975452905326E+01
 0.4052272230947E+01
 0.4123761640887E+01
 0.4185741384781E+01
 0.4232976613139E+01
 0.4259234565302E+01
 0.4257518703301E+01
 0.4220574738459E+01
 0.4140530251576E+01
 0.4005567327105E+01
 0.3795436797552E+01
 0.3515314441452E+01
 0.3420275268424E+01
 0.4601339441608E+01
 0.8374434733384E+01
 0.2624578854572E+01
 0.2835571837965E+01
 0.2975023630105E+01
 0.3023203805362E+01
 0.3023517498219E+01
 0.3011290833436E+01
 0.3000704602829E+01
 0.2995933517776E+01
 0.2997984726945E+01
 0.3006870021815E+01
 0.3022326264127E+01
 0.3044060248829E+01
 0.3071754557088E+01
 0.3104920778219E+01
 0.3142728652321E+01
 0.3184150350575E+01
 0.3228603033260E+01
 0.3276416706712E+01
 0.3328262413582E+01
 0.3384224758492E+01
 0.3443668450460E+01
 0.3505663199047E+01
 0.3569285170703E+01
 0.3633634718452E+01
 0.3697753968904E+01
 0.3760571429128E+01
 0.3820795120523E+01
 0.3876502782311E+01
 0.3924636249472E+01
 0.3960966898648E+01
 0.3980349636318E+01
 0.3976952006416E+01
 0.3944659222201E+01
 0.3877662139246E+01
 0.3770651865538E+01
 0.3618387554430E+01
 0.3421611873200E+01
 0.3243756548039E+01
 0.3418357099769E+01
 0.4823172944646E+01
 0.8094164714163E+01
 0.2581076840573E+01
 0.2775300922512E+01
 0.2920202418311E+01
 0.2989883170194E+01
 0.3009767356890E+01
 0.3009527259685E+01
 0.3005193864162E+01
 0.3003195196851E+01
 0.3005842411356E+01
 0.3013860248882E+01
 0.3027352432535E+01
 0.3046170158586E+01
 0.3069995692560E+01
 0.3098275178106E+01
 0.3130165363534E+01
 0.3164745343851E+01
 0.3201558930121E+01
 0.3240957990942E+01
 0.3283597543245E+01
 0.3329617431971E+01
 0.3378443830354E+01
 0.3429099946457E+01
 0.3480508023274E+01
 0.3531582463588E+01
 0.3581202772222E+01
 0.3628155409907E+01
 0.3671007268907E+01
 0.3707737107434E+01
 0.3735310661994E+01
 0.3749687387429E+01
 0.3746131388147E+01
 0.3719588661639E+01
 0.3665281117370E+01
 0.3579574905212E+01
 0.3461126934122E+01
 0.3313729993586E+01
 0.3160799062023E+01
 0.3109948269887E+01
 0.3509938479787E+01
 0.5007451218668E+01
 0.7857958675671E+01
 0.2547539045722E+01
 0.2726708701779E+01
 0.2871468448451E+01
 0.2955242195473E+01
 0.2991189764969E+01
 0.3002485169089E+01
 0.3004916393052E+01
 0.3006301829717E+01
 0.3010059057297E+01
 0.3017586814220E+01
 0.3029365076881E+01
 0.3045421045154E+01
 0.3065487216543E+01
 0.3089014826660E+01
 0.3115210917082E+01
 0.3143276232087E+01
 0.3172853342941E+01
 0.3204282953307E+01
 0.3238167302029E+01
 0.3274661267665E+01
 0.3313249525793E+01
 0.3352964655136E+01
 0.3392662577761E+01
 0.3431155563574E+01
 0.3467225866843E+01
 0.3499576320847E+01
 0.3526708809375E+01
 0.3546609792938E+01
 0.3556410687592E+01
 0.3552450648340E+01
 0.3530651639048E+01
 0.3487031939285E+01
 0.3418511148699E+01
 0.3324178284094E+01
 0.3207539771711E+01
 0.3082293466257E+01
 0.2992025839067E+01
 0.3070930433797E+01
 0.3641239145606E+01
 0.5151828422424E+01
 0.7655117893438E+01
 0.2521087013251E+01
 0.2687038469134E+01
 0.2828646750982E+01
 0.2921107591375E+01
 0.2969610528202E+01
 0.2991313047258E+01
 0.3000534378939E+01
 0.3005655420923E+01
 0.3010900031250E+01
 0.3018252124176E+01
 0.3028551346862E+01
 0.3042018279430E+01
 0.3058475048460E+01
 0.3077429438856E+01
 0.3098176935512E+01
 0.3120041704032E+01
 0.3142745460551E+01
 0.3166605391417E+01
 0.3192160211895E+01
 0.3219560394133E+01
 0.3248345301779E+01
 0.3277592067358E+01
 0.3306154605331E+01
 0.3332812485322E+01
 0.3356312941854E+01
 0.3375337517247E+01
 0.3388401106570E+01
 0.3393597572228E+01
 0.3388345547229E+01
 0.3369515128190E+01
 0.3333871800061E+01
 0.3278719582587E+01
 0.3202927762377E+01
 0.3108640938134E+01
 0.3004565545879E+01
 0.2913854344111E+01
 0.2895537098348E+01
 0.3093845371146E+01
 0.3783523257715E+01
 0.5262219902635E+01
 0.7478997829433E+01
 0.2499812316821E+01
 0.2654230580173E+01
 0.2791156602513E+01
 0.2888472974245E+01
 0.2946401110312E+01
 0.2977056161651E+01
 0.2992722349669E+01
 0.3001692318445E+01
 0.3008667103917E+01
 0.3016090067132E+01
 0.3025122137878E+01
 0.3036180429360E+01
 0.3049203216356E+01
 0.3063789458823E+01
 0.3079344516590E+01
 0.3095312361871E+01
 0.3111481422313E+01
 0.3128144547395E+01
 0.3145780078863E+01
 0.3164528184388E+01
 0.3183981521723E+01
 0.3203285099416E+01
 0.3221338250056E+01
 0.3236944883744E+01
 0.3248874587539E+01
 0.3255849059617E+01
 0.3256470447792E+01
 0.3249028670110E+01
 0.3231329996281E+01
 0.3200890099416E+01
 0.3155448077970E+01
 0.3093732364054E+01
 0.3016703833651E+01
 0.2929684344942E+01
 0.2846463512419E+01
 0.2798283071267E+01
 0.2854047441548E+01
 0.3154968765841E+01
 0.3922613426583E+01
 0.5345861886376E+01
 0.7324975714698E+01
 0.2482406167626E+01
 0.2626749463120E+01
 0.2758305545524E+01
 0.2857813067764E+01
 0.2922538847755E+01
 0.2960606992959E+01
 0.2982127581339E+01
 0.2994861610662E+01
 0.3003684900913E+01
 0.3011357113742E+01
 0.3019305673527E+01
 0.3028134570209E+01
 0.3037912250491E+01
 0.3048349573387E+01
 0.3058972125772E+01
 0.3069338178459E+01
 0.3079295859554E+01
 0.3089119113677E+01
 0.3099236183519E+01
 0.3109779471398E+01
 0.3120396567735E+01
 0.3130316996886E+01
 0.3138520969454E+01
 0.3143883360699E+01
 0.3145247433447E+01
 0.3141432282371E+01
 0.3131194332252E+01
 0.3113095040860E+01
 0.3085407650893E+01
 0.3046375083953E+01
 0.2994791809455E+01
 0.2930882591116E+01
 0.2857740687657E+01
 0.2783800551292E+01
 0.2727453289610E+01
 0.2726119008653E+01
 0.2853128516920E+01
 0.3237981259030E+01
 0.4052230347451E+01
 0.5409164416354E+01
 0.7189607609209E+01
 0.2467945324891E+01
 0.2603445131325E+01
 0.2729419492996E+01
 0.2829293698236E+01
 0.2898691628119E+01
 0.2942694454022E+01
 0.2969343102645E+01
 0.2985606338664E+01
 0.2996288611921E+01
 0.3004323884201E+01
 0.3011341554620E+01
 0.3018112423208E+01
 0.3024838215701E+01
 0.3031351419064E+01
 0.3037300820414E+01
 0.3042353067567E+01
 0.3046412721756E+01
 0.3049743376720E+01
 0.3052736720300E+01
 0.3055524878746E+01
 0.3057814606340E+01
 0.3058932798231E+01
 0.3057967532741E+01
 0.3053902574023E+01
 0.3045699492602E+01
 0.3032325733298E+01
 0.3012749880363E+01
 0.2985866441975E+01
 0.2950474803956E+01
 0.2905597698429E+01
 0.2851125639407E+01
 0.2788794640124E+01
 0.2723784285062E+01
 0.2667424091875E+01
 0.2641964620988E+01
 0.2688855466515E+01
 0.2881180175527E+01
 0.3332091017310E+01
 0.4170182642314E+01
 0.5457256235222E+01
 0.7070214463639E+01
 0.2455762992613E+01
 0.2583450113264E+01
 0.2703894304285E+01
 0.2802905579437E+01
 0.2875298068841E+01
 0.2923895231128E+01
 0.2954893583576E+01
 0.2974348978405E+01
 0.2986813356714E+01
 0.2995267540493E+01
 0.3001475410148E+01
 0.3006347113069E+01
 0.3010211986708E+01
 0.3013025496020E+01
 0.3014557659276E+01
 0.3014577689586E+01
 0.3013045685330E+01
 0.3010224681967E+01
 0.3006484408606E+01
 0.3001966816209E+01
 0.2996443880868E+01
 0.2989350466000E+01
 0.2979903394547E+01
 0.2967225933998E+01
 0.2950435700637E+01
 0.2928692029634E+01
 0.2901223547544E+01
 0.2867305481052E+01
 0.2826303985753E+01
 0.2778049136285E+01
 0.2723534240382E+01
 0.2665974683019E+01
 0.2612519101812E+01
 0.2577055774113E+01
 0.2584787612302E+01
 0.2679060198149E+01
 0.2929169064043E+01
 0.3430390752068E+01
 0.4276299928253E+01
 0.5494078469971E+01
 0.6964645449416E+01
 0.2445368050163E+01
 0.2566104709119E+01
 0.2681210544531E+01
 0.2778546951784E+01
 0.2852633467754E+01
 0.2904655004623E+01
 0.2939231297277E+01
 0.2961481671128E+01
 0.2975585562003E+01
 0.2984465213545E+01
 0.2989954223891E+01
 0.2993070408001E+01
 0.2994258583300E+01
 0.2993592414698E+01
 0.2990957879387E+01
 0.2986221158913E+01
 0.2979398326294E+01
 0.2970761753218E+01
 0.2960673581662E+01
 0.2949296750718E+01
 0.2936475561318E+01
 0.2921761918880E+01
 0.2904517687995E+01
 0.2884030038701E+01
 0.2859603589593E+01
 0.2830625270287E+01
 0.2796621534192E+01
 0.2757282939597E+01
 0.2712566601897E+01
 0.2663116595474E+01
 0.2611008590686E+01
 0.2560868197863E+01
 0.2521639227562E+01
 0.2509345397529E+01
 0.2551157257797E+01
 0.2690397980520E+01
 0.2990244432854E+01
 0.3528590764719E+01
 0.4371343235797E+01
 0.5522617402530E+01
 0.6871127420291E+01
 0.2436392859609E+01
 0.2550903170462E+01
 0.2660931776623E+01
 0.2756073309959E+01
 0.2830860320272E+01
 0.2885312163743E+01
 0.2922738735430E+01
 0.2947360790091E+01
 0.2962916501862E+01
 0.2972188580555E+01
 0.2977022364694E+01
 0.2978510363376E+01
 0.2977196501209E+01
 0.2973263626181E+01
 0.2966706239670E+01
 0.2957482061959E+01
 0.2945664168816E+01
 0.2931543588369E+01
 0.2915488299528E+01
 0.2897693442666E+01
 0.2878083112571E+01
 0.2856334101684E+01
 0.2831966006663E+01
 0.2804448939427E+01
 0.2773299019521E+01
 0.2738158715334E+01
 0.2698880425601E+01
 0.2655592822407E+01
 0.2608854102423E+01
 0.2560112131914E+01
 0.2512483319242E+01
 0.2471905245497E+01
 0.2448899248282E+01
 0.2461144210680E+01
 0.2536796662118E+01
 0.2717586972636E+01
 0.3059319459299E+01
 0.3624111753180E+01
 0.4456439901967E+01
 0.5545140237730E+01
 0.6788162439255E+01
 0.2428558555229E+01
 0.2537454874662E+01
 0.2642696232374E+01
 0.2735326463477E+01
 0.2810065396280E+01
 0.2866120169558E+01
 0.2905734973535E+01
 0.2932304968249E+01
 0.2949097917134E+01
 0.2958699622266E+01
 0.2962918318334E+01
 0.2962889325854E+01
 0.2959237035290E+01
 0.2952241778067E+01
 0.2941997807739E+01
 0.2928549043982E+01
 0.2912026679487E+01
 0.2892748759403E+01
 0.2871101184810E+01
 0.2847321909638E+01
 0.2821422114036E+01
 0.2793210163045E+01
 0.2762373082342E+01
 0.2728578284495E+01
 0.2691571888613E+01
 0.2651272501037E+01
 0.2607877702790E+01
 0.2561966709414E+01
 0.2514697277653E+01
 0.2468297644665E+01
 0.2426867145020E+01
 0.2397534613680E+01
 0.2392149049459E+01
 0.2429536944549E+01
 0.2537931977888E+01
 0.2756309483868E+01
 0.3132681014847E+01
 0.3715462319734E+01
 0.4532788465963E+01
 0.5563397136999E+01
 0.6714454087752E+01
 0.2421651357880E+01
 0.2525456137297E+01
 0.2626206525261E+01
 0.2716150840821E+01
 0.2790286172709E+01
 0.2847266911180E+01
 0.2888483695957E+01
 0.2916595607079E+01
 0.2934399453082E+01
 0.2944247510357E+01
 0.2947872095673E+01
 0.2946422273438E+01
 0.2940583618067E+01
 0.2930720816418E+01
 0.2917018382794E+01
 0.2899601131561E+01
 0.2878659251123E+01
 0.2854545006164E+01
 0.2827672777167E+01
 0.2798332937780E+01
 0.2766630456854E+01
 0.2732510766382E+01
 0.2695835417908E+01
 0.2656479359802E+01
 0.2614431746609E+01
 0.2569901206013E+01
 0.2523441851815E+01
 0.2476087101959E+01
 0.2429583424847E+01
 0.2386905938439E+01
 0.2353066887347E+01
 0.2336248618190E+01
 0.2349356839621E+01
 0.2411860062505E+01
 0.2551285746181E+01
 0.2803094894232E+01
 0.3207661922641E+01
 0.3801826506448E+01
 0.4601489559221E+01
 0.5578783805782E+01
 0.6648844882741E+01
 0.2415506034146E+01
 0.2514669568122E+01
 0.2611219509776E+01
 0.2698402040418E+01
 0.2771529259788E+01
 0.2828890618830E+01
 0.2871201536840E+01
 0.2900478986722E+01
 0.2919067566472E+01
 0.2929066512741E+01
 0.2932103271645E+01
 0.2929315473908E+01
 0.2921431204105E+01
 0.2908885930592E+01
 0.2891944689995E+01
 0.2870807900369E+01
 0.2845725203367E+01
 0.2817089050344E+01
 0.2785351265911E+01
 0.2750863005328E+01
 0.2713828847532E+01
 0.2674335532205E+01
 0.2632423900915E+01
 0.2588183024437E+01
 0.2541853243514E+01
 0.2493941124841E+01
 0.2445361872141E+01
 0.2397599558871E+01
 0.2352971272805E+01
 0.2315158024349E+01
 0.2290005843370E+01
 0.2286600560117E+01
 0.2318623949326E+01
 0.2405709788440E+01
 0.2574053207185E+01
 0.2855192207338E+01
 0.3282376937562E+01
 0.3882823914774E+01
 0.4663408201145E+01
 0.5592470209863E+01
 0.6590231798806E+01
 0.2409994101167E+01
 0.2504908800719E+01
 0.2597537142477E+01
 0.2681950751480E+01
 0.2753782993466E+01
 0.2811092505404E+01
 0.2854065960734E+01
 0.2884169279044E+01
 0.2903325538567E+01
 0.2913374766306E+01
 0.2915819593012E+01
 0.2911765443859E+01
 0.2901965728159E+01
 0.2886913415500E+01
 0.2866944441392E+01
 0.2842329561023E+01
 0.2813377816599E+01
 0.2780526578859E+01
 0.2744272501631E+01
 0.2705034515722E+01
 0.2663121553492E+01
 0.2618764593886E+01
 0.2572186401111E+01
 0.2523693527385E+01
 0.2473781354752E+01
 0.2423257140903E+01
 0.2373396047497E+01
 0.2326123509409E+01
 0.2284303677670E+01
 0.2252276989075E+01
 0.2236637479317E+01
 0.2247216711866E+01
 0.2298193740190E+01
 0.2408942062846E+01
 0.2603864885927E+01
 0.2910449328883E+01
 0.3355506631078E+01
 0.3958392457778E+01
 0.4719135662197E+01
 0.5605327626391E+01
 0.6537366346343E+01
 0.2405015254786E+01
 0.2496027078255E+01
 0.2584998602832E+01
 0.2666683975132E+01
 0.2737025867656E+01
 0.2793946564537E+01
 0.2837222295431E+01
 0.2867851955534E+01
 0.2887374262425E+01
 0.2897373751930E+01
 0.2899216081471E+01
 0.2893958186894E+01
 0.2882363658109E+01
 0.2864970506412E+01
 0.2842176329823E+01
 0.2814317011441E+01
 0.2781760408575E+01
 0.2744992360211E+01
 0.2704560215536E+01
 0.2660956262065E+01
 0.2614597333932E+01
 0.2565860240883E+01
 0.2515150341522E+01
 0.2462992185119E+01
 0.2410136334378E+01
 0.2357689121752E+01
 0.2307279896978E+01
 0.2261261708573E+01
 0.2223018205807E+01
 0.2197498866937E+01
 0.2191955399011E+01
 0.2216804298530E+01
 0.2286456132587E+01
 0.2419665222239E+01
 0.2638742287879E+01
 0.2967197535229E+01
 0.3426161040374E+01
 0.4028588621637E+01
 0.4769534010029E+01
 0.5616221859762E+01
 0.6496040619484E+01
 0.2400491032043E+01
 0.2487908630936E+01
 0.2573473660463E+01
 0.2652504728215E+01
 0.2721232047162E+01
 0.2777507021708E+01
 0.2820789775163E+01
 0.2851687247077E+01
 0.2871393527297E+01
 0.2881248310220E+01
 0.2882474553175E+01
 0.2876068684728E+01
 0.2862791655179E+01
 0.2843215224992E+01
 0.2817790001160E+01
 0.2786911887198E+01
 0.2751006457928E+01
 0.2710610466256E+01
 0.2666326393494E+01
 0.2618724061869E+01
 0.2568330506525E+01
 0.2515668619442E+01
 0.2461325224568E+01
 0.2406040896993E+01
 0.2350818357790E+01
 0.2297057786952E+01
 0.2246733269062E+01
 0.2202608363120E+01
 0.2168555791069E+01
 0.2150080994010E+01
 0.2155000442097E+01
 0.2194156551485E+01
 0.2281948441513E+01
 0.2436227119471E+01
 0.2677048908812E+01
 0.3024156950717E+01
 0.3493748434878E+01
 0.4093609999216E+01
 0.4815214519879E+01
 0.5625582998002E+01
 0.6463752307709E+01
 0.2396360051573E+01
 0.2480462094141E+01
 0.2562857164432E+01
 0.2639330946430E+01
 0.2706374859531E+01
 0.2761813911996E+01
 0.2804866596222E+01
 0.2835813441995E+01
 0.2855543583342E+01
 0.2865167052145E+01
 0.2865763476151E+01
 0.2858260611355E+01
 0.2843406346153E+01
 0.2821796262364E+01
 0.2793926035463E+01
 0.2760246630283E+01
 0.2721239775789E+01
 0.2677494578503E+01
 0.2629671765360E+01
 0.2578421515118E+01
 0.2524382108634E+01
 0.2468221461918E+01
 0.2410705093121E+01
 0.2352785478011E+01
 0.2295711828127E+01
 0.2241170024149E+01
 0.2191466580924E+01
 0.2149756006730E+01
 0.2120367699234E+01
 0.2109308313025E+01
 0.2124865614316E+01
 0.2178155497752E+01
 0.2283353117965E+01
 0.2457197712983E+01
 0.2717442349692E+01
 0.3080353183761E+01
 0.3557895373554E+01
 0.4153720577701E+01
 0.4856660488083E+01
 0.5634675282958E+01
 0.6435118092178E+01
 0.2392574387634E+01
 0.2473615433357E+01
 0.2553064496444E+01
 0.2627094014942E+01
 0.2692428905521E+01
 0.2746897197016E+01
 0.2789534063053E+01
 0.2820349902896E+01
 0.2839966826233E+01
 0.2849283040297E+01
 0.2849238091627E+01
 0.2840686238011E+01
 0.2824354205370E+01
 0.2800852914366E+01
 0.2770715956065E+01
 0.2734444588094E+01
 0.2692574723872E+01
 0.2645748361701E+01
 0.2594686378666E+01
 0.2540120847814E+01
 0.2482801117458E+01
 0.2423537816852E+01
 0.2363270905539E+01
 0.2303158790715E+01
 0.2244689330050E+01
 0.2189823648443E+01
 0.2141186234001E+01
 0.2102301234701E+01
 0.2077921047008E+01
 0.2074498051177E+01
 0.2100699368686E+01
 0.2167772926944E+01
 0.2289492777788E+01
 0.2481349014143E+01
 0.2758828739478E+01
 0.3135050153386E+01
 0.3618385042025E+01
 0.4209184163628E+01
 0.4894459896726E+01
 0.5643653336816E+01
 0.6410209436321E+01
 0.2389096771538E+01
 0.2467311993047E+01
 0.2544027831304E+01
 0.2615737176736E+01
 0.2679371238331E+01
 0.2732779762156E+01
 0.2774859936544E+01
 0.2805399747514E+01
 0.2824789489146E+01
 0.2833734639736E+01
 0.2833040732677E+01
 0.2823486496022E+01
 0.2805771538832E+01
 0.2780515075853E+01
 0.2748282277067E+01
 0.2709620148314E+01
 0.2665116475227E+01
 0.2615465889760E+01
 0.2561450231553E+01
 0.2503883810049E+01
 0.2443625698435E+01
 0.2381625754101E+01
 0.2318992804822E+01
 0.2257083661377E+01
 0.2197615223527E+01
 0.2142811615814E+01
 0.2095599257512E+01
 0.2059849426108E+01
 0.2040703116498E+01
 0.2045003122213E+01
 0.2081707608911E+01
 0.2162069805810E+01
 0.2299323068691E+01
 0.2507633729816E+01
 0.2800321417826E+01
 0.3187696892670E+01
 0.3675102753343E+01
 0.4260277184413E+01
 0.4929061409049E+01
 0.5652508475742E+01
 0.6388711362503E+01
 0.2385898406007E+01
 0.2461507392471E+01
 0.2535693064048E+01
 0.2605213960285E+01
 0.2667181925614E+01
 0.2719479567373E+01
 0.2760901105038E+01
 0.2791052180970E+01
 0.2810123268043E+01
 0.2818646459909E+01
 0.2817301282869E+01
 0.2806791165897E+01
 0.2787784559422E+01
 0.2760903295255E+01
 0.2726738593934E+01
 0.2685878911440E+01
 0.2638961313041E+01
 0.2586732111666E+01
 0.2530033945282E+01
 0.2469762604243E+01
 0.2406884457265E+01
 0.2342484023952E+01
 0.2277832266455E+01
 0.2214475572142E+01
 0.2154348880768E+01
 0.2099925716323E+01
 0.2054417248106E+01
 0.2022018590051E+01
 0.2008224687002E+01
 0.2020214533984E+01
 0.2067154669089E+01
 0.2160194369649E+01
 0.2311923942322E+01
 0.2535163805006E+01
 0.2841204961650E+01
 0.3237883503996E+01
 0.3728004451970E+01
 0.4307257945186E+01
 0.4960778923227E+01
 0.5661177043761E+01
 0.6370276799321E+01
 0.2382957239865E+01
 0.2456167066199E+01
 0.2528017283565E+01
 0.2595486702014E+01
 0.2655844211471E+01
 0.2707011165422E+01
 0.2747705693540E+01
 0.2777384492387E+01
 0.2796066835113E+01
 0.2804130328702E+01
 0.2802137726957E+01
 0.2790719163053E+01
 0.2770509539842E+01
 0.2742128885994E+01
 0.2706189717180E+01
 0.2663317899334E+01
 0.2614196961556E+01
 0.2559623345999E+01
 0.2500499459525E+01
 0.2437800823080E+01
 0.2372597674534E+01
 0.2306103651985E+01
 0.2239744112153E+01
 0.2175245124728E+01
 0.2114747575822E+01
 0.2060959781201E+01
 0.2017359680551E+01
 0.1988442468447E+01
 0.1980022575402E+01
 0.1999563014642E+01
 0.2056363448662E+01
 0.2161379115420E+01
 0.2326489892354E+01
 0.2563189910054E+01
 0.2880904062460E+01
 0.3285307478024E+01
 0.3777091288736E+01
 0.4350351362125E+01
 0.4989834461363E+01
 0.5669591559931E+01
 0.6354572287939E+01
 0.2380256593029E+01
 0.2451264300251E+01
 0.2520966692778E+01
 0.2586525199543E+01
 0.2645344427493E+01
 0.2695386752377E+01
 0.2735314714880E+01
 0.2764463742953E+01
 0.2782707216323E+01
 0.2790286256277E+01
 0.2787656754750E+01
 0.2775378893575E+01
 0.2754053028883E+01
 0.2724294088490E+01
 0.2686731845971E+01
 0.2642025795975E+01
 0.2590902942526E+01
 0.2534207793756E+01
 0.2472900736338E+01
 0.2408034380319E+01
 0.2340778505735E+01
 0.2272469455087E+01
 0.2204678380542E+01
 0.2139300276045E+01
 0.2078669042518E+01
 0.2025712444341E+01
 0.1984156667036E+01
 0.1958773018363E+01
 0.1955661544480E+01
 0.1982520016802E+01
 0.2048714842838E+01
 0.2164936926246E+01
 0.2342319721724E+01
 0.2591082396758E+01
 0.2918957371732E+01
 0.3329747480372E+01
 0.3822391014824E+01
 0.4389748494446E+01
 0.5016392626079E+01
 0.5677691547233E+01
 0.6341285637560E+01
 0.2377784051408E+01
 0.2446778653057E+01
 0.2514514893584E+01
 0.2578305508551E+01
 0.2635671754314E+01
 0.2684616875953E+01
 0.2723763352430E+01
 0.2752348179059E+01
 0.2770121023642E+01
 0.2777203359538E+01
 0.2773954387506E+01
 0.2760868656660E+01
 0.2738512116508E+01
 0.2707492274568E+01
 0.2668452776255E+01
 0.2622083215024E+01
 0.2569150950171E+01
 0.2510546059985E+01
 0.2447284460701E+01
 0.2380492420524E+01
 0.2311434132751E+01
 0.2241561467301E+01
 0.2172582049265E+01
 0.2106548350078E+01
 0.2045973720810E+01
 0.1993989502024E+01
 0.1954551240801E+01
 0.1932682383330E+01
 0.1934735707794E+01
 0.1968598220138E+01
 0.2043646589850E+01
 0.2170256573652E+01
 0.2358806290272E+01
 0.2618314102005E+01
 0.2954995810300E+01
 0.3371043030666E+01
 0.3863946002413E+01
 0.4425611368072E+01
 0.5040581099675E+01
 0.5685422507221E+01
 0.6330127156400E+01
 0.2375530572288E+01
 0.2442694678133E+01
 0.2508641470238E+01
 0.2570808883003E+01
 0.2626817902023E+01
 0.2674710896366E+01
 0.2713081949625E+01
 0.2741088405845E+01
 0.2758375542266E+01
 0.2764960728355E+01
 0.2761116603290E+01
 0.2747277073809E+01
 0.2723974733768E+01
 0.2691808185049E+01
 0.2651432136654E+01
 0.2603562987791E+01
 0.2549005237367E+01
 0.2488691675462E+01
 0.2423690727178E+01
 0.2355198196147E+01
 0.2284566855655E+01
 0.2213356267216E+01
 0.2143400606171E+01
 0.2076897833711E+01
 0.2016526714541E+01
 0.1965605915466E+01
 0.1928301234881E+01
 0.1909864447779E+01
 0.1916869533340E+01
 0.1957351626870E+01
 0.2040651652820E+01
 0.2176797836171E+01
 0.2375426604439E+01
 0.2644445147448E+01
 0.2988724744701E+01
 0.3409079036545E+01
 0.3901805908927E+01
 0.4458078159800E+01
 0.5062501885738E+01
 0.5692733320216E+01
 0.6320829790824E+01
 0.2373489755794E+01
 0.2439000885630E+01
 0.2503330817677E+01
 0.2564020851460E+01
 0.2618776754900E+01
 0.2665677270619E+01
 0.2703296768252E+01
 0.2730728355273E+01
 0.2747529679118E+01
 0.2753628222300E+01
 0.2749219943706E+01
 0.2734683528025E+01
 0.2710519974487E+01
 0.2677318190960E+01
 0.2635741644505E+01
 0.2586530464595E+01
 0.2530523005723E+01
 0.2468691610230E+01
 0.2402153703564E+01
 0.2332169902385E+01
 0.2260175116101E+01
 0.2187828201217E+01
 0.2117079469955E+01
 0.2050259966697E+01
 0.1990199485244E+01
 0.1940387499670E+01
 0.1905180819965E+01
 0.1890036053669E+01
 0.1901718527056E+01
 0.1948375329280E+01
 0.2039276253178E+01
 0.2184086454635E+01
 0.2391732510519E+01
 0.2669109722598E+01
 0.3019909479723E+01
 0.3443774152914E+01
 0.3936023142933E+01
 0.4487267302797E+01
 0.5082237601676E+01
 0.5699574563936E+01
 0.6313149203959E+01
 0.2371657248949E+01
 0.2435688894923E+01
 0.2498571171790E+01
 0.2557930418932E+01
 0.2611544010190E+01
 0.2657523712952E+01
 0.2694430565799E+01
 0.2721306080083E+01
 0.2737634782350E+01
 0.2743267192193E+01
 0.2738332089149E+01
 0.2723158599243E+01
 0.2698218426885E+01
 0.2664090568811E+01
 0.2621445374097E+01
 0.2571043822243E+01
 0.2513754792324E+01
 0.2450586771441E+01
 0.2382702263582E+01
 0.2311421461913E+01
 0.2238254445674E+01
 0.2164950499197E+01
 0.2093565262841E+01
 0.2026550137736E+01
 0.1966871306978E+01
 0.1918172339436E+01
 0.1884981757583E+01
 0.1872937944558E+01
 0.1888969661410E+01
 0.1941305019891E+01
 0.2039117670843E+01
 0.2191709115752E+01
 0.2407342159458E+01
 0.2692004749258E+01
 0.3048363542624E+01
 0.3475072029738E+01
 0.3966649943993E+01
 0.4513280467121E+01
 0.5099855321034E+01
 0.5705897992729E+01
 0.6306863757092E+01
 0.2370030256843E+01
 0.2432752741505E+01
 0.2494353807089E+01
 0.2552529382549E+01
 0.2605116829924E+01
 0.2650257270460E+01
 0.2686503032144E+01
 0.2712854401408E+01
 0.2728735343086E+01
 0.2733931124563E+01
 0.2728512393561E+01
 0.2712764484810E+01
 0.2687132504566E+01
 0.2652185780829E+01
 0.2608600029180E+01
 0.2557154370350E+01
 0.2498744846107E+01
 0.2434412478538E+01
 0.2365360581697E+01
 0.2292963253032E+01
 0.2218798334270E+01
 0.2144696281193E+01
 0.2072806939592E+01
 0.2005689099686E+01
 0.1946430506698E+01
 0.1898811969852E+01
 0.1867514416896E+01
 0.1858335490506E+01
 0.1878341602948E+01
 0.1935816310169E+01
 0.2039821921270E+01
 0.2199308620768E+01
 0.2421932336214E+01
 0.2712880274271E+01
 0.3073939273456E+01
 0.3502934698726E+01
 0.3993736413407E+01
 0.4536204709589E+01
 0.5115409237024E+01
 0.5711656813161E+01
 0.6301774476467E+01
 0.2368607141388E+01
 0.2430188309922E+01
 0.2490672374112E+01
 0.2547811749476E+01
 0.2599493517492E+01
 0.2643884342499E+01
 0.2679531117635E+01
 0.2705401434095E+01
 0.2720869591010E+01
 0.2725666209674E+01
 0.2719812372531E+01
 0.2703555396081E+01
 0.2677316767654E+01
 0.2641656751658E+01
 0.2597255212055E+01
 0.2544906849445E+01
 0.2485531487234E+01
 0.2420198909387E+01
 0.2350148683997E+01
 0.2276802776002E+01
 0.2201799015071E+01
 0.2127039454891E+01
 0.2054756778362E+01
 0.1987604017287E+01
 0.1928775513306E+01
 0.1882172354469E+01
 0.1852608595825E+01
 0.1846019237378E+01
 0.1869584784811E+01
 0.1931623920226E+01
 0.2041081410586E+01
 0.2206579360507E+01
 0.2435231690412E+01
 0.2731531413708E+01
 0.3096520297075E+01
 0.3527337543515E+01
 0.4017329140627E+01
 0.4556114079167E+01
 0.5128942729371E+01
 0.5716806406424E+01
 0.6297704971118E+01
 0.2367387092615E+01
 0.2427992870798E+01
 0.2487522354408E+01
 0.2543773246258E+01
 0.2594673225868E+01
 0.2638410664828E+01
 0.2673529277715E+01
 0.2698971010096E+01
 0.2714069994922E+01
 0.2718511835273E+01
 0.2712276140752E+01
 0.2695577924053E+01
 0.2668818226137E+01
 0.2632549133749E+01
 0.2587453682031E+01
 0.2534339714168E+01
 0.2474147443217E+01
 0.2407971511572E+01
 0.2337082949956E+01
 0.2262945253327E+01
 0.2187248163801E+01
 0.2111955505062E+01
 0.2039371239608E+01
 0.1972229360624E+01
 0.1913815736696E+01
 0.1868134690038E+01
 0.1840114180271E+01
 0.1835805316252E+01
 0.1862481364558E+01
 0.1928480798515E+01
 0.2042632658300E+01
 0.2213263185568E+01
 0.2447014865613E+01
 0.2747791668447E+01
 0.3116015523646E+01
 0.3548265455311E+01
 0.4037470230864E+01
 0.4573070873442E+01
 0.5140490085277E+01
 0.5721305236036E+01
 0.6294501312307E+01
 0.2366369860908E+01
 0.2426164704960E+01
 0.2484900615405E+01
 0.2540410909940E+01
 0.2590655701181E+01
 0.2633841273634E+01
 0.2668509653777E+01
 0.2693583016881E+01
 0.2708363678455E+01
 0.2712501009083E+01
 0.2705940796404E+01
 0.2688871368537E+01
 0.2661676618647E+01
 0.2624901554562E+01
 0.2579231596640E+01
 0.2525485395391E+01
 0.2464620156114E+01
 0.2397751373698E+01
 0.2326176560581E+01
 0.2251394160686E+01
 0.2175137510916E+01
 0.2099422176773E+01
 0.2026611699615E+01
 0.1959507656893E+01
 0.1901472295905E+01
 0.1856596062434E+01
 0.1829901669174E+01
 0.1827535742405E+01
 0.1856845103290E+01
 0.1926177226201E+01
 0.2044254163758E+01
 0.2219145732721E+01
 0.2457097499349E+01
 0.2761527442065E+01
 0.3132354393645E+01
 0.3565709890947E+01
 0.4054196618313E+01
 0.4587126660949E+01
 0.5150077971107E+01
 0.5725115779781E+01
 0.6292031890315E+01
 0.2365555541177E+01
 0.2424702801466E+01
 0.2482805051144E+01
 0.2537722752585E+01
 0.2587441063347E+01
 0.2630180460384E+01
 0.2664482205433E+01
 0.2689253664759E+01
 0.2703772759985E+01
 0.2707660713312E+01
 0.2700836751123E+01
 0.2683468026611E+01
 0.2655924661067E+01
 0.2618745839513E+01
 0.2572618729672E+01
 0.2518370535670E+01
 0.2456972055669E+01
 0.2389555552156E+01
 0.2317439889191E+01
 0.2242151685882E+01
 0.2165459366026E+01
 0.2089420054660E+01
 0.2016445065082E+01
 0.1949390112022E+01
 0.1891678613022E+01
 0.1847469974276E+01
 0.1821862587826E+01
 0.1821078628278E+01
 0.1852521198308E+01
 0.1924539955536E+01
 0.2045764478949E+01
 0.2224053246531E+01
 0.2465332052623E+01
 0.2772633611073E+01
 0.3145483144028E+01
 0.3579666630720E+01
 0.4067539588652E+01
 0.4598323128620E+01
 0.5157726687872E+01
 0.5728205390679E+01
 0.6290187281475E+01
 0.2364944402074E+01
 0.2423606619369E+01
 0.2481234297828E+01
 0.2535707492109E+01
 0.2585029624211E+01
 0.2627431725277E+01
 0.2661454805818E+01
 0.2685995694255E+01
 0.2700314624393E+01
 0.2704012194444E+01
 0.2696988004929E+01
 0.2679393437107E+01
 0.2651588260315E+01
 0.2614107205542E+01
 0.2567638660895E+01
 0.2513016193155E+01
 0.2451220793934E+01
 0.2383397349424E+01
 0.2310880831652E+01
 0.2235219113846E+01
 0.2158207054368E+01
 0.2081933040767E+01
 0.2008844274894E+01
 0.1941837112416E+01
 0.1884380887038E+01
 0.1840686761025E+01
 0.1815909807406E+01
 0.1816328330686E+01
 0.1849386097721E+01
 0.1923431425364E+01
 0.2047020537338E+01
 0.2227849918810E+01
 0.2471604422707E+01
 0.2781030020087E+01
 0.3155361922907E+01
 0.3590134089590E+01
 0.4077524455486E+01
 0.4606692781253E+01
 0.5163451217774E+01
 0.5730547042684E+01
 0.6288880117657E+01
 0.2364536755007E+01
 0.2422875905467E+01
 0.2480187515632E+01
 0.2534364343680E+01
 0.2583421743032E+01
 0.2625597734751E+01
 0.2659433308662E+01
 0.2683818532299E+01
 0.2698002133043E+01
 0.2701571191256E+01
 0.2694412365942E+01
 0.2676666578733E+01
 0.2648686689603E+01
 0.2611004421023E+01
 0.2564308933092E+01
 0.2509438009799E+01
 0.2447379437596E+01
 0.2379286540650E+01
 0.2306505073541E+01
 0.2230597136167E+01
 0.2153375265444E+01
 0.2076948733363E+01
 0.2003788694485E+01
 0.1936818615580E+01
 0.1879538459261E+01
 0.1836193908865E+01
 0.1811977784833E+01
 0.1813205548807E+01
 0.1847347321506E+01
 0.1922749090006E+01
 0.2047916276816E+01
 0.2230435757195E+01
 0.2475831294424E+01
 0.2786658797982E+01
 0.3161962621615E+01
 0.3597112075511E+01
 0.4084170348741E+01
 0.4612259502227E+01
 0.5167262062916E+01
 0.5732119935438E+01
 0.6288044975145E+01
 0.2364332859049E+01
 0.2422510562290E+01
 0.2479664230356E+01
 0.2533692867136E+01
 0.2582617718786E+01
 0.2624680286837E+01
 0.2658421593498E+01
 0.2682728403866E+01
 0.2696843776969E+01
 0.2700348103555E+01
 0.2693121614947E+01
 0.2675300020044E+01
 0.2647232722306E+01
 0.2609449928639E+01
 0.2562641172928E+01
 0.2507646340493E+01
 0.2445456614923E+01
 0.2377229545892E+01
 0.2304316292227E+01
 0.2228286084101E+01
 0.2150960314091E+01
 0.2074458708944E+01
 0.2001264407408E+01
 0.1934314436764E+01
 0.1877124079495E+01
 0.1833956284584E+01
 0.1810022733681E+01
 0.1811657386148E+01
 0.1846343309140E+01
 0.1922424890601E+01
 0.2048381584764E+01
 0.2231744987002E+01
 0.2477958190566E+01
 0.2789482413859E+01
 0.3165267327143E+01
 0.3600600918547E+01
 0.4087490082989E+01
 0.4615038976816E+01
 0.5169165874874E+01
 0.5732909949446E+01
 0.6287638287832E+01
 0.2364332859006E+01
 0.2422510562248E+01
 0.2479664230316E+01
 0.2533692867100E+01
 0.2582617718755E+01
 0.2624680286812E+01
 0.2658421593480E+01
 0.2682728403855E+01
 0.2696843776967E+01
 0.2700348103562E+01
 0.2693121614964E+01
 0.2675300020073E+01
 0.2647232722348E+01
 0.2609449928697E+01
 0.2562641173003E+01
 0.2507646340588E+01
 0.2445456615040E+01
 0.2377229546032E+01
 0.2304316292392E+01
 0.2228286084291E+01
 0.2150960314305E+01
 0.2074458709181E+01
 0.2001264407663E+01
 0.1934314437033E+01
 0.1877124079768E+01
 0.1833956284848E+01
 0.1810022733921E+01
 0.1811657386344E+01
 0.1846343309268E+01
 0.1922424890635E+01
 0.2048381584682E+01
 0.2231744986786E+01
 0.2477958190214E+01
 0.2789482413382E+01
 0.3165267326572E+01
 0.3600600917930E+01
 0.4087490082386E+01
 0.4615038976295E+01
 0.5169165874500E+01
 0.5732909949271E+01
 0.6287638287878E+01
 0.2364536754877E+01
 0.2422875905340E+01
 0.2480187515511E+01
 0.2534364343571E+01
 0.2583421742938E+01
 0.2625597734676E+01
 0.2659433308608E+01
 0.2683818532267E+01
 0.2698002133036E+01
 0.2701571191277E+01
 0.2694412365993E+01
 0.2676666578819E+01
 0.2648686689729E+01
 0.2611004421195E+01
 0.2564308933316E+01
 0.2509438010083E+01
 0.2447379437944E+01
 0.2379286541070E+01
 0.2306505074035E+01
 0.2230597136736E+01
 0.2153375266088E+01
 0.2076948734075E+01
 0.2003788695254E+01
 0.1936818616387E+01
 0.1879538460080E+01
 0.1836193909660E+01
 0.1811977785557E+01
 0.1813205549397E+01
 0.1847347321893E+01
 0.1922749090114E+01
 0.2047916276574E+01
 0.2230435756553E+01
 0.2475831293372E+01
 0.2786658796555E+01
 0.3161962619904E+01
 0.3597112073658E+01
 0.4084170346931E+01
 0.4612259500663E+01
 0.5167262061795E+01
 0.5732119934913E+01
 0.6288044975286E+01
 0.2364944401857E+01
 0.2423606619156E+01
 0.2481234297627E+01
 0.2535707491928E+01
 0.2585029624055E+01
 0.2627431725151E+01
 0.2661454805728E+01
 0.2685995694202E+01
 0.2700314624381E+01
 0.2704012194477E+01
 0.2696988005013E+01
 0.2679393437249E+01
 0.2651588260524E+01
 0.2614107205828E+01
 0.2567638661268E+01
 0.2513016193626E+01
 0.2451220794514E+01
 0.2383397350122E+01
 0.2310880832473E+01
 0.2235219114794E+01
 0.2158207055441E+01
 0.2081933041954E+01
 0.2008844276177E+01
 0.1941837113765E+01
 0.1884380888409E+01
 0.1840686762357E+01
 0.1815909808620E+01
 0.1816328331682E+01
 0.1849386098380E+01
 0.1923431425560E+01
 0.2047020536952E+01
 0.2227849917759E+01
 0.2471604420969E+01
 0.2781030017721E+01
 0.3155361920062E+01
 0.3590134086504E+01
 0.4077524452465E+01
 0.4606692778641E+01
 0.5163451215904E+01
 0.5730547041814E+01
 0.6288880117905E+01
 0.2365555540872E+01
 0.2424702801168E+01
 0.2482805050863E+01
 0.2537722752331E+01
 0.2587441063128E+01
 0.2630180460209E+01
 0.2664482205305E+01
 0.2689253664684E+01
 0.2703772759967E+01
 0.2707660713357E+01
 0.2700836751239E+01
 0.2683468026807E+01
 0.2655924661357E+01
 0.2618745839910E+01
 0.2572618730191E+01
 0.2518370536327E+01
 0.2456972056478E+01
 0.2389555553131E+01
 0.2317439890340E+01
 0.2242151687210E+01
 0.2165459367529E+01
 0.2089420056325E+01
 0.2016445066883E+01
 0.1949390113918E+01
 0.1891678614952E+01
 0.1847469976156E+01
 0.1821862589546E+01
 0.1821078629698E+01
 0.1852521199262E+01
 0.1924539955846E+01
 0.2045764478446E+01
 0.2224053245095E+01
 0.2465332050220E+01
 0.2772633607782E+01
 0.3145483140056E+01
 0.3579666626399E+01
 0.4067539584413E+01
 0.4598323124952E+01
 0.5157726685249E+01
 0.5728205389470E+01
 0.6290187281852E+01
 0.2366369860516E+01
 0.2426164704576E+01
 0.2484900615043E+01
 0.2540410909613E+01
 0.2590655700899E+01
 0.2633841273407E+01
 0.2668509653611E+01
 0.2693583016782E+01
 0.2708363678429E+01
 0.2712501009137E+01
 0.2705940796549E+01
 0.2688871368785E+01
 0.2661676619014E+01
 0.2624901555067E+01
 0.2579231597302E+01
 0.2525485396231E+01
 0.2464620157150E+01
 0.2397751374947E+01
 0.2326176562056E+01
 0.2251394162391E+01
 0.2175137512850E+01
 0.2099422178918E+01
 0.2026611701939E+01
 0.1959507659344E+01
 0.1901472298405E+01
 0.1856596064877E+01
 0.1829901671419E+01
 0.1827535744273E+01
 0.1856845104569E+01
 0.1926177226659E+01
 0.2044254163176E+01
 0.2219145730939E+01
 0.2457097496314E+01
 0.2761527437873E+01
 0.3132354388559E+01
 0.3565709885392E+01
 0.4054196612849E+01
 0.4587126656215E+01
 0.5150077967725E+01
 0.5725115778241E+01
 0.6292031890850E+01
 0.2367387092136E+01
 0.2427992870329E+01
 0.2487522353965E+01
 0.2543773245857E+01
 0.2594673225522E+01
 0.2638410664549E+01
 0.2673529277510E+01
 0.2698971009972E+01
 0.2714069994886E+01
 0.2718511835334E+01
 0.2712276140922E+01
 0.2695577924348E+01
 0.2668818226577E+01
 0.2632549134358E+01
 0.2587453682832E+01
 0.2534339715186E+01
 0.2474147444476E+01
 0.2407971513092E+01
 0.2337082951753E+01
 0.2262945255411E+01
 0.2187248166167E+01
 0.2111955507692E+01
 0.2039371242463E+01
 0.1972229363640E+01
 0.1913815739782E+01
 0.1868134693064E+01
 0.1840114183067E+01
 0.1835805318602E+01
 0.1862481366201E+01
 0.1928480799167E+01
 0.2042632657688E+01
 0.2213263183487E+01
 0.2447014861988E+01
 0.2747791663385E+01
 0.3116015517460E+01
 0.3548265448521E+01
 0.4037470224163E+01
 0.4573070867627E+01
 0.5140490081130E+01
 0.5721305234177E+01
 0.6294501313039E+01
 0.2368607140821E+01
 0.2430188309367E+01
 0.2490672373588E+01
 0.2547811749001E+01
 0.2599493517083E+01
 0.2643884342168E+01
 0.2679531117390E+01
 0.2705401433944E+01
 0.2720869590962E+01
 0.2725666209738E+01
 0.2719812372723E+01
 0.2703555396420E+01
 0.2677316768164E+01
 0.2641656752365E+01
 0.2597255212989E+01
 0.2544906850636E+01
 0.2485531488711E+01
 0.2420198911175E+01
 0.2350148686116E+01
 0.2276802778462E+01
 0.2201799017870E+01
 0.2127039458008E+01
 0.2054756781753E+01
 0.1987604020880E+01
 0.1928775516994E+01
 0.1882172358101E+01
 0.1852608599203E+01
 0.1846019240248E+01
 0.1869584786867E+01
 0.1931623921128E+01
 0.2041081410005E+01
 0.2206579358188E+01
 0.2435231686251E+01
 0.2731531407815E+01
 0.3096520289810E+01
 0.3527337535493E+01
 0.4017329132677E+01
 0.4556114072253E+01
 0.5128942724448E+01
 0.5716806404259E+01
 0.6297704972094E+01
 0.2370030256189E+01
 0.2432752740863E+01
 0.2494353806482E+01
 0.2552529382000E+01
 0.2605116829450E+01
 0.2650257270075E+01
 0.2686503031857E+01
 0.2712854401229E+01
 0.2728735343022E+01
 0.2733931124628E+01
 0.2728512393770E+01
 0.2712764485187E+01
 0.2687132505138E+01
 0.2652185781629E+01
 0.2608600030242E+01
 0.2557154371709E+01
 0.2498744847797E+01
 0.2434412480590E+01
 0.2365360584133E+01
 0.2292963255867E+01
 0.2218798337503E+01
 0.2144696284802E+01
 0.2072806943529E+01
 0.2005689103870E+01
 0.1946430511008E+01
 0.1898811974119E+01
 0.1867514420893E+01
 0.1858335493943E+01
 0.1878341605473E+01
 0.1935816311389E+01
 0.2039821920794E+01
 0.2199308618285E+01
 0.2421932331582E+01
 0.2712880267597E+01
 0.3073939265142E+01
 0.3502934689476E+01
 0.3993736404194E+01
 0.4536204701553E+01
 0.5115409231312E+01
 0.5711656810704E+01
 0.6301774477742E+01
 0.2371657248206E+01
 0.2435688894194E+01
 0.2498571171102E+01
 0.2557930418308E+01
 0.2611544009651E+01
 0.2657523712513E+01
 0.2694430565469E+01
 0.2721306079872E+01
 0.2737634782267E+01
 0.2743267192252E+01
 0.2738332089370E+01
 0.2723158599651E+01
 0.2698218427514E+01
 0.2664090569696E+01
 0.2621445375279E+01
 0.2571043823762E+01
 0.2513754794221E+01
 0.2450586773749E+01
 0.2382702266332E+01
 0.2311421465121E+01
 0.2238254449342E+01
 0.2164950503303E+01
 0.2093565267333E+01
 0.2026550142526E+01
 0.1966871311932E+01
 0.1918172344368E+01
 0.1884981762239E+01
 0.1872937948615E+01
 0.1888969664471E+01
 0.1941305021506E+01
 0.2039117670557E+01
 0.2191709113193E+01
 0.2407342154437E+01
 0.2692004741866E+01
 0.3048363533295E+01
 0.3475072019267E+01
 0.3966649933498E+01
 0.4513280457936E+01
 0.5099855314515E+01
 0.5705897989995E+01
 0.6306863758731E+01
 0.2373489754962E+01
 0.2439000884815E+01
 0.2503330816906E+01
 0.2564020850761E+01
 0.2618776754295E+01
 0.2665677270124E+01
 0.2703296767878E+01
 0.2730728355028E+01
 0.2747529679013E+01
 0.2753628222350E+01
 0.2749219943932E+01
 0.2734683528458E+01
 0.2710519975164E+01
 0.2677318191923E+01
 0.2635741645800E+01
 0.2586530466267E+01
 0.2530523007819E+01
 0.2468691612790E+01
 0.2402153706622E+01
 0.2332169905964E+01
 0.2260175120204E+01
 0.2187828205824E+01
 0.2117079475012E+01
 0.2050259972109E+01
 0.1990199490868E+01
 0.1940387505302E+01
 0.1905180825329E+01
 0.1890036058407E+01
 0.1901718530728E+01
 0.1948375331379E+01
 0.2039276253183E+01
 0.2184086452104E+01
 0.2391732505204E+01
 0.2669109714564E+01
 0.3019909469425E+01
 0.3443774141234E+01
 0.3936023131139E+01
 0.4487267292430E+01
 0.5082237594330E+01
 0.5699574560941E+01
 0.6313149206036E+01
 0.2375530571368E+01
 0.2442694677229E+01
 0.2508641469383E+01
 0.2570808882228E+01
 0.2626817901352E+01
 0.2674710895814E+01
 0.2713081949202E+01
 0.2741088405562E+01
 0.2758375542132E+01
 0.2764960728388E+01
 0.2761116603515E+01
 0.2747277074259E+01
 0.2723974734485E+01
 0.2691808186080E+01
 0.2651432138052E+01
 0.2603562989607E+01
 0.2549005239653E+01
 0.2488691678266E+01
 0.2423690730540E+01
 0.2355198200093E+01
 0.2284566860194E+01
 0.2213356272329E+01
 0.2143400611804E+01
 0.2076897839765E+01
 0.2016526720863E+01
 0.1965605921837E+01
 0.1928301241002E+01
 0.1909864453264E+01
 0.1916869537705E+01
 0.1957351629553E+01
 0.2040651653231E+01
 0.2176797833789E+01
 0.2375426598945E+01
 0.2644445138863E+01
 0.2988724733492E+01
 0.3409079023673E+01
 0.3901805895815E+01
 0.4458078148215E+01
 0.5062501877535E+01
 0.5692733316974E+01
 0.6320829793423E+01
 0.2377784050398E+01
 0.2446778652065E+01
 0.2514514892646E+01
 0.2578305507700E+01
 0.2635671753575E+01
 0.2684616875342E+01
 0.2723763351958E+01
 0.2752348178734E+01
 0.2770121023475E+01
 0.2777203359548E+01
 0.2773954387721E+01
 0.2760868657118E+01
 0.2738512117255E+01
 0.2707492275657E+01
 0.2668452777745E+01
 0.2622083216974E+01
 0.2569150952639E+01
 0.2510546063024E+01
 0.2447284464359E+01
 0.2380492424833E+01
 0.2311434137726E+01
 0.2241561472924E+01
 0.2172582055485E+01
 0.2106548356792E+01
 0.2045973727858E+01
 0.1993989509175E+01
 0.1954551247737E+01
 0.1932682389635E+01
 0.1934735712946E+01
 0.1968598223518E+01
 0.2043646590796E+01
 0.2170256571557E+01
 0.2358806284733E+01
 0.2618314092982E+01
 0.2954995798254E+01
 0.3371043016627E+01
 0.3863945987965E+01
 0.4425611355224E+01
 0.5040581090583E+01
 0.5685422503747E+01
 0.6330127159614E+01
 0.2380256591929E+01
 0.2451264299170E+01
 0.2520966691756E+01
 0.2586525198615E+01
 0.2645344426686E+01
 0.2695386751706E+01
 0.2735314714355E+01
 0.2764463742581E+01
 0.2782707216116E+01
 0.2790286256256E+01
 0.2787656754947E+01
 0.2775378894030E+01
 0.2754053029649E+01
 0.2724294089627E+01
 0.2686731847542E+01
 0.2642025798047E+01
 0.2590902945164E+01
 0.2534207797021E+01
 0.2472900740284E+01
 0.2408034384987E+01
 0.2340778511143E+01
 0.2272469461225E+01
 0.2204678387359E+01
 0.2139300283439E+01
 0.2078669050324E+01
 0.2025712452317E+01
 0.1984156674848E+01
 0.1958773025568E+01
 0.1955661550519E+01
 0.1982520021004E+01
 0.2048714844464E+01
 0.2164936924597E+01
 0.2342319716295E+01
 0.2591082387431E+01
 0.2918957358940E+01
 0.3329747465202E+01
 0.3822390999022E+01
 0.4389748480287E+01
 0.5016392616053E+01
 0.5677691543537E+01
 0.6341285641494E+01
 0.2382957238674E+01
 0.2456167065029E+01
 0.2528017282458E+01
 0.2595486701009E+01
 0.2655844210594E+01
 0.2707011164690E+01
 0.2747705692959E+01
 0.2777384491964E+01
 0.2796066834861E+01
 0.2804130328641E+01
 0.2802137727124E+01
 0.2790719163494E+01
 0.2770509540615E+01
 0.2742128887164E+01
 0.2706189718820E+01
 0.2663317901516E+01
 0.2614196964353E+01
 0.2559623349479E+01
 0.2500499463751E+01
 0.2437800828100E+01
 0.2372597680374E+01
 0.2306103658641E+01
 0.2239744119578E+01
 0.2175245132822E+01
 0.2114747584417E+01
 0.2060959790048E+01
 0.2017359689302E+01
 0.1988442476638E+01
 0.1980022582439E+01
 0.1999563019801E+01
 0.2056363451130E+01
 0.2161379114395E+01
 0.2326489887218E+01
 0.2563189900584E+01
 0.2880904049037E+01
 0.3285307461776E+01
 0.3777091271567E+01
 0.4350351346598E+01
 0.4989834450350E+01
 0.5669591556020E+01
 0.6354572292706E+01
 0.2385898404725E+01
 0.2461507391211E+01
 0.2535693062856E+01
 0.2605213959202E+01
 0.2667181924667E+01
 0.2719479566576E+01
 0.2760901104397E+01
 0.2791052180490E+01
 0.2810123267736E+01
 0.2818646459799E+01
 0.2817301282996E+01
 0.2806791166312E+01
 0.2787784560189E+01
 0.2760903296446E+01
 0.2726738595628E+01
 0.2685878913718E+01
 0.2638961315982E+01
 0.2586732115349E+01
 0.2530033949776E+01
 0.2469762609607E+01
 0.2406884463533E+01
 0.2342484031128E+01
 0.2277832274498E+01
 0.2214475580956E+01
 0.2154348890185E+01
 0.2099925726090E+01
 0.2054417257864E+01
 0.2022018599319E+01
 0.2008224695154E+01
 0.2020214540247E+01
 0.2067154672576E+01
 0.2160194369453E+01
 0.2311923937690E+01
 0.2535163795586E+01
 0.2841204947741E+01
 0.3237883486740E+01
 0.3728004433427E+01
 0.4307257928228E+01
 0.4960778911161E+01
 0.5661177039638E+01
 0.6370276805046E+01
 0.2389096770164E+01
 0.2467311991695E+01
 0.2544027830026E+01
 0.2615737175574E+01
 0.2679371237313E+01
 0.2732779761293E+01
 0.2774859935839E+01
 0.2805399746971E+01
 0.2824789488777E+01
 0.2833734639568E+01
 0.2833040732752E+01
 0.2823486496397E+01
 0.2805771539578E+01
 0.2780515077050E+01
 0.2748282278800E+01
 0.2709620150672E+01
 0.2665116478299E+01
 0.2615465893632E+01
 0.2561450236305E+01
 0.2503883815748E+01
 0.2443625705126E+01
 0.2381625761798E+01
 0.2318992813492E+01
 0.2257083670930E+01
 0.2197615233799E+01
 0.2142811626550E+01
 0.2095599268349E+01
 0.2059849436547E+01
 0.2040703125890E+01
 0.2045003129740E+01
 0.2081707613613E+01
 0.2162069806668E+01
 0.2299323064805E+01
 0.2507633720675E+01
 0.2800321403608E+01
 0.3187696874502E+01
 0.3675102733427E+01
 0.4260277165954E+01
 0.4929061395850E+01
 0.5652508471399E+01
 0.6388711369323E+01
 0.2392574386167E+01
 0.2473615431914E+01
 0.2553064495080E+01
 0.2627094013702E+01
 0.2692428904431E+01
 0.2746897196084E+01
 0.2789534062280E+01
 0.2820349902282E+01
 0.2839966825791E+01
 0.2849283040057E+01
 0.2849238091635E+01
 0.2840686238331E+01
 0.2824354206080E+01
 0.2800852915551E+01
 0.2770715957821E+01
 0.2734444590516E+01
 0.2692574727058E+01
 0.2645748365747E+01
 0.2594686383661E+01
 0.2540120853837E+01
 0.2482801124567E+01
 0.2423537825069E+01
 0.2363270914843E+01
 0.2303158801026E+01
 0.2244689341209E+01
 0.2189823660200E+01
 0.2141186245989E+01
 0.2102301246414E+01
 0.2077921057773E+01
 0.2074498060139E+01
 0.2100699374814E+01
 0.2167772929107E+01
 0.2289492774926E+01
 0.2481349005552E+01
 0.2758828725175E+01
 0.3135050134437E+01
 0.3618385020754E+01
 0.4209184143594E+01
 0.4894459882296E+01
 0.5643653332237E+01
 0.6410209444385E+01
 0.2396360050012E+01
 0.2480462092606E+01
 0.2562857162982E+01
 0.2639330945111E+01
 0.2706374858368E+01
 0.2761813910993E+01
 0.2804866595375E+01
 0.2835813441301E+01
 0.2855543582817E+01
 0.2865167051820E+01
 0.2865763476078E+01
 0.2858260611605E+01
 0.2843406346809E+01
 0.2821796263522E+01
 0.2793926037223E+01
 0.2760246632751E+01
 0.2721239779071E+01
 0.2677494582705E+01
 0.2629671770584E+01
 0.2578421521453E+01
 0.2524382116151E+01
 0.2468221470653E+01
 0.2410705103066E+01
 0.2352785489096E+01
 0.2295711840205E+01
 0.2241170036976E+01
 0.2191466594137E+01
 0.2149756019819E+01
 0.2120367711512E+01
 0.2109308323603E+01
 0.2124865622100E+01
 0.2178155501499E+01
 0.2283353116441E+01
 0.2457197705264E+01
 0.2717442335578E+01
 0.3080353164204E+01
 0.3557895350967E+01
 0.4153720556012E+01
 0.4856660472304E+01
 0.5634675278113E+01
 0.6435118101649E+01
 0.2400491030387E+01
 0.2487908629307E+01
 0.2573473658926E+01
 0.2652504726817E+01
 0.2721232045925E+01
 0.2777507020630E+01
 0.2820789774235E+01
 0.2851687246295E+01
 0.2871393526676E+01
 0.2881248309795E+01
 0.2882474553005E+01
 0.2876068684889E+01
 0.2862791655764E+01
 0.2843215226102E+01
 0.2817790002907E+01
 0.2786911889694E+01
 0.2751006461288E+01
 0.2710610470597E+01
 0.2666326398929E+01
 0.2618724068502E+01
 0.2568330514439E+01
 0.2515668628690E+01
 0.2461325235157E+01
 0.2406040908867E+01
 0.2350818370816E+01
 0.2297057800900E+01
 0.2246733283575E+01
 0.2202608377692E+01
 0.2168555805005E+01
 0.2150081006397E+01
 0.2155000451783E+01
 0.2194156557119E+01
 0.2281948441682E+01
 0.2436227112997E+01
 0.2677048895224E+01
 0.3024156930781E+01
 0.3493748411046E+01
 0.4093609975792E+01
 0.4815214502606E+01
 0.5625582992840E+01
 0.6463752318773E+01
 0.2405015253035E+01
 0.2496027076533E+01
 0.2584998601209E+01
 0.2666683973656E+01
 0.2737025866345E+01
 0.2793946563381E+01
 0.2837222294415E+01
 0.2867851954654E+01
 0.2887374261694E+01
 0.2897373751390E+01
 0.2899216081187E+01
 0.2893958186948E+01
 0.2882363658603E+01
 0.2864970507456E+01
 0.2842176331535E+01
 0.2814317013943E+01
 0.2781760411992E+01
 0.2744992364671E+01
 0.2704560221164E+01
 0.2660956268978E+01
 0.2614597342231E+01
 0.2565860250637E+01
 0.2515150352754E+01
 0.2462992197793E+01
 0.2410136348379E+01
 0.2357689136866E+01
 0.2307279912865E+01
 0.2261261724735E+01
 0.2223018221552E+01
 0.2197498881333E+01
 0.2191955410862E+01
 0.2216804306384E+01
 0.2286456134846E+01
 0.2419665217449E+01
 0.2638742275230E+01
 0.2967197515216E+01
 0.3426161015414E+01
 0.4028588596403E+01
 0.4769533991089E+01
 0.5616221854192E+01
 0.6496040632366E+01
 0.2409994099314E+01
 0.2504908798898E+01
 0.2597537140758E+01
 0.2681950749910E+01
 0.2753782992056E+01
 0.2811092504139E+01
 0.2854065959593E+01
 0.2884169278021E+01
 0.2903325537678E+01
 0.2913374765596E+01
 0.2915819592550E+01
 0.2911765443736E+01
 0.2901965728479E+01
 0.2886913416381E+01
 0.2866944442956E+01
 0.2842329563399E+01
 0.2813377819918E+01
 0.2780526583254E+01
 0.2744272507238E+01
 0.2705034522671E+01
 0.2663121561897E+01
 0.2618764603832E+01
 0.2572186412641E+01
 0.2523693540485E+01
 0.2473781369330E+01
 0.2423257156772E+01
 0.2373396064346E+01
 0.2326123526771E+01
 0.2284303694879E+01
 0.2252277005218E+01
 0.2236637493193E+01
 0.2247216721972E+01
 0.2298193744796E+01
 0.2408942060241E+01
 0.2603864874932E+01
 0.2910449309609E+01
 0.3355506605748E+01
 0.3958392431272E+01
 0.4719135641826E+01
 0.5605327620332E+01
 0.6537366360773E+01
 0.2415506032193E+01
 0.2514669566199E+01
 0.2611219507953E+01
 0.2698402038739E+01
 0.2771529258258E+01
 0.2828890617425E+01
 0.2871201535536E+01
 0.2900478985512E+01
 0.2919067565376E+01
 0.2929066511807E+01
 0.2932103270946E+01
 0.2929315473538E+01
 0.2921431204171E+01
 0.2908885931213E+01
 0.2891944691296E+01
 0.2870807902480E+01
 0.2845725206422E+01
 0.2817089054481E+01
 0.2785351271271E+01
 0.2750863012049E+01
 0.2713828855741E+01
 0.2674335542001E+01
 0.2632423912360E+01
 0.2588183037540E+01
 0.2541853258214E+01
 0.2493941140988E+01
 0.2445361889466E+01
 0.2397599576957E+01
 0.2352971291041E+01
 0.2315158041875E+01
 0.2290005859028E+01
 0.2286600572415E+01
 0.2318623956465E+01
 0.2405709788507E+01
 0.2574053198627E+01
 0.2855192189787E+01
 0.3282376912855E+01
 0.3882823887785E+01
 0.4663408179764E+01
 0.5592470203361E+01
 0.6590231814312E+01
 0.2421651355825E+01
 0.2525456135269E+01
 0.2626206523332E+01
 0.2716150839031E+01
 0.2790286171053E+01
 0.2847266909626E+01
 0.2888483694478E+01
 0.2916595605669E+01
 0.2934399451764E+01
 0.2944247509185E+01
 0.2947872094722E+01
 0.2946422272805E+01
 0.2940583617860E+01
 0.2930720816759E+01
 0.2917018383808E+01
 0.2899601133380E+01
 0.2878659253881E+01
 0.2854545010003E+01
 0.2827672782233E+01
 0.2798332944219E+01
 0.2766630464802E+01
 0.2732510775954E+01
 0.2695835429185E+01
 0.2656479372817E+01
 0.2614431761334E+01
 0.2569901222333E+01
 0.2523441869512E+01
 0.2476087120671E+01
 0.2429583444025E+01
 0.2386905957291E+01
 0.2353066904776E+01
 0.2336248632736E+01
 0.2349356849455E+01
 0.2411860065543E+01
 0.2551285740495E+01
 0.2803094878902E+01
 0.3207661898973E+01
 0.3801826479169E+01
 0.4601489536785E+01
 0.5578783798680E+01
 0.6648844899346E+01
 0.2428558553072E+01
 0.2537454872528E+01
 0.2642696230337E+01
 0.2735326461570E+01
 0.2810065394489E+01
 0.2866120167845E+01
 0.2905734971870E+01
 0.2932304966627E+01
 0.2949097915583E+01
 0.2958699620844E+01
 0.2962918317119E+01
 0.2962889324944E+01
 0.2959237034796E+01
 0.2952241778111E+01
 0.2941997808446E+01
 0.2928549045483E+01
 0.2912026681917E+01
 0.2892748762906E+01
 0.2871101189537E+01
 0.2847321915741E+01
 0.2821422121662E+01
 0.2793210172321E+01
 0.2762373093367E+01
 0.2728578297326E+01
 0.2691571903253E+01
 0.2651272517416E+01
 0.2607877720737E+01
 0.2561966728631E+01
 0.2514697297662E+01
 0.2468297664753E+01
 0.2426867164166E+01
 0.2397534630488E+01
 0.2392149062105E+01
 0.2429536950824E+01
 0.2537931975512E+01
 0.2756309471307E+01
 0.3132680992716E+01
 0.3715462292424E+01
 0.4532788442426E+01
 0.5563397129117E+01
 0.6714454105463E+01
 0.2436392857346E+01
 0.2550903168219E+01
 0.2660931774474E+01
 0.2756073307930E+01
 0.2830860318338E+01
 0.2885312161859E+01
 0.2922738733565E+01
 0.2947360788245E+01
 0.2962916500068E+01
 0.2972188578872E+01
 0.2977022363205E+01
 0.2978510362180E+01
 0.2977196500417E+01
 0.2973263625912E+01
 0.2966706240051E+01
 0.2957482063120E+01
 0.2945664170891E+01
 0.2931543591503E+01
 0.2915488303873E+01
 0.2897693448382E+01
 0.2878083119811E+01
 0.2856334110588E+01
 0.2831966017348E+01
 0.2804448951973E+01
 0.2773299033962E+01
 0.2738158731642E+01
 0.2698880443661E+01
 0.2655592841986E+01
 0.2608854123123E+01
 0.2560112153111E+01
 0.2512483340012E+01
 0.2471905264530E+01
 0.2448899263801E+01
 0.2461144220410E+01
 0.2536796663474E+01
 0.2717586963442E+01
 0.3059319439300E+01
 0.3624111726184E+01
 0.4456439877304E+01
 0.5545140228866E+01
 0.6788162458048E+01
 0.2445368047794E+01
 0.2566104706765E+01
 0.2681210542266E+01
 0.2778546949627E+01
 0.2852633465669E+01
 0.2904655002557E+01
 0.2939231295201E+01
 0.2961481669048E+01
 0.2975585559955E+01
 0.2984465211595E+01
 0.2989954222122E+01
 0.2993070406511E+01
 0.2994258582200E+01
 0.2993592414107E+01
 0.2990957879427E+01
 0.2986221159713E+01
 0.2979398327988E+01
 0.2970761755950E+01
 0.2960673585586E+01
 0.2949296755997E+01
 0.2936475568111E+01
 0.2921761927339E+01
 0.2904517698250E+01
 0.2884030050856E+01
 0.2859603603713E+01
 0.2830625286386E+01
 0.2796621552211E+01
 0.2757282959374E+01
 0.2712566623117E+01
 0.2663116617614E+01
 0.2611008612933E+01
 0.2560868219024E+01
 0.2521639245948E+01
 0.2509345410865E+01
 0.2551157263272E+01
 0.2690397975322E+01
 0.2990244415694E+01
 0.3528590738501E+01
 0.4371343210026E+01
 0.5522617392449E+01
 0.6871127440118E+01
 0.2455762990133E+01
 0.2583450110796E+01
 0.2703894301901E+01
 0.2802905577144E+01
 0.2875298066592E+01
 0.2923895228867E+01
 0.2954893581277E+01
 0.2974348976080E+01
 0.2986813354407E+01
 0.2995267538272E+01
 0.3001475408095E+01
 0.3006347111282E+01
 0.3010211985295E+01
 0.3013025495097E+01
 0.3014557658963E+01
 0.3014577690010E+01
 0.3013045686621E+01
 0.3010224684267E+01
 0.3006484412071E+01
 0.3001966821003E+01
 0.2996443887156E+01
 0.2989350473940E+01
 0.2979903404284E+01
 0.2967225945654E+01
 0.2950435714308E+01
 0.2928692045376E+01
 0.2901223565353E+01
 0.2867305500837E+01
 0.2826304007290E+01
 0.2778049159161E+01
 0.2723534263910E+01
 0.2665974706144E+01
 0.2612519122979E+01
 0.2577055791119E+01
 0.2584787622212E+01
 0.2679060197584E+01
 0.2929169050549E+01
 0.3430390727253E+01
 0.4276299901465E+01
 0.5494078458395E+01
 0.6964645470201E+01
 0.2467945322298E+01
 0.2603445128739E+01
 0.2729419490486E+01
 0.2829293695799E+01
 0.2898691625694E+01
 0.2942694451553E+01
 0.2969343100113E+01
 0.2985606336089E+01
 0.2996288609352E+01
 0.3004323881707E+01
 0.3011341552283E+01
 0.3018112421123E+01
 0.3024838213972E+01
 0.3031351417805E+01
 0.3037300819741E+01
 0.3042353067602E+01
 0.3046412722626E+01
 0.3049743378566E+01
 0.3052736723274E+01
 0.3055524883013E+01
 0.3057814612067E+01
 0.3058932805581E+01
 0.3057967541870E+01
 0.3053902585070E+01
 0.3045699505692E+01
 0.3032325748525E+01
 0.3012749897778E+01
 0.2985866461558E+01
 0.2950474825578E+01
 0.2905597721789E+01
 0.2851125663960E+01
 0.2788794664976E+01
 0.2723784308833E+01
 0.2667424112507E+01
 0.2641964635544E+01
 0.2688855471181E+01
 0.2881180166634E+01
 0.3332090994732E+01
 0.4170182614720E+01
 0.5457256221831E+01
 0.7070214485273E+01
 0.2482406164916E+01
 0.2626749460411E+01
 0.2758305542882E+01
 0.2857813065171E+01
 0.2922538845141E+01
 0.2960606990268E+01
 0.2982127578564E+01
 0.2994861607833E+01
 0.3003684898083E+01
 0.3011357110980E+01
 0.3019305670912E+01
 0.3028134567830E+01
 0.3037912248449E+01
 0.3048349571789E+01
 0.3058972124734E+01
 0.3069338178095E+01
 0.3079295859989E+01
 0.3089119115047E+01
 0.3099236185972E+01
 0.3109779475098E+01
 0.3120396572848E+01
 0.3130317003577E+01
 0.3138520977886E+01
 0.3143883371027E+01
 0.3145247445819E+01
 0.3141432296917E+01
 0.3131194349076E+01
 0.3113095060012E+01
 0.3085407672334E+01
 0.3046375107503E+01
 0.2994791834716E+01
 0.2930882617376E+01
 0.2857740713748E+01
 0.2783800575376E+01
 0.2727453308880E+01
 0.2726119019057E+01
 0.2853128513651E+01
 0.3237981239785E+01
 0.4052230319444E+01
 0.5409164400790E+01
 0.7189607631555E+01
 0.2499812313989E+01
 0.2654230577335E+01
 0.2791156599730E+01
 0.2888472971483E+01
 0.2946401107491E+01
 0.2977056158727E+01
 0.2992722346647E+01
 0.3001692315362E+01
 0.3008667100830E+01
 0.3016090064108E+01
 0.3025122134992E+01
 0.3036180426696E+01
 0.3049203214006E+01
 0.3063789456891E+01
 0.3079344515185E+01
 0.3095312361105E+01
 0.3111481422304E+01
 0.3128144548273E+01
 0.3145780080772E+01
 0.3164528187487E+01
 0.3183981526175E+01
 0.3203285105384E+01
 0.3221338257707E+01
 0.3236944893244E+01
 0.3248874599056E+01
 0.3255849073314E+01
 0.3256470463817E+01
 0.3249028688581E+01
 0.3231330017249E+01
 0.3200890122816E+01
 0.3155448103559E+01
 0.3093732391316E+01
 0.3016703861663E+01
 0.2929684372150E+01
 0.2846463536284E+01
 0.2798283087747E+01
 0.2854047444933E+01
 0.3154968751330E+01
 0.3922613398856E+01
 0.5345861868266E+01
 0.7324975737578E+01
 0.2521087010291E+01
 0.2687038466159E+01
 0.2828646748047E+01
 0.2921107588426E+01
 0.2969610525159E+01
 0.2991313044090E+01
 0.3000534375666E+01
 0.3005655417592E+01
 0.3010900027917E+01
 0.3018252120904E+01
 0.3028551343718E+01
 0.3042018276491E+01
 0.3058475045813E+01
 0.3077429436597E+01
 0.3098176933745E+01
 0.3120041702863E+01
 0.3142745460093E+01
 0.3166605391792E+01
 0.3192160213242E+01
 0.3219560396602E+01
 0.3248345305526E+01
 0.3277592072542E+01
 0.3306154612119E+01
 0.3332812493887E+01
 0.3356312952381E+01
 0.3375337529923E+01
 0.3388401121585E+01
 0.3393597589756E+01
 0.3388345567404E+01
 0.3369515151061E+01
 0.3333871825536E+01
 0.3278719610355E+01
 0.3202927791779E+01
 0.3108640967960E+01
 0.3004565573990E+01
 0.2913854366749E+01
 0.2895537109314E+01
 0.3093845363088E+01
 0.3783523231409E+01
 0.5262219881641E+01
 0.7478997852631E+01
 0.2547539042627E+01
 0.2726708698657E+01
 0.2871468445346E+01
 0.2955242192316E+01
 0.2991189761686E+01
 0.3002485165670E+01
 0.3004916389533E+01
 0.3006301826148E+01
 0.3010059053733E+01
 0.3017586810715E+01
 0.3029365073498E+01
 0.3045421041958E+01
 0.3065487213614E+01
 0.3089014824085E+01
 0.3115210914960E+01
 0.3143276230519E+01
 0.3172853342033E+01
 0.3204282953175E+01
 0.3238167302802E+01
 0.3274661269482E+01
 0.3313249528800E+01
 0.3352964659482E+01
 0.3392662583610E+01
 0.3431155571104E+01
 0.3467225876248E+01
 0.3499576332334E+01
 0.3526708823163E+01
 0.3546609809251E+01
 0.3556410706634E+01
 0.3552450670264E+01
 0.3530651663909E+01
 0.3487031966972E+01
 0.3418511178829E+01
 0.3324178315835E+01
 0.3207539803435E+01
 0.3082293494778E+01
 0.2992025858257E+01
 0.3070930434149E+01
 0.3641239122543E+01
 0.5151828398366E+01
 0.7655117916683E+01
 0.2581076837331E+01
 0.2775300919228E+01
 0.2920202415016E+01
 0.2989883166806E+01
 0.3009767353353E+01
 0.3009527256015E+01
 0.3005193860406E+01
 0.3003195193060E+01
 0.3005842407579E+01
 0.3013860245167E+01
 0.3027352428933E+01
 0.3046170155154E+01
 0.3069995689367E+01
 0.3098275175231E+01
 0.3130165361070E+01
 0.3164745341893E+01
 0.3201558928769E+01
 0.3240957990303E+01
 0.3283597543438E+01
 0.3329617433121E+01
 0.3378443832590E+01
 0.3429099949918E+01
 0.3480508028116E+01
 0.3531582469988E+01
 0.3581202780379E+01
 0.3628155420040E+01
 0.3671007281256E+01
 0.3707737122258E+01
 0.3735310679551E+01
 0.3749687407960E+01
 0.3746131411839E+01
 0.3719588688570E+01
 0.3665281147427E+01
 0.3579574937954E+01
 0.3461126968502E+01
 0.3313730027246E+01
 0.3160799089568E+01
 0.3109948280615E+01
 0.3509938462727E+01
 0.5007451191764E+01
 0.7857958698649E+01
 0.2624578851170E+01
 0.2835571834497E+01
 0.2975023626591E+01
 0.3023203801718E+01
 0.3023517494419E+01
 0.3011290829523E+01
 0.3000704598855E+01
 0.2995933513787E+01
 0.2997984722982E+01
 0.3006870017916E+01
 0.3022326260334E+01
 0.3044060245187E+01
 0.3071754553655E+01
 0.3104920775066E+01
 0.3142728649532E+01
 0.3184150348241E+01
 0.3228603031474E+01
 0.3276416705574E+01
 0.3328262413196E+01
 0.3384224758966E+01
 0.3443668451903E+01
 0.3505663201584E+01
 0.3569285174479E+01
 0.3633634723639E+01
 0.3697753975699E+01
 0.3760571437753E+01
 0.3820795131228E+01
 0.3876502795372E+01
 0.3924636265187E+01
 0.3960966917322E+01
 0.3980349658246E+01
 0.3976952031841E+01
 0.3944659251255E+01
 0.3877662171860E+01
 0.3770651901263E+01
 0.3618387591903E+01
 0.3421611908438E+01
 0.3243756570653E+01
 0.3418357092604E+01
 0.4823172916004E+01
 0.8094164736537E+01
 0.2682567202952E+01
 0.2911146055413E+01
 0.3035068830475E+01
 0.3052116563223E+01
 0.3030190834442E+01
 0.3006626359512E+01
 0.2990844140298E+01
 0.2984172241196E+01
 0.2986271397387E+01
 0.2996453977751E+01
 0.3014129858785E+01
 0.3038904907094E+01
 0.3070518995321E+01
 0.3108638622070E+01
 0.3152546823447E+01
 0.3201152161900E+01
 0.3253710658236E+01
 0.3310460372166E+01
 0.3372003418042E+01
 0.3438298680699E+01
 0.3508656670185E+01
 0.3582284499257E+01
 0.3658530381754E+01
 0.3736780280817E+01
 0.3816305629156E+01
 0.3896225119993E+01
 0.3975452914196E+01
 0.4052272241986E+01
 0.4123761654407E+01
 0.4185741401127E+01
 0.4232976632682E+01
 0.4259234588414E+01
 0.4257518730314E+01
 0.4220574769617E+01
 0.4140530286973E+01
 0.4005567366394E+01
 0.3795436838698E+01
 0.3515314476300E+01
 0.3420275275929E+01
 0.4601339414132E+01
 0.8374434754913E+01
 0.2762509554471E+01
 0.3006514296149E+01
 0.3097114423067E+01
 0.3071820723696E+01
 0.3027359175110E+01
 0.2994524158422E+01
 0.2975104615991E+01
 0.2967650242582E+01
 0.2970552315137E+01
 0.2982498270259E+01
 0.3002643652784E+01
 0.3030543699034E+01
 0.3066051013350E+01
 0.3109089005541E+01
 0.3159206084349E+01
 0.3215350505115E+01
 0.3276586208411E+01
 0.3342921467221E+01
 0.3414714397439E+01
 0.3491687149232E+01
 0.3573136142592E+01
 0.3658553609954E+01
 0.3747714285993E+01
 0.3840405169789E+01
 0.3936194396309E+01
 0.4034421394091E+01
 0.4134245093663E+01
 0.4234247864184E+01
 0.4331823944038E+01
 0.4423133636795E+01
 0.4503249608050E+01
 0.4566005198847E+01
 0.4604047871388E+01
 0.4609494831089E+01
 0.4573720262460E+01
 0.4482178488351E+01
 0.4301408571341E+01
 0.3976748043124E+01
 0.3608117116453E+01
 0.4372528107340E+01
 0.8719311258128E+01
 0.2877537156671E+01
 0.3126188274688E+01
 0.3152909675292E+01
 0.3075764770374E+01
 0.3013010245127E+01
 0.2974204371784E+01
 0.2953111389337E+01
 0.2946219689044E+01
 0.2950751533920E+01
 0.2964944960701E+01
 0.2987791182766E+01
 0.3018850203219E+01
 0.3058129748227E+01
 0.3105905669475E+01
 0.3162207271893E+01
 0.3226247545329E+01
 0.3296905192944E+01
 0.3373692175515E+01
 0.3456375334581E+01
 0.3544285286438E+01
 0.3636827304889E+01
 0.3734012458032E+01
 0.3836232278295E+01
 0.3943802806304E+01
 0.4056660586012E+01
 0.4174373217249E+01
 0.4296330119938E+01
 0.4421469567035E+01
 0.4547703880922E+01
 0.4671897548415E+01
 0.4789909736235E+01
 0.4896191637880E+01
 0.4983635963046E+01
 0.5044440118046E+01
 0.5071176406369E+01
 0.5051209679720E+01
 0.4951002971639E+01
 0.4682572142870E+01
 0.4126132429085E+01
 0.4248725224138E+01
 0.9177813874823E+01
 0.3052739158239E+01
 0.3270316763824E+01
 0.3184362798859E+01
 0.3057472089033E+01
 0.2986255287933E+01
 0.2945026286313E+01
 0.2924720143373E+01
 0.2919855271758E+01
 0.2926877078890E+01
 0.2943797960019E+01
 0.2969543891473E+01
 0.3003740030419E+01
 0.3046568364583E+01
 0.3098706963350E+01
 0.3160930344396E+01
 0.3233180886608E+01
 0.3314300162349E+01
 0.3402778091228E+01
 0.3497102759543E+01
 0.3596048108282E+01
 0.3699436302423E+01
 0.3808144839374E+01
 0.3923393854092E+01
 0.4046160060944E+01
 0.4176836899962E+01
 0.4315210400212E+01
 0.4460784506274E+01
 0.4612822227890E+01
 0.4770005435020E+01
 0.4930380191337E+01
 0.5091143970827E+01
 0.5247982024467E+01
 0.5394757774273E+01
 0.5524248093885E+01
 0.5631269182905E+01
 0.5710744319744E+01
 0.5741046798587E+01
 0.5666263727522E+01
 0.5176578323569E+01
 0.4544597139082E+01
 0.9899222487325E+01
 0.3342047886286E+01
 0.3414589222733E+01
 0.3159300913922E+01
 0.3017083593904E+01
 0.2946233383787E+01
 0.2906761897087E+01
 0.2890057542470E+01
 0.2888650398016E+01
 0.2899033649761E+01
 0.2919124106674E+01
 0.2947925870315E+01
 0.2985176123661E+01
 0.3031236075152E+01
 0.3087134776353E+01
 0.3154592613955E+01
 0.3235189963813E+01
 0.3328337826974E+01
 0.3430407725314E+01
 0.3537219030156E+01
 0.3646992366495E+01
 0.3760640315385E+01
 0.3880362957722E+01
 0.4008412410825E+01
 0.4146540372305E+01
 0.4295725143171E+01
 0.4455994206629E+01
 0.4626654834470E+01
 0.4807049508333E+01
 0.4997025580864E+01
 0.5196491094683E+01
 0.5404531171294E+01
 0.5618741565529E+01
 0.5834796852446E+01
 0.6046779229926E+01
 0.6249974118948E+01
 0.6451488109184E+01
 0.6655283142033E+01
 0.6887838556172E+01
 0.6977552215781E+01
 0.5961592890852E+01
 0.1145105307434E+02
 0.3884410176924E+01
 0.3408072606038E+01
 0.3070984384557E+01
 0.2958870432386E+01
 0.2891315638957E+01
 0.2860279209509E+01
 0.2849306798793E+01
 0.2852891303781E+01
 0.2867404779054E+01
 0.2891059191021E+01
 0.2923015223402E+01
 0.2963173623143E+01
 0.3012068544079E+01
 0.3070951280414E+01
 0.3142240477158E+01
 0.3230713754947E+01
 0.3338489297955E+01
 0.3457279486728E+01
 0.3577314497122E+01
 0.3697178276417E+01
 0.3820063654764E+01
 0.3949990850468E+01
 0.4090396230127E+01
 0.4243871872890E+01
 0.4412141664138E+01
 0.4595731718209E+01
 0.4793079372690E+01
 0.5002759010995E+01
 0.5226696247395E+01
 0.5467690475611E+01
 0.5727015925261E+01
 0.6004875369226E+01
 0.6300019342731E+01
 0.6608434898665E+01
 0.6924401140147E+01
 0.7250752959073E+01
 0.7668375988622E+01
 0.8234467361979E+01
 0.9406088212103E+01
 0.9838322281606E+01
 0.1665073297650E+02
 0.4887297977446E+00
 0.7962752911073E+00
 0.1101278109950E+01
 0.1387333275189E+01
 0.1647019715296E+01
 0.1878351171144E+01
 0.2082693898541E+01
 0.2263251849025E+01
 0.2423838369747E+01
 0.2567898805006E+01
 0.2697796385902E+01
 0.2814228458886E+01
 0.2916981840411E+01
 0.3006129439853E+01
 0.3081748841932E+01
 0.3143639005831E+01
 0.3191235337527E+01
 0.3223285347749E+01
 0.3239141263844E+01
 0.3235853502760E+01
 0.4914229497681E+00
 0.8011013063205E+00
 0.1107375079880E+01
 0.1395743097939E+01
 0.1659240963060E+01
 0.1895744457634E+01
 0.2106203139355E+01
 0.2293324439288E+01
 0.2460495953389E+01
 0.2610903291302E+01
 0.2746813058404E+01
 0.2869019532743E+01
 0.2977663007637E+01
 0.3072924260614E+01
 0.3154821038641E+01
 0.3223312622316E+01
 0.3278026288996E+01
 0.3318338982912E+01
 0.3340237336743E+01
 0.3334092755588E+01
 0.4945113174591E+00
 0.8069990681608E+00
 0.1114916005659E+01
 0.1405590354488E+01
 0.1672653413450E+01
 0.1913927882661E+01
 0.2130034883083E+01
 0.2323269280778E+01
 0.2496652273979E+01
 0.2653118559707E+01
 0.2794826035766E+01
 0.2922715882689E+01
 0.3037124618694E+01
 0.3138319145921E+01
 0.3226393302172E+01
 0.3301373604282E+01
 0.3363009401548E+01
 0.3409836627608E+01
 0.3436267764829E+01
 0.3436302622444E+01
 0.4978880313015E+00
 0.8136402187350E+00
 0.1123547633042E+01
 0.1416562095753E+01
 0.1686975941021E+01
 0.1932659687247E+01
 0.2153989639342E+01
 0.2352918120706E+01
 0.2532144204765E+01
 0.2694369792919E+01
 0.2841662889378E+01
 0.2975070616308E+01
 0.3095077238094E+01
 0.3202034085904E+01
 0.3296109370729E+01
 0.3377354834498E+01
 0.3445277650674E+01
 0.3497703512413E+01
 0.3529672297924E+01
 0.3537173234345E+01
 0.5014514312282E+00
 0.8207886911665E+00
 0.1132957990486E+01
 0.1428352390642E+01
 0.1701934804995E+01
 0.1951701994479E+01
 0.2177863468362E+01
 0.2382089702940E+01
 0.2566797626026E+01
 0.2734480264852E+01
 0.2887120852536E+01
 0.3025843525469E+01
 0.3151249703112E+01
 0.3263764031459E+01
 0.3363604925510E+01
 0.3450750928681E+01
 0.3524419128845E+01
 0.3582280292226E+01
 0.3620138552170E+01
 0.3635064019456E+01
 0.5051168818377E+00
 0.8282449976361E+00
 0.1142876603904E+01
 0.1440676595290E+01
 0.1717265930019E+01
 0.1970821078232E+01
 0.2201450315191E+01
 0.2410596611904E+01
 0.2600432407052E+01
 0.2773263110049E+01
 0.2930991605141E+01
 0.3074797021198E+01
 0.3205373615163E+01
 0.3323202509658E+01
 0.3428513887262E+01
 0.3521177497735E+01
 0.3600241621061E+01
 0.3663428091377E+01
 0.3707157754799E+01
 0.3729027039016E+01
 0.5088117341805E+00
 0.8358388003142E+00
 0.1153064809863E+01
 0.1453274172709E+01
 0.1732718652365E+01
 0.1989789158657E+01
 0.2224544968594E+01
 0.2438249125712E+01
 0.2632863974005E+01
 0.2810527153309E+01
 0.2973065594775E+01
 0.3121696262645E+01
 0.3257184911967E+01
 0.3380049601723E+01
 0.3490508038091E+01
 0.3588340664245E+01
 0.3672515593559E+01
 0.3740863057888E+01
 0.3790230785506E+01
 0.3818422374724E+01
 0.5124727941004E+00
 0.8434222841110E+00
 0.1163311226868E+01
 0.1465907533541E+01
 0.1748057671185E+01
 0.2008386862656E+01
 0.2246945775823E+01
 0.2464857986764E+01
 0.2663906789750E+01
 0.2846080650261E+01
 0.3013135127075E+01
 0.3166311268799E+01
 0.3306427638342E+01
 0.3434023892479E+01
 0.3549299251526E+01
 0.3651972598886E+01
 0.3740981564536E+01
 0.3814258977404E+01
 0.3868917892250E+01
 0.3902770590292E+01
 0.5160445210144E+00
 0.8508660156758E+00
 0.1173427990759E+01
 0.1478360717483E+01
 0.1763063839191E+01
 0.2026405247209E+01
 0.2268457090451E+01
 0.2490237202922E+01
 0.2693377454793E+01
 0.2879734479839E+01
 0.3050997195345E+01
 0.3208419823463E+01
 0.3352858764538E+01
 0.3484866394165E+01
 0.3604625694497E+01
 0.3711816341659E+01
 0.3805367840438E+01
 0.3883290678956E+01
 0.3942843971362E+01
 0.3981715535874E+01
 0.5194778367201E+00
 0.8580560166021E+00
 0.1183247916163E+01
 0.1490438042302E+01
 0.1777534525481E+01
 0.2043647329304E+01
 0.2288891452495E+01
 0.2514206574057E+01
 0.2721097439053E+01
 0.2911304899179E+01
 0.3086456143929E+01
 0.3247810390393E+01
 0.3396250985048E+01
 0.3532338676518E+01
 0.3656244701595E+01
 0.3767624082738E+01
 0.3865405417255E+01
 0.3947650151981E+01
 0.4011686332080E+01
 0.4054999780340E+01
 0.5227292729826E+00
 0.8648916758943E+00
 0.1192622303518E+01
 0.1501962923515E+01
 0.1791283757060E+01
 0.2059929303582E+01
 0.2308071484390E+01
 0.2536593965866E+01
 0.2746895537681E+01
 0.2940616054516E+01
 0.3119326153480E+01
 0.3284284425127E+01
 0.3436393651402E+01
 0.3576221079935E+01
 0.3703930237829E+01
 0.3819159847127E+01
 0.3920837582537E+01
 0.4007052988639E+01
 0.4075154988093E+01
 0.4122392293877E+01
 0.5257603733335E+00
 0.8712842417157E+00
 0.1201419265632E+01
 0.1512776894695E+01
 0.1804142270873E+01
 0.2075081518908E+01
 0.2325831509009E+01
 0.2557237296640E+01
 0.2770610032677E+01
 0.2967502183227E+01
 0.3149433304078E+01
 0.3317657881107E+01
 0.3473093059419E+01
 0.3616311787714E+01
 0.3747472716859E+01
 0.3866202605181E+01
 0.3971425340787E+01
 0.4061240261655E+01
 0.4132981783308E+01
 0.4183654295228E+01
 0.5285372574154E+00
 0.8771557226278E+00
 0.1209522454798E+01
 0.1522738828349E+01
 0.1815957545405E+01
 0.2088949293707E+01
 0.2342018947044E+01
 0.2575986288456E+01
 0.2792090611487E+01
 0.2991809536352E+01
 0.3176617253954E+01
 0.3347762309246E+01
 0.3506172755105E+01
 0.3652426780165E+01
 0.3786679875285E+01
 0.3908548885663E+01
 0.4016950361856E+01
 0.4109978487296E+01
 0.4184926715582E+01
 0.4238566484116E+01
 0.5310303051453E+00
 0.8824380843903E+00
 0.1216830097484E+01
 0.1531724325830E+01
 0.1826593826739E+01
 0.2101393592089E+01
 0.2356495499865E+01
 0.2592703967007E+01
 0.2811200005063E+01
 0.3013397973156E+01
 0.3200732560356E+01
 0.3374445706744E+01
 0.3535473937785E+01
 0.3684400238063E+01
 0.3821377859919E+01
 0.3946014646880E+01
 0.4057216489873E+01
 0.4153060958828E+01
 0.4230784169953E+01
 0.4286945583264E+01
 0.5332139289109E+00
 0.8870726637679E+00
 0.1223254268783E+01
 0.1539625252105E+01
 0.1835932163610E+01
 0.2112291592948E+01
 0.2369138150028E+01
 0.2607267935908E+01
 0.2827815369853E+01
 0.3032142278518E+01
 0.3221649752964E+01
 0.3397573255585E+01
 0.3560855974328E+01
 0.3712085160452E+01
 0.3851412272891E+01
 0.3978436618182E+01
 0.4092050978033E+01
 0.4190309058404E+01
 0.4270382732534E+01
 0.4328644639416E+01
 0.5350664116236E+00
 0.8910097445324E+00
 0.1228720354186E+01
 0.1546349390869E+01
 0.1843870455722E+01
 0.2121537172439E+01
 0.2379840003507E+01
 0.2619571448436E+01
 0.2841829442799E+01
 0.3047933254232E+01
 0.3239256234624E+01
 0.3417028003765E+01
 0.3582196977872E+01
 0.3735354052319E+01
 0.3876649104462E+01
 0.4005673379189E+01
 0.4121305472971E+01
 0.4221572281598E+01
 0.4303582192042E+01
 0.4363548282609E+01
 0.5365697888789E+00
 0.8942082517858E+00
 0.1233166652429E+01
 0.1551820191416E+01
 0.1850323507154E+01
 0.2129041304645E+01
 0.2388510983074E+01
 0.2629524287752E+01
 0.2853151485980E+01
 0.3060678610895E+01
 0.3253457034734E+01
 0.3432711479877E+01
 0.3599394379069E+01
 0.3754099580184E+01
 0.3896975532004E+01
 0.4027606206158E+01
 0.4144856510996E+01
 0.4246727389621E+01
 0.4330270312934E+01
 0.4391567746681E+01
 0.5377097672849E+00
 0.8966355354074E+00
 0.1236544088225E+01
 0.1555976587612E+01
 0.1855223080284E+01
 0.2134732386905E+01
 0.2395078385011E+01
 0.2637053471225E+01
 0.2861708040793E+01
 0.3070303682764E+01
 0.3264175427856E+01
 0.3444544225100E+01
 0.3612365441204E+01
 0.3768235146505E+01
 0.3912300569158E+01
 0.4044139653212E+01
 0.4162605603000E+01
 0.4265677309053E+01
 0.4350360148594E+01
 0.4412636664868E+01
 0.5384756683311E+00
 0.8982672199921E+00
 0.1238816009702E+01
 0.1558772872779E+01
 0.1858517946382E+01
 0.2138556496357E+01
 0.2399487312827E+01
 0.2642103797714E+01
 0.2867443514541E+01
 0.3076751988588E+01
 0.3271353431448E+01
 0.3452466239111E+01
 0.3621047702648E+01
 0.3777695371819E+01
 0.3922555569725E+01
 0.4055201918214E+01
 0.4174479115566E+01
 0.4278350139480E+01
 0.4363788047275E+01
 0.4426707693250E+01
 0.5388603913815E+00
 0.8990871051821E+00
 0.1239958051682E+01
 0.1560178616934E+01
 0.1860173927710E+01
 0.2140477579908E+01
 0.2401700995311E+01
 0.2644638248151E+01
 0.2870320610529E+01
 0.3079985646113E+01
 0.3274952180903E+01
 0.3456437325110E+01
 0.3625399323528E+01
 0.3782436463566E+01
 0.3927694584249E+01
 0.4060745049300E+01
 0.4180428090118E+01
 0.4284698372925E+01
 0.4370512303066E+01
 0.4433750465764E+01
 0.5388603913235E+00
 0.8990871050750E+00
 0.1239958051551E+01
 0.1560178616793E+01
 0.1860173927565E+01
 0.2140477579762E+01
 0.2401700995169E+01
 0.2644638248017E+01
 0.2870320610409E+01
 0.3079985646008E+01
 0.3274952180816E+01
 0.3456437325042E+01
 0.3625399323477E+01
 0.3782436463529E+01
 0.3927694584223E+01
 0.4060745049283E+01
 0.4180428090107E+01
 0.4284698372917E+01
 0.4370512303056E+01
 0.4433750465742E+01
 0.5384756681576E+00
 0.8982672196718E+00
 0.1238816009310E+01
 0.1558772872355E+01
 0.1858517945947E+01
 0.2138556495922E+01
 0.2399487312404E+01
 0.2642103797315E+01
 0.2867443514179E+01
 0.3076751988274E+01
 0.3271353431190E+01
 0.3452466238907E+01
 0.3621047702494E+01
 0.3777695371707E+01
 0.3922555569647E+01
 0.4055201918162E+01
 0.4174479115533E+01
 0.4278350139457E+01
 0.4363788047245E+01
 0.4426707693185E+01
 0.5377097669978E+00
 0.8966355348778E+00
 0.1236544087578E+01
 0.1555976586912E+01
 0.1855223079565E+01
 0.2134732386185E+01
 0.2395078384310E+01
 0.2637053470563E+01
 0.2861708040193E+01
 0.3070303682244E+01
 0.3264175427427E+01
 0.3444544224762E+01
 0.3612365440948E+01
 0.3768235146319E+01
 0.3912300569028E+01
 0.4044139653125E+01
 0.4162605602944E+01
 0.4265677309014E+01
 0.4350360148545E+01
 0.4412636664761E+01
 0.5365697884812E+00
 0.8942082510530E+00
 0.1233166651534E+01
 0.1551820190449E+01
 0.1850323506160E+01
 0.2129041303648E+01
 0.2388510982102E+01
 0.2629524286833E+01
 0.2853151485146E+01
 0.3060678610172E+01
 0.3253457034137E+01
 0.3432711479406E+01
 0.3599394378713E+01
 0.3754099579924E+01
 0.3896975531821E+01
 0.4027606206035E+01
 0.4144856510917E+01
 0.4246727389565E+01
 0.4330270312865E+01
 0.4391567746532E+01
 0.5350664111196E+00
 0.8910097436052E+00
 0.1228720353056E+01
 0.1546349389648E+01
 0.1843870454464E+01
 0.2121537171177E+01
 0.2379840002272E+01
 0.2619571447267E+01
 0.2841829441737E+01
 0.3047933253311E+01
 0.3239256233862E+01
 0.3417028003165E+01
 0.3582196977417E+01
 0.3735354051986E+01
 0.3876649104227E+01
 0.4005673379029E+01
 0.4121305472867E+01
 0.4221572281524E+01
 0.4303582191953E+01
 0.4363548282421E+01
 0.5332139283062E+00
 0.8870726626576E+00
 0.1223254267431E+01
 0.1539625250645E+01
 0.1835932162104E+01
 0.2112291591434E+01
 0.2369138148543E+01
 0.2607267934500E+01
 0.2827815368571E+01
 0.3032142277404E+01
 0.3221649752043E+01
 0.3397573254857E+01
 0.3560855973776E+01
 0.3712085160047E+01
 0.3851412272602E+01
 0.3978436617984E+01
 0.4092050977902E+01
 0.4190309058311E+01
 0.4270382732425E+01
 0.4328644639191E+01
 0.5310303044466E+00
 0.8824380831109E+00
 0.1216830095930E+01
 0.1531724324152E+01
 0.1826593825005E+01
 0.2101393590339E+01
 0.2356495498144E+01
 0.2592703965371E+01
 0.2811200003571E+01
 0.3013397971858E+01
 0.3200732559280E+01
 0.3374445705894E+01
 0.3535473937139E+01
 0.3684400237587E+01
 0.3821377859578E+01
 0.3946014646642E+01
 0.4057216489713E+01
 0.4153060958714E+01
 0.4230784169823E+01
 0.4286945583006E+01
 0.5285372566309E+00
 0.8771557211958E+00
 0.1209522453063E+01
 0.1522738826476E+01
 0.1815957543465E+01
 0.2088949291743E+01
 0.2342018945105E+01
 0.2575986286606E+01
 0.2792090609795E+01
 0.2991809534877E+01
 0.3176617252731E+01
 0.3347762308278E+01
 0.3506172754368E+01
 0.3652426779620E+01
 0.3786679874890E+01
 0.3908548885385E+01
 0.4016950361665E+01
 0.4109978487157E+01
 0.4184926715433E+01
 0.4238566483828E+01
 0.5257603724727E+00
 0.8712842401508E+00
 0.1201419263743E+01
 0.1512776892654E+01
 0.1804142268753E+01
 0.2075081516752E+01
 0.2325831506871E+01
 0.2557237294592E+01
 0.2770610030798E+01
 0.2967502181586E+01
 0.3149433302715E+01
 0.3317657880028E+01
 0.3473093058596E+01
 0.3616311787102E+01
 0.3747472716411E+01
 0.3866202604860E+01
 0.3971425340561E+01
 0.4061240261490E+01
 0.4132981783139E+01
 0.4183654294916E+01
 0.5227292720566E+00
 0.8648916742190E+00
 0.1192622301503E+01
 0.1501962921339E+01
 0.1791283754790E+01
 0.2059929301260E+01
 0.2308071482074E+01
 0.2536593963638E+01
 0.2746895535629E+01
 0.2940616052719E+01
 0.3119326151986E+01
 0.3284284423943E+01
 0.3436393650498E+01
 0.3576221079260E+01
 0.3703930237330E+01
 0.3819159846761E+01
 0.3920837582273E+01
 0.4007052988445E+01
 0.4075154987905E+01
 0.4122392293546E+01
 0.5194778357415E+00
 0.8580560148420E+00
 0.1183247914056E+01
 0.1490438040026E+01
 0.1777534523095E+01
 0.2043647326846E+01
 0.2288891450026E+01
 0.2514206571667E+01
 0.2721097436844E+01
 0.2911304897239E+01
 0.3086456142313E+01
 0.3247810389111E+01
 0.3396250984067E+01
 0.3532338675783E+01
 0.3656244701046E+01
 0.3767624082326E+01
 0.3865405416948E+01
 0.3947650151752E+01
 0.4011686331871E+01
 0.4054999779996E+01
 0.5160445199975E+00
 0.8508660138601E+00
 0.1173427988598E+01
 0.1478360715147E+01
 0.1763063836726E+01
 0.2026405244647E+01
 0.2268457087855E+01
 0.2490237200392E+01
 0.2693377452443E+01
 0.2879734477769E+01
 0.3050997193617E+01
 0.3208419822091E+01
 0.3352858763488E+01
 0.3484866393375E+01
 0.3604625693899E+01
 0.3711816341201E+01
 0.3805367840086E+01
 0.3883290678686E+01
 0.3942843971128E+01
 0.3981715535516E+01
 0.5124727930612E+00
 0.8434222822728E+00
 0.1163311224697E+01
 0.1465907531189E+01
 0.1748057668682E+01
 0.2008386860024E+01
 0.2246945773128E+01
 0.2464857984117E+01
 0.2663906787277E+01
 0.2846080648074E+01
 0.3013135125246E+01
 0.3166311267347E+01
 0.3306427637230E+01
 0.3434023891639E+01
 0.3549299250884E+01
 0.3651972598381E+01
 0.3740981564134E+01
 0.3814258977087E+01
 0.3868917891981E+01
 0.3902770589910E+01
 0.5088117331374E+00
 0.8358387984910E+00
 0.1153064807729E+01
 0.1453274170391E+01
 0.1732718649868E+01
 0.1989789155994E+01
 0.2224544965832E+01
 0.2438249122972E+01
 0.2632863971428E+01
 0.2810527151021E+01
 0.2973065592857E+01
 0.3121696261120E+01
 0.3257184910799E+01
 0.3380049600840E+01
 0.3490508037409E+01
 0.3588340663698E+01
 0.3672515593106E+01
 0.3740863057517E+01
 0.3790230785191E+01
 0.3818422374308E+01
 0.5051168808115E+00
 0.8282449958702E+00
 0.1142876601860E+01
 0.1440676593059E+01
 0.1717265927576E+01
 0.1970821075577E+01
 0.2201450312393E+01
 0.2410596609095E+01
 0.2600432404390E+01
 0.2773263107673E+01
 0.2930991603143E+01
 0.3074797019611E+01
 0.3205373613949E+01
 0.3323202508739E+01
 0.3428513886548E+01
 0.3521177497149E+01
 0.3600241620556E+01
 0.3663428090944E+01
 0.3707157754428E+01
 0.3729027038565E+01
 0.5014514302424E+00
 0.8207886895062E+00
 0.1132957988593E+01
 0.1428352388559E+01
 0.1701934802660E+01
 0.1951701991875E+01
 0.2177863465561E+01
 0.2382089700090E+01
 0.2566797623299E+01
 0.2734480262405E+01
 0.2887120850473E+01
 0.3025843523829E+01
 0.3151249701860E+01
 0.3263764030511E+01
 0.3363604924771E+01
 0.3450750928063E+01
 0.3524419128293E+01
 0.3582280291728E+01
 0.3620138551734E+01
 0.3635064018972E+01
 0.4978880303836E+00
 0.8136402172356E+00
 0.1123547631367E+01
 0.1416562093884E+01
 0.1686975938851E+01
 0.1932659684740E+01
 0.2153989636575E+01
 0.2352918117840E+01
 0.2532144201994E+01
 0.2694369790415E+01
 0.2841662887259E+01
 0.2975070614625E+01
 0.3095077236812E+01
 0.3202034084935E+01
 0.3296109369973E+01
 0.3377354833858E+01
 0.3445277650082E+01
 0.3497703511849E+01
 0.3529672297415E+01
 0.3537173233832E+01
 0.4945113166414E+00
 0.8069990668866E+00
 0.1114916004279E+01
 0.1405590352905E+01
 0.1672653411505E+01
 0.1913927880298E+01
 0.2130034880384E+01
 0.2323269277924E+01
 0.2496652271186E+01
 0.2653118557164E+01
 0.2794826033605E+01
 0.2922715880973E+01
 0.3037124617389E+01
 0.3138319144938E+01
 0.3226393301407E+01
 0.3301373603632E+01
 0.3363009400934E+01
 0.3409836626988E+01
 0.3436267764240E+01
 0.3436302621900E+01
 0.4914229490899E+00
 0.8011013053470E+00
 0.1107375078878E+01
 0.1395743096720E+01
 0.1659240961406E+01
 0.1895744455467E+01
 0.2106203136763E+01
 0.2293324436473E+01
 0.2460495950593E+01
 0.2610903288736E+01
 0.2746813056212E+01
 0.2869019531002E+01
 0.2977663006317E+01
 0.3072924259622E+01
 0.3154821037872E+01
 0.3223312621667E+01
 0.3278026288382E+01
 0.3318338982266E+01
 0.3340237336073E+01
 0.3334092754995E+01
 0.4887297972608E+00
 0.7962752905165E+00
 0.1101278109416E+01
 0.1387333274420E+01
 0.1647019714003E+01
 0.1878351169225E+01
 0.2082693896092E+01
 0.2263251846275E+01
 0.2423838366968E+01
 0.2567898802433E+01
 0.2697796383692E+01
 0.2814228457125E+01
 0.2916981839083E+01
 0.3006129438858E+01
 0.3081748841161E+01
 0.3143639005188E+01
 0.3191235336934E+01
 0.3223285347135E+01
 0.3239141263141E+01
 0.3235853502058E+01
 0.2246371996049E+01
 0.2532933410654E+01
 0.1705907075100E+01
 0.1322828243723E+01
 0.1102728537322E+01
 0.9595100949426E+00
 0.8500013687609E+00
 0.7546722080044E+00
 0.6628143783697E+00
 0.5690394129998E+00
 0.4698885963383E+00
 0.3623797138976E+00
 0.2618621360783E+00
 0.1807875925794E+00
 0.1192890564630E+00
 0.7688506958648E-01
 0.4643864133437E-01
 0.2212160063427E-01
 0.2638434750838E-02
 0.3387624513991E-02
 0.1740385877754E+01
 0.2588733775445E+01
 0.2031730795135E+01
 0.1569315699006E+01
 0.1298481038981E+01
 0.1123718813874E+01
 0.9964515994243E+00
 0.8910983489799E+00
 0.7943235199790E+00
 0.6986715314148E+00
 0.5994296365700E+00
 0.4945579429664E+00
 0.3961031556445E+00
 0.3115983332419E+00
 0.2407014729768E+00
 0.1842571055538E+00
 0.1372989426952E+00
 0.9456101984799E-01
 0.5537451507275E-01
 0.2514228598751E-01
 0.1410336913394E+01
 0.2300524803372E+01
 0.2142893899888E+01
 0.1771624647078E+01
 0.1481230813579E+01
 0.1285301386934E+01
 0.1143604042469E+01
 0.1030134352370E+01
 0.9295244975348E+00
 0.8329187137256E+00
 0.7348901479644E+00
 0.6326731632259E+00
 0.5345554056829E+00
 0.4473195744700E+00
 0.3707262917124E+00
 0.3048515551816E+00
 0.2464716366585E+00
 0.1917027470285E+00
 0.1403352463467E+00
 0.1013490235262E+00
 0.1182366398830E+01
 0.2026596144911E+01
 0.2100798605902E+01
 0.1887497834401E+01
 0.1635666923429E+01
 0.1436794337960E+01
 0.1287796939494E+01
 0.1169315030694E+01
 0.1066689683864E+01
 0.9704693758219E+00
 0.8746351461127E+00
 0.7754628574815E+00
 0.6783042824173E+00
 0.5896547888910E+00
 0.5099094336893E+00
 0.4386422242704E+00
 0.3738042181298E+00
 0.3128524740779E+00
 0.2575037710711E+00
 0.2200729353570E+00
 0.1016984839942E+01
 0.1792070559963E+01
 0.2004259856422E+01
 0.1927167581730E+01
 0.1747360613118E+01
 0.1570057733231E+01
 0.1424363876495E+01
 0.1305828370494E+01
 0.1203829171023E+01
 0.1109702672418E+01
 0.1017249357265E+01
 0.9220419443795E+00
 0.8271417188182E+00
 0.7388733995532E+00
 0.6584102837949E+00
 0.5852188879196E+00
 0.5182728144554E+00
 0.4563830867385E+00
 0.4029919725714E+00
 0.3729349543554E+00
 0.8936727141491E+00
 0.1597995495093E+01
 0.1890676870526E+01
 0.1919751803440E+01
 0.1816982121402E+01
 0.1678735290146E+01
 0.1548612577372E+01
 0.1436523692117E+01
 0.1338721673191E+01
 0.1248870562275E+01
 0.1161317203553E+01
 0.1071360403270E+01
 0.9803583124615E+00
 0.8944680172207E+00
 0.8156627269827E+00
 0.7435859158289E+00
 0.6781612378405E+00
 0.6193175883842E+00
 0.5716460802929E+00
 0.5510981814050E+00
 0.8000113641366E+00
 0.1438905174793E+01
 0.1777065214685E+01
 0.1885341386151E+01
 0.1853512046262E+01
 0.1761773077200E+01
 0.1657055073903E+01
 0.1558398706279E+01
 0.1469049831143E+01
 0.1386140880354E+01
 0.1305338264422E+01
 0.1222188620781E+01
 0.1136886644797E+01
 0.1055421548212E+01
 0.9805197419320E+00
 0.9121656388510E+00
 0.8510915726534E+00
 0.7980024662028E+00
 0.7579251469386E+00
 0.7466948775793E+00
 0.7279781128544E+00
 0.1308960218019E+01
 0.1670849685367E+01
 0.1836979676803E+01
 0.1866176018237E+01
 0.1821914831206E+01
 0.1748451612742E+01
 0.1669184508398E+01
 0.1592672228144E+01
 0.1519681634735E+01
 0.1447745333326E+01
 0.1373143334611E+01
 0.1295400120997E+01
 0.1220352508763E+01
 0.1151398142005E+01
 0.1088920034872E+01
 0.1034264062161E+01
 0.9885344669787E+00
 0.9565638553585E+00
 0.9531525241030E+00
 0.6721138517098E+00
 0.1202999752276E+01
 0.1575044981053E+01
 0.1782776421019E+01
 0.1862637642561E+01
 0.1863214834257E+01
 0.1823451299958E+01
 0.1767728140204E+01
 0.1707906292186E+01
 0.1647808627915E+01
 0.1586972920962E+01
 0.1522746212232E+01
 0.1454395281947E+01
 0.1387628872749E+01
 0.1326412780912E+01
 0.1271516155300E+01
 0.1224683461080E+01
 0.1187080055908E+01
 0.1162863905029E+01
 0.1165183172272E+01
 0.6285640696063E+00
 0.1116718777363E+01
 0.1490509825596E+01
 0.1727684276099E+01
 0.1848722759811E+01
 0.1889799039419E+01
 0.1883754732200E+01
 0.1853907122752E+01
 0.1813695201015E+01
 0.1769131935219E+01
 0.1721555362744E+01
 0.1669501416487E+01
 0.1612275209894E+01
 0.1555469707452E+01
 0.1503502122108E+01
 0.1457477667821E+01
 0.1419341812018E+01
 0.1390060003100E+01
 0.1372788268803E+01
 0.1378626529600E+01
 0.5945273464186E+00
 0.1046584892300E+01
 0.1417039871827E+01
 0.1674645084372E+01
 0.1828674775318E+01
 0.1905322835380E+01
 0.1931481089098E+01
 0.1928318899258E+01
 0.1909592503145E+01
 0.1882643200543E+01
 0.1850219261060E+01
 0.1811980164129E+01
 0.1767434546117E+01
 0.1722041000344E+01
 0.1680539689047E+01
 0.1644309204004E+01
 0.1615342220302E+01
 0.1594237128520E+01
 0.1582950057425E+01
 0.1590265814981E+01
 0.5679197276102E+00
 0.9897096303982E+00
 0.1353915656731E+01
 0.1625318351638E+01
 0.1805494918592E+01
 0.1912806006725E+01
 0.1968776523590E+01
 0.1991971343621E+01
 0.1995636550842E+01
 0.1987721667419E+01
 0.1971942736292E+01
 0.1948895358268E+01
 0.1918340704400E+01
 0.1885544882173E+01
 0.1855430935010E+01
 0.1829591301903E+01
 0.1809972450495E+01
 0.1796738208833E+01
 0.1790550999379E+01
 0.1797655261223E+01
 0.5471607717976E+00
 0.9437263599416E+00
 0.1300187877313E+01
 0.1580541695257E+01
 0.1781247838034E+01
 0.1914636666044E+01
 0.1997607428088E+01
 0.2046044314651E+01
 0.2072196748431E+01
 0.2084082079910E+01
 0.2085971749643E+01
 0.2079152990673E+01
 0.2063602979745E+01
 0.2044299921385E+01
 0.2026197343442E+01
 0.2011052326075E+01
 0.2000741669815E+01
 0.1995032995906E+01
 0.1993295454455E+01
 0.1998973868354E+01
 0.5310319352909E+00
 0.9066877222906E+00
 0.1254828708697E+01
 0.1540625254538E+01
 0.1757305262800E+01
 0.1912642373647E+01
 0.2019669898325E+01
 0.2091730338166E+01
 0.2139834635503E+01
 0.2171696703695E+01
 0.2191801024404E+01
 0.2201874591336E+01
 0.2202022298449E+01
 0.2196809711540E+01
 0.2191052220228E+01
 0.2186628294692E+01
 0.2185395276409E+01
 0.2186884101252E+01
 0.2189288049263E+01
 0.2192906881959E+01
 0.5185796623360E+00
 0.8769827546712E+00
 0.1216812524595E+01
 0.1505542713272E+01
 0.1734531895780E+01
 0.1908180260989E+01
 0.2036366050425E+01
 0.2130139384731E+01
 0.2199195860632E+01
 0.2250714545049E+01
 0.2289133145528E+01
 0.2316391818566E+01
 0.2332615687131E+01
 0.2341815949825E+01
 0.2348473863792E+01
 0.2354527696726E+01
 0.2361926450084E+01
 0.2370276655161E+01
 0.2376907951136E+01
 0.2378549038831E+01
 0.5090468216938E+00
 0.8532706255140E+00
 0.1185158502234E+01
 0.1475057554695E+01
 0.1713424890596E+01
 0.1902225316808E+01
 0.2048815772706E+01
 0.2162249422541E+01
 0.2250934459371E+01
 0.2321390681489E+01
 0.2377828671338E+01
 0.2422218741386E+01
 0.2454609307218E+01
 0.2478324597571E+01
 0.2497279080785E+01
 0.2513325689623E+01
 0.2528621340570E+01
 0.2543338070763E+01
 0.2554637224994E+01
 0.2555309626412E+01
 0.5018221696714E+00
 0.8344272007825E+00
 0.1158953157558E+01
 0.1448808485855E+01
 0.1694218260064E+01
 0.1895448672380E+01
 0.2057885356150E+01
 0.2188887330606E+01
 0.2295664855962E+01
 0.2384031222772E+01
 0.2457857743610E+01
 0.2519010995195E+01
 0.2567399850534E+01
 0.2605576152581E+01
 0.2636667341837E+01
 0.2662126542920E+01
 0.2684208012142E+01
 0.2704306581902E+01
 0.2720784016206E+01
 0.2722770142171E+01
 0.4963993550376E+00
 0.8195029031426E+00
 0.1137363179165E+01
 0.1426370866226E+01
 0.1676959963806E+01
 0.1888283709394E+01
 0.2064222668005E+01
 0.2210728664390E+01
 0.2333935676527E+01
 0.2438954601806E+01
 0.2529260442298E+01
 0.2606525302748E+01
 0.2670497029640E+01
 0.2722952276552E+01
 0.2766108578562E+01
 0.2800715757546E+01
 0.2828363702087E+01
 0.2851677449156E+01
 0.2873089713623E+01
 0.2880299017616E+01
 0.4923395847014E+00
 0.8076802092156E+00
 0.1119663153062E+01
 0.1407297098013E+01
 0.1661566871519E+01
 0.1880980972436E+01
 0.2068293572058E+01
 0.2228308279677E+01
 0.2366218735446E+01
 0.2486469711076E+01
 0.2592116935563E+01
 0.2684590314722E+01
 0.2763481939746E+01
 0.2829859069886E+01
 0.2885075091608E+01
 0.2929108457385E+01
 0.2962379833350E+01
 0.2986027098109E+01
 0.3007838559663E+01
 0.3025901177749E+01
 0.4891480911243E+00
 0.7983767026367E+00
 0.1105258106555E+01
 0.1391128928785E+01
 0.1647866830071E+01
 0.1873652429994E+01
 0.2070417208257E+01
 0.2242038625385E+01
 0.2392905225315E+01
 0.2526864892327E+01
 0.2646544197626E+01
 0.2753070579829E+01
 0.2845998147705E+01
 0.2925725761511E+01
 0.2992796271647E+01
 0.3046768781181E+01
 0.3087079676531E+01
 0.3112890034728E+01
 0.3126637950574E+01
 0.3149970857303E+01
 0.4891480909676E+00
 0.7983767025745E+00
 0.1105258106611E+01
 0.1391128928531E+01
 0.1647866829140E+01
 0.1873652428266E+01
 0.2070417205849E+01
 0.2242038622561E+01
 0.2392905222385E+01
 0.2526864889561E+01
 0.2646544195203E+01
 0.2753070577838E+01
 0.2845998146167E+01
 0.2925725760275E+01
 0.2992796270583E+01
 0.3046768780193E+01
 0.3087079675525E+01
 0.3112890033629E+01
 0.3126637949210E+01
 0.3149970855542E+01
 0.4923395847739E+00
 0.8076802095640E+00
 0.1119663153565E+01
 0.1407297098107E+01
 0.1661566870768E+01
 0.1880980970716E+01
 0.2068293569518E+01
 0.2228308276632E+01
 0.2366218732255E+01
 0.2486469708043E+01
 0.2592116932881E+01
 0.2684590312476E+01
 0.2763481937951E+01
 0.2829859068323E+01
 0.2885075090105E+01
 0.2929108455817E+01
 0.2962379831580E+01
 0.2986027096006E+01
 0.3007838556975E+01
 0.3025901174580E+01
 0.4963993554004E+00
 0.8195029040100E+00
 0.1137363180211E+01
 0.1426370866739E+01
 0.1676959963290E+01
 0.1888283707731E+01
 0.2064222665390E+01
 0.2210728661196E+01
 0.2333935673161E+01
 0.2438954598605E+01
 0.2529260439465E+01
 0.2606525300369E+01
 0.2670497027712E+01
 0.2722952274790E+01
 0.2766108576741E+01
 0.2800715755496E+01
 0.2828363699611E+01
 0.2851677446069E+01
 0.2873089709731E+01
 0.2880299013025E+01
 0.5018221703767E+00
 0.8344272022677E+00
 0.1158953159235E+01
 0.1448808486853E+01
 0.1694218259828E+01
 0.1895448670815E+01
 0.2057885353511E+01
 0.2188887327329E+01
 0.2295664852506E+01
 0.2384031219501E+01
 0.2457857740738E+01
 0.2519010992806E+01
 0.2567399848603E+01
 0.2605576150745E+01
 0.2636667339815E+01
 0.2662126540486E+01
 0.2684208009047E+01
 0.2704306577951E+01
 0.2720784011232E+01
 0.2722770136126E+01
 0.5090468227946E+00
 0.8532706277128E+00
 0.1185158504625E+01
 0.1475057556229E+01
 0.1713424890674E+01
 0.1902225315374E+01
 0.2048815770087E+01
 0.2162249419244E+01
 0.2250934455907E+01
 0.2321390678248E+01
 0.2377828668540E+01
 0.2422218739108E+01
 0.2454609305407E+01
 0.2478324595787E+01
 0.2497279078685E+01
 0.2513325686932E+01
 0.2528621336998E+01
 0.2543338066108E+01
 0.2554637219049E+01
 0.2555309618916E+01
 0.5185796638871E+00
 0.8769827576776E+00
 0.1216812527770E+01
 0.1505542715380E+01
 0.1734531896189E+01
 0.1908180259703E+01
 0.2036366047861E+01
 0.2130139381472E+01
 0.2199195857240E+01
 0.2250714541935E+01
 0.2289133142912E+01
 0.2316391816519E+01
 0.2332615685563E+01
 0.2341815948217E+01
 0.2348473861748E+01
 0.2354527693929E+01
 0.2361926446210E+01
 0.2370276649977E+01
 0.2376907944348E+01
 0.2378549029944E+01
 0.5310319373504E+00
 0.9066877261975E+00
 0.1254828712714E+01
 0.1540625257237E+01
 0.1757305263539E+01
 0.1912642372513E+01
 0.2019669895840E+01
 0.2091730334999E+01
 0.2139834632260E+01
 0.2171696700802E+01
 0.2191801022078E+01
 0.2201874589634E+01
 0.2202022297242E+01
 0.2196809710233E+01
 0.2191052218382E+01
 0.2186628291956E+01
 0.2185395272421E+01
 0.2186884095729E+01
 0.2189288041789E+01
 0.2192906871799E+01
 0.5471607744273E+00
 0.9437263648394E+00
 0.1300187882213E+01
 0.1580541698543E+01
 0.1781247839079E+01
 0.1914636665050E+01
 0.1997607425700E+01
 0.2046044311624E+01
 0.2072196745412E+01
 0.2084082077329E+01
 0.2085971747705E+01
 0.2079152989422E+01
 0.2063602979006E+01
 0.2044299920497E+01
 0.2026197341935E+01
 0.2011052323570E+01
 0.2000741665912E+01
 0.1995032990256E+01
 0.1993295446496E+01
 0.1998973857104E+01
 0.5679197308762E+00
 0.9897096363733E+00
 0.1353915662535E+01
 0.1625318355477E+01
 0.1805494919895E+01
 0.1912806005843E+01
 0.1968776521310E+01
 0.1991971340783E+01
 0.1995636548121E+01
 0.1987721665237E+01
 0.1971942734835E+01
 0.1948895357562E+01
 0.1918340704223E+01
 0.1885544881810E+01
 0.1855430933973E+01
 0.1829591299795E+01
 0.1809972446881E+01
 0.1796738203289E+01
 0.1790550991186E+01
 0.1797655249137E+01
 0.5945273503919E+00
 0.1046584899431E+01
 0.1417039878529E+01
 0.1674645088696E+01
 0.1828674776803E+01
 0.1905322834567E+01
 0.1931481086932E+01
 0.1928318896655E+01
 0.1909592500792E+01
 0.1882643198837E+01
 0.1850219260161E+01
 0.1811980164045E+01
 0.1767434546576E+01
 0.1722041000591E+01
 0.1680539688593E+01
 0.1644309202448E+01
 0.1615342217182E+01
 0.1594237123336E+01
 0.1582950049295E+01
 0.1590265802389E+01
 0.6285640743628E+00
 0.1116718785717E+01
 0.1490509833152E+01
 0.1727684280798E+01
 0.1848722761371E+01
 0.1889799038623E+01
 0.1883754730155E+01
 0.1853907120436E+01
 0.1813695199100E+01
 0.1769131934059E+01
 0.1721555362467E+01
 0.1669501417081E+01
 0.1612275211037E+01
 0.1555469708367E+01
 0.1503502122326E+01
 0.1457477666949E+01
 0.1419341809585E+01
 0.1390059998541E+01
 0.1372788261081E+01
 0.1378626516916E+01
 0.6721138573302E+00
 0.1202999761899E+01
 0.1575044989371E+01
 0.1782776425934E+01
 0.1862637644062E+01
 0.1863214833418E+01
 0.1823451298051E+01
 0.1767728138234E+01
 0.1707906290776E+01
 0.1647808627359E+01
 0.1586972921351E+01
 0.1522746213536E+01
 0.1454395283793E+01
 0.1387628874361E+01
 0.1326412781857E+01
 0.1271516155214E+01
 0.1224683459506E+01
 0.1187080052237E+01
 0.1162863898092E+01
 0.1165183159990E+01
 0.7279781194221E+00
 0.1308960228926E+01
 0.1670849694290E+01
 0.1836979681714E+01
 0.1866176019522E+01
 0.1821914830277E+01
 0.1748451611009E+01
 0.1669184506841E+01
 0.1592672227300E+01
 0.1519681634822E+01
 0.1447745334400E+01
 0.1373143336630E+01
 0.1295400123535E+01
 0.1220352511064E+01
 0.1151398143693E+01
 0.1088920035630E+01
 0.1034264061575E+01
 0.9885344644314E+00
 0.9565638495954E+00
 0.9531525127918E+00
 0.8000113717346E+00
 0.1438905186944E+01
 0.1777065223962E+01
 0.1885341390774E+01
 0.1853512047164E+01
 0.1761773076165E+01
 0.1657055072412E+01
 0.1558398705212E+01
 0.1469049830913E+01
 0.1386140881101E+01
 0.1305338266178E+01
 0.1222188623493E+01
 0.1136886647983E+01
 0.1055421551160E+01
 0.9805197443336E+00
 0.9121656404513E+00
 0.8510915731152E+00
 0.7980024649519E+00
 0.7579251427089E+00
 0.7466948678538E+00
 0.8936727228511E+00
 0.1597995508361E+01
 0.1890676879782E+01
 0.1919751807424E+01
 0.1816982121786E+01
 0.1678735289053E+01
 0.1548612576229E+01
 0.1436523691616E+01
 0.1338721673604E+01
 0.1248870563676E+01
 0.1161317205964E+01
 0.1071360406631E+01
 0.9803583162249E+00
 0.8944680207366E+00
 0.8156627300179E+00
 0.7435859181991E+00
 0.6781612393161E+00
 0.6193175884937E+00
 0.5716460778661E+00
 0.5510981738712E+00
 0.1016984849796E+01
 0.1792070574075E+01
 0.2004259865106E+01
 0.1927167584691E+01
 0.1747360612943E+01
 0.1570057732231E+01
 0.1424363875838E+01
 0.1305828370618E+01
 0.1203829172077E+01
 0.1109702674443E+01
 0.1017249360289E+01
 0.9220419483296E+00
 0.8271417230634E+00
 0.7388734035255E+00
 0.6584102873330E+00
 0.5852188909063E+00
 0.5182728167905E+00
 0.4563830881089E+00
 0.4029919720372E+00
 0.3729349495041E+00
 0.1182366409823E+01
 0.2026596159327E+01
 0.2100798613241E+01
 0.1887497836023E+01
 0.1635666922881E+01
 0.1436794337311E+01
 0.1287796939449E+01
 0.1169315031462E+01
 0.1066689685527E+01
 0.9704693784211E+00
 0.8746351496958E+00
 0.7754628619526E+00
 0.6783042870332E+00
 0.5896547931825E+00
 0.5099094375509E+00
 0.4386422276364E+00
 0.3738042210342E+00
 0.3128524763971E+00
 0.2575037722216E+00
 0.2200729333762E+00
 0.1410336925381E+01
 0.2300524817070E+01
 0.2142893904849E+01
 0.1771624647478E+01
 0.1481230813167E+01
 0.1285301386915E+01
 0.1143604043102E+01
 0.1030134353755E+01
 0.9295244997489E+00
 0.8329187168381E+00
 0.7348901520525E+00
 0.6326731681547E+00
 0.5345554105560E+00
 0.4473195789269E+00
 0.3707262956737E+00
 0.3048515586077E+00
 0.2464716397114E+00
 0.1917027497568E+00
 0.1403352485683E+00
 0.1013490239947E+00
 0.1740385890220E+01
 0.2588733785947E+01
 0.2031730797364E+01
 0.1569315699244E+01
 0.1298481039316E+01
 0.1123718814639E+01
 0.9964516007176E+00
 0.8910983509177E+00
 0.7943235226733E+00
 0.6986715349710E+00
 0.5994296411102E+00
 0.4945579483165E+00
 0.3961031606796E+00
 0.3115983377087E+00
 0.2407014767612E+00
 0.1842571086395E+00
 0.1372989453739E+00
 0.9456102226936E-01
 0.5537451731538E-01
 0.2514228749013E-01
 0.2246372006910E+01
 0.2532933416677E+01
 0.1705907077126E+01
 0.1322828245168E+01
 0.1102728538704E+01
 0.9595100964879E+00
 0.8500013706364E+00
 0.7546722104120E+00
 0.6628143814779E+00
 0.5690394169217E+00
 0.4698886012555E+00
 0.3623797196827E+00
 0.2618621413156E+00
 0.1807875968599E+00
 0.1192890596867E+00
 0.7688507186877E-01
 0.4643864306999E-01
 0.2212160193912E-01
 0.2638435633761E-02
 0.3387624114491E-02
 0.3187237692972E+01
 0.3053552805847E+01
 0.2916890599277E+01
 0.2772949876385E+01
 0.2618278255504E+01
 0.2452695693648E+01
 0.2276498188430E+01
 0.2090236376417E+01
 0.1894630967541E+01
 0.1690636676906E+01
 0.1479551407518E+01
 0.1263175855291E+01
 0.1044036998657E+01
 0.8257013663352E+00
 0.6132104589125E+00
 0.4136719658314E+00
 0.2370097242643E+00
 0.9679786113759E-01
 0.1240345607835E-01
 0.8959801147648E-02
 0.3295329373339E+01
 0.3188907922709E+01
 0.3059083874699E+01
 0.2918827151816E+01
 0.2768997813897E+01
 0.2608835487206E+01
 0.2437959390893E+01
 0.2256305390131E+01
 0.2064072375323E+01
 0.1861704868811E+01
 0.1649947315386E+01
 0.1429963242777E+01
 0.1203532683065E+01
 0.9733577582279E+00
 0.7435307131585E+00
 0.5202560555941E+00
 0.3129970499438E+00
 0.1363318950477E+00
 0.1651769081624E-01
 0.3256000853559E-01
 0.3399591856426E+01
 0.3306572807172E+01
 0.3193217591144E+01
 0.3063789916182E+01
 0.2922611783932E+01
 0.2770559019850E+01
 0.2607586649187E+01
 0.2433535830893E+01
 0.2248342358908E+01
 0.2052100338220E+01
 0.1845104945994E+01
 0.1627924293535E+01
 0.1401524777972E+01
 0.1167482361318E+01
 0.9283377471119E+00
 0.6882158721190E+00
 0.4539479447422E+00
 0.2373814140487E+00
 0.6054030635660E-01
 0.3735905902912E-01
 0.3503717771736E+01
 0.3420356870599E+01
 0.3320242935768E+01
 0.3204142154358E+01
 0.3074584362919E+01
 0.2933210272404E+01
 0.2780549782488E+01
 0.2616690458938E+01
 0.2441611136001E+01
 0.2255328817192E+01
 0.2057969460848E+01
 0.1849822453366E+01
 0.1631412198824E+01
 0.1403614870471E+01
 0.1167864195049E+01
 0.9265300306537E+00
 0.6836755199972E+00
 0.4466055107129E+00
 0.2297245800048E+00
 0.6699489673392E-01
 0.3605848310176E+01
 0.3531245732219E+01
 0.3442665258683E+01
 0.3339278590013E+01
 0.3222310838914E+01
 0.3093013650273E+01
 0.2952145414939E+01
 0.2800040072733E+01
 0.2636839930274E+01
 0.2462647885580E+01
 0.2277614931898E+01
 0.2081993910212E+01
 0.1876183239480E+01
 0.1660776806072E+01
 0.1436633582227E+01
 0.1204987321515E+01
 0.9676122397311E+00
 0.7270929366788E+00
 0.4870551311539E+00
 0.2494917525911E+00
 0.3704815503087E+01
 0.3638712910623E+01
 0.3560535413565E+01
 0.3468922073029E+01
 0.3364195431314E+01
 0.3247127652237E+01
 0.3118360815417E+01
 0.2978298088955E+01
 0.2827165618492E+01
 0.2665105915354E+01
 0.2492239384807E+01
 0.2308689351114E+01
 0.2114571653806E+01
 0.1909941614421E+01
 0.1694673406286E+01
 0.1468208205768E+01
 0.1229025681112E+01
 0.9734331181718E+00
 0.6924778018041E+00
 0.3617337646064E+00
 0.3799659485631E+01
 0.3741877738683E+01
 0.3673264147188E+01
 0.3592361507798E+01
 0.3498963617234E+01
 0.3393397043963E+01
 0.3276061773697E+01
 0.3147249421698E+01
 0.3007114035091E+01
 0.2855688381617E+01
 0.2692890952684E+01
 0.2518494364291E+01
 0.2332035619452E+01
 0.2132639163761E+01
 0.1918697391479E+01
 0.1687301211539E+01
 0.1433203004517E+01
 0.1146877420511E+01
 0.8108133521545E+00
 0.3966425161787E+00
 0.3889638487073E+01
 0.3839894090588E+01
 0.3780062252738E+01
 0.3708759021233E+01
 0.3625464940035E+01
 0.3530138806608E+01
 0.3422882307306E+01
 0.3303756323403E+01
 0.3172699097633E+01
 0.3029484264017E+01
 0.2873671286416E+01
 0.2704515866051E+01
 0.2520811078451E+01
 0.2320622188923E+01
 0.2100857355703E+01
 0.1856580164167E+01
 0.1579919486201E+01
 0.1258417166740E+01
 0.8731964360965E+00
 0.4039758674469E+00
 0.3974183013433E+01
 0.3932072246733E+01
 0.3880234223348E+01
 0.3817397730496E+01
 0.3742840326564E+01
 0.3656207125102E+01
 0.3557279444644E+01
 0.3445809457346E+01
 0.3321414699977E+01
 0.3183496816688E+01
 0.3031150426302E+01
 0.2863033363583E+01
 0.2677171895528E+01
 0.2470671653921E+01
 0.2239299021118E+01
 0.1976895276839E+01
 0.1674616064598E+01
 0.1320158127108E+01
 0.8980945077840E+00
 0.4007959873666E+00
 0.4052891601268E+01
 0.4017958460276E+01
 0.3973381844359E+01
 0.3917975456281E+01
 0.3850854718736E+01
 0.3771379815180E+01
 0.3679000465760E+01
 0.3573115482475E+01
 0.3452960730429E+01
 0.3317508541660E+01
 0.3165356336878E+01
 0.2994584461001E+01
 0.2802566513525E+01
 0.2585719580910E+01
 0.2339190687215E+01
 0.2056502437728E+01
 0.1729256957413E+01
 0.1347255757761E+01
 0.9003453814688E+00
 0.3970606599777E+00
 0.4125396983801E+01
 0.4097076276029E+01
 0.4059059038553E+01
 0.4010157996685E+01
 0.3949328811498E+01
 0.3875661580201E+01
 0.3788276372308E+01
 0.3686207624444E+01
 0.3568297897393E+01
 0.3433095577717E+01
 0.3278744738868E+01
 0.3102856773318E+01
 0.2902358522027E+01
 0.2673320819722E+01
 0.2410789505817E+01
 0.2108679175489E+01
 0.1759882633769E+01
 0.1356994314526E+01
 0.8954020799221E+00
 0.3982186267826E+00
 0.4191398739732E+01
 0.4169033421697E+01
 0.4136857816331E+01
 0.4093599991891E+01
 0.4038041711053E+01
 0.3969014047245E+01
 0.3885322670476E+01
 0.3785654950865E+01
 0.3668487673393E+01
 0.3531996533205E+01
 0.3373963502303E+01
 0.3191679889954E+01
 0.2981849053758E+01
 0.2740503958429E+01
 0.2462974729969E+01
 0.2143979893384E+01
 0.1777997726338E+01
 0.1360349957522E+01
 0.8910151566473E+00
 0.4041062840306E+00
 0.4250643416959E+01
 0.4233536835636E+01
 0.4206465805688E+01
 0.4168026658150E+01
 0.4116815553177E+01
 0.4051417716475E+01
 0.3970350225056E+01
 0.3871989315079E+01
 0.3754496725256E+01
 0.3615749333418E+01
 0.3453273337642E+01
 0.3264186339155E+01
 0.3045156740277E+01
 0.2792400335071E+01
 0.2501751484449E+01
 0.2168877998097E+01
 0.1789785790409E+01
 0.1362047298290E+01
 0.8889831008450E+00
 0.4127255162207E+00
 0.4302911233640E+01
 0.4290358721527E+01
 0.4267656401225E+01
 0.4233251983330E+01
 0.4185556061629E+01
 0.4122926890539E+01
 0.4043626072090E+01
 0.3945764260009E+01
 0.3827248020606E+01
 0.3685733257287E+01
 0.3518589203446E+01
 0.3322879101077E+01
 0.3095368729188E+01
 0.2832582202801E+01
 0.2530937731110E+01
 0.2187021796610E+01
 0.1798132547015E+01
 0.1363531464548E+01
 0.8888800728667E+00
 0.4222738274969E+00
 0.4348016741399E+01
 0.4339320361217E+01
 0.4320270554039E+01
 0.4289167774352E+01
 0.4244248408448E+01
 0.4183668858965E+01
 0.4105472661394E+01
 0.4007553243715E+01
 0.3887621143864E+01
 0.3743181270183E+01
 0.3571525170910E+01
 0.3369744960871E+01
 0.3134779169592E+01
 0.2863506506189E+01
 0.2552913222120E+01
 0.2200381807131E+01
 0.1804222374754E+01
 0.1364910260286E+01
 0.8897630753505E+00
 0.4314755254762E+00
 0.4385808843168E+01
 0.4380284081880E+01
 0.4364200668069E+01
 0.4335723753446E+01
 0.4292935112826E+01
 0.4233819084859E+01
 0.4156240184169E+01
 0.4057921299093E+01
 0.3936429582004E+01
 0.3789175207986E+01
 0.3613427761817E+01
 0.3406356016194E+01
 0.3165099058996E+01
 0.2886880434930E+01
 0.2569184473592E+01
 0.2210035307512E+01
 0.1808499383352E+01
 0.1365911801858E+01
 0.8907999381617E+00
 0.4395247125358E+00
 0.4416169212220E+01
 0.4413148432808E+01
 0.4399379484991E+01
 0.4372910828615E+01
 0.4331694743596E+01
 0.4273576050461E+01
 0.4196278885195E+01
 0.4097398109189E+01
 0.3974401083197E+01
 0.3824644230518E+01
 0.3645408312905E+01
 0.3433956651582E+01
 0.3187621593409E+01
 0.2903926955369E+01
 0.2580760926899E+01
 0.2216636739718E+01
 0.1811167273146E+01
 0.1366293472506E+01
 0.8914498758749E+00
 0.4459653047892E+00
 0.4439009227112E+01
 0.4437842810392E+01
 0.4425770294866E+01
 0.4400746754769E+01
 0.4360623780247E+01
 0.4303140590475E+01
 0.4225918039084E+01
 0.4126460420554E+01
 0.4002169619458E+01
 0.3850375171159E+01
 0.3668383138278E+01
 0.3453546459692E+01
 0.3203359749589E+01
 0.2915583349519E+01
 0.2588408363915E+01
 0.2220699541362E+01
 0.1812449666815E+01
 0.1366019613220E+01
 0.8915160887993E+00
 0.4506145257492E+00
 0.4454266592188E+01
 0.4454322460804E+01
 0.4443358816700E+01
 0.4419264614462E+01
 0.4379822301985E+01
 0.4322700098636E+01
 0.4245450899984E+01
 0.4145521246492E+01
 0.4020273924697E+01
 0.3867027044710E+01
 0.3683111638873E+01
 0.3465949218310E+01
 0.3213150635912E+01
 0.2922639249964E+01
 0.2592808824459E+01
 0.2222753816659E+01
 0.1812712177616E+01
 0.1365319899397E+01
 0.8911440561128E+00
 0.4535227300819E+00
 0.4461903218857E+01
 0.4462564892618E+01
 0.4452147562661E+01
 0.4428505341986E+01
 0.4389385342091E+01
 0.4332419956341E+01
 0.4255128241307E+01
 0.4154928541980E+01
 0.4029165387748E+01
 0.3875153091046E+01
 0.3690237616512E+01
 0.3471877511289E+01
 0.3217744435528E+01
 0.2925845473310E+01
 0.2594677243167E+01
 0.2223450234340E+01
 0.1812527294241E+01
 0.1364688240716E+01
 0.8907475281827E+00
 0.4549011507909E+00
 0.4461903218781E+01
 0.4462564892469E+01
 0.4452147562441E+01
 0.4428505341700E+01
 0.4389385341748E+01
 0.4332419955953E+01
 0.4255128240890E+01
 0.4154928541554E+01
 0.4029165387338E+01
 0.3875153090677E+01
 0.3690237616209E+01
 0.3471877511076E+01
 0.3217744435425E+01
 0.2925845473326E+01
 0.2594677243303E+01
 0.2223450234580E+01
 0.1812527294554E+01
 0.1364688241049E+01
 0.8907475284467E+00
 0.4549011507630E+00
 0.4454266591960E+01
 0.4454322460358E+01
 0.4443358816040E+01
 0.4419264613604E+01
 0.4379822300950E+01
 0.4322700097462E+01
 0.4245450898718E+01
 0.4145521245193E+01
 0.4020273923436E+01
 0.3867027043562E+01
 0.3683111637916E+01
 0.3465949217616E+01
 0.3213150635537E+01
 0.2922639249942E+01
 0.2592808824789E+01
 0.2222753817301E+01
 0.1812712178478E+01
 0.1365319900326E+01
 0.8911440568516E+00
 0.4535227299812E+00
 0.4439009226734E+01
 0.4437842809650E+01
 0.4425770293766E+01
 0.4400746753331E+01
 0.4360623778509E+01
 0.4303140588492E+01
 0.4225918036932E+01
 0.4126460418329E+01
 0.4002169617273E+01
 0.3850375169140E+01
 0.3668383136555E+01
 0.3453546458384E+01
 0.3203359748796E+01
 0.2915583349303E+01
 0.2588408364282E+01
 0.2220699542251E+01
 0.1812449668082E+01
 0.1366019614621E+01
 0.8915160899193E+00
 0.4506145255476E+00
 0.4416169211699E+01
 0.4413148431775E+01
 0.4399379483452E+01
 0.4372910826595E+01
 0.4331694741142E+01
 0.4273576047645E+01
 0.4196278882116E+01
 0.4097398105976E+01
 0.3974401080004E+01
 0.3824644227519E+01
 0.3645408310282E+01
 0.3433956649508E+01
 0.3187621592035E+01
 0.2903926954792E+01
 0.2580760927145E+01
 0.2216636740715E+01
 0.1811167274702E+01
 0.1366293474288E+01
 0.8914498773101E+00
 0.4459653044668E+00
 0.4385808842511E+01
 0.4380284080564E+01
 0.4364200666097E+01
 0.4335723750843E+01
 0.4292935109644E+01
 0.4233819081182E+01
 0.4156240180116E+01
 0.4057921294819E+01
 0.3936429577702E+01
 0.3789175203874E+01
 0.3613427758132E+01
 0.3406356013170E+01
 0.3165099056840E+01
 0.2886880433793E+01
 0.2569184473534E+01
 0.2210035308465E+01
 0.1808499385091E+01
 0.1365911803958E+01
 0.8907999398896E+00
 0.4395247121090E+00
 0.4348016740615E+01
 0.4339320359627E+01
 0.4320270551639E+01
 0.4289167771165E+01
 0.4244248404527E+01
 0.4183668854398E+01
 0.4105472656313E+01
 0.4007553238296E+01
 0.3887621138330E+01
 0.3743181264798E+01
 0.3571525165964E+01
 0.3369744956663E+01
 0.3134779166403E+01
 0.2863506504240E+01
 0.2552913221530E+01
 0.2200381807863E+01
 0.1804222376566E+01
 0.1364910262669E+01
 0.8897630773960E+00
 0.4314755249982E+00
 0.4302911232742E+01
 0.4290358719675E+01
 0.4267656398409E+01
 0.4233251979566E+01
 0.4185556056964E+01
 0.4122926885060E+01
 0.4043626065933E+01
 0.3945764253362E+01
 0.3827248013717E+01
 0.3685733250454E+01
 0.3518589197015E+01
 0.3322879095417E+01
 0.3095368724663E+01
 0.2832582199728E+01
 0.2530937729700E+01
 0.2187021796896E+01
 0.1798132548772E+01
 0.1363531467204E+01
 0.8888800753236E+00
 0.4222738270903E+00
 0.4250643415961E+01
 0.4233536833541E+01
 0.4206465802475E+01
 0.4168026653824E+01
 0.4116815547773E+01
 0.4051417710070E+01
 0.3970350217778E+01
 0.3871989307119E+01
 0.3754496716871E+01
 0.3615749324936E+01
 0.3453273329452E+01
 0.3264186331695E+01
 0.3045156734006E+01
 0.2792400330424E+01
 0.2501751481769E+01
 0.2168877997544E+01
 0.1789785791841E+01
 0.1362047301116E+01
 0.8889831037791E+00
 0.4127255160465E+00
 0.4191398738648E+01
 0.4169033419373E+01
 0.4136857812736E+01
 0.4093599987016E+01
 0.4038041704913E+01
 0.3969014039897E+01
 0.3885322662029E+01
 0.3785654941497E+01
 0.3668487663359E+01
 0.3531996522841E+01
 0.3373963492031E+01
 0.3191679880270E+01
 0.2981849045217E+01
 0.2740503951601E+01
 0.2462974725373E+01
 0.2143979891379E+01
 0.1777997726962E+01
 0.1360349960270E+01
 0.8910151601037E+00
 0.4041062843600E+00
 0.4125396982643E+01
 0.4097076273492E+01
 0.4059059034599E+01
 0.4010157991283E+01
 0.3949328804636E+01
 0.3875661571904E+01
 0.3788276362654E+01
 0.3686207613580E+01
 0.3568297885551E+01
 0.3433095565219E+01
 0.3278744726141E+01
 0.3102856760893E+01
 0.2902358510536E+01
 0.2673320809874E+01
 0.2410789498337E+01
 0.2108679171009E+01
 0.1759882632643E+01
 0.1356994316527E+01
 0.8954020836981E+00
 0.3982186279505E+00
 0.4052891600048E+01
 0.4017958457551E+01
 0.3973381840079E+01
 0.3917975450385E+01
 0.3850854711174E+01
 0.3771379805934E+01
 0.3679000454864E+01
 0.3573115470030E+01
 0.3452960716614E+01
 0.3317508526755E+01
 0.3165356321273E+01
 0.2994584445218E+01
 0.2802566498229E+01
 0.2585719566910E+01
 0.2339190675436E+01
 0.2056502429132E+01
 0.1729256952813E+01
 0.1347255757472E+01
 0.9003453846437E+00
 0.3970606622308E+00
 0.3974183012169E+01
 0.3932072243857E+01
 0.3880234218784E+01
 0.3817397724141E+01
 0.3742840318321E+01
 0.3656207114900E+01
 0.3557279432462E+01
 0.3445809443217E+01
 0.3321414684008E+01
 0.3183496799075E+01
 0.3031150407352E+01
 0.2863033343741E+01
 0.2677171875414E+01
 0.2470671634359E+01
 0.2239299003159E+01
 0.1976895261745E+01
 0.1674616053739E+01
 0.1320158121636E+01
 0.8980945079192E+00
 0.4007959901393E+00
 0.3889638485777E+01
 0.3839894087586E+01
 0.3780062247911E+01
 0.3708759014429E+01
 0.3625464931106E+01
 0.3530138795432E+01
 0.3422882293802E+01
 0.3303756307534E+01
 0.3172699079417E+01
 0.3029484243545E+01
 0.2873671263872E+01
 0.2704515841744E+01
 0.2520811052866E+01
 0.2320622162780E+01
 0.2100857330037E+01
 0.1856580140410E+01
 0.1579919466235E+01
 0.1258417152804E+01
 0.8731964301468E+00
 0.4039758691985E+00
 0.3799659484319E+01
 0.3741877735580E+01
 0.3673264142128E+01
 0.3592361500582E+01
 0.3498963607671E+01
 0.3393397031893E+01
 0.3276061758991E+01
 0.3147249404259E+01
 0.3007114014856E+01
 0.2855688358570E+01
 0.2692890926871E+01
 0.2518494335855E+01
 0.2332035588680E+01
 0.2132639131166E+01
 0.1918697357912E+01
 0.1687301178368E+01
 0.1433202973868E+01
 0.1146877395565E+01
 0.8108133372385E+00
 0.3966425145879E+00
 0.3704815501785E+01
 0.3638712907467E+01
 0.3560535408340E+01
 0.3468922065496E+01
 0.3364195421260E+01
 0.3247127639483E+01
 0.3118360799809E+01
 0.2978298070353E+01
 0.2827165596769E+01
 0.2665105890399E+01
 0.2492239356537E+01
 0.2308689319494E+01
 0.2114571618891E+01
 0.1909941576422E+01
 0.1694673365687E+01
 0.1468208163537E+01
 0.1229025639066E+01
 0.9734330796198E+00
 0.6924777727242E+00
 0.3617337545663E+00
 0.3605848308919E+01
 0.3531245729064E+01
 0.3442665253365E+01
 0.3339278582273E+01
 0.3222310828544E+01
 0.3093013637107E+01
 0.2952145398823E+01
 0.2800040053511E+01
 0.2636839907786E+01
 0.2462647859655E+01
 0.2277614902360E+01
 0.2081993876885E+01
 0.1876183202198E+01
 0.1660776764710E+01
 0.1436633536758E+01
 0.1204987272140E+01
 0.9676121871602E+00
 0.7270928827536E+00
 0.4870550803164E+00
 0.2494917169522E+00
 0.3503717770554E+01
 0.3420356867490E+01
 0.3320242930418E+01
 0.3204142146522E+01
 0.3074584352441E+01
 0.2933210259163E+01
 0.2780549766364E+01
 0.2616690439801E+01
 0.2441611113716E+01
 0.2255328791624E+01
 0.2057969431868E+01
 0.1849822420861E+01
 0.1631412162714E+01
 0.1403614830736E+01
 0.1167864151789E+01
 0.9265299842023E+00
 0.6836754711575E+00
 0.4466054612542E+00
 0.2297245337934E+00
 0.6699486286866E-01
 0.3399591855351E+01
 0.3306572804142E+01
 0.3193217585803E+01
 0.3063789908375E+01
 0.2922611773605E+01
 0.2770559006943E+01
 0.2607586633634E+01
 0.2433535812629E+01
 0.2248342337891E+01
 0.2052100314449E+01
 0.1845104919532E+01
 0.1627924264537E+01
 0.1401524746733E+01
 0.1167482328337E+01
 0.9283377131839E+00
 0.6882158384787E+00
 0.4539479132699E+00
 0.2373813875445E+00
 0.6054028913243E-01
 0.3735906452334E-01
 0.3295329372380E+01
 0.3188907919695E+01
 0.3059083869362E+01
 0.2918827144214E+01
 0.2768997804037E+01
 0.2608835475065E+01
 0.2437959376459E+01
 0.2256305373425E+01
 0.2064072356422E+01
 0.1861704847868E+01
 0.1649947292663E+01
 0.1429963218674E+01
 0.1203532658165E+01
 0.9733577333526E+00
 0.7435306894130E+00
 0.5202560344084E+00
 0.3129970330499E+00
 0.1363318842815E+00
 0.1651768801279E-01
 0.3256000742096E-01
 0.3187237691826E+01
 0.3053552802656E+01
 0.2916890594189E+01
 0.2772949869364E+01
 0.2618278246510E+01
 0.2452695682686E+01
 0.2276498175558E+01
 0.2090236361753E+01
 0.1894630951276E+01
 0.1690636659317E+01
 0.1479551388996E+01
 0.1263175836363E+01
 0.1044036980013E+01
 0.8257013488444E+00
 0.6132104436174E+00
 0.4136719538791E+00
 0.2370097167091E+00
 0.9679785844781E-01
 0.1240345647941E-01
 0.8959799955861E-02
</DataArray>
<CellData Tensors="'E_Centroid','S_Centroid'">
<DataArray type="Float64" Name="E_Centroid" NumberOfComponents="4" ComponentName0="E11" ComponentName1="E22" ComponentName2="E33" ComponentName3="E12" format="ascii">
 0.1123279017750E-02 -0.8710052043267E-02  0.0000000000000E+00 -0.2940831663589E-02
 0.1913801546014E-02 -0.7052792508855E-02  0.0000000000000E+00 -0.1404455389084E-03
 0.1582962694805E-02 -0.6450266783762E-02  0.0000000000000E+00 -0.1660232837872E-03
 0.1553537121902E-02 -0.6195906551195E-02  0.0000000000000E+00 -0.7067433335451E-04
 0.1512775884409E-02 -0.6057974794871E-02  0.0000000000000E+00 -0.3610414187772E-04
 0.1497933251925E-02 -0.5992015719768E-02  0.0000000000000E+00 -0.1336605583490E-04
 0.1491982761842E-02 -0.5969165694304E-02  0.0000000000000E+00  0.1590386938560E-05
 0.1493971582253E-02 -0.5976600491475E-02  0.0000000000000E+00  0.1266857215025E-04
 0.1501577772567E-02 -0.6007001217433E-02  0.0000000000000E+00  0.2161630551935E-04
 0.1513976526832E-02 -0.6056547719208E-02  0.0000000000000E+00  0.2953191810109E-04
 0.1530706598874E-02 -0.6123496171019E-02  0.0000000000000E+00  0.3716046869111E-04
 0.1551722666749E-02 -0.6207634209120E-02  0.0000000000000E+00  0.4510808600956E-04
 0.1577299649822E-02 -0.6310084047335E-02  0.0000000000000E+00  0.5399029003607E-04
 0.1608088975400E-02 -0.6433469614129E-02  0.0000000000000E+00  0.6461112096666E-04
 0.1645315189902E-02 -0.6582885809590E-02  0.0000000000000E+00  0.7853395380383E-04
 0.1690474697122E-02 -0.6769011622138E-02  0.0000000000000E+00  0.1048927669548E-03
 0.1743501167132E-02 -0.6997067332090E-02  0.0000000000000E+00  0.1666076265967E-03
 0.1801405263550E-02 -0.7248789741585E-02  0.0000000000000E+00  0.2813409969602E-03
 0.1860506488974E-02 -0.7502755608875E-02  0.0000000000000E+00  0.4413395439213E-03
 0.1919480894777E-02 -0.7756386449014E-02  0.0000000000000E+00  0.6276811837655E-03
 0.1979288287781E-02 -0.8016844584204E-02  0.0000000000000E+00  0.8284275427888E-03
 0.2041604976657E-02 -0.8292836493895E-02  0.0000000000000E+00  0.1039944222710E-02
 0.2107928589799E-02 -0.8591760375510E-02  0.0000000000000E+00  0.1263795812842E-02
 0.2179278176777E-02 -0.8919269135517E-02  0.0000000000000E+00  0.1504486696987E-02
 0.2256074725485E-02 -0.9279290902926E-02  0.0000000000000E+00  0.1768499723583E-02
 0.2337880030207E-02 -0.9673396384693E-02  0.0000000000000E+00  0.2063855715802E-02
 0.2423598224268E-02 -0.1009848923003E-01  0.0000000000000E+00  0.2396057529568E-02
 0.2512725399070E-02 -0.1055141533059E-01  0.0000000000000E+00  0.2764293665075E-02
 0.2605641502809E-02 -0.1103661571245E-01  0.0000000000000E+00  0.3168720918376E-02
 0.2702343410204E-02 -0.1156091129635E-01  0.0000000000000E+00  0.3617818795151E-02
 0.2801770888797E-02 -0.1212808859739E-01  0.0000000000000E+00  0.4125989042073E-02
 0.2901631453706E-02 -0.1274011534450E-01  0.0000000000000E+00  0.4711281549666E-02
 0.2998177266887E-02 -0.1339634706849E-01  0.0000000000000E+00  0.5394860244757E-02
 0.3085736019776E-02 -0.1409062194342E-01  0.0000000000000E+00  0.6195939504729E-02
 0.3163149483166E-02 -0.1480965744729E-01  0.0000000000000E+00  0.7111012223495E-02
 0.3239665091487E-02 -0.1555431428249E-01  0.0000000000000E+00  0.8077868369168E-02
 0.3403257568865E-02 -0.1646494392297E-01  0.0000000000000E+00  0.9041769497570E-02
 0.3515672392711E-02 -0.1776894553889E-01  0.0000000000000E+00  0.1024696746284E-01
 0.4487034785797E-02 -0.1999413050275E-01  0.0000000000000E+00  0.1168657054491E-01
 0.1550963443553E-02 -0.2279825738521E-01  0.0000000000000E+00  0.1855620389517E-01
 0.2015324934827E-01 -0.2587232665709E-01  0.0000000000000E+00  0.9178342038049E-02
 0.7801523305493E-03 -0.7602332641464E-02  0.0000000000000E+00 -0.3243948231066E-02
 0.1641900846929E-02 -0.7249760722884E-02  0.0000000000000E+00 -0.1388540456507E-02
 0.1647634583805E-02 -0.6623033419587E-02  0.0000000000000E+00 -0.4575059043852E-03
 0.1561088057966E-02 -0.6333128970266E-02  0.0000000000000E+00 -0.2690561893085E-03
 0.1536454815010E-02 -0.6176407744377E-02  0.0000000000000E+00 -0.1336245056093E-03
 0.1517189804843E-02 -0.6092782079030E-02  0.0000000000000E+00 -0.6017764251656E-04
 0.1510205971799E-02 -0.6056612701134E-02  0.0000000000000E+00 -0.1001279104811E-04
 0.1510194628937E-02 -0.6053181395071E-02  0.0000000000000E+00  0.2639058847070E-04
 0.1516067598742E-02 -0.6074643290490E-02  0.0000000000000E+00  0.5548923035473E-04
 0.1526767638029E-02 -0.6116611863599E-02  0.0000000000000E+00  0.8082117356550E-04
 0.1541859011013E-02 -0.6176943625323E-02  0.0000000000000E+00  0.1048262091924E-03
 0.1561219156940E-02 -0.6255077952610E-02  0.0000000000000E+00  0.1294216476963E-03
 0.1585012350189E-02 -0.6351788124484E-02  0.0000000000000E+00  0.1564829436334E-03
 0.1613721529143E-02 -0.6469267191227E-02  0.0000000000000E+00  0.1883653249092E-03
 0.1647640114348E-02 -0.6611523931718E-02  0.0000000000000E+00  0.2299692998289E-03
 0.1685623796689E-02 -0.6783181832278E-02  0.0000000000000E+00  0.2908018491273E-03
 0.1726190968235E-02 -0.6983783851424E-02  0.0000000000000E+00  0.3813149160719E-03
 0.1769818134401E-02 -0.7204141801005E-02  0.0000000000000E+00  0.5072378886561E-03
 0.1817242960375E-02 -0.7433552809020E-02  0.0000000000000E+00  0.6676200904296E-03
 0.1867587322432E-02 -0.7668257014307E-02  0.0000000000000E+00  0.8558053399199E-03
 0.1919936054329E-02 -0.7911091572844E-02  0.0000000000000E+00  0.1064437461351E-02
 0.1974317142608E-02 -0.8167409823559E-02  0.0000000000000E+00  0.1289877535411E-02
 0.2031140728794E-02 -0.8442436961319E-02  0.0000000000000E+00  0.1532193065551E-02
 0.2090698114407E-02 -0.8740253002618E-02  0.0000000000000E+00  0.1794031085137E-02
 0.2152814987946E-02 -0.9063355188422E-02  0.0000000000000E+00  0.2079635208015E-02
 0.2216960738378E-02 -0.9412152139196E-02  0.0000000000000E+00  0.2393297582546E-02
 0.2282952128210E-02 -0.9785064245815E-02  0.0000000000000E+00  0.2737749741278E-02
 0.2350708951690E-02 -0.1018053043195E-01  0.0000000000000E+00  0.3114971695862E-02
 0.2419099616722E-02 -0.1059890871988E-01  0.0000000000000E+00  0.3528187905993E-02
 0.2486032640309E-02 -0.1104132352139E-01  0.0000000000000E+00  0.3983142685827E-02
 0.2548866723443E-02 -0.1150723526039E-01  0.0000000000000E+00  0.4488910418979E-02
 0.2603911651516E-02 -0.1199313396987E-01  0.0000000000000E+00  0.5056934910339E-02
 0.2646236940171E-02 -0.1249159954469E-01  0.0000000000000E+00  0.5698162437694E-02
 0.2672061961906E-02 -0.1299055441013E-01  0.0000000000000E+00  0.6416951928851E-02
 0.2683763429558E-02 -0.1347689681671E-01  0.0000000000000E+00  0.7202868786352E-02
 0.2702586130649E-02 -0.1395435969358E-01  0.0000000000000E+00  0.8037686204832E-02
 0.2703059568438E-02 -0.1444867885704E-01  0.0000000000000E+00  0.8973715957101E-02
 0.2752055099803E-02 -0.1498207156344E-01  0.0000000000000E+00  0.9961523638579E-02
 0.2365291572760E-02 -0.1543772596578E-01  0.0000000000000E+00  0.1188691715382E-01
 0.1227091203597E-02 -0.1365475772268E-01  0.0000000000000E+00  0.1062378378551E-01
 0.1690800825146E-01 -0.1480279598196E-01  0.0000000000000E+00 -0.3056935986082E-02
 0.5674267139648E-03 -0.7026362353729E-02  0.0000000000000E+00 -0.3146310410685E-02
 0.1368736157348E-02 -0.7074366269021E-02  0.0000000000000E+00 -0.1964037453562E-02
 0.1588453684470E-02 -0.6723417090336E-02  0.0000000000000E+00 -0.8860432259225E-03
 0.1560949122088E-02 -0.6431864846156E-02  0.0000000000000E+00 -0.4576713337638E-03
 0.1540243924734E-02 -0.6271668137968E-02  0.0000000000000E+00 -0.2502708925706E-03
 0.1527806474622E-02 -0.6179213623239E-02  0.0000000000000E+00 -0.1184512772106E-03
 0.1521373142770E-02 -0.6133879304669E-02  0.0000000000000E+00 -0.3200759069395E-04
 0.1521301094684E-02 -0.6122039938374E-02  0.0000000000000E+00  0.3154754428579E-04
 0.1526267793200E-02 -0.6135891448011E-02  0.0000000000000E+00  0.8200503410599E-04
 0.1535728036585E-02 -0.6170940372651E-02  0.0000000000000E+00  0.1256603076063E-03
 0.1549290766805E-02 -0.6224822718230E-02  0.0000000000000E+00  0.1666356334269E-03
 0.1566829904585E-02 -0.6296706477494E-02  0.0000000000000E+00  0.2081728437395E-03
 0.1588398281941E-02 -0.6387001139610E-02  0.0000000000000E+00  0.2533267239385E-03
 0.1614110318361E-02 -0.6497287318491E-02  0.0000000000000E+00  0.3058973740925E-03
 0.1643338685820E-02 -0.6629874617595E-02  0.0000000000000E+00  0.3719294575843E-03
 0.1673976172819E-02 -0.6786021493811E-02  0.0000000000000E+00  0.4588027752874E-03
 0.1704614367568E-02 -0.6963825536052E-02  0.0000000000000E+00  0.5708703143816E-03
 0.1737069420838E-02 -0.7158382477919E-02  0.0000000000000E+00  0.7092914119633E-03
 0.1773832884452E-02 -0.7364348293617E-02  0.0000000000000E+00  0.8750809994951E-03
 0.1814854012433E-02 -0.7578769211694E-02  0.0000000000000E+00  0.1067502046198E-02
 0.1858669549894E-02 -0.7802182039482E-02  0.0000000000000E+00  0.1283313635840E-02
 0.1904245698851E-02 -0.8037410915470E-02  0.0000000000000E+00  0.1519754786461E-02
 0.1951108723624E-02 -0.8287742724248E-02  0.0000000000000E+00  0.1776094258368E-02
 0.1998905970791E-02 -0.8555786959416E-02  0.0000000000000E+00  0.2053450159827E-02
 0.2047089934004E-02 -0.8842854302757E-02  0.0000000000000E+00  0.2353933777094E-02
 0.2095147350685E-02 -0.9148747408399E-02  0.0000000000000E+00  0.2679357033982E-02
 0.2143086203173E-02 -0.9472237692642E-02  0.0000000000000E+00  0.3030979165989E-02
 0.2190673560269E-02 -0.9811667158974E-02  0.0000000000000E+00  0.3410956553127E-02
 0.2236074009208E-02 -0.1016500260352E-01  0.0000000000000E+00  0.3822528525955E-02
 0.2276119980201E-02 -0.1052951370614E-01  0.0000000000000E+00  0.4269123380486E-02
 0.2307109267165E-02 -0.1090072583758E-01  0.0000000000000E+00  0.4754806085074E-02
 0.2324654455746E-02 -0.1127089289622E-01  0.0000000000000E+00  0.5283703964897E-02
 0.2324123347302E-02 -0.1162795348930E-01  0.0000000000000E+00  0.5856642549061E-02
 0.2303061997182E-02 -0.1195578279061E-01  0.0000000000000E+00  0.6466562581119E-02
 0.2267374265313E-02 -0.1223795186156E-01  0.0000000000000E+00  0.7096857528619E-02
 0.2221574305171E-02 -0.1245929150666E-01  0.0000000000000E+00  0.7744419228564E-02
 0.2152553723834E-02 -0.1257554663177E-01  0.0000000000000E+00  0.8390535520987E-02
 0.2007273572220E-02 -0.1248383275328E-01  0.0000000000000E+00  0.9013671909397E-02
 0.1492017012747E-02 -0.1161040354570E-01  0.0000000000000E+00  0.9084107742903E-02
 0.2465645667007E-02 -0.9463149045042E-02  0.0000000000000E+00  0.3818068382557E-02
 0.1620597675417E-01 -0.1106661431397E-01  0.0000000000000E+00 -0.6933381008016E-02
 0.4356286057542E-03 -0.6677962583515E-02  0.0000000000000E+00 -0.2973044401265E-02
 0.1147458588866E-02 -0.6863023393730E-02  0.0000000000000E+00 -0.2200381835252E-02
 0.1476447414867E-02 -0.6719947166159E-02  0.0000000000000E+00 -0.1223645304347E-02
 0.1530853773821E-02 -0.6496381432410E-02  0.0000000000000E+00 -0.6602185951680E-03
 0.1531012915573E-02 -0.6343122738587E-02  0.0000000000000E+00 -0.3675688669143E-03
 0.1527739241587E-02 -0.6250533125679E-02  0.0000000000000E+00 -0.1852672519175E-03
 0.1525620779976E-02 -0.6200418354182E-02  0.0000000000000E+00 -0.6131924113816E-04
 0.1526931391924E-02 -0.6182711167452E-02  0.0000000000000E+00  0.2959570433189E-04
 0.1532008244546E-02 -0.6190407081239E-02  0.0000000000000E+00  0.1020146949465E-03
 0.1540715558134E-02 -0.6219293365650E-02  0.0000000000000E+00  0.1644109808594E-03
 0.1552927410715E-02 -0.6266989607928E-02  0.0000000000000E+00  0.2225931421315E-03
 0.1568554786029E-02 -0.6332480087750E-02  0.0000000000000E+00  0.2810293420090E-03
 0.1587541458372E-02 -0.6415820939128E-02  0.0000000000000E+00  0.3438458239153E-03
 0.1609614723229E-02 -0.6517867006656E-02  0.0000000000000E+00  0.4157924639158E-03
 0.1633571647235E-02 -0.6639487977381E-02  0.0000000000000E+00  0.5028472724420E-03
 0.1657158178265E-02 -0.6780253164840E-02  0.0000000000000E+00  0.6102851395590E-03
 0.1679379673817E-02 -0.6938071173819E-02  0.0000000000000E+00  0.7395530809521E-03
 0.1702500162710E-02 -0.7110237339777E-02  0.0000000000000E+00  0.8901189580807E-03
 0.1729573315220E-02 -0.7294162291002E-02  0.0000000000000E+00  0.1063493675662E-02
 0.1761178249851E-02 -0.7487837727558E-02  0.0000000000000E+00  0.1261581964463E-02
 0.1795897102205E-02 -0.7690752142777E-02  0.0000000000000E+00  0.1483930792751E-02
 0.1832158066649E-02 -0.7903966798784E-02  0.0000000000000E+00  0.1728903327725E-02
 0.1868852009597E-02 -0.8129161052557E-02  0.0000000000000E+00  0.1995415128807E-02
 0.1905132005582E-02 -0.8367652800116E-02  0.0000000000000E+00  0.2283360901040E-02
 0.1940205142799E-02 -0.8619793945551E-02  0.0000000000000E+00  0.2593085849513E-02
 0.1973531526705E-02 -0.8884867173589E-02  0.0000000000000E+00  0.2924616130147E-02
 0.2005028988353E-02 -0.9161420804637E-02  0.0000000000000E+00  0.3277946369661E-02
 0.2034192138907E-02 -0.9447178938224E-02  0.0000000000000E+00  0.3654211658963E-02
 0.2058862878729E-02 -0.9738432317642E-02  0.0000000000000E+00  0.4055173088232E-02
 0.2075461979604E-02 -0.1002982127144E-01  0.0000000000000E+00  0.4481528075709E-02
 0.2079869897676E-02 -0.1031385917782E-01  0.0000000000000E+00  0.4932494422979E-02
 0.2067774407751E-02 -0.1057972294328E-01  0.0000000000000E+00  0.5404936064009E-02
 0.2035488237892E-02 -0.1081236848439E-01  0.0000000000000E+00  0.5890316478682E-02
 0.1982719811123E-02 -0.1099291071581E-01  0.0000000000000E+00  0.6371045996920E-02
 0.1914858735556E-02 -0.1109988906206E-01  0.0000000000000E+00  0.6822937582691E-02
 0.1835411204545E-02 -0.1110054014194E-01  0.0000000000000E+00  0.7218367003201E-02
 0.1733464839033E-02 -0.1092046072847E-01  0.0000000000000E+00  0.7489273796535E-02
 0.1566725285091E-02 -0.1037260268549E-01  0.0000000000000E+00  0.7397116250591E-02
 0.1500123612625E-02 -0.9067068148467E-02  0.0000000000000E+00  0.5733791090370E-02
 0.3993880933965E-02 -0.7595467116647E-02  0.0000000000000E+00 -0.6574290390460E-03
 0.1563770113878E-01 -0.9552809925018E-02  0.0000000000000E+00 -0.7844061275306E-02
 0.3504669482544E-03 -0.6447838629495E-02  0.0000000000000E+00 -0.2793251923233E-02
 0.9764382177962E-03 -0.6677693617803E-02  0.0000000000000E+00 -0.2268793599497E-02
 0.1351699421118E-02 -0.6664469094717E-02  0.0000000000000E+00 -0.1446971025387E-02
 0.1476185290498E-02 -0.6522588706885E-02  0.0000000000000E+00 -0.8431843789208E-03
 0.1508118938542E-02 -0.6393249671605E-02  0.0000000000000E+00 -0.4829766043305E-03
 0.1518081259155E-02 -0.6306544979666E-02  0.0000000000000E+00 -0.2542877199947E-03
 0.1522709875544E-02 -0.6256066372074E-02  0.0000000000000E+00 -0.9562024992731E-04
 0.1527080990166E-02 -0.6234962087521E-02  0.0000000000000E+00  0.2222442191142E-04
 0.1533190442038E-02 -0.6237994601886E-02  0.0000000000000E+00  0.1164031202426E-03
 0.1541681258994E-02 -0.6261535863451E-02  0.0000000000000E+00  0.1975136754661E-03
 0.1552761351992E-02 -0.6303386582420E-02  0.0000000000000E+00  0.2727763012263E-03
 0.1566455807171E-02 -0.6362443961131E-02  0.0000000000000E+00  0.3477640837755E-03
 0.1582622637309E-02 -0.6438441925938E-02  0.0000000000000E+00  0.4274723509764E-03
 0.1600702863643E-02 -0.6531563431485E-02  0.0000000000000E+00  0.5171397670281E-03
 0.1619241411324E-02 -0.6641667901498E-02  0.0000000000000E+00  0.6222177309175E-03
 0.1636191036688E-02 -0.6767535495078E-02  0.0000000000000E+00  0.7464249684717E-03
 0.1650976669710E-02 -0.6907245101362E-02  0.0000000000000E+00  0.8899149713164E-03
 0.1665922877835E-02 -0.7059265116082E-02  0.0000000000000E+00  0.1051660227745E-02
 0.1684117345145E-02 -0.7222430933446E-02  0.0000000000000E+00  0.1233203671382E-02
 0.1706519548806E-02 -0.7395441186923E-02  0.0000000000000E+00  0.1437464893534E-02
 0.1731967697864E-02 -0.7577349331704E-02  0.0000000000000E+00  0.1665609952194E-02
 0.1758712517022E-02 -0.7768064263612E-02  0.0000000000000E+00  0.1916954951352E-02
 0.1785260489101E-02 -0.7968008633320E-02  0.0000000000000E+00  0.2190292603080E-02
 0.1810429101805E-02 -0.8177424961903E-02  0.0000000000000E+00  0.2484569986250E-02
 0.1833261627916E-02 -0.8395868944930E-02  0.0000000000000E+00  0.2798719136644E-02
 0.1853156644831E-02 -0.8622103289975E-02  0.0000000000000E+00  0.3131332228410E-02
 0.1869869326629E-02 -0.8854218050595E-02  0.0000000000000E+00  0.3481091080522E-02
 0.1882672281894E-02 -0.9089210382153E-02  0.0000000000000E+00  0.3847517082764E-02
 0.1889340509108E-02 -0.9322143210590E-02  0.0000000000000E+00  0.4230144824072E-02
 0.1886346403743E-02 -0.9545895066374E-02  0.0000000000000E+00  0.4626549577128E-02
 0.1869758682529E-02 -0.9750930037580E-02  0.0000000000000E+00  0.5031204731727E-02
 0.1835967158972E-02 -0.9924466420911E-02  0.0000000000000E+00  0.5434186561942E-02
 0.1782925894319E-02 -0.1004983861904E-01  0.0000000000000E+00  0.5818329586632E-02
 0.1712555854273E-02 -0.1010664288839E-01  0.0000000000000E+00  0.6156472030024E-02
 0.1631973925198E-02 -0.1006957488934E-01  0.0000000000000E+00  0.6411101881720E-02
 0.1549563586857E-02 -0.9898413621080E-02  0.0000000000000E+00  0.6525734580118E-02
 0.1470994434241E-02 -0.9508980139322E-02  0.0000000000000E+00  0.6368281191870E-02
 0.1446076556586E-02 -0.8738637541191E-02  0.0000000000000E+00  0.5522774535329E-02
 0.1972475608284E-02 -0.7503085891957E-02  0.0000000000000E+00  0.2775007593894E-02
 0.5311773179774E-02 -0.6776199745063E-02  0.0000000000000E+00 -0.3316819675273E-02
 0.1510462131035E-01 -0.8781697149414E-02  0.0000000000000E+00 -0.7855582069732E-02
 0.2927888473608E-03 -0.6286771755835E-02  0.0000000000000E+00 -0.2622993675657E-02
 0.8449525550871E-03 -0.6525849043057E-02  0.0000000000000E+00 -0.2252680124245E-02
 0.1232029592981E-02 -0.6589583046005E-02  0.0000000000000E+00 -0.1577881242431E-02
 0.1407240172703E-02 -0.6519367529308E-02  0.0000000000000E+00 -0.9891647000547E-03
 0.1472989080426E-02 -0.6423210284820E-02  0.0000000000000E+00 -0.5891400817735E-03
 0.1499658530846E-02 -0.6348235859564E-02  0.0000000000000E+00 -0.3217709173249E-03
 0.1512984868193E-02 -0.6300930207284E-02  0.0000000000000E+00 -0.1321275176192E-03
 0.1521823513192E-02 -0.6278795334818E-02  0.0000000000000E+00  0.1095210192366E-04
 0.1529855672492E-02 -0.6278599811169E-02  0.0000000000000E+00  0.1261172843759E-03
 0.1538649917231E-02 -0.6297636171873E-02  0.0000000000000E+00  0.2254483078657E-03
 0.1548851388865E-02 -0.6334039178453E-02  0.0000000000000E+00  0.3173338425764E-03
 0.1560654485040E-02 -0.6386718205898E-02  0.0000000000000E+00  0.4082436429772E-03
 0.1573889752525E-02 -0.6455149726228E-02  0.0000000000000E+00  0.5038142215731E-03
 0.1587846954991E-02 -0.6538987898623E-02  0.0000000000000E+00  0.6094566333516E-03
 0.1601049110273E-02 -0.6637454888023E-02  0.0000000000000E+00  0.7300137191162E-03
 0.1611784269278E-02 -0.6749006603063E-02  0.0000000000000E+00  0.8681829051277E-03
 0.1619819871241E-02 -0.6871961218445E-02  0.0000000000000E+00  0.1023639012718E-02
 0.1627378167836E-02 -0.7005417154236E-02  0.0000000000000E+00  0.1195356339197E-02
 0.1637361694894E-02 -0.7148930462599E-02  0.0000000000000E+00  0.1384768991867E-02
 0.1650923089104E-02 -0.7301651810856E-02  0.0000000000000E+00  0.1595015134833E-02
 0.1667198947874E-02 -0.7462472166422E-02  0.0000000000000E+00  0.1828048243137E-02
 0.1684480913598E-02 -0.7630575120459E-02  0.0000000000000E+00  0.2083819769832E-02
 0.1701104414394E-02 -0.7805450780992E-02  0.0000000000000E+00  0.2361069114814E-02
 0.1715698617116E-02 -0.7986482134658E-02  0.0000000000000E+00  0.2658009772849E-02
 0.1727211761864E-02 -0.8172559316930E-02  0.0000000000000E+00  0.2972430781519E-02
 0.1734984870674E-02 -0.8361941730115E-02  0.0000000000000E+00  0.3301671911430E-02
 0.1738639305270E-02 -0.8552208413395E-02  0.0000000000000E+00  0.3643026218342E-02
 0.1737342598290E-02 -0.8739693490873E-02  0.0000000000000E+00  0.3994117288169E-02
 0.1729013411026E-02 -0.8918593363638E-02  0.0000000000000E+00  0.4351912643313E-02
 0.1710528090978E-02 -0.9080693530642E-02  0.0000000000000E+00  0.4710669324582E-02
 0.1678634967677E-02 -0.9215275655574E-02  0.0000000000000E+00  0.5060313648835E-02
 0.1630976984031E-02 -0.9308618954619E-02  0.0000000000000E+00  0.5384756650501E-02
 0.1567636190014E-02 -0.9343636147398E-02  0.0000000000000E+00  0.5659209805293E-02
 0.1493414619700E-02 -0.9299765282950E-02  0.0000000000000E+00  0.5847308544747E-02
 0.1419542354656E-02 -0.9151164981065E-02  0.0000000000000E+00  0.5897369292044E-02
 0.1364102415620E-02 -0.8858448772473E-02  0.0000000000000E+00  0.5725894523847E-02
 0.1363779482995E-02 -0.8350266188430E-02  0.0000000000000E+00  0.5147849003274E-02
 0.1569120921253E-02 -0.7542036934994E-02  0.0000000000000E+00  0.3692907541840E-02
 0.2624598037551E-02 -0.6575395432874E-02  0.0000000000000E+00  0.4497303188745E-03
 0.6336943897072E-02 -0.6414583261756E-02  0.0000000000000E+00 -0.4834159345575E-02
 0.1460402783614E-01 -0.8318397252729E-02  0.0000000000000E+00 -0.7605522355643E-02
 0.2519545654151E-03 -0.6169231606097E-02  0.0000000000000E+00 -0.2465229904299E-02
 0.7429416805529E-03 -0.6403418245788E-02  0.0000000000000E+00 -0.2193640687190E-02
 0.1124029092351E-02 -0.6511374249661E-02  0.0000000000000E+00 -0.1642091474597E-02
 0.1332378989365E-02 -0.6497161657247E-02  0.0000000000000E+00 -0.1095067582834E-02
 0.1428635935426E-02 -0.6435870856499E-02  0.0000000000000E+00 -0.6798994608324E-03
 0.1473530744026E-02 -0.6376776370636E-02  0.0000000000000E+00 -0.3844310453757E-03
 0.1497010401068E-02 -0.6335531366661E-02  0.0000000000000E+00 -0.1685345418836E-03
 0.1511409434327E-02 -0.6314393515638E-02  0.0000000000000E+00 -0.2726554441307E-05
 0.1522140277251E-02 -0.6312309007574E-02  0.0000000000000E+00  0.1320656173524E-03
 0.1531725590519E-02 -0.6327659785588E-02  0.0000000000000E+00  0.2487267307715E-03
 0.1541314717502E-02 -0.6359050124541E-02  0.0000000000000E+00  0.3564697466509E-03
 0.1551324258630E-02 -0.6405490227230E-02  0.0000000000000E+00  0.4624295795897E-03
 0.1561626804536E-02 -0.6466288477949E-02  0.0000000000000E+00  0.5726607740385E-03
 0.1571488175099E-02 -0.6540734552779E-02  0.0000000000000E+00  0.6925604696856E-03
 0.1579554067579E-02 -0.6627688764869E-02  0.0000000000000E+00  0.8264322244807E-03
 0.1584473833812E-02 -0.6725518585486E-02  0.0000000000000E+00  0.9763555536281E-03
 0.1586275867179E-02 -0.6832760808214E-02  0.0000000000000E+00  0.1141929384203E-02
 0.1587022386766E-02 -0.6948845123434E-02  0.0000000000000E+00  0.1322319717357E-02
 0.1589357910096E-02 -0.7073667833677E-02  0.0000000000000E+00  0.1518815557695E-02
 0.1594510561165E-02 -0.7206637593797E-02  0.0000000000000E+00  0.1734391876379E-02
 0.1601895133856E-02 -0.7346594340256E-02  0.0000000000000E+00  0.1971247533115E-02
 0.1609965516466E-02 -0.7492277846793E-02  0.0000000000000E+00  0.2229651517869E-02
 0.1617048830329E-02 -0.7642516571742E-02  0.0000000000000E+00  0.2508265232921E-02
 0.1621713717621E-02 -0.7796032773340E-02  0.0000000000000E+00  0.2804710764892E-02
 0.1622882392872E-02 -0.7951171665785E-02  0.0000000000000E+00  0.3115823420601E-02
 0.1619876356741E-02 -0.8105740724218E-02  0.0000000000000E+00  0.3437795122526E-02
 0.1612260563795E-02 -0.8256853793828E-02  0.0000000000000E+00  0.3766488698721E-02
 0.1599236631059E-02 -0.8400323493462E-02  0.0000000000000E+00  0.4097527217996E-02
 0.1579053525390E-02 -0.8529802415517E-02  0.0000000000000E+00  0.4425217675554E-02
 0.1549266943852E-02 -0.8636527982920E-02  0.0000000000000E+00  0.4740507951150E-02
 0.1507691190785E-02 -0.8709340247528E-02  0.0000000000000E+00  0.5029098938302E-02
 0.1453650483590E-02 -0.8734474028467E-02  0.0000000000000E+00  0.5269500799984E-02
 0.1389781661332E-02 -0.8695472218242E-02  0.0000000000000E+00  0.5430389755328E-02
 0.1324535548750E-02 -0.8573157680483E-02  0.0000000000000E+00  0.5467275771281E-02
 0.1275079933119E-02 -0.8344400024808E-02  0.0000000000000E+00  0.5316375504923E-02
 0.1272717866168E-02 -0.7977540208722E-02  0.0000000000000E+00  0.4874165970639E-02
 0.1389161567459E-02 -0.7428685623936E-02  0.0000000000000E+00  0.3931671140881E-02
 0.1847312338887E-02 -0.6695205151669E-02  0.0000000000000E+00  0.2063474990569E-02
 0.3305023797252E-02 -0.6036061799759E-02  0.0000000000000E+00 -0.1279861376606E-02
 0.7102488928283E-02 -0.6254919572632E-02  0.0000000000000E+00 -0.5668430538363E-02
 0.1414572932744E-01 -0.8003376650343E-02  0.0000000000000E+00 -0.7301240017464E-02
 0.2218705907522E-03 -0.6080668404418E-02  0.0000000000000E+00 -0.2319452339328E-02
 0.6626381161745E-03 -0.6304636312323E-02  0.0000000000000E+00 -0.2113105809454E-02
 0.1029170774787E-02 -0.6436995666248E-02  0.0000000000000E+00 -0.1660228777707E-02
 0.1257077883911E-02 -0.6464117016880E-02  0.0000000000000E+00 -0.1164649260916E-02
 0.1378323004035E-02 -0.6434972052105E-02  0.0000000000000E+00 -0.7522288341937E-03
 0.1441088986106E-02 -0.6393682947928E-02  0.0000000000000E+00 -0.4395975099683E-03
 0.1475493352514E-02 -0.6360622510527E-02  0.0000000000000E+00 -0.2029612245964E-03
 0.1496225180764E-02 -0.6342124903738E-02  0.0000000000000E+00 -0.1748099323322E-04
 0.1510272713500E-02 -0.6339327530932E-02  0.0000000000000E+00  0.1351091987488E-03
 0.1521080031312E-02 -0.6351762962172E-02  0.0000000000000E+00  0.2678627088421E-03
 0.1530321593927E-02 -0.6378591478349E-02  0.0000000000000E+00  0.3904331208531E-03
 0.1538678915832E-02 -0.6419003177135E-02  0.0000000000000E+00  0.5103722371106E-03
 0.1546133708929E-02 -0.6472233335777E-02  0.0000000000000E+00  0.6339569766046E-03
 0.1552029717192E-02 -0.6537358056067E-02  0.0000000000000E+00  0.7664678523492E-03
 0.1555218187383E-02 -0.6613066067769E-02  0.0000000000000E+00  0.9117785070567E-03
 0.1554693195135E-02 -0.6697753969978E-02  0.0000000000000E+00  0.1071623374810E-02
 0.1550679371702E-02 -0.6790136360387E-02  0.0000000000000E+00  0.1245711571315E-02
 0.1545071495249E-02 -0.6889807494686E-02  0.0000000000000E+00  0.1433452278548E-02
 0.1540252186331E-02 -0.6996798110671E-02  0.0000000000000E+00  0.1635984532748E-02
 0.1537460773235E-02 -0.7110644589646E-02  0.0000000000000E+00  0.1855945791540E-02
 0.1536354565153E-02 -0.7230177282690E-02  0.0000000000000E+00  0.2095445596937E-02
 0.1535611950190E-02 -0.7353874060508E-02  0.0000000000000E+00  0.2354808810366E-02
 0.1533667929027E-02 -0.7480115125641E-02  0.0000000000000E+00  0.2632552035641E-02
 0.1529136943364E-02 -0.7607137194941E-02  0.0000000000000E+00  0.2925787532371E-02
 0.1520986171240E-02 -0.7732858888173E-02  0.0000000000000E+00  0.3230524538758E-02
 0.1508578046701E-02 -0.7854716253230E-02  0.0000000000000E+00  0.3541881052950E-02
 0.1491519141314E-02 -0.7969456085635E-02  0.0000000000000E+00  0.3854295092039E-02
 0.1469185685148E-02 -0.8072543567033E-02  0.0000000000000E+00  0.4161404427796E-02
 0.1440321527679E-02 -0.8157382212317E-02  0.0000000000000E+00  0.4454924377445E-02
 0.1403377454117E-02 -0.8215115346883E-02  0.0000000000000E+00  0.4722669764720E-02
 0.1357520736606E-02 -0.8234758334308E-02  0.0000000000000E+00  0.4946565363698E-02
 0.1304069850393E-02 -0.8203252144162E-02  0.0000000000000E+00  0.5100580511977E-02
 0.1248555029409E-02 -0.8105689185903E-02  0.0000000000000E+00  0.5148111523771E-02
 0.1203648926072E-02 -0.7925681371928E-02  0.0000000000000E+00  0.5038367050518E-02
 0.1193526328580E-02 -0.7645382401495E-02  0.0000000000000E+00  0.4699267572107E-02
 0.1263783162238E-02 -0.7245391241832E-02  0.0000000000000E+00  0.4017663728747E-02
 0.1516008471872E-02 -0.6713437198829E-02  0.0000000000000E+00  0.2790565177033E-02
 0.2209822607395E-02 -0.6109446323973E-02  0.0000000000000E+00  0.6886541684792E-03
 0.3943297057906E-02 -0.5728942034568E-02  0.0000000000000E+00 -0.2526984468835E-02
 0.7664997190757E-02 -0.6185753460790E-02  0.0000000000000E+00 -0.6098819179268E-02
 0.1373165280857E-01 -0.7771351224105E-02  0.0000000000000E+00 -0.7004143814722E-02
 0.1989146259019E-03 -0.6012209137845E-02  0.0000000000000E+00 -0.2184335790456E-02
 0.5983699044729E-03 -0.6224366357387E-02  0.0000000000000E+00 -0.2022431612024E-02
 0.9467812382661E-03 -0.6369182804050E-02  0.0000000000000E+00 -0.1647213154045E-02
 0.1184509780480E-02 -0.6425751361118E-02  0.0000000000000E+00 -0.1203952800251E-02
 0.1324857732877E-02 -0.6424145031901E-02  0.0000000000000E+00 -0.8057341108888E-03
 0.1403863479504E-02 -0.6400729646936E-02  0.0000000000000E+00 -0.4855565668044E-03
 0.1449252382484E-02 -0.6377120120449E-02  0.0000000000000E+00 -0.2339390333630E-03
 0.1476751368679E-02 -0.6362499211555E-02  0.0000000000000E+00 -0.3219499365478E-04
 0.1494559182286E-02 -0.6359966270715E-02  0.0000000000000E+00  0.1360286284558E-03
 0.1506943269973E-02 -0.6370180770270E-02  0.0000000000000E+00  0.2833550665170E-03
 0.1516086976439E-02 -0.6392895920142E-02  0.0000000000000E+00  0.4195045106581E-03
 0.1522962204222E-02 -0.6427543481946E-02  0.0000000000000E+00  0.5521982110550E-03
 0.1527714908696E-02 -0.6473373095798E-02  0.0000000000000E+00  0.6877692661376E-03
 0.1529840036300E-02 -0.6529371238894E-02  0.0000000000000E+00  0.8313252564442E-03
 0.1528436511743E-02 -0.6594182156133E-02  0.0000000000000E+00  0.9864111316007E-03
 0.1522812169942E-02 -0.6666288774009E-02  0.0000000000000E+00  0.1154587033104E-02
 0.1513342464303E-02 -0.6744545778547E-02  0.0000000000000E+00  0.1335743502336E-02
 0.1501771073145E-02 -0.6828620085631E-02  0.0000000000000E+00  0.1529522671117E-02
 0.1490246129057E-02 -0.6918568305658E-02  0.0000000000000E+00  0.1736915914371E-02
 0.1479990103831E-02 -0.7013974463343E-02  0.0000000000000E+00  0.1960152875406E-02
 0.1470870240932E-02 -0.7113673810171E-02  0.0000000000000E+00  0.2201057419473E-02
 0.1461818486382E-02 -0.7216000719365E-02  0.0000000000000E+00  0.2459816341337E-02
 0.1451457385962E-02 -0.7319050475717E-02  0.0000000000000E+00  0.2734725378869E-02
 0.1438533277962E-02 -0.7420724700776E-02  0.0000000000000E+00  0.3022427221727E-02
 0.1422128808099E-02 -0.7518631617266E-02  0.0000000000000E+00  0.3318191621259E-02
 0.1401719217459E-02 -0.7609934942181E-02  0.0000000000000E+00  0.3616128359237E-02
 0.1377055641525E-02 -0.7691137854335E-02  0.0000000000000E+00  0.3909299870785E-02
 0.1347819749445E-02 -0.7757540599348E-02  0.0000000000000E+00  0.4189455329894E-02
 0.1313390543201E-02 -0.7802563710168E-02  0.0000000000000E+00  0.4445897343088E-02
 0.1273276984440E-02 -0.7817634448664E-02  0.0000000000000E+00  0.4663609147511E-02
 0.1228196637221E-02 -0.7792442935714E-02  0.0000000000000E+00  0.4821290776209E-02
 0.1181664402589E-02 -0.7715240801771E-02  0.0000000000000E+00  0.4889305636137E-02
 0.1142304321474E-02 -0.7573415008313E-02  0.0000000000000E+00  0.4827189927060E-02
 0.1127270012147E-02 -0.7354437735390E-02  0.0000000000000E+00  0.4580156561046E-02
 0.1167939166903E-02 -0.7047387599967E-02  0.0000000000000E+00  0.4072489025008E-02
 0.1322821427264E-02 -0.6646850230351E-02  0.0000000000000E+00  0.3192223984113E-02
 0.1713815327955E-02 -0.6168895299603E-02  0.0000000000000E+00  0.1763909242448E-02
 0.2607721920542E-02 -0.5711848208371E-02  0.0000000000000E+00 -0.4321362308528E-03
 0.4512484549334E-02 -0.5560264519458E-02  0.0000000000000E+00 -0.3406266983508E-02
 0.8075976442897E-02 -0.6158189985689E-02  0.0000000000000E+00 -0.6288732844259E-02
 0.1335936454622E-01 -0.7592189238747E-02  0.0000000000000E+00 -0.6728140672494E-02
 0.1808521994926E-03 -0.5958155285900E-02  0.0000000000000E+00 -0.2058507621123E-02
 0.5460602839208E-03 -0.6158499696471E-02  0.0000000000000E+00 -0.1927763090709E-02
 0.8754205842080E-03 -0.6308576523211E-02  0.0000000000000E+00 -0.1613436109822E-02
 0.1116295631264E-02 -0.6385535786008E-02  0.0000000000000E+00 -0.1219155085170E-02
 0.1270382076014E-02 -0.6406446315467E-02  0.0000000000000E+00 -0.8416553974983E-03
 0.1363322880537E-02 -0.6399738624656E-02  0.0000000000000E+00 -0.5215673762852E-03
 0.1419162787221E-02 -0.6386047738190E-02  0.0000000000000E+00 -0.2604408795416E-03
 0.1453531192843E-02 -0.6376126148196E-02  0.0000000000000E+00 -0.4598012956379E-04
 0.1475364465157E-02 -0.6374621505319E-02  0.0000000000000E+00  0.1354998759491E-03
 0.1489593065624E-02 -0.6383214896255E-02  0.0000000000000E+00  0.2956721851201E-03
 0.1498861722119E-02 -0.6402246592295E-02  0.0000000000000E+00  0.4439830165863E-03
 0.1504439092848E-02 -0.6431429856910E-02  0.0000000000000E+00  0.5880937507537E-03
 0.1506673589346E-02 -0.6470100358927E-02  0.0000000000000E+00  0.7342536190050E-03
 0.1505258777467E-02 -0.6517249683104E-02  0.0000000000000E+00  0.8873631125804E-03
 0.1499557705241E-02 -0.6571560448071E-02  0.0000000000000E+00  0.1050715069220E-02
 0.1489159056842E-02 -0.6631628657977E-02  0.0000000000000E+00  0.1225793266988E-02
 0.1474559849003E-02 -0.6696420744284E-02  0.0000000000000E+00  0.1412680509972E-02
 0.1457379382670E-02 -0.6765628088733E-02  0.0000000000000E+00  0.1611215929665E-02
 0.1439571324746E-02 -0.6839280031631E-02  0.0000000000000E+00  0.1822245477294E-02
 0.1422336156601E-02 -0.6916963959561E-02  0.0000000000000E+00  0.2047572645095E-02
 0.1405727339935E-02 -0.6997526719865E-02  0.0000000000000E+00  0.2288628544732E-02
 0.1388942195347E-02 -0.7079238583585E-02  0.0000000000000E+00  0.2545329192635E-02
 0.1370844235375E-02 -0.7160033989815E-02  0.0000000000000E+00  0.2815681908415E-02
 0.1350380231559E-02 -0.7237606876397E-02  0.0000000000000E+00  0.3095877143746E-02
 0.1326815161216E-02 -0.7309366721662E-02  0.0000000000000E+00  0.3380507772807E-02
 0.1299811781367E-02 -0.7372312671064E-02  0.0000000000000E+00  0.3662743394567E-02
 0.1269364396281E-02 -0.7422836359730E-02  0.0000000000000E+00  0.3934356551347E-02
 0.1235575116160E-02 -0.7456249953994E-02  0.0000000000000E+00  0.4185361837005E-02
 0.1198571530182E-02 -0.7466225427445E-02  0.0000000000000E+00  0.4402902748083E-02
 0.1159034938900E-02 -0.7444783141786E-02  0.0000000000000E+00  0.4569519020252E-02
 0.1119349984276E-02 -0.7382677985408E-02  0.0000000000000E+00  0.4661307094609E-02
 0.1085320927354E-02 -0.7269930097345E-02  0.0000000000000E+00  0.4646007149530E-02
 0.1068701739773E-02 -0.7096755612324E-02  0.0000000000000E+00  0.4480804622941E-02
 0.1091040839082E-02 -0.6855144276943E-02  0.0000000000000E+00  0.4109404414780E-02
 0.1190293942367E-02 -0.6541750522446E-02  0.0000000000000E+00  0.3457131287662E-02
 0.1434877607970E-02 -0.6164522867616E-02  0.0000000000000E+00  0.2422098670315E-02
 0.1956830242356E-02 -0.5761075208082E-02  0.0000000000000E+00  0.8678343702879E-03
 0.3010077816557E-02 -0.5447557585665E-02  0.0000000000000E+00 -0.1323910576701E-02
 0.5007115126661E-02 -0.5474617470023E-02  0.0000000000000E+00 -0.4012183359272E-02
 0.8375797817871E-02 -0.6150593670116E-02  0.0000000000000E+00 -0.6333171024017E-02
 0.1302475770841E-01 -0.7450239801558E-02  0.0000000000000E+00 -0.6472685963527E-02
 0.1662562137543E-03 -0.5914693519319E-02  0.0000000000000E+00 -0.1940756318695E-02
 0.5027801048838E-03 -0.6103864747254E-02  0.0000000000000E+00 -0.1832465674705E-02
 0.8134972297757E-03 -0.6254877669370E-02  0.0000000000000E+00 -0.1566034622591E-02
 0.1053095490620E-02 -0.6345534408054E-02  0.0000000000000E+00 -0.1215720433298E-02
 0.1216405029140E-02 -0.6384253369350E-02  0.0000000000000E+00 -0.8620436590345E-03
 0.1320752727557E-02 -0.6392410500454E-02  0.0000000000000E+00 -0.5476714364000E-03
 0.1386093792367E-02 -0.6388467612285E-02  0.0000000000000E+00 -0.2818751522147E-03
 0.1427140900478E-02 -0.6383679363398E-02  0.0000000000000E+00 -0.5817875137157E-04
 0.1453093174976E-02 -0.6383752859274E-02  0.0000000000000E+00  0.1340826378132E-03
 0.1469343274606E-02 -0.6391220373124E-02  0.0000000000000E+00  0.3052394181922E-03
 0.1478923961491E-02 -0.6406966815907E-02  0.0000000000000E+00  0.4641740742994E-03
 0.1483388760069E-02 -0.6431004151027E-02  0.0000000000000E+00  0.6182877626548E-03
 0.1483308888795E-02 -0.6462806270188E-02  0.0000000000000E+00  0.7736289094790E-03
 0.1478602553429E-02 -0.6501437830570E-02  0.0000000000000E+00  0.9348654758848E-03
 0.1468897615166E-02 -0.6545672344780E-02  0.0000000000000E+00  0.1105088109276E-02
 0.1454033597507E-02 -0.6594230474368E-02  0.0000000000000E+00  0.1285752742032E-02
 0.1434611795024E-02 -0.6646171601579E-02  0.0000000000000E+00  0.1477114554154E-02
 0.1412157343217E-02 -0.6701189358549E-02  0.0000000000000E+00  0.1679165169811E-02
 0.1388472800919E-02 -0.6759264643900E-02  0.0000000000000E+00  0.1892605860001E-02
 0.1364745174234E-02 -0.6819968230997E-02  0.0000000000000E+00  0.2118821245183E-02
 0.1341199698662E-02 -0.6882165247041E-02  0.0000000000000E+00  0.2358799197304E-02
 0.1317302821182E-02 -0.6944117776859E-02  0.0000000000000E+00  0.2612101725658E-02
 0.1292194542136E-02 -0.7003694304158E-02  0.0000000000000E+00  0.2876396727529E-02
 0.1265076004995E-02 -0.7058488293456E-02  0.0000000000000E+00  0.3147430895372E-02
 0.1235455229402E-02 -0.7105814962180E-02  0.0000000000000E+00  0.3419171545093E-02
 0.1203253943669E-02 -0.7142617414409E-02  0.0000000000000E+00  0.3683923069320E-02
 0.1168798341857E-02 -0.7165305845905E-02  0.0000000000000E+00  0.3932282253210E-02
 0.1132706833657E-02 -0.7169367012914E-02  0.0000000000000E+00  0.4152722692628E-02
 0.1095940695927E-02 -0.7148924390204E-02  0.0000000000000E+00  0.4330530593136E-02
 0.1060421875534E-02 -0.7096836103252E-02  0.0000000000000E+00  0.4446243421840E-02
 0.1030246361042E-02 -0.7005210284869E-02  0.0000000000000E+00  0.4474011961416E-02
 0.1013496397260E-02 -0.6866149164012E-02  0.0000000000000E+00  0.4379944802612E-02
 0.1024927197366E-02 -0.6673010294907E-02  0.0000000000000E+00  0.4120376979228E-02
 0.1090079110064E-02 -0.6422540080341E-02  0.0000000000000E+00  0.3639900598090E-02
 0.1252253092229E-02 -0.6118757363572E-02  0.0000000000000E+00  0.2868914078159E-02
 0.1586097318451E-02 -0.5780858658550E-02  0.0000000000000E+00  0.1721569991059E-02
 0.2225089829575E-02 -0.5460529832297E-02  0.0000000000000E+00  0.1036004231662E-03
 0.3398759242670E-02 -0.5277036061085E-02  0.0000000000000E+00 -0.2019571636435E-02
 0.5431373140245E-02 -0.5439291130802E-02  0.0000000000000E+00 -0.4416723822989E-02
 0.8594390419898E-02 -0.6153307132793E-02  0.0000000000000E+00 -0.6287791924641E-02
 0.1272351496671E-01 -0.7336362001325E-02  0.0000000000000E+00 -0.6233799047324E-02
 0.1541857633217E-03 -0.5879185388707E-02  0.0000000000000E+00 -0.1830065759545E-02
 0.4664112156672E-03 -0.6058039660375E-02  0.0000000000000E+00 -0.1738383400998E-02
 0.7595227062214E-03 -0.6207412637360E-02  0.0000000000000E+00 -0.1509892175741E-02
 0.9950109728207E-03 -0.6306900098288E-02  0.0000000000000E+00 -0.1198171370700E-02
 0.1163920588942E-02 -0.6359327107387E-02  0.0000000000000E+00 -0.8692210035607E-03
 0.1277208419730E-02 -0.6380232612338E-02  0.0000000000000E+00 -0.5644475961582E-03
 0.1350858272469E-02 -0.6385417540317E-02  0.0000000000000E+00 -0.2980325432948E-03
 0.1398161796439E-02 -0.6385862806275E-02  0.0000000000000E+00 -0.6835514170959E-04
 0.1428172382238E-02 -0.6387862230320E-02  0.0000000000000E+00  0.1322173494527E-03
 0.1446532274849E-02 -0.6394591921134E-02  0.0000000000000E+00  0.3124307700259E-03
 0.1456570908146E-02 -0.6407410169627E-02  0.0000000000000E+00  0.4803785784719E-03
 0.1460098979203E-02 -0.6426623870853E-02  0.0000000000000E+00  0.6430363874555E-03
 0.1457914530815E-02 -0.6451877687978E-02  0.0000000000000E+00  0.8061558935770E-03
 0.1450169636645E-02 -0.6482354573361E-02  0.0000000000000E+00  0.9741498051860E-03
 0.1436748160365E-02 -0.6516950694566E-02  0.0000000000000E+00  0.1149933698692E-02
 0.1417714686619E-02 -0.6554515450896E-02  0.0000000000000E+00  0.1334952080365E-02
 0.1393765726659E-02 -0.6594190166198E-02  0.0000000000000E+00  0.1529598314717E-02
 0.1366362367960E-02 -0.6635663972045E-02  0.0000000000000E+00  0.1733971625546E-02
 0.1337198213371E-02 -0.6678866573718E-02  0.0000000000000E+00  0.1948628246498E-02
 0.1307462790230E-02 -0.6723348069253E-02  0.0000000000000E+00  0.2174553483084E-02
 0.1277546394448E-02 -0.6768001079620E-02  0.0000000000000E+00  0.2412276961312E-02
 0.1247185206883E-02 -0.6811121365560E-02  0.0000000000000E+00  0.2660961279622E-02
 0.1215819371267E-02 -0.6850585179162E-02  0.0000000000000E+00  0.2917902835150E-02
 0.1182946429283E-02 -0.6883975500009E-02  0.0000000000000E+00  0.3178413513409E-02
 0.1148370406442E-02 -0.6908608613640E-02  0.0000000000000E+00  0.3435883644643E-02
 0.1112336221904E-02 -0.6921475158115E-02  0.0000000000000E+00  0.3681835844968E-02
 0.1075577607488E-02 -0.6919125226809E-02  0.0000000000000E+00  0.3905826212092E-02
 0.1039304471867E-02 -0.6897363522638E-02  0.0000000000000E+00  0.4095006522542E-02
 0.1005368359723E-02 -0.6850929262666E-02  0.0000000000000E+00  0.4233134945325E-02
 0.9769576974409E-03 -0.6773702376286E-02  0.0000000000000E+00  0.4299212985037E-02
 0.9598596285934E-03 -0.6659339304657E-02  0.0000000000000E+00  0.4266108817249E-02
 0.9643289993942E-03 -0.6502201723934E-02  0.0000000000000E+00  0.4099256436177E-02
 0.1007847887712E-02 -0.6298889415065E-02  0.0000000000000E+00  0.3755537096045E-02
 0.1119300930561E-02 -0.6050777389695E-02  0.0000000000000E+00  0.3182516529019E-02
 0.1345767736339E-02 -0.5768414948642E-02  0.0000000000000E+00  0.2318678579849E-02
 0.1764518463383E-02 -0.5479469408317E-02  0.0000000000000E+00  0.1097269143872E-02
 0.2503980824499E-02 -0.5243079418015E-02  0.0000000000000E+00 -0.5359695267818E-03
 0.3764082957510E-02 -0.5172362130874E-02  0.0000000000000E+00 -0.2551900896084E-02
 0.5793123812941E-02 -0.5434841071374E-02  0.0000000000000E+00 -0.4672904970006E-02
 0.8753492000282E-02 -0.6161966822722E-02  0.0000000000000E+00 -0.6185739900463E-02
 0.1245167997434E-01 -0.7244638343977E-02  0.0000000000000E+00 -0.6007433847618E-02
 0.1440024568923E-03 -0.5849754542697E-02  0.0000000000000E+00 -0.1725597449405E-02
 0.4354073589728E-03 -0.6019176346314E-02  0.0000000000000E+00 -0.1646509879784E-02
 0.7122003393500E-03 -0.6165404829065E-02  0.0000000000000E+00 -0.1448353123170E-02
 0.9418412118589E-03 -0.6270217419925E-02  0.0000000000000E+00 -0.1170121208325E-02
 0.1113537155158E-02 -0.6332928532297E-02  0.0000000000000E+00 -0.8654707394189E-03
 0.1233516208464E-02 -0.6364449836576E-02  0.0000000000000E+00 -0.5727928253964E-03
 0.1314181765077E-02 -0.6377865130485E-02  0.0000000000000E+00 -0.3090059924467E-03
 0.1367156541574E-02 -0.6383380828054E-02  0.0000000000000E+00 -0.7627355859197E-04
 0.1401035996105E-02 -0.6387474498317E-02  0.0000000000000E+00  0.1302288678849E-03
 0.1421512187359E-02 -0.6393750835792E-02  0.0000000000000E+00  0.3175646639337E-03
 0.1432111347377E-02 -0.6403951216575E-02  0.0000000000000E+00  0.4928841193236E-03
 0.1434861519707E-02 -0.6418656021150E-02  0.0000000000000E+00  0.6626100355677E-03
 0.1430778028792E-02 -0.6437695511004E-02  0.0000000000000E+00  0.8321211566990E-03
 0.1420243408169E-02 -0.6460397689379E-02  0.0000000000000E+00  0.1005553281291E-02
 0.1403383081492E-02 -0.6485798824140E-02  0.0000000000000E+00  0.1185656911099E-02
 0.1380464975732E-02 -0.6512877382478E-02  0.0000000000000E+00  0.1373861752921E-02
 0.1352277029706E-02 -0.6540851294358E-02  0.0000000000000E+00  0.1570660032234E-02
 0.1320244468115E-02 -0.6569407476663E-02  0.0000000000000E+00  0.1776217078566E-02
 0.1285990765308E-02 -0.6598432075041E-02  0.0000000000000E+00  0.1990943430397E-02
 0.1250727462074E-02 -0.6627460466359E-02  0.0000000000000E+00  0.2215450218044E-02
 0.1215008924174E-02 -0.6655424768850E-02  0.0000000000000E+00  0.2449815889840E-02
 0.1178840917320E-02 -0.6680687742297E-02  0.0000000000000E+00  0.2692786266888E-02
 0.1141979567935E-02 -0.6701191811100E-02  0.0000000000000E+00  0.2941272478336E-02
 0.1104251128344E-02 -0.6714584896355E-02  0.0000000000000E+00  0.3190166405370E-02
 0.1065800053864E-02 -0.6718269316621E-02  0.0000000000000E+00  0.3432332369823E-02
 0.1027249090845E-02 -0.6709378016832E-02  0.0000000000000E+00  0.3658602864567E-02
 0.9898004903979E-03 -0.6684709333976E-02  0.0000000000000E+00  0.3857642595970E-02
 0.9553099635084E-03 -0.6640507158006E-02  0.0000000000000E+00  0.4015514903000E-02
 0.9265484049467E-03 -0.6572254798618E-02  0.0000000000000E+00  0.4114789848206E-02
 0.9079581631649E-03 -0.6474981707472E-02  0.0000000000000E+00  0.4133401133066E-02
 0.9069418045866E-03 -0.6344003404108E-02  0.0000000000000E+00  0.4043573935628E-02
 0.9357425105360E-03 -0.6175996054209E-02  0.0000000000000E+00  0.3810949319648E-02
 0.1014181528470E-02 -0.5970719195347E-02  0.0000000000000E+00  0.3394171501562E-02
 0.1173687981730E-02 -0.5733766264607E-02  0.0000000000000E+00  0.2745422611355E-02
 0.1463469625047E-02 -0.5481023073423E-02  0.0000000000000E+00  0.1813165996111E-02
 0.1960306317491E-02 -0.5245790576076E-02  0.0000000000000E+00  0.5504356865442E-03
 0.2783278958475E-02 -0.5089481282726E-02  0.0000000000000E+00 -0.1062163821729E-02
 0.4101668469562E-02 -0.5113978470125E-02  0.0000000000000E+00 -0.2950211812827E-02
 0.6101053676631E-02 -0.5449572958768E-02  0.0000000000000E+00 -0.4819236054020E-02
 0.8868823209847E-02 -0.6174559163231E-02  0.0000000000000E+00 -0.6047177663160E-02
 0.1220580750183E-01 -0.7170912219166E-02  0.0000000000000E+00 -0.5790305868255E-02
 0.1352619587073E-03 -0.5825036016969E-02  0.0000000000000E+00 -0.1626660784425E-02
 0.4086276614208E-03 -0.5985859286092E-02  0.0000000000000E+00 -0.1557355561230E-02
 0.6704400320592E-03 -0.6128099458212E-02  0.0000000000000E+00 -0.1383713618075E-02
 0.8932387447905E-03 -0.6235727867300E-02  0.0000000000000E+00 -0.1134399752778E-02
 0.1065589822321E-02 -0.6305937539830E-02  0.0000000000000E+00 -0.8528810138294E-03
 0.1190298730290E-02 -0.6346073342875E-02  0.0000000000000E+00 -0.5737550642244E-03
 0.1276689037708E-02 -0.6366681573563E-02  0.0000000000000E+00 -0.3151053057881E-03
 0.1334651726815E-02 -0.6376914298479E-02  0.0000000000000E+00 -0.8186662662332E-04
 0.1372111483606E-02 -0.6383120590206E-02  0.0000000000000E+00  0.1283357072869E-03
 0.1394639296845E-02 -0.6389133017183E-02  0.0000000000000E+00  0.3209032637531E-03
 0.1405858964618E-02 -0.6396977094522E-02  0.0000000000000E+00  0.5019586676562E-03
 0.1407968289437E-02 -0.6407471930142E-02  0.0000000000000E+00  0.6772831538468E-03
 0.1402180037694E-02 -0.6420633477330E-02  0.0000000000000E+00  0.8518251317568E-03
 0.1389094698830E-02 -0.6435947065595E-02  0.0000000000000E+00  0.1029423410129E-02
 0.1369061583638E-02 -0.6452596532271E-02  0.0000000000000E+00  0.1212661951316E-02
 0.1342533597104E-02 -0.6469687753860E-02  0.0000000000000E+00  0.1402941069697E-02
 0.1310389411840E-02 -0.6486513712280E-02  0.0000000000000E+00  0.1600812529328E-02
 0.1274043752892E-02 -0.6502766413759E-02  0.0000000000000E+00  0.1806471293023E-02
 0.1235084596269E-02 -0.6518301600381E-02  0.0000000000000E+00  0.2020181989141E-02
 0.1194765963587E-02 -0.6532651830673E-02  0.0000000000000E+00  0.2242209009124E-02
 0.1153809135588E-02 -0.6544802880530E-02  0.0000000000000E+00  0.2472200332419E-02
 0.1112489508521E-02 -0.6553212393590E-02  0.0000000000000E+00  0.2708488037254E-02
 0.1070889774495E-02 -0.6555936092465E-02  0.0000000000000E+00  0.2947600497721E-02
 0.1029189194960E-02 -0.6550749893381E-02  0.0000000000000E+00  0.3184032737706E-02
 0.9879083381016E-03 -0.6535216196617E-02  0.0000000000000E+00  0.3410179040829E-02
 0.9480916909125E-03 -0.6506693871809E-02  0.0000000000000E+00  0.3616280403916E-02
 0.9114558755029E-03 -0.6462322458172E-02  0.0000000000000E+00  0.3790267786217E-02
 0.8805365219599E-03 -0.6398883028996E-02  0.0000000000000E+00  0.3917354270475E-02
 0.8590274773300E-03 -0.6312696639241E-02  0.0000000000000E+00  0.3979258860721E-02
 0.8525789347996E-03 -0.6200018737896E-02  0.0000000000000E+00  0.3953298661253E-02
 0.8700875416228E-03 -0.6057860834510E-02  0.0000000000000E+00  0.3811648137342E-02
 0.9255400484258E-03 -0.5885164831934E-02  0.0000000000000E+00  0.3520929131942E-02
 0.1040634686881E-02 -0.5684623000499E-02  0.0000000000000E+00  0.3042535788637E-02
 0.1248484830384E-02 -0.5465451438975E-02  0.0000000000000E+00  0.2334413821264E-02
 0.1598875938063E-02 -0.5247543800104E-02  0.0000000000000E+00  0.1355877946126E-02
 0.2165664522201E-02 -0.5067292705863E-02  0.0000000000000E+00  0.7878745811901E-04
 0.3056128164958E-02 -0.4984695825740E-02  0.0000000000000E+00 -0.1487718518484E-02
 0.4410322763154E-02 -0.5088195532813E-02  0.0000000000000E+00 -0.3239345575286E-02
 0.6363406653304E-02 -0.5476351936894E-02  0.0000000000000E+00 -0.4883592380295E-02
 0.8951800144162E-02 -0.6190119350684E-02  0.0000000000000E+00 -0.5884669534599E-02
 0.1198293923060E-01 -0.7112082790612E-02  0.0000000000000E+00 -0.5579941855689E-02
 0.1276479672379E-03 -0.5804018132254E-02  0.0000000000000E+00 -0.1532684138353E-02
 0.3852211459500E-03 -0.5956998320942E-02  0.0000000000000E+00 -0.1471153279149E-02
 0.6333426597988E-03 -0.6094815574133E-02  0.0000000000000E+00 -0.1317554042377E-02
 0.8488009723338E-03 -0.6203473556340E-02  0.0000000000000E+00 -0.1093197345726E-02
 0.1020228277897E-02 -0.6278954492929E-02  0.0000000000000E+00 -0.8332813306332E-03
 0.1148009636910E-02 -0.6325907851633E-02  0.0000000000000E+00 -0.5684180396554E-03
 0.1238903372422E-02 -0.6352631462843E-02  0.0000000000000E+00 -0.3167800251517E-03
 0.1301127034472E-02 -0.6367103760884E-02  0.0000000000000E+00 -0.8519941684029E-04
 0.1341809408605E-02 -0.6375323452840E-02  0.0000000000000E+00  0.1266634129191E-03
 0.1366265914739E-02 -0.6381178486860E-02  0.0000000000000E+00  0.3226547724969E-03
 0.1378126589091E-02 -0.6386880094661E-02  0.0000000000000E+00  0.5078466800131E-03
 0.1379708054012E-02 -0.6393442833351E-02  0.0000000000000E+00  0.6873266327088E-03
 0.1372393680143E-02 -0.6401057103259E-02  0.0000000000000E+00  0.8655733553706E-03
 0.1356983244064E-02 -0.6409366866542E-02  0.0000000000000E+00  0.1046111493785E-02
 0.1334030566986E-02 -0.6417704000967E-02  0.0000000000000E+00  0.1231350428919E-02
 0.1304157734084E-02 -0.6425298933659E-02  0.0000000000000E+00  0.1422641158500E-02
 0.1268335020253E-02 -0.6431520413127E-02  0.0000000000000E+00  0.1620558503837E-02
 0.1227988827770E-02 -0.6436075309409E-02  0.0000000000000E+00  0.1825296163396E-02
 0.1184701833985E-02 -0.6438804651859E-02  0.0000000000000E+00  0.2036973650666E-02
 0.1139790425356E-02 -0.6439253252980E-02  0.0000000000000E+00  0.2255536807272E-02
 0.1094147905513E-02 -0.6436475972411E-02  0.0000000000000E+00  0.2480232209626E-02
 0.1048319724892E-02 -0.6429049437812E-02  0.0000000000000E+00  0.2708995878259E-02
 0.1002722000091E-02 -0.6415181211460E-02  0.0000000000000E+00  0.2937989666038E-02
 0.9579045639066E-03 -0.6392827613693E-02  0.0000000000000E+00  0.3161343798944E-02
 0.9147912382398E-03 -0.6359774194590E-02  0.0000000000000E+00  0.3371044267199E-02
 0.8748811626014E-03 -0.6313676993328E-02  0.0000000000000E+00  0.3556844337328E-02
 0.8404363993790E-03 -0.6252093256576E-02  0.0000000000000E+00  0.3706102121398E-02
 0.8146878403695E-03 -0.6172416109891E-02  0.0000000000000E+00  0.3803415705028E-02
 0.8022331863519E-03 -0.6071865551722E-02  0.0000000000000E+00  0.3829976391943E-02
 0.8098564088929E-03 -0.5947954137996E-02  0.0000000000000E+00  0.3762904279171E-02
 0.8477919085932E-03 -0.5799363980183E-02  0.0000000000000E+00  0.3574849882747E-02
 0.9314844943407E-03 -0.5627171440365E-02  0.0000000000000E+00  0.3234059655280E-02
 0.1084011712001E-02 -0.5436672597255E-02  0.0000000000000E+00  0.2705412728933E-02
 0.1339327043774E-02 -0.5240015233286E-02  0.0000000000000E+00  0.1953284984717E-02
 0.1746454711328E-02 -0.5059800999338E-02  0.0000000000000E+00  0.9478868739886E-03
 0.2374590799266E-02 -0.4933428328830E-02  0.0000000000000E+00 -0.3220705531948E-03
 0.3318147559140E-02 -0.4917081527489E-02  0.0000000000000E+00 -0.1825302017978E-02
 0.4690674384248E-02 -0.5085387453745E-02  0.0000000000000E+00 -0.3439744396794E-02
 0.6587507118976E-02 -0.5510753191104E-02  0.0000000000000E+00 -0.4886180958834E-02
 0.9010789658076E-02 -0.6208159124270E-02  0.0000000000000E+00 -0.5706239989297E-02
 0.1178052211798E-01 -0.7065735752932E-02  0.0000000000000E+00 -0.5374549804685E-02
 0.1209308591734E-03 -0.5785939493398E-02  0.0000000000000E+00 -0.1443190283258E-02
 0.3645463455453E-03 -0.5931748898798E-02  0.0000000000000E+00 -0.1387975427080E-02
 0.6001742296785E-03 -0.6064962530795E-02  0.0000000000000E+00 -0.1250963205930E-02
 0.8081215552472E-03 -0.6173387040407E-02  0.0000000000000E+00 -0.1048197241798E-02
 0.9774817011355E-03 -0.6252380232225E-02  0.0000000000000E+00 -0.8082310471997E-03
 0.1106968680147E-02 -0.6304585131707E-02  0.0000000000000E+00 -0.5578283496784E-03
 0.1201253667986E-02 -0.6336373695416E-02  0.0000000000000E+00 -0.3145565121333E-03
 0.1267010124024E-02 -0.6354539261623E-02  0.0000000000000E+00 -0.8643391485438E-04
 0.1310515934471E-02 -0.6364587231560E-02  0.0000000000000E+00  0.1252603389439E-03
 0.1336733814951E-02 -0.6370322590151E-02  0.0000000000000E+00  0.3229780600715E-03
 0.1349221374559E-02 -0.6374051281942E-02  0.0000000000000E+00  0.5107673794233E-03
 0.1350363644344E-02 -0.6376936081475E-02  0.0000000000000E+00  0.6930025678507E-03
 0.1341683805697E-02 -0.6379322631188E-02  0.0000000000000E+00  0.8736702646207E-03
 0.1324158476337E-02 -0.6381006865445E-02  0.0000000000000E+00  0.1055968072928E-02
 0.1298525918600E-02 -0.6381464281665E-02  0.0000000000000E+00  0.1242120041164E-02
 0.1265563482141E-02 -0.6380046140774E-02  0.0000000000000E+00  0.1433406571090E-02
 0.1226334440582E-02 -0.6376198811469E-02  0.0000000000000E+00  0.1630393413266E-02
 0.1182295796097E-02 -0.6369654650674E-02  0.0000000000000E+00  0.1833247707437E-02
 0.1135050785930E-02 -0.6360256350882E-02  0.0000000000000E+00  0.2041946044699E-02
 0.1085996528143E-02 -0.6347577334009E-02  0.0000000000000E+00  0.2256143991143E-02
 0.1036204488524E-02 -0.6330757359422E-02  0.0000000000000E+00  0.2474720831710E-02
 0.9864907836224E-03 -0.6308513168028E-02  0.0000000000000E+00  0.2695244601071E-02
 0.9376089557761E-03 -0.6279235870263E-02  0.0000000000000E+00  0.2913537958544E-02
 0.8904911921215E-03 -0.6241105299666E-02  0.0000000000000E+00  0.3123406684918E-02
 0.8464836218049E-03 -0.6192182517908E-02  0.0000000000000E+00  0.3316495592146E-02
 0.8075622627539E-03 -0.6130479221136E-02  0.0000000000000E+00  0.3482176995327E-02
 0.7765518256961E-03 -0.6054030322704E-02  0.0000000000000E+00  0.3607395963224E-02
 0.7573769488526E-03 -0.5960893780980E-02  0.0000000000000E+00  0.3676361696739E-02
 0.7555006949591E-03 -0.5849220332666E-02  0.0000000000000E+00  0.3670039132105E-02
 0.7787446981588E-03 -0.5717771884191E-02  0.0000000000000E+00  0.3565728600803E-02
 0.8385005713982E-03 -0.5566825638325E-02  0.0000000000000E+00  0.3337005773817E-02
 0.9513642104951E-03 -0.5399400643540E-02  0.0000000000000E+00  0.2954245052012E-02
 0.1141293819295E-02 -0.5223007019244E-02  0.0000000000000E+00  0.2386295951822E-02
 0.1442310110132E-02 -0.5052011830566E-02  0.0000000000000E+00  0.1604209307628E-02
 0.1901599294237E-02 -0.4910555414097E-02  0.0000000000000E+00  0.5885313964440E-03
 0.2582581916929E-02 -0.4835446343492E-02  0.0000000000000E+00 -0.6576507009038E-03
 0.3566718251420E-02 -0.4877664800483E-02  0.0000000000000E+00 -0.2086736262639E-02
 0.4944313409773E-02 -0.5098724050518E-02  0.0000000000000E+00 -0.3567959088344E-02
 0.6779650408517E-02 -0.5549975119965E-02  0.0000000000000E+00 -0.4841686081779E-02
 0.9052009383563E-02 -0.6228420804020E-02  0.0000000000000E+00 -0.5517121971158E-02
 0.1159631620720E-01 -0.7029935640721E-02  0.0000000000000E+00 -0.5172900126335E-02
 0.1149410815459E-03 -0.5770219938237E-02  0.0000000000000E+00 -0.1357776520257E-02
 0.3461149253406E-03 -0.5909453074591E-02  0.0000000000000E+00 -0.1307801742962E-02
 0.5703387624981E-03 -0.6038039718651E-02  0.0000000000000E+00 -0.1184689788794E-02
 0.7708175133652E-03 -0.6145346410130E-02  0.0000000000000E+00 -0.1000686801194E-02
 0.9373048469729E-03 -0.6226476247756E-02  0.0000000000000E+00 -0.7790345001956E-03
 0.1067393122641E-02 -0.6282597033890E-02  0.0000000000000E+00 -0.5429535382048E-03
 0.1164085520133E-02 -0.6318468986155E-02  0.0000000000000E+00 -0.3089902836534E-03
 0.1232675883885E-02 -0.6339755677930E-02  0.0000000000000E+00 -0.8579698832926E-04
 0.1278588095428E-02 -0.6351389603661E-02  0.0000000000000E+00  0.1241141456408E-03
 0.1306369256345E-02 -0.6356988955602E-02  0.0000000000000E+00  0.3219889027133E-03
 0.1319440904655E-02 -0.6358875162292E-02  0.0000000000000E+00  0.5109148487240E-03
 0.1320209606770E-02 -0.6358311897169E-02  0.0000000000000E+00  0.6945610081382E-03
 0.1310306205942E-02 -0.6355775961873E-02  0.0000000000000E+00  0.8764149698813E-03
 0.1290859851545E-02 -0.6351203151302E-02  0.0000000000000E+00  0.1059339764011E-02
 0.1262773190010E-02 -0.6344204812957E-02  0.0000000000000E+00  0.1245363504012E-02
 0.1226966279158E-02 -0.6334248626620E-02  0.0000000000000E+00  0.1435675974435E-02
 0.1184596653285E-02 -0.6320860774662E-02  0.0000000000000E+00  0.1630806806618E-02
 0.1137167682191E-02 -0.6303809548699E-02  0.0000000000000E+00  0.1830876665077E-02
 0.1086324925625E-02 -0.6282955222233E-02  0.0000000000000E+00  0.2035723042720E-02
 0.1033562552143E-02 -0.6257916194589E-02  0.0000000000000E+00  0.2244739345407E-02
 0.9801364356593E-03 -0.6227932576146E-02  0.0000000000000E+00  0.2456474635021E-02
 0.9271338222228E-03 -0.6191879726495E-02  0.0000000000000E+00  0.2668164265615E-02
 0.8756472857908E-03 -0.6148358305451E-02  0.0000000000000E+00  0.2875327655851E-02
 0.8269981034416E-03 -0.6095806523706E-02  0.0000000000000E+00  0.3071493508325E-02
 0.7829662896228E-03 -0.6032603111077E-02  0.0000000000000E+00  0.3248036829198E-02
 0.7460169913715E-03 -0.5957161361921E-02  0.0000000000000E+00  0.3394056575175E-02
 0.7195422254089E-03 -0.5868037879483E-02  0.0000000000000E+00  0.3496239834811E-02
 0.7081442524609E-03 -0.5763987850274E-02  0.0000000000000E+00  0.3538619032257E-02
 0.7180972246232E-03 -0.5644098751925E-02  0.0000000000000E+00  0.3502205968313E-02
 0.7581483176112E-03 -0.5508342058314E-02  0.0000000000000E+00  0.3364809036930E-02
 0.8406519322397E-03 -0.5358476596616E-02  0.0000000000000E+00  0.3101294243085E-02
 0.9830439305938E-03 -0.5199232874476E-02  0.0000000000000E+00  0.2684526440834E-02
 0.1209690901929E-02 -0.5039920093863E-02  0.0000000000000E+00  0.2087581827108E-02
 0.1554012856416E-02 -0.4896444536279E-02  0.0000000000000E+00  0.1288089526026E-02
 0.2060550680978E-02 -0.4793497234492E-02  0.0000000000000E+00  0.2759767804034E-03
 0.2786344835307E-02 -0.4766155939690E-02  0.0000000000000E+00 -0.9339131290624E-03
 0.3800444577036E-02 -0.4859535281569E-02  0.0000000000000E+00 -0.2282663954692E-02
 0.5173259238624E-02 -0.5123291590970E-02  0.0000000000000E+00 -0.3637290182875E-02
 0.6945144118373E-02 -0.5592177083818E-02  0.0000000000000E+00 -0.4760780725564E-02
 0.9080178020823E-02 -0.6250776079701E-02  0.0000000000000E+00 -0.5320738847879E-02
 0.1142830700079E-01 -0.7003101639915E-02  0.0000000000000E+00 -0.4974276884342E-02
 0.1095516017056E-03 -0.5756413055624E-02  0.0000000000000E+00 -0.1276098942698E-02
 0.3295517583546E-03 -0.5889595783640E-02  0.0000000000000E+00 -0.1230558937685E-02
 0.5433535406406E-03 -0.6013629037950E-02  0.0000000000000E+00 -0.1119245111756E-02
 0.7365419321535E-03 -0.6119208355251E-02  0.0000000000000E+00 -0.9516467451824E-03
 0.8996097933241E-03 -0.6201408615104E-02  0.0000000000000E+00 -0.7467679202241E-03
 0.1029423981717E-02 -0.6260324923071E-02  0.0000000000000E+00 -0.5246613929457E-03
 0.1127673664716E-02 -0.6299390655796E-02  0.0000000000000E+00 -0.3006320994200E-03
 0.1198448663092E-02 -0.6323232116258E-02  0.0000000000000E+00 -0.8355341383835E-04
 0.1246351419487E-02 -0.6336176933724E-02  0.0000000000000E+00  0.1231676696478E-03
 0.1275479497957E-02 -0.6341584164027E-02  0.0000000000000E+00  0.3197671189864E-03
 0.1289070181442E-02 -0.6341725366750E-02  0.0000000000000E+00  0.5084595197405E-03
 0.1289510271154E-02 -0.6337920638300E-02  0.0000000000000E+00  0.6922383039572E-03
 0.1278506831742E-02 -0.6330751595876E-02  0.0000000000000E+00  0.8740985511544E-03
 0.1257316869953E-02 -0.6320278397658E-02  0.0000000000000E+00  0.1056567110208E-02
 0.1226987885175E-02 -0.6306238289592E-02  0.0000000000000E+00  0.1241467664436E-02
 0.1188571083415E-02 -0.6288210360571E-02  0.0000000000000E+00  0.1429882254255E-02
 0.1143318994158E-02 -0.6265802606623E-02  0.0000000000000E+00  0.1622282671415E-02
 0.1092794159730E-02 -0.6238828896743E-02  0.0000000000000E+00  0.1818728220935E-02
 0.1038702442213E-02 -0.6207181850559E-02  0.0000000000000E+00  0.2018922866697E-02
 0.9826490609694E-03 -0.6170540380326E-02  0.0000000000000E+00  0.2222025753385E-02
 0.9260799807863E-03 -0.6128259430000E-02  0.0000000000000E+00  0.2426294407255E-02
 0.8703535318653E-03 -0.6079388965560E-02  0.0000000000000E+00  0.2628671695222E-02
 0.8169007649514E-03 -0.6022760219087E-02  0.0000000000000E+00  0.2824416159384E-02
 0.7674343191158E-03 -0.5957097247064E-02  0.0000000000000E+00  0.3006832222606E-02
 0.7241728993205E-03 -0.5881129047558E-02  0.0000000000000E+00  0.3167099242898E-02
 0.6900740165232E-03 -0.5793704532124E-02  0.0000000000000E+00  0.3294149113046E-02
 0.6690906548489E-03 -0.5693931181923E-02  0.0000000000000E+00  0.3374558299990E-02
 0.6664743982780E-03 -0.5581275573771E-02  0.0000000000000E+00  0.3392376952344E-02
 0.6892441461654E-03 -0.5455746071309E-02  0.0000000000000E+00  0.3328904847095E-02
 0.7469503431700E-03 -0.5318458771743E-02  0.0000000000000E+00  0.3162733105783E-02
 0.8527112281916E-03 -0.5172514252320E-02  0.0000000000000E+00  0.2870298274933E-02
 0.1024501757215E-02 -0.5024102531244E-02  0.0000000000000E+00  0.2427185292331E-02
 0.1286670296084E-02 -0.4883920098885E-02  0.0000000000000E+00  0.1810756084876E-02
 0.1671489058674E-02 -0.4768799219039E-02  0.0000000000000E+00  0.1004865898997E-02
 0.2220295208581E-02 -0.4703190221625E-02  0.0000000000000E+00  0.7645023300307E-05
 0.2983539550200E-02 -0.4719683607070E-02  0.0000000000000E+00 -0.1156833966136E-02
 0.4018764990626E-02 -0.4857373180719E-02  0.0000000000000E+00 -0.2422464399920E-02
 0.5379640785100E-02 -0.5155495123307E-02  0.0000000000000E+00 -0.3658439835522E-02
 0.7088381470438E-02 -0.5636042606336E-02  0.0000000000000E+00 -0.4651204751992E-02
 0.9099004414895E-02 -0.6275172544861E-02  0.0000000000000E+00 -0.5119179201552E-02
 0.1127460885132E-01 -0.6983928246490E-02  0.0000000000000E+00 -0.4778539752083E-02
 0.1046660622611E-03 -0.5744172785154E-02  0.0000000000000E+00 -0.1197860063581E-02
 0.3145663470424E-03 -0.5871772248608E-02  0.0000000000000E+00 -0.1156144000422E-02
 0.5188278943181E-03 -0.5991384819219E-02  0.0000000000000E+00 -0.1054973321360E-02
 0.7049883786041E-03 -0.6094827387990E-02  0.0000000000000E+00 -0.9018210424988E-03
 0.8642872172752E-03 -0.6177279413562E-02  0.0000000000000E+00 -0.7123098974695E-03
 0.9931470017069E-03 -0.6238064424940E-02  0.0000000000000E+00 -0.5037129855825E-03
 0.1092234188802E-02 -0.6279536471430E-02  0.0000000000000E+00 -0.2900053268336E-03
 0.1164606302828E-02 -0.6305394045050E-02  0.0000000000000E+00 -0.7998437766669E-04
 0.1214099393399E-02 -0.6319361760682E-02  0.0000000000000E+00  0.1223332636380E-03
 0.1244350632649E-02 -0.6324493981724E-02  0.0000000000000E+00  0.3163639699384E-03
 0.1258379429510E-02 -0.6322961292316E-02  0.0000000000000E+00  0.5035506380405E-03
 0.1258518218262E-02 -0.6316100539249E-02  0.0000000000000E+00  0.6862566880933E-03
 0.1246521061522E-02 -0.6304571625923E-02  0.0000000000000E+00  0.8670025148497E-03
 0.1223748917079E-02 -0.6288541844880E-02  0.0000000000000E+00  0.1047983185067E-02
 0.1191375514786E-02 -0.6267863108208E-02  0.0000000000000E+00  0.1230812769253E-02
 0.1150572415252E-02 -0.6242220408320E-02  0.0000000000000E+00  0.1416452263734E-02
 0.1102687147221E-02 -0.6211305031614E-02  0.0000000000000E+00  0.1605299178529E-02
 0.1049351508212E-02 -0.6174984895465E-02  0.0000000000000E+00  0.1797341205936E-02
 0.9923461949264E-03 -0.6133198172816E-02  0.0000000000000E+00  0.1992156113381E-02
 0.9333990559072E-03 -0.6085698442792E-02  0.0000000000000E+00  0.2188696475188E-02
 0.8741508000240E-03 -0.6031968539685E-02  0.0000000000000E+00  0.2384967708283E-02
 0.8162299669918E-03 -0.5971246504062E-02  0.0000000000000E+00  0.2577663510248E-02
 0.7614034900796E-03 -0.5902610674718E-02  0.0000000000000E+00  0.2761828391349E-02
 0.7117736713260E-03 -0.5825091739922E-02  0.0000000000000E+00  0.2930599068265E-02
 0.6699966877389E-03 -0.5737792751192E-02  0.0000000000000E+00  0.3075034606956E-02
 0.6395177336677E-03 -0.5640021231795E-02  0.0000000000000E+00  0.3184002919603E-02
 0.6248351067605E-03 -0.5531451317313E-02  0.0000000000000E+00  0.3244107196550E-02
 0.6318117284286E-03 -0.5412259323067E-02  0.0000000000000E+00  0.3239589748138E-02
 0.6681364657301E-03 -0.5283340827822E-02  0.0000000000000E+00  0.3152245132438E-02
 0.7440360130302E-03 -0.5146873043816E-02  0.0000000000000E+00  0.2961667822221E-02
 0.8731969938018E-03 -0.5007142455837E-02  0.0000000000000E+00  0.2646063383794E-02
 0.1073853830653E-02 -0.4871541558500E-02  0.0000000000000E+00  0.2183847382603E-02
 0.1369967556251E-02 -0.4751766156425E-02  0.0000000000000E+00  0.1556566486362E-02
 0.1792238194790E-02 -0.4665046596228E-02  0.0000000000000E+00  0.7537742252351E-03
 0.2378457190426E-02 -0.4634990299698E-02  0.0000000000000E+00 -0.2194638554800E-03
 0.3172558446783E-02 -0.4691250604877E-02  0.0000000000000E+00 -0.1332153312315E-02
 0.4221682657932E-02 -0.4867072221301E-02  0.0000000000000E+00 -0.2514263303079E-02
 0.5565530074631E-02 -0.5192714184570E-02  0.0000000000000E+00 -0.3640139660756E-02
 0.7212875838945E-02 -0.5680418560096E-02  0.0000000000000E+00 -0.4518618313107E-02
 0.9111564687057E-02 -0.6301597974378E-02  0.0000000000000E+00 -0.4913283122458E-02
 0.1113337681529E-01 -0.6971229900122E-02  0.0000000000000E+00 -0.4586292604752E-02
 0.1002106149337E-03 -0.5733229437331E-02  0.0000000000000E+00 -0.1122799098484E-02
 0.3009321351723E-03 -0.5855663495000E-02  0.0000000000000E+00 -0.1084437908696E-02
 0.4964456035681E-03 -0.5971023450357E-02  0.0000000000000E+00 -0.9920996725060E-03
 0.6758907273568E-03 -0.6072066464662E-02  0.0000000000000E+00 -0.8517708770609E-03
 0.8312202391702E-03 -0.6154148823257E-02  0.0000000000000E+00 -0.6763711188641E-03
 0.9586088906286E-03 -0.6216045475195E-02  0.0000000000000E+00 -0.4807641131819E-03
 0.1057935650691E-02 -0.6259240200316E-02  0.0000000000000E+00 -0.2775919932259E-03
 0.1131385067936E-02 -0.6286617069873E-02  0.0000000000000E+00 -0.7537115813638E-04
 0.1182094264434E-02 -0.6301322082874E-02  0.0000000000000E+00  0.1215051162851E-03
 0.1213246520251E-02 -0.6306080948098E-02  0.0000000000000E+00  0.3118093250681E-03
 0.1227622626456E-02 -0.6302925613727E-02  0.0000000000000E+00  0.4963193176916E-03
 0.1227473124980E-02 -0.6293175903906E-02  0.0000000000000E+00  0.6768247573188E-03
 0.1214573061610E-02 -0.6277544821734E-02  0.0000000000000E+00  0.8553981187988E-03
 0.1190365018788E-02 -0.6256289114651E-02  0.0000000000000E+00  0.1033912762575E-02
 0.1156131525098E-02 -0.6229363549213E-02  0.0000000000000E+00  0.1213771881943E-02
 0.1113154338178E-02 -0.6196553129998E-02  0.0000000000000E+00  0.1395806381767E-02
 0.1062875186221E-02 -0.6157633207576E-02  0.0000000000000E+00  0.1580328085250E-02
 0.1007002744186E-02 -0.6112532857501E-02  0.0000000000000E+00  0.1767247023614E-02
 0.9474039617450E-03 -0.6061247240007E-02  0.0000000000000E+00  0.1956023808154E-02
 0.8859384773649E-03 -0.6003617031746E-02  0.0000000000000E+00  0.2145431938628E-02
 0.8244450606319E-03 -0.5939264262031E-02  0.0000000000000E+00  0.2333264284644E-02
 0.7648205037200E-03 -0.5867625961123E-02  0.0000000000000E+00  0.2516010470760E-02
 0.7091630662667E-03 -0.5788039975557E-02  0.0000000000000E+00  0.2688550649682E-02
 0.6599594823583E-03 -0.5699858353629E-02  0.0000000000000E+00  0.2843912592483E-02
 0.6202969242410E-03 -0.5602573965853E-02  0.0000000000000E+00  0.2973110089693E-02
 0.5940968369233E-03 -0.5495965983719E-02  0.0000000000000E+00  0.3065045307233E-02
 0.5863795776635E-03 -0.5380279174898E-02  0.0000000000000E+00  0.3106473803198E-02
 0.6035741700931E-03 -0.5256384661796E-02  0.0000000000000E+00  0.3081982993064E-02
 0.6539596381232E-03 -0.5126017714766E-02  0.0000000000000E+00  0.2974034114081E-02
 0.7483119291327E-03 -0.4992320673626E-02  0.0000000000000E+00  0.2763393055600E-02
 0.9007005579998E-03 -0.4860603116929E-02  0.0000000000000E+00  0.2430157603908E-02
 0.1129368690654E-02 -0.4739210139618E-02  0.0000000000000E+00  0.1955582658965E-02
 0.1457583738594E-02 -0.4640486249535E-02  0.0000000000000E+00  0.1325176350556E-02
 0.1914165194061E-02 -0.4581623894506E-02  0.0000000000000E+00  0.5335555615475E-03
 0.2533193098633E-02 -0.4584954257107E-02  0.0000000000000E+00 -0.4085427747217E-03
 0.3352356301404E-02 -0.4676978605479E-02  0.0000000000000E+00 -0.1465226376756E-02
 0.4409540013611E-02 -0.4885452453764E-02  0.0000000000000E+00 -0.2565062601666E-02
 0.5732978221867E-02 -0.5233042793675E-02  0.0000000000000E+00 -0.3589400623788E-02
 0.7321131279096E-02 -0.5724388738955E-02  0.0000000000000E+00 -0.4367982722700E-02
 0.9120796143163E-02 -0.6329311222443E-02  0.0000000000000E+00 -0.4701732186792E-02
 0.1100193286239E-01 -0.6964351076593E-02  0.0000000000000E+00 -0.4400077670882E-02
 0.9612817955560E-04 -0.5723372156050E-02  0.0000000000000E+00 -0.1050684318968E-02
 0.2884713608458E-03 -0.5841017794070E-02  0.0000000000000E+00 -0.1015313637781E-02
 0.4759505553987E-03 -0.5952313720905E-02  0.0000000000000E+00 -0.9307640044304E-03
 0.6490206071866E-03 -0.6050802324805E-02  0.0000000000000E+00 -0.8019160192517E-03
 0.8002931049443E-03 -0.6132050434854E-02  0.0000000000000E+00 -0.6395213820564E-03
 0.9258295844130E-03 -0.6194448151514E-02  0.0000000000000E+00 -0.4563715076773E-03
 0.1024908733577E-02 -0.6238782159466E-02  0.0000000000000E+00 -0.2638252193536E-03
 0.1098984847714E-02 -0.6267231535313E-02  0.0000000000000E+00 -0.6998333573892E-04
 0.1150568734101E-02 -0.6282401940004E-02  0.0000000000000E+00  0.1205693877852E-03
 0.1182408589035E-02 -0.6286683078712E-02  0.0000000000000E+00  0.3061182453665E-03
 0.1197036656723E-02 -0.6281942561856E-02  0.0000000000000E+00  0.4868818597540E-03
 0.1196600959349E-02 -0.6269455719814E-02  0.0000000000000E+00  0.6641385683018E-03
 0.1182875267659E-02 -0.6249965840406E-02  0.0000000000000E+00  0.8395463299634E-03
 0.1157363578592E-02 -0.6223801946083E-02  0.0000000000000E+00  0.1014671915143E-02
 0.1121441175576E-02 -0.6191009807281E-02  0.0000000000000E+00  0.1190710443026E-02
 0.1076490428817E-02 -0.6151468283313E-02  0.0000000000000E+00  0.1368357995187E-02
 0.1024045673219E-02 -0.6105036786597E-02  0.0000000000000E+00  0.1547833974572E-02
 0.9658978889437E-03 -0.6051711228679E-02  0.0000000000000E+00  0.1728968470995E-02
 0.9040089031724E-03 -0.5991553328322E-02  0.0000000000000E+00  0.1911115574093E-02
 0.8403769605943E-03 -0.5924501372054E-02  0.0000000000000E+00  0.2092897001048E-02
 0.7770406874653E-03 -0.5850325921585E-02  0.0000000000000E+00  0.2271932335965E-02
 0.7161619110775E-03 -0.5768671334580E-02  0.0000000000000E+00  0.2444552963160E-02
 0.6601637726773E-03 -0.5679143518899E-02  0.0000000000000E+00  0.2605525791067E-02
 0.6119090847708E-03 -0.5581425123505E-02  0.0000000000000E+00  0.2747829154895E-02
 0.5749050392638E-03 -0.5475407403940E-02  0.0000000000000E+00  0.2862504859976E-02
 0.5535323149846E-03 -0.5361345413898E-02  0.0000000000000E+00  0.2938581390220E-02
 0.5533041525325E-03 -0.5240048427738E-02  0.0000000000000E+00  0.2963079507425E-02
 0.5811654930461E-03 -0.5113056689356E-02  0.0000000000000E+00  0.2921062651671E-02
 0.6459037472357E-03 -0.4982887520585E-02  0.0000000000000E+00  0.2795796451426E-02
 0.7587211523184E-03 -0.4853545319632E-02  0.0000000000000E+00  0.2569337026768E-02
 0.9338994554307E-03 -0.4731200365082E-02  0.0000000000000E+00  0.2223730896875E-02
 0.1189473317218E-02 -0.4624916561452E-02  0.0000000000000E+00  0.1742997825190E-02
 0.1547773601810E-02 -0.4547381477437E-02  0.0000000000000E+00  0.1116296965538E-02
 0.2035534370311E-02 -0.4515403841949E-02  0.0000000000000E+00  0.3426217576906E-03
 0.2683098154425E-02 -0.4549748995684E-02  0.0000000000000E+00 -0.5628185523769E-03
 0.3522302220191E-02 -0.4673721471503E-02  0.0000000000000E+00 -0.1560952413050E-02
 0.4582920252292E-02 -0.4910057045968E-02  0.0000000000000E+00 -0.2580866067740E-02
 0.5883779234988E-02 -0.5275039753401E-02  0.0000000000000E+00 -0.3511866351530E-02
 0.7415845518703E-02 -0.5767573322561E-02  0.0000000000000E+00 -0.4203416607021E-02
 0.9125437347263E-02 -0.6356366277590E-02  0.0000000000000E+00 -0.4484745703497E-02
 0.1089334277416E-01 -0.6965617906011E-02  0.0000000000000E+00 -0.4218519540586E-02
 0.9237433484153E-04 -0.5714435875644E-02  0.0000000000000E+00 -0.9813070151617E-03
 0.2770438417892E-03 -0.5827636466148E-02  0.0000000000000E+00 -0.9486407594855E-03
 0.4571351632152E-03 -0.5935068265399E-02  0.0000000000000E+00 -0.8710441393149E-03
 0.6241837631477E-03 -0.6030927640145E-02  0.0000000000000E+00 -0.7525664408814E-03
 0.7713963499522E-03 -0.6111001692437E-02  0.0000000000000E+00 -0.6022131584463E-03
 0.8948113182847E-03 -0.6173414941182E-02  0.0000000000000E+00 -0.4310014383905E-03
 0.9932543511559E-03 -0.6218398447435E-02  0.0000000000000E+00 -0.2490861497648E-03
 0.1067574217827E-02 -0.6247527387062E-02  0.0000000000000E+00 -0.6407074813415E-04
 0.1119728182560E-02 -0.6262912863607E-02  0.0000000000000E+00  0.1194122184444E-03
 0.1152056285680E-02 -0.6266613444026E-02  0.0000000000000E+00  0.2992967733549E-03
 0.1166840980212E-02 -0.6260316854295E-02  0.0000000000000E+00  0.4753430785234E-03
 0.1166113490162E-02 -0.6245232656323E-02  0.0000000000000E+00  0.6483831104117E-03
 0.1151628003320E-02 -0.6222114583732E-02  0.0000000000000E+00  0.8196982254192E-03
 0.1124932143507E-02 -0.6191347917665E-02  0.0000000000000E+00  0.9905679327518E-03
 0.1087479414888E-02 -0.6153057948517E-02  0.0000000000000E+00  0.1161985968271E-02
 0.1040743766652E-02 -0.6107211088264E-02  0.0000000000000E+00  0.1334512982693E-02
 0.9863498169205E-03 -0.6053750031334E-02  0.0000000000000E+00  0.1508273451536E-02
 0.9261743434379E-03 -0.5992741778856E-02  0.0000000000000E+00  0.1683018570594E-02
 0.8622801826616E-03 -0.5924322310682E-02  0.0000000000000E+00  0.1858007977745E-02
 0.7968087739622E-03 -0.5848536026682E-02  0.0000000000000E+00  0.2031738655476E-02
 0.7319987852625E-03 -0.5765309267451E-02  0.0000000000000E+00  0.2201695529756E-02
 0.6702724956837E-03 -0.5674499483183E-02  0.0000000000000E+00  0.2364097496569E-02
 0.6143696835128E-03 -0.5575985605564E-02  0.0000000000000E+00  0.2513649618150E-02
 0.5675181548557E-03 -0.5469785172863E-02  0.0000000000000E+00  0.2643339806923E-02
 0.5336303840957E-03 -0.5356190014921E-02  0.0000000000000E+00  0.2744308268655E-02
 0.5175248139003E-03 -0.5235927683166E-02  0.0000000000000E+00  0.2805794710099E-02
 0.5251740551910E-03 -0.5110357426365E-02  0.0000000000000E+00  0.2815184543048E-02
 0.5639859314352E-03 -0.4981654589360E-02  0.0000000000000E+00  0.2758126362231E-02
 0.6431751759310E-03 -0.4853054187622E-02  0.0000000000000E+00  0.2618795482890E-02
 0.7742545930161E-03 -0.4729317132838E-02  0.0000000000000E+00  0.2380612423211E-02
 0.9715656831046E-03 -0.4617318196126E-02  0.0000000000000E+00  0.2027572030068E-02
 0.1252752862946E-02 -0.4526628338288E-02  0.0000000000000E+00  0.1546319755166E-02
 0.1639027806607E-02 -0.4470020470219E-02  0.0000000000000E+00  0.9292989759359E-03
 0.2154923141356E-02 -0.4463657152845E-02  0.0000000000000E+00  0.1791825686620E-03
 0.2827121711718E-02 -0.4526565462662E-02  0.0000000000000E+00 -0.6854440756699E-03
 0.3682075798936E-02 -0.4678928675002E-02  0.0000000000000E+00 -0.1623760832302E-02
 0.4742519582312E-02 -0.4938975729314E-02  0.0000000000000E+00 -0.2566762361248E-02
 0.6019632991882E-02 -0.5317670348097E-02  0.0000000000000E+00 -0.3412275026512E-02
 0.7498990031393E-02 -0.5809631381129E-02  0.0000000000000E+00 -0.4027327891108E-02
 0.9126733087321E-02 -0.6382629916155E-02  0.0000000000000E+00 -0.4267466534631E-02
 0.1080386011891E-01 -0.6971864707360E-02  0.0000000000000E+00 -0.4024852535008E-02
 0.8891432809896E-04 -0.5706291471338E-02  0.0000000000000E+00 -0.9144767109434E-03
 0.2665385812883E-03 -0.5815362916784E-02  0.0000000000000E+00 -0.8842879953337E-03
 0.4398310580704E-03 -0.5919136180879E-02  0.0000000000000E+00 -0.8129723727855E-03
 0.6012160738946E-03 -0.6012351285718E-02  0.0000000000000E+00 -0.7039464659237E-03
 0.7444296084325E-03 -0.6091010887236E-02  0.0000000000000E+00 -0.5648016444804E-03
 0.8655452063107E-03 -0.6153060107049E-02  0.0000000000000E+00 -0.4050392149843E-03
 0.9630502868129E-03 -0.6198288789637E-02  0.0000000000000E+00 -0.2337039225134E-03
 0.1037295123756E-02 -0.6227758927940E-02  0.0000000000000E+00 -0.5785841561344E-04
 0.1089753149100E-02 -0.6243135853951E-02  0.0000000000000E+00  0.1179258008513E-03
 0.1122387980083E-02 -0.6246160403178E-02  0.0000000000000E+00  0.2913468337474E-03
 0.1137237709607E-02 -0.6238333162361E-02  0.0000000000000E+00  0.4617994500876E-03
 0.1136208070942E-02 -0.6220782404112E-02  0.0000000000000E+00  0.6297339667660E-03
 0.1121019241337E-02 -0.6194255712557E-02  0.0000000000000E+00  0.7960956859145E-03
 0.1093247228184E-02 -0.6159180199323E-02  0.0000000000000E+00  0.9618994792143E-03
 0.1054410787533E-02 -0.6115749848106E-02  0.0000000000000E+00  0.1127947876636E-02
 0.1006066962715E-02 -0.6064012291089E-02  0.0000000000000E+00  0.1294669251945E-02
 0.9499276903757E-03 -0.6003991991442E-02  0.0000000000000E+00  0.1462094378204E-02
 0.8879573481976E-03 -0.5935829927350E-02  0.0000000000000E+00  0.1629899493017E-02
 0.8223237004884E-03 -0.5859742222958E-02  0.0000000000000E+00  0.1797263094742E-02
 0.7553138849954E-03 -0.5775885870142E-02  0.0000000000000E+00  0.1962584162749E-02
 0.6893651657514E-03 -0.5684348094485E-02  0.0000000000000E+00  0.2123250686888E-02
 0.6271542825297E-03 -0.5585202672369E-02  0.0000000000000E+00  0.2275414098767E-02
 0.5717277179237E-03 -0.5478603179165E-02  0.0000000000000E+00  0.2413768353959E-02
 0.5266648342249E-03 -0.5364901890782E-02  0.0000000000000E+00  0.2531368420597E-02
 0.4962655911553E-03 -0.5244787831320E-02  0.0000000000000E+00  0.2619519442247E-02
 0.4857613355739E-03 -0.5119451214120E-02  0.0000000000000E+00  0.2667749430815E-02
 0.5015476533047E-03 -0.4990779956985E-02  0.0000000000000E+00  0.2663894388051E-02
 0.5514412192316E-03 -0.4861544390958E-02  0.0000000000000E+00  0.2594276264563E-02
 0.6450059522279E-03 -0.4735629139238E-02  0.0000000000000E+00  0.2444055494023E-02
 0.7939591496577E-03 -0.4618447382163E-02  0.0000000000000E+00  0.2198051935237E-02
 0.1012569764917E-02 -0.4517432598156E-02  0.0000000000000E+00  0.1842161581614E-02
 0.1317945732561E-02 -0.4442476528275E-02  0.0000000000000E+00  0.1365468925727E-02
 0.1730051993121E-02 -0.4406227236039E-02  0.0000000000000E+00  0.7633039163485E-03
 0.2271177052759E-02 -0.4424012442124E-02  0.0000000000000E+00  0.4134165362635E-04
 0.2964497100327E-02 -0.4513041030795E-02  0.0000000000000E+00 -0.7794326030762E-03
 0.3831577442461E-02 -0.4690530771629E-02  0.0000000000000E+00 -0.1657609970483E-02
 0.4889096294615E-02 -0.4970719999307E-02  0.0000000000000E+00 -0.2527096121011E-02
 0.6142080091738E-02 -0.5360193121129E-02  0.0000000000000E+00 -0.3294341452286E-02
 0.7572119218148E-02 -0.5850290784115E-02  0.0000000000000E+00 -0.3842288427041E-02
 0.9127199973799E-02 -0.6409009726503E-02  0.0000000000000E+00 -0.4049416325104E-02
 0.1072212551417E-01 -0.6980043754238E-02  0.0000000000000E+00 -0.3827446711432E-02
 0.8572086611969E-04 -0.5698838216965E-02  0.0000000000000E+00 -0.8500173580997E-03
 0.2568674194484E-03 -0.5804074090492E-02  0.0000000000000E+00 -0.8221245465934E-03
 0.4239016165053E-03 -0.5904396753130E-02  0.0000000000000E+00 -0.7565471937315E-03
 0.5799796296054E-03 -0.5994997550996E-02  0.0000000000000E+00 -0.6562132488380E-03
 0.7193028801752E-03 -0.6072081730788E-02  0.0000000000000E+00 -0.5275615624449E-03
 0.8380159181650E-03 -0.6133476749924E-02  0.0000000000000E+00 -0.3787986950516E-03
 0.9343565270295E-03 -0.6178623064933E-02  0.0000000000000E+00 -0.2179575946299E-03
 0.1008267065208E-02 -0.6208149250633E-02  0.0000000000000E+00 -0.5154374191113E-04
 0.1060801871428E-02 -0.6223323624837E-02  0.0000000000000E+00  0.1160127715862E-03
 0.1093582163478E-02 -0.6225588301529E-02  0.0000000000000E+00  0.2822702329155E-03
 0.1108411998053E-02 -0.6216256003836E-02  0.0000000000000E+00  0.4463419612359E-03
 0.1107067655027E-02 -0.6196363309520E-02  0.0000000000000E+00  0.6083590202577E-03
 0.1091224502723E-02 -0.6166638317822E-02  0.0000000000000E+00  0.7689722640179E-03
 0.1062474213481E-02 -0.6127537362309E-02  0.0000000000000E+00  0.9289569185443E-03
 0.1022389389953E-02 -0.6079313143428E-02  0.0000000000000E+00  0.1088937437382E-02
 0.9726022371270E-03 -0.6022088250782E-02  0.0000000000000E+00  0.1249216362094E-02
 0.9149085045758E-03 -0.5955966739347E-02  0.0000000000000E+00  0.1409735200817E-02
 0.8513605096089E-03 -0.5881165174451E-02  0.0000000000000E+00  0.1570101622779E-02
 0.7842329072460E-03 -0.5797983973506E-02  0.0000000000000E+00  0.1729427323191E-02
 0.7159591105346E-03 -0.5706697211591E-02  0.0000000000000E+00  0.1886039593674E-02
 0.6491719362341E-03 -0.5607555974222E-02  0.0000000000000E+00  0.2037266075366E-02
 0.5867951967084E-03 -0.5500851143477E-02  0.0000000000000E+00  0.2179234517054E-02
 0.5321705923224E-03 -0.5387009466318E-02  0.0000000000000E+00  0.2306677091676E-02
 0.4892136171247E-03 -0.5266713856324E-02  0.0000000000000E+00  0.2412770936079E-02
 0.4625915147843E-03 -0.5141042359983E-02  0.0000000000000E+00  0.2489048115396E-02
 0.4579212617882E-03 -0.5011632681573E-02  0.0000000000000E+00  0.2525393848316E-02
 0.4819834379448E-03 -0.4880874854856E-02  0.0000000000000E+00  0.2510167440158E-02
 0.5429501289449E-03 -0.4752090001053E-02  0.0000000000000E+00  0.2430432819668E-02
 0.6506609985208E-03 -0.4629743080138E-02  0.0000000000000E+00  0.2272384196124E-02
 0.8169430771497E-03 -0.4519799557482E-02  0.0000000000000E+00  0.2022242309378E-02
 0.1055881501873E-02 -0.4430119127818E-02  0.0000000000000E+00  0.1667720256534E-02
 0.1383935519253E-02 -0.4370754956367E-02  0.0000000000000E+00  0.1200122737687E-02
 0.1819744422207E-02 -0.4354064944917E-02  0.0000000000000E+00  0.6172581453821E-03
 0.2383368607621E-02 -0.4394416394623E-02  0.0000000000000E+00 -0.7283365917277E-04
 0.3094681501297E-02 -0.4507190896079E-02  0.0000000000000E+00 -0.8476172493377E-03
 0.3970863123676E-02 -0.4706845489736E-02  0.0000000000000E+00 -0.1666019649529E-02
 0.5023426783313E-02 -0.5004129827053E-02  0.0000000000000E+00 -0.2465540510448E-02
 0.6252453438763E-02 -0.5402042297621E-02  0.0000000000000E+00 -0.3161101102610E-02
 0.7636829088860E-02 -0.5889529667741E-02  0.0000000000000E+00 -0.3650092012024E-02
 0.9127118213284E-02 -0.6435646598866E-02  0.0000000000000E+00 -0.3829937879761E-02
 0.1064798722415E-01 -0.6990558711586E-02  0.0000000000000E+00 -0.3626381985344E-02
 0.8277246034633E-04 -0.5691997935718E-02  0.0000000000000E+00 -0.7877642997399E-03
 0.2479601834485E-03 -0.5793673748937E-02  0.0000000000000E+00 -0.7620207008761E-03
 0.4092359592477E-03 -0.5890754170259E-02  0.0000000000000E+00 -0.7017416852928E-03
 0.5603590774802E-03 -0.5978804796265E-02  0.0000000000000E+00 -0.6094709558263E-03
 0.6959368125780E-03 -0.6054216245138E-02  0.0000000000000E+00 -0.4907011027026E-03
 0.8122049278649E-03 -0.6114742074615E-02  0.0000000000000E+00 -0.3525312927236E-03
 0.9072194776004E-03 -0.6159546648230E-02  0.0000000000000E+00 -0.2020792434596E-03
 0.9805907400913E-03 -0.6188894234781E-02  0.0000000000000E+00 -0.4529540304953E-04
 0.1033012750423E-02 -0.6203702930414E-02  0.0000000000000E+00  0.1135891974448E-03
 0.1065798811338E-02 -0.6205138474061E-02  0.0000000000000E+00  0.2720718023124E-03
 0.1080532650094E-02 -0.6194329960657E-02  0.0000000000000E+00  0.4290585892481E-03
 0.1078860998024E-02 -0.6172216255640E-02  0.0000000000000E+00  0.5844201011575E-03
 0.1062406882595E-02 -0.6139495739678E-02  0.0000000000000E+00  0.7385541362573E-03
 0.1032767325354E-02 -0.6096643261610E-02  0.0000000000000E+00  0.8920227575294E-03
 0.9915588851421E-03 -0.6043961223681E-02  0.0000000000000E+00  0.1045287823543E-02
 0.9404815487481E-03 -0.5981641061009E-02  0.0000000000000E+00  0.1198535249588E-02
 0.8814109321133E-03 -0.5909863661240E-02  0.0000000000000E+00  0.1351624402009E-02
 0.8164863762627E-03 -0.5828921614872E-02  0.0000000000000E+00  0.1504102799557E-02
 0.7480896696352E-03 -0.5739202154745E-02  0.0000000000000E+00  0.1655030459704E-02
 0.6787993156347E-03 -0.5641099017823E-02  0.0000000000000E+00  0.1802688763981E-02
 0.6114391129795E-03 -0.5535028048099E-02  0.0000000000000E+00  0.1944380258142E-02
 0.5491712143386E-03 -0.5421495668150E-02  0.0000000000000E+00  0.2076251139036E-02
 0.4956196504036E-03 -0.5301197488493E-02  0.0000000000000E+00  0.2193119111824E-02
 0.4550189852408E-03 -0.5175139484291E-02  0.0000000000000E+00  0.2288335594443E-02
 0.4323817424198E-03 -0.5044776496385E-02  0.0000000000000E+00  0.2353716525668E-02
 0.4336817107076E-03 -0.4912174254577E-02  0.0000000000000E+00  0.2379564967125E-02
 0.4660460218165E-03 -0.4780194493228E-02  0.0000000000000E+00  0.2354823620729E-02
 0.5379506306571E-03 -0.4652662602283E-02  0.0000000000000E+00  0.2267349146053E-02
 0.6594435346360E-03 -0.4534555510490E-02  0.0000000000000E+00  0.2104394817777E-02
 0.8423790554011E-03 -0.4432297447590E-02  0.0000000000000E+00  0.1853556285055E-02
 0.1100568218179E-02 -0.4354056841463E-02  0.0000000000000E+00  0.1504252093203E-02
 0.1449740936705E-02 -0.4309915784747E-02  0.0000000000000E+00  0.1049769199651E-02
 0.1907173666938E-02 -0.4311817545287E-02  0.0000000000000E+00  0.4899912691625E-03
 0.2490760175602E-02 -0.4373095912556E-02  0.0000000000000E+00 -0.1652624657251E-03
 0.3217306338034E-02 -0.4507348254973E-02  0.0000000000000E+00 -0.8926325204857E-03
 0.4100095586171E-02 -0.4726503140174E-02  0.0000000000000E+00 -0.1652104189189E-02
 0.5146262062806E-02 -0.5038290695086E-02  0.0000000000000E+00 -0.2385202583838E-02
 0.6351953528298E-02 -0.5442798939109E-02  0.0000000000000E+00 -0.3015027337886E-02
 0.7694330711783E-02 -0.5927336165088E-02  0.0000000000000E+00 -0.3451859032489E-02
 0.9126636959343E-02 -0.6462346225325E-02  0.0000000000000E+00 -0.3608601729735E-02
 0.1058099332313E-01 -0.7002996810197E-02  0.0000000000000E+00 -0.3422074041883E-02
 0.8005217151580E-04 -0.5685710411328E-02  0.0000000000000E+00 -0.7275618417898E-03
 0.2397609480783E-03 -0.5784087138843E-02  0.0000000000000E+00 -0.7038480206253E-03
 0.3957441227819E-03 -0.5878133088432E-02  0.0000000000000E+00 -0.6485096006191E-03
 0.5422583264400E-03 -0.5963723862393E-02  0.0000000000000E+00 -0.5637816937803E-03
 0.6742623776689E-03 -0.6037416494897E-02  0.0000000000000E+00 -0.4543734283689E-03
 0.7880927070432E-03 -0.6096921273990E-02  0.0000000000000E+00 -0.3264342353126E-03
 0.8816752508066E-03 -0.6141184729020E-02  0.0000000000000E+00 -0.1862576990354E-03
 0.9543511566572E-03 -0.6170166066281E-02  0.0000000000000E+00 -0.3925344856023E-04
 0.1006506657192E-02 -0.6184476847606E-02  0.0000000000000E+00  0.1105864214530E-03
 0.1039180813633E-02 -0.6185030429788E-02  0.0000000000000E+00  0.2607617654700E-03
 0.1053752882218E-02 -0.6172780133731E-02  0.0000000000000E+00  0.4100363840727E-03
 0.1051743006140E-02 -0.6148564743547E-02  0.0000000000000E+00  0.5580745069600E-03
 0.1034717187168E-02 -0.6113045520635E-02  0.0000000000000E+00  0.7050610723613E-03
 0.1004269693087E-02 -0.6066706996495E-02  0.0000000000000E+00  0.8513721622297E-03
 0.9620525783219E-03 -0.6009893267550E-02  0.0000000000000E+00  0.9973242586729E-03
 0.9098267762886E-03 -0.5942858713870E-02  0.0000000000000E+00  0.1142998066008E-02
 0.8495434744498E-03 -0.5865857797929E-02  0.0000000000000E+00  0.1288180097457E-02
 0.7834270518387E-03 -0.5779258513655E-02  0.0000000000000E+00  0.1432367753870E-02
 0.7139651671833E-03 -0.5683535924817E-02  0.0000000000000E+00  0.1574585044724E-02
 0.6438786335634E-03 -0.5579204197338E-02  0.0000000000000E+00  0.1713092544953E-02
 0.5761762300116E-03 -0.5466842844937E-02  0.0000000000000E+00  0.1845201448342E-02
 0.5142484565779E-03 -0.5347170056355E-02  0.0000000000000E+00  0.1967116558748E-02
 0.4619875511818E-03 -0.5221143421857E-02  0.0000000000000E+00  0.2073785967579E-02
 0.4239287784965E-03 -0.5090081375996E-02  0.0000000000000E+00  0.2158784028715E-02
 0.4054066767601E-03 -0.4955799954145E-02  0.0000000000000E+00  0.2214262203588E-02
 0.4127222483382E-03 -0.4820770100151E-02  0.0000000000000E+00  0.2230993917760E-02
 0.4533112194294E-03 -0.4688292197268E-02  0.0000000000000E+00  0.2198553603284E-02
 0.5359048075720E-03 -0.4562648543624E-02  0.0000000000000E+00  0.2105625483948E-02
 0.6706988924316E-03 -0.4449262219179E-02  0.0000000000000E+00  0.1940527362421E-02
 0.8695054044507E-03 -0.4354930683679E-02  0.0000000000000E+00  0.1692182012868E-02
 0.1145791189906E-02 -0.4288029395983E-02  0.0000000000000E+00  0.1351582484668E-02
 0.1514504676550E-02 -0.4258562608321E-02  0.0000000000000E+00  0.9137516886388E-03
 0.1991557210934E-02 -0.4277970610647E-02  0.0000000000000E+00  0.3802615455804E-03
 0.2592771273387E-02 -0.4358523099238E-02  0.0000000000000E+00 -0.2378163535651E-03
 0.3332137253666E-02 -0.4512113393426E-02  0.0000000000000E+00 -0.9169091898201E-03
 0.4219504211247E-02 -0.4748384847705E-02  0.0000000000000E+00 -0.1618611105574E-02
 0.5258315698807E-02 -0.5072476161852E-02  0.0000000000000E+00 -0.2288719928431E-02
 0.6441620441823E-02 -0.5482142041976E-02  0.0000000000000E+00 -0.2858099941599E-02
 0.7745544902243E-02 -0.5963620580593E-02  0.0000000000000E+00 -0.3248397875868E-02
 0.9125867531136E-02 -0.6488795432613E-02  0.0000000000000E+00 -0.3385288161355E-02
 0.1052069522613E-01 -0.7016846153018E-02  0.0000000000000E+00 -0.3214910887367E-02
 0.7754664636153E-04 -0.5679929750345E-02  0.0000000000000E+00 -0.6692613080779E-03
 0.2322251271289E-03 -0.5775256728471E-02  0.0000000000000E+00 -0.6474793001945E-03
 0.3833531649489E-03 -0.5866474920205E-02  0.0000000000000E+00 -0.5967897983144E-03
 0.5255976370937E-03 -0.5949716418035E-02  0.0000000000000E+00 -0.5191739757516E-03
 0.6542201988117E-03 -0.6021685532041E-02  0.0000000000000E+00 -0.4186861416507E-03
 0.7656601491181E-03 -0.6080070361165E-02  0.0000000000000E+00 -0.3006579699763E-03
 0.8577521959742E-03 -0.6123645766517E-02  0.0000000000000E+00 -0.1706425383072E-03
 0.9296202508397E-03 -0.6152116280812E-02  0.0000000000000E+00 -0.3353024213916E-04
 0.9813890360627E-03 -0.6165826933371E-02  0.0000000000000E+00  0.1069520083510E-03
 0.1013855401395E-02 -0.6165463121920E-02  0.0000000000000E+00  0.2483574251715E-03
 0.1028211172469E-02 -0.6151812760584E-02  0.0000000000000E+00  0.3893631539493E-03
 0.1025855192078E-02 -0.6125615129695E-02  0.0000000000000E+00  0.5294763523604E-03
 0.1008294163610E-02 -0.6087489474846E-02  0.0000000000000E+00  0.6687073739708E-03
 0.9771134805548E-03 -0.6037922947544E-02  0.0000000000000E+00  0.8072735154610E-03
 0.9339935510398E-03 -0.5977294332759E-02  0.0000000000000E+00  0.9453642436214E-03
 0.8807499466981E-03 -0.5905915306261E-02  0.0000000000000E+00  0.1082968129662E-02
 0.8194048649534E-03 -0.5824110228162E-02  0.0000000000000E+00  0.1219809785879E-02
 0.7522648319560E-03 -0.5732320926980E-02  0.0000000000000E+00  0.1355347745412E-02
 0.6819208017294E-03 -0.5631109932381E-02  0.0000000000000E+00  0.1488585975995E-02
 0.6112316839070E-03 -0.5521110912822E-02  0.0000000000000E+00  0.1617788530199E-02
 0.5433839186010E-03 -0.5403064089728E-02  0.0000000000000E+00  0.1740307328142E-02
 0.4819852044818E-03 -0.5277893589596E-02  0.0000000000000E+00  0.1852443718982E-02
 0.4311807988479E-03 -0.5146809783796E-02  0.0000000000000E+00  0.1949318244093E-02
 0.3957872950662E-03 -0.5011430362303E-02  0.0000000000000E+00  0.2024773091177E-02
 0.3814371968823E-03 -0.4873914209471E-02  0.0000000000000E+00  0.2071341499465E-02
 0.3947289877703E-03 -0.4737112171053E-02  0.0000000000000E+00  0.2080312008553E-02
 0.4433702844159E-03 -0.4604728648021E-02  0.0000000000000E+00  0.2041928403715E-02
 0.5363026729807E-03 -0.4481455865078E-02  0.0000000000000E+00  0.1945723473904E-02
 0.6838169952200E-03 -0.4373101023991E-02  0.0000000000000E+00  0.1781068709012E-02
 0.8976258509193E-03 -0.4286758206461E-02  0.0000000000000E+00  0.1538149740937E-02
 0.1190800835161E-02 -0.4230924021914E-02  0.0000000000000E+00  0.1209391150932E-02
 0.1577481885825E-02 -0.4215442014241E-02  0.0000000000000E+00  0.7913057184779E-03
 0.2072241472248E-02 -0.4251192350701E-02  0.0000000000000E+00  0.2867904116106E-03
 0.2688950362253E-02 -0.4349383662960E-02  0.0000000000000E+00 -0.2922976044600E-03
 0.3439041126843E-02 -0.4520310416970E-02  0.0000000000000E+00 -0.9226780737083E-03
 0.4329357408641E-02 -0.4771573246619E-02  0.0000000000000E+00 -0.1567963801854E-02
 0.5360249620380E-02 -0.5106104352211E-02  0.0000000000000E+00 -0.2178332622431E-02
 0.6522340204177E-02 -0.5519804639196E-02  0.0000000000000E+00 -0.2691925233158E-02
 0.7791192969301E-02 -0.5998242254742E-02  0.0000000000000E+00 -0.3040373413039E-02
 0.9124916416628E-02 -0.6514676462750E-02  0.0000000000000E+00 -0.3160056496023E-02
 0.1046664724521E-01 -0.7031633171592E-02  0.0000000000000E+00 -0.3005165624506E-02
 0.7524537075403E-04 -0.5674621471431E-02  0.0000000000000E+00 -0.6127194822845E-03
 0.2253171928127E-03 -0.5767138773509E-02  0.0000000000000E+00 -0.5927884053089E-03
 0.3720040150264E-03 -0.5855734729729E-02  0.0000000000000E+00 -0.5465095132099E-03
 0.5103110875726E-03 -0.5936753350744E-02  0.0000000000000E+00 -0.4756493170605E-03
 0.6357596956636E-03 -0.6007027814264E-02  0.0000000000000E+00 -0.3837090674511E-03
 0.7448894413123E-03 -0.6064238208351E-02  0.0000000000000E+00 -0.2753127145746E-03
 0.8354728239774E-03 -0.6107024230329E-02  0.0000000000000E+00 -0.1553480999971E-03
 0.9064590601773E-03 -0.6134878359568E-02  0.0000000000000E+00 -0.2821195718229E-04
 0.9577517833738E-03 -0.6147915209958E-02  0.0000000000000E+00  0.1026499965592E-03
 0.9899355203717E-03 -0.6146616233833E-02  0.0000000000000E+00  0.2348842721986E-03
 0.1004032151077E-02 -0.6131615935066E-02  0.0000000000000E+00  0.3671287754997E-03
 0.1001326204575E-02 -0.6103556979685E-02  0.0000000000000E+00  0.4987777284219E-03
 0.9832648036156E-03 -0.6063013853808E-02  0.0000000000000E+00  0.6297027510197E-03
 0.9514200809118E-03 -0.6010470883688E-02  0.0000000000000E+00  0.7599889904246E-03
 0.9074948476740E-03 -0.5946335496143E-02  0.0000000000000E+00  0.8897178508733E-03
 0.8533535044887E-03 -0.5870971285952E-02  0.0000000000000E+00  0.1018799988243E-02
 0.7910844993393E-03 -0.5784768486042E-02  0.0000000000000E+00  0.1146910254172E-02
 0.7230728536143E-03 -0.5688240352343E-02  0.0000000000000E+00  0.1273480404792E-02
 0.6520091044680E-03 -0.5582035262204E-02  0.0000000000000E+00  0.1397510383524E-02
 0.5808847700474E-03 -0.5466903895270E-02  0.0000000000000E+00  0.1517291037490E-02
 0.5130554374347E-03 -0.5343742476525E-02  0.0000000000000E+00  0.1630245290200E-02
 0.4523338169128E-03 -0.5213673355769E-02  0.0000000000000E+00  0.1732806566169E-02
 0.4031021026928E-03 -0.5078148429416E-02  0.0000000000000E+00  0.1820306904626E-02
 0.3704381190994E-03 -0.4939069232139E-02  0.0000000000000E+00  0.1886897303567E-02
 0.3602479131532E-03 -0.4798916968860E-02  0.0000000000000E+00  0.1925533702340E-02
 0.3793981173234E-03 -0.4660895311523E-02  0.0000000000000E+00  0.1928057230178E-02
 0.4358333869331E-03 -0.4529077354327E-02  0.0000000000000E+00  0.1885409113175E-02
 0.5386650358667E-03 -0.4408519606912E-02  0.0000000000000E+00  0.1787980009007E-02
 0.6982337418643E-03 -0.4305356020995E-02  0.0000000000000E+00  0.1626171344197E-02
 0.9261082028455E-03 -0.4226910073703E-02  0.0000000000000E+00  0.1391355702690E-02
 0.1234931139219E-02 -0.4181728964159E-02  0.0000000000000E+00  0.1077240358165E-02
 0.1638028754095E-02 -0.4179434322069E-02  0.0000000000000E+00  0.6815886934825E-03
 0.2148683610738E-02 -0.4230315439206E-02  0.0000000000000E+00  0.2082880833522E-03
 0.2778950655082E-02 -0.4344548838649E-02  0.0000000000000E+00 -0.3304263739092E-03
 0.3537959882162E-02 -0.4530950857169E-02  0.0000000000000E+00 -0.9119803451224E-03
 0.4429941882947E-02 -0.4795313561512E-02  0.0000000000000E+00 -0.1502301214742E-02
 0.5452666659451E-02 -0.5138703035613E-02  0.0000000000000E+00 -0.2055951458230E-02
 0.6594865182535E-02 -0.5555555180876E-02  0.0000000000000E+00 -0.2517834313887E-02
 0.7831858206016E-02 -0.6031043380090E-02  0.0000000000000E+00 -0.2828367617455E-02
 0.9123880344984E-02 -0.6539704337665E-02  0.0000000000000E+00 -0.2933037011402E-02
 0.1041841455718E-01 -0.7046935838660E-02  0.0000000000000E+00 -0.2793030268491E-02
 0.7314008530155E-04 -0.5669760157194E-02  0.0000000000000E+00 -0.5577973610755E-03
 0.2190088745786E-03 -0.5759700532872E-02  0.0000000000000E+00 -0.5396500635359E-03
 0.3616489186265E-03 -0.5845878635246E-02  0.0000000000000E+00 -0.4975867951401E-03
 0.4963443881001E-03 -0.5924813260180E-02  0.0000000000000E+00 -0.4331874092644E-03
 0.6188381569597E-03 -0.5993449279351E-02  0.0000000000000E+00 -0.3494806596351E-03
 0.7257645469302E-03 -0.6049467992385E-02  0.0000000000000E+00 -0.2504741985384E-03
 0.8148552528990E-03 -0.6091402758175E-02  0.0000000000000E+00 -0.1404573699430E-03
 0.8849195107842E-03 -0.6118569918694E-02  0.0000000000000E+00 -0.2336041542603E-04
 0.9356748995887E-03 -0.6130885955414E-02  0.0000000000000E+00  0.9766062947326E-04
 0.9675211197760E-03 -0.6128651431518E-02  0.0000000000000E+00  0.2203766138041E-03
 0.9813274951730E-03 -0.6112360380628E-02  0.0000000000000E+00  0.3434261614857E-03
 0.9782724023534E-03 -0.6082563503368E-02  0.0000000000000E+00  0.4661296656081E-03
 0.9597447017636E-03 -0.6039789588343E-02  0.0000000000000E+00  0.5882531164862E-03
 0.9273003632258E-03 -0.5984516129674E-02  0.0000000000000E+00  0.7097751224574E-03
 0.8826597061502E-03 -0.5917174039202E-02  0.0000000000000E+00  0.8306880751369E-03
 0.8277306142405E-03 -0.5838173731921E-02  0.0000000000000E+00  0.9508395869645E-03
 0.7646628848437E-03 -0.5747967003552E-02  0.0000000000000E+00  0.1069867634476E-02
 0.6959157467826E-03 -0.5647135394153E-02  0.0000000000000E+00  0.1187189774013E-02
 0.6242746275797E-03 -0.5536410382633E-02  0.0000000000000E+00  0.1301817755225E-02
 0.5528570406284E-03 -0.5416655737557E-02  0.0000000000000E+00  0.1412091423073E-02
 0.4851781373367E-03 -0.5288917382961E-02  0.0000000000000E+00  0.1515533062407E-02
 0.4252425377012E-03 -0.5154506466463E-02  0.0000000000000E+00  0.1608741158884E-02
 0.3776525594368E-03 -0.5015103345618E-02  0.0000000000000E+00  0.1687295143136E-02
 0.3477266792293E-03 -0.4872876144783E-02  0.0000000000000E+00  0.1745691826570E-02
 0.3416200360888E-03 -0.4730606175112E-02  0.0000000000000E+00  0.1777345621622E-02
 0.3664389041750E-03 -0.4591821722999E-02  0.0000000000000E+00  0.1774681056696E-02
 0.4303324175959E-03 -0.4460929278024E-02  0.0000000000000E+00  0.1729356596552E-02
 0.5425455591673E-03 -0.4343306055616E-02  0.0000000000000E+00  0.1632620484931E-02
 0.7134315160420E-03 -0.4245360591079E-02  0.0000000000000E+00  0.1475870606124E-02
 0.9543822411443E-03 -0.4174587977755E-02  0.0000000000000E+00  0.1251583250469E-02
 0.1277593685900E-02 -0.4139529880165E-02  0.0000000000000E+00  0.9545987754784E-03
 0.1695591567707E-02 -0.4149544045631E-02  0.0000000000000E+00  0.5837036033524E-03
 0.2220435213390E-02 -0.4214320057657E-02  0.0000000000000E+00  0.1434719890469E-03
 0.2862509671358E-02 -0.4343050742130E-02  0.0000000000000E+00 -0.3538346580318E-03
 0.3628889693017E-02 -0.4543203407585E-02  0.0000000000000E+00 -0.8866812786966E-03
 0.4521547588531E-02 -0.4818982493821E-02  0.0000000000000E+00 -0.1423515225213E-02
 0.5536109065805E-02 -0.5169884500807E-02  0.0000000000000E+00 -0.1923217908802E-02
 0.6659835926396E-02 -0.5589191122761E-02  0.0000000000000E+00 -0.2336951200887E-02
 0.7868022046191E-02 -0.6061869608167E-02  0.0000000000000E+00 -0.2612897369736E-02
 0.9122839351789E-02 -0.6563631338776E-02  0.0000000000000E+00 -0.2704378334671E-02
 0.1037557942887E-01 -0.7062379726189E-02  0.0000000000000E+00 -0.2578652383371E-02
 0.7122432438531E-04 -0.5665327546526E-02  0.0000000000000E+00 -0.5043591587778E-03
 0.2132777274014E-03 -0.5752917998612E-02  0.0000000000000E+00 -0.4879396462778E-03
 0.3522493595057E-03 -0.5836881635103E-02  0.0000000000000E+00 -0.4499323499944E-03
 0.4836530097417E-03 -0.5913881082090E-02  0.0000000000000E+00 -0.3917502089955E-03
 0.6034198106537E-03 -0.5980957202610E-02  0.0000000000000E+00 -0.3160132863697E-03
 0.7082714182617E-03 -0.6035798200315E-02  0.0000000000000E+00 -0.2261886656896E-03
 0.7959142798788E-03 -0.6076853843208E-02  0.0000000000000E+00 -0.1260256502977E-03
 0.8650458732593E-03 -0.6103294539333E-02  0.0000000000000E+00 -0.1901511497431E-04
 0.9152279235374E-03 -0.6114867293052E-02  0.0000000000000E+00  0.9197970650195E-04
 0.9467003371263E-03 -0.6111713549392E-02  0.0000000000000E+00  0.2048778119993E-03
 0.9601968001095E-03 -0.6094200239605E-02  0.0000000000000E+00  0.3183519256808E-03
 0.9567984480139E-03 -0.6062792041210E-02  0.0000000000000E+00  0.4316829063295E-03
 0.9378384508348E-03 -0.6017972587275E-02  0.0000000000000E+00  0.5445612898513E-03
 0.9048549586992E-03 -0.5960209782530E-02  0.0000000000000E+00  0.6568833664998E-03
 0.8595818233965E-03 -0.5889953671703E-02  0.0000000000000E+00  0.7685712302854E-03
 0.8039654876894E-03 -0.5807656661766E-02  0.0000000000000E+00  0.8794245348941E-03
 0.7402120993710E-03 -0.5713827568835E-02  0.0000000000000E+00  0.9890576065585E-03
 0.6708502785068E-03 -0.5609112432067E-02  0.0000000000000E+00  0.1096886537163E-02
 0.5987548093114E-03 -0.5494322078838E-02  0.0000000000000E+00  0.1201950299362E-02
 0.5271616023723E-03 -0.5370428149010E-02  0.0000000000000E+00  0.1302658684902E-02
 0.4597348477628E-03 -0.5238618507989E-02  0.0000000000000E+00  0.1396659678379E-02
 0.4006571818064E-03 -0.5100382141551E-02  0.0000000000000E+00  0.1480747175389E-02
 0.3547336539441E-03 -0.4957613234397E-02  0.0000000000000E+00  0.1550780669987E-02
 0.3275025447941E-03 -0.4812727728766E-02  0.0000000000000E+00  0.1601635855431E-02
 0.3253438832457E-03 -0.4668783571948E-02  0.0000000000000E+00  0.1627216518153E-02
 0.3555762232238E-03 -0.4529604837204E-02  0.0000000000000E+00  0.1620555412390E-02
 0.4265232045888E-03 -0.4399896701017E-02  0.0000000000000E+00  0.1574041018583E-02
 0.5475321473435E-03 -0.4285316074995E-02  0.0000000000000E+00  0.1479771328827E-02
 0.7289390188673E-03 -0.4192499391974E-02  0.0000000000000E+00  0.1330100394060E-02
 0.9819370864760E-03 -0.4129064793399E-02  0.0000000000000E+00  0.1118521359351E-02
 0.1318271584936E-02 -0.4103505591154E-02  0.0000000000000E+00  0.8408614041916E-03
 0.1749696456905E-02 -0.4124890471494E-02  0.0000000000000E+00  0.4967175747710E-03
 0.2287127874277E-02 -0.4202318372845E-02  0.0000000000000E+00  0.9107947269840E-04
 0.2939432111746E-02 -0.4344060990030E-02  0.0000000000000E+00 -0.3640651293766E-03
 0.3711864577534E-02 -0.4556368837016E-02  0.0000000000000E+00 -0.8484858338270E-03
 0.4604457288209E-02 -0.4842063667748E-02  0.0000000000000E+00 -0.1333285143384E-02
 0.5611060479351E-02 -0.5199327992657E-02  0.0000000000000E+00 -0.1781553576316E-02
 0.6717799499029E-02 -0.5620536349102E-02  0.0000000000000E+00 -0.2150238538333E-02
 0.7900085894892E-02 -0.6090579187137E-02  0.0000000000000E+00 -0.2394421371556E-02
 0.9121853460357E-02 -0.6586242771823E-02  0.0000000000000E+00 -0.2474226497349E-02
 0.1033774667667E-01 -0.7077631813285E-02  0.0000000000000E+00 -0.2362161471261E-02
 0.6949305007815E-04 -0.5661310975926E-02  0.0000000000000E+00 -0.4522715162274E-03
 0.2081059875446E-03 -0.5746774036440E-02  0.0000000000000E+00 -0.4375329652778E-03
 0.3437743654548E-03 -0.5828725787717E-02  0.0000000000000E+00 -0.4034509491169E-03
 0.4722005911660E-03 -0.5903946853851E-02  0.0000000000000E+00 -0.3512851961916E-03
 0.5894749340441E-03 -0.5969559925244E-02  0.0000000000000E+00 -0.2832976067707E-03
 0.6923980285339E-03 -0.6023263311767E-02  0.0000000000000E+00 -0.2024772214659E-03
 0.7786621643921E-03 -0.6063441145127E-02  0.0000000000000E+00 -0.1120839692901E-03
 0.8468759396290E-03 -0.6089143285586E-02  0.0000000000000E+00 -0.1519533922993E-04
 0.8964711641397E-03 -0.6099972584266E-02  0.0000000000000E+00  0.8561766521048E-04
 0.9275505697766E-03 -0.6095931688706E-02  0.0000000000000E+00  0.1884402112347E-03
 0.9407284076722E-03 -0.6077273850072E-02  0.0000000000000E+00  0.2920067862764E-03
 0.9369979018271E-03 -0.6044384576681E-02  0.0000000000000E+00  0.3955884998072E-03
 0.9176400578094E-03 -0.5997704074534E-02  0.0000000000000E+00  0.4988276067398E-03
 0.8841745740480E-03 -0.5937688964848E-02  0.0000000000000E+00  0.6015606324196E-03
 0.8383456454856E-03 -0.5864804784495E-02  0.0000000000000E+00  0.7036573842182E-03
 0.7821337264324E-03 -0.5779541358015E-02  0.0000000000000E+00  0.8048844613147E-03
 0.7177962519945E-03 -0.5682459790882E-02  0.0000000000000E+00  0.9048457366291E-03
 0.6479259806717E-03 -0.5574266280523E-02  0.0000000000000E+00  0.1002968430107E-02
 0.5754808028689E-03 -0.5455846357968E-02  0.0000000000000E+00  0.1098333527779E-02
 0.5038065738799E-03 -0.5328273155646E-02  0.0000000000000E+00  0.1189440330532E-02
 0.4367051750927E-03 -0.5192867417964E-02  0.0000000000000E+00  0.1274086757724E-02
 0.3785226933092E-03 -0.5051283649435E-02  0.0000000000000E+00  0.1349289769776E-02
 0.3342490774628E-03 -0.4905613880586E-02  0.0000000000000E+00  0.1411218364477E-02
 0.3096214697666E-03 -0.4758501873952E-02  0.0000000000000E+00  0.1455156359269E-02
 0.3112210508841E-03 -0.4613257851330E-02  0.0000000000000E+00  0.1475523287740E-02
 0.3465526621715E-03 -0.4473972647020E-02  0.0000000000000E+00  0.1465979698199E-02
 0.4240872281820E-03 -0.4345616422811E-02  0.0000000000000E+00  0.1419651095376E-02
 0.5532477899492E-03 -0.4234087663217E-02  0.0000000000000E+00  0.1329471736456E-02
 0.7443305990937E-03 -0.4146209541514E-02  0.0000000000000E+00  0.1188707356028E-02
 0.1008318255457E-02 -0.4089683428475E-02  0.0000000000000E+00  0.9917806780596E-03
 0.1356513512168E-02 -0.4072923499945E-02  0.0000000000000E+00  0.7353660316220E-03
 0.1799939974667E-02 -0.4104698630684E-02  0.0000000000000E+00  0.4196761052490E-03
 0.2348460600775E-02 -0.4193540551968E-02  0.0000000000000E+00  0.4987598969125E-04
 0.3009575620188E-02 -0.4346872313367E-02  0.0000000000000E+00 -0.3625734096029E-03
 0.3786943581209E-02 -0.4569859301490E-02  0.0000000000000E+00 -0.7989549645039E-03
 0.4678939557949E-02 -0.4864128418930E-02  0.0000000000000E+00 -0.1233108587269E-02
 0.5677949337986E-02 -0.5226767160267E-02  0.0000000000000E+00 -0.1632199818742E-02
 0.6769223805468E-02 -0.5649439136360E-02  0.0000000000000E+00 -0.1958529577199E-02
 0.7928385413764E-02 -0.6117045816081E-02  0.0000000000000E+00 -0.2173345773221E-02
 0.9120962817300E-02 -0.6607351599697E-02  0.0000000000000E+00 -0.2242719304385E-02
 0.1030454798362E-01 -0.7092395534957E-02  0.0000000000000E+00 -0.2143685182441E-02
 0.6794235983255E-04 -0.5657702100510E-02  0.0000000000000E+00 -0.4014028758789E-03
 0.2034796541336E-03 -0.5741256857454E-02  0.0000000000000E+00 -0.3883060957282E-03
 0.3361991251361E-03 -0.5821398688261E-02  0.0000000000000E+00 -0.3580425255198E-03
 0.4619575887683E-03 -0.5895004622069E-02  0.0000000000000E+00 -0.3117279945544E-03
 0.5769790286443E-03 -0.5959266514072E-02  0.0000000000000E+00 -0.2513062129571E-03
 0.6781342873160E-03 -0.6011894246508E-02  0.0000000000000E+00 -0.1793396083302E-03
 0.7631091912259E-03 -0.6051220502673E-02  0.0000000000000E+00 -0.9864221713383E-04
 0.8304419680188E-03 -0.6076195955043E-02  0.0000000000000E+00 -0.1190227279090E-04
 0.8794567482496E-03 -0.6086301635477E-02  0.0000000000000E+00  0.7859848092237E-04
 0.9101394304024E-03 -0.6081420216845E-02  0.0000000000000E+00  0.1711248236632E-03
 0.9230001776836E-03 -0.6061704489431E-02  0.0000000000000E+00  0.2644957483018E-03
 0.9189537993943E-03 -0.6027468253939E-02  0.0000000000000E+00  0.3579982362895E-03
 0.8992333661086E-03 -0.5979110948083E-02  0.0000000000000E+00  0.4512504372949E-03
 0.8653403200682E-03 -0.5917077102632E-02  0.0000000000000E+00  0.5440497938931E-03
 0.8190266723668E-03 -0.5841844721988E-02  0.0000000000000E+00  0.6362308246131E-03
 0.7623026712879E-03 -0.5753936704626E-02  0.0000000000000E+00  0.7275414535653E-03
 0.6974719364720E-03 -0.5653961561403E-02  0.0000000000000E+00  0.8175879423015E-03
 0.6271857532890E-03 -0.5542680828988E-02  0.0000000000000E+00  0.9058208161634E-03
 0.5544782608156E-03 -0.5421049314290E-02  0.0000000000000E+00  0.9913770424348E-03
 0.4827960719529E-03 -0.5290234233361E-02  0.0000000000000E+00  0.1072863485215E-02
 0.4160667051282E-03 -0.5151678989176E-02  0.0000000000000E+00  0.1148250061754E-02
 0.3587845706660E-03 -0.5007190094469E-02  0.0000000000000E+00  0.1214801730398E-02
 0.3161063650901E-03 -0.4859040302348E-02  0.0000000000000E+00  0.1269023234875E-02
 0.2939471966626E-03 -0.4710080226329E-02  0.0000000000000E+00  0.1306632092457E-02
 0.2990662785986E-03 -0.4563847410109E-02  0.0000000000000E+00  0.1322585816109E-02
 0.3391302533695E-03 -0.4424670546599E-02  0.0000000000000E+00  0.1311187794525E-02
 0.4227329125447E-03 -0.4297752374422E-02  0.0000000000000E+00  0.1266303000803E-02
 0.5593509762098E-03 -0.4189197866423E-02  0.0000000000000E+00  0.1181684587213E-02
 0.7592252314652E-03 -0.4105981174031E-02  0.0000000000000E+00  0.1051463610424E-02
 0.1033124579452E-02 -0.4055855205276E-02  0.0000000000000E+00  0.8709073366806E-03
 0.1391928020934E-02 -0.4047134918555E-02  0.0000000000000E+00  0.6374066522654E-03
 0.1845980579568E-02 -0.4088290851523E-02  0.0000000000000E+00  0.3516137136598E-03
 0.2404188928387E-02 -0.4187322331161E-02  0.0000000000000E+00  0.1865979711735E-04
 0.3072839030734E-02 -0.4350882867653E-02  0.0000000000000E+00 -0.3507327103758E-03
 0.3854200843739E-02 -0.4583181370559E-02  0.0000000000000E+00 -0.7395218627753E-03
 0.4745244209036E-02 -0.4884820759005E-02  0.0000000000000E+00 -0.1124328593146E-02
 0.5737152624741E-02 -0.5251980695175E-02  0.0000000000000E+00 -0.1476249482826E-02
 0.6814508664498E-02 -0.5675769924039E-02  0.0000000000000E+00 -0.1762551994747E-02
 0.7953200818071E-02 -0.6141158643573E-02  0.0000000000000E+00 -0.1950030519732E-02
 0.9120190016349E-02 -0.6626794087748E-02  0.0000000000000E+00 -0.2009987011029E-02
 0.1027564480757E-01 -0.7106407232027E-02  0.0000000000000E+00 -0.1923358341361E-02
 0.6656925217171E-04 -0.5654495841849E-02  0.0000000000000E+00 -0.3516229925792E-03
 0.1993877498269E-03 -0.5736358759764E-02  0.0000000000000E+00 -0.3401352313242E-03
 0.3295038582025E-03 -0.5814892195228E-02  0.0000000000000E+00 -0.3136030419366E-03
 0.4529001385688E-03 -0.5887051486920E-02  0.0000000000000E+00 -0.2730045009247E-03
 0.5659120728863E-03 -0.5950086393734E-02  0.0000000000000E+00 -0.2199966796233E-03
 0.6654718858991E-03 -0.6001718643801E-02  0.0000000000000E+00 -0.1567574893920E-03
 0.7492640672457E-03 -0.6040240710628E-02  0.0000000000000E+00 -0.8569201234617E-04
 0.8157714357640E-03 -0.6064522102447E-02  0.0000000000000E+00 -0.9121076336813E-05
 0.8642295042969E-03 -0.6073941733478E-02  0.0000000000000E+00  0.7095844919570E-04
 0.8945255882215E-03 -0.6068279662314E-02  0.0000000000000E+00  0.1530008289600E-03
 0.9070801942839E-03 -0.6047601069846E-02  0.0000000000000E+00  0.2359281027684E-03
 0.9027392006239E-03 -0.6012155884017E-02  0.0000000000000E+00  0.3190649396679E-03
 0.8826924715496E-03 -0.5962306145980E-02  0.0000000000000E+00  0.4020266192310E-03
 0.8484240442327E-03 -0.5898484215919E-02  0.0000000000000E+00  0.4845901692329E-03
 0.8016917674199E-03 -0.5821178064630E-02  0.0000000000000E+00  0.5665705498250E-03
 0.7445317496139E-03 -0.5730939524942E-02  0.0000000000000E+00  0.6477105678382E-03
 0.6792886698811E-03 -0.5628419505043E-02  0.0000000000000E+00  0.7276310725741E-03
 0.6086664359066E-03 -0.5514429653408E-02  0.0000000000000E+00  0.8058174136354E-03
 0.5357680677869E-03 -0.5389987944011E-02  0.0000000000000E+00  0.8814755069625E-03
 0.4641311235873E-03 -0.5256347363534E-02  0.0000000000000E+00  0.9533362158263E-03
 0.3977961041672E-03 -0.5115062737468E-02  0.0000000000000E+00  0.1019561292117E-02
 0.3413901567796E-03 -0.4968078045652E-02  0.0000000000000E+00  0.1077685898246E-02
 0.3002183562042E-03 -0.4817828685204E-02  0.0000000000000E+00  0.1124573633445E-02
 0.2803530342453E-03 -0.4667350397136E-02  0.0000000000000E+00  0.1156397816764E-02
 0.2887090355729E-03 -0.4520382743865E-02  0.0000000000000E+00  0.1168672439373E-02
 0.3330918812704E-03 -0.4381463731519E-02  0.0000000000000E+00  0.1156354978296E-02
 0.4221965690408E-03 -0.4255997730022E-02  0.0000000000000E+00  0.1114048884817E-02
 0.5655357831964E-03 -0.4150264167617E-02  0.0000000000000E+00  0.1036306539445E-02
 0.7732852711870E-03 -0.4071357528110E-02  0.0000000000000E+00  0.9180780893605E-03
 0.1056005123759E-02 -0.4027057960512E-02  0.0000000000000E+00  0.7553947375581E-03
 0.1424178236400E-02 -0.4025570490965E-02  0.0000000000000E+00  0.5462442762073E-03
 0.1887531047128E-02 -0.4075079013383E-02  0.0000000000000E+00  0.2915616477544E-03
 0.2454115602839E-02 -0.4183094097838E-02  0.0000000000000E+00 -0.3736052649861E-05
 0.3129152731008E-02 -0.4355582943453E-02  0.0000000000000E+00 -0.3298400461227E-03
 0.3913717942708E-02 -0.4595922153692E-02  0.0000000000000E+00 -0.6715076345256E-03
 0.4803599348455E-02 -0.4903845539309E-02  0.0000000000000E+00 -0.1008157226724E-02
 0.5788999462798E-02 -0.5274785076968E-02  0.0000000000000E+00 -0.1314672652504E-02
 0.6853994474901E-02 -0.5699418961469E-02  0.0000000000000E+00 -0.1562946674075E-02
 0.7974764931565E-02 -0.6162821233544E-02  0.0000000000000E+00 -0.1724796196005E-02
 0.9119543407992E-02 -0.6644426732809E-02  0.0000000000000E+00 -0.1776154962722E-02
 0.1025073036188E-01 -0.7119433672583E-02  0.0000000000000E+00 -0.1701327553570E-02
 0.6537143851214E-04 -0.5651689522010E-02  0.0000000000000E+00 -0.3028025550992E-03
 0.1958217249805E-03 -0.5732075092457E-02  0.0000000000000E+00 -0.2928965724879E-03
 0.3236728931927E-03 -0.5809201368734E-02  0.0000000000000E+00 -0.2700251920967E-03
 0.4450091019891E-03 -0.5880086775164E-02  0.0000000000000E+00 -0.2350326357114E-03
 0.5562578582956E-03 -0.5942028979068E-02  0.0000000000000E+00 -0.1893141368911E-03
 0.6544041059515E-03 -0.5992761023554E-02  0.0000000000000E+00 -0.1346973140085E-03
 0.7371341944243E-03 -0.6030544112145E-02  0.0000000000000E+00 -0.7320931437497E-04
 0.8028876357053E-03 -0.6054181872167E-02  0.0000000000000E+00 -0.6822891743724E-05
 0.8508277009901E-03 -0.6062968524753E-02  0.0000000000000E+00  0.6274489945242E-04
 0.8807595005195E-03 -0.6056597504572E-02  0.0000000000000E+00  0.1341449352282E-03
 0.8930274017589E-03 -0.6035058775383E-02  0.0000000000000E+00  0.2064172764393E-03
 0.8884177004056E-03 -0.5998546426252E-02  0.0000000000000E+00  0.2789426379880E-03
 0.8680821213605E-03 -0.5947389006816E-02  0.0000000000000E+00  0.3513518135945E-03
 0.8334886571945E-03 -0.5882007211225E-02  0.0000000000000E+00  0.4234179745140E-03
 0.7863994626568E-03 -0.5802896911991E-02  0.0000000000000E+00  0.4949507802726E-03
 0.7288728123655E-03 -0.5710634912541E-02  0.0000000000000E+00  0.5657004045996E-03
 0.6632893090145E-03 -0.5605909409632E-02  0.0000000000000E+00  0.6353135913150E-03
 0.5923993404618E-03 -0.5489576590307E-02  0.0000000000000E+00  0.7033211603993E-03
 0.5193670153471E-03 -0.5362710900944E-02  0.0000000000000E+00  0.7690097844988E-03
 0.4478104981069E-03 -0.5226642002381E-02  0.0000000000000E+00  0.8312490466721E-03
 0.3818701146362E-03 -0.5083024027687E-02  0.0000000000000E+00  0.8884101016373E-03
 0.3262897931264E-03 -0.4933923002863E-02  0.0000000000000E+00  0.9383178068239E-03
 0.2865044830242E-03 -0.4781918102310E-02  0.0000000000000E+00  0.9782146805075E-03
 0.2687232236362E-03 -0.4630207899372E-02  0.0000000000000E+00  0.1004748682917E-02
 0.2799948566278E-03 -0.4482708506053E-02  0.0000000000000E+00  0.1014005458134E-02
 0.3282424115653E-03 -0.4344139207846E-02  0.0000000000000E+00  0.1001604710987E-02
 0.4222430585903E-03 -0.4220076591699E-02  0.0000000000000E+00  0.9628849843578E-03
 0.5715317275872E-03 -0.4116945456908E-02  0.0000000000000E+00  0.8931773344674E-03
 0.7862150916725E-03 -0.4041934701267E-02  0.0000000000000E+00  0.7882066135361E-03
 0.1076656214958E-02 -0.4002834016401E-02  0.0000000000000E+00  0.6446935609872E-03
 0.1452977008145E-02 -0.4007735849449E-02  0.0000000000000E+00  0.4611155131789E-03
 0.1924351801765E-02 -0.4064557571072E-02  0.0000000000000E+00  0.2385531977333E-03
 0.2498082680429E-02 -0.4180371414795E-02  0.0000000000000E+00 -0.1844377046697E-04
 0.3178470812508E-02 -0.4360543794782E-02  0.0000000000000E+00 -0.3011234380473E-03
 0.3965578012523E-02 -0.4607737993715E-02  0.0000000000000E+00 -0.5961361497496E-03
 0.4854209533004E-02 -0.4920959070561E-02  0.0000000000000E+00 -0.8856961589797E-03
 0.5833774374157E-02 -0.5295028813362E-02  0.0000000000000E+00 -0.1148337925997E-02
 0.6887969135723E-02 -0.5720294038588E-02  0.0000000000000E+00 -0.1360283123793E-02
 0.7993269798098E-02 -0.6181950340839E-02  0.0000000000000E+00 -0.1497930778235E-02
 0.9119020681151E-02 -0.6660124239548E-02  0.0000000000000E+00 -0.1541346376550E-02
 0.1022953084353E-01 -0.7131270324479E-02  0.0000000000000E+00 -0.1477753023766E-02
 0.6434719211885E-04 -0.5649282152431E-02  0.0000000000000E+00 -0.2548128979626E-03
 0.1927749780337E-03 -0.5728403404832E-02  0.0000000000000E+00 -0.2464662465220E-03
 0.3186939172838E-03 -0.5804323589615E-02  0.0000000000000E+00 -0.2271989798105E-03
 0.4382692714295E-03 -0.5874111332640E-02  0.0000000000000E+00 -0.1977238006098E-03
 0.5480034101810E-03 -0.5935103326061E-02  0.0000000000000E+00 -0.1591934608069E-03
 0.6449256150643E-03 -0.5985042866615E-02  0.0000000000000E+00 -0.1131128319336E-03
 0.7267258522094E-03 -0.6022167046997E-02  0.0000000000000E+00 -0.6115680527135E-04
 0.7918101448163E-03 -0.6045226670241E-02  0.0000000000000E+00 -0.4966762690684E-05
 0.8392836590227E-03 -0.6053446754354E-02  0.0000000000000E+00  0.5401487424718E-04
 0.8688840405858E-03 -0.6046448860746E-02  0.0000000000000E+00  0.1146406381784E-03
 0.8808921673849E-03 -0.6024159634171E-02  0.0000000000000E+00  0.1760805618764E-03
 0.8760438937702E-03 -0.5986725434543E-02  0.0000000000000E+00  0.2377866307370E-03
 0.8554580873419E-03 -0.5934445613672E-02  0.0000000000000E+00  0.2994207923523E-03
 0.8205884442051E-03 -0.5867730165860E-02  0.0000000000000E+00  0.3607667506901E-03
 0.7732002511715E-03 -0.5787081157618E-02  0.0000000000000E+00  0.4216414865539E-03
 0.7153704533062E-03 -0.5693096546944E-02  0.0000000000000E+00  0.4818137406226E-03
 0.6495104377917E-03 -0.5586496628742E-02  0.0000000000000E+00  0.5409663526122E-03
 0.5784107396060E-03 -0.5468176265909E-02  0.0000000000000E+00  0.5986852004937E-03
 0.5052884137204E-03 -0.5339259185433E-02  0.0000000000000E+00  0.6543482229905E-03
 0.4338314550617E-03 -0.5201141956973E-02  0.0000000000000E+00  0.7069766438101E-03
 0.3682664425565E-03 -0.5055565157487E-02  0.0000000000000E+00  0.7551662885467E-03
 0.3134378384455E-03 -0.4904700698589E-02  0.0000000000000E+00  0.7970485088214E-03
 0.2748918934155E-03 -0.4751252025057E-02  0.0000000000000E+00  0.8302618577020E-03
 0.2589541076251E-03 -0.4598557825302E-02  0.0000000000000E+00  0.8519447293611E-03
 0.2727864550524E-03 -0.4450685259881E-02  0.0000000000000E+00  0.8587666661030E-03
 0.3244095845689E-03 -0.4312507455876E-02  0.0000000000000E+00  0.8470152709335E-03
 0.4226662335686E-03 -0.4189745315780E-02  0.0000000000000E+00  0.8127593272231E-03
 0.5771034587829E-03 -0.4088942676281E-02  0.0000000000000E+00  0.7520883578633E-03
 0.7977596940257E-03 -0.4017361186053E-02  0.0000000000000E+00  0.6614608227809E-03
 0.1094818659201E-02 -0.3982788145101E-02  0.0000000000000E+00  0.5382202146001E-03
 0.1478082568819E-02 -0.3993207605631E-02  0.0000000000000E+00  0.3812392852417E-03
 0.1956245141149E-02 -0.4056297384060E-02  0.0000000000000E+00  0.1916270810575E-03
 0.2535964900136E-02 -0.4178746897426E-02  0.0000000000000E+00 -0.2656243279103E-04
 0.3220764720502E-02 -0.4365408325822E-02  0.0000000000000E+00 -0.2657497011552E-03
 0.4009861240257E-02 -0.4618345284313E-02  0.0000000000000E+00 -0.5145479804909E-03
 0.4897254648681E-02 -0.4935961657443E-02  0.0000000000000E+00 -0.7579547058882E-03
 0.5871720152953E-02 -0.5312587818944E-02  0.0000000000000E+00 -0.9780303312243E-03
 0.6916673662640E-02 -0.5738318453709E-02  0.0000000000000E+00 -0.1155072461900E-02
 0.8008872227345E-02 -0.6198474828579E-02  0.0000000000000E+00 -0.1269695864813E-02
 0.9118612287848E-02 -0.6673778247855E-02  0.0000000000000E+00 -0.1305684565827E-02
 0.1021180615874E-01 -0.7141740112877E-02  0.0000000000000E+00 -0.1252808721786E-02
 0.6349522734056E-04 -0.5647273853316E-02  0.0000000000000E+00 -0.2075257865856E-03
 0.1902424711677E-03 -0.5725342752059E-02  0.0000000000000E+00 -0.2007202570214E-03
 0.3145573695934E-03 -0.5800257834335E-02  0.0000000000000E+00 -0.1850122084534E-03
 0.4326687152379E-03 -0.5869126927109E-02  0.0000000000000E+00 -0.1609841104208E-03
 0.5411384912197E-03 -0.5929317813320E-02  0.0000000000000E+00 -0.1295611586544E-03
 0.6370322657480E-03 -0.5978582642024E-02  0.0000000000000E+00 -0.9194731537322E-04
 0.7180443147834E-03 -0.6015140187866E-02  0.0000000000000E+00 -0.4948606682407E-04
 0.7825551892441E-03 -0.6037699701952E-02  0.0000000000000E+00 -0.3501466116537E-05
 0.8296242519114E-03 -0.6045430879029E-02  0.0000000000000E+00  0.4483379774536E-04
 0.8589350288008E-03 -0.6037897072862E-02  0.0000000000000E+00  0.9457740766050E-04
 0.8707167705388E-03 -0.6014973021567E-02  0.0000000000000E+00  0.1450387531207E-03
 0.8656637902517E-03 -0.5976765460481E-02  0.0000000000000E+00  0.1957534705256E-03
 0.8448675058506E-03 -0.5923549112481E-02  0.0000000000000E+00  0.2464276673068E-03
 0.8097693536349E-03 -0.5855724595318E-02  0.0000000000000E+00  0.2968677672556E-03
 0.7621368593203E-03 -0.5773798747600E-02  0.0000000000000E+00  0.3469089312360E-03
 0.7040623035095E-03 -0.5678386986759E-02  0.0000000000000E+00  0.3963482099782E-03
 0.6379827196293E-03 -0.5570236449591E-02  0.0000000000000E+00  0.4449134564190E-03
 0.5667223052450E-03 -0.5450274573550E-02  0.0000000000000E+00  0.4922539775904E-03
 0.4935426359246E-03 -0.5319666760096E-02  0.0000000000000E+00  0.5378480693024E-03
 0.4221904044252E-03 -0.5179866162184E-02  0.0000000000000E+00  0.5808796453104E-03
 0.3569645351145E-03 -0.5032686311398E-02  0.0000000000000E+00  0.6201821471869E-03
 0.3027935533689E-03 -0.4880388234399E-02  0.0000000000000E+00  0.6542075584205E-03
 0.2653164145296E-03 -0.4725779628942E-02  0.0000000000000E+00  0.6810047363820E-03
 0.2509551176101E-03 -0.4572316278659E-02  0.0000000000000E+00  0.6982154644042E-03
 0.2669646373708E-03 -0.4424190948859E-02  0.0000000000000E+00  0.7031028655190E-03
 0.3214447113723E-03 -0.4286403790564E-02  0.0000000000000E+00  0.6926262176223E-03
 0.4232892124091E-03 -0.4164793541690E-02  0.0000000000000E+00  0.6635790455931E-03
 0.5820503594969E-03 -0.4065999219411E-02  0.0000000000000E+00  0.6127905219656E-03
 0.8077033602249E-03 -0.3997337282964E-02  0.0000000000000E+00  0.5374160948680E-03
 0.1110275213875E-02 -0.3966585623098E-02  0.0000000000000E+00  0.4353639475260E-03
 0.1499294726520E-02 -0.3981629748413E-02  0.0000000000000E+00  0.3058219849791E-03
 0.1983050313297E-02 -0.4049940360687E-02  0.0000000000000E+00  0.1498292892668E-03
 0.2567664190589E-02 -0.4177883349941E-02  0.0000000000000E+00 -0.2916073215373E-04
 0.3256018160520E-02 -0.4369883406810E-02  0.0000000000000E+00 -0.2248325391458E-03
 0.4046641430255E-02 -0.4627513055527E-02  0.0000000000000E+00 -0.4278134454072E-03
 0.4932889267676E-02 -0.4948691658938E-02  0.0000000000000E+00 -0.6258657935421E-03
 0.5903040352771E-02 -0.5327361709611E-02  0.0000000000000E+00 -0.8044666789355E-03
 0.6940306783118E-02 -0.5753429290883E-02  0.0000000000000E+00 -0.9477785204893E-03
 0.8021698453489E-02 -0.6212334822497E-02  0.0000000000000E+00 -0.1040332173362E-02
 0.9118304506884E-02 -0.6685296559769E-02  0.0000000000000E+00 -0.1069294440331E-02
 0.1019735030781E-01 -0.7150692516951E-02  0.0000000000000E+00 -0.1026681584617E-02
 0.6281460390017E-04 -0.5645665384759E-02  0.0000000000000E+00 -0.1608132614625E-03
 0.1882204251467E-03 -0.5722893134717E-02  0.0000000000000E+00 -0.1555344590893E-03
 0.3112559558007E-03 -0.5797004085690E-02  0.0000000000000E+00 -0.1433509048571E-03
 0.4281982450724E-03 -0.5865135752908E-02  0.0000000000000E+00 -0.1247154512200E-03
 0.5356551849333E-03 -0.5924679861701E-02  0.0000000000000E+00 -0.1003370125879E-03
 0.6307209093522E-03 -0.5973395801765E-02  0.0000000000000E+00 -0.7113554160759E-04
 0.7110939227792E-03 -0.6009488789863E-02  0.0000000000000E+00 -0.3813958121453E-04
 0.7751359253508E-03 -0.6031636396490E-02  0.0000000000000E+00 -0.2367257047137E-05
 0.8218713100130E-03 -0.6038965567824E-02  0.0000000000000E+00  0.3527414843710E-04
 0.8509416735926E-03 -0.6030994200058E-02  0.0000000000000E+00  0.7404982376220E-04
 0.8625358184778E-03 -0.6007556092075E-02  0.0000000000000E+00  0.1134157082972E-03
 0.8573151736786E-03 -0.5968726407330E-02  0.0000000000000E+00  0.1530008751704E-03
 0.8363491786831E-03 -0.5914759997296E-02  0.0000000000000E+00  0.1925660697261E-03
 0.8010692559362E-03 -0.5846049696136E-02  0.0000000000000E+00  0.2319504054944E-03
 0.7532444920605E-03 -0.5763105915665E-02  0.0000000000000E+00  0.2710162217957E-03
 0.6949792950965E-03 -0.5666557933606E-02  0.0000000000000E+00  0.3095970266870E-03
 0.6287312094296E-03 -0.5557174420073E-02  0.0000000000000E+00  0.3474731731027E-03
 0.5573514927369E-03 -0.5435909093558E-02  0.0000000000000E+00  0.3843644203630E-03
 0.4841375905797E-03 -0.5303961086993E-02  0.0000000000000E+00  0.4198569937757E-03
 0.4128834764283E-03 -0.5162829353957E-02  0.0000000000000E+00  0.4533066157013E-03
 0.3479462473700E-03 -0.5014386382218E-02  0.0000000000000E+00  0.4837949500574E-03
 0.2943218529480E-03 -0.4860965052313E-02  0.0000000000000E+00  0.5101061213245E-03
 0.2577233639082E-03 -0.4705456900012E-02  0.0000000000000E+00  0.5307108122003E-03
 0.2446495917113E-03 -0.4551411574614E-02  0.0000000000000E+00  0.5437645053779E-03
 0.2624290428771E-03 -0.4403122109896E-02  0.0000000000000E+00  0.5471313515945E-03
 0.3192232067944E-03 -0.4265689456140E-02  0.0000000000000E+00  0.5384446878059E-03
 0.4239645327304E-03 -0.4145044976536E-02  0.0000000000000E+00  0.5152173290588E-03
 0.5862061091437E-03 -0.4047901154874E-02  0.0000000000000E+00  0.4750015447198E-03
 0.8158684076999E-03 -0.3981614468349E-02  0.0000000000000E+00  0.4156185893880E-03
 0.1122848358816E-02 -0.3953950450822E-02  0.0000000000000E+00  0.3354928397112E-03
 0.1516451604414E-02 -0.3972710498940E-02  0.0000000000000E+00  0.2340613615658E-03
 0.2004639402030E-02 -0.4045194912178E-02  0.0000000000000E+00  0.1122137232404E-03
 0.2593105189267E-02 -0.4177508068983E-02  0.0000000000000E+00 -0.2728057109114E-04
 0.3284223061042E-02 -0.4373733623531E-02  0.0000000000000E+00 -0.1794407707851E-03
 0.4075983402843E-02 -0.4635057047375E-02  0.0000000000000E+00 -0.3369448392661E-03
 0.4961242314264E-02 -0.4959020793165E-02  0.0000000000000E+00 -0.4903002503416E-03
 0.5927901399952E-02 -0.5339270858910E-02  0.0000000000000E+00 -0.6283089407157E-03
 0.6959028686083E-02 -0.5765576021201E-02  0.0000000000000E+00 -0.7388274519169E-03
 0.8031848006033E-02 -0.6223481096255E-02  0.0000000000000E+00 -0.8100642551776E-03
 0.9118082052599E-02 -0.6694602686191E-02  0.0000000000000E+00 -0.8323033305294E-03
 0.1018599158955E-01 -0.7158002915644E-02  0.0000000000000E+00 -0.7995701173126E-03
 0.6230465226867E-04 -0.5644457775095E-02  0.0000000000000E+00 -0.1145475292527E-03
 0.1867060810383E-03 -0.5721055054834E-02  0.0000000000000E+00 -0.1107845565121E-03
 0.3087842667728E-03 -0.5794562863427E-02  0.0000000000000E+00 -0.1020996954560E-03
 0.4248509917624E-03 -0.5862140029879E-02  0.0000000000000E+00 -0.8881640624466E-04
 0.5315475555277E-03 -0.5921195696761E-02  0.0000000000000E+00 -0.7143553433437E-04
 0.6259892327392E-03 -0.5969494758136E-02  0.0000000000000E+00 -0.5060558292310E-04
 0.7058781242723E-03 -0.6005232872813E-02  0.0000000000000E+00 -0.2705258366482E-04
 0.7695626524209E-03 -0.6027064736201E-02  0.0000000000000E+00 -0.1497534318454E-05
 0.8160419396136E-03 -0.6034086101679E-02  0.0000000000000E+00  0.2541414455129E-04
 0.8449269285318E-03 -0.6025781420353E-02  0.0000000000000E+00  0.5315667901062E-04
 0.8563765898512E-03 -0.6001954139038E-02  0.0000000000000E+00  0.8133785676663E-04
 0.8510279047653E-03 -0.5962655830385E-02  0.0000000000000E+00  0.1096875844662E-03
 0.8299338301577E-03 -0.5908126356433E-02  0.0000000000000E+00  0.1380292896741E-03
 0.7945181675056E-03 -0.5838752557780E-02  0.0000000000000E+00  0.1662425245810E-03
 0.7465510458379E-03 -0.5755047388598E-02  0.0000000000000E+00  0.1942238725673E-03
 0.6881458889907E-03 -0.5657650461056E-02  0.0000000000000E+00  0.2218497420556E-03
 0.6217756205919E-03 -0.5547346629574E-02  0.0000000000000E+00  0.2489589257349E-03
 0.5503118668727E-03 -0.5425109450631E-02  0.0000000000000E+00  0.2753472049842E-03
 0.4770791203204E-03 -0.5292163581731E-02  0.0000000000000E+00  0.3007147072641E-03
 0.4059069989857E-03 -0.5150042635256E-02  0.0000000000000E+00  0.3245961037111E-03
 0.3411963976626E-03 -0.5000663657679E-02  0.0000000000000E+00  0.3463295378015E-03
 0.2879939292572E-03 -0.4846413741844E-02  0.0000000000000E+00  0.3650401875745E-03
 0.2520682143850E-03 -0.4690247547215E-02  0.0000000000000E+00  0.3796294215652E-03
 0.2399754363723E-03 -0.4535785219597E-02  0.0000000000000E+00  0.3887742549921E-03
 0.2590987280972E-03 -0.4387394850178E-02  0.0000000000000E+00  0.3909453567478E-03
 0.3176449885180E-03 -0.4250252487599E-02  0.0000000000000E+00  0.3844515334242E-03
 0.4245742216270E-03 -0.4130357980720E-02  0.0000000000000E+00  0.3675200574665E-03
 0.5894382553953E-03 -0.4034477329573E-02  0.0000000000000E+00  0.3384127082502E-03
 0.8221140907540E-03 -0.3969994780340E-02  0.0000000000000E+00  0.2955915547606E-03
 0.1132398400547E-02 -0.3944663795164E-02  0.0000000000000E+00  0.2379588649743E-03
 0.1529426931797E-02 -0.3966219656386E-02  0.0000000000000E+00  0.1651493857147E-03
 0.2020913976502E-02 -0.4041832202657E-02  0.0000000000000E+00  0.7784188913354E-04
 0.2612231668068E-02 -0.4177408230995E-02  0.0000000000000E+00 -0.2194126699767E-04
 0.3305376431165E-02 -0.4376776298769E-02  0.0000000000000E+00 -0.1306065822465E-03
 0.4097941050477E-02 -0.4640835055244E-02  0.0000000000000E+00 -0.2429079561435E-03
 0.4982416922789E-02 -0.4966850481407E-02  0.0000000000000E+00 -0.3520797703388E-03
 0.5946434344203E-02 -0.5348254101919E-02  0.0000000000000E+00 -0.4501761003516E-03
 0.6972964036674E-02 -0.5774719409571E-02  0.0000000000000E+00 -0.5286161327639E-03
 0.8039396852861E-02 -0.6231874646988E-02  0.0000000000000E+00 -0.5791044800041E-03
 0.9117930215748E-02 -0.6701635594024E-02  0.0000000000000E+00 -0.5948412502242E-03
 0.1017759266584E-01 -0.7163572108772E-02  0.0000000000000E+00 -0.5716826086357E-03
 0.6196491713485E-04 -0.5643652035445E-02  0.0000000000000E+00 -0.6860089025894E-04
 0.1856975195118E-03 -0.5719829175100E-02  0.0000000000000E+00 -0.6634611688579E-04
 0.3071384879003E-03 -0.5792934862418E-02  0.0000000000000E+00 -0.6114214814419E-04
 0.4226220785797E-03 -0.5860141690207E-02  0.0000000000000E+00 -0.5318308278574E-04
 0.5288113806003E-03 -0.5918870156806E-02  0.0000000000000E+00 -0.4276727538568E-04
 0.6228356229641E-03 -0.5966888854661E-02  0.0000000000000E+00 -0.3028044559474E-04
 0.7023994960875E-03 -0.6002387351149E-02  0.0000000000000E+00 -0.1615479527097E-04
 0.7658429692860E-03 -0.6024005504350E-02  0.0000000000000E+00 -0.8204381597710E-06
 0.8121487668278E-03 -0.6030818681622E-02  0.0000000000000E+00  0.1533644564811E-04
 0.8409077710694E-03 -0.6022289346306E-02  0.0000000000000E+00  0.3200005863795E-04
 0.8522593072857E-03 -0.5998200881873E-02  0.0000000000000E+00  0.4893366527400E-04
 0.8468241647343E-03 -0.5958589180484E-02  0.0000000000000E+00  0.6597317427666E-04
 0.8256443167551E-03 -0.5903684074686E-02  0.0000000000000E+00  0.8301038347001E-04
 0.7901384349547E-03 -0.5833868338323E-02  0.0000000000000E+00  0.9997081384217E-04
 0.7420772843888E-03 -0.5749656556808E-02  0.0000000000000E+00  0.1167903738195E-03
 0.6835802623367E-03 -0.5651695203678E-02  0.0000000000000E+00  0.1333930300126E-03
 0.6171305432193E-03 -0.5540779939049E-02  0.0000000000000E+00  0.1496803192122E-03
 0.5456133664503E-03 -0.5417897604615E-02  0.0000000000000E+00  0.1655280802424E-03
 0.4723713233481E-03 -0.5284289980919E-02  0.0000000000000E+00  0.1807546531078E-03
 0.4012578811980E-03 -0.5141513931888E-02  0.0000000000000E+00  0.1950787832419E-03
 0.3367032116377E-03 -0.4991516370978E-02  0.0000000000000E+00  0.2081009952511E-03
 0.2837877463016E-03 -0.4836720683729E-02  0.0000000000000E+00  0.2192938647851E-03
 0.2483171185127E-03 -0.4680123725594E-02  0.0000000000000E+00  0.2279957195825E-03
 0.2368856421487E-03 -0.4525392681584E-02  0.0000000000000E+00  0.2334106005656E-03
 0.2569126133030E-03 -0.4376945606075E-02  0.0000000000000E+00  0.2346194524729E-03
 0.3166347669454E-03 -0.4240008366563E-02  0.0000000000000E+00  0.2306073195383E-03
 0.4250298148007E-03 -0.4120625992046E-02  0.0000000000000E+00  0.2203121620289E-03
 0.5916478301893E-03 -0.4025599398380E-02  0.0000000000000E+00  0.2026951861283E-03
 0.8263356838306E-03 -0.3962330272381E-02  0.0000000000000E+00  0.1768410358715E-03
 0.1138821933171E-02 -0.3938562698237E-02  0.0000000000000E+00  0.1421022146786E-03
 0.1538127885160E-02 -0.3961986456571E-02  0.0000000000000E+00  0.9827431718012E-04
 0.2031802464139E-02 -0.4039683177682E-02  0.0000000000000E+00  0.4578188286472E-04
 0.2625003777445E-02 -0.4177427291032E-02  0.0000000000000E+00 -0.1414419101356E-04
 0.3319477986735E-02 -0.4378877656209E-02  0.0000000000000E+00 -0.7933374956801E-04
 0.4112555919974E-02 -0.4644743382605E-02  0.0000000000000E+00 -0.1466330292136E-03
 0.4996490405766E-02 -0.4972109080792E-02  0.0000000000000E+00 -0.2119888445712E-03
 0.5958736254225E-02 -0.5354266998502E-02  0.0000000000000E+00 -0.2706548384360E-03
 0.6982204325752E-02 -0.5780830694798E-02  0.0000000000000E+00 -0.3175196191013E-03
 0.8044399862419E-02 -0.6237486415395E-02  0.0000000000000E+00 -0.3476563989128E-03
 0.9117836538130E-02 -0.6706349573486E-02  0.0000000000000E+00 -0.3570407169955E-03
 0.1017205056703E-01 -0.7167325969432E-02  0.0000000000000E+00 -0.3432351299857E-03
 0.6179511677408E-04 -0.5643248952274E-02  0.0000000000000E+00 -0.2284569303043E-04
 0.1851935308514E-03 -0.5719216071340E-02  0.0000000000000E+00 -0.2209460064996E-04
 0.3063161892138E-03 -0.5792120689021E-02  0.0000000000000E+00 -0.2036109019008E-04
 0.4215083833784E-03 -0.5859142148018E-02  0.0000000000000E+00 -0.1770986747556E-04
 0.5274439536094E-03 -0.5917706548098E-02  0.0000000000000E+00 -0.1424003078931E-04
 0.6212590633923E-03 -0.5965584338298E-02  0.0000000000000E+00 -0.1007959559577E-04
 0.7006597534415E-03 -0.6000962122454E-02  0.0000000000000E+00 -0.5372063621147E-05
 0.7639818841394E-03 -0.6022472462038E-02  0.0000000000000E+00 -0.2603929080552E-06
 0.8102001139679E-03 -0.6029180653248E-02  0.0000000000000E+00  0.5126870189748E-05
 0.8388954074882E-03 -0.6020538258278E-02  0.0000000000000E+00  0.1068440729278E-04
 0.8501973404119E-03 -0.5996318681028E-02  0.0000000000000E+00  0.1633307492703E-04
 0.8447186388162E-03 -0.5956549988370E-02  0.0000000000000E+00  0.2201783908549E-04
 0.8234957865776E-03 -0.5901456988010E-02  0.0000000000000E+00  0.2770225711346E-04
 0.7879448762860E-03 -0.5831420399742E-02  0.0000000000000E+00  0.3336113442585E-04
 0.7398369737747E-03 -0.5746955605874E-02  0.0000000000000E+00  0.3897276625466E-04
 0.6812944521027E-03 -0.5648712502286E-02  0.0000000000000E+00  0.4451149398227E-04
 0.6148056104515E-03 -0.5537492156759E-02  0.0000000000000E+00  0.4994420552568E-04
 0.5432625049035E-03 -0.5414288071422E-02  0.0000000000000E+00  0.5522924103593E-04
 0.4700167962104E-03 -0.5280350620147E-02  0.0000000000000E+00  0.6030575690150E-04
 0.3989339018361E-03 -0.5137248336102E-02  0.0000000000000E+00  0.6507965823743E-04
 0.3344586550060E-03 -0.4986943114289E-02  0.0000000000000E+00  0.6941739296668E-04
 0.2816884092181E-03 -0.4831876531514E-02  0.0000000000000E+00  0.7314273161071E-04
 0.2464472973697E-03 -0.4675066574627E-02  0.0000000000000E+00  0.7603470238002E-04
 0.2353486625457E-03 -0.4520203959746E-02  0.0000000000000E+00  0.7782762636166E-04
 0.2558298050269E-03 -0.4371731699001E-02  0.0000000000000E+00  0.7821491243859E-04
 0.3161422454071E-03 -0.4234900493687E-02  0.0000000000000E+00  0.7685820697489E-04
 0.4252723494562E-03 -0.4115777818044E-02  0.0000000000000E+00  0.7340376930037E-04
 0.5927690381855E-03 -0.4021181815869E-02  0.0000000000000E+00  0.6750603214789E-04
 0.8284637727576E-03 -0.3958522572088E-02  0.0000000000000E+00  0.5886111829514E-04
 0.1142050672169E-02 -0.3935539083958E-02  0.0000000000000E+00  0.4725505834674E-04
 0.1542493475130E-02 -0.3959897957138E-02  0.0000000000000E+00  0.3262217578576E-04
 0.2037258212279E-02 -0.4038636353775E-02  0.0000000000000E+00  0.1510685596415E-04
 0.2631396039513E-02 -0.4177462334053E-02  0.0000000000000E+00 -0.4877705748585E-05
 0.3326528449140E-02 -0.4379950027040E-02  0.0000000000000E+00 -0.2660580936753E-04
 0.4119856225255E-02 -0.4646714279225E-02  0.0000000000000E+00 -0.4902521564923E-04
 0.5003514274532E-02 -0.4974749896321E-02  0.0000000000000E+00 -0.7078592176810E-04
 0.5964871262528E-02 -0.5357280588275E-02  0.0000000000000E+00 -0.9030935355001E-04
 0.6986809599607E-02 -0.5783891009153E-02  0.0000000000000E+00 -0.1058978830648E-03
 0.8046892619114E-02 -0.6240297110682E-02  0.0000000000000E+00 -0.1159176152373E-03
 0.9117792043246E-02 -0.6708714173352E-02  0.0000000000000E+00 -0.1190362520567E-03
 0.1016929666955E-01 -0.7169215204560E-02  0.0000000000000E+00 -0.1144493929956E-03
 0.6179511677355E-04 -0.5643248952170E-02  0.0000000000000E+00  0.2284569227337E-04
 0.1851935308513E-03 -0.5719216071237E-02  0.0000000000000E+00  0.2209459998911E-04
 0.3063161892170E-03 -0.5792120688923E-02  0.0000000000000E+00  0.2036108958335E-04
 0.4215083833877E-03 -0.5859142147926E-02  0.0000000000000E+00  0.1770986682821E-04
 0.5274439536270E-03 -0.5917706548013E-02  0.0000000000000E+00  0.1424002996026E-04
 0.6212590634197E-03 -0.5965584338222E-02  0.0000000000000E+00  0.1007959440635E-04
 0.7006597534799E-03 -0.6000962122388E-02  0.0000000000000E+00  0.5372061866737E-05
 0.7639818841891E-03 -0.6022472461983E-02  0.0000000000000E+00  0.2603903674903E-06
 0.8102001140296E-03 -0.6029180653206E-02  0.0000000000000E+00 -0.5126873745445E-05
 0.8388954075618E-03 -0.6020538258251E-02  0.0000000000000E+00 -0.1068441209368E-04
 0.8501973404979E-03 -0.5996318681018E-02  0.0000000000000E+00 -0.1633308120408E-04
 0.8447186389153E-03 -0.5956549988380E-02  0.0000000000000E+00 -0.2201784706481E-04
 0.8234957866903E-03 -0.5901456988044E-02  0.0000000000000E+00 -0.2770226702077E-04
 0.7879448764129E-03 -0.5831420399806E-02  0.0000000000000E+00 -0.3336114648242E-04
 0.7398369739174E-03 -0.5746955605971E-02  0.0000000000000E+00 -0.3897278067855E-04
 0.6812944522619E-03 -0.5648712502422E-02  0.0000000000000E+00 -0.4451151098311E-04
 0.6148056106266E-03 -0.5537492156938E-02  0.0000000000000E+00 -0.4994422530005E-04
 0.5432625050947E-03 -0.5414288071649E-02  0.0000000000000E+00 -0.5522926376411E-04
 0.4700167964155E-03 -0.5280350620427E-02  0.0000000000000E+00 -0.6030578273095E-04
 0.3989339020517E-03 -0.5137248336438E-02  0.0000000000000E+00 -0.6507968727193E-04
 0.3344586552271E-03 -0.4986943114683E-02  0.0000000000000E+00 -0.6941742523053E-04
 0.2816884094368E-03 -0.4831876531964E-02  0.0000000000000E+00 -0.7314276702231E-04
 0.2464472975753E-03 -0.4675066575131E-02  0.0000000000000E+00 -0.7603474072043E-04
 0.2353486627254E-03 -0.4520203960295E-02  0.0000000000000E+00 -0.7782766722672E-04
 0.2558298051602E-03 -0.4371731699584E-02  0.0000000000000E+00 -0.7821495520405E-04
 0.3161422454711E-03 -0.4234900494287E-02  0.0000000000000E+00 -0.7685825075890E-04
 0.4252723494273E-03 -0.4115777818639E-02  0.0000000000000E+00 -0.7340381292081E-04
 0.5927690380355E-03 -0.4021181816433E-02  0.0000000000000E+00 -0.6750607411229E-04
 0.8284637724589E-03 -0.3958522572590E-02  0.0000000000000E+00 -0.5886115678796E-04
 0.1142050671699E-02 -0.3935539084367E-02  0.0000000000000E+00 -0.4725509127881E-04
 0.1542493474471E-02 -0.3959897957422E-02  0.0000000000000E+00 -0.3262220085259E-04
 0.2037258211428E-02 -0.4038636353910E-02  0.0000000000000E+00 -0.1510687080578E-04
 0.2631396038485E-02 -0.4177462334021E-02  0.0000000000000E+00  0.4877703384781E-05
 0.3326528447971E-02 -0.4379950026839E-02  0.0000000000000E+00  0.2660582136410E-04
 0.4119856224009E-02 -0.4646714278870E-02  0.0000000000000E+00  0.4902524324604E-04
 0.5003514273299E-02 -0.4974749895844E-02  0.0000000000000E+00  0.7078596528409E-04
 0.5964871261419E-02 -0.5357280587723E-02  0.0000000000000E+00  0.9030941213903E-04
 0.6986809598740E-02 -0.5783891008583E-02  0.0000000000000E+00  0.1058979545672E-03
 0.8046892618609E-02 -0.6240297110148E-02  0.0000000000000E+00  0.1159176961124E-03
 0.9117792043198E-02 -0.6708714172893E-02  0.0000000000000E+00  0.1190363375542E-03
 0.1016929667000E-01 -0.7169215204184E-02  0.0000000000000E+00  0.1144494774341E-03
 0.6196491713326E-04 -0.5643652035133E-02  0.0000000000000E+00  0.6860088950058E-04
 0.1856975195115E-03 -0.5719829174794E-02  0.0000000000000E+00  0.6634611622490E-04
 0.3071384879101E-03 -0.5792934862124E-02  0.0000000000000E+00  0.6114214753872E-04
 0.4226220786077E-03 -0.5860141689930E-02  0.0000000000000E+00  0.5318308214090E-04
 0.5288113806530E-03 -0.5918870156551E-02  0.0000000000000E+00  0.4276727456014E-04
 0.6228356230465E-03 -0.5966888854433E-02  0.0000000000000E+00  0.3028044440994E-04
 0.7023994962026E-03 -0.6002387350951E-02  0.0000000000000E+00  0.1615479352220E-04
 0.7658429694354E-03 -0.6024005504186E-02  0.0000000000000E+00  0.8204356264502E-06
 0.8121487670124E-03 -0.6030818681496E-02  0.0000000000000E+00 -0.1533644919413E-04
 0.8409077712898E-03 -0.6022289346224E-02  0.0000000000000E+00 -0.3200006342607E-04
 0.8522593075430E-03 -0.5998200881842E-02  0.0000000000000E+00 -0.4893367153372E-04
 0.8468241650301E-03 -0.5958589180514E-02  0.0000000000000E+00 -0.6597318223370E-04
 0.8256443170920E-03 -0.5903684074789E-02  0.0000000000000E+00 -0.8301039334861E-04
 0.7901384353355E-03 -0.5833868338513E-02  0.0000000000000E+00 -0.9997082586351E-04
 0.7420772848161E-03 -0.5749656557098E-02  0.0000000000000E+00 -0.1167903882008E-03
 0.6835802628122E-03 -0.5651695204083E-02  0.0000000000000E+00 -0.1333930469639E-03
 0.6171305437437E-03 -0.5540779939586E-02  0.0000000000000E+00 -0.1496803389300E-03
 0.5456133670227E-03 -0.5417897605297E-02  0.0000000000000E+00 -0.1655281029076E-03
 0.4723713239629E-03 -0.5284289981760E-02  0.0000000000000E+00 -0.1807546788700E-03
 0.4012578818454E-03 -0.5141513932897E-02  0.0000000000000E+00 -0.1950788122057E-03
 0.3367032123022E-03 -0.4991516372159E-02  0.0000000000000E+00 -0.2081010274445E-03
 0.2837877469596E-03 -0.4836720685081E-02  0.0000000000000E+00 -0.2192939001298E-03
 0.2483171191326E-03 -0.4680123727106E-02  0.0000000000000E+00 -0.2279957578644E-03
 0.2368856426870E-03 -0.4525392683234E-02  0.0000000000000E+00 -0.2334106413859E-03
 0.2569126137021E-03 -0.4376945607827E-02  0.0000000000000E+00 -0.2346194952164E-03
 0.3166347671406E-03 -0.4240008368366E-02  0.0000000000000E+00 -0.2306073633271E-03
 0.4250298147166E-03 -0.4120625993836E-02  0.0000000000000E+00 -0.2203122056920E-03
 0.5916478297423E-03 -0.4025599400077E-02  0.0000000000000E+00 -0.2026952281787E-03
 0.8263356829390E-03 -0.3962330273894E-02  0.0000000000000E+00 -0.1768410745003E-03
 0.1138821931764E-02 -0.3938562699472E-02  0.0000000000000E+00 -0.1421022477973E-03
 0.1538127883188E-02 -0.3961986457434E-02  0.0000000000000E+00 -0.9827434248513E-04
 0.2031802461592E-02 -0.4039683178095E-02  0.0000000000000E+00 -0.4578189798432E-04
 0.2625003774365E-02 -0.4177427290946E-02  0.0000000000000E+00  0.1414418834345E-04
 0.3319477983232E-02 -0.4378877655614E-02  0.0000000000000E+00  0.7933376125319E-04
 0.4112555916236E-02 -0.4644743381546E-02  0.0000000000000E+00  0.1466330565176E-03
 0.4996490402062E-02 -0.4972109079364E-02  0.0000000000000E+00  0.2119888878383E-03
 0.5958736250888E-02 -0.5354266996850E-02  0.0000000000000E+00  0.2706548968393E-03
 0.6982204323147E-02 -0.5780830693091E-02  0.0000000000000E+00  0.3175196904848E-03
 0.8044399860900E-02 -0.6237486413797E-02  0.0000000000000E+00  0.3476564797261E-03
 0.9117836537982E-02 -0.6706349572113E-02  0.0000000000000E+00  0.3570408024515E-03
 0.1017205056840E-01 -0.7167325968308E-02  0.0000000000000E+00  0.3432352143455E-03
 0.6230465226599E-04 -0.5644457774575E-02  0.0000000000000E+00  0.1145475284917E-03
 0.1867060810378E-03 -0.5721055054324E-02  0.0000000000000E+00  0.1107845558511E-03
 0.3087842667890E-03 -0.5794562862936E-02  0.0000000000000E+00  0.1020996948531E-03
 0.4248509918089E-03 -0.5862140029417E-02  0.0000000000000E+00  0.8881640560476E-04
 0.5315475556156E-03 -0.5921195696336E-02  0.0000000000000E+00  0.7143553351589E-04
 0.6259892328765E-03 -0.5969494757756E-02  0.0000000000000E+00  0.5060558174740E-04
 0.7058781244639E-03 -0.6005232872482E-02  0.0000000000000E+00  0.2705258192734E-04
 0.7695626526693E-03 -0.6027064735927E-02  0.0000000000000E+00  0.1497531799691E-05
 0.8160419399203E-03 -0.6034086101468E-02  0.0000000000000E+00 -0.2541414807809E-04
 0.8449269288980E-03 -0.6025781420215E-02  0.0000000000000E+00 -0.5315668377316E-04
 0.8563765902787E-03 -0.6001954138985E-02  0.0000000000000E+00 -0.8133786299214E-04
 0.8510279052571E-03 -0.5962655830433E-02  0.0000000000000E+00 -0.1096875923786E-03
 0.8299338307179E-03 -0.5908126356602E-02  0.0000000000000E+00 -0.1380292994956E-03
 0.7945181681388E-03 -0.5838752558093E-02  0.0000000000000E+00 -0.1662425365318E-03
 0.7465510465484E-03 -0.5755047389078E-02  0.0000000000000E+00 -0.1942238868634E-03
 0.6881458897817E-03 -0.5657650461729E-02  0.0000000000000E+00 -0.2218497589074E-03
 0.6217756214648E-03 -0.5547346630466E-02  0.0000000000000E+00 -0.2489589453394E-03
 0.5503118678252E-03 -0.5425109451766E-02  0.0000000000000E+00 -0.2753472275236E-03
 0.4770791213442E-03 -0.5292163583130E-02  0.0000000000000E+00 -0.3007147328911E-03
 0.4059070000649E-03 -0.5150042636936E-02  0.0000000000000E+00 -0.3245961325334E-03
 0.3411963987717E-03 -0.5000663659648E-02  0.0000000000000E+00 -0.3463295698530E-03
 0.2879939303575E-03 -0.4846413744099E-02  0.0000000000000E+00 -0.3650402227847E-03
 0.2520682154219E-03 -0.4690247549738E-02  0.0000000000000E+00 -0.3796294597289E-03
 0.2399754372743E-03 -0.4535785222352E-02  0.0000000000000E+00 -0.3887742957224E-03
 0.2590987287717E-03 -0.4387394853105E-02  0.0000000000000E+00 -0.3909453994443E-03
 0.3176449888538E-03 -0.4250252490616E-02  0.0000000000000E+00 -0.3844515772221E-03
 0.4245742214974E-03 -0.4130357983718E-02  0.0000000000000E+00 -0.3675201012125E-03
 0.5894382546641E-03 -0.4034477332420E-02  0.0000000000000E+00 -0.3384127504705E-03
 0.8221140892844E-03 -0.3969994782886E-02  0.0000000000000E+00 -0.2955915936592E-03
 0.1132398398219E-02 -0.3944663797247E-02  0.0000000000000E+00 -0.2379588984661E-03
 0.1529426928527E-02 -0.3966219657852E-02  0.0000000000000E+00 -0.1651494114944E-03
 0.2020913972269E-02 -0.4041832203374E-02  0.0000000000000E+00 -0.7784190481094E-04
 0.2612231662941E-02 -0.4177408230877E-02  0.0000000000000E+00  0.2194126371358E-04
 0.3305376425326E-02 -0.4376776297802E-02  0.0000000000000E+00  0.1306065933049E-03
 0.4097941044241E-02 -0.4640835053498E-02  0.0000000000000E+00  0.2429079828586E-03
 0.4982416916604E-02 -0.4966850479041E-02  0.0000000000000E+00  0.3520798131044E-03
 0.5946434338621E-02 -0.5348254099174E-02  0.0000000000000E+00  0.4501761583796E-03
 0.6972964032314E-02 -0.5774719406730E-02  0.0000000000000E+00  0.5286162039098E-03
 0.8039396850319E-02 -0.6231874644330E-02  0.0000000000000E+00  0.5791045606929E-03
 0.9117930215502E-02 -0.6701635591744E-02  0.0000000000000E+00  0.5948413355963E-03
 0.1017759266815E-01 -0.7163572106915E-02  0.0000000000000E+00  0.5716826928402E-03
 0.6281460389637E-04 -0.5645665384031E-02  0.0000000000000E+00  0.1608132606976E-03
 0.1882204251458E-03 -0.5722893134001E-02  0.0000000000000E+00  0.1555344584282E-03
 0.3112559558234E-03 -0.5797004085002E-02  0.0000000000000E+00  0.1433509042579E-03
 0.4281982451374E-03 -0.5865135752261E-02  0.0000000000000E+00  0.1247154505875E-03
 0.5356551850561E-03 -0.5924679861106E-02  0.0000000000000E+00  0.1003370117799E-03
 0.6307209095439E-03 -0.5973395801231E-02  0.0000000000000E+00  0.7113554044530E-04
 0.7110939230467E-03 -0.6009488789399E-02  0.0000000000000E+00  0.3813957949385E-04
 0.7751359256976E-03 -0.6031636396104E-02  0.0000000000000E+00  0.2367254549912E-05
 0.8218713104409E-03 -0.6038965567525E-02  0.0000000000000E+00 -0.3527415193538E-04
 0.8509416741032E-03 -0.6030994199860E-02  0.0000000000000E+00 -0.7404982848640E-04
 0.8625358190738E-03 -0.6007556091996E-02  0.0000000000000E+00 -0.1134157144715E-03
 0.8573151743639E-03 -0.5968726407392E-02  0.0000000000000E+00 -0.1530008830156E-03
 0.8363491794636E-03 -0.5914759997528E-02  0.0000000000000E+00 -0.1925660794619E-03
 0.8010692568186E-03 -0.5846049696567E-02  0.0000000000000E+00 -0.2319504173392E-03
 0.7532444930511E-03 -0.5763105916331E-02  0.0000000000000E+00 -0.2710162359643E-03
 0.6949792962007E-03 -0.5666557934543E-02  0.0000000000000E+00 -0.3095970433893E-03
 0.6287312106488E-03 -0.5557174421317E-02  0.0000000000000E+00 -0.3474731925366E-03
 0.5573514940680E-03 -0.5435909095142E-02  0.0000000000000E+00 -0.3843644427130E-03
 0.4841375920116E-03 -0.5303961088948E-02  0.0000000000000E+00 -0.4198570191989E-03
 0.4128834779394E-03 -0.5162829356307E-02  0.0000000000000E+00 -0.4533066443103E-03
 0.3479462489254E-03 -0.5014386384975E-02  0.0000000000000E+00 -0.4837949818946E-03
 0.2943218544935E-03 -0.4860965055474E-02  0.0000000000000E+00 -0.5101061563312E-03
 0.2577233653679E-03 -0.4705456903551E-02  0.0000000000000E+00 -0.5307108501846E-03
 0.2446495929851E-03 -0.4551411578483E-02  0.0000000000000E+00 -0.5437645459707E-03
 0.2624290438376E-03 -0.4403122114012E-02  0.0000000000000E+00 -0.5471313942166E-03
 0.3192232072862E-03 -0.4265689460388E-02  0.0000000000000E+00 -0.5384447316151E-03
 0.4239645325761E-03 -0.4145044980766E-02  0.0000000000000E+00 -0.5152173729255E-03
 0.5862061081522E-03 -0.4047901158901E-02  0.0000000000000E+00 -0.4750015871917E-03
 0.8158684056781E-03 -0.3981614471962E-02  0.0000000000000E+00 -0.4156186286878E-03
 0.1122848355593E-02 -0.3953950453794E-02  0.0000000000000E+00 -0.3354928737609E-03
 0.1516451599870E-02 -0.3972710501052E-02  0.0000000000000E+00 -0.2340613880561E-03
 0.2004639396130E-02 -0.4045194913243E-02  0.0000000000000E+00 -0.1122137397567E-03
 0.2593105182104E-02 -0.4177508068877E-02  0.0000000000000E+00  0.2728056688267E-04
 0.3284223052869E-02 -0.4373733622228E-02  0.0000000000000E+00  0.1794407808962E-03
 0.4075983394099E-02 -0.4635057044970E-02  0.0000000000000E+00  0.3369448650902E-03
 0.4961242305572E-02 -0.4959020789881E-02  0.0000000000000E+00  0.4903002923452E-03
 0.5927901392096E-02 -0.5339270855083E-02  0.0000000000000E+00  0.6283089981727E-03
 0.6959028679938E-02 -0.5765576017235E-02  0.0000000000000E+00  0.7388275227008E-03
 0.8031848002448E-02 -0.6223481092544E-02  0.0000000000000E+00  0.8100643356781E-03
 0.9118082052261E-02 -0.6694602683020E-02  0.0000000000000E+00  0.8323034157775E-03
 0.1018599159283E-01 -0.7158002913077E-02  0.0000000000000E+00  0.7995702012869E-03
 0.6349522733558E-04 -0.5647273852379E-02  0.0000000000000E+00  0.2075257858153E-03
 0.1902424711663E-03 -0.5725342751138E-02  0.0000000000000E+00  0.2007202563601E-03
 0.3145573696222E-03 -0.5800257833450E-02  0.0000000000000E+00  0.1850122078592E-03
 0.4326687153212E-03 -0.5869126926276E-02  0.0000000000000E+00  0.1609841097979E-03
 0.5411384913773E-03 -0.5929317812553E-02  0.0000000000000E+00  0.1295611578601E-03
 0.6370322659940E-03 -0.5978582641335E-02  0.0000000000000E+00  0.9194731422846E-04
 0.7180443151262E-03 -0.6015140187266E-02  0.0000000000000E+00  0.4948606512536E-04
 0.7825551896881E-03 -0.6037699701451E-02  0.0000000000000E+00  0.3501463647582E-05
 0.8296242524586E-03 -0.6045430878639E-02  0.0000000000000E+00 -0.4483380120603E-04
 0.8589350294533E-03 -0.6037897072601E-02  0.0000000000000E+00 -0.9457741233400E-04
 0.8707167713000E-03 -0.6014973021458E-02  0.0000000000000E+00 -0.1450387592270E-03
 0.8656637911271E-03 -0.5976765460553E-02  0.0000000000000E+00 -0.1957534782815E-03
 0.8448675068478E-03 -0.5923549112769E-02  0.0000000000000E+00 -0.2464276769285E-03
 0.8097693547628E-03 -0.5855724595863E-02  0.0000000000000E+00 -0.2968677789588E-03
 0.7621368605875E-03 -0.5773798748447E-02  0.0000000000000E+00 -0.3469089452340E-03
 0.7040623049228E-03 -0.5678386987953E-02  0.0000000000000E+00 -0.3963482264804E-03
 0.6379827211915E-03 -0.5570236451180E-02  0.0000000000000E+00 -0.4449134756249E-03
 0.5667223069523E-03 -0.5450274575578E-02  0.0000000000000E+00 -0.4922539996868E-03
 0.4935426377631E-03 -0.5319666762603E-02  0.0000000000000E+00 -0.5378480944526E-03
 0.4221904063684E-03 -0.5179866165201E-02  0.0000000000000E+00 -0.5808796736334E-03
 0.3569645371188E-03 -0.5032686314943E-02  0.0000000000000E+00 -0.6201821787359E-03
 0.3027935553654E-03 -0.4880388238467E-02  0.0000000000000E+00 -0.6542075931521E-03
 0.2653164164219E-03 -0.4725779633504E-02  0.0000000000000E+00 -0.6810047741227E-03
 0.2509551192695E-03 -0.4572316283652E-02  0.0000000000000E+00 -0.6982155048091E-03
 0.2669646386341E-03 -0.4424190954181E-02  0.0000000000000E+00 -0.7031029080354E-03
 0.3214447120429E-03 -0.4286403796068E-02  0.0000000000000E+00 -0.6926262614393E-03
 0.4232892122577E-03 -0.4164793547184E-02  0.0000000000000E+00 -0.6635790896130E-03
 0.5820503582757E-03 -0.4065999224658E-02  0.0000000000000E+00 -0.6127905647657E-03
 0.8077033576852E-03 -0.3997337287692E-02  0.0000000000000E+00 -0.5374161346957E-03
 0.1110275209792E-02 -0.3966585627015E-02  0.0000000000000E+00 -0.4353639823152E-03
 0.1499294720734E-02 -0.3981629751231E-02  0.0000000000000E+00 -0.3058220124147E-03
 0.1983050305758E-02 -0.4049940362161E-02  0.0000000000000E+00 -0.1498293069049E-03
 0.2567664181407E-02 -0.4177883349905E-02  0.0000000000000E+00  0.2916072670511E-04
 0.3256018150013E-02 -0.4369883405224E-02  0.0000000000000E+00  0.2248325479825E-03
 0.4046641418986E-02 -0.4627513052505E-02  0.0000000000000E+00  0.4278134700259E-03
 0.4932889256450E-02 -0.4948691654765E-02  0.0000000000000E+00  0.6258658345119E-03
 0.5903040342602E-02 -0.5327361704720E-02  0.0000000000000E+00  0.8044667356157E-03
 0.6940306775149E-02 -0.5753429285802E-02  0.0000000000000E+00  0.9477785907814E-03
 0.8021698448839E-02 -0.6212334817746E-02  0.0000000000000E+00  0.1040332253608E-02
 0.9118304506458E-02 -0.6685296555725E-02  0.0000000000000E+00  0.1069294525416E-02
 0.1019735031210E-01 -0.7150692513709E-02  0.0000000000000E+00  0.1026681668289E-02
 0.6434719211264E-04 -0.5649282151285E-02  0.0000000000000E+00  0.2548128971856E-03
 0.1927749780317E-03 -0.5728403403707E-02  0.0000000000000E+00  0.2464662458603E-03
 0.3186939173187E-03 -0.5804323588532E-02  0.0000000000000E+00  0.2271989792224E-03
 0.4382692715309E-03 -0.5874111331620E-02  0.0000000000000E+00  0.1977237999989E-03
 0.5480034103731E-03 -0.5935103325121E-02  0.0000000000000E+00  0.1591934600295E-03
 0.6449256153640E-03 -0.5985042865770E-02  0.0000000000000E+00  0.1131128308101E-03
 0.7267258526266E-03 -0.6022167046259E-02  0.0000000000000E+00  0.6115680359938E-04
 0.7918101453559E-03 -0.6045226669622E-02  0.0000000000000E+00  0.4966760256214E-05
 0.8392836596871E-03 -0.6053446753870E-02  0.0000000000000E+00 -0.5401487766166E-04
 0.8688840413773E-03 -0.6046448860417E-02  0.0000000000000E+00 -0.1146406427892E-03
 0.8808921683078E-03 -0.6024159634026E-02  0.0000000000000E+00 -0.1760805678981E-03
 0.8760438948315E-03 -0.5986725434618E-02  0.0000000000000E+00 -0.2377866383817E-03
 0.8554580885511E-03 -0.5934445614010E-02  0.0000000000000E+00 -0.2994208018312E-03
 0.8205884455739E-03 -0.5867730166511E-02  0.0000000000000E+00 -0.3607667622159E-03
 0.7732002527104E-03 -0.5787081158637E-02  0.0000000000000E+00 -0.4216415003381E-03
 0.7153704550242E-03 -0.5693096548389E-02  0.0000000000000E+00 -0.4818137568738E-03
 0.6495104396927E-03 -0.5586496630670E-02  0.0000000000000E+00 -0.5409663715318E-03
 0.5784107416856E-03 -0.5468176268375E-02  0.0000000000000E+00 -0.5986852222719E-03
 0.5052884159639E-03 -0.5339259188487E-02  0.0000000000000E+00 -0.6543482477965E-03
 0.4338314574376E-03 -0.5201141960654E-02  0.0000000000000E+00 -0.7069766717721E-03
 0.3682664450115E-03 -0.5055565161819E-02  0.0000000000000E+00 -0.7551663197310E-03
 0.3134378408979E-03 -0.4904700703569E-02  0.0000000000000E+00 -0.7970485432038E-03
 0.2748918957498E-03 -0.4751252030650E-02  0.0000000000000E+00 -0.8302618951311E-03
 0.2589541096858E-03 -0.4598557831434E-02  0.0000000000000E+00 -0.8519447695228E-03
 0.2727864566416E-03 -0.4450685266431E-02  0.0000000000000E+00 -0.8587667084775E-03
 0.3244095854459E-03 -0.4312507462667E-02  0.0000000000000E+00 -0.8470153147493E-03
 0.4226662334543E-03 -0.4189745322579E-02  0.0000000000000E+00 -0.8127593714225E-03
 0.5771034573740E-03 -0.4088942682800E-02  0.0000000000000E+00 -0.7520884010614E-03
 0.7977596910142E-03 -0.4017361191960E-02  0.0000000000000E+00 -0.6614608632575E-03
 0.1094818654307E-02 -0.3982788150034E-02  0.0000000000000E+00 -0.5382202503062E-03
 0.1478082561837E-02 -0.3993207609235E-02  0.0000000000000E+00 -0.3812393138562E-03
 0.1956245132007E-02 -0.4056297386025E-02  0.0000000000000E+00 -0.1916271001020E-03
 0.2535964888956E-02 -0.4178746897539E-02  0.0000000000000E+00  0.2656242578042E-04
 0.3220764707665E-02 -0.4365408324021E-02  0.0000000000000E+00  0.2657497083785E-03
 0.4009861226442E-02 -0.4618345280729E-02  0.0000000000000E+00  0.5145480035768E-03
 0.4897254634877E-02 -0.4935961652418E-02  0.0000000000000E+00  0.7579547455392E-03
 0.5871720140418E-02 -0.5312587813014E-02  0.0000000000000E+00  0.9780303869071E-03
 0.6916673652796E-02 -0.5738318447528E-02  0.0000000000000E+00  0.1155072531560E-02
 0.8008872221598E-02 -0.6198474822801E-02  0.0000000000000E+00  0.1269695944734E-02
 0.9118612287342E-02 -0.6673778242963E-02  0.0000000000000E+00  0.1305684650714E-02
 0.1021180616411E-01 -0.7141740109002E-02  0.0000000000000E+00  0.1252808805087E-02
 0.6537143850462E-04 -0.5651689520655E-02  0.0000000000000E+00  0.3028025543140E-03
 0.1958217249776E-03 -0.5732075091125E-02  0.0000000000000E+00  0.2928965718256E-03
 0.3236728932333E-03 -0.5809201367452E-02  0.0000000000000E+00  0.2700251915158E-03
 0.4450091021083E-03 -0.5880086773956E-02  0.0000000000000E+00  0.2350326351145E-03
 0.5562578585218E-03 -0.5942028977955E-02  0.0000000000000E+00  0.1893141361334E-03
 0.6544041063043E-03 -0.5992761022551E-02  0.0000000000000E+00  0.1346973129100E-03
 0.7371341949147E-03 -0.6030544111267E-02  0.0000000000000E+00  0.7320931273407E-04
 0.8028876363388E-03 -0.6054181871428E-02  0.0000000000000E+00  0.6822889349639E-05
 0.8508277017690E-03 -0.6062968524170E-02  0.0000000000000E+00 -0.6274490281236E-04
 0.8807595014462E-03 -0.6056597504170E-02  0.0000000000000E+00 -0.1341449397646E-03
 0.8930274028390E-03 -0.6035058775195E-02  0.0000000000000E+00 -0.2064172823600E-03
 0.8884177016475E-03 -0.5998546426321E-02  0.0000000000000E+00 -0.2789426454994E-03
 0.8680821227761E-03 -0.5947389007195E-02  0.0000000000000E+00 -0.3513518229021E-03
 0.8334886587979E-03 -0.5882007211973E-02  0.0000000000000E+00 -0.4234179858266E-03
 0.7863994644613E-03 -0.5802896913173E-02  0.0000000000000E+00 -0.4949507937996E-03
 0.7288728143823E-03 -0.5710634914226E-02  0.0000000000000E+00 -0.5657004205483E-03
 0.6632893112491E-03 -0.5605909411889E-02  0.0000000000000E+00 -0.6353136098891E-03
 0.5923993429109E-03 -0.5489576593202E-02  0.0000000000000E+00 -0.7033211817929E-03
 0.5193670179938E-03 -0.5362710904538E-02  0.0000000000000E+00 -0.7690098088882E-03
 0.4478105009158E-03 -0.5226642006722E-02  0.0000000000000E+00 -0.8312490741965E-03
 0.3818701175462E-03 -0.5083024032804E-02  0.0000000000000E+00 -0.8884101323783E-03
 0.3262897960435E-03 -0.4933923008757E-02  0.0000000000000E+00 -0.9383178407792E-03
 0.2865044858133E-03 -0.4781918108943E-02  0.0000000000000E+00 -0.9782147175532E-03
 0.2687232261167E-03 -0.4630207906660E-02  0.0000000000000E+00 -0.1004748722774E-02
 0.2799948585684E-03 -0.4482708513857E-02  0.0000000000000E+00 -0.1014005500324E-02
 0.3282424126826E-03 -0.4344139215961E-02  0.0000000000000E+00 -0.1001604754785E-02
 0.4222430585562E-03 -0.4220076599853E-02  0.0000000000000E+00 -0.9628850287541E-03
 0.5715317260402E-03 -0.4116945464763E-02  0.0000000000000E+00 -0.8931773781256E-03
 0.7862150882437E-03 -0.4041934708429E-02  0.0000000000000E+00 -0.7882066547745E-03
 0.1076656209310E-02 -0.4002834022441E-02  0.0000000000000E+00 -0.6446935977811E-03
 0.1452977000022E-02 -0.4007735853937E-02  0.0000000000000E+00 -0.4611155432030E-03
 0.1924351791065E-02 -0.4064557573629E-02  0.0000000000000E+00 -0.2385532184707E-03
 0.2498082667282E-02 -0.4180371415155E-02  0.0000000000000E+00  0.1844376156449E-04
 0.3178470797345E-02 -0.4360543792853E-02  0.0000000000000E+00  0.3011234433063E-03
 0.3965577996140E-02 -0.4607737989639E-02  0.0000000000000E+00  0.5961361709573E-03
 0.4854209516574E-02 -0.4920959064735E-02  0.0000000000000E+00  0.8856961970055E-03
 0.5833774359188E-02 -0.5295028806422E-02  0.0000000000000E+00  0.1148337980445E-02
 0.6887969123937E-02 -0.5720294031325E-02  0.0000000000000E+00  0.1360283192669E-02
 0.7993269791208E-02 -0.6181950334053E-02  0.0000000000000E+00  0.1497930857757E-02
 0.9119020680570E-02 -0.6660124233839E-02  0.0000000000000E+00  0.1541346461203E-02
 0.1022953085005E-01 -0.7131270320025E-02  0.0000000000000E+00  0.1477753106633E-02
 0.6656925216276E-04 -0.5654495840282E-02  0.0000000000000E+00  0.3516229917841E-03
 0.1993877498230E-03 -0.5736358758226E-02  0.0000000000000E+00  0.3401352306611E-03
 0.3295038582485E-03 -0.5814892193746E-02  0.0000000000000E+00  0.3136030413637E-03
 0.4529001387056E-03 -0.5887051485524E-02  0.0000000000000E+00  0.2730045003436E-03
 0.5659120731465E-03 -0.5950086392446E-02  0.0000000000000E+00  0.2199966788877E-03
 0.6654718863044E-03 -0.6001718642639E-02  0.0000000000000E+00  0.1567574883213E-03
 0.7492640678082E-03 -0.6040240709607E-02  0.0000000000000E+00  0.8569201074014E-04
 0.8157714364891E-03 -0.6064522101583E-02  0.0000000000000E+00  0.9121073988289E-05
 0.8642295051869E-03 -0.6073941732790E-02  0.0000000000000E+00 -0.7095845249371E-04
 0.8945255892792E-03 -0.6068279661831E-02  0.0000000000000E+00 -0.1530008334109E-03
 0.9070801955156E-03 -0.6047601069607E-02  0.0000000000000E+00 -0.2359281085721E-03
 0.9027392020402E-03 -0.6012155884071E-02  0.0000000000000E+00 -0.3190649470240E-03
 0.8826924731646E-03 -0.5962306146389E-02  0.0000000000000E+00 -0.4020266283386E-03
 0.8484240460631E-03 -0.5898484216753E-02  0.0000000000000E+00 -0.4845901802963E-03
 0.8016917694826E-03 -0.5821178065964E-02  0.0000000000000E+00 -0.5665705630506E-03
 0.7445317519224E-03 -0.5730939526856E-02  0.0000000000000E+00 -0.6477105834326E-03
 0.6792886724432E-03 -0.5628419507619E-02  0.0000000000000E+00 -0.7276310907425E-03
 0.6086664387199E-03 -0.5514429656723E-02  0.0000000000000E+00 -0.8058174345770E-03
 0.5357680708338E-03 -0.5389987948137E-02  0.0000000000000E+00 -0.8814755308612E-03
 0.4641311268287E-03 -0.5256347368530E-02  0.0000000000000E+00 -0.9533362428339E-03
 0.3977961075354E-03 -0.5115062743370E-02  0.0000000000000E+00 -0.1019561322333E-02
 0.3413901601691E-03 -0.4968078052464E-02  0.0000000000000E+00 -0.1077685931693E-02
 0.3002183594633E-03 -0.4817828692889E-02  0.0000000000000E+00 -0.1124573670031E-02
 0.2803530371688E-03 -0.4667350405601E-02  0.0000000000000E+00 -0.1156397856249E-02
 0.2887090378962E-03 -0.4520382752954E-02  0.0000000000000E+00 -0.1168672481328E-02
 0.3330918826694E-03 -0.4381463741002E-02  0.0000000000000E+00 -0.1156355022050E-02
 0.4221965691377E-03 -0.4255997739590E-02  0.0000000000000E+00 -0.1114048929417E-02
 0.5655357815722E-03 -0.4150264176883E-02  0.0000000000000E+00 -0.1036306583615E-02
 0.7732852674091E-03 -0.4071357536620E-02  0.0000000000000E+00 -0.9180781314651E-03
 0.1056005117427E-02 -0.4027057967764E-02  0.0000000000000E+00 -0.7553947756038E-03
 0.1424178227204E-02 -0.4025570496454E-02  0.0000000000000E+00 -0.5462443078686E-03
 0.1887531034929E-02 -0.4075079016655E-02  0.0000000000000E+00 -0.2915616704727E-03
 0.2454115587761E-02 -0.4183094098564E-02  0.0000000000000E+00  0.3736041517405E-05
 0.3129152713530E-02 -0.4355582941505E-02  0.0000000000000E+00  0.3298400490495E-03
 0.3913717923734E-02 -0.4595922149211E-02  0.0000000000000E+00  0.6715076534875E-03
 0.4803599329343E-02 -0.4903845532744E-02  0.0000000000000E+00  0.1008157262794E-02
 0.5788999445317E-02 -0.5274785069056E-02  0.0000000000000E+00  0.1314672705455E-02
 0.6853994461089E-02 -0.5699418953146E-02  0.0000000000000E+00  0.1562946741996E-02
 0.7974764923479E-02 -0.6162821225770E-02  0.0000000000000E+00  0.1724796275046E-02
 0.9119543407340E-02 -0.6644426726319E-02  0.0000000000000E+00  0.1776155047110E-02
 0.1025073036964E-01 -0.7119433667613E-02  0.0000000000000E+00  0.1701327635946E-02
 0.6794235982209E-04 -0.5657702098733E-02  0.0000000000000E+00  0.4014028750724E-03
 0.2034796541283E-03 -0.5741256855707E-02  0.0000000000000E+00  0.3883060950640E-03
 0.3361991251873E-03 -0.5821398686579E-02  0.0000000000000E+00  0.3580425249560E-03
 0.4619575889226E-03 -0.5895004620483E-02  0.0000000000000E+00  0.3117279939909E-03
 0.5769790289379E-03 -0.5959266512607E-02  0.0000000000000E+00  0.2513062122459E-03
 0.6781342877730E-03 -0.6011894245184E-02  0.0000000000000E+00  0.1793396072897E-03
 0.7631091918591E-03 -0.6051220501505E-02  0.0000000000000E+00  0.9864221556575E-04
 0.8304419688330E-03 -0.6076195954048E-02  0.0000000000000E+00  0.1190227049232E-04
 0.8794567492467E-03 -0.6086301634677E-02  0.0000000000000E+00 -0.7859848415127E-04
 0.9101394315859E-03 -0.6081420216273E-02  0.0000000000000E+00 -0.1711248280177E-03
 0.9230001790604E-03 -0.6061704489130E-02  0.0000000000000E+00 -0.2644957539731E-03
 0.9189538009772E-03 -0.6027468253967E-02  0.0000000000000E+00 -0.3579982434683E-03
 0.8992333679149E-03 -0.5979110948511E-02  0.0000000000000E+00 -0.4512504461738E-03
 0.8653403221175E-03 -0.5917077103538E-02  0.0000000000000E+00 -0.5440498046706E-03
 0.8190266746793E-03 -0.5841844723460E-02  0.0000000000000E+00 -0.6362308374927E-03
 0.7623026738805E-03 -0.5753936706757E-02  0.0000000000000E+00 -0.7275414687523E-03
 0.6974719393545E-03 -0.5653961564285E-02  0.0000000000000E+00 -0.8175879600031E-03
 0.6271857564606E-03 -0.5542680832712E-02  0.0000000000000E+00 -0.9058208365839E-03
 0.5544782642592E-03 -0.5421049318940E-02  0.0000000000000E+00 -0.9913770657666E-03
 0.4827960756269E-03 -0.5290234239005E-02  0.0000000000000E+00 -0.1072863511623E-02
 0.4160667089587E-03 -0.5151678995861E-02  0.0000000000000E+00 -0.1148250091358E-02
 0.3587845745379E-03 -0.5007190102203E-02  0.0000000000000E+00 -0.1214801763249E-02
 0.3161063688349E-03 -0.4859040311095E-02  0.0000000000000E+00 -0.1269023270916E-02
 0.2939472000523E-03 -0.4710080235991E-02  0.0000000000000E+00 -0.1306632131495E-02
 0.2990662813388E-03 -0.4563847420517E-02  0.0000000000000E+00 -0.1322585857769E-02
 0.3391302550956E-03 -0.4424670557499E-02  0.0000000000000E+00 -0.1311187838198E-02
 0.4227329128300E-03 -0.4297752385471E-02  0.0000000000000E+00 -0.1266303045604E-02
 0.5593509745774E-03 -0.4189197877187E-02  0.0000000000000E+00 -0.1181684631932E-02
 0.7592252274175E-03 -0.4105981183993E-02  0.0000000000000E+00 -0.1051463653487E-02
 0.1033124572520E-02 -0.4055855213864E-02  0.0000000000000E+00 -0.8709073761320E-03
 0.1391928010747E-02 -0.4047134925184E-02  0.0000000000000E+00 -0.6374066857858E-03
 0.1845980565940E-02 -0.4088290855656E-02  0.0000000000000E+00 -0.3516137386487E-03
 0.2404188911426E-02 -0.4187322332397E-02  0.0000000000000E+00 -0.1865981082808E-04
 0.3072839010955E-02 -0.4350882865815E-02  0.0000000000000E+00  0.3507327105840E-03
 0.3854200822148E-02 -0.4583181365780E-02  0.0000000000000E+00  0.7395218790972E-03
 0.4745244187174E-02 -0.4884820751777E-02  0.0000000000000E+00  0.1124328626900E-02
 0.5737152604650E-02 -0.5251980686338E-02  0.0000000000000E+00  0.1476249533993E-02
 0.6814508648563E-02 -0.5675769914683E-02  0.0000000000000E+00  0.1762552061526E-02
 0.7953200808720E-02 -0.6141158634835E-02  0.0000000000000E+00  0.1950030598203E-02
 0.9120190015628E-02 -0.6626794080519E-02  0.0000000000000E+00  0.2009987095122E-02
 0.1027564481667E-01 -0.7106407226613E-02  0.0000000000000E+00  0.1923358423196E-02
 0.6949305006604E-04 -0.5661310973937E-02  0.0000000000000E+00  0.4522715154078E-03
 0.2081059875377E-03 -0.5746774034485E-02  0.0000000000000E+00  0.4375329646120E-03
 0.3437743655110E-03 -0.5828725785833E-02  0.0000000000000E+00  0.4034509485627E-03
 0.4722005913374E-03 -0.5903946852075E-02  0.0000000000000E+00  0.3512851956472E-03
 0.5894749343709E-03 -0.5969559923601E-02  0.0000000000000E+00  0.2832976060856E-03
 0.6923980290419E-03 -0.6023263310278E-02  0.0000000000000E+00  0.2024772204575E-03
 0.7786621650942E-03 -0.6063441143808E-02  0.0000000000000E+00  0.1120839677622E-03
 0.8468759405293E-03 -0.6089143284455E-02  0.0000000000000E+00  0.1519533698492E-04
 0.8964711652398E-03 -0.6099972583347E-02  0.0000000000000E+00 -0.8561766836426E-04
 0.9275505710798E-03 -0.6095931688035E-02  0.0000000000000E+00 -0.1884402154828E-03
 0.9407284091869E-03 -0.6077273849699E-02  0.0000000000000E+00 -0.2920067918000E-03
 0.9369979035684E-03 -0.6044384576671E-02  0.0000000000000E+00 -0.3955885067871E-03
 0.9176400597977E-03 -0.5997704074966E-02  0.0000000000000E+00 -0.4988276153613E-03
 0.8841745763064E-03 -0.5937688965813E-02  0.0000000000000E+00 -0.6015606428745E-03
 0.8383456480380E-03 -0.5864804786091E-02  0.0000000000000E+00 -0.7036573967065E-03
 0.7821337292992E-03 -0.5779541360347E-02  0.0000000000000E+00 -0.8048844760407E-03
 0.7177962551891E-03 -0.5682459794057E-02  0.0000000000000E+00 -0.9048457538015E-03
 0.6479259841950E-03 -0.5574266284643E-02  0.0000000000000E+00 -0.1002968449935E-02
 0.5754808067040E-03 -0.5455846363130E-02  0.0000000000000E+00 -0.1098333550465E-02
 0.5038065779851E-03 -0.5328273161931E-02  0.0000000000000E+00 -0.1189440356256E-02
 0.4367051793895E-03 -0.5192867425428E-02  0.0000000000000E+00 -0.1274086786627E-02
 0.3785226976733E-03 -0.5051283658095E-02  0.0000000000000E+00 -0.1349289801938E-02
 0.3342490817122E-03 -0.4905613890408E-02  0.0000000000000E+00 -0.1411218399885E-02
 0.3096214736513E-03 -0.4758501884836E-02  0.0000000000000E+00 -0.1455156397777E-02
 0.3112210540806E-03 -0.4613257863095E-02  0.0000000000000E+00 -0.1475523329035E-02
 0.3465526642778E-03 -0.4473972659394E-02  0.0000000000000E+00 -0.1465979741742E-02
 0.4240872287213E-03 -0.4345616435417E-02  0.0000000000000E+00 -0.1419651140360E-02
 0.5532477883865E-03 -0.4234087675576E-02  0.0000000000000E+00 -0.1329471781749E-02
 0.7443305948654E-03 -0.4146209553050E-02  0.0000000000000E+00 -0.1188707400127E-02
 0.1008318248022E-02 -0.4089683438543E-02  0.0000000000000E+00 -0.9917807190589E-03
 0.1356513501084E-02 -0.4072923507874E-02  0.0000000000000E+00 -0.7353660672171E-03
 0.1799939959693E-02 -0.4104698635849E-02  0.0000000000000E+00 -0.4196761327994E-03
 0.2348460581991E-02 -0.4193540553883E-02  0.0000000000000E+00 -0.4987600633821E-04
 0.3009575598130E-02 -0.4346872311796E-02  0.0000000000000E+00  0.3625734066849E-03
 0.3786943556975E-02 -0.4569859296542E-02  0.0000000000000E+00  0.7989549777633E-03
 0.4678939533267E-02 -0.4864128411133E-02  0.0000000000000E+00  0.1233108618310E-02
 0.5677949315178E-02 -0.5226767150563E-02  0.0000000000000E+00  0.1632199867802E-02
 0.6769223787293E-02 -0.5649439126003E-02  0.0000000000000E+00  0.1958529642621E-02
 0.7928385403066E-02 -0.6117045806407E-02  0.0000000000000E+00  0.2173345851022E-02
 0.9120962816508E-02 -0.6607351591775E-02  0.0000000000000E+00  0.2242719388158E-02
 0.1030454799418E-01 -0.7092395529185E-02  0.0000000000000E+00  0.2143685263692E-02
 0.7122432437140E-04 -0.5665327544324E-02  0.0000000000000E+00  0.5043591579432E-03
 0.2132777273925E-03 -0.5752917996447E-02  0.0000000000000E+00  0.4879396456098E-03
 0.3522493595665E-03 -0.5836881633017E-02  0.0000000000000E+00  0.4499323494506E-03
 0.4836530099300E-03 -0.5913881080121E-02  0.0000000000000E+00  0.3917502084713E-03
 0.6034198110133E-03 -0.5980957200787E-02  0.0000000000000E+00  0.3160132857118E-03
 0.7082714188199E-03 -0.6035798198658E-02  0.0000000000000E+00  0.2261886647143E-03
 0.7959142806477E-03 -0.6076853841734E-02  0.0000000000000E+00  0.1260256488113E-03
 0.8650458742423E-03 -0.6103294538059E-02  0.0000000000000E+00  0.1901511278551E-04
 0.9152279247349E-03 -0.6114867292005E-02  0.0000000000000E+00 -0.9197970957529E-04
 0.9467003385420E-03 -0.6111713548611E-02  0.0000000000000E+00 -0.2048778161315E-03
 0.9601968017537E-03 -0.6094200239146E-02  0.0000000000000E+00 -0.3183519310418E-03
 0.9567984499039E-03 -0.6062792041146E-02  0.0000000000000E+00 -0.4316829130891E-03
 0.9378384529940E-03 -0.6017972587695E-02  0.0000000000000E+00 -0.5445612981862E-03
 0.9048549611554E-03 -0.5960209783536E-02  0.0000000000000E+00 -0.6568833765950E-03
 0.8595818261780E-03 -0.5889953673406E-02  0.0000000000000E+00 -0.7685712423367E-03
 0.8039654908207E-03 -0.5807656664283E-02  0.0000000000000E+00 -0.8794245491045E-03
 0.7402121028677E-03 -0.5713827572285E-02  0.0000000000000E+00 -0.9890576231384E-03
 0.6708502823733E-03 -0.5609112436567E-02  0.0000000000000E+00 -0.1096886556327E-02
 0.5987548135336E-03 -0.5494322084499E-02  0.0000000000000E+00 -0.1201950321322E-02
 0.5271616069074E-03 -0.5370428155926E-02  0.0000000000000E+00 -0.1302658709853E-02
 0.4597348525289E-03 -0.5238618516228E-02  0.0000000000000E+00 -0.1396659706486E-02
 0.4006571866724E-03 -0.5100382151139E-02  0.0000000000000E+00 -0.1480747206764E-02
 0.3547336587167E-03 -0.4957613245306E-02  0.0000000000000E+00 -0.1550780704661E-02
 0.3275025492043E-03 -0.4812727740896E-02  0.0000000000000E+00 -0.1601635893313E-02
 0.3253438869421E-03 -0.4668783585111E-02  0.0000000000000E+00 -0.1627216558999E-02
 0.3555762257667E-03 -0.4529604851110E-02  0.0000000000000E+00 -0.1620555455740E-02
 0.4265232054553E-03 -0.4399896715262E-02  0.0000000000000E+00 -0.1574041063715E-02
 0.5475321459405E-03 -0.4285316089057E-02  0.0000000000000E+00 -0.1479771374701E-02
 0.7289390145610E-03 -0.4192499405220E-02  0.0000000000000E+00 -0.1330100439256E-02
 0.9819370786493E-03 -0.4129064805108E-02  0.0000000000000E+00 -0.1118521402027E-02
 0.1318271573068E-02 -0.4103505600566E-02  0.0000000000000E+00 -0.8408614420672E-03
 0.1749696440685E-02 -0.4124890477887E-02  0.0000000000000E+00 -0.4967176051705E-03
 0.2287127853744E-02 -0.4202318375638E-02  0.0000000000000E+00 -0.9107949265016E-04
 0.2939432087439E-02 -0.4344060988908E-02  0.0000000000000E+00  0.3640651229019E-03
 0.3711864550635E-02 -0.4556368832053E-02  0.0000000000000E+00  0.8484858435653E-03
 0.4604457260624E-02 -0.4842063659495E-02  0.0000000000000E+00  0.1333285171271E-02
 0.5611060453700E-02 -0.5199327982156E-02  0.0000000000000E+00  0.1781553622904E-02
 0.6717799478475E-02 -0.5620536337782E-02  0.0000000000000E+00  0.2150238602152E-02
 0.7900085882747E-02 -0.6090579176556E-02  0.0000000000000E+00  0.2394421448572E-02
 0.9121853459486E-02 -0.6586242763258E-02  0.0000000000000E+00  0.2474226580775E-02
 0.1033774668881E-01 -0.7077631807249E-02  0.0000000000000E+00  0.2362161551895E-02
 0.7314008528567E-04 -0.5669760154778E-02  0.0000000000000E+00  0.5577973602240E-03
 0.2190088745674E-03 -0.5759700530496E-02  0.0000000000000E+00  0.5396500628652E-03
 0.3616489186915E-03 -0.5845878632956E-02  0.0000000000000E+00  0.4975867946070E-03
 0.4963443883051E-03 -0.5924813258018E-02  0.0000000000000E+00  0.4331874087612E-03
 0.6188381573519E-03 -0.5993449277346E-02  0.0000000000000E+00  0.3494806590049E-03
 0.7257645475375E-03 -0.6049467990557E-02  0.0000000000000E+00  0.2504741975963E-03
 0.8148552537325E-03 -0.6091402756540E-02  0.0000000000000E+00  0.1404573684982E-03
 0.8849195118458E-03 -0.6118569917269E-02  0.0000000000000E+00  0.2336041329501E-04
 0.9356749008779E-03 -0.6130885954228E-02  0.0000000000000E+00 -0.9766063246197E-04
 0.9675211212966E-03 -0.6128651430615E-02  0.0000000000000E+00 -0.2203766178118E-03
 0.9813274969369E-03 -0.6112360380070E-02  0.0000000000000E+00 -0.3434261666693E-03
 0.9782724043808E-03 -0.6082563503236E-02  0.0000000000000E+00 -0.4661296721261E-03
 0.9597447040822E-03 -0.6039789588735E-02  0.0000000000000E+00 -0.5882531245053E-03
 0.9273003658677E-03 -0.5984516130704E-02  0.0000000000000E+00 -0.7097751321555E-03
 0.8826597091483E-03 -0.5917174040993E-02  0.0000000000000E+00 -0.8306880867043E-03
 0.8277306176235E-03 -0.5838173734604E-02  0.0000000000000E+00 -0.9508396006035E-03
 0.7646628886315E-03 -0.5747967007259E-02  0.0000000000000E+00 -0.1069867650399E-02
 0.6959157509839E-03 -0.5647135399017E-02  0.0000000000000E+00 -0.1187189792439E-02
 0.6242746321824E-03 -0.5536410388779E-02  0.0000000000000E+00 -0.1301817776374E-02
 0.5528570455906E-03 -0.5416655745094E-02  0.0000000000000E+00 -0.1412091447159E-02
 0.4851781425760E-03 -0.5288917391970E-02  0.0000000000000E+00 -0.1515533089618E-02
 0.4252425430803E-03 -0.5154506476982E-02  0.0000000000000E+00 -0.1608741189368E-02
 0.3776525647518E-03 -0.5015103357627E-02  0.0000000000000E+00 -0.1687295176970E-02
 0.3477266841960E-03 -0.4872876158186E-02  0.0000000000000E+00 -0.1745691863725E-02
 0.3416200403302E-03 -0.4730606189717E-02  0.0000000000000E+00 -0.1777345661924E-02
 0.3664389072171E-03 -0.4591821738503E-02  0.0000000000000E+00 -0.1774681099773E-02
 0.4303324188693E-03 -0.4460929293999E-02  0.0000000000000E+00 -0.1729356641781E-02
 0.5425455580213E-03 -0.4343306071501E-02  0.0000000000000E+00 -0.1632620531374E-02
 0.7134315117731E-03 -0.4245360606185E-02  0.0000000000000E+00 -0.1475870652459E-02
 0.9543822330524E-03 -0.4174587991286E-02  0.0000000000000E+00 -0.1251583294931E-02
 0.1277593673377E-02 -0.4139529891268E-02  0.0000000000000E+00 -0.9545988158281E-03
 0.1695591550360E-02 -0.4149544053478E-02  0.0000000000000E+00 -0.5837036368874E-03
 0.2220435191198E-02 -0.4214320061558E-02  0.0000000000000E+00 -0.1434720126819E-03
 0.2862509644847E-02 -0.4343050741674E-02  0.0000000000000E+00  0.3538346475457E-03
 0.3628889663433E-02 -0.4543203402792E-02  0.0000000000000E+00  0.8866812844159E-03
 0.4521547557956E-02 -0.4818982485250E-02  0.0000000000000E+00  0.1423515249459E-02
 0.5536109037166E-02 -0.5169884489595E-02  0.0000000000000E+00  0.1923217952502E-02
 0.6659835903298E-02 -0.5589191110524E-02  0.0000000000000E+00  0.2336951262819E-02
 0.7868022032473E-02 -0.6061869596714E-02  0.0000000000000E+00  0.2612897445833E-02
 0.9122839350824E-02 -0.6563631329627E-02  0.0000000000000E+00  0.2704378417727E-02
 0.1037557944276E-01 -0.7062379719997E-02  0.0000000000000E+00  0.2578652463366E-02
 0.7524537073598E-04 -0.5674621468800E-02  0.0000000000000E+00  0.6127194814138E-03
 0.2253171927987E-03 -0.5767138770920E-02  0.0000000000000E+00  0.5927884046347E-03
 0.3720040150955E-03 -0.5855734727234E-02  0.0000000000000E+00  0.5465095126878E-03
 0.5103110877943E-03 -0.5936753348386E-02  0.0000000000000E+00  0.4756493165787E-03
 0.6357596960882E-03 -0.6007027812074E-02  0.0000000000000E+00  0.3837090668482E-03
 0.7448894419677E-03 -0.6064238206348E-02  0.0000000000000E+00  0.2753127136646E-03
 0.8354728248732E-03 -0.6107024228527E-02  0.0000000000000E+00  0.1553480985928E-03
 0.9064590613130E-03 -0.6134878357985E-02  0.0000000000000E+00  0.2821195510928E-04
 0.9577517847480E-03 -0.6147915208623E-02  0.0000000000000E+00 -0.1026499994600E-03
 0.9899355219884E-03 -0.6146616232794E-02  0.0000000000000E+00 -0.2348842760738E-03
 0.1004032152950E-02 -0.6131615934392E-02  0.0000000000000E+00 -0.3671287804920E-03
 0.1001326206728E-02 -0.6103556979465E-02  0.0000000000000E+00 -0.4987777346768E-03
 0.9832648060807E-03 -0.6063013854153E-02  0.0000000000000E+00 -0.6297027586933E-03
 0.9514200837260E-03 -0.6010470884721E-02  0.0000000000000E+00 -0.7599889996873E-03
 0.9074948508748E-03 -0.5946335498002E-02  0.0000000000000E+00 -0.8897178619099E-03
 0.8533535081103E-03 -0.5870971288780E-02  0.0000000000000E+00 -0.1018800001254E-02
 0.7910845034069E-03 -0.5784768489987E-02  0.0000000000000E+00 -0.1146910269370E-02
 0.7230728581400E-03 -0.5688240357552E-02  0.0000000000000E+00 -0.1273480422402E-02
 0.6520091094434E-03 -0.5582035268818E-02  0.0000000000000E+00 -0.1397510403777E-02
 0.5808847754334E-03 -0.5466903903414E-02  0.0000000000000E+00 -0.1517291060615E-02
 0.5130554431492E-03 -0.5343742486296E-02  0.0000000000000E+00 -0.1630245316411E-02
 0.4523338228152E-03 -0.5213673367219E-02  0.0000000000000E+00 -0.1732806595650E-02
 0.4031021085715E-03 -0.5078148442537E-02  0.0000000000000E+00 -0.1820306937503E-02
 0.3704381246554E-03 -0.4939069246840E-02  0.0000000000000E+00 -0.1886897339877E-02
 0.3602479179872E-03 -0.4798916984950E-02  0.0000000000000E+00 -0.1925533741988E-02
 0.3793981209307E-03 -0.4660895328693E-02  0.0000000000000E+00 -0.1928057272887E-02
 0.4358333887010E-03 -0.4529077372128E-02  0.0000000000000E+00 -0.1885409158428E-02
 0.5386650350858E-03 -0.4408519624749E-02  0.0000000000000E+00 -0.1787980055983E-02
 0.6982337377587E-03 -0.4305356038126E-02  0.0000000000000E+00 -0.1626171391687E-02
 0.9261081946299E-03 -0.4226910089258E-02  0.0000000000000E+00 -0.1391355749026E-02
 0.1234931126189E-02 -0.4181728977188E-02  0.0000000000000E+00 -0.1077240401167E-02
 0.1638028735760E-02 -0.4179434331628E-02  0.0000000000000E+00 -0.6815887304323E-03
 0.2148683586997E-02 -0.4230315444481E-02  0.0000000000000E+00 -0.2082881110568E-03
 0.2778950626427E-02 -0.4344548839115E-02  0.0000000000000E+00  0.3304263589294E-03
 0.3537959849883E-02 -0.4530950852765E-02  0.0000000000000E+00  0.9119803462788E-03
 0.4429941849292E-02 -0.4795313552789E-02  0.0000000000000E+00  0.1502301234800E-02
 0.5452666627668E-02 -0.5138703023796E-02  0.0000000000000E+00  0.2055951498568E-02
 0.6594865156709E-02 -0.5555555167778E-02  0.0000000000000E+00  0.2517834373598E-02
 0.7831858190576E-02 -0.6031043367802E-02  0.0000000000000E+00  0.2828367692476E-02
 0.9123880343896E-02 -0.6539704327993E-02  0.0000000000000E+00  0.2933037094065E-02
 0.1041841457296E-01 -0.7046935832431E-02  0.0000000000000E+00  0.2793030347835E-02
 0.7754664634110E-04 -0.5679929747498E-02  0.0000000000000E+00  0.6692613071858E-03
 0.2322251271118E-03 -0.5775256725669E-02  0.0000000000000E+00  0.6474792995159E-03
 0.3833531650218E-03 -0.5866474917504E-02  0.0000000000000E+00  0.5967897978034E-03
 0.5255976373322E-03 -0.5949716415481E-02  0.0000000000000E+00  0.5191739752910E-03
 0.6542201992685E-03 -0.6021685529665E-02  0.0000000000000E+00  0.4186861410739E-03
 0.7656601498205E-03 -0.6080070358984E-02  0.0000000000000E+00  0.3006579690960E-03
 0.8577521969292E-03 -0.6123645764542E-02  0.0000000000000E+00  0.1706425369409E-03
 0.9296202520442E-03 -0.6152116279060E-02  0.0000000000000E+00  0.3353024012281E-04
 0.9813890375140E-03 -0.6165826931874E-02  0.0000000000000E+00 -0.1069520111616E-03
 0.1013855403097E-02 -0.6165463120729E-02  0.0000000000000E+00 -0.2483574289070E-03
 0.1028211174439E-02 -0.6151812759776E-02  0.0000000000000E+00 -0.3893631587363E-03
 0.1025855194343E-02 -0.6125615129368E-02  0.0000000000000E+00 -0.5294763583310E-03
 0.1008294166207E-02 -0.6087489475122E-02  0.0000000000000E+00 -0.6687073812691E-03
 0.9771134835261E-03 -0.6037922948558E-02  0.0000000000000E+00 -0.8072735242495E-03
 0.9339935544286E-03 -0.5977294334662E-02  0.0000000000000E+00 -0.9453642540790E-03
 0.8807499505440E-03 -0.5905915309211E-02  0.0000000000000E+00 -0.1082968141987E-02
 0.8194048692872E-03 -0.5824110232322E-02  0.0000000000000E+00 -0.1219809800285E-02
 0.7522648367945E-03 -0.5732320932513E-02  0.0000000000000E+00 -0.1355347762128E-02
 0.6819208070690E-03 -0.5631109939444E-02  0.0000000000000E+00 -0.1488585995262E-02
 0.6112316897128E-03 -0.5521110921558E-02  0.0000000000000E+00 -0.1617788552262E-02
 0.5433839247922E-03 -0.5403064100251E-02  0.0000000000000E+00 -0.1740307353242E-02
 0.4819852109177E-03 -0.5277893601977E-02  0.0000000000000E+00 -0.1852443747342E-02
 0.4311808053110E-03 -0.5146809798039E-02  0.0000000000000E+00 -0.1949318275888E-02
 0.3957873012458E-03 -0.5011430378328E-02  0.0000000000000E+00 -0.2024773126514E-02
 0.3814372023604E-03 -0.4873914227094E-02  0.0000000000000E+00 -0.2071341538333E-02
 0.3947289920132E-03 -0.4737112189960E-02  0.0000000000000E+00 -0.2080312050777E-02
 0.4433702867705E-03 -0.4604728667750E-02  0.0000000000000E+00 -0.2041928448897E-02
 0.5363026726806E-03 -0.4481455885006E-02  0.0000000000000E+00 -0.1945723521351E-02
 0.6838169914183E-03 -0.4373101043326E-02  0.0000000000000E+00 -0.1781068757648E-02
 0.8976258427391E-03 -0.4286758224260E-02  0.0000000000000E+00 -0.1538149789211E-02
 0.1190800821791E-02 -0.4230924037129E-02  0.0000000000000E+00 -0.1209391196740E-02
 0.1577481866665E-02 -0.4215442025804E-02  0.0000000000000E+00 -0.7913057591121E-03
 0.2072241447094E-02 -0.4251192357656E-02  0.0000000000000E+00 -0.2867904437779E-03
 0.2688950331534E-02 -0.4349383664645E-02  0.0000000000000E+00  0.2922975844776E-03
 0.3439041091869E-02 -0.4520310413217E-02  0.0000000000000E+00  0.9226780697096E-03
 0.4329357371813E-02 -0.4771573237945E-02  0.0000000000000E+00  0.1567963817110E-02
 0.5360249585274E-02 -0.5106104339918E-02  0.0000000000000E+00  0.2178332658858E-02
 0.6522340175402E-02 -0.5519804625306E-02  0.0000000000000E+00  0.2691925290255E-02
 0.7791192951961E-02 -0.5998242241661E-02  0.0000000000000E+00  0.3040373486793E-02
 0.9124916415375E-02 -0.6514676452622E-02  0.0000000000000E+00  0.3160056578268E-02
 0.1046664726306E-01 -0.7031633165458E-02  0.0000000000000E+00  0.3005165703198E-02
 0.8005217149272E-04 -0.5685710408262E-02  0.0000000000000E+00  0.7275618408738E-03
 0.2397609480576E-03 -0.5784087135827E-02  0.0000000000000E+00  0.7038480199413E-03
 0.3957441228585E-03 -0.5878133085523E-02  0.0000000000000E+00  0.6485096001190E-03
 0.5422583266954E-03 -0.5963723859641E-02  0.0000000000000E+00  0.5637816933402E-03
 0.6742623781581E-03 -0.6037416492331E-02  0.0000000000000E+00  0.4543734278159E-03
 0.7880927077915E-03 -0.6096921271624E-02  0.0000000000000E+00  0.3264342344582E-03
 0.8816752518177E-03 -0.6141184726864E-02  0.0000000000000E+00  0.1862576977029E-03
 0.9543511579248E-03 -0.6170166064350E-02  0.0000000000000E+00  0.3925344659805E-04
 0.1006506658711E-02 -0.6184476845933E-02  0.0000000000000E+00 -0.1105864241725E-03
 0.1039180815410E-02 -0.6185030428429E-02  0.0000000000000E+00 -0.2607617690594E-03
 0.1053752884271E-02 -0.6172780132769E-02  0.0000000000000E+00 -0.4100363886412E-03
 0.1051743008502E-02 -0.6148564743092E-02  0.0000000000000E+00 -0.5580745126248E-03
 0.1034717189880E-02 -0.6113045520819E-02  0.0000000000000E+00 -0.7050610792545E-03
 0.1004269696199E-02 -0.6066706997467E-02  0.0000000000000E+00 -0.8513721705047E-03
 0.9620525818821E-03 -0.6009893269473E-02  0.0000000000000E+00 -0.9973242685027E-03
 0.9098267803426E-03 -0.5942858716917E-02  0.0000000000000E+00 -0.1142998077587E-02
 0.8495434790342E-03 -0.5865857802280E-02  0.0000000000000E+00 -0.1288180111000E-02
 0.7834270569766E-03 -0.5779258519488E-02  0.0000000000000E+00 -0.1432367769610E-02
 0.7139651728765E-03 -0.5683535932308E-02  0.0000000000000E+00 -0.1574585062913E-02
 0.6438786397826E-03 -0.5579204206650E-02  0.0000000000000E+00 -0.1713092565850E-02
 0.5761762366797E-03 -0.5466842856203E-02  0.0000000000000E+00 -0.1845201472216E-02
 0.5142484635558E-03 -0.5347170069663E-02  0.0000000000000E+00 -0.1967116585858E-02
 0.4619875582495E-03 -0.5221143437230E-02  0.0000000000000E+00 -0.2073785998158E-02
 0.4239287853343E-03 -0.5090081393370E-02  0.0000000000000E+00 -0.2158784062937E-02
 0.4054066829353E-03 -0.4955799973347E-02  0.0000000000000E+00 -0.2214262241533E-02
 0.4127222532914E-03 -0.4820770120869E-02  0.0000000000000E+00 -0.2230993959361E-02
 0.4533112224692E-03 -0.4688292219033E-02  0.0000000000000E+00 -0.2198553648274E-02
 0.5359048078798E-03 -0.4562648565789E-02  0.0000000000000E+00 -0.2105625531776E-02
 0.6706988890866E-03 -0.4449262240910E-02  0.0000000000000E+00 -0.1940527412161E-02
 0.8695053964825E-03 -0.4354930703964E-02  0.0000000000000E+00 -0.1692182063111E-02
 0.1145791176390E-02 -0.4288029413672E-02  0.0000000000000E+00 -0.1351582533413E-02
 0.1514504656754E-02 -0.4258562622215E-02  0.0000000000000E+00 -0.9137517332116E-03
 0.1991557184529E-02 -0.4277970619632E-02  0.0000000000000E+00 -0.3802615826055E-03
 0.2592771240710E-02 -0.4358523102487E-02  0.0000000000000E+00  0.2378163280434E-03
 0.3332137216017E-02 -0.4512113390635E-02  0.0000000000000E+00  0.9169091800178E-03
 0.4219504171154E-02 -0.4748384839324E-02  0.0000000000000E+00  0.1618611115337E-02
 0.5258315660179E-02 -0.5072476149243E-02  0.0000000000000E+00  0.2288719960313E-02
 0.6441620409842E-02 -0.5482142027376E-02  0.0000000000000E+00  0.2858099995616E-02
 0.7745544882780E-02 -0.5963620566767E-02  0.0000000000000E+00  0.3248397948125E-02
 0.9125867529656E-02 -0.6488795422101E-02  0.0000000000000E+00  0.3385288243155E-02
 0.1052069524626E-01 -0.7016846147126E-02  0.0000000000000E+00  0.3214910965419E-02
 0.8277246032032E-04 -0.5691997932433E-02  0.0000000000000E+00  0.7877642987971E-03
 0.2479601834237E-03 -0.5793673745704E-02  0.0000000000000E+00  0.7620207001856E-03
 0.4092359593280E-03 -0.5890754167142E-02  0.0000000000000E+00  0.7017416848029E-03
 0.5603590777531E-03 -0.5978804793314E-02  0.0000000000000E+00  0.6094709554051E-03
 0.6959368130995E-03 -0.6054216242380E-02  0.0000000000000E+00  0.4907011021697E-03
 0.8122049286578E-03 -0.6114742072061E-02  0.0000000000000E+00  0.3525312918894E-03
 0.9072194786639E-03 -0.6159546645885E-02  0.0000000000000E+00  0.2020792421547E-03
 0.9805907414153E-03 -0.6188894232659E-02  0.0000000000000E+00  0.4529540113707E-04
 0.1033012752001E-02 -0.6203702928549E-02  0.0000000000000E+00 -0.1135892000734E-03
 0.1065798813177E-02 -0.6205138472515E-02  0.0000000000000E+00 -0.2720718057497E-03
 0.1080532652216E-02 -0.6194329959521E-02  0.0000000000000E+00 -0.4290585935849E-03
 0.1078861000467E-02 -0.6172216255033E-02  0.0000000000000E+00 -0.5844201064951E-03
 0.1062406885406E-02 -0.6139495739744E-02  0.0000000000000E+00 -0.7385541427148E-03
 0.1032767328588E-02 -0.6096643262513E-02  0.0000000000000E+00 -0.8920227652505E-03
 0.9915588888555E-03 -0.6043961225598E-02  0.0000000000000E+00 -0.1045287832695E-02
 0.9404815529922E-03 -0.5981641064127E-02  0.0000000000000E+00 -0.1198535260362E-02
 0.8814109369315E-03 -0.5909863665754E-02  0.0000000000000E+00 -0.1351624414619E-02
 0.8164863816848E-03 -0.5828921620980E-02  0.0000000000000E+00 -0.1504102814240E-02
 0.7480896756704E-03 -0.5739202162641E-02  0.0000000000000E+00 -0.1655030476718E-02
 0.6787993222598E-03 -0.5641099027690E-02  0.0000000000000E+00 -0.1802688783604E-02
 0.6114391201239E-03 -0.5535028060092E-02  0.0000000000000E+00 -0.1944380280668E-02
 0.5491712218664E-03 -0.5421495682379E-02  0.0000000000000E+00 -0.2076251164761E-02
 0.4956196580946E-03 -0.5301197505003E-02  0.0000000000000E+00 -0.2193119141039E-02
 0.4550189927713E-03 -0.5175139503038E-02  0.0000000000000E+00 -0.2288335627393E-02
 0.4323817493451E-03 -0.5044776517210E-02  0.0000000000000E+00 -0.2353716562529E-02
 0.4336817164476E-03 -0.4912174277180E-02  0.0000000000000E+00 -0.2379565007944E-02
 0.4660460256456E-03 -0.4780194517138E-02  0.0000000000000E+00 -0.2354823665378E-02
 0.5379506317060E-03 -0.4652662626839E-02  0.0000000000000E+00 -0.2267349194139E-02
 0.6594435319130E-03 -0.4534555534823E-02  0.0000000000000E+00 -0.2104394868544E-02
 0.8423790478398E-03 -0.4432297470623E-02  0.0000000000000E+00 -0.1853556337262E-02
 0.1100568204731E-02 -0.4354056861945E-02  0.0000000000000E+00 -0.1504252144983E-02
 0.1449740916493E-02 -0.4309915801340E-02  0.0000000000000E+00 -0.1049769248394E-02
 0.1907173639479E-02 -0.4311817556703E-02  0.0000000000000E+00 -0.4899913114375E-03
 0.2490760141107E-02 -0.4373095917774E-02  0.0000000000000E+00  0.1652624341033E-03
 0.3217306297749E-02 -0.4507348253512E-02  0.0000000000000E+00  0.8926325041737E-03
 0.4100095542727E-02 -0.4726503132383E-02  0.0000000000000E+00  0.1652104192679E-02
 0.5146262020446E-02 -0.5038290682358E-02  0.0000000000000E+00  0.2385202610439E-02
 0.6351953492821E-02 -0.5442798923902E-02  0.0000000000000E+00  0.3015027388265E-02
 0.7694330689938E-02 -0.5927336150569E-02  0.0000000000000E+00  0.3451859102969E-02
 0.9126636957550E-02 -0.6462346214509E-02  0.0000000000000E+00  0.3608601811057E-02
 0.1058099334574E-01 -0.7002996804711E-02  0.0000000000000E+00  0.3422074119316E-02
 0.8572086609037E-04 -0.5698838213459E-02  0.0000000000000E+00  0.8500173571272E-03
 0.2568674194190E-03 -0.5804074087042E-02  0.0000000000000E+00  0.8221245458951E-03
 0.4239016165894E-03 -0.5904396749804E-02  0.0000000000000E+00  0.7565471932512E-03
 0.5799796298965E-03 -0.5994997547844E-02  0.0000000000000E+00  0.6562132484332E-03
 0.7193028807294E-03 -0.6072081727836E-02  0.0000000000000E+00  0.5275615619270E-03
 0.8380159190012E-03 -0.6133476747176E-02  0.0000000000000E+00  0.3787986942299E-03
 0.9343565281412E-03 -0.6178623062389E-02  0.0000000000000E+00  0.2179575933445E-03
 0.1008267066581E-02 -0.6208149248306E-02  0.0000000000000E+00  0.5154374004243E-04
 0.1060801873054E-02 -0.6223323622762E-02  0.0000000000000E+00 -0.1160127741254E-03
 0.1093582165365E-02 -0.6225588299774E-02  0.0000000000000E+00 -0.2822702361958E-03
 0.1108412000227E-02 -0.6216256002501E-02  0.0000000000000E+00 -0.4463419653278E-03
 0.1107067657532E-02 -0.6196363308736E-02  0.0000000000000E+00 -0.6083590252458E-03
 0.1091224505613E-02 -0.6166638317744E-02  0.0000000000000E+00 -0.7689722700082E-03
 0.1062474216818E-02 -0.6127537363114E-02  0.0000000000000E+00 -0.9289569256710E-03
 0.1022389393800E-02 -0.6079313145308E-02  0.0000000000000E+00 -0.1088937445805E-02
 0.9726022415425E-03 -0.6022088253942E-02  0.0000000000000E+00 -0.1249216372001E-02
 0.9149085096098E-03 -0.5955966743996E-02  0.0000000000000E+00 -0.1409735212421E-02
 0.8513605152990E-03 -0.5881165180805E-02  0.0000000000000E+00 -0.1570101636319E-02
 0.7842329136093E-03 -0.5797983981780E-02  0.0000000000000E+00 -0.1729427338933E-02
 0.7159591175564E-03 -0.5706697221989E-02  0.0000000000000E+00 -0.1886039611909E-02
 0.6491719438519E-03 -0.5607555986924E-02  0.0000000000000E+00 -0.2037266096415E-02
 0.5867952047918E-03 -0.5500851158619E-02  0.0000000000000E+00 -0.2179234541253E-02
 0.5321706006550E-03 -0.5387009483969E-02  0.0000000000000E+00 -0.2306677119369E-02
 0.4892136253826E-03 -0.5266713876464E-02  0.0000000000000E+00 -0.2412770967589E-02
 0.4625915225145E-03 -0.5141042382475E-02  0.0000000000000E+00 -0.2489048150992E-02
 0.4579212683939E-03 -0.5011632706134E-02  0.0000000000000E+00 -0.2525393888169E-02
 0.4819834426718E-03 -0.4880874881024E-02  0.0000000000000E+00 -0.2510167484287E-02
 0.5429501308779E-03 -0.4752090028163E-02  0.0000000000000E+00 -0.2430432867853E-02
 0.6506609965992E-03 -0.4629743107292E-02  0.0000000000000E+00 -0.2272384247799E-02
 0.8169430702089E-03 -0.4519799583544E-02  0.0000000000000E+00 -0.2022242363499E-02
 0.1055881488734E-02 -0.4430119151443E-02  0.0000000000000E+00 -0.1667720311404E-02
 0.1383935498876E-02 -0.4370754976069E-02  0.0000000000000E+00 -0.1200122790801E-02
 0.1819744393929E-02 -0.4354064959217E-02  0.0000000000000E+00 -0.6172581932910E-03
 0.2383368571482E-02 -0.4394416402277E-02  0.0000000000000E+00  0.7283362086802E-04
 0.3094681458449E-02 -0.4507190896388E-02  0.0000000000000E+00  0.8476172257504E-03
 0.3970863076808E-02 -0.4706845482895E-02  0.0000000000000E+00  0.1666019645867E-02
 0.5023426736990E-02 -0.5004129814451E-02  0.0000000000000E+00  0.2465540530909E-02
 0.6252453399455E-02 -0.5402042281934E-02  0.0000000000000E+00  0.3161101148683E-02
 0.7636829064316E-02 -0.5889529652590E-02  0.0000000000000E+00  0.3650092080378E-02
 0.9127118211058E-02 -0.6435646587829E-02  0.0000000000000E+00  0.3829937960562E-02
 0.1064798724947E-01 -0.6990558706688E-02  0.0000000000000E+00  0.3626382062194E-02
 0.8891432806589E-04 -0.5706291467609E-02  0.0000000000000E+00  0.9144767099377E-03
 0.2665385812538E-03 -0.5815362913115E-02  0.0000000000000E+00  0.8842879946264E-03
 0.4398310581587E-03 -0.5919136177343E-02  0.0000000000000E+00  0.8129723723134E-03
 0.6012160742048E-03 -0.6012351282365E-02  0.0000000000000E+00  0.7039464655318E-03
 0.7444296090201E-03 -0.6091010884087E-02  0.0000000000000E+00  0.5648016439700E-03
 0.8655452071886E-03 -0.6153060104100E-02  0.0000000000000E+00  0.4050392141651E-03
 0.9630502879678E-03 -0.6198288786885E-02  0.0000000000000E+00  0.2337039212371E-03
 0.1037295125169E-02 -0.6227758925393E-02  0.0000000000000E+00  0.5785841378070E-04
 0.1089753150761E-02 -0.6243135851647E-02  0.0000000000000E+00 -0.1179258033036E-03
 0.1122387982002E-02 -0.6246160401192E-02  0.0000000000000E+00 -0.2913468368660E-03
 0.1137237711816E-02 -0.6238333160803E-02  0.0000000000000E+00 -0.4617994539214E-03
 0.1136208073490E-02 -0.6220782403123E-02  0.0000000000000E+00 -0.6297339713824E-03
 0.1121019244286E-02 -0.6194255712307E-02  0.0000000000000E+00 -0.7960956914060E-03
 0.1093247231603E-02 -0.6159180200001E-02  0.0000000000000E+00 -0.9618994857046E-03
 0.1054410791492E-02 -0.6115749849920E-02  0.0000000000000E+00 -0.1127947884278E-02
 0.1006066967281E-02 -0.6064012294258E-02  0.0000000000000E+00 -0.1294669260923E-02
 0.9499276956056E-03 -0.6003991996194E-02  0.0000000000000E+00 -0.1462094388727E-02
 0.8879573541369E-03 -0.5935829933919E-02  0.0000000000000E+00 -0.1629899505327E-02
 0.8223237071637E-03 -0.5859742231581E-02  0.0000000000000E+00 -0.1797263109110E-02
 0.7553138924021E-03 -0.5775885881047E-02  0.0000000000000E+00 -0.1962584179479E-02
 0.6893651738370E-03 -0.5684348107877E-02  0.0000000000000E+00 -0.2123250706326E-02
 0.6271542911728E-03 -0.5585202688412E-02  0.0000000000000E+00 -0.2275414121288E-02
 0.5717277269146E-03 -0.5478603197956E-02  0.0000000000000E+00 -0.2413768379962E-02
 0.5266648432417E-03 -0.5364901912333E-02  0.0000000000000E+00 -0.2531368450479E-02
 0.4962655997427E-03 -0.5244787855519E-02  0.0000000000000E+00 -0.2619519476379E-02
 0.4857613431242E-03 -0.5119451240711E-02  0.0000000000000E+00 -0.2667749469491E-02
 0.5015476590405E-03 -0.4990779985525E-02  0.0000000000000E+00 -0.2663894431449E-02
 0.5514412221980E-03 -0.4861544420785E-02  0.0000000000000E+00 -0.2594276312649E-02
 0.6450059512977E-03 -0.4735629169439E-02  0.0000000000000E+00 -0.2444055546443E-02
 0.7939591435692E-03 -0.4618447411555E-02  0.0000000000000E+00 -0.2198051991173E-02
 0.1012569752356E-02 -0.4517432625301E-02  0.0000000000000E+00 -0.1842161639581E-02
 0.1317945712309E-02 -0.4442476551540E-02  0.0000000000000E+00 -0.1365468983373E-02
 0.1730051964302E-02 -0.4406227253739E-02  0.0000000000000E+00 -0.7633039702535E-03
 0.2271177015201E-02 -0.4424012452758E-02  0.0000000000000E+00 -0.4134169921349E-04
 0.2964497055028E-02 -0.4513041033393E-02  0.0000000000000E+00  0.7794325713824E-03
 0.3831577392115E-02 -0.4690530766176E-02  0.0000000000000E+00  0.1657609958676E-02
 0.4889096244085E-02 -0.4970719987135E-02  0.0000000000000E+00  0.2527096134327E-02
 0.6142080048214E-02 -0.5360193105124E-02  0.0000000000000E+00  0.3294341493245E-02
 0.7572119190523E-02 -0.5850290768401E-02  0.0000000000000E+00  0.3842288492837E-02
 0.9127199970983E-02 -0.6409009715338E-02  0.0000000000000E+00  0.4049416405335E-02
 0.1072212554244E-01 -0.6980043750131E-02  0.0000000000000E+00  0.3827446787748E-02
 0.9237433480413E-04 -0.5714435871689E-02  0.0000000000000E+00  0.9813070141191E-03
 0.2770438417491E-03 -0.5827636462258E-02  0.0000000000000E+00  0.9486407587680E-03
 0.4571351633083E-03 -0.5935068261651E-02  0.0000000000000E+00  0.8710441388492E-03
 0.6241837634785E-03 -0.6030927636589E-02  0.0000000000000E+00  0.7525664404973E-03
 0.7713963505738E-03 -0.6111001689086E-02  0.0000000000000E+00  0.6022131579340E-03
 0.8948113192023E-03 -0.6173414938026E-02  0.0000000000000E+00  0.4310014375611E-03
 0.9932543523481E-03 -0.6218398444460E-02  0.0000000000000E+00  0.2490861484846E-03
 0.1067574219270E-02 -0.6247527384278E-02  0.0000000000000E+00  0.6407074632762E-04
 0.1119728184242E-02 -0.6262912861053E-02  0.0000000000000E+00 -0.1194122208135E-03
 0.1152056287614E-02 -0.6266613441785E-02  0.0000000000000E+00 -0.2992967763074E-03
 0.1166840982436E-02 -0.6260316852486E-02  0.0000000000000E+00 -0.4753430820859E-03
 0.1166113492732E-02 -0.6245232655100E-02  0.0000000000000E+00 -0.6483831146335E-03
 0.1151628006306E-02 -0.6222114583278E-02  0.0000000000000E+00 -0.8196982303791E-03
 0.1124932146986E-02 -0.6191347918184E-02  0.0000000000000E+00 -0.9905679385635E-03
 0.1087479418938E-02 -0.6153057950232E-02  0.0000000000000E+00 -0.1161985975080E-02
 0.1040743771346E-02 -0.6107211091409E-02  0.0000000000000E+00 -0.1334512990677E-02
 0.9863498223241E-03 -0.6053750036156E-02  0.0000000000000E+00 -0.1508273460903E-02
 0.9261743496061E-03 -0.5992741785608E-02  0.0000000000000E+00 -0.1683018581584E-02
 0.8622801896314E-03 -0.5924322319622E-02  0.0000000000000E+00 -0.1858007990635E-02
 0.7968087817402E-03 -0.5848536038064E-02  0.0000000000000E+00 -0.2031738670581E-02
 0.7319987938087E-03 -0.5765309281508E-02  0.0000000000000E+00 -0.2201695547443E-02
 0.6702725048886E-03 -0.5674499500109E-02  0.0000000000000E+00 -0.2364097517253E-02
 0.6143696931753E-03 -0.5575985625492E-02  0.0000000000000E+00 -0.2513649642282E-02
 0.5675181646613E-03 -0.5469785195836E-02  0.0000000000000E+00 -0.2643339834978E-02
 0.5336303935925E-03 -0.5356190040865E-02  0.0000000000000E+00 -0.2744308301101E-02
 0.5175248224758E-03 -0.5235927711857E-02  0.0000000000000E+00 -0.2805794747362E-02
 0.5251740620498E-03 -0.5110357457388E-02  0.0000000000000E+00 -0.2815184585467E-02
 0.5639859355889E-03 -0.4981654622072E-02  0.0000000000000E+00 -0.2758126409973E-02
 0.6431751761937E-03 -0.4853054221107E-02  0.0000000000000E+00 -0.2618795535838E-02
 0.7742545880305E-03 -0.4729317165878E-02  0.0000000000000E+00 -0.2380612480802E-02
 0.9715656714161E-03 -0.4617318227200E-02  0.0000000000000E+00 -0.2027572091076E-02
 0.1252752843144E-02 -0.4526628365618E-02  0.0000000000000E+00 -0.1546319817448E-02
 0.1639027777576E-02 -0.4470020491901E-02  0.0000000000000E+00 -0.9292990361664E-03
 0.2154923102658E-02 -0.4463657167086E-02  0.0000000000000E+00 -0.1791826221373E-03
 0.2827121664131E-02 -0.4526565468168E-02  0.0000000000000E+00  0.6854440349752E-03
 0.3682075745089E-02 -0.4678928671471E-02  0.0000000000000E+00  0.1623760811229E-02
 0.4742519527327E-02 -0.4938975717956E-02  0.0000000000000E+00  0.2566762366243E-02
 0.6019632943707E-02 -0.5317670331980E-02  0.0000000000000E+00  0.3412275061376E-02
 0.7498990000224E-02 -0.5809631364934E-02  0.0000000000000E+00  0.4027327953793E-02
 0.9126733083703E-02 -0.6382629904948E-02  0.0000000000000E+00  0.4267466614234E-02
 0.1080386015040E-01 -0.6971864704283E-02  0.0000000000000E+00  0.4024852610861E-02
 0.9612817951310E-04 -0.5723372151867E-02  0.0000000000000E+00  0.1050684317885E-02
 0.2884713607996E-03 -0.5841017789958E-02  0.0000000000000E+00  0.1015313637052E-02
 0.4759505554979E-03 -0.5952313716947E-02  0.0000000000000E+00  0.9307640039682E-03
 0.6490206075398E-03 -0.6050802321046E-02  0.0000000000000E+00  0.8019160188688E-03
 0.8002931056006E-03 -0.6132050431300E-02  0.0000000000000E+00  0.6395213815301E-03
 0.9258295853680E-03 -0.6194448148142E-02  0.0000000000000E+00  0.4563715068219E-03
 0.1024908734800E-02 -0.6238782156257E-02  0.0000000000000E+00  0.2638252180538E-03
 0.1098984849174E-02 -0.6267231532272E-02  0.0000000000000E+00  0.6998333394716E-04
 0.1150568735788E-02 -0.6282401937177E-02  0.0000000000000E+00 -0.1205693900754E-03
 0.1182408590966E-02 -0.6286683076188E-02  0.0000000000000E+00 -0.3061182481484E-03
 0.1197036658940E-02 -0.6281942559766E-02  0.0000000000000E+00 -0.4868818630312E-03
 0.1196600961917E-02 -0.6269455718326E-02  0.0000000000000E+00 -0.6641385721056E-03
 0.1182875270658E-02 -0.6249965839715E-02  0.0000000000000E+00 -0.8395463343584E-03
 0.1157363582106E-02 -0.6223801946409E-02  0.0000000000000E+00 -0.1014671920232E-02
 0.1121441179692E-02 -0.6191009808860E-02  0.0000000000000E+00 -0.1190710448947E-02
 0.1076490433615E-02 -0.6151468286399E-02  0.0000000000000E+00 -0.1368358002113E-02
 0.1024045678774E-02 -0.6105036791450E-02  0.0000000000000E+00 -0.1547833982705E-02
 0.9658978953194E-03 -0.6051711235575E-02  0.0000000000000E+00 -0.1728968480574E-02
 0.9040089104171E-03 -0.5991553337543E-02  0.0000000000000E+00 -0.1911115585397E-02
 0.8403769687283E-03 -0.5924501383879E-02  0.0000000000000E+00 -0.2092897014402E-02
 0.7770406964622E-03 -0.5850325936279E-02  0.0000000000000E+00 -0.2271932351756E-02
 0.7161619208428E-03 -0.5768671352370E-02  0.0000000000000E+00 -0.2444552981840E-02
 0.6601637830235E-03 -0.5679143539952E-02  0.0000000000000E+00 -0.2605525813138E-02
 0.6119090953938E-03 -0.5581425147907E-02  0.0000000000000E+00 -0.2747829180905E-02
 0.5749050497195E-03 -0.5475407431659E-02  0.0000000000000E+00 -0.2862504890494E-02
 0.5535323246608E-03 -0.5361345444753E-02  0.0000000000000E+00 -0.2938581425803E-02
 0.5533041606271E-03 -0.5240048461353E-02  0.0000000000000E+00 -0.2963079548581E-02
 0.5811654985456E-03 -0.5113056725121E-02  0.0000000000000E+00 -0.2921062698780E-02
 0.6459037489020E-03 -0.4982887557596E-02  0.0000000000000E+00 -0.2795796504626E-02
 0.7587211487055E-03 -0.4853545356654E-02  0.0000000000000E+00 -0.2569337085789E-02
 0.9338994449418E-03 -0.4731200400525E-02  0.0000000000000E+00 -0.2223730960797E-02
 0.1189473298239E-02 -0.4624916593397E-02  0.0000000000000E+00 -0.1742997892148E-02
 0.1547773572953E-02 -0.4547381503752E-02  0.0000000000000E+00 -0.1116297032375E-02
 0.2035534330822E-02 -0.4515403860523E-02  0.0000000000000E+00 -0.3426218196516E-03
 0.2683098104779E-02 -0.4549749004832E-02  0.0000000000000E+00  0.5628185017308E-03
 0.3522302162862E-02 -0.4673721470547E-02  0.0000000000000E+00  0.1560952381456E-02
 0.4582920192601E-02 -0.4910057035905E-02  0.0000000000000E+00  0.2580866063031E-02
 0.5883779181667E-02 -0.5275039737436E-02  0.0000000000000E+00  0.3511866379102E-02
 0.7415845483432E-02 -0.5767573305987E-02  0.0000000000000E+00  0.4203416665890E-02
 0.9125437342536E-02 -0.6356366266414E-02  0.0000000000000E+00  0.4484745782374E-02
 0.1089334280924E-01 -0.6965617904217E-02  0.0000000000000E+00  0.4218519616174E-02
 0.1002106148700E-03 -0.5733229432916E-02  0.0000000000000E+00  0.1122799097351E-02
 0.3009321351076E-03 -0.5855663490660E-02  0.0000000000000E+00  0.1084437907928E-02
 0.4964456036524E-03 -0.5971023446174E-02  0.0000000000000E+00  0.9920996720070E-03
 0.6758907277023E-03 -0.6072066460679E-02  0.0000000000000E+00  0.8517708766283E-03
 0.8312202398189E-03 -0.6154148819467E-02  0.0000000000000E+00  0.6763711182695E-03
 0.9586088915655E-03 -0.6216045471566E-02  0.0000000000000E+00  0.4807641122510E-03
 0.1057935651876E-02 -0.6259240196822E-02  0.0000000000000E+00  0.2775919918694E-03
 0.1131385069335E-02 -0.6286617066518E-02  0.0000000000000E+00  0.7537115633906E-04
 0.1182094266039E-02 -0.6301322079708E-02  0.0000000000000E+00 -0.1215051184974E-03
 0.1213246522082E-02 -0.6306080945218E-02  0.0000000000000E+00 -0.3118093276603E-03
 0.1227622628562E-02 -0.6302925611272E-02  0.0000000000000E+00 -0.4963193206450E-03
 0.1227473127434E-02 -0.6293175902053E-02  0.0000000000000E+00 -0.6768247606456E-03
 0.1214573064497E-02 -0.6277544820687E-02  0.0000000000000E+00 -0.8553981225489E-03
 0.1190365022200E-02 -0.6256289114637E-02  0.0000000000000E+00 -0.1033912766839E-02
 0.1156131529127E-02 -0.6229363550480E-02  0.0000000000000E+00 -0.1213771886846E-02
 0.1113154342910E-02 -0.6196553132806E-02  0.0000000000000E+00 -0.1395806387472E-02
 0.1062875191737E-02 -0.6157633212200E-02  0.0000000000000E+00 -0.1580328091949E-02
 0.1007002750558E-02 -0.6112532864227E-02  0.0000000000000E+00 -0.1767247031535E-02
 0.9474039690331E-03 -0.6061247249134E-02  0.0000000000000E+00 -0.1956023817569E-02
 0.8859384856034E-03 -0.6003617043574E-02  0.0000000000000E+00 -0.2145431949861E-02
 0.8244450698103E-03 -0.5939264276848E-02  0.0000000000000E+00 -0.2333264298092E-02
 0.7648205137619E-03 -0.5867625979186E-02  0.0000000000000E+00 -0.2516010486892E-02
 0.7091630770053E-03 -0.5788039997069E-02  0.0000000000000E+00 -0.2688550669038E-02
 0.6599594935128E-03 -0.5699858378716E-02  0.0000000000000E+00 -0.2843912615666E-02
 0.6202969353909E-03 -0.5602573994533E-02  0.0000000000000E+00 -0.2973110117353E-02
 0.5940968474798E-03 -0.5495966015865E-02  0.0000000000000E+00 -0.3065045340043E-02
 0.5863795868435E-03 -0.5380279210196E-02  0.0000000000000E+00 -0.3106473841820E-02
 0.6035741768917E-03 -0.5256384699696E-02  0.0000000000000E+00 -0.3081983038084E-02
 0.6539596412936E-03 -0.5126017754418E-02  0.0000000000000E+00 -0.2974034165903E-02
 0.7483119271855E-03 -0.4992320713826E-02  0.0000000000000E+00 -0.2763393114279E-02
 0.9007005492443E-03 -0.4860603156078E-02  0.0000000000000E+00 -0.2430157668899E-02
 0.1129368673308E-02 -0.4739210175725E-02  0.0000000000000E+00 -0.1955582728790E-02
 0.1457583711014E-02 -0.4640486280296E-02  0.0000000000000E+00 -0.1325176422395E-02
 0.1914165155145E-02 -0.4581623917524E-02  0.0000000000000E+00 -0.5335556308088E-03
 0.2533193048462E-02 -0.4584954270300E-02  0.0000000000000E+00  0.4085427146523E-03
 0.3352356242124E-02 -0.4676978607722E-02  0.0000000000000E+00  0.1465226334317E-02
 0.4409539950501E-02 -0.4885452445707E-02  0.0000000000000E+00  0.2565062586030E-02
 0.5732978164208E-02 -0.5233042778500E-02  0.0000000000000E+00  0.3589400642137E-02
 0.7321131239918E-02 -0.5724388722464E-02  0.0000000000000E+00  0.4367982775545E-02
 0.9120796136867E-02 -0.6329311211582E-02  0.0000000000000E+00  0.4701732262876E-02
 0.1100193290025E-01 -0.6964351076190E-02  0.0000000000000E+00  0.4400077744682E-02
 0.1046660621891E-03 -0.5744172780503E-02  0.0000000000000E+00  0.1197860062384E-02
 0.3145663469599E-03 -0.5871772244031E-02  0.0000000000000E+00  0.1156143999579E-02
 0.5188278943808E-03 -0.5991384814798E-02  0.0000000000000E+00  0.1054973320773E-02
 0.7049883789218E-03 -0.6094827383759E-02  0.0000000000000E+00  0.9018210419559E-03
 0.8642872178805E-03 -0.6177279409505E-02  0.0000000000000E+00  0.7123098967445E-03
 0.9931470025735E-03 -0.6238064421013E-02  0.0000000000000E+00  0.5037129845216E-03
 0.1092234189883E-02 -0.6279536467600E-02  0.0000000000000E+00  0.2900053253803E-03
 0.1164606304088E-02 -0.6305394041325E-02  0.0000000000000E+00  0.7998437584102E-04
 0.1214099394832E-02 -0.6319361757116E-02  0.0000000000000E+00 -0.1223332657792E-03
 0.1244350634282E-02 -0.6324493978418E-02  0.0000000000000E+00 -0.3163639723348E-03
 0.1258379431399E-02 -0.6322961289416E-02  0.0000000000000E+00 -0.5035506406532E-03
 0.1258518220484E-02 -0.6316100536935E-02  0.0000000000000E+00 -0.6862566909171E-03
 0.1246521064169E-02 -0.6304571624403E-02  0.0000000000000E+00 -0.8670025179199E-03
 0.1223748920246E-02 -0.6288541844384E-02  0.0000000000000E+00 -0.1047983188459E-02
 0.1191375518567E-02 -0.6267863108983E-02  0.0000000000000E+00 -0.1230812773080E-02
 0.1150572419737E-02 -0.6242220410630E-02  0.0000000000000E+00 -0.1416452268141E-02
 0.1102687152496E-02 -0.6211305035736E-02  0.0000000000000E+00 -0.1605299183694E-02
 0.1049351514355E-02 -0.6174984901691E-02  0.0000000000000E+00 -0.1797341212071E-02
 0.9923462020076E-03 -0.6133198181452E-02  0.0000000000000E+00 -0.1992156120738E-02
 0.9333990639746E-03 -0.6085698454151E-02  0.0000000000000E+00 -0.2188696484079E-02
 0.8741508090851E-03 -0.6031968554072E-02  0.0000000000000E+00 -0.2384967719100E-02
 0.8162299769919E-03 -0.5971246521756E-02  0.0000000000000E+00 -0.2577663523463E-02
 0.7614035008807E-03 -0.5902610695955E-02  0.0000000000000E+00 -0.2761828407516E-02
 0.7117736826806E-03 -0.5825091764868E-02  0.0000000000000E+00 -0.2930599088019E-02
 0.6699966992650E-03 -0.5737792779918E-02  0.0000000000000E+00 -0.3075034630999E-02
 0.6395177448227E-03 -0.5640021264240E-02  0.0000000000000E+00 -0.3184002948694E-02
 0.6248351168095E-03 -0.5531451353242E-02  0.0000000000000E+00 -0.3244107231480E-02
 0.6318117364167E-03 -0.5412259362017E-02  0.0000000000000E+00 -0.3239589789675E-02
 0.6681364704487E-03 -0.5283340869039E-02  0.0000000000000E+00 -0.3152245181240E-02
 0.7440360130008E-03 -0.5146873086182E-02  0.0000000000000E+00 -0.2961667878674E-02
 0.8731969872981E-03 -0.5007142497812E-02  0.0000000000000E+00 -0.2646063447767E-02
 0.1073853815785E-02 -0.4871541598096E-02  0.0000000000000E+00 -0.2183847453100E-02
 0.1369967531159E-02 -0.4751766191251E-02  0.0000000000000E+00 -0.1556566561058E-02
 0.1792238158025E-02 -0.4665046623664E-02  0.0000000000000E+00 -0.7537742999435E-03
 0.2378457141596E-02 -0.4634990317283E-02  0.0000000000000E+00  0.2194637872494E-03
 0.3172558387533E-02 -0.4691250610980E-02  0.0000000000000E+00  0.1332153259403E-02
 0.4221682593224E-02 -0.4867072216075E-02  0.0000000000000E+00  0.2514263275829E-02
 0.5565530013959E-02 -0.5192714170975E-02  0.0000000000000E+00  0.3640139668215E-02
 0.7212875796427E-02 -0.5680418544279E-02  0.0000000000000E+00  0.4518618357698E-02
 0.9111564678994E-02 -0.6301597964194E-02  0.0000000000000E+00  0.4913283193489E-02
 0.1113337685458E-01 -0.6971229901261E-02  0.0000000000000E+00  0.4586292674952E-02
 0.1095516016247E-03 -0.5756413050734E-02  0.0000000000000E+00  0.1276098941430E-02
 0.3295517582526E-03 -0.5889595778823E-02  0.0000000000000E+00  0.1230558936762E-02
 0.5433535406788E-03 -0.6013629033285E-02  0.0000000000000E+00  0.1119245111072E-02
 0.7365419324379E-03 -0.6119208350766E-02  0.0000000000000E+00  0.9516467445153E-03
 0.8996097938762E-03 -0.6201408610768E-02  0.0000000000000E+00  0.7467679193527E-03
 0.1029423982498E-02 -0.6260324918830E-02  0.0000000000000E+00  0.5246613917406E-03
 0.1127673665674E-02 -0.6299390651615E-02  0.0000000000000E+00  0.3006320978600E-03
 0.1198448664191E-02 -0.6323232112145E-02  0.0000000000000E+00  0.8355341197858E-04
 0.1246351420726E-02 -0.6336176929739E-02  0.0000000000000E+00 -0.1231676717214E-03
 0.1275479499369E-02 -0.6341584160279E-02  0.0000000000000E+00 -0.3197671211915E-03
 0.1289070183089E-02 -0.6341725363387E-02  0.0000000000000E+00 -0.5084595220210E-03
 0.1289510273119E-02 -0.6337920635504E-02  0.0000000000000E+00 -0.6922383062929E-03
 0.1278506834120E-02 -0.6330751593858E-02  0.0000000000000E+00 -0.8740985535675E-03
 0.1257316872843E-02 -0.6320278396649E-02  0.0000000000000E+00 -0.1056567112761E-02
 0.1226987888676E-02 -0.6306238289840E-02  0.0000000000000E+00 -0.1241467667227E-02
 0.1188571087618E-02 -0.6288210362339E-02  0.0000000000000E+00 -0.1429882257415E-02
 0.1143318999151E-02 -0.6265802610189E-02  0.0000000000000E+00 -0.1622282675105E-02
 0.1092794165598E-02 -0.6238828902403E-02  0.0000000000000E+00 -0.1818728225347E-02
 0.1038702449035E-02 -0.6207181858624E-02  0.0000000000000E+00 -0.2018922872065E-02
 0.9826490688070E-03 -0.6170540391120E-02  0.0000000000000E+00 -0.2222025760006E-02
 0.9260799896645E-03 -0.6128259443843E-02  0.0000000000000E+00 -0.2426294415507E-02
 0.8703535417530E-03 -0.6079388982753E-02  0.0000000000000E+00 -0.2628671705576E-02
 0.8169007757391E-03 -0.6022760239895E-02  0.0000000000000E+00 -0.2824416172399E-02
 0.7674343305911E-03 -0.5957097271693E-02  0.0000000000000E+00 -0.3006832238936E-02
 0.7241729111442E-03 -0.5881129076134E-02  0.0000000000000E+00 -0.3167099263284E-02
 0.6900740282033E-03 -0.5793704564653E-02  0.0000000000000E+00 -0.3294149138316E-02
 0.6690906657096E-03 -0.5693931218257E-02  0.0000000000000E+00 -0.3374558331043E-02
 0.6664744074239E-03 -0.5581275613547E-02  0.0000000000000E+00 -0.3392376990112E-02
 0.6892441524418E-03 -0.5455746113882E-02  0.0000000000000E+00 -0.3328904892472E-02
 0.7469503451332E-03 -0.5318458816104E-02  0.0000000000000E+00 -0.3162733159478E-02
 0.8527112241052E-03 -0.5172514297021E-02  0.0000000000000E+00 -0.2870298337238E-02
 0.1024501745103E-02 -0.5024102574338E-02  0.0000000000000E+00 -0.2427185362764E-02
 0.1286670273891E-02 -0.4883920137933E-02  0.0000000000000E+00 -0.1810756161688E-02
 0.1671489024601E-02 -0.4768799251227E-02  0.0000000000000E+00 -0.1004865978535E-02
 0.2220295161716E-02 -0.4703190244107E-02  0.0000000000000E+00 -0.7645099369624E-05
 0.2983539491575E-02 -0.4719683617652E-02  0.0000000000000E+00  0.1156833902626E-02
 0.4018764924710E-02 -0.4857373178928E-02  0.0000000000000E+00  0.2422464360438E-02
 0.5379640721450E-02 -0.5155495111723E-02  0.0000000000000E+00  0.3658439831199E-02
 0.7088381424266E-02 -0.5636042591384E-02  0.0000000000000E+00  0.4651204787609E-02
 0.9099004404612E-02 -0.6275172535403E-02  0.0000000000000E+00  0.5119179267388E-02
 0.1127460889201E-01 -0.6983928249270E-02  0.0000000000000E+00  0.4778539818624E-02
 0.1149410814554E-03 -0.5770219933105E-02  0.0000000000000E+00  0.1357776518911E-02
 0.3461149252170E-03 -0.5909453069530E-02  0.0000000000000E+00  0.1307801741949E-02
 0.5703387625083E-03 -0.6038039713739E-02  0.0000000000000E+00  0.1184689788002E-02
 0.7708175136103E-03 -0.6145346405384E-02  0.0000000000000E+00  0.1000686800388E-02
 0.9373048474607E-03 -0.6226476243130E-02  0.0000000000000E+00  0.7790344991616E-03
 0.1067393123321E-02 -0.6282597029320E-02  0.0000000000000E+00  0.5429535368426E-03
 0.1164085520948E-02 -0.6318468981605E-02  0.0000000000000E+00  0.3089902819794E-03
 0.1232675884802E-02 -0.6339755673411E-02  0.0000000000000E+00  0.8579698643267E-04
 0.1278588096451E-02 -0.6351389599241E-02  0.0000000000000E+00 -0.1241141476481E-03
 0.1306369257515E-02 -0.6356988951395E-02  0.0000000000000E+00 -0.3219889047307E-03
 0.1319440906040E-02 -0.6358875158450E-02  0.0000000000000E+00 -0.5109148506811E-03
 0.1320209608457E-02 -0.6358311893875E-02  0.0000000000000E+00 -0.6945610100026E-03
 0.1310306208030E-02 -0.6355775959338E-02  0.0000000000000E+00 -0.8764149716634E-03
 0.1290859854135E-02 -0.6351203149755E-02  0.0000000000000E+00 -0.1059339765761E-02
 0.1262773193202E-02 -0.6344204812645E-02  0.0000000000000E+00 -0.1245363505815E-02
 0.1226966283045E-02 -0.6334248627805E-02  0.0000000000000E+00 -0.1435675976408E-02
 0.1184596657958E-02 -0.6320860777622E-02  0.0000000000000E+00 -0.1630806808902E-02
 0.1137167687740E-02 -0.6303809553731E-02  0.0000000000000E+00 -0.1830876667845E-02
 0.1086324932137E-02 -0.6282955229652E-02  0.0000000000000E+00 -0.2035723046184E-02
 0.1033562559693E-02 -0.6257916204726E-02  0.0000000000000E+00 -0.2244739349846E-02
 0.9801364442899E-03 -0.6227932589333E-02  0.0000000000000E+00 -0.2456474640798E-02
 0.9271338319252E-03 -0.6191879743053E-02  0.0000000000000E+00 -0.2668164273189E-02
 0.8756472964836E-03 -0.6148358325672E-02  0.0000000000000E+00 -0.2875327665776E-02
 0.8269981149486E-03 -0.6095806547837E-02  0.0000000000000E+00 -0.3071493521266E-02
 0.7829663016517E-03 -0.6032603139295E-02  0.0000000000000E+00 -0.3248036845917E-02
 0.7460170034858E-03 -0.5957161394304E-02  0.0000000000000E+00 -0.3394056596550E-02
 0.7195422369983E-03 -0.5868037915973E-02  0.0000000000000E+00 -0.3496239861826E-02
 0.7081442627022E-03 -0.5763987890616E-02  0.0000000000000E+00 -0.3538619065987E-02
 0.7180972324326E-03 -0.5644098795599E-02  0.0000000000000E+00 -0.3502206009864E-02
 0.7581483216006E-03 -0.5508342104443E-02  0.0000000000000E+00 -0.3364809087319E-02
 0.8406519306906E-03 -0.5358476643874E-02  0.0000000000000E+00 -0.3101294303022E-02
 0.9830439214800E-03 -0.5199232921003E-02  0.0000000000000E+00 -0.2684526510379E-02
 0.1209690883027E-02 -0.5039920137221E-02  0.0000000000000E+00 -0.2087581905154E-02
 0.1554012825584E-02 -0.4896444573505E-02  0.0000000000000E+00 -0.1288089609590E-02
 0.2060550636755E-02 -0.4793497262373E-02  0.0000000000000E+00 -0.2759768637896E-03
 0.2786344777993E-02 -0.4766155955415E-02  0.0000000000000E+00  0.9339130549792E-03
 0.3800444510413E-02 -0.4859535283897E-02  0.0000000000000E+00  0.2282663902395E-02
 0.5173259172095E-02 -0.5123291581910E-02  0.0000000000000E+00  0.3637290165772E-02
 0.6945144068195E-02 -0.5592177069948E-02  0.0000000000000E+00  0.4760780751325E-02
 0.9080178007832E-02 -0.6250776070988E-02  0.0000000000000E+00  0.5320738908196E-02
 0.1142830704279E-01 -0.7003101644465E-02  0.0000000000000E+00  0.4974276947340E-02
 0.1209308590724E-03 -0.5785939488019E-02  0.0000000000000E+00  0.1443190281827E-02
 0.3645463453979E-03 -0.5931748893489E-02  0.0000000000000E+00  0.1387975425970E-02
 0.6001742296568E-03 -0.6064962525631E-02  0.0000000000000E+00  0.1250963205018E-02
 0.8081215554456E-03 -0.6173387035392E-02  0.0000000000000E+00  0.1048197240836E-02
 0.9774817015466E-03 -0.6252380227298E-02  0.0000000000000E+00  0.8082310459875E-03
 0.1106968680709E-02 -0.6304585126794E-02  0.0000000000000E+00  0.5578283481485E-03
 0.1201253668637E-02 -0.6336373690481E-02  0.0000000000000E+00  0.3145565103419E-03
 0.1267010124737E-02 -0.6354539256685E-02  0.0000000000000E+00  0.8643391292253E-04
 0.1310515935258E-02 -0.6364587226693E-02  0.0000000000000E+00 -0.1252603408829E-03
 0.1336733815860E-02 -0.6370322585474E-02  0.0000000000000E+00 -0.3229780619031E-03
 0.1349221375663E-02 -0.6374051277610E-02  0.0000000000000E+00 -0.5107673810667E-03
 0.1350363645733E-02 -0.6376936077671E-02  0.0000000000000E+00 -0.6930025692638E-03
 0.1341683807473E-02 -0.6379322628119E-02  0.0000000000000E+00 -0.8736702658029E-03
 0.1324158478604E-02 -0.6381006863340E-02  0.0000000000000E+00 -0.1055968073918E-02
 0.1298525921457E-02 -0.6381464280767E-02  0.0000000000000E+00 -0.1242120042035E-02
 0.1265563485684E-02 -0.6380046141342E-02  0.0000000000000E+00 -0.1433406571943E-02
 0.1226334444901E-02 -0.6376198813778E-02  0.0000000000000E+00 -0.1630393414225E-02
 0.1182295801286E-02 -0.6369654655020E-02  0.0000000000000E+00 -0.1833247708652E-02
 0.1135050792084E-02 -0.6360256357582E-02  0.0000000000000E+00 -0.2041946046361E-02
 0.1085996535349E-02 -0.6347577343400E-02  0.0000000000000E+00 -0.2256143993507E-02
 0.1036204496842E-02 -0.6330757371844E-02  0.0000000000000E+00 -0.2474720835120E-02
 0.9864907930644E-03 -0.6308513183818E-02  0.0000000000000E+00 -0.2695244605969E-02
 0.9376089662889E-03 -0.6279235889739E-02  0.0000000000000E+00 -0.2913537965473E-02
 0.8904912035664E-03 -0.6241105323109E-02  0.0000000000000E+00 -0.3123406694534E-02
 0.8464836339357E-03 -0.6192182545550E-02  0.0000000000000E+00 -0.3316495605221E-02
 0.8075622751943E-03 -0.6130479253125E-02  0.0000000000000E+00 -0.3482177012768E-02
 0.7765518379092E-03 -0.6054030359074E-02  0.0000000000000E+00 -0.3607395986075E-02
 0.7573769600965E-03 -0.5960893821591E-02  0.0000000000000E+00 -0.3676361726190E-02
 0.7555007042363E-03 -0.5849220377136E-02  0.0000000000000E+00 -0.3670039169446E-02
 0.7787447041608E-03 -0.5717771931797E-02  0.0000000000000E+00 -0.3565728647333E-02
 0.8385005724569E-03 -0.5566825687897E-02  0.0000000000000E+00 -0.3337005830650E-02
 0.9513642045692E-03 -0.5399400693349E-02  0.0000000000000E+00 -0.2954245119760E-02
 0.1141293804034E-02 -0.5223007066913E-02  0.0000000000000E+00 -0.2386296030078E-02
 0.1442310083088E-02 -0.5052011873048E-02  0.0000000000000E+00 -0.1604209394211E-02
 0.1901599253376E-02 -0.4910555447852E-02  0.0000000000000E+00 -0.5885314863837E-03
 0.2582581861719E-02 -0.4835446365061E-02  0.0000000000000E+00  0.6576506164809E-03
 0.3566718184721E-02 -0.4877664807711E-02  0.0000000000000E+00  0.2086736197026E-02
 0.4944313340556E-02 -0.5098724044594E-02  0.0000000000000E+00  0.3567959057358E-02
 0.6779650353980E-02 -0.5549975107438E-02  0.0000000000000E+00  0.4841686096577E-02
 0.9052009367311E-02 -0.6228420796080E-02  0.0000000000000E+00  0.5517122025524E-02
 0.1159631625037E-01 -0.7029935647147E-02  0.0000000000000E+00  0.5172900185966E-02
 0.1276479671251E-03 -0.5804018126623E-02  0.0000000000000E+00  0.1532684136828E-02
 0.3852211457759E-03 -0.5956998315380E-02  0.0000000000000E+00  0.1471153277933E-02
 0.6333426597407E-03 -0.6094815568711E-02  0.0000000000000E+00  0.1317554041331E-02
 0.8488009724767E-03 -0.6203473551046E-02  0.0000000000000E+00  0.1093197344593E-02
 0.1020228278217E-02 -0.6278954487685E-02  0.0000000000000E+00  0.8332813292280E-03
 0.1148009637334E-02 -0.6325907846358E-02  0.0000000000000E+00  0.5684180379511E-03
 0.1238903372889E-02 -0.6352631457506E-02  0.0000000000000E+00  0.3167800232445E-03
 0.1301127034963E-02 -0.6367103755513E-02  0.0000000000000E+00  0.8519941487940E-04
 0.1341809409140E-02 -0.6375323447517E-02  0.0000000000000E+00 -0.1266634147842E-03
 0.1366265915371E-02 -0.6381178481706E-02  0.0000000000000E+00 -0.3226547741434E-03
 0.1378126589899E-02 -0.6386880089833E-02  0.0000000000000E+00 -0.5078466813533E-03
 0.1379708055089E-02 -0.6393442829029E-02  0.0000000000000E+00 -0.6873266336928E-03
 0.1372393681592E-02 -0.6401057099647E-02  0.0000000000000E+00 -0.8655733559885E-03
 0.1356983245989E-02 -0.6409366863863E-02  0.0000000000000E+00 -0.1046111494065E-02
 0.1334030569487E-02 -0.6417703999461E-02  0.0000000000000E+00 -0.1231350428921E-02
 0.1304157737255E-02 -0.6425298933580E-02  0.0000000000000E+00 -0.1422641158312E-02
 0.1268335024185E-02 -0.6431520414746E-02  0.0000000000000E+00 -0.1620558503563E-02
 0.1227988832561E-02 -0.6436075313017E-02  0.0000000000000E+00 -0.1825296163166E-02
 0.1184701839736E-02 -0.6438804657774E-02  0.0000000000000E+00 -0.2036973650643E-02
 0.1139790432164E-02 -0.6439253261539E-02  0.0000000000000E+00 -0.2255536807689E-02
 0.1094147913453E-02 -0.6436475983962E-02  0.0000000000000E+00 -0.2480232210804E-02
 0.1048319733998E-02 -0.6429049452703E-02  0.0000000000000E+00 -0.2708995880616E-02
 0.1002722010336E-02 -0.6415181230030E-02  0.0000000000000E+00 -0.2937989670094E-02
 0.9579045751873E-03 -0.6392827636257E-02  0.0000000000000E+00 -0.3161343805337E-02
 0.9147912503585E-03 -0.6359774221428E-02  0.0000000000000E+00 -0.3371044276692E-02
 0.8748811752445E-03 -0.6313677024659E-02  0.0000000000000E+00 -0.3556844350834E-02
 0.8404364120864E-03 -0.6252093292525E-02  0.0000000000000E+00 -0.3706102140001E-02
 0.8146878524917E-03 -0.6172416150439E-02  0.0000000000000E+00 -0.3803415729998E-02
 0.8022331969915E-03 -0.6071865596634E-02  0.0000000000000E+00 -0.3829976424723E-02
 0.8098564168413E-03 -0.5947954186720E-02  0.0000000000000E+00 -0.3762904321303E-02
 0.8477919122654E-03 -0.5799364031736E-02  0.0000000000000E+00 -0.3574849935724E-02
 0.9314844917274E-03 -0.5627171493200E-02  0.0000000000000E+00 -0.3234059720255E-02
 0.1084011700678E-02 -0.5436672649123E-02  0.0000000000000E+00 -0.2705412806236E-02
 0.1339327021031E-02 -0.5240015281140E-02  0.0000000000000E+00 -0.1953285073092E-02
 0.1746454674582E-02 -0.5059801039384E-02  0.0000000000000E+00 -0.9478869694300E-03
 0.2374590747059E-02 -0.4933428356965E-02  0.0000000000000E+00  0.3220704589464E-03
 0.3318147493165E-02 -0.4917081540500E-02  0.0000000000000E+00  0.1825301938696E-02
 0.4690674312677E-02 -0.5085387451704E-02  0.0000000000000E+00  0.3439744350732E-02
 0.6587507059742E-02 -0.5510753180263E-02  0.0000000000000E+00  0.4886180961305E-02
 0.9010789637916E-02 -0.6208159117134E-02  0.0000000000000E+00  0.5706240037142E-02
 0.1178052216212E-01 -0.7065735761330E-02  0.0000000000000E+00  0.5374549861155E-02
 0.1352619585813E-03 -0.5825036011081E-02  0.0000000000000E+00  0.1626660782796E-02
 0.4086276612165E-03 -0.5985859280272E-02  0.0000000000000E+00  0.1557355559895E-02
 0.6704400319589E-03 -0.6128099452524E-02  0.0000000000000E+00  0.1383713616880E-02
 0.8932387448673E-03 -0.6235727861715E-02  0.0000000000000E+00  0.1134399751456E-02
 0.1065589822533E-02 -0.6305937534253E-02  0.0000000000000E+00  0.8528810122191E-03
 0.1190298730556E-02 -0.6346073337223E-02  0.0000000000000E+00  0.5737550623442E-03
 0.1276689037971E-02 -0.6366681567810E-02  0.0000000000000E+00  0.3151053037735E-03
 0.1334651727064E-02 -0.6376914292665E-02  0.0000000000000E+00  0.8186662464554E-04
 0.1372111483872E-02 -0.6383120584421E-02  0.0000000000000E+00 -0.1283357090692E-03
 0.1394639297187E-02 -0.6389133011552E-02  0.0000000000000E+00 -0.3209032652140E-03
 0.1405858965119E-02 -0.6396977089199E-02  0.0000000000000E+00 -0.5019586687043E-03
 0.1407968290190E-02 -0.6407471925301E-02  0.0000000000000E+00 -0.6772831544274E-03
 0.1402180038803E-02 -0.6420633473171E-02  0.0000000000000E+00 -0.8518251318514E-03
 0.1389094700399E-02 -0.6435947062334E-02  0.0000000000000E+00 -0.1029423409755E-02
 0.1369061585764E-02 -0.6452596530141E-02  0.0000000000000E+00 -0.1212661950522E-02
 0.1342533599882E-02 -0.6469687753110E-02  0.0000000000000E+00 -0.1402941068555E-02
 0.1310389415359E-02 -0.6486513713174E-02  0.0000000000000E+00 -0.1600812527926E-02
 0.1274043757250E-02 -0.6502766416584E-02  0.0000000000000E+00 -0.1806471291467E-02
 0.1235084601574E-02 -0.6518301605449E-02  0.0000000000000E+00 -0.2020181987570E-02
 0.1194765969945E-02 -0.6532651838322E-02  0.0000000000000E+00 -0.2242209007743E-02
 0.1153809143088E-02 -0.6544802891109E-02  0.0000000000000E+00 -0.2472200331523E-02
 0.1112489517214E-02 -0.6553212407454E-02  0.0000000000000E+00 -0.2708488037231E-02
 0.1070889784380E-02 -0.6555936109969E-02  0.0000000000000E+00 -0.2947600499061E-02
 0.1029189205969E-02 -0.6550749914871E-02  0.0000000000000E+00 -0.3184032741016E-02
 0.9879083500845E-03 -0.6535216222416E-02  0.0000000000000E+00 -0.3410179046846E-02
 0.9480917036185E-03 -0.6506693902204E-02  0.0000000000000E+00 -0.3616280413539E-02
 0.9114558885510E-03 -0.6462322493377E-02  0.0000000000000E+00 -0.3790267800540E-02
 0.8805365348001E-03 -0.6398883069114E-02  0.0000000000000E+00 -0.3917354290817E-02
 0.8590274891802E-03 -0.6312696684188E-02  0.0000000000000E+00 -0.3979258888636E-02
 0.8525789445718E-03 -0.6200018787308E-02  0.0000000000000E+00 -0.3953298698485E-02
 0.8700875478461E-03 -0.6057860887620E-02  0.0000000000000E+00 -0.3811648185717E-02
 0.9255400491698E-03 -0.5885164887421E-02  0.0000000000000E+00 -0.3520929193124E-02
 0.1040634679712E-02 -0.5684623056320E-02  0.0000000000000E+00 -0.3042535863706E-02
 0.1248484812405E-02 -0.5465451492182E-02  0.0000000000000E+00 -0.2334413909977E-02
 0.1598875906192E-02 -0.5247543846759E-02  0.0000000000000E+00 -0.1355878045685E-02
 0.2165664474002E-02 -0.5067292741274E-02  0.0000000000000E+00 -0.7878756131330E-04
 0.3056128100700E-02 -0.4984695845524E-02  0.0000000000000E+00  0.1487718425423E-02
 0.4410322689751E-02 -0.5088195535575E-02  0.0000000000000E+00  0.3239345512901E-02
 0.6363406589080E-02 -0.5476351928201E-02  0.0000000000000E+00  0.4883592368783E-02
 0.8951800119329E-02 -0.6190119344387E-02  0.0000000000000E+00  0.5884669575162E-02
 0.1198293927544E-01 -0.7112082801060E-02  0.0000000000000E+00  0.5579941909223E-02
 0.1440024567513E-03 -0.5849754536546E-02  0.0000000000000E+00  0.1725597447662E-02
 0.4354073587343E-03 -0.6019176340228E-02  0.0000000000000E+00  0.1646509878320E-02
 0.7122003392005E-03 -0.6165404823102E-02  0.0000000000000E+00  0.1448353121811E-02
 0.9418412118563E-03 -0.6270217414036E-02  0.0000000000000E+00  0.1170121206797E-02
 0.1113537155242E-02 -0.6332928526369E-02  0.0000000000000E+00  0.8654707375961E-03
 0.1233516208550E-02 -0.6364449830528E-02  0.0000000000000E+00  0.5727928233466E-03
 0.1314181765115E-02 -0.6377865124304E-02  0.0000000000000E+00  0.3090059903407E-03
 0.1367156541567E-02 -0.6383380821793E-02  0.0000000000000E+00  0.7627355661557E-04
 0.1401035996092E-02 -0.6387474492072E-02  0.0000000000000E+00 -0.1302288695718E-03
 0.1421512187405E-02 -0.6393750829689E-02  0.0000000000000E+00 -0.3175646652073E-03
 0.1432111347564E-02 -0.6403951210761E-02  0.0000000000000E+00 -0.4928841200933E-03
 0.1434861520131E-02 -0.6418656015795E-02  0.0000000000000E+00 -0.6626100357745E-03
 0.1430778029554E-02 -0.6437695506299E-02  0.0000000000000E+00 -0.8321211563166E-03
 0.1420243409371E-02 -0.6460397685532E-02  0.0000000000000E+00 -0.1005553280326E-02
 0.1403383083231E-02 -0.6485798821376E-02  0.0000000000000E+00 -0.1185656909589E-02
 0.1380464978098E-02 -0.6512877381039E-02  0.0000000000000E+00 -0.1373861750923E-02
 0.1352277032788E-02 -0.6540851294500E-02  0.0000000000000E+00 -0.1570660029820E-02
 0.1320244472011E-02 -0.6569407478665E-02  0.0000000000000E+00 -0.1776217075818E-02
 0.1285990770129E-02 -0.6598432079210E-02  0.0000000000000E+00 -0.1990943427429E-02
 0.1250727467934E-02 -0.6627460473025E-02  0.0000000000000E+00 -0.2215450215036E-02
 0.1215008931172E-02 -0.6655424778361E-02  0.0000000000000E+00 -0.2449815887054E-02
 0.1178840925525E-02 -0.6680687755011E-02  0.0000000000000E+00 -0.2692786264679E-02
 0.1141979577368E-02 -0.6701191827383E-02  0.0000000000000E+00 -0.2941272477153E-02
 0.1104251138969E-02 -0.6714584916575E-02  0.0000000000000E+00 -0.3190166405778E-02
 0.1065800065578E-02 -0.6718269341142E-02  0.0000000000000E+00 -0.3432332372518E-02
 0.1027249103459E-02 -0.6709378046000E-02  0.0000000000000E+00 -0.3658602870414E-02
 0.9898005036141E-03 -0.6684709368093E-02  0.0000000000000E+00 -0.3857642606045E-02
 0.9553099768786E-03 -0.6640507197292E-02  0.0000000000000E+00 -0.4015514918633E-02
 0.9265484178125E-03 -0.6572254843144E-02  0.0000000000000E+00 -0.4114789871020E-02
 0.9079581745785E-03 -0.6474981757068E-02  0.0000000000000E+00 -0.4133401164954E-02
 0.9069418132212E-03 -0.6344003458246E-02  0.0000000000000E+00 -0.4043573978691E-02
 0.9357425145889E-03 -0.6175996111842E-02  0.0000000000000E+00 -0.3810949376007E-02
 0.1014181525571E-02 -0.5970719254709E-02  0.0000000000000E+00 -0.3394171573019E-02
 0.1173687968892E-02 -0.5733766322969E-02  0.0000000000000E+00 -0.2745422698733E-02
 0.1463469598775E-02 -0.5481023126854E-02  0.0000000000000E+00 -0.1813166098036E-02
 0.1960306274384E-02 -0.5245790619416E-02  0.0000000000000E+00 -0.5504357973332E-03
 0.2783278897152E-02 -0.5089481310368E-02  0.0000000000000E+00  0.1062163715162E-02
 0.4101668395120E-02 -0.5113978478827E-02  0.0000000000000E+00  0.2950211732907E-02
 0.6101053607221E-02 -0.5449572952859E-02  0.0000000000000E+00  0.4819236026531E-02
 0.8868823179439E-02 -0.6174559157825E-02  0.0000000000000E+00  0.6047177695393E-02
 0.1220580754706E-01 -0.7170912231729E-02  0.0000000000000E+00  0.5790305919088E-02
 0.1541857631633E-03 -0.5879185382283E-02  0.0000000000000E+00  0.1830065757675E-02
 0.4664112153891E-03 -0.6058039654015E-02  0.0000000000000E+00  0.1738383399391E-02
 0.7595227060130E-03 -0.6207412631111E-02  0.0000000000000E+00  0.1509892174200E-02
 0.9950109727220E-03 -0.6306900092076E-02  0.0000000000000E+00  0.1198171368951E-02
 0.1163920588876E-02 -0.6359327101088E-02  0.0000000000000E+00  0.8692210015243E-03
 0.1277208419611E-02 -0.6380232605878E-02  0.0000000000000E+00  0.5644475939547E-03
 0.1350858272263E-02 -0.6385417533700E-02  0.0000000000000E+00  0.2980325411229E-03
 0.1398161796162E-02 -0.6385862799567E-02  0.0000000000000E+00  0.6835513975950E-04
 0.1428172381937E-02 -0.6387862223622E-02  0.0000000000000E+00 -0.1322173510285E-03
 0.1446532274594E-02 -0.6394591914568E-02  0.0000000000000E+00 -0.3124307711108E-03
 0.1456570908018E-02 -0.6407410163336E-02  0.0000000000000E+00 -0.4803785789789E-03
 0.1460098979295E-02 -0.6426623864996E-02  0.0000000000000E+00 -0.6430363873226E-03
 0.1457914531225E-02 -0.6451877682734E-02  0.0000000000000E+00 -0.8061558927704E-03
 0.1450169637474E-02 -0.6482354568930E-02  0.0000000000000E+00 -0.9741498037011E-03
 0.1436748161707E-02 -0.6516950691166E-02  0.0000000000000E+00 -0.1149933696555E-02
 0.1417714688560E-02 -0.6554515448757E-02  0.0000000000000E+00 -0.1334952077620E-02
 0.1393765729285E-02 -0.6594190165567E-02  0.0000000000000E+00 -0.1529598311419E-02
 0.1366362371368E-02 -0.6635663973193E-02  0.0000000000000E+00 -0.1733971621755E-02
 0.1337198217674E-02 -0.6678866576941E-02  0.0000000000000E+00 -0.1948628242305E-02
 0.1307462795548E-02 -0.6723348074871E-02  0.0000000000000E+00 -0.2174553478639E-02
 0.1277546400888E-02 -0.6768001087974E-02  0.0000000000000E+00 -0.2412276956848E-02
 0.1247185214526E-02 -0.6811121377005E-02  0.0000000000000E+00 -0.2660961275452E-02
 0.1215819380155E-02 -0.6850585194069E-02  0.0000000000000E+00 -0.2917902831678E-02
 0.1182946439409E-02 -0.6883975518764E-02  0.0000000000000E+00 -0.3178413511144E-02
 0.1148370417747E-02 -0.6908608636640E-02  0.0000000000000E+00 -0.3435883644225E-02
 0.1112336234260E-02 -0.6921475185759E-02  0.0000000000000E+00 -0.3681835847207E-02
 0.1075577620677E-02 -0.6919125259477E-02  0.0000000000000E+00 -0.3905826218021E-02
 0.1039304485546E-02 -0.6897363560661E-02  0.0000000000000E+00 -0.4095006533470E-02
 0.1005368373365E-02 -0.6850929306265E-02  0.0000000000000E+00 -0.4233134962891E-02
 0.9769577102500E-03 -0.6773702425491E-02  0.0000000000000E+00 -0.4299213011223E-02
 0.9598596394141E-03 -0.6659339359192E-02  0.0000000000000E+00 -0.4266108854360E-02
 0.9643290065985E-03 -0.6502201783060E-02  0.0000000000000E+00 -0.4099256486714E-02
 0.1007847889071E-02 -0.6298889477368E-02  0.0000000000000E+00 -0.3755537162462E-02
 0.1119300923111E-02 -0.6050777452787E-02  0.0000000000000E+00 -0.3182516613196E-02
 0.1345767716315E-02 -0.5768415008790E-02  0.0000000000000E+00 -0.2318678681995E-02
 0.1764518426510E-02 -0.5479469460103E-02  0.0000000000000E+00 -0.1097269260320E-02
 0.2503980767578E-02 -0.5243079454661E-02  0.0000000000000E+00  0.5359694075538E-03
 0.3764082883174E-02 -0.5172362146910E-02  0.0000000000000E+00  0.2551900797600E-02
 0.5793123738323E-02 -0.5434841069136E-02  0.0000000000000E+00  0.4672904924170E-02
 0.8753491963244E-02 -0.6161966818303E-02  0.0000000000000E+00  0.6185739922904E-02
 0.1245168001956E-01 -0.7244638358711E-02  0.0000000000000E+00  0.6007433895989E-02
 0.1662562135757E-03 -0.5914693512613E-02  0.0000000000000E+00  0.1940756316684E-02
 0.5027801045591E-03 -0.6103864740609E-02  0.0000000000000E+00  0.1832465672939E-02
 0.8134972294960E-03 -0.6254877662819E-02  0.0000000000000E+00  0.1566034620850E-02
 0.1053095490404E-02 -0.6345534401499E-02  0.0000000000000E+00  0.1215720431319E-02
 0.1216405028897E-02 -0.6384253362658E-02  0.0000000000000E+00  0.8620436567940E-03
 0.1320752727211E-02 -0.6392410493567E-02  0.0000000000000E+00  0.5476714340709E-03
 0.1386093791902E-02 -0.6388467605228E-02  0.0000000000000E+00  0.2818751500125E-03
 0.1427140899924E-02 -0.6383679356249E-02  0.0000000000000E+00  0.5817874947851E-04
 0.1453093174387E-02 -0.6383752852137E-02  0.0000000000000E+00 -0.1340826392597E-03
 0.1469343274052E-02 -0.6391220366115E-02  0.0000000000000E+00 -0.3052394190876E-03
 0.1478923961053E-02 -0.6406966809158E-02  0.0000000000000E+00 -0.4641740745625E-03
 0.1483388759833E-02 -0.6431004144685E-02  0.0000000000000E+00 -0.6182877622213E-03
 0.1483308888856E-02 -0.6462806264420E-02  0.0000000000000E+00 -0.7736289083073E-03
 0.1478602553883E-02 -0.6501437825566E-02  0.0000000000000E+00 -0.9348654739590E-03
 0.1468897616106E-02 -0.6545672340746E-02  0.0000000000000E+00 -0.1105088106610E-02
 0.1454033599014E-02 -0.6594230471524E-02  0.0000000000000E+00 -0.1285752738658E-02
 0.1434611797181E-02 -0.6646171600163E-02  0.0000000000000E+00 -0.1477114550112E-02
 0.1412157346117E-02 -0.6701189358819E-02  0.0000000000000E+00 -0.1679165165140E-02
 0.1388472804676E-02 -0.6759264646139E-02  0.0000000000000E+00 -0.1892605854770E-02
 0.1364745178971E-02 -0.6819968235512E-02  0.0000000000000E+00 -0.2118821239516E-02
 0.1341199704492E-02 -0.6882165254158E-02  0.0000000000000E+00 -0.2358799191401E-02
 0.1317302828194E-02 -0.6944117786925E-02  0.0000000000000E+00 -0.2612101719786E-02
 0.1292194550388E-02 -0.7003694317544E-02  0.0000000000000E+00 -0.2876396722038E-02
 0.1265076014507E-02 -0.7058488310557E-02  0.0000000000000E+00 -0.3147430890708E-02
 0.1235455240155E-02 -0.7105814983419E-02  0.0000000000000E+00 -0.3419171541827E-02
 0.1203253955591E-02 -0.7142617440228E-02  0.0000000000000E+00 -0.3683923068190E-02
 0.1168798354808E-02 -0.7165305876753E-02  0.0000000000000E+00 -0.3932282255180E-02
 0.1132706847399E-02 -0.7169367049219E-02  0.0000000000000E+00 -0.4152722698948E-02
 0.1095940710062E-02 -0.7148924432329E-02  0.0000000000000E+00 -0.4330530605415E-02
 0.1060421889431E-02 -0.7096836151421E-02  0.0000000000000E+00 -0.4446243442084E-02
 0.1030246373737E-02 -0.7005210339062E-02  0.0000000000000E+00 -0.4474011992046E-02
 0.1013496407340E-02 -0.6866149223826E-02  0.0000000000000E+00 -0.4379944846408E-02
 0.1024927202817E-02 -0.6673010359336E-02  0.0000000000000E+00 -0.4120377039187E-02
 0.1090079108074E-02 -0.6422540147466E-02  0.0000000000000E+00 -0.3639900677064E-02
 0.1252253078953E-02 -0.6118757430070E-02  0.0000000000000E+00 -0.2868914177997E-02
 0.1586097288935E-02 -0.5780858719054E-02  0.0000000000000E+00 -0.1721570110541E-02
 0.2225089778759E-02 -0.5460529879074E-02  0.0000000000000E+00 -0.1036005533891E-03
 0.3398759170039E-02 -0.5277036086141E-02  0.0000000000000E+00  0.2019571518791E-02
 0.5431373060701E-02 -0.5439291133486E-02  0.0000000000000E+00  0.4416723756055E-02
 0.8594390375017E-02 -0.6153307129556E-02  0.0000000000000E+00  0.6287791935216E-02
 0.1272351501142E-01 -0.7336362018291E-02  0.0000000000000E+00  0.6233799093458E-02
 0.1808521992899E-03 -0.5958155278899E-02  0.0000000000000E+00  0.2058507618955E-02
 0.5460602835400E-03 -0.6158499689527E-02  0.0000000000000E+00  0.1927763088767E-02
 0.8754205838402E-03 -0.6308576516341E-02  0.0000000000000E+00  0.1613436107863E-02
 0.1116295630905E-02 -0.6385535779084E-02  0.0000000000000E+00  0.1219155082956E-02
 0.1270382075566E-02 -0.6406446308360E-02  0.0000000000000E+00  0.8416553950774E-03
 0.1363322879941E-02 -0.6399738617332E-02  0.0000000000000E+00  0.5215673738736E-03
 0.1419162786485E-02 -0.6386047730698E-02  0.0000000000000E+00  0.2604408773551E-03
 0.1453531192008E-02 -0.6376126140622E-02  0.0000000000000E+00  0.4598012776326E-04
 0.1475364464283E-02 -0.6374621497764E-02  0.0000000000000E+00 -0.1354998772476E-03
 0.1489593064780E-02 -0.6383214888829E-02  0.0000000000000E+00 -0.2956721858271E-03
 0.1498861721379E-02 -0.6402246585114E-02  0.0000000000000E+00 -0.4439830166275E-03
 0.1504439092292E-02 -0.6431429850108E-02  0.0000000000000E+00 -0.5880937500638E-03
 0.1506673589063E-02 -0.6470100352657E-02  0.0000000000000E+00 -0.7342536175340E-03
 0.1505258777551E-02 -0.6517249677541E-02  0.0000000000000E+00 -0.8873631103006E-03
 0.1499557705778E-02 -0.6571560443412E-02  0.0000000000000E+00 -0.1050715066132E-02
 0.1489159057911E-02 -0.6631628654433E-02  0.0000000000000E+00 -0.1225793263114E-02
 0.1474559850681E-02 -0.6696420742078E-02  0.0000000000000E+00 -0.1412680505337E-02
 0.1457379385048E-02 -0.6765628088110E-02  0.0000000000000E+00 -0.1611215924292E-02
 0.1439571327936E-02 -0.6839280032858E-02  0.0000000000000E+00 -0.1822245471232E-02
 0.1422336160724E-02 -0.6916963962926E-02  0.0000000000000E+00 -0.2047572638443E-02
 0.1405727345108E-02 -0.6997526725675E-02  0.0000000000000E+00 -0.2288628537656E-02
 0.1388942201662E-02 -0.7079238592172E-02  0.0000000000000E+00 -0.2545329185354E-02
 0.1370844242902E-02 -0.7160034001541E-02  0.0000000000000E+00 -0.2815681901219E-02
 0.1350380240343E-02 -0.7237606891662E-02  0.0000000000000E+00 -0.3095877137007E-02
 0.1326815171271E-02 -0.7309366740905E-02  0.0000000000000E+00 -0.3380507767019E-02
 0.1299811792673E-02 -0.7372312694759E-02  0.0000000000000E+00 -0.3662743390383E-02
 0.1269364408773E-02 -0.7422836388378E-02  0.0000000000000E+00 -0.3934356549636E-02
 0.1235575129695E-02 -0.7456249988109E-02  0.0000000000000E+00 -0.4185361838927E-02
 0.1198571544492E-02 -0.7466225467514E-02  0.0000000000000E+00 -0.4402902755168E-02
 0.1159034953517E-02 -0.7444783188210E-02  0.0000000000000E+00 -0.4569519034459E-02
 0.1119349998444E-02 -0.7382678038422E-02  0.0000000000000E+00 -0.4661307118385E-02
 0.1085320939908E-02 -0.7269930156886E-02  0.0000000000000E+00 -0.4646007185811E-02
 0.1068701748978E-02 -0.7096755677838E-02  0.0000000000000E+00 -0.4480804675116E-02
 0.1091040842405E-02 -0.6855144347078E-02  0.0000000000000E+00 -0.4109404486507E-02
 0.1190293936114E-02 -0.6541750594521E-02  0.0000000000000E+00 -0.3457131382345E-02
 0.1434877586815E-02 -0.6164522936714E-02  0.0000000000000E+00 -0.2422098789449E-02
 0.1956830199534E-02 -0.5761075265956E-02  0.0000000000000E+00 -0.8678345087215E-03
 0.3010077747804E-02 -0.5447557621712E-02  0.0000000000000E+00  0.1323910440131E-02
 0.5007115042976E-02 -0.5474617479401E-02  0.0000000000000E+00  0.4012183268197E-02
 0.8375797763796E-02 -0.6150593668461E-02  0.0000000000000E+00  0.6333171019773E-02
 0.1302475775200E-01 -0.7450239820847E-02  0.0000000000000E+00  0.6472686007578E-02
 0.1989146256698E-03 -0.6012209130534E-02  0.0000000000000E+00  0.2184335788110E-02
 0.5983699040229E-03 -0.6224366350126E-02  0.0000000000000E+00  0.2022431609889E-02
 0.9467812377874E-03 -0.6369182796834E-02  0.0000000000000E+00  0.1647213151856E-02
 0.1184509779946E-02 -0.6425751353796E-02  0.0000000000000E+00  0.1203952797813E-02
 0.1324857732193E-02 -0.6424145024357E-02  0.0000000000000E+00  0.8057341083308E-03
 0.1403863478640E-02 -0.6400729639172E-02  0.0000000000000E+00  0.4855565643697E-03
 0.1449252381470E-02 -0.6377120112534E-02  0.0000000000000E+00  0.2339390312464E-03
 0.1476751367568E-02 -0.6362499203579E-02  0.0000000000000E+00  0.3219499198488E-04
 0.1494559181139E-02 -0.6359966262773E-02  0.0000000000000E+00 -0.1360286295885E-03
 0.1506943268852E-02 -0.6370180762459E-02  0.0000000000000E+00 -0.2833550670399E-03
 0.1516086975412E-02 -0.6392895912564E-02  0.0000000000000E+00 -0.4195045105043E-03
 0.1522962203361E-02 -0.6427543474716E-02  0.0000000000000E+00 -0.5521982101586E-03
 0.1527714908083E-02 -0.6473373089054E-02  0.0000000000000E+00 -0.6877692644404E-03
 0.1529840036022E-02 -0.6529371232797E-02  0.0000000000000E+00 -0.8313252539056E-03
 0.1528436511883E-02 -0.6594182150867E-02  0.0000000000000E+00 -0.9864111282079E-03
 0.1522812170575E-02 -0.6666288769774E-02  0.0000000000000E+00 -0.1154587028868E-02
 0.1513342465501E-02 -0.6744545775555E-02  0.0000000000000E+00 -0.1335743497271E-02
 0.1501771074993E-02 -0.6828620084111E-02  0.0000000000000E+00 -0.1529522665233E-02
 0.1490246131664E-02 -0.6918568305856E-02  0.0000000000000E+00 -0.1736915907703E-02
 0.1479990107316E-02 -0.7013974465523E-02  0.0000000000000E+00 -0.1960152868030E-02
 0.1470870245406E-02 -0.7113673814615E-02  0.0000000000000E+00 -0.2201057411519E-02
 0.1461818491940E-02 -0.7216000726382E-02  0.0000000000000E+00 -0.2459816332976E-02
 0.1451457392682E-02 -0.7319050485657E-02  0.0000000000000E+00 -0.2734725370320E-02
 0.1438533285906E-02 -0.7420724714033E-02  0.0000000000000E+00 -0.3022427213290E-02
 0.1422128817313E-02 -0.7518631634287E-02  0.0000000000000E+00 -0.3318191613339E-02
 0.1401719227967E-02 -0.7609934963458E-02  0.0000000000000E+00 -0.3616128352391E-02
 0.1377055653324E-02 -0.7691137880408E-02  0.0000000000000E+00 -0.3909299865771E-02
 0.1347819762483E-02 -0.7757540630791E-02  0.0000000000000E+00 -0.4189455327752E-02
 0.1313390557331E-02 -0.7802563747571E-02  0.0000000000000E+00 -0.4445897345223E-02
 0.1273276999354E-02 -0.7817634492583E-02  0.0000000000000E+00 -0.4663609155767E-02
 0.1228196652375E-02 -0.7792442986617E-02  0.0000000000000E+00 -0.4821290792962E-02
 0.1181664417085E-02 -0.7715240859928E-02  0.0000000000000E+00 -0.4889305664343E-02
 0.1142304333907E-02 -0.7573415073631E-02  0.0000000000000E+00 -0.4827189970317E-02
 0.1127270020372E-02 -0.7354437807155E-02  0.0000000000000E+00 -0.4580156623573E-02
 0.1167939167608E-02 -0.7047387676337E-02  0.0000000000000E+00 -0.4072489111496E-02
 0.1322821415185E-02 -0.6646850307317E-02  0.0000000000000E+00 -0.3192224098772E-02
 0.1713815295075E-02 -0.6168895369131E-02  0.0000000000000E+00 -0.1763909384869E-02
 0.2607721858491E-02 -0.5711848257583E-02  0.0000000000000E+00  0.4321360770351E-03
 0.4512484463102E-02 -0.5560264538026E-02  0.0000000000000E+00  0.3406266865249E-02
 0.8075976378230E-02 -0.6158189986418E-02  0.0000000000000E+00  0.6288732820989E-02
 0.1335936458785E-01 -0.7592189260532E-02  0.0000000000000E+00  0.6728140714414E-02
 0.2218705904832E-03 -0.6080668396776E-02  0.0000000000000E+00  0.2319452336783E-02
 0.6626381156366E-03 -0.6304636304720E-02  0.0000000000000E+00  0.2113105807106E-02
 0.1029170774166E-02 -0.6436995658653E-02  0.0000000000000E+00  0.1660228775278E-02
 0.1257077883163E-02 -0.6464117009127E-02  0.0000000000000E+00  0.1164649258286E-02
 0.1378323003086E-02 -0.6434972044110E-02  0.0000000000000E+00  0.7522288315669E-03
 0.1441088984962E-02 -0.6393682939731E-02  0.0000000000000E+00  0.4395975075863E-03
 0.1475493351225E-02 -0.6360622502214E-02  0.0000000000000E+00  0.2029612226108E-03
 0.1496225179388E-02 -0.6342124895395E-02  0.0000000000000E+00  0.1748099173263E-04
 0.1510272712095E-02 -0.6339327522642E-02  0.0000000000000E+00 -0.1351091997010E-03
 0.1521080029934E-02 -0.6351762954016E-02  0.0000000000000E+00 -0.2678627091892E-03
 0.1530321592633E-02 -0.6378591470413E-02  0.0000000000000E+00 -0.3904331205365E-03
 0.1538678914686E-02 -0.6419003169517E-02  0.0000000000000E+00 -0.5103722360645E-03
 0.1546133708003E-02 -0.6472233328595E-02  0.0000000000000E+00 -0.6339569747623E-03
 0.1552029716565E-02 -0.6537358049467E-02  0.0000000000000E+00 -0.7664678496560E-03
 0.1555218187136E-02 -0.6613066061920E-02  0.0000000000000E+00 -0.9117785034851E-03
 0.1554693195338E-02 -0.6697753965070E-02  0.0000000000000E+00 -0.1071623370361E-02
 0.1550679372422E-02 -0.6790136356620E-02  0.0000000000000E+00 -0.1245711565996E-02
 0.1545071496566E-02 -0.6889807492272E-02  0.0000000000000E+00 -0.1433452272360E-02
 0.1540252188349E-02 -0.6996798109832E-02  0.0000000000000E+00 -0.1635984525715E-02
 0.1537460776063E-02 -0.7110644590617E-02  0.0000000000000E+00 -0.1855945783721E-02
 0.1536354568895E-02 -0.7230177285720E-02  0.0000000000000E+00 -0.2095445588427E-02
 0.1535611954939E-02 -0.7353874065879E-02  0.0000000000000E+00 -0.2354808801282E-02
 0.1533667934864E-02 -0.7480115133681E-02  0.0000000000000E+00 -0.2632552026132E-02
 0.1529136950364E-02 -0.7607137206034E-02  0.0000000000000E+00 -0.2925787522660E-02
 0.1520986179474E-02 -0.7732858902761E-02  0.0000000000000E+00 -0.3230524529159E-02
 0.1508578056230E-02 -0.7854716271810E-02  0.0000000000000E+00 -0.3541881043918E-02
 0.1491519152188E-02 -0.7969456108764E-02  0.0000000000000E+00 -0.3854295084209E-02
 0.1469185697392E-02 -0.8072543595324E-02  0.0000000000000E+00 -0.4161404422064E-02
 0.1440321541253E-02 -0.8157382246430E-02  0.0000000000000E+00 -0.4454924375048E-02
 0.1403377468863E-02 -0.8215115387499E-02  0.0000000000000E+00 -0.4722669767325E-02
 0.1357520752183E-02 -0.8234758382093E-02  0.0000000000000E+00 -0.4946565373509E-02
 0.1304069866174E-02 -0.8203252199686E-02  0.0000000000000E+00 -0.5100580531837E-02
 0.1248555044349E-02 -0.8105689249518E-02  0.0000000000000E+00 -0.5148111557280E-02
 0.1203648938491E-02 -0.7925681443569E-02  0.0000000000000E+00 -0.5038367102152E-02
 0.1193526335757E-02 -0.7645382480288E-02  0.0000000000000E+00 -0.4699267647406E-02
 0.1263783159465E-02 -0.7245391325112E-02  0.0000000000000E+00 -0.4017663834215E-02
 0.1516008450685E-02 -0.6713437279768E-02  0.0000000000000E+00 -0.2790565317526E-02
 0.2209822555524E-02 -0.6109446388460E-02  0.0000000000000E+00 -0.6886543355419E-03
 0.3943296971953E-02 -0.5728942065765E-02  0.0000000000000E+00  0.2526984321045E-02
 0.7664997114279E-02 -0.6185753465457E-02  0.0000000000000E+00  0.6098819131062E-02
 0.1373165284711E-01 -0.7771351248767E-02  0.0000000000000E+00  0.7004143853943E-02
 0.2519545650985E-03 -0.6169231598095E-02  0.0000000000000E+00  0.2465229901528E-02
 0.7429416798998E-03 -0.6403418237809E-02  0.0000000000000E+00  0.2193640684611E-02
 0.1124029091547E-02 -0.6511374241645E-02  0.0000000000000E+00  0.1642091471939E-02
 0.1332378988362E-02 -0.6497161649030E-02  0.0000000000000E+00  0.1095067580075E-02
 0.1428635934188E-02 -0.6435870848049E-02  0.0000000000000E+00  0.6798994582330E-03
 0.1473530742599E-02 -0.6376776362030E-02  0.0000000000000E+00  0.3844310431345E-03
 0.1497010399515E-02 -0.6335531357987E-02  0.0000000000000E+00  0.1685345400910E-03
 0.1511409432707E-02 -0.6314393506971E-02  0.0000000000000E+00  0.2726553145205E-05
 0.1522140275612E-02 -0.6312308998981E-02  0.0000000000000E+00 -0.1320656181140E-03
 0.1531725588909E-02 -0.6327659777134E-02  0.0000000000000E+00 -0.2487267309570E-03
 0.1541314715968E-02 -0.6359050116294E-02  0.0000000000000E+00 -0.3564697462092E-03
 0.1551324257223E-02 -0.6405490219269E-02  0.0000000000000E+00 -0.4624295784557E-03
 0.1561626803319E-02 -0.6466288470373E-02  0.0000000000000E+00 -0.5726607721382E-03
 0.1571488174144E-02 -0.6540734545714E-02  0.0000000000000E+00 -0.6925604669503E-03
 0.1579554066961E-02 -0.6627688758470E-02  0.0000000000000E+00 -0.8264322208668E-03
 0.1584473833599E-02 -0.6725518579932E-02  0.0000000000000E+00 -0.9763555491264E-03
 0.1586275867432E-02 -0.6832760803695E-02  0.0000000000000E+00 -0.1141929378816E-02
 0.1587022387558E-02 -0.6948845120141E-02  0.0000000000000E+00 -0.1322319711084E-02
 0.1589357911523E-02 -0.7073667831806E-02  0.0000000000000E+00 -0.1518815550557E-02
 0.1594510563326E-02 -0.7206637593547E-02  0.0000000000000E+00 -0.1734391868422E-02
 0.1601895136842E-02 -0.7346594341837E-02  0.0000000000000E+00 -0.1971247524399E-02
 0.1609965520360E-02 -0.7492277850455E-02  0.0000000000000E+00 -0.2229651508453E-02
 0.1617048835214E-02 -0.7642516577786E-02  0.0000000000000E+00 -0.2508265222887E-02
 0.1621713723582E-02 -0.7796032782131E-02  0.0000000000000E+00 -0.2804710754383E-02
 0.1622882399997E-02 -0.7951171677749E-02  0.0000000000000E+00 -0.3115823409843E-02
 0.1619876365118E-02 -0.8105740739842E-02  0.0000000000000E+00 -0.3437795111871E-02
 0.1612260573517E-02 -0.8256853813665E-02  0.0000000000000E+00 -0.3766488688676E-02
 0.1599236642209E-02 -0.8400323518133E-02  0.0000000000000E+00 -0.4097527209292E-02
 0.1579053538018E-02 -0.8529802445719E-02  0.0000000000000E+00 -0.4425217669233E-02
 0.1549266957930E-02 -0.8636528019415E-02  0.0000000000000E+00 -0.4740507948643E-02
 0.1507691206157E-02 -0.8709340291132E-02  0.0000000000000E+00 -0.5029098941555E-02
 0.1453650499889E-02 -0.8734474079998E-02  0.0000000000000E+00 -0.5269500811593E-02
 0.1389781677869E-02 -0.8695472278438E-02  0.0000000000000E+00 -0.5430389778690E-02
 0.1324535564347E-02 -0.8573157749881E-02  0.0000000000000E+00 -0.5467275810796E-02
 0.1275079945785E-02 -0.8344400103513E-02  0.0000000000000E+00 -0.5316375566409E-02
 0.1272717872202E-02 -0.7977540295704E-02  0.0000000000000E+00 -0.4874166062014E-02
 0.1389161559083E-02 -0.7428685714692E-02  0.0000000000000E+00 -0.3931671271824E-02
 0.1847312301116E-02 -0.6695205232880E-02  0.0000000000000E+00 -0.2063475163435E-02
 0.3305023716179E-02 -0.6036061848083E-02  0.0000000000000E+00  0.1279861199071E-02
 0.7102488839465E-02 -0.6254919584144E-02  0.0000000000000E+00  0.5668430457248E-02
 0.1414572936133E-01 -0.8003376678733E-02  0.0000000000000E+00  0.7301240052184E-02
 0.2927888469797E-03 -0.6286771747432E-02  0.0000000000000E+00  0.2622993672626E-02
 0.8449525542784E-03 -0.6525849034653E-02  0.0000000000000E+00  0.2252680121424E-02
 0.1232029591940E-02 -0.6589583037517E-02  0.0000000000000E+00  0.1577881239585E-02
 0.1407240171401E-02 -0.6519367520602E-02  0.0000000000000E+00  0.9891646972769E-03
 0.1472989078885E-02 -0.6423210275931E-02  0.0000000000000E+00  0.5891400793259E-03
 0.1499658529146E-02 -0.6348235850590E-02  0.0000000000000E+00  0.3217709153175E-03
 0.1512984866401E-02 -0.6300930198300E-02  0.0000000000000E+00  0.1321275160764E-03
 0.1521823511354E-02 -0.6278795325880E-02  0.0000000000000E+00 -0.1095210298903E-04
 0.1529855670649E-02 -0.6278599802328E-02  0.0000000000000E+00 -0.1261172849458E-03
 0.1538649915420E-02 -0.6297636163175E-02  0.0000000000000E+00 -0.2254483079108E-03
 0.1548851387121E-02 -0.6334039169949E-02  0.0000000000000E+00 -0.3173338420530E-03
 0.1560654483404E-02 -0.6386718197648E-02  0.0000000000000E+00 -0.4082436418226E-03
 0.1573889751047E-02 -0.6455149718308E-02  0.0000000000000E+00 -0.5038142197085E-03
 0.1587846953733E-02 -0.6538987891140E-02  0.0000000000000E+00 -0.6094566306949E-03
 0.1601049109305E-02 -0.6637454881116E-02  0.0000000000000E+00 -0.7300137156061E-03
 0.1611784268666E-02 -0.6749006596900E-02  0.0000000000000E+00 -0.8681829007437E-03
 0.1619819871042E-02 -0.6871961213204E-02  0.0000000000000E+00 -0.1023639007460E-02
 0.1627378168117E-02 -0.7005417150090E-02  0.0000000000000E+00 -0.1195356333072E-02
 0.1637361695740E-02 -0.7148930459712E-02  0.0000000000000E+00 -0.1384768984902E-02
 0.1650923090597E-02 -0.7301651809384E-02  0.0000000000000E+00 -0.1595015127063E-02
 0.1667198950088E-02 -0.7462472166534E-02  0.0000000000000E+00 -0.1828048234586E-02
 0.1684480916603E-02 -0.7630575122365E-02  0.0000000000000E+00 -0.2083819760504E-02
 0.1701104418271E-02 -0.7805450784963E-02  0.0000000000000E+00 -0.2361069104724E-02
 0.1715698621955E-02 -0.7986482141032E-02  0.0000000000000E+00 -0.2658009762065E-02
 0.1727211767765E-02 -0.8172559326106E-02  0.0000000000000E+00 -0.2972430770186E-02
 0.1734984877743E-02 -0.8361941742553E-02  0.0000000000000E+00 -0.3301671899801E-02
 0.1738639313624E-02 -0.8552208429619E-02  0.0000000000000E+00 -0.3643026206796E-02
 0.1737342608054E-02 -0.8739693511483E-02  0.0000000000000E+00 -0.3994117277271E-02
 0.1729013422313E-02 -0.8918593389324E-02  0.0000000000000E+00 -0.4351912633882E-02
 0.1710528103866E-02 -0.9080693562198E-02  0.0000000000000E+00 -0.4710669317772E-02
 0.1678634982168E-02 -0.9215275693906E-02  0.0000000000000E+00 -0.5060313646259E-02
 0.1630976999989E-02 -0.9308619000719E-02  0.0000000000000E+00 -0.5384756654392E-02
 0.1567636207079E-02 -0.9343636202297E-02  0.0000000000000E+00 -0.5659209818665E-02
 0.1493414637169E-02 -0.9299765347666E-02  0.0000000000000E+00 -0.5847308571601E-02
 0.1419542371297E-02 -0.9151165056556E-02  0.0000000000000E+00 -0.5897369337863E-02
 0.1364102429021E-02 -0.8858448859348E-02  0.0000000000000E+00 -0.5725894596743E-02
 0.1363779487295E-02 -0.8350266285385E-02  0.0000000000000E+00 -0.5147849115897E-02
 0.1569120901275E-02 -0.7542037032548E-02  0.0000000000000E+00 -0.3692907708530E-02
 0.2624597968243E-02 -0.6575395503570E-02  0.0000000000000E+00 -0.4497305215479E-03
 0.6336943797112E-02 -0.6414583285321E-02  0.0000000000000E+00  0.4834159221779E-02
 0.1460402786319E-01 -0.8318397286718E-02  0.0000000000000E+00  0.7605522381363E-02
 0.3504669477812E-03 -0.6447838620631E-02  0.0000000000000E+00  0.2793251919906E-02
 0.9764382167711E-03 -0.6677693608905E-02  0.0000000000000E+00  0.2268793596445E-02
 0.1351699419774E-02 -0.6664469085702E-02  0.0000000000000E+00  0.1446971022453E-02
 0.1476185288862E-02 -0.6522588697688E-02  0.0000000000000E+00  0.8431843762909E-03
 0.1508118936707E-02 -0.6393249662324E-02  0.0000000000000E+00  0.4829766021758E-03
 0.1518081257211E-02 -0.6306544970386E-02  0.0000000000000E+00  0.2542877183057E-03
 0.1522709873545E-02 -0.6256066362842E-02  0.0000000000000E+00  0.9562024867822E-04
 0.1527080988147E-02 -0.6234962078373E-02  0.0000000000000E+00 -0.2222442273106E-04
 0.1533190440027E-02 -0.6237994592854E-02  0.0000000000000E+00 -0.1164031206294E-03
 0.1541681257017E-02 -0.6261535854567E-02  0.0000000000000E+00 -0.1975136753998E-03
 0.1552761350074E-02 -0.6303386573717E-02  0.0000000000000E+00 -0.2727763006701E-03
 0.1566455805341E-02 -0.6362443952649E-02  0.0000000000000E+00 -0.3477640826715E-03
 0.1582622635605E-02 -0.6438441917735E-02  0.0000000000000E+00 -0.4274723492452E-03
 0.1600702862115E-02 -0.6531563423642E-02  0.0000000000000E+00 -0.5171397645775E-03
 0.1619241410036E-02 -0.6641667894136E-02  0.0000000000000E+00 -0.6222177276672E-03
 0.1636191035703E-02 -0.6767535488352E-02  0.0000000000000E+00 -0.7464249643878E-03
 0.1650976669083E-02 -0.6907245095441E-02  0.0000000000000E+00 -0.8899149664011E-03
 0.1665922877627E-02 -0.7059265111120E-02  0.0000000000000E+00 -0.1051660222021E-02
 0.1684117345426E-02 -0.7222430929569E-02  0.0000000000000E+00 -0.1233203664886E-02
 0.1706519549637E-02 -0.7395441184241E-02  0.0000000000000E+00 -0.1437464886296E-02
 0.1731967699297E-02 -0.7577349330338E-02  0.0000000000000E+00 -0.1665609944200E-02
 0.1758712519115E-02 -0.7768064263735E-02  0.0000000000000E+00 -0.1916954942554E-02
 0.1785260491927E-02 -0.7968008635166E-02  0.0000000000000E+00 -0.2190292593434E-02
 0.1810429105457E-02 -0.8177424965774E-02  0.0000000000000E+00 -0.2484569975760E-02
 0.1833261632497E-02 -0.8395868951187E-02  0.0000000000000E+00 -0.2798719125381E-02
 0.1853156650454E-02 -0.8622103299034E-02  0.0000000000000E+00 -0.3131332216541E-02
 0.1869869333421E-02 -0.8854218062926E-02  0.0000000000000E+00 -0.3481091068312E-02
 0.1882672289998E-02 -0.9089210398300E-02  0.0000000000000E+00 -0.3847517070608E-02
 0.1889340518678E-02 -0.9322143231193E-02  0.0000000000000E+00 -0.4230144812560E-02
 0.1886346414924E-02 -0.9545895092204E-02  0.0000000000000E+00 -0.4626549567108E-02
 0.1869758695442E-02 -0.9750930069559E-02  0.0000000000000E+00 -0.5031204724434E-02
 0.1835967173672E-02 -0.9924466460111E-02  0.0000000000000E+00 -0.5434186559155E-02
 0.1782925910715E-02 -0.1004983866666E-01  0.0000000000000E+00 -0.5818329590840E-02
 0.1712555872065E-02 -0.1010664294575E-01  0.0000000000000E+00 -0.6156472044575E-02
 0.1631973943825E-02 -0.1006957495798E-01  0.0000000000000E+00 -0.6411101911213E-02
 0.1549563605169E-02 -0.9898413702895E-02  0.0000000000000E+00 -0.6525734631613E-02
 0.1470994449118E-02 -0.9508980236277E-02  0.0000000000000E+00 -0.6368281277816E-02
 0.1446076556438E-02 -0.8738637650942E-02  0.0000000000000E+00 -0.5522774679099E-02
 0.1972475559922E-02 -0.7503085989491E-02  0.0000000000000E+00 -0.2775007807891E-02
 0.5311773073504E-02 -0.6776199789384E-02  0.0000000000000E+00  0.3316819499540E-02
 0.1510462132765E-01 -0.8781697193015E-02  0.0000000000000E+00  0.7855582076497E-02
 0.4356286051409E-03 -0.6677962574090E-02  0.0000000000000E+00  0.2973044397601E-02
 0.1147458587534E-02 -0.6863023384244E-02  0.0000000000000E+00  0.2200381832034E-02
 0.1476447413151E-02 -0.6719947156574E-02  0.0000000000000E+00  0.1223645301526E-02
 0.1530853771847E-02 -0.6496381422769E-02  0.0000000000000E+00  0.6602185929077E-03
 0.1531012913479E-02 -0.6343122728997E-02  0.0000000000000E+00  0.3675688651831E-03
 0.1527739239443E-02 -0.6250533116171E-02  0.0000000000000E+00  0.1852672506094E-03
 0.1525620777812E-02 -0.6200418344775E-02  0.0000000000000E+00  0.6131924020878E-04
 0.1526931389763E-02 -0.6182711158161E-02  0.0000000000000E+00 -0.2959570490677E-04
 0.1532008242404E-02 -0.6190407072080E-02  0.0000000000000E+00 -0.1020146951711E-03
 0.1540715556029E-02 -0.6219293356640E-02  0.0000000000000E+00 -0.1644109807193E-03
 0.1552927408661E-02 -0.6266989599086E-02  0.0000000000000E+00 -0.2225931415961E-03
 0.1568554784045E-02 -0.6332480079102E-02  0.0000000000000E+00 -0.2810293410286E-03
 0.1587541456483E-02 -0.6415820930709E-02  0.0000000000000E+00 -0.3438458224161E-03
 0.1609614721471E-02 -0.6517866998522E-02  0.0000000000000E+00 -0.4157924618031E-03
 0.1633571645664E-02 -0.6639487969628E-02  0.0000000000000E+00 -0.5028472696184E-03
 0.1657158176940E-02 -0.6780253157610E-02  0.0000000000000E+00 -0.6102851359723E-03
 0.1679379672794E-02 -0.6938071167272E-02  0.0000000000000E+00 -0.7395530766075E-03
 0.1702500162044E-02 -0.7110237334046E-02  0.0000000000000E+00 -0.8901189530250E-03
 0.1729573314960E-02 -0.7294162286170E-02  0.0000000000000E+00 -0.1063493669952E-02
 0.1761178250033E-02 -0.7487837723685E-02  0.0000000000000E+00 -0.1261581958116E-02
 0.1795897102859E-02 -0.7690752139941E-02  0.0000000000000E+00 -0.1483930785718E-02
 0.1832158067820E-02 -0.7903966797117E-02  0.0000000000000E+00 -0.1728903319916E-02
 0.1868852011349E-02 -0.8129161052254E-02  0.0000000000000E+00 -0.1995415120134E-02
 0.1905132008002E-02 -0.8367652801431E-02  0.0000000000000E+00 -0.2283360891454E-02
 0.1940205145988E-02 -0.8619793948796E-02  0.0000000000000E+00 -0.2593085839028E-02
 0.1973531530772E-02 -0.8884867179118E-02  0.0000000000000E+00 -0.2924616118858E-02
 0.2005028993418E-02 -0.9161420812845E-02  0.0000000000000E+00 -0.3277946357736E-02
 0.2034192145109E-02 -0.9447178949560E-02  0.0000000000000E+00 -0.3654211646647E-02
 0.2058862886229E-02 -0.9738432332655E-02  0.0000000000000E+00 -0.4055173075887E-02
 0.2075461988582E-02 -0.1002982129082E-01  0.0000000000000E+00 -0.4481528063877E-02
 0.2079869908326E-02 -0.1031385920241E-01  0.0000000000000E+00 -0.4932494412494E-02
 0.2067774420253E-02 -0.1057972297413E-01  0.0000000000000E+00 -0.5404936056150E-02
 0.2035488252355E-02 -0.1081236852272E-01  0.0000000000000E+00 -0.5890316475317E-02
 0.1982719827525E-02 -0.1099291076302E-01  0.0000000000000E+00 -0.6371046000605E-02
 0.1914858753819E-02 -0.1109988911987E-01  0.0000000000000E+00 -0.6822937596765E-02
 0.1835411224475E-02 -0.1110054021292E-01  0.0000000000000E+00 -0.7218367032777E-02
 0.1733464859980E-02 -0.1092046081670E-01  0.0000000000000E+00 -0.7489273850641E-02
 0.1566725302725E-02 -0.1037260279705E-01  0.0000000000000E+00 -0.7397116352603E-02
 0.1500123594956E-02 -0.9067068272136E-02  0.0000000000000E+00 -0.5733791287094E-02
 0.3993880832776E-02 -0.7595467194361E-02  0.0000000000000E+00  0.6574288103018E-03
 0.1563770114326E-01 -0.9552809986473E-02  0.0000000000000E+00  0.7844061243423E-02
 0.5674267131218E-03 -0.7026362343570E-02  0.0000000000000E+00  0.3146310406655E-02
 0.1368736155581E-02 -0.7074366258826E-02  0.0000000000000E+00  0.1964037450386E-02
 0.1588453682340E-02 -0.6723417080207E-02  0.0000000000000E+00  0.8860432235622E-03
 0.1560949119824E-02 -0.6431864836197E-02  0.0000000000000E+00  0.4576713321010E-03
 0.1540243922447E-02 -0.6271668128178E-02  0.0000000000000E+00  0.2502708913431E-03
 0.1527806472330E-02 -0.6179213613595E-02  0.0000000000000E+00  0.1184512763149E-03
 0.1521373140490E-02 -0.6133879295166E-02  0.0000000000000E+00  0.3200759008372E-04
 0.1521301092425E-02 -0.6122039929010E-02  0.0000000000000E+00 -0.3154754463669E-04
 0.1526267790971E-02 -0.6135891438790E-02  0.0000000000000E+00 -0.8200503420201E-04
 0.1535728034392E-02 -0.6170940363578E-02  0.0000000000000E+00 -0.1256603074381E-03
 0.1549290764656E-02 -0.6224822709312E-02  0.0000000000000E+00 -0.1666356329708E-03
 0.1566829902490E-02 -0.6296706468745E-02  0.0000000000000E+00 -0.2081728429564E-03
 0.1588398279914E-02 -0.6387001131048E-02  0.0000000000000E+00 -0.2533267227677E-03
 0.1614110316424E-02 -0.6497287310147E-02  0.0000000000000E+00 -0.3058973724492E-03
 0.1643338684013E-02 -0.6629874609533E-02  0.0000000000000E+00 -0.3719294553620E-03
 0.1673976171199E-02 -0.6786021486151E-02  0.0000000000000E+00 -0.4588027724127E-03
 0.1704614366190E-02 -0.6963825528944E-02  0.0000000000000E+00 -0.5708703108602E-03
 0.1737069419747E-02 -0.7158382471472E-02  0.0000000000000E+00 -0.7092914078708E-03
 0.1773832883677E-02 -0.7364348287868E-02  0.0000000000000E+00 -0.8750809949059E-03
 0.1814854011983E-02 -0.7578769206655E-02  0.0000000000000E+00 -0.1067502041112E-02
 0.1858669549781E-02 -0.7802182035196E-02  0.0000000000000E+00 -0.1283313630179E-02
 0.1904245699105E-02 -0.8037410912032E-02  0.0000000000000E+00 -0.1519754780110E-02
 0.1951108724299E-02 -0.8287742721806E-02  0.0000000000000E+00 -0.1776094251216E-02
 0.1998905971961E-02 -0.8555786958166E-02  0.0000000000000E+00 -0.2053450151795E-02
 0.2047089935758E-02 -0.8842854302943E-02  0.0000000000000E+00 -0.2353933768153E-02
 0.2095147353118E-02 -0.9148747410300E-02  0.0000000000000E+00 -0.2679357024175E-02
 0.2143086206382E-02 -0.9472237696554E-02  0.0000000000000E+00 -0.3030979155410E-02
 0.2190673564368E-02 -0.9811667165224E-02  0.0000000000000E+00 -0.3410956541898E-02
 0.2236074014336E-02 -0.1016500261252E-01  0.0000000000000E+00 -0.3822528514234E-02
 0.2276119986532E-02 -0.1052951371843E-01  0.0000000000000E+00 -0.4269123368539E-02
 0.2307109274910E-02 -0.1090072585386E-01  0.0000000000000E+00 -0.4754806073358E-02
 0.2324654465138E-02 -0.1127089291738E-01  0.0000000000000E+00 -0.5283703954184E-02
 0.2324123358559E-02 -0.1162795351639E-01  0.0000000000000E+00 -0.5856642540558E-02
 0.2303062010438E-02 -0.1195578282490E-01  0.0000000000000E+00 -0.6466562576561E-02
 0.2267374280669E-02 -0.1223795190454E-01  0.0000000000000E+00 -0.7096857530069E-02
 0.2221574323027E-02 -0.1245929156069E-01  0.0000000000000E+00 -0.7744419238622E-02
 0.2152553744557E-02 -0.1257554670132E-01  0.0000000000000E+00 -0.8390535544409E-02
 0.2007273598793E-02 -0.1248383284880E-01  0.0000000000000E+00 -0.9013671957361E-02
 0.1492017029921E-02 -0.1161040368034E-01  0.0000000000000E+00 -0.9084107877768E-02
 0.2465645591640E-02 -0.9463149167258E-02  0.0000000000000E+00 -0.3818068637334E-02
 0.1620597674501E-01 -0.1106661440964E-01  0.0000000000000E+00  0.6933380904358E-02
 0.7801523293003E-03 -0.7602332630228E-02  0.0000000000000E+00  0.3243948226730E-02
 0.1641900844587E-02 -0.7249760711902E-02  0.0000000000000E+00  0.1388540453939E-02
 0.1647634581324E-02 -0.6623033409137E-02  0.0000000000000E+00  0.4575059029495E-03
 0.1561088055525E-02 -0.6333128960168E-02  0.0000000000000E+00  0.2690561883457E-03
 0.1536454812604E-02 -0.6176407734509E-02  0.0000000000000E+00  0.1336245049063E-03
 0.1517189802466E-02 -0.6092782069350E-02  0.0000000000000E+00  0.6017764202479E-04
 0.1510205969455E-02 -0.6056612691617E-02  0.0000000000000E+00  0.1001279072579E-04
 0.1510194626625E-02 -0.6053181385705E-02  0.0000000000000E+00 -0.2639058863788E-04
 0.1516067596465E-02 -0.6074643281269E-02  0.0000000000000E+00 -0.5548923037019E-04
 0.1526767635788E-02 -0.6116611854523E-02  0.0000000000000E+00 -0.8082117342263E-04
 0.1541859008811E-02 -0.6176943616393E-02  0.0000000000000E+00 -0.1048262088758E-03
 0.1561219154781E-02 -0.6255077943829E-02  0.0000000000000E+00 -0.1294216471810E-03
 0.1585012348077E-02 -0.6351788115859E-02  0.0000000000000E+00 -0.1564829428789E-03
 0.1613721527087E-02 -0.6469267182767E-02  0.0000000000000E+00 -0.1883653238564E-03
 0.1647640112369E-02 -0.6611523923453E-02  0.0000000000000E+00 -0.2299692983845E-03
 0.1685623794831E-02 -0.6783181824288E-02  0.0000000000000E+00 -0.2908018472021E-03
 0.1726190966551E-02 -0.6983783843837E-02  0.0000000000000E+00 -0.3813149136643E-03
 0.1769818132924E-02 -0.7204141793898E-02  0.0000000000000E+00 -0.5072378858589E-03
 0.1817242959110E-02 -0.7433552802387E-02  0.0000000000000E+00 -0.6676200873151E-03
 0.1867587321368E-02 -0.7668257008130E-02  0.0000000000000E+00 -0.8558053364625E-03
 0.1919936053469E-02 -0.7911091567144E-02  0.0000000000000E+00 -0.1064437457461E-02
 0.1974317141970E-02 -0.8167409818396E-02  0.0000000000000E+00 -0.1289877530979E-02
 0.2031140728416E-02 -0.8442436956787E-02  0.0000000000000E+00 -0.1532193060478E-02
 0.2090698114342E-02 -0.8740252998843E-02  0.0000000000000E+00 -0.1794031079341E-02
 0.2152814988257E-02 -0.9063355185559E-02  0.0000000000000E+00 -0.2079635201445E-02
 0.2216960739136E-02 -0.9412152137430E-02  0.0000000000000E+00 -0.2393297575205E-02
 0.2282952129479E-02 -0.9785064245327E-02  0.0000000000000E+00 -0.2737749733212E-02
 0.2350708953537E-02 -0.1018053043292E-01  0.0000000000000E+00 -0.3114971687107E-02
 0.2419099619240E-02 -0.1059890872255E-01  0.0000000000000E+00 -0.3528187896552E-02
 0.2486032643627E-02 -0.1104132352610E-01  0.0000000000000E+00 -0.3983142675756E-02
 0.2548866727728E-02 -0.1150723526759E-01  0.0000000000000E+00 -0.4488910408428E-02
 0.2603911656970E-02 -0.1199313398013E-01  0.0000000000000E+00 -0.5056934899629E-02
 0.2646236947008E-02 -0.1249159955876E-01  0.0000000000000E+00 -0.5698162427398E-02
 0.2672061970309E-02 -0.1299055442888E-01  0.0000000000000E+00 -0.6416951919889E-02
 0.2683763439567E-02 -0.1347689684108E-01  0.0000000000000E+00 -0.7202868779881E-02
 0.2702586142645E-02 -0.1395435972485E-01  0.0000000000000E+00 -0.8037686201189E-02
 0.2703059583109E-02 -0.1444867889854E-01  0.0000000000000E+00 -0.8973715957403E-02
 0.2752055120211E-02 -0.1498207162287E-01  0.0000000000000E+00 -0.9961523641975E-02
 0.2365291610619E-02 -0.1543772606936E-01  0.0000000000000E+00 -0.1188691718695E-01
 0.1227091176783E-02 -0.1365475787334E-01  0.0000000000000E+00 -0.1062378398065E-01
 0.1690800824056E-01 -0.1480279612954E-01  0.0000000000000E+00  0.3056935787250E-02
 0.1123279015800E-02 -0.8710052030072E-02  0.0000000000000E+00  0.2940831659690E-02
 0.1913801543132E-02 -0.7052792497684E-02  0.0000000000000E+00  0.1404455382277E-03
 0.1582962692231E-02 -0.6450266773337E-02  0.0000000000000E+00  0.1660232833617E-03
 0.1553537119400E-02 -0.6195906541134E-02  0.0000000000000E+00  0.7067433304460E-04
 0.1512775881965E-02 -0.6057974785058E-02  0.0000000000000E+00  0.3610414166426E-04
 0.1497933249528E-02 -0.5992015710149E-02  0.0000000000000E+00  0.1336605568530E-04
 0.1491982759484E-02 -0.5969165684850E-02  0.0000000000000E+00 -0.1590387032929E-05
 0.1493971579933E-02 -0.5976600482172E-02  0.0000000000000E+00 -0.1266857219470E-04
 0.1501577770283E-02 -0.6007001208274E-02  0.0000000000000E+00 -0.2161630551438E-04
 0.1513976524583E-02 -0.6056547710189E-02  0.0000000000000E+00 -0.2953191804388E-04
 0.1530706596660E-02 -0.6123496162138E-02  0.0000000000000E+00 -0.3716046857621E-04
 0.1551722664571E-02 -0.6207634200377E-02  0.0000000000000E+00 -0.4510808582861E-04
 0.1577299647680E-02 -0.6310084038730E-02  0.0000000000000E+00 -0.5399028977381E-04
 0.1608088973295E-02 -0.6433469605660E-02  0.0000000000000E+00 -0.6461112060327E-04
 0.1645315187838E-02 -0.6582885801257E-02  0.0000000000000E+00 -0.7853395329771E-04
 0.1690474695114E-02 -0.6769011613962E-02  0.0000000000000E+00 -0.1048927662465E-03
 0.1743501165205E-02 -0.6997067324124E-02  0.0000000000000E+00 -0.1666076256671E-03
 0.1801405261715E-02 -0.7248789733856E-02  0.0000000000000E+00 -0.2813409958494E-03
 0.1860506487229E-02 -0.7502755601368E-02  0.0000000000000E+00 -0.4413395426442E-03
 0.1919480893116E-02 -0.7756386441723E-02  0.0000000000000E+00 -0.6276811822817E-03
 0.1979288286206E-02 -0.8016844577142E-02  0.0000000000000E+00 -0.8284275410424E-03
 0.2041604975175E-02 -0.8292836487087E-02  0.0000000000000E+00 -0.1039944220644E-02
 0.2107928588425E-02 -0.8591760368986E-02  0.0000000000000E+00 -0.1263795810408E-02
 0.2179278175531E-02 -0.8919269129315E-02  0.0000000000000E+00 -0.1504486694138E-02
 0.2256074724390E-02 -0.9279290897090E-02  0.0000000000000E+00 -0.1768499720272E-02
 0.2337880029292E-02 -0.9673396379281E-02  0.0000000000000E+00 -0.2063855711998E-02
 0.2423598223556E-02 -0.1009848922510E-01  0.0000000000000E+00 -0.2396057525273E-02
 0.2512725398580E-02 -0.1055141532618E-01  0.0000000000000E+00 -0.2764293660285E-02
 0.2605641502570E-02 -0.1103661570861E-01  0.0000000000000E+00 -0.3168720913036E-02
 0.2702343410260E-02 -0.1156091129316E-01  0.0000000000000E+00 -0.3617818789215E-02
 0.2801770889207E-02 -0.1212808859495E-01  0.0000000000000E+00 -0.4125989035506E-02
 0.2901631454542E-02 -0.1274011534295E-01  0.0000000000000E+00 -0.4711281542462E-02
 0.2998177268240E-02 -0.1339634706803E-01  0.0000000000000E+00 -0.5394860236963E-02
 0.3085736021718E-02 -0.1409062194429E-01  0.0000000000000E+00 -0.6195939496517E-02
 0.3163149485740E-02 -0.1480965744974E-01  0.0000000000000E+00 -0.7111012215198E-02
 0.3239665094456E-02 -0.1555431428656E-01  0.0000000000000E+00 -0.8077868360943E-02
 0.3403257573255E-02 -0.1646494392934E-01  0.0000000000000E+00 -0.9041769487787E-02
 0.3515672396245E-02 -0.1776894554896E-01  0.0000000000000E+00 -0.1024696745331E-01
 0.4487034805617E-02 -0.1999413052442E-01  0.0000000000000E+00 -0.1168657051449E-01
 0.1550963441186E-02 -0.2279825745029E-01  0.0000000000000E+00 -0.1855620392503E-01
 0.2015324933759E-01 -0.2587232674340E-01  0.0000000000000E+00 -0.9178342173412E-02
 0.3470856219793E-01 -0.9855027917347E-01  0.0000000000000E+00 -0.3867901526558E+00
 0.8067195648653E-01 -0.1418126924297E+00  0.0000000000000E+00 -0.3697003749634E+00
 0.1256496164117E+00 -0.1840724561933E+00  0.0000000000000E+00 -0.3495114717923E+00
 0.1676754499177E+00 -0.2234787922688E+00  0.0000000000000E+00 -0.3270154917327E+00
 0.2057863135548E+00 -0.2591389523014E+00  0.0000000000000E+00 -0.3039773172886E+00
 0.2397254404213E+00 -0.2908429858295E+00  0.0000000000000E+00 -0.2822128533301E+00
 0.2696914742914E+00 -0.3188228136122E+00  0.0000000000000E+00 -0.2632294957551E+00
 0.2961374387123E+00 -0.3435546692211E+00  0.0000000000000E+00 -0.2480727793132E+00
 0.3196031425735E+00 -0.3655904673295E+00  0.0000000000000E+00 -0.2373205184571E+00
 0.3405798288048E+00 -0.3854214706603E+00  0.0000000000000E+00 -0.2311742794288E+00
 0.3594098489665E+00 -0.4033788539412E+00  0.0000000000000E+00 -0.2295810941328E+00
 0.3761926232798E+00 -0.4195633283274E+00  0.0000000000000E+00 -0.2323222576886E+00
 0.3909117401443E+00 -0.4339332867683E+00  0.0000000000000E+00 -0.2395133236246E+00
 0.4035800574062E+00 -0.4464978124388E+00  0.0000000000000E+00 -0.2512271484004E+00
 0.4142008077172E+00 -0.4572761852256E+00  0.0000000000000E+00 -0.2672101433952E+00
 0.4227446807892E+00 -0.4662412912422E+00  0.0000000000000E+00 -0.2871399299364E+00
 0.4291280982570E+00 -0.4733170334844E+00  0.0000000000000E+00 -0.3105309817258E+00
 0.4331460853207E+00 -0.4783529935181E+00  0.0000000000000E+00 -0.3369201786672E+00
 0.4347680835930E+00 -0.4811980955549E+00  0.0000000000000E+00 -0.3658086117295E+00
 0.4329577401534E+00 -0.4820319298316E+00  0.0000000000000E+00 -0.3917854646379E+00
 0.3483410092092E-01 -0.9914094961966E-01  0.0000000000000E+00 -0.3690381412126E+00
 0.8111631687938E-01 -0.1427092678841E+00  0.0000000000000E+00 -0.3522119923943E+00
 0.1262618457305E+00 -0.1851650510383E+00  0.0000000000000E+00 -0.3334181814625E+00
 0.1686002054354E+00 -0.2249168244585E+00  0.0000000000000E+00 -0.3128865389640E+00
 0.2072359351926E+00 -0.2611334704129E+00  0.0000000000000E+00 -0.2919704817762E+00
 0.2418937866147E+00 -0.2935844272743E+00  0.0000000000000E+00 -0.2722075017768E+00
 0.2727139902240E+00 -0.3224422108220E+00  0.0000000000000E+00 -0.2549337522598E+00
 0.3000797793700E+00 -0.3481124930781E+00  0.0000000000000E+00 -0.2411210664933E+00
 0.3244704974730E+00 -0.3710873017148E+00  0.0000000000000E+00 -0.2313505013133E+00
 0.3463395366139E+00 -0.3918223321351E+00  0.0000000000000E+00 -0.2258712126223E+00
 0.3660114916921E+00 -0.4106391256437E+00  0.0000000000000E+00 -0.2246860951383E+00
 0.3836037807006E+00 -0.4276480837036E+00  0.0000000000000E+00 -0.2276939866206E+00
 0.3991413259101E+00 -0.4428660512415E+00  0.0000000000000E+00 -0.2350239537140E+00
 0.4126512849974E+00 -0.4563183562662E+00  0.0000000000000E+00 -0.2466915873876E+00
 0.4241320392876E+00 -0.4680123423954E+00  0.0000000000000E+00 -0.2624896695430E+00
 0.4335725225123E+00 -0.4779478958555E+00  0.0000000000000E+00 -0.2821356400492E+00
 0.4409073131997E+00 -0.4860847870244E+00  0.0000000000000E+00 -0.3051424625880E+00
 0.4460439044630E+00 -0.4923390238270E+00  0.0000000000000E+00 -0.3308538215666E+00
 0.4482592382541E+00 -0.4962923391630E+00  0.0000000000000E+00 -0.3572841542670E+00
 0.4462481317644E+00 -0.4965253815052E+00  0.0000000000000E+00 -0.3843352939179E+00
 0.3501438066231E-01 -0.9979197828528E-01  0.0000000000000E+00 -0.3510795363991E+00
 0.8171027748061E-01 -0.1437625846783E+00  0.0000000000000E+00 -0.3345798424514E+00
 0.1270840243230E+00 -0.1864591395825E+00  0.0000000000000E+00 -0.3170358245338E+00
 0.1697375693734E+00 -0.2265510521075E+00  0.0000000000000E+00 -0.2982974060475E+00
 0.2088656582712E+00 -0.2632864429341E+00  0.0000000000000E+00 -0.2793426278211E+00
 0.2441870734838E+00 -0.2964256132393E+00  0.0000000000000E+00 -0.2614500810698E+00
 0.2757963715157E+00 -0.3260938541053E+00  0.0000000000000E+00 -0.2457962269875E+00
 0.3040187365585E+00 -0.3526382354055E+00  0.0000000000000E+00 -0.2332772855526E+00
 0.3292814396977E+00 -0.3764992675302E+00  0.0000000000000E+00 -0.2244630724756E+00
 0.3520009332545E+00 -0.3980986258818E+00  0.0000000000000E+00 -0.2196302122242E+00
 0.3724856431987E+00 -0.4177433239154E+00  0.0000000000000E+00 -0.2188426260250E+00
 0.3908717444319E+00 -0.4355665867972E+00  0.0000000000000E+00 -0.2220775613850E+00
 0.4072097392864E+00 -0.4516151929252E+00  0.0000000000000E+00 -0.2294626145257E+00
 0.4215371983926E+00 -0.4659284095864E+00  0.0000000000000E+00 -0.2410094370893E+00
 0.4338627160157E+00 -0.4785249105574E+00  0.0000000000000E+00 -0.2565342105143E+00
 0.4441811316202E+00 -0.4894176055191E+00  0.0000000000000E+00 -0.2757524868912E+00
 0.4524450238697E+00 -0.4985828440613E+00  0.0000000000000E+00 -0.2981245268471E+00
 0.4584002392442E+00 -0.5058588838791E+00  0.0000000000000E+00 -0.3226300812430E+00
 0.4612159133657E+00 -0.5104934380629E+00  0.0000000000000E+00 -0.3481275067633E+00
 0.4600463012230E+00 -0.5116329668530E+00  0.0000000000000E+00 -0.3754726545587E+00
 0.3523508958420E-01 -0.1004867021148E+00  0.0000000000000E+00 -0.3328759067133E+00
 0.8241220483095E-01 -0.1449211279928E+00  0.0000000000000E+00 -0.3167849154249E+00
 0.1280664555030E+00 -0.1879039729814E+00  0.0000000000000E+00 -0.3003986612296E+00
 0.1710435882843E+00 -0.2283366523850E+00  0.0000000000000E+00 -0.2832964216220E+00
 0.2106359253472E+00 -0.2655577532590E+00  0.0000000000000E+00 -0.2661496972630E+00
 0.2465712524904E+00 -0.2993321089003E+00  0.0000000000000E+00 -0.2500004529526E+00
 0.2789104168777E+00 -0.3297494460926E+00  0.0000000000000E+00 -0.2358740099889E+00
 0.3079304967613E+00 -0.3571080662144E+00  0.0000000000000E+00 -0.2245887629060E+00
 0.3340128808524E+00 -0.3818032681474E+00  0.0000000000000E+00 -0.2166927360269E+00
 0.3575403181703E+00 -0.4042246054963E+00  0.0000000000000E+00 -0.2124809738280E+00
 0.3788071304743E+00 -0.4246677844053E+00  0.0000000000000E+00 -0.2120642150501E+00
 0.3979630191442E+00 -0.4432825032247E+00  0.0000000000000E+00 -0.2154767774694E+00
 0.4150774569912E+00 -0.4601383654313E+00  0.0000000000000E+00 -0.2228491333173E+00
 0.4301983522744E+00 -0.4752881753344E+00  0.0000000000000E+00 -0.2341954508875E+00
 0.4433430070164E+00 -0.4887629128827E+00  0.0000000000000E+00 -0.2493440766490E+00
 0.4545081569859E+00 -0.5005806926900E+00  0.0000000000000E+00 -0.2679874161254E+00
 0.4636019934539E+00 -0.5106933981744E+00  0.0000000000000E+00 -0.2894972314356E+00
 0.4702860534364E+00 -0.5188230929832E+00  0.0000000000000E+00 -0.3129836830094E+00
 0.4738293245999E+00 -0.5242955476002E+00  0.0000000000000E+00 -0.3377922751392E+00
 0.4736507520886E+00 -0.5265550545503E+00  0.0000000000000E+00 -0.3647440596411E+00
 0.3548495075093E-01 -0.1012075657740E+00  0.0000000000000E+00 -0.3144131052634E+00
 0.8319061078265E-01 -0.1461491446660E+00  0.0000000000000E+00 -0.2988163529993E+00
 0.1291665049096E+00 -0.1894536124283E+00  0.0000000000000E+00 -0.2835229527190E+00
 0.1724753890755E+00 -0.2302297094690E+00  0.0000000000000E+00 -0.2679236409967E+00
 0.2125082859764E+00 -0.2679082687940E+00  0.0000000000000E+00 -0.2524421363720E+00
 0.2490128321475E+00 -0.3022700192300E+00  0.0000000000000E+00 -0.2379129452492E+00
 0.2820273704248E+00 -0.3333799864658E+00  0.0000000000000E+00 -0.2252194512431E+00
 0.3117894886393E+00 -0.3614962350018E+00  0.0000000000000E+00 -0.2151010790175E+00
 0.3386405044014E+00 -0.3869743373580E+00  0.0000000000000E+00 -0.2080774183977E+00
 0.3629328918152E+00 -0.4101750502629E+00  0.0000000000000E+00 -0.2044522829643E+00
 0.3849477817587E+00 -0.4313833034186E+00  0.0000000000000E+00 -0.2043706669276E+00
 0.4048443834835E+00 -0.4507610931357E+00  0.0000000000000E+00 -0.2079098013529E+00
 0.4227070689179E+00 -0.4683962653186E+00  0.0000000000000E+00 -0.2152036234859E+00
 0.4385923239872E+00 -0.4843537666227E+00  0.0000000000000E+00 -0.2262685718262E+00
 0.4525229177011E+00 -0.4986732880490E+00  0.0000000000000E+00 -0.2409368224652E+00
 0.4644817677994E+00 -0.5113659508820E+00  0.0000000000000E+00 -0.2588712515005E+00
 0.4743368605210E+00 -0.5223417776072E+00  0.0000000000000E+00 -0.2794637446763E+00
 0.4817326700182E+00 -0.5312961922837E+00  0.0000000000000E+00 -0.3019905711837E+00
 0.4860487131499E+00 -0.5376607965764E+00  0.0000000000000E+00 -0.3260146861786E+00
 0.4868471085652E+00 -0.5410423061398E+00  0.0000000000000E+00 -0.3521383051499E+00
 0.3575454942598E-01 -0.1019399676077E+00  0.0000000000000E+00 -0.2956836646827E+00
 0.8401914171053E-01 -0.1474162038266E+00  0.0000000000000E+00 -0.2806665457276E+00
 0.1303470757765E+00 -0.1910683396973E+00  0.0000000000000E+00 -0.2664204594837E+00
 0.1739933916163E+00 -0.2321890751976E+00  0.0000000000000E+00 -0.2522109157140E+00
 0.2144457047907E+00 -0.2703001813476E+00  0.0000000000000E+00 -0.2382645936446E+00
 0.2514789542311E+00 -0.3052059928030E+00  0.0000000000000E+00 -0.2252372032998E+00
 0.2851182270043E+00 -0.3369561271349E+00  0.0000000000000E+00 -0.2138816687575E+00
 0.3155693832179E+00 -0.3657760103501E+00  0.0000000000000E+00 -0.2048591850423E+00
 0.3431390618860E+00 -0.3919867359318E+00  0.0000000000000E+00 -0.1986558401880E+00
 0.3681525827123E+00 -0.4159231482214E+00  0.0000000000000E+00 -0.1955759726028E+00
 0.3908786400689E+00 -0.4378598911415E+00  0.0000000000000E+00 -0.1957883489564E+00
 0.4114829535922E+00 -0.4579680198732E+00  0.0000000000000E+00 -0.1994016563425E+00
 0.4300614258919E+00 -0.4763501066729E+00  0.0000000000000E+00 -0.2065519451640E+00
 0.4466768339114E+00 -0.4930807623974E+00  0.0000000000000E+00 -0.2172562675549E+00
 0.4613516860295E+00 -0.5082032278756E+00  0.0000000000000E+00 -0.2313473085248E+00
 0.4740522227219E+00 -0.5217144845610E+00  0.0000000000000E+00 -0.2484862298369E+00
 0.4846231415872E+00 -0.5335000906366E+00  0.0000000000000E+00 -0.2681221113255E+00
 0.4927178538095E+00 -0.5432610301457E+00  0.0000000000000E+00 -0.2896570282651E+00
 0.4978024439841E+00 -0.5505168390611E+00  0.0000000000000E+00 -0.3127400483171E+00
 0.4995085399459E+00 -0.5549535111913E+00  0.0000000000000E+00 -0.3377383565088E+00
 0.3603588379109E-01 -0.1026713135054E+00  0.0000000000000E+00 -0.2766859103761E+00
 0.8487534005982E-01 -0.1486962832291E+00  0.0000000000000E+00 -0.2623310753066E+00
 0.1315755263314E+00 -0.1927130237375E+00  0.0000000000000E+00 -0.2491009805610E+00
 0.1755614271012E+00 -0.2341770293124E+00  0.0000000000000E+00 -0.2361851648108E+00
 0.2164131279183E+00 -0.2726975076909E+00  0.0000000000000E+00 -0.2236565211993E+00
 0.2539376423575E+00 -0.3081074827462E+00  0.0000000000000E+00 -0.2120189694984E+00
 0.2881541554089E+00 -0.3404485878742E+00  0.0000000000000E+00 -0.2019074898916E+00
 0.3192435514260E+00 -0.3699203094777E+00  0.0000000000000E+00 -0.1939075141393E+00
 0.3474827217639E+00 -0.3968140523218E+00  0.0000000000000E+00 -0.1884681327349E+00
 0.3731727343268E+00 -0.4214414540246E+00  0.0000000000000E+00 -0.1858874442739E+00
 0.3965705961735E+00 -0.4440673625705E+00  0.0000000000000E+00 -0.1863491039762E+00
 0.4178461912081E+00 -0.4648693779979E+00  0.0000000000000E+00 -0.1899835717124E+00
 0.4371040398869E+00 -0.4839616717996E+00  0.0000000000000E+00 -0.1969269803927E+00
 0.4544104901380E+00 -0.5014257079631E+00  0.0000000000000E+00 -0.2071960545777E+00
 0.4697848549276E+00 -0.5173043648532E+00  0.0000000000000E+00 -0.2206295626458E+00
 0.4831799257084E+00 -0.5315827839298E+00  0.0000000000000E+00 -0.2369054596381E+00
 0.4944291743485E+00 -0.5441350660875E+00  0.0000000000000E+00 -0.2555345943171E+00
 0.5032013820231E+00 -0.5546774942124E+00  0.0000000000000E+00 -0.2760055072555E+00
 0.5090220642435E+00 -0.5627909395296E+00  0.0000000000000E+00 -0.2979925584208E+00
 0.5115497165805E+00 -0.5681930651288E+00  0.0000000000000E+00 -0.3216551756587E+00
 0.3632203302157E-01 -0.1033906186202E+00  0.0000000000000E+00 -0.2574227528404E+00
 0.8573978132173E-01 -0.1499667509396E+00  0.0000000000000E+00 -0.2438087376394E+00
 0.1328229971957E+00 -0.1943565044028E+00  0.0000000000000E+00 -0.2315738007379E+00
 0.1771465755158E+00 -0.2361591156361E+00  0.0000000000000E+00 -0.2198701146313E+00
 0.2183777057834E+00 -0.2750664175511E+00  0.0000000000000E+00 -0.2086534909560E+00
 0.2563581546053E+00 -0.3109430923528E+00  0.0000000000000E+00 -0.1983008384114E+00
 0.2911068618651E+00 -0.3438285610144E+00  0.0000000000000E+00 -0.1893420115654E+00
 0.3227854634771E+00 -0.3739020839020E+00  0.0000000000000E+00 -0.1822904327938E+00
 0.3516455418009E+00 -0.4014297146385E+00  0.0000000000000E+00 -0.1775561568246E+00
 0.3779666295857E+00 -0.4267024231004E+00  0.0000000000000E+00 -0.1754256253829E+00
 0.4019948017939E+00 -0.4499757981192E+00  0.0000000000000E+00 -0.1760898285667E+00
 0.4239022479139E+00 -0.4714319482770E+00  0.0000000000000E+00 -0.1796928507289E+00
 0.4437995630788E+00 -0.4911938974698E+00  0.0000000000000E+00 -0.1863689657791E+00
 0.4617547002697E+00 -0.5093475920857E+00  0.0000000000000E+00 -0.1961355959302E+00
 0.4777831995123E+00 -0.5259344315828E+00  0.0000000000000E+00 -0.2088431018288E+00
 0.4918284387981E+00 -0.5409315362424E+00  0.0000000000000E+00 -0.2241947720554E+00
 0.5037192245370E+00 -0.5542090345042E+00  0.0000000000000E+00 -0.2417571103801E+00
 0.5131382656960E+00 -0.5654982888903E+00  0.0000000000000E+00 -0.2610785920692E+00
 0.5196477505433E+00 -0.5744185431052E+00  0.0000000000000E+00 -0.2818355843146E+00
 0.5229064515690E+00 -0.5806895875089E+00  0.0000000000000E+00 -0.3040159073791E+00
 0.3660694237434E-01 -0.1040882083111E+00  0.0000000000000E+00 -0.2379009674702E+00
 0.8659550192660E-01 -0.1512077557362E+00  0.0000000000000E+00 -0.2251013900392E+00
 0.1340638837244E+00 -0.1959710514240E+00  0.0000000000000E+00 -0.2138484880309E+00
 0.1787189557013E+00 -0.2381039771518E+00  0.0000000000000E+00 -0.2032875117089E+00
 0.2203088874161E+00 -0.2773753631557E+00  0.0000000000000E+00 -0.1932882585571E+00
 0.2587112492832E+00 -0.3136828818469E+00  0.0000000000000E+00 -0.1841230060231E+00
 0.2939489287523E+00 -0.3470680658531E+00  0.0000000000000E+00 -0.1762290926334E+00
 0.3261690733418E+00 -0.3776947276643E+00  0.0000000000000E+00 -0.1700525689205E+00
 0.3556018986892E+00 -0.4058074385512E+00  0.0000000000000E+00 -0.1659636333836E+00
 0.3825079280471E+00 -0.4316788775876E+00  0.0000000000000E+00 -0.1642328489634E+00
 0.4071230701429E+00 -0.4555559439633E+00  0.0000000000000E+00 -0.1650521935936E+00
 0.4296203647652E+00 -0.4776236197901E+00  0.0000000000000E+00 -0.1685726326923E+00
 0.4501144982774E+00 -0.4980115290421E+00  0.0000000000000E+00 -0.1749251497650E+00
 0.4686739545680E+00 -0.5168086653882E+00  0.0000000000000E+00 -0.1841291427494E+00
 0.4853109732246E+00 -0.5340551159878E+00  0.0000000000000E+00 -0.1960498104305E+00
 0.4999626598088E+00 -0.5497231627193E+00  0.0000000000000E+00 -0.2104183447238E+00
 0.5124560688684E+00 -0.5636823669956E+00  0.0000000000000E+00 -0.2268491473666E+00
 0.5224841134812E+00 -0.5756758307490E+00  0.0000000000000E+00 -0.2449350635010E+00
 0.5296288410903E+00 -0.5853442304816E+00  0.0000000000000E+00 -0.2643505924644E+00
 0.5335310524106E+00 -0.5923900641997E+00  0.0000000000000E+00 -0.2849543478921E+00
 0.3688528318644E-01 -0.1047555186532E+00  0.0000000000000E+00 -0.2181306399953E+00
 0.8742760007008E-01 -0.1524017912590E+00  0.0000000000000E+00 -0.2062137388107E+00
 0.1352754349296E+00 -0.1975319586846E+00  0.0000000000000E+00 -0.1959353602206E+00
 0.1802515259885E+00 -0.2399831719550E+00  0.0000000000000E+00 -0.1864579808001E+00
 0.2221784573375E+00 -0.2795951447006E+00  0.0000000000000E+00 -0.1775916323725E+00
 0.2609693900056E+00 -0.3162985963789E+00  0.0000000000000E+00 -0.1695239464363E+00
 0.2966541132932E+00 -0.3501402670267E+00  0.0000000000000E+00 -0.1626118128888E+00
 0.3293691688334E+00 -0.3812724423174E+00  0.0000000000000E+00 -0.1572390752419E+00
 0.3593268659446E+00 -0.4099216223744E+00  0.0000000000000E+00 -0.1537362165379E+00
 0.3867710500105E+00 -0.4363444017845E+00  0.0000000000000E+00 -0.1523547427151E+00
 0.4119282463710E+00 -0.4607795951546E+00  0.0000000000000E+00 -0.1532823818175E+00
 0.4349712845044E+00 -0.4834138027045E+00  0.0000000000000E+00 -0.1566715006336E+00
 0.4560175356950E+00 -0.5043815737438E+00  0.0000000000000E+00 -0.1626485743517E+00
 0.4751355488250E+00 -0.5237741877951E+00  0.0000000000000E+00 -0.1712356590479E+00
 0.4923349871624E+00 -0.5416309680952E+00  0.0000000000000E+00 -0.1823139489975E+00
 0.5075487217834E+00 -0.5579214370465E+00  0.0000000000000E+00 -0.1956423348495E+00
 0.5206029756598E+00 -0.5725157077218E+00  0.0000000000000E+00 -0.2108767034948E+00
 0.5311970819797E+00 -0.5851648488221E+00  0.0000000000000E+00 -0.2276458988691E+00
 0.5389220960645E+00 -0.5955199942536E+00  0.0000000000000E+00 -0.2456265031519E+00
 0.5433895091836E+00 -0.6032557286213E+00  0.0000000000000E+00 -0.2645931015919E+00
 0.3715234952412E-01 -0.1053849557762E+00  0.0000000000000E+00 -0.1981247235551E+00
 0.8822294825420E-01 -0.1535333868745E+00  0.0000000000000E+00 -0.1871530883228E+00
 0.1364374424569E+00 -0.1990172312803E+00  0.0000000000000E+00 -0.1778457344835E+00
 0.1817199091679E+00 -0.2417710128136E+00  0.0000000000000E+00 -0.1694016166685E+00
 0.2239605442997E+00 -0.2816989411332E+00  0.0000000000000E+00 -0.1615931373523E+00
 0.2631069062913E+00 -0.3187638498163E+00  0.0000000000000E+00 -0.1545409635538E+00
 0.2991976057939E+00 -0.3530197527387E+00  0.0000000000000E+00 -0.1485328427634E+00
 0.3323616841563E+00 -0.3846105677460E+00  0.0000000000000E+00 -0.1438958107640E+00
 0.3627965532906E+00 -0.4137477025304E+00  0.0000000000000E+00 -0.1409214967579E+00
 0.3907315240977E+00 -0.4406737049573E+00  0.0000000000000E+00 -0.1398400625692E+00
 0.4163845524721E+00 -0.4656199538385E+00  0.0000000000000E+00 -0.1408307436984E+00
 0.4399275597674E+00 -0.4887737736439E+00  0.0000000000000E+00 -0.1440428326972E+00
 0.4614796651871E+00 -0.5102734516946E+00  0.0000000000000E+00 -0.1495970392463E+00
 0.4811093391335E+00 -0.5302121682568E+00  0.0000000000000E+00 -0.1575180001121E+00
 0.4988243065308E+00 -0.5486289872513E+00  0.0000000000000E+00 -0.1677027141281E+00
 0.5145543914988E+00 -0.5654918472055E+00  0.0000000000000E+00 -0.1799365851147E+00
 0.5281249726362E+00 -0.5806714206395E+00  0.0000000000000E+00 -0.1939124621243E+00
 0.5392386218777E+00 -0.5939234563926E+00  0.0000000000000E+00 -0.2092912029196E+00
 0.5474886790765E+00 -0.6049026720193E+00  0.0000000000000E+00 -0.2257558120545E+00
 0.5524515948056E+00 -0.6132515049077E+00  0.0000000000000E+00 -0.2430271404419E+00
 0.3740398825429E-01 -0.1059697951013E+00  0.0000000000000E+00 -0.1778986724218E+00
 0.8896998640913E-01 -0.1545888831890E+00  0.0000000000000E+00 -0.1679290896765E+00
 0.1375320040754E+00 -0.2004073455786E+00  0.0000000000000E+00 -0.1595920513605E+00
 0.1831022491160E+00 -0.2434444319638E+00  0.0000000000000E+00 -0.1521383998197E+00
 0.2256316208681E+00 -0.2836623247485E+00  0.0000000000000E+00 -0.1453215269512E+00
 0.2651001231995E+00 -0.3210542712499E+00  0.0000000000000E+00 -0.1392106401212E+00
 0.3015562504450E+00 -0.3556827717277E+00  0.0000000000000E+00 -0.1340347474645E+00
 0.3351239737108E+00 -0.3876858704940E+00  0.0000000000000E+00 -0.1300694761890E+00
 0.3659884057930E+00 -0.4172624660049E+00  0.0000000000000E+00 -0.1275689693652E+00
 0.3943662925591E+00 -0.4446429390350E+00  0.0000000000000E+00 -0.1267404938216E+00
 0.4204678702558E+00 -0.4700519298287E+00  0.0000000000000E+00 -0.1277513947903E+00
 0.4444637547023E+00 -0.4936768998721E+00  0.0000000000000E+00 -0.1307441783753E+00
 0.4664742106403E+00 -0.5156590425398E+00  0.0000000000000E+00 -0.1358323985305E+00
 0.4865676234250E+00 -0.5360932210091E+00  0.0000000000000E+00 -0.1430425883397E+00
 0.5047502453381E+00 -0.5550185765981E+00  0.0000000000000E+00 -0.1522866578030E+00
 0.5209495002834E+00 -0.5724020446388E+00  0.0000000000000E+00 -0.1633751935267E+00
 0.5349895496479E+00 -0.5881144201464E+00  0.0000000000000E+00 -0.1760351047753E+00
 0.5465736818532E+00 -0.6019134765483E+00  0.0000000000000E+00 -0.1899575946360E+00
 0.5552924797114E+00 -0.6134525417330E+00  0.0000000000000E+00 -0.2048357833516E+00
 0.5606864014029E+00 -0.6223408179661E+00  0.0000000000000E+00 -0.2203605730651E+00
 0.3763654702703E-01 -0.1065041085980E+00  0.0000000000000E+00 -0.1574701231927E+00
 0.8965857053790E-01 -0.1555562686771E+00  0.0000000000000E+00 -0.1485534870793E+00
 0.1385433429341E+00 -0.2016850671240E+00  0.0000000000000E+00 -0.1411879050237E+00
 0.1843790962518E+00 -0.2449828738238E+00  0.0000000000000E+00 -0.1346884685396E+00
 0.2271705012166E+00 -0.2854632717040E+00  0.0000000000000E+00 -0.1288051537053E+00
 0.2669274690364E+00 -0.3231476277037E+00  0.0000000000000E+00 -0.1235691734748E+00
 0.3037087354214E+00 -0.3581074384131E+00  0.0000000000000E+00 -0.1191602061032E+00
 0.3376350526875E+00 -0.3904767985732E+00  0.0000000000000E+00 -0.1158076828490E+00
 0.3688814685806E+00 -0.4204443283945E+00  0.0000000000000E+00 -0.1137299455857E+00
 0.3976539762000E+00 -0.4482299775171E+00  0.0000000000000E+00 -0.1131103957195E+00
 0.4241559706840E+00 -0.4740523860408E+00  0.0000000000000E+00 -0.1141017830235E+00
 0.4485565929077E+00 -0.4980988022228E+00  0.0000000000000E+00 -0.1168367034266E+00
 0.4709768715840E+00 -0.5205127302990E+00  0.0000000000000E+00 -0.1214200540615E+00
 0.4914851409839E+00 -0.5413905532223E+00  0.0000000000000E+00 -0.1278792018834E+00
 0.5100864934769E+00 -0.5607716635006E+00  0.0000000000000E+00 -0.1361397972420E+00
 0.5267062949163E+00 -0.5786222322540E+00  0.0000000000000E+00 -0.1460364515562E+00
 0.5411670402684E+00 -0.5948126227719E+00  0.0000000000000E+00 -0.1573283923307E+00
 0.5531706665176E+00 -0.6091004725859E+00  0.0000000000000E+00 -0.1697368538026E+00
 0.5623013075574E+00 -0.6211339272224E+00  0.0000000000000E+00 -0.1829702227237E+00
 0.5680654152016E+00 -0.6304901996314E+00  0.0000000000000E+00 -0.1967104900830E+00
 0.3784683692068E-01 -0.1069827116623E+00  0.0000000000000E+00 -0.1368586114902E+00
 0.9027986199744E-01 -0.1564250600184E+00  0.0000000000000E+00 -0.1290398734223E+00
 0.1394576703670E+00 -0.2028353123918E+00  0.0000000000000E+00 -0.1226480163638E+00
 0.1855333178070E+00 -0.2463682108237E+00  0.0000000000000E+00 -0.1170722922823E+00
 0.2285583395008E+00 -0.2870821703868E+00  0.0000000000000E+00 -0.1120722362326E+00
 0.2685695647432E+00 -0.3250239257413E+00  0.0000000000000E+00 -0.1076526253551E+00
 0.3056357537591E+00 -0.3602739065339E+00  0.0000000000000E+00 -0.1039521675929E+00
 0.3398758029808E+00 -0.3929636998000E+00  0.0000000000000E+00 -0.1011589763406E+00
 0.3714566124699E+00 -0.4232735716478E+00  0.0000000000000E+00 -0.9945742989136E-01
 0.4005750937168E+00 -0.4514146471668E+00  0.0000000000000E+00 -0.9900652820239E-01
 0.4274286944352E+00 -0.4776003314787E+00  0.0000000000000E+00 -0.9994227997401E-01
 0.4521850728790E+00 -0.5020174796653E+00  0.0000000000000E+00 -0.1023847249930E+00
 0.4749657792835E+00 -0.5248114612817E+00  0.0000000000000E+00 -0.1064285655472E+00
 0.4958391308547E+00 -0.5460800207789E+00  0.0000000000000E+00 -0.1121007655223E+00
 0.5148092664590E+00 -0.5658628573651E+00  0.0000000000000E+00 -0.1193395089077E+00
 0.5317996873034E+00 -0.5841254438046E+00  0.0000000000000E+00 -0.1280025250020E+00
 0.5466308116890E+00 -0.6007371835714E+00  0.0000000000000E+00 -0.1378804379782E+00
 0.5590016664580E+00 -0.6154538966549E+00  0.0000000000000E+00 -0.1487254351180E+00
 0.5684877279950E+00 -0.6279161249997E+00  0.0000000000000E+00 -0.1602676542781E+00
 0.5745647291273E+00 -0.6376717536693E+00  0.0000000000000E+00 -0.1721981038336E+00
 0.3803210566621E-01 -0.1074011245705E+00  0.0000000000000E+00 -0.1160853130339E+00
 0.9082624667169E-01 -0.1571862145359E+00  0.0000000000000E+00 -0.1094034542331E+00
 0.1402630825771E+00 -0.2038450448365E+00  0.0000000000000E+00 -0.1039881651008E+00
 0.1865500292036E+00 -0.2475846792392E+00  0.0000000000000E+00 -0.9931076866935E-01
 0.2297786304828E+00 -0.2885018300967E+00  0.0000000000000E+00 -0.9515104088535E-01
 0.2700092992020E+00 -0.3266654968636E+00  0.0000000000000E+00 -0.9149709629896E-01
 0.3073201393758E+00 -0.3621645160276E+00  0.0000000000000E+00 -0.8845394804032E-01
 0.3418291479495E+00 -0.3951290074537E+00  0.0000000000000E+00 -0.8617281755433E-01
 0.3736967240473E+00 -0.4257325448787E+00  0.0000000000000E+00 -0.8480596940429E-01
 0.4031122427495E+00 -0.4541789195637E+00  0.0000000000000E+00 -0.8448777214336E-01
 0.4302680989321E+00 -0.4806770777770E+00  0.0000000000000E+00 -0.8533580089296E-01
 0.4553305691202E+00 -0.5054134170260E+00  0.0000000000000E+00 -0.8745530618616E-01
 0.4784215679841E+00 -0.5285348182797E+00  0.0000000000000E+00 -0.9092930458058E-01
 0.4996094174486E+00 -0.5501402174231E+00  0.0000000000000E+00 -0.9578309712972E-01
 0.5188974473584E+00 -0.5702696032599E+00  0.0000000000000E+00 -0.1019662840056E+00
 0.5362074319693E+00 -0.5888877456567E+00  0.0000000000000E+00 -0.1093590548415E+00
 0.5513574353691E+00 -0.6058626747961E+00  0.0000000000000E+00 -0.1177831629650E+00
 0.5640426278711E+00 -0.6209472908873E+00  0.0000000000000E+00 -0.1270235797102E+00
 0.5738289604939E+00 -0.6337734508433E+00  0.0000000000000E+00 -0.1368389636631E+00
 0.5801652203536E+00 -0.6438630680968E+00  0.0000000000000E+00 -0.1469442021027E+00
 0.3819001906173E-01 -0.1077555446566E+00  0.0000000000000E+00 -0.9517280152536E-01
 0.9129127658491E-01 -0.1578320665982E+00  0.0000000000000E+00 -0.8966081805584E-01
 0.1409494839482E+00 -0.2047031976473E+00  0.0000000000000E+00 -0.8522509098178E-01
 0.1874165430351E+00 -0.2486188316224E+00  0.0000000000000E+00 -0.8142525994392E-01
 0.2308172129041E+00 -0.2897074907903E+00  0.0000000000000E+00 -0.7806999234108E-01
 0.2712318932496E+00 -0.3280570696991E+00  0.0000000000000E+00 -0.7513883392315E-01
 0.3087469816125E+00 -0.3637639166023E+00  0.0000000000000E+00 -0.7270927439666E-01
 0.3434801993432E+00 -0.3969573964529E+00  0.0000000000000E+00 -0.7089952402500E-01
 0.3755868644562E+00 -0.4278058322548E+00  0.0000000000000E+00 -0.6983147895618E-01
 0.4052502499164E+00 -0.4565070697236E+00  0.0000000000000E+00 -0.6961484525503E-01
 0.4326585819910E+00 -0.4832663702885E+00  0.0000000000000E+00 -0.7034744353569E-01
 0.4579769257272E+00 -0.5082696840631E+00  0.0000000000000E+00 -0.7211787802948E-01
 0.4813274546397E+00 -0.5316651045158E+00  0.0000000000000E+00 -0.7499611033613E-01
 0.5027785047263E+00 -0.5535525750682E+00  0.0000000000000E+00 -0.7900460041002E-01
 0.5223327126274E+00 -0.5739723198839E+00  0.0000000000000E+00 -0.8410339801391E-01
 0.5399102711358E+00 -0.5928883968901E+00  0.0000000000000E+00 -0.9019472908547E-01
 0.5553268154246E+00 -0.6101672357451E+00  0.0000000000000E+00 -0.9713168444969E-01
 0.5682733274360E+00 -0.6255583185685E+00  0.0000000000000E+00 -0.1047342711405E+00
 0.5783064327148E+00 -0.6386848363863E+00  0.0000000000000E+00 -0.1127959471211E+00
 0.5848519686939E+00 -0.6490464581081E+00  0.0000000000000E+00 -0.1210675169178E+00
 0.3831864705298E-01 -0.1080428262852E+00  0.0000000000000E+00 -0.7414481841803E-01
 0.9166962756546E-01 -0.1583562818172E+00  0.0000000000000E+00 -0.6982971285409E-01
 0.1415085300976E+00 -0.2054006169356E+00  0.0000000000000E+00 -0.6637637306009E-01
 0.1881223312056E+00 -0.2494595021578E+00  0.0000000000000E+00 -0.6343758381514E-01
 0.2316622740185E+00 -0.2906868331456E+00  0.0000000000000E+00 -0.6085772875911E-01
 0.2722249526936E+00 -0.3291858300565E+00  0.0000000000000E+00 -0.5861428831243E-01
 0.3099037193194E+00 -0.3650591696488E+00  0.0000000000000E+00 -0.5676228486411E-01
 0.3448163777274E+00 -0.3984359118391E+00  0.0000000000000E+00 -0.5539018065118E-01
 0.3771143990416E+00 -0.4294803905062E+00  0.0000000000000E+00 -0.5459104995652E-01
 0.4069762932976E+00 -0.4583858058516E+00  0.0000000000000E+00 -0.5445001806227E-01
 0.4345869852082E+00 -0.4853544977609E+00  0.0000000000000E+00 -0.5504414073852E-01
 0.4601105406961E+00 -0.5105720249602E+00  0.0000000000000E+00 -0.5644387396745E-01
 0.4836693171734E+00 -0.5341874269361E+00  0.0000000000000E+00 -0.5870493587983E-01
 0.5053316653435E+00 -0.5563014600518E+00  0.0000000000000E+00 -0.6184591772374E-01
 0.5250996397912E+00 -0.5769545178059E+00  0.0000000000000E+00 -0.6583653259600E-01
 0.5428920467820E+00 -0.5961099765209E+00  0.0000000000000E+00 -0.7060081283803E-01
 0.5585222454015E+00 -0.6136326560117E+00  0.0000000000000E+00 -0.7602366431498E-01
 0.5716772344846E+00 -0.6292686614780E+00  0.0000000000000E+00 -0.8196238187856E-01
 0.5819053221451E+00 -0.6426333741852E+00  0.0000000000000E+00 -0.8825059476008E-01
 0.5886135879263E+00 -0.6532082266602E+00  0.0000000000000E+00 -0.9468468012195E-01
 0.3841645445119E-01 -0.1082604666457E+00  0.0000000000000E+00 -0.5302605168749E-01
 0.9195706933069E-01 -0.1587538244165E+00  0.0000000000000E+00 -0.4992882878772E-01
 0.1419335866986E+00 -0.2059300205287E+00  0.0000000000000E+00 -0.4746029476788E-01
 0.1886589977744E+00 -0.2500977818755E+00  0.0000000000000E+00 -0.4536997168476E-01
 0.2323043549061E+00 -0.2914299880764E+00  0.0000000000000E+00 -0.4354311597953E-01
 0.2729785114871E+00 -0.3300414695437E+00  0.0000000000000E+00 -0.4196012790367E-01
 0.3107802164619E+00 -0.3660398299834E+00  0.0000000000000E+00 -0.4065749761431E-01
 0.3458275088849E+00 -0.3995540715340E+00  0.0000000000000E+00 -0.3969652974342E-01
 0.3782691009113E+00 -0.4307456586506E+00  0.0000000000000E+00 -0.3914275106308E-01
 0.4082800007059E+00 -0.4598043732441E+00  0.0000000000000E+00 -0.3905683396311E-01
 0.4360426789671E+00 -0.4869303822760E+00  0.0000000000000E+00 -0.3949432484447E-01
 0.4617204389533E+00 -0.5123089357482E+00  0.0000000000000E+00 -0.4050637231860E-01
 0.4854357649503E+00 -0.5360897714165E+00  0.0000000000000E+00 -0.4213348713947E-01
 0.5072570186591E+00 -0.5583742575671E+00  0.0000000000000E+00 -0.4438955988188E-01
 0.5271857945053E+00 -0.5792028959640E+00  0.0000000000000E+00 -0.4725336906781E-01
 0.5451397754791E+00 -0.5985384729252E+00  0.0000000000000E+00 -0.5067065954376E-01
 0.5609304098429E+00 -0.6162443976261E+00  0.0000000000000E+00 -0.5455871019604E-01
 0.5742413459687E+00 -0.6320638732492E+00  0.0000000000000E+00 -0.5881406986609E-01
 0.5846141761976E+00 -0.6456059372310E+00  0.0000000000000E+00 -0.6331480768773E-01
 0.5914416392190E+00 -0.6563380613845E+00  0.0000000000000E+00 -0.6791024349988E-01
 0.3848229454026E-01 -0.1084065959577E+00  0.0000000000000E+00 -0.3184192035301E-01
 0.9215044471958E-01 -0.1590209345658E+00  0.0000000000000E+00 -0.2997758472293E-01
 0.1422197003310E+00 -0.2062859689454E+00  0.0000000000000E+00 -0.2849569739622E-01
 0.1890202600100E+00 -0.2505270016187E+00  0.0000000000000E+00 -0.2724500068676E-01
 0.2327363557981E+00 -0.2919295453697E+00  0.0000000000000E+00 -0.2615522827136E-01
 0.2734850657710E+00 -0.3306162238942E+00  0.0000000000000E+00 -0.2521322226837E-01
 0.3113688209855E+00 -0.3666980095573E+00  0.0000000000000E+00 -0.2443975210037E-01
 0.3465058986769E+00 -0.4003039462200E+00  0.0000000000000E+00 -0.2387084219807E-01
 0.3790432314494E+00 -0.4315936433630E+00  0.0000000000000E+00 -0.2354541937273E-01
 0.4091535267636E+00 -0.4607546358154E+00  0.0000000000000E+00 -0.2349982795445E-01
 0.4370176308211E+00 -0.4879856516311E+00  0.0000000000000E+00 -0.2376759431692E-01
 0.4627983335125E+00 -0.5134717292543E+00  0.0000000000000E+00 -0.2437973601350E-01
 0.4866181992069E+00 -0.5373630674594E+00  0.0000000000000E+00 -0.2536084808542E-01
 0.5085455960264E+00 -0.5597614427139E+00  0.0000000000000E+00 -0.2671951172750E-01
 0.5285817975491E+00 -0.5807074171332E+00  0.0000000000000E+00 -0.2844315578842E-01
 0.5466436939806E+00 -0.6001633416000E+00  0.0000000000000E+00 -0.3049921988785E-01
 0.5625413603074E+00 -0.6179915851704E+00  0.0000000000000E+00 -0.3283784906286E-01
 0.5759560411632E+00 -0.6339332436737E+00  0.0000000000000E+00 -0.3539634939359E-01
 0.5864246278083E+00 -0.6475928989410E+00  0.0000000000000E+00 -0.3810031252929E-01
 0.5933301480640E+00 -0.6584285618251E+00  0.0000000000000E+00 -0.4085720971967E-01
 0.3851540490031E-01 -0.1084799709582E+00  0.0000000000000E+00 -0.1061836306829E-01
 0.9224765588135E-01 -0.1591551132892E+00  0.0000000000000E+00 -0.9995917885373E-02
 0.1423635787540E+00 -0.2064648458064E+00  0.0000000000000E+00 -0.9501825775001E-02
 0.1892019357548E+00 -0.2507427208303E+00  0.0000000000000E+00 -0.9085507257425E-02
 0.2329535406826E+00 -0.2921805607219E+00  0.0000000000000E+00 -0.8723305055982E-02
 0.2737395990927E+00 -0.3309049013325E+00  0.0000000000000E+00 -0.8410600974616E-02
 0.3116644079741E+00 -0.3670284241773E+00  0.0000000000000E+00 -0.8154130710182E-02
 0.3468463878267E+00 -0.4006802178159E+00  0.0000000000000E+00 -0.7965775496248E-02
 0.3794315993425E+00 -0.4320189815717E+00  0.0000000000000E+00 -0.7858445339755E-02
 0.4095916098725E+00 -0.4612311363531E+00  0.0000000000000E+00 -0.7844244520612E-02
 0.4375064570155E+00 -0.4885146938772E+00  0.0000000000000E+00 -0.7934381184826E-02
 0.4633386727748E+00 -0.5140545853757E+00  0.0000000000000E+00 -0.8139249175414E-02
 0.4872108603467E+00 -0.5380012389379E+00  0.0000000000000E+00 -0.8467095302584E-02
 0.5091913905860E+00 -0.5604566350005E+00  0.0000000000000E+00 -0.8920821321437E-02
 0.5292813718470E+00 -0.5814613617086E+00  0.0000000000000E+00 -0.9496263462225E-02
 0.5473972839695E+00 -0.6009775387278E+00  0.0000000000000E+00 -0.1018256601163E-01
 0.5633484851227E+00 -0.6188669847044E+00  0.0000000000000E+00 -0.1096307184648E-01
 0.5768149682604E+00 -0.6348696911136E+00  0.0000000000000E+00 -0.1181677808537E-01
 0.5873312036298E+00 -0.6485879431466E+00  0.0000000000000E+00 -0.1271867172123E-01
 0.5942753064323E+00 -0.6594749582151E+00  0.0000000000000E+00 -0.1363752124757E-01
 0.3851540489602E-01 -0.1084799709466E+00  0.0000000000000E+00  0.1061837068406E-01
 0.9224765586936E-01 -0.1591551132711E+00  0.0000000000000E+00  0.9995924300517E-02
 0.1423635787381E+00 -0.2064648457853E+00  0.0000000000000E+00  0.9501831162894E-02
 0.1892019357371E+00 -0.2507427208080E+00  0.0000000000000E+00  0.9085511743443E-02
 0.2329535406640E+00 -0.2921805606994E+00  0.0000000000000E+00  0.8723308742060E-02
 0.2737395990738E+00 -0.3309049013103E+00  0.0000000000000E+00  0.8410603951758E-02
 0.3116644079554E+00 -0.3670284241560E+00  0.0000000000000E+00  0.8154133064064E-02
 0.3468463878089E+00 -0.4006802177960E+00  0.0000000000000E+00  0.7965777308943E-02
 0.3794315993262E+00 -0.4320189815537E+00  0.0000000000000E+00  0.7858446690143E-02
 0.4095916098584E+00 -0.4612311363376E+00  0.0000000000000E+00  0.7844245484811E-02
 0.4375064570038E+00 -0.4885146938645E+00  0.0000000000000E+00  0.7934381834511E-02
 0.4633386727656E+00 -0.5140545853657E+00  0.0000000000000E+00  0.8139249576433E-02
 0.4872108603397E+00 -0.5380012389304E+00  0.0000000000000E+00  0.8467095512390E-02
 0.5091913905809E+00 -0.5604566349950E+00  0.0000000000000E+00  0.8920821388720E-02
 0.5292813718434E+00 -0.5814613617047E+00  0.0000000000000E+00  0.9496263425724E-02
 0.5473972839672E+00 -0.6009775387252E+00  0.0000000000000E+00  0.1018256590271E-01
 0.5633484851213E+00 -0.6188669847028E+00  0.0000000000000E+00  0.1096307168866E-01
 0.5768149682594E+00 -0.6348696911125E+00  0.0000000000000E+00  0.1181677789914E-01
 0.5873312036283E+00 -0.6485879431452E+00  0.0000000000000E+00  0.1271867152843E-01
 0.5942753064291E+00 -0.6594749582122E+00  0.0000000000000E+00  0.1363752107993E-01
 0.3848229452745E-01 -0.1084065959231E+00  0.0000000000000E+00  0.3184192795933E-01
 0.9215044468375E-01 -0.1590209345116E+00  0.0000000000000E+00  0.2997759113126E-01
 0.1422197002836E+00 -0.2062859688823E+00  0.0000000000000E+00  0.2849570277815E-01
 0.1890202599569E+00 -0.2505270015523E+00  0.0000000000000E+00  0.2724500516672E-01
 0.2327363557423E+00 -0.2919295453025E+00  0.0000000000000E+00  0.2615523195098E-01
 0.2734850657144E+00 -0.3306162238279E+00  0.0000000000000E+00  0.2521322523884E-01
 0.3113688209296E+00 -0.3666980094934E+00  0.0000000000000E+00  0.2443975444771E-01
 0.3465058986237E+00 -0.4003039461604E+00  0.0000000000000E+00  0.2387084400472E-01
 0.3790432314007E+00 -0.4315936433093E+00  0.0000000000000E+00  0.2354542071784E-01
 0.4091535267213E+00 -0.4607546357692E+00  0.0000000000000E+00  0.2349982891427E-01
 0.4370176307860E+00 -0.4879856515931E+00  0.0000000000000E+00  0.2376759496310E-01
 0.4627983334848E+00 -0.5134717292244E+00  0.0000000000000E+00  0.2437973641179E-01
 0.4866181991861E+00 -0.5373630674369E+00  0.0000000000000E+00  0.2536084829314E-01
 0.5085455960112E+00 -0.5597614426974E+00  0.0000000000000E+00  0.2671951179331E-01
 0.5285817975385E+00 -0.5807074171216E+00  0.0000000000000E+00  0.2844315575095E-01
 0.5466436939737E+00 -0.6001633415922E+00  0.0000000000000E+00  0.3049921977840E-01
 0.5625413603031E+00 -0.6179915851655E+00  0.0000000000000E+00  0.3283784890499E-01
 0.5759560411601E+00 -0.6339332436703E+00  0.0000000000000E+00  0.3539634920757E-01
 0.5864246278040E+00 -0.6475928989368E+00  0.0000000000000E+00  0.3810031233638E-01
 0.5933301480544E+00 -0.6584285618163E+00  0.0000000000000E+00  0.4085720955091E-01
 0.3841645443004E-01 -0.1082604665884E+00  0.0000000000000E+00  0.5302605927500E-01
 0.9195706927151E-01 -0.1587538243268E+00  0.0000000000000E+00  0.4992883518248E-01
 0.1419335866204E+00 -0.2059300204244E+00  0.0000000000000E+00  0.4746030013793E-01
 0.1886589976869E+00 -0.2500977817656E+00  0.0000000000000E+00  0.4536997615261E-01
 0.2323043548140E+00 -0.2914299879653E+00  0.0000000000000E+00  0.4354311964625E-01
 0.2729785113935E+00 -0.3300414694340E+00  0.0000000000000E+00  0.4196013086077E-01
 0.3107802163694E+00 -0.3660398298776E+00  0.0000000000000E+00  0.4065749994855E-01
 0.3458275087966E+00 -0.3995540714351E+00  0.0000000000000E+00  0.3969653153800E-01
 0.3782691008307E+00 -0.4307456585615E+00  0.0000000000000E+00  0.3914275239772E-01
 0.4082800006356E+00 -0.4598043731674E+00  0.0000000000000E+00  0.3905683491423E-01
 0.4360426789088E+00 -0.4869303822129E+00  0.0000000000000E+00  0.3949432548367E-01
 0.4617204389074E+00 -0.5123089356986E+00  0.0000000000000E+00  0.4050637271147E-01
 0.4854357649155E+00 -0.5360897713790E+00  0.0000000000000E+00  0.4213348734305E-01
 0.5072570186339E+00 -0.5583742575397E+00  0.0000000000000E+00  0.4438955994468E-01
 0.5271857944877E+00 -0.5792028959446E+00  0.0000000000000E+00  0.4725336902843E-01
 0.5451397754675E+00 -0.5985384729122E+00  0.0000000000000E+00  0.5067065943335E-01
 0.5609304098355E+00 -0.6162443976177E+00  0.0000000000000E+00  0.5455871003804E-01
 0.5742413459635E+00 -0.6320638732433E+00  0.0000000000000E+00  0.5881406968031E-01
 0.5846141761905E+00 -0.6456059372241E+00  0.0000000000000E+00  0.6331480749457E-01
 0.5914416392031E+00 -0.6563380613700E+00  0.0000000000000E+00  0.6791024332904E-01
 0.3831864702382E-01 -0.1080428262056E+00  0.0000000000000E+00  0.7414482597751E-01
 0.9166962748372E-01 -0.1583562816930E+00  0.0000000000000E+00  0.6982971922866E-01
 0.1415085299896E+00 -0.2054006167912E+00  0.0000000000000E+00  0.6637637841244E-01
 0.1881223310847E+00 -0.2494595020058E+00  0.0000000000000E+00  0.6343758826490E-01
 0.2316622738914E+00 -0.2906868329918E+00  0.0000000000000E+00  0.6085773240652E-01
 0.2722249525640E+00 -0.3291858299045E+00  0.0000000000000E+00  0.5861429124952E-01
 0.3099037191912E+00 -0.3650591695020E+00  0.0000000000000E+00  0.5676228717876E-01
 0.3448163776049E+00 -0.3984359117017E+00  0.0000000000000E+00  0.5539018242769E-01
 0.3771143989295E+00 -0.4294803903824E+00  0.0000000000000E+00  0.5459105127545E-01
 0.4069762931999E+00 -0.4583858057449E+00  0.0000000000000E+00  0.5445001900032E-01
 0.4345869851271E+00 -0.4853544976731E+00  0.0000000000000E+00  0.5504414136729E-01
 0.4601105406320E+00 -0.5105720248911E+00  0.0000000000000E+00  0.5644387435219E-01
 0.4836693171250E+00 -0.5341874268838E+00  0.0000000000000E+00  0.5870493607718E-01
 0.5053316653083E+00 -0.5563014600135E+00  0.0000000000000E+00  0.6184591778197E-01
 0.5250996397666E+00 -0.5769545177787E+00  0.0000000000000E+00  0.6583653255364E-01
 0.5428920467656E+00 -0.5961099765025E+00  0.0000000000000E+00  0.7060081272613E-01
 0.5585222453911E+00 -0.6136326559997E+00  0.0000000000000E+00  0.7602366415678E-01
 0.5716772344771E+00 -0.6292686614696E+00  0.0000000000000E+00  0.8196238169320E-01
 0.5819053221353E+00 -0.6426333741754E+00  0.0000000000000E+00  0.8825059456655E-01
 0.5886135879044E+00 -0.6532082266401E+00  0.0000000000000E+00  0.9468467994791E-01
 0.3819001902500E-01 -0.1077555445556E+00  0.0000000000000E+00  0.9517280904786E-01
 0.9129127648174E-01 -0.1578320664408E+00  0.0000000000000E+00  0.8966082440380E-01
 0.1409494838120E+00 -0.2047031974647E+00  0.0000000000000E+00  0.8522509631071E-01
 0.1874165428826E+00 -0.2486188314301E+00  0.0000000000000E+00  0.8142526436964E-01
 0.2308172127435E+00 -0.2897074905955E+00  0.0000000000000E+00  0.7806999596278E-01
 0.2712318930856E+00 -0.3280570695063E+00  0.0000000000000E+00  0.7513883683361E-01
 0.3087469814499E+00 -0.3637639164159E+00  0.0000000000000E+00  0.7270927668523E-01
 0.3434801991876E+00 -0.3969573962780E+00  0.0000000000000E+00  0.7089952577749E-01
 0.3755868643136E+00 -0.4278058320972E+00  0.0000000000000E+00  0.6983148025420E-01
 0.4052502497918E+00 -0.4565070695876E+00  0.0000000000000E+00  0.6961484617570E-01
 0.4326585818876E+00 -0.4832663701765E+00  0.0000000000000E+00  0.7034744415059E-01
 0.4579769256455E+00 -0.5082696839749E+00  0.0000000000000E+00  0.7211787840336E-01
 0.4813274545778E+00 -0.5316651044489E+00  0.0000000000000E+00  0.7499611052511E-01
 0.5027785046812E+00 -0.5535525750191E+00  0.0000000000000E+00  0.7900460046210E-01
 0.5223327125957E+00 -0.5739723198489E+00  0.0000000000000E+00  0.8410339796754E-01
 0.5399102711146E+00 -0.5928883968661E+00  0.0000000000000E+00  0.9019472897150E-01
 0.5553268154109E+00 -0.6101672357293E+00  0.0000000000000E+00  0.9713168429110E-01
 0.5682733274262E+00 -0.6255583185574E+00  0.0000000000000E+00  0.1047342709556E+00
 0.5783064327021E+00 -0.6386848363737E+00  0.0000000000000E+00  0.1127959469272E+00
 0.5848519686663E+00 -0.6490464580826E+00  0.0000000000000E+00  0.1210675167397E+00
 0.3803210562251E-01 -0.1074011244491E+00  0.0000000000000E+00  0.1160853205107E+00
 0.9082624654855E-01 -0.1571862143471E+00  0.0000000000000E+00  0.1094034605483E+00
 0.1402630824147E+00 -0.2038450446178E+00  0.0000000000000E+00  0.1039881704008E+00
 0.1865500290218E+00 -0.2475846790090E+00  0.0000000000000E+00  0.9931077306519E-01
 0.2297786302909E+00 -0.2885018298633E+00  0.0000000000000E+00  0.9515104447498E-01
 0.2700092990056E+00 -0.3266654966321E+00  0.0000000000000E+00  0.9149709917617E-01
 0.3073201391805E+00 -0.3621645158032E+00  0.0000000000000E+00  0.8845395029633E-01
 0.3418291477621E+00 -0.3951290072429E+00  0.0000000000000E+00  0.8617281927686E-01
 0.3736967238752E+00 -0.4257325446883E+00  0.0000000000000E+00  0.8480597067627E-01
 0.4031122425991E+00 -0.4541789193992E+00  0.0000000000000E+00  0.8448777304243E-01
 0.4302680988071E+00 -0.4806770776414E+00  0.0000000000000E+00  0.8533580149057E-01
 0.4553305690213E+00 -0.5054134169192E+00  0.0000000000000E+00  0.8745530654650E-01
 0.4784215679091E+00 -0.5285348181986E+00  0.0000000000000E+00  0.9092930475907E-01
 0.4996094173937E+00 -0.5501402173633E+00  0.0000000000000E+00  0.9578309717397E-01
 0.5188974473195E+00 -0.5702696032171E+00  0.0000000000000E+00  0.1019662839540E+00
 0.5362074319430E+00 -0.5888877456271E+00  0.0000000000000E+00  0.1093590547247E+00
 0.5513574353519E+00 -0.6058626747763E+00  0.0000000000000E+00  0.1177831628058E+00
 0.5640426278587E+00 -0.6209472908733E+00  0.0000000000000E+00  0.1270235795259E+00
 0.5738289604786E+00 -0.6337734508277E+00  0.0000000000000E+00  0.1368389634688E+00
 0.5801652203206E+00 -0.6438630680661E+00  0.0000000000000E+00  0.1469442019200E+00
 0.3784683687071E-01 -0.1069827115217E+00  0.0000000000000E+00  0.1368586189132E+00
 0.9027986185612E-01 -0.1564250598004E+00  0.0000000000000E+00  0.1290398796989E+00
 0.1394576701809E+00 -0.2028353121398E+00  0.0000000000000E+00  0.1226480216295E+00
 0.1855333175985E+00 -0.2463682105585E+00  0.0000000000000E+00  0.1170722966426E+00
 0.2285583392803E+00 -0.2870821701175E+00  0.0000000000000E+00  0.1120722397839E+00
 0.2685695645167E+00 -0.3250239254735E+00  0.0000000000000E+00  0.1076526281925E+00
 0.3056357535331E+00 -0.3602739062737E+00  0.0000000000000E+00  0.1039521698099E+00
 0.3398758027633E+00 -0.3929636995549E+00  0.0000000000000E+00  0.1011589780273E+00
 0.3714566122697E+00 -0.4232735714260E+00  0.0000000000000E+00  0.9945743113220E-01
 0.4005750935414E+00 -0.4514146469749E+00  0.0000000000000E+00  0.9900652907561E-01
 0.4274286942893E+00 -0.4776003313204E+00  0.0000000000000E+00  0.9994228055094E-01
 0.4521850727635E+00 -0.5020174795404E+00  0.0000000000000E+00  0.1023847253371E+00
 0.4749657791957E+00 -0.5248114611868E+00  0.0000000000000E+00  0.1064285657131E+00
 0.4958391307902E+00 -0.5460800207087E+00  0.0000000000000E+00  0.1121007655570E+00
 0.5148092664130E+00 -0.5658628573144E+00  0.0000000000000E+00  0.1193395088496E+00
 0.5317996872719E+00 -0.5841254437691E+00  0.0000000000000E+00  0.1280025248815E+00
 0.5466308116680E+00 -0.6007371835472E+00  0.0000000000000E+00  0.1378804378181E+00
 0.5590016664429E+00 -0.6154538966376E+00  0.0000000000000E+00  0.1487254349343E+00
 0.5684877279769E+00 -0.6279161249812E+00  0.0000000000000E+00  0.1602676540834E+00
 0.5745647290895E+00 -0.6376717536338E+00  0.0000000000000E+00  0.1721981036445E+00
 0.3763654697166E-01 -0.1065041084395E+00  0.0000000000000E+00  0.1574701305541E+00
 0.8965857038054E-01 -0.1555562684324E+00  0.0000000000000E+00  0.1485534933119E+00
 0.1385433427272E+00 -0.2016850668420E+00  0.0000000000000E+00  0.1411879102500E+00
 0.1843790960200E+00 -0.2449828735270E+00  0.0000000000000E+00  0.1346884728586E+00
 0.2271705009706E+00 -0.2854632714021E+00  0.0000000000000E+00  0.1288051572119E+00
 0.2669274687826E+00 -0.3231476274026E+00  0.0000000000000E+00  0.1235691762657E+00
 0.3037087351670E+00 -0.3581074381195E+00  0.0000000000000E+00  0.1191602082748E+00
 0.3376350524418E+00 -0.3904767982958E+00  0.0000000000000E+00  0.1158076844940E+00
 0.3688814683538E+00 -0.4204443281429E+00  0.0000000000000E+00  0.1137299467903E+00
 0.3976539760009E+00 -0.4482299772991E+00  0.0000000000000E+00  0.1131103965627E+00
 0.4241559705181E+00 -0.4740523858607E+00  0.0000000000000E+00  0.1141017835764E+00
 0.4485565927762E+00 -0.4980988020807E+00  0.0000000000000E+00  0.1168367037518E+00
 0.4709768714839E+00 -0.5205127301908E+00  0.0000000000000E+00  0.1214200542126E+00
 0.4914851409100E+00 -0.5413905531419E+00  0.0000000000000E+00  0.1278792019069E+00
 0.5100864934238E+00 -0.5607716634421E+00  0.0000000000000E+00  0.1361397971759E+00
 0.5267062948792E+00 -0.5786222322123E+00  0.0000000000000E+00  0.1460364514312E+00
 0.5411670402432E+00 -0.5948126227429E+00  0.0000000000000E+00  0.1573283921692E+00
 0.5531706664994E+00 -0.6091004725650E+00  0.0000000000000E+00  0.1697368536195E+00
 0.5623013075367E+00 -0.6211339272008E+00  0.0000000000000E+00  0.1829702225283E+00
 0.5680654151598E+00 -0.6304901995916E+00  0.0000000000000E+00  0.1967104898872E+00
 0.3740398819453E-01 -0.1059697949267E+00  0.0000000000000E+00  0.1778986797144E+00
 0.8896998623827E-01 -0.1545888829205E+00  0.0000000000000E+00  0.1679290958602E+00
 0.1375320038513E+00 -0.2004073452703E+00  0.0000000000000E+00  0.1595920565427E+00
 0.1831022488646E+00 -0.2434444316395E+00  0.0000000000000E+00  0.1521384040918E+00
 0.2256316206001E+00 -0.2836623244178E+00  0.0000000000000E+00  0.1453215304069E+00
 0.2651001229216E+00 -0.3210542709188E+00  0.0000000000000E+00  0.1392106428591E+00
 0.3015562501649E+00 -0.3556827714034E+00  0.0000000000000E+00  0.1340347495843E+00
 0.3351239734391E+00 -0.3876858701866E+00  0.0000000000000E+00  0.1300694777865E+00
 0.3659884055413E+00 -0.4172624657252E+00  0.0000000000000E+00  0.1275689705287E+00
 0.3943662923377E+00 -0.4446429387922E+00  0.0000000000000E+00  0.1267404946308E+00
 0.4204678700711E+00 -0.4700519296280E+00  0.0000000000000E+00  0.1277513953160E+00
 0.4444637545557E+00 -0.4936768997135E+00  0.0000000000000E+00  0.1307441786791E+00
 0.4664742105286E+00 -0.5156590424188E+00  0.0000000000000E+00  0.1358323986645E+00
 0.4865676233421E+00 -0.5360932209189E+00  0.0000000000000E+00  0.1430425883499E+00
 0.5047502452779E+00 -0.5550185765318E+00  0.0000000000000E+00  0.1522866577273E+00
 0.5209495002406E+00 -0.5724020445907E+00  0.0000000000000E+00  0.1633751933958E+00
 0.5349895496182E+00 -0.5881144201122E+00  0.0000000000000E+00  0.1760351046117E+00
 0.5465736818316E+00 -0.6019134765233E+00  0.0000000000000E+00  0.1899575944533E+00
 0.5552924796882E+00 -0.6134525417084E+00  0.0000000000000E+00  0.2048357831559E+00
 0.5606864013579E+00 -0.6223408179226E+00  0.0000000000000E+00  0.2203605728619E+00
 0.3715234946115E-01 -0.1053849555875E+00  0.0000000000000E+00  0.1981247307724E+00
 0.8822294807275E-01 -0.1535333865859E+00  0.0000000000000E+00  0.1871530944530E+00
 0.1364374422195E+00 -0.1990172309501E+00  0.0000000000000E+00  0.1778457396170E+00
 0.1817199089012E+00 -0.2417710124664E+00  0.0000000000000E+00  0.1694016208884E+00
 0.2239605440141E+00 -0.2816989407780E+00  0.0000000000000E+00  0.1615931407508E+00
 0.2631069059929E+00 -0.3187638494588E+00  0.0000000000000E+00  0.1545409662320E+00
 0.2991976054913E+00 -0.3530197523870E+00  0.0000000000000E+00  0.1485328448249E+00
 0.3323616838611E+00 -0.3846105674111E+00  0.0000000000000E+00  0.1438958123082E+00
 0.3627965530161E+00 -0.4137477022248E+00  0.0000000000000E+00  0.1409214978753E+00
 0.3907315238556E+00 -0.4406737046914E+00  0.0000000000000E+00  0.1398400633404E+00
 0.4163845522696E+00 -0.4656199536183E+00  0.0000000000000E+00  0.1408307441937E+00
 0.4399275596066E+00 -0.4887737734698E+00  0.0000000000000E+00  0.1440428329770E+00
 0.4614796650642E+00 -0.5102734515616E+00  0.0000000000000E+00  0.1495970393612E+00
 0.4811093390420E+00 -0.5302121681572E+00  0.0000000000000E+00  0.1575180001073E+00
 0.4988243064636E+00 -0.5486289871773E+00  0.0000000000000E+00  0.1677027140411E+00
 0.5145543914499E+00 -0.5654918471507E+00  0.0000000000000E+00  0.1799365849764E+00
 0.5281249726013E+00 -0.5806714205995E+00  0.0000000000000E+00  0.1939124619577E+00
 0.5392386218522E+00 -0.5939234563631E+00  0.0000000000000E+00  0.2092912027374E+00
 0.5474886790509E+00 -0.6049026719915E+00  0.0000000000000E+00  0.2257558118588E+00
 0.5524515947582E+00 -0.6132515048614E+00  0.0000000000000E+00  0.2430271402310E+00
 0.3688528312159E-01 -0.1047555184525E+00  0.0000000000000E+00  0.2181306471316E+00
 0.8742759988136E-01 -0.1524017909542E+00  0.0000000000000E+00  0.2062137448839E+00
 0.1352754346834E+00 -0.1975319583376E+00  0.0000000000000E+00  0.1959353653013E+00
 0.1802515257115E+00 -0.2399831715901E+00  0.0000000000000E+00  0.1864579849624E+00
 0.2221784570388E+00 -0.2795951443258E+00  0.0000000000000E+00  0.1775916357074E+00
 0.2609693896908E+00 -0.3162985959994E+00  0.0000000000000E+00  0.1695239490481E+00
 0.2966541129713E+00 -0.3501402666509E+00  0.0000000000000E+00  0.1626118148856E+00
 0.3293691685174E+00 -0.3812724419578E+00  0.0000000000000E+00  0.1572390767271E+00
 0.3593268656494E+00 -0.4099216220450E+00  0.0000000000000E+00  0.1537362176045E+00
 0.3867710497492E+00 -0.4363444014972E+00  0.0000000000000E+00  0.1523547434443E+00
 0.4119282461522E+00 -0.4607795949163E+00  0.0000000000000E+00  0.1532823822794E+00
 0.4349712843304E+00 -0.4834138025159E+00  0.0000000000000E+00  0.1566715008870E+00
 0.4560175355619E+00 -0.5043815735996E+00  0.0000000000000E+00  0.1626485744455E+00
 0.4751355487254E+00 -0.5237741876867E+00  0.0000000000000E+00  0.1712356590262E+00
 0.4923349870885E+00 -0.5416309680139E+00  0.0000000000000E+00  0.1823139488974E+00
 0.5075487217284E+00 -0.5579214369850E+00  0.0000000000000E+00  0.1956423347021E+00
 0.5206029756194E+00 -0.5725157076755E+00  0.0000000000000E+00  0.2108767033238E+00
 0.5311970819498E+00 -0.5851648487873E+00  0.0000000000000E+00  0.2276458986869E+00
 0.5389220960365E+00 -0.5955199942225E+00  0.0000000000000E+00  0.2456265029573E+00
 0.5433895091348E+00 -0.6032557285729E+00  0.0000000000000E+00  0.2645931013748E+00
 0.3660694230916E-01 -0.1040882081009E+00  0.0000000000000E+00  0.2379009745207E+00
 0.8659550173442E-01 -0.1512077554197E+00  0.0000000000000E+00  0.2251013960520E+00
 0.1340638834746E+00 -0.1959710510658E+00  0.0000000000000E+00  0.2138484930548E+00
 0.1787189554193E+00 -0.2381039767751E+00  0.0000000000000E+00  0.2032875158083E+00
 0.2203088871094E+00 -0.2773753627666E+00  0.0000000000000E+00  0.1932882618222E+00
 0.2587112489565E+00 -0.3136828814498E+00  0.0000000000000E+00  0.1841230085619E+00
 0.2939489284149E+00 -0.3470680654571E+00  0.0000000000000E+00  0.1762290945591E+00
 0.3261690730079E+00 -0.3776947272830E+00  0.0000000000000E+00  0.1700525703409E+00
 0.3556018983756E+00 -0.4058074382004E+00  0.0000000000000E+00  0.1659636343944E+00
 0.3825079277685E+00 -0.4316788772808E+00  0.0000000000000E+00  0.1642328496468E+00
 0.4071230699092E+00 -0.4555559437083E+00  0.0000000000000E+00  0.1650521940191E+00
 0.4296203645791E+00 -0.4776236195882E+00  0.0000000000000E+00  0.1685726329172E+00
 0.4501144981349E+00 -0.4980115288876E+00  0.0000000000000E+00  0.1749251498356E+00
 0.4686739544610E+00 -0.5168086652716E+00  0.0000000000000E+00  0.1841291427088E+00
 0.4853109731442E+00 -0.5340551158993E+00  0.0000000000000E+00  0.1960498103152E+00
 0.4999626597476E+00 -0.5497231626510E+00  0.0000000000000E+00  0.2104183445652E+00
 0.5124560688219E+00 -0.5636823669424E+00  0.0000000000000E+00  0.2268491471895E+00
 0.5224841134460E+00 -0.5756758307080E+00  0.0000000000000E+00  0.2449350633180E+00
 0.5296288410593E+00 -0.5853442304463E+00  0.0000000000000E+00  0.2643505922719E+00
 0.5335310523603E+00 -0.5923900641488E+00  0.0000000000000E+00  0.2849543476736E+00
 0.3632203295779E-01 -0.1033906184034E+00  0.0000000000000E+00  0.2574227598014E+00
 0.8573978113040E-01 -0.1499667506165E+00  0.0000000000000E+00  0.2438087435896E+00
 0.1328229969481E+00 -0.1943565040398E+00  0.0000000000000E+00  0.2315738057015E+00
 0.1771465752351E+00 -0.2361591152540E+00  0.0000000000000E+00  0.2198701186625E+00
 0.2183777054744E+00 -0.2750664171536E+00  0.0000000000000E+00  0.2086534941446E+00
 0.2563581542716E+00 -0.3109430919433E+00  0.0000000000000E+00  0.1983008408702E+00
 0.2911068615161E+00 -0.3438285606021E+00  0.0000000000000E+00  0.1893420134134E+00
 0.3227854631286E+00 -0.3739020835022E+00  0.0000000000000E+00  0.1822904341438E+00
 0.3516455414714E+00 -0.4014297142688E+00  0.0000000000000E+00  0.1775561577751E+00
 0.3779666292918E+00 -0.4267024227759E+00  0.0000000000000E+00  0.1754256260169E+00
 0.4019948015466E+00 -0.4499757978491E+00  0.0000000000000E+00  0.1760898289530E+00
 0.4239022477170E+00 -0.4714319480631E+00  0.0000000000000E+00  0.1796928509230E+00
 0.4437995629279E+00 -0.4911938973060E+00  0.0000000000000E+00  0.1863689658249E+00
 0.4617547001560E+00 -0.5093475919617E+00  0.0000000000000E+00  0.1961355958689E+00
 0.4777831994258E+00 -0.5259344314878E+00  0.0000000000000E+00  0.2088431016964E+00
 0.4918284387307E+00 -0.5409315361672E+00  0.0000000000000E+00  0.2241947718834E+00
 0.5037192244838E+00 -0.5542090344438E+00  0.0000000000000E+00  0.2417571101946E+00
 0.5131382656546E+00 -0.5654982888422E+00  0.0000000000000E+00  0.2610785918839E+00
 0.5196477505080E+00 -0.5744185430644E+00  0.0000000000000E+00  0.2818355841248E+00
 0.5229064515160E+00 -0.5806895874538E+00  0.0000000000000E+00  0.3040159071617E+00
 0.3603588373070E-01 -0.1026713132852E+00  0.0000000000000E+00  0.2766859172448E+00
 0.8487533987422E-01 -0.1486962829052E+00  0.0000000000000E+00  0.2623310811926E+00
 0.1315755260925E+00 -0.1927130233767E+00  0.0000000000000E+00  0.2491009854611E+00
 0.1755614268286E+00 -0.2341770289320E+00  0.0000000000000E+00  0.2361851687683E+00
 0.2164131276132E+00 -0.2726975072916E+00  0.0000000000000E+00  0.2236565243047E+00
 0.2539376420220E+00 -0.3081074823296E+00  0.0000000000000E+00  0.2120189718699E+00
 0.2881541550526E+00 -0.3404485874501E+00  0.0000000000000E+00  0.2019074916552E+00
 0.3192435510662E+00 -0.3699203090628E+00  0.0000000000000E+00  0.1939075154130E+00
 0.3474827214212E+00 -0.3968140519360E+00  0.0000000000000E+00  0.1884681336204E+00
 0.3731727340196E+00 -0.4214414536846E+00  0.0000000000000E+00  0.1858874448548E+00
 0.3965705959143E+00 -0.4440673622870E+00  0.0000000000000E+00  0.1863491043206E+00
 0.4178461910015E+00 -0.4648693777732E+00  0.0000000000000E+00  0.1899835718738E+00
 0.4371040397287E+00 -0.4839616716276E+00  0.0000000000000E+00  0.1969269804119E+00
 0.4544104900184E+00 -0.5014257078328E+00  0.0000000000000E+00  0.2071960544941E+00
 0.4697848548358E+00 -0.5173043647523E+00  0.0000000000000E+00  0.2206295624942E+00
 0.4831799256351E+00 -0.5315827838482E+00  0.0000000000000E+00  0.2369054594500E+00
 0.4944291742884E+00 -0.5441350660195E+00  0.0000000000000E+00  0.2555345941203E+00
 0.5032013819745E+00 -0.5546774941560E+00  0.0000000000000E+00  0.2760055070655E+00
 0.5090220642026E+00 -0.5627909394817E+00  0.0000000000000E+00  0.2979925582326E+00
 0.5115497165237E+00 -0.5681930650680E+00  0.0000000000000E+00  0.3216551754402E+00
 0.3575454937124E-01 -0.1019399673876E+00  0.0000000000000E+00  0.2956836714580E+00
 0.8401914153621E-01 -0.1474162035083E+00  0.0000000000000E+00  0.2806665515488E+00
 0.1303470755536E+00 -0.1910683393467E+00  0.0000000000000E+00  0.2664204643172E+00
 0.1739933913593E+00 -0.2321890748269E+00  0.0000000000000E+00  0.2522109195922E+00
 0.2144457044964E+00 -0.2703001809533E+00  0.0000000000000E+00  0.2382645966595E+00
 0.2514789538994E+00 -0.3052059923851E+00  0.0000000000000E+00  0.2252372055767E+00
 0.2851182266452E+00 -0.3369561267035E+00  0.0000000000000E+00  0.2138816704298E+00
 0.3155693828503E+00 -0.3657760099239E+00  0.0000000000000E+00  0.2048591862338E+00
 0.3431390615327E+00 -0.3919867355325E+00  0.0000000000000E+00  0.1986558410037E+00
 0.3681525823938E+00 -0.4159231478680E+00  0.0000000000000E+00  0.1955759731270E+00
 0.3908786397995E+00 -0.4378598908461E+00  0.0000000000000E+00  0.1957883492563E+00
 0.4114829533774E+00 -0.4579680196391E+00  0.0000000000000E+00  0.1994016564695E+00
 0.4300614257276E+00 -0.4763501064940E+00  0.0000000000000E+00  0.2065519451552E+00
 0.4466768337871E+00 -0.4930807622616E+00  0.0000000000000E+00  0.2172562674476E+00
 0.4613516859333E+00 -0.5082032277698E+00  0.0000000000000E+00  0.2313473083523E+00
 0.4740522226433E+00 -0.5217144844737E+00  0.0000000000000E+00  0.2484862296303E+00
 0.4846231415202E+00 -0.5335000905610E+00  0.0000000000000E+00  0.2681221111138E+00
 0.4927178537527E+00 -0.5432610300801E+00  0.0000000000000E+00  0.2896570280670E+00
 0.4978024439361E+00 -0.5505168390044E+00  0.0000000000000E+00  0.3127400481279E+00
 0.4995085398854E+00 -0.5549535111242E+00  0.0000000000000E+00  0.3377383562857E+00
 0.3548495070448E-01 -0.1012075655582E+00  0.0000000000000E+00  0.3144131119453E+00
 0.8319061062596E-01 -0.1461491443607E+00  0.0000000000000E+00  0.2988163587560E+00
 0.1291665047109E+00 -0.1894536120967E+00  0.0000000000000E+00  0.2835229574830E+00
 0.1724753888423E+00 -0.2302297091167E+00  0.0000000000000E+00  0.2679236447897E+00
 0.2125082857002E+00 -0.2679082684124E+00  0.0000000000000E+00  0.2524421392887E+00
 0.2490128318257E+00 -0.3022700188170E+00  0.0000000000000E+00  0.2379129474235E+00
 0.2820273700676E+00 -0.3333799860320E+00  0.0000000000000E+00  0.2252194528169E+00
 0.3117894882676E+00 -0.3614962345678E+00  0.0000000000000E+00  0.2151010801210E+00
 0.3386405040404E+00 -0.3869743369482E+00  0.0000000000000E+00  0.2080774191391E+00
 0.3629328914877E+00 -0.4101750498983E+00  0.0000000000000E+00  0.2044522834283E+00
 0.3849477814806E+00 -0.4313833031131E+00  0.0000000000000E+00  0.2043706671806E+00
 0.4048443832619E+00 -0.4507610928937E+00  0.0000000000000E+00  0.2079098014439E+00
 0.4227070687485E+00 -0.4683962651338E+00  0.0000000000000E+00  0.2152036234480E+00
 0.4385923238591E+00 -0.4843537664826E+00  0.0000000000000E+00  0.2262685716943E+00
 0.4525229176015E+00 -0.4986732879395E+00  0.0000000000000E+00  0.2409368222706E+00
 0.4644817677165E+00 -0.5113659507901E+00  0.0000000000000E+00  0.2588712512729E+00
 0.4743368604473E+00 -0.5223417775246E+00  0.0000000000000E+00  0.2794637444460E+00
 0.4817326699525E+00 -0.5312961922084E+00  0.0000000000000E+00  0.3019905709726E+00
 0.4860487130936E+00 -0.5376607965096E+00  0.0000000000000E+00  0.3260146859843E+00
 0.4868471085017E+00 -0.5410423060664E+00  0.0000000000000E+00  0.3521383049191E+00
 0.3523508954907E-01 -0.1004867019080E+00  0.0000000000000E+00  0.3328759133040E+00
 0.8241220469921E-01 -0.1449211277090E+00  0.0000000000000E+00  0.3167849211183E+00
 0.1280664553378E+00 -0.1879039726788E+00  0.0000000000000E+00  0.3003986659210E+00
 0.1710435880842E+00 -0.2283366520607E+00  0.0000000000000E+00  0.2832964253230E+00
 0.2106359250969E+00 -0.2655577528982E+00  0.0000000000000E+00  0.2661497000732E+00
 0.2465712521848E+00 -0.2993321084986E+00  0.0000000000000E+00  0.2500004550157E+00
 0.2789104165275E+00 -0.3297494456613E+00  0.0000000000000E+00  0.2358740114566E+00
 0.3079304963893E+00 -0.3571080657765E+00  0.0000000000000E+00  0.2245887639154E+00
 0.3340128804866E+00 -0.3818032677300E+00  0.0000000000000E+00  0.2166927366891E+00
 0.3575403178359E+00 -0.4042246051228E+00  0.0000000000000E+00  0.2124809742284E+00
 0.3788071301892E+00 -0.4246677840913E+00  0.0000000000000E+00  0.2120642152537E+00
 0.3979630189170E+00 -0.4432825029761E+00  0.0000000000000E+00  0.2154767775228E+00
 0.4150774568179E+00 -0.4601383652419E+00  0.0000000000000E+00  0.2228491332491E+00
 0.4301983521436E+00 -0.4752881751911E+00  0.0000000000000E+00  0.2341954507301E+00
 0.4433430069147E+00 -0.4887629127706E+00  0.0000000000000E+00  0.2493440764314E+00
 0.4545081569000E+00 -0.5005806925950E+00  0.0000000000000E+00  0.2679874158751E+00
 0.4636019933747E+00 -0.5106933980862E+00  0.0000000000000E+00  0.2894972311826E+00
 0.4702860533618E+00 -0.5188230928983E+00  0.0000000000000E+00  0.3129836827787E+00
 0.4738293245342E+00 -0.5242955475220E+00  0.0000000000000E+00  0.3377922749337E+00
 0.4736507520229E+00 -0.5265550544709E+00  0.0000000000000E+00  0.3647440593996E+00
 0.3501438064212E-01 -0.9979197809296E-01  0.0000000000000E+00  0.3510795429023E+00
 0.8171027738231E-01 -0.1437625844258E+00  0.0000000000000E+00  0.3345798480832E+00
 0.1270840242017E+00 -0.1864591393200E+00  0.0000000000000E+00  0.3170358291493E+00
 0.1697375692162E+00 -0.2265510518215E+00  0.0000000000000E+00  0.2982974096492E+00
 0.2088656580554E+00 -0.2632864426028E+00  0.0000000000000E+00  0.2793426305155E+00
 0.2441870732012E+00 -0.2964256128558E+00  0.0000000000000E+00  0.2614500830124E+00
 0.2757963711775E+00 -0.3260938536817E+00  0.0000000000000E+00  0.2457962283412E+00
 0.3040187361901E+00 -0.3526382349676E+00  0.0000000000000E+00  0.2332772864615E+00
 0.3292814393300E+00 -0.3764992671081E+00  0.0000000000000E+00  0.2244630730540E+00
 0.3520009329155E+00 -0.3980986255017E+00  0.0000000000000E+00  0.2196302125573E+00
 0.3724856429083E+00 -0.4177433235947E+00  0.0000000000000E+00  0.2188426261767E+00
 0.3908717442004E+00 -0.4355665865433E+00  0.0000000000000E+00  0.2220775613995E+00
 0.4072097391103E+00 -0.4516151927322E+00  0.0000000000000E+00  0.2294626144264E+00
 0.4215371982601E+00 -0.4659284094408E+00  0.0000000000000E+00  0.2410094369061E+00
 0.4338627159129E+00 -0.4785249104438E+00  0.0000000000000E+00  0.2565342102739E+00
 0.4441811315330E+00 -0.4894176054226E+00  0.0000000000000E+00  0.2757524866182E+00
 0.4524450237872E+00 -0.4985828439700E+00  0.0000000000000E+00  0.2981245265682E+00
 0.4584002391618E+00 -0.5058588837861E+00  0.0000000000000E+00  0.3226300809845E+00
 0.4612159132898E+00 -0.5104934379725E+00  0.0000000000000E+00  0.3481275065375E+00
 0.4600463011552E+00 -0.5116329667670E+00  0.0000000000000E+00  0.3754726543039E+00
 0.3483410092016E-01 -0.9914094944857E-01  0.0000000000000E+00  0.3690381476345E+00
 0.8111631682455E-01 -0.1427092676743E+00  0.0000000000000E+00  0.3522119979663E+00
 0.1262618456646E+00 -0.1851650508281E+00  0.0000000000000E+00  0.3334181859976E+00
 0.1686002053321E+00 -0.2249168242221E+00  0.0000000000000E+00  0.3128865424580E+00
 0.2072359350206E+00 -0.2611334701206E+00  0.0000000000000E+00  0.2919704843445E+00
 0.2418937863622E+00 -0.2935844269161E+00  0.0000000000000E+00  0.2722075035886E+00
 0.2727139899029E+00 -0.3224422104113E+00  0.0000000000000E+00  0.2549337534905E+00
 0.3000797790090E+00 -0.3481124926440E+00  0.0000000000000E+00  0.2411210672951E+00
 0.3244704971064E+00 -0.3710873012911E+00  0.0000000000000E+00  0.2313505018032E+00
 0.3463395362725E+00 -0.3918223317507E+00  0.0000000000000E+00  0.2258712128845E+00
 0.3660114913979E+00 -0.4106391253178E+00  0.0000000000000E+00  0.2246860952355E+00
 0.3836037804661E+00 -0.4276480834457E+00  0.0000000000000E+00  0.2276939865951E+00
 0.3991413257322E+00 -0.4428660510460E+00  0.0000000000000E+00  0.2350239535827E+00
 0.4126512848641E+00 -0.4563183561191E+00  0.0000000000000E+00  0.2466915871781E+00
 0.4241320391846E+00 -0.4680123422811E+00  0.0000000000000E+00  0.2624896692802E+00
 0.4335725224253E+00 -0.4779478957590E+00  0.0000000000000E+00  0.2821356397549E+00
 0.4409073131172E+00 -0.4860847869333E+00  0.0000000000000E+00  0.3051424622838E+00
 0.4460439043764E+00 -0.4923390237309E+00  0.0000000000000E+00  0.3308538212714E+00
 0.4482592381674E+00 -0.4962923390605E+00  0.0000000000000E+00  0.3572841540046E+00
 0.4462481316927E+00 -0.4965253814094E+00  0.0000000000000E+00  0.3843352936448E+00
 0.3470856222232E-01 -0.9855027903335E-01  0.0000000000000E+00  0.3867901590019E+00
 0.8067195648652E-01 -0.1418126922746E+00  0.0000000000000E+00  0.3697003804739E+00
 0.1256496164137E+00 -0.1840724560486E+00  0.0000000000000E+00  0.3495114762424E+00
 0.1676754498804E+00 -0.2234787920945E+00  0.0000000000000E+00  0.3270154951097E+00
 0.2057863134363E+00 -0.2591389520581E+00  0.0000000000000E+00  0.3039773197188E+00
 0.2397254402064E+00 -0.2908429855043E+00  0.0000000000000E+00  0.2822128549994E+00
 0.2696914739928E+00 -0.3188228132198E+00  0.0000000000000E+00  0.2632294968532E+00
 0.2961374383623E+00 -0.3435546687944E+00  0.0000000000000E+00  0.2480727800008E+00
 0.3196031422108E+00 -0.3655904669070E+00  0.0000000000000E+00  0.2373205188540E+00
 0.3405798284635E+00 -0.3854214702742E+00  0.0000000000000E+00  0.2311742796172E+00
 0.3594098486703E+00 -0.4033788536122E+00  0.0000000000000E+00  0.2295810941720E+00
 0.3761926230432E+00 -0.4195633280659E+00  0.0000000000000E+00  0.2323222576216E+00
 0.3909117399656E+00 -0.4339332865715E+00  0.0000000000000E+00  0.2395133234613E+00
 0.4035800572727E+00 -0.4464978122911E+00  0.0000000000000E+00  0.2512271481635E+00
 0.4142008076142E+00 -0.4572761851108E+00  0.0000000000000E+00  0.2672101431103E+00
 0.4227446807032E+00 -0.4662412911464E+00  0.0000000000000E+00  0.2871399296232E+00
 0.4291280981774E+00 -0.4733170333962E+00  0.0000000000000E+00  0.3105309814018E+00
 0.4331460852380E+00 -0.4783529934271E+00  0.0000000000000E+00  0.3369201783365E+00
 0.4347680835000E+00 -0.4811980954494E+00  0.0000000000000E+00  0.3658086113998E+00
 0.4329577400708E+00 -0.4820319297158E+00  0.0000000000000E+00  0.3917854643200E+00
 0.2283241990855E+00 -0.3994510116114E+00  0.0000000000000E+00 -0.6374547412996E+00
 0.3412159480832E+00 -0.3750881414986E+00  0.0000000000000E+00  0.7915613336936E-01
 0.2286306919285E+00 -0.2537551563233E+00  0.0000000000000E+00  0.1037235586652E+00
 0.1767867144901E+00 -0.1972568897740E+00  0.0000000000000E+00  0.7403388169600E-01
 0.1469396255792E+00 -0.1648526024061E+00  0.0000000000000E+00  0.5584148710421E-01
 0.1276980574050E+00 -0.1435937304866E+00  0.0000000000000E+00  0.4162362480895E-01
 0.1130474564717E+00 -0.1272789010721E+00  0.0000000000000E+00  0.2952342289361E-01
 0.1003210760601E+00 -0.1130503928653E+00  0.0000000000000E+00  0.1851928437386E-01
 0.8807809772557E-01 -0.9932079058305E-01  0.0000000000000E+00  0.8476416981766E-02
 0.7558918074589E-01 -0.8529543011314E-01  0.0000000000000E+00 -0.3989901004409E-03
 0.6236551822757E-01 -0.7048406950358E-01  0.0000000000000E+00 -0.7662263448002E-02
 0.4808569532905E-01 -0.5436793485200E-01  0.0000000000000E+00 -0.1401199407359E-01
 0.3493594652864E-01 -0.3910614375560E-01  0.0000000000000E+00 -0.1801979995054E-01
 0.2423919717352E-01 -0.2688312322575E-01  0.0000000000000E+00 -0.2037667375641E-01
 0.1595485682032E-01 -0.1777583144139E-01  0.0000000000000E+00 -0.2166353566147E-01
 0.1018172395339E-01 -0.1155473776601E-01  0.0000000000000E+00 -0.2130014345254E-01
 0.5963307081958E-02 -0.7156195565164E-02  0.0000000000000E+00 -0.2001985651840E-01
 0.2599980778840E-02 -0.3629940839541E-02  0.0000000000000E+00 -0.1772366659850E-01
-0.1824206583789E-04 -0.6553444688233E-03  0.0000000000000E+00 -0.1436598237231E-01
-0.7035842805629E-03  0.2117446906844E-03  0.0000000000000E+00 -0.1005338074205E-01
 0.1929099684697E+00 -0.2958479746352E+00  0.0000000000000E+00 -0.7881588174433E+00
 0.3330523798703E+00 -0.3983341252901E+00  0.0000000000000E+00 -0.2434844727493E+00
 0.2717589152380E+00 -0.3027426100820E+00  0.0000000000000E+00  0.2613909135587E-02
 0.2097205407828E+00 -0.2340197163643E+00  0.0000000000000E+00  0.3690463823014E-01
 0.1732746146814E+00 -0.1938751925712E+00  0.0000000000000E+00  0.3418327392694E-01
 0.1497455848637E+00 -0.1679819001234E+00  0.0000000000000E+00  0.2598979512640E-01
 0.1327020789128E+00 -0.1490378852519E+00  0.0000000000000E+00  0.1594320810688E-01
 0.1186273374757E+00 -0.1333230190588E+00  0.0000000000000E+00  0.5005461689519E-02
 0.1057141457547E+00 -0.1188728152870E+00  0.0000000000000E+00 -0.6281201111220E-02
 0.9294952230913E-01 -0.1045914751646E+00  0.0000000000000E+00 -0.1725658326792E-01
 0.7970333990560E-01 -0.8977652690297E-01  0.0000000000000E+00 -0.2748183329914E-01
 0.6573876149743E-01 -0.7408939462676E-01  0.0000000000000E+00 -0.3722030887996E-01
 0.5270017321752E-01 -0.5929338266531E-01  0.0000000000000E+00 -0.4432094667461E-01
 0.4146374856147E-01 -0.4663730837537E-01  0.0000000000000E+00 -0.4899267662440E-01
 0.3186970483499E-01 -0.3617965425030E-01  0.0000000000000E+00 -0.5305603735519E-01
 0.2408369343046E-01 -0.2799402974081E-01  0.0000000000000E+00 -0.5675950595652E-01
 0.1748482607872E-01 -0.2129492865090E-01  0.0000000000000E+00 -0.6055564939318E-01
 0.1141504511469E-01 -0.1524488281877E-01  0.0000000000000E+00 -0.6464937646067E-01
 0.5797066646490E-02 -0.9705132295101E-02  0.0000000000000E+00 -0.6924464719944E-01
 0.1293803645495E-02 -0.5410195673407E-02  0.0000000000000E+00 -0.7574385970297E-01
 0.1552248996306E+00 -0.2406981870152E+00  0.0000000000000E+00 -0.7812004683141E+00
 0.2936599875961E+00 -0.3561610904803E+00  0.0000000000000E+00 -0.4006749430588E+00
 0.2820211269678E+00 -0.3237286304068E+00  0.0000000000000E+00 -0.1360675733216E+00
 0.2361999533924E+00 -0.2647248996673E+00  0.0000000000000E+00 -0.2439803752126E-01
 0.1975892654677E+00 -0.2212309848645E+00  0.0000000000000E+00  0.2291644371400E-02
 0.1713852797776E+00 -0.1920331125226E+00  0.0000000000000E+00  0.4799171192713E-02
 0.1524275874193E+00 -0.1709235788790E+00  0.0000000000000E+00 -0.9231669379428E-03
 0.1372786909899E+00 -0.1539882743151E+00  0.0000000000000E+00 -0.1045679846709E-01
 0.1238534163460E+00 -0.1389657910556E+00  0.0000000000000E+00 -0.2200201001969E-01
 0.1109552203691E+00 -0.1245481188020E+00  0.0000000000000E+00 -0.3441155887235E-01
 0.9785620103356E-01 -0.1099285526320E+00  0.0000000000000E+00 -0.4693255705753E-01
 0.8420144278268E-01 -0.9468054379976E-01  0.0000000000000E+00 -0.5919126144566E-01
 0.7111550959531E-01 -0.8002360544336E-01  0.0000000000000E+00 -0.6929280025836E-01
 0.5941550232896E-01 -0.6705504651649E-01  0.0000000000000E+00 -0.7731174109873E-01
 0.4898462289638E-01 -0.5582017187779E-01  0.0000000000000E+00 -0.8491095565590E-01
 0.3983845354314E-01 -0.4632324305699E-01  0.0000000000000E+00 -0.9290462950819E-01
 0.3156793779409E-01 -0.3805852119188E-01  0.0000000000000E+00 -0.1019740427665E+00
 0.2368422460104E-01 -0.3040961508292E-01  0.0000000000000E+00 -0.1124604034514E+00
 0.1617798817731E-01 -0.2330902740235E-01  0.0000000000000E+00 -0.1250555466149E+00
 0.1013339476066E-01 -0.1816130289446E-01  0.0000000000000E+00 -0.1418494372538E+00
 0.1276431275173E+00 -0.2039372674393E+00  0.0000000000000E+00 -0.7548662902342E+00
 0.2558184344180E+00 -0.3164396203405E+00  0.0000000000000E+00 -0.4814328275042E+00
 0.2741584273036E+00 -0.3195820261610E+00  0.0000000000000E+00 -0.2422989280513E+00
 0.2499632560659E+00 -0.2836584682741E+00  0.0000000000000E+00 -0.1001196293283E+00
 0.2178051396679E+00 -0.2446677241831E+00  0.0000000000000E+00 -0.4040205382778E-01
 0.1915206391629E+00 -0.2147298912222E+00  0.0000000000000E+00 -0.2242529088114E-01
 0.1717066800097E+00 -0.1924169060415E+00  0.0000000000000E+00 -0.2131587493582E-01
 0.1559290832038E+00 -0.1746945796003E+00  0.0000000000000E+00 -0.2798926797729E-01
 0.1422554341172E+00 -0.1593513537029E+00  0.0000000000000E+00 -0.3880948672484E-01
 0.1294155187756E+00 -0.1449846614768E+00  0.0000000000000E+00 -0.5188172885790E-01
 0.1166015264958E+00 -0.1307002577402E+00  0.0000000000000E+00 -0.6599960718162E-01
 0.1033242203742E+00 -0.1159346416328E+00  0.0000000000000E+00 -0.8029708474404E-01
 0.9029660707913E-01 -0.1014879689442E+00  0.0000000000000E+00 -0.9322582245730E-01
 0.7832602898136E-01 -0.8838710654860E-01  0.0000000000000E+00 -0.1047784792961E+00
 0.6739978854925E-01 -0.7675330566549E-01  0.0000000000000E+00 -0.1162863333578E+00
 0.5744766945998E-01 -0.6653399521734E-01  0.0000000000000E+00 -0.1287517837136E+00
 0.4820060200281E-01 -0.5741531290572E-01  0.0000000000000E+00 -0.1430142855471E+00
 0.3933818892536E-01 -0.4899259287814E-01  0.0000000000000E+00 -0.1596080458999E+00
 0.3108797936306E-01 -0.4151126756649E-01  0.0000000000000E+00 -0.1794144286762E+00
 0.2499228527437E-01 -0.3688680854923E-01  0.0000000000000E+00 -0.2044057327258E+00
 0.1068836372443E+00 -0.1778875186889E+00  0.0000000000000E+00 -0.7236310748992E+00
 0.2233560651968E+00 -0.2824734005178E+00  0.0000000000000E+00 -0.5242043843233E+00
 0.2594724657296E+00 -0.3068750473585E+00  0.0000000000000E+00 -0.3181490165502E+00
 0.2537478234313E+00 -0.2910260450596E+00  0.0000000000000E+00 -0.1701654760391E+00
 0.2318882717637E+00 -0.2621343615640E+00  0.0000000000000E+00 -0.8970785825499E-01
 0.2090346581749E+00 -0.2348863946607E+00  0.0000000000000E+00 -0.5518640846486E-01
 0.1898721393230E+00 -0.2128640201782E+00  0.0000000000000E+00 -0.4524631971313E-01
 0.1741837454944E+00 -0.1950409162417E+00  0.0000000000000E+00 -0.4764005828568E-01
 0.1606402667549E+00 -0.1797462790614E+00  0.0000000000000E+00 -0.5673922235242E-01
 0.1481035176195E+00 -0.1656693253747E+00  0.0000000000000E+00 -0.6968632751431E-01
 0.1357465444121E+00 -0.1518840982213E+00  0.0000000000000E+00 -0.8474537674451E-01
 0.1229843138455E+00 -0.1377240038012E+00  0.0000000000000E+00 -0.1006355720237E+00
 0.1102100425392E+00 -0.1236608012250E+00  0.0000000000000E+00 -0.1161029870570E+00
 0.9822653085345E-01 -0.1106782981984E+00  0.0000000000000E+00 -0.1310679503228E+00
 0.8714279029928E-01 -0.9899677886861E-01  0.0000000000000E+00 -0.1464865437666E+00
 0.7686466700358E-01 -0.8855702836297E-01  0.0000000000000E+00 -0.1633476366150E+00
 0.6725197873587E-01 -0.7920572723204E-01  0.0000000000000E+00 -0.1825107511079E+00
 0.5815221867713E-01 -0.7075413671254E-01  0.0000000000000E+00 -0.2045624518209E+00
 0.5001475041875E-01 -0.6371751081630E-01  0.0000000000000E+00 -0.2302914816777E+00
 0.4473088224309E-01 -0.6038518993095E-01  0.0000000000000E+00 -0.2611466848429E+00
 0.9108127696155E-01 -0.1587071819150E+00  0.0000000000000E+00 -0.6927942023494E+00
 0.1963528915247E+00 -0.2544754677788E+00  0.0000000000000E+00 -0.5453799966944E+00
 0.2427722271750E+00 -0.2913670113390E+00  0.0000000000000E+00 -0.3710866238365E+00
 0.2513498077705E+00 -0.2912620345416E+00  0.0000000000000E+00 -0.2290827063348E+00
 0.2402395371493E+00 -0.2734303561131E+00  0.0000000000000E+00 -0.1386696566155E+00
 0.2230612244154E+00 -0.2515704090172E+00  0.0000000000000E+00 -0.9137221596705E-01
 0.2062770163720E+00 -0.2315842936433E+00  0.0000000000000E+00 -0.7216720484882E-01
 0.1915991700133E+00 -0.2145790989030E+00  0.0000000000000E+00 -0.6926608356340E-01
 0.1786967734906E+00 -0.1998331214340E+00  0.0000000000000E+00 -0.7574391588093E-01
 0.1667754592860E+00 -0.1863512410382E+00  0.0000000000000E+00 -0.8781519441379E-01
 0.1550948527178E+00 -0.1732759480329E+00  0.0000000000000E+00 -0.1031860943499E+00
 0.1430356877864E+00 -0.1598975316815E+00  0.0000000000000E+00 -0.1202028604072E+00
 0.1307541991057E+00 -0.1464428175415E+00  0.0000000000000E+00 -0.1378210263179E+00
 0.1190441623704E+00 -0.1338577247201E+00  0.0000000000000E+00 -0.1558764310341E+00
 0.1081367071054E+00 -0.1224672322678E+00  0.0000000000000E+00 -0.1749481849460E+00
 0.9795795696162E-01 -0.1122419965832E+00  0.0000000000000E+00 -0.1958830738280E+00
 0.8849073010847E-01 -0.1031747841997E+00  0.0000000000000E+00 -0.2194248369226E+00
 0.7972352541318E-01 -0.9525287365170E-01  0.0000000000000E+00 -0.2460575918775E+00
 0.7225264804158E-01 -0.8917168096852E-01  0.0000000000000E+00 -0.2762881999681E+00
 0.6813727564038E-01 -0.8737323627881E-01  0.0000000000000E+00 -0.3108568181877E+00
 0.7889060245670E-01 -0.1442645133983E+00  0.0000000000000E+00 -0.6638012997405E+00
 0.1741106598946E+00 -0.2316024107512E+00  0.0000000000000E+00 -0.5534962763606E+00
 0.2262287933919E+00 -0.2756940331597E+00  0.0000000000000E+00 -0.4071812773687E+00
 0.2454428886375E+00 -0.2873735840717E+00  0.0000000000000E+00 -0.2763655233644E+00
 0.2441268175629E+00 -0.2798294555324E+00  0.0000000000000E+00 -0.1834590712974E+00
 0.2335398979282E+00 -0.2645469735515E+00  0.0000000000000E+00 -0.1280135850892E+00
 0.2204508145880E+00 -0.2480616499076E+00  0.0000000000000E+00 -0.1008819365106E+00
 0.2077609398370E+00 -0.2328741150529E+00  0.0000000000000E+00 -0.9241770786826E-01
 0.1961014806899E+00 -0.2192796140358E+00  0.0000000000000E+00 -0.9564463817734E-01
 0.1851759551714E+00 -0.2067673733060E+00  0.0000000000000E+00 -0.1061905942286E+00
 0.1744375567681E+00 -0.1946601507666E+00  0.0000000000000E+00 -0.1212830766181E+00
 0.1633066260949E+00 -0.1822789782155E+00  0.0000000000000E+00 -0.1389390918699E+00
 0.1517788594402E+00 -0.1696820886051E+00  0.0000000000000E+00 -0.1582419824493E+00
 0.1406359619026E+00 -0.1577803993329E+00  0.0000000000000E+00 -0.1789252915751E+00
 0.1302231661360E+00 -0.1469983377060E+00  0.0000000000000E+00 -0.2012028540759E+00
 0.1205121823700E+00 -0.1373576245843E+00  0.0000000000000E+00 -0.2256956611196E+00
 0.1115929119866E+00 -0.1289730957444E+00  0.0000000000000E+00 -0.2529293094868E+00
 0.1035518857474E+00 -0.1219541682727E+00  0.0000000000000E+00 -0.2831747693538E+00
 0.9703981373621E-01 -0.1170664718637E+00  0.0000000000000E+00 -0.3165639873096E+00
 0.9411718249350E-01 -0.1167205287855E+00  0.0000000000000E+00 -0.3531100666311E+00
 0.6938924801241E-01 -0.1332316274098E+00  0.0000000000000E+00 -0.6369727419051E+00
 0.1558532035033E+00 -0.2129819399144E+00  0.0000000000000E+00 -0.5533575322965E+00
 0.2108025016234E+00 -0.2609944948547E+00  0.0000000000000E+00 -0.4308642149310E+00
 0.2377546157733E+00 -0.2813208667943E+00  0.0000000000000E+00 -0.3131060824303E+00
 0.2448198283730E+00 -0.2826719041828E+00  0.0000000000000E+00 -0.2223943084985E+00
 0.2408831928012E+00 -0.2741808417826E+00  0.0000000000000E+00 -0.1628537840639E+00
 0.2322515017951E+00 -0.2620882615872E+00  0.0000000000000E+00 -0.1298670541706E+00
 0.2223622287236E+00 -0.2495910422194E+00  0.0000000000000E+00 -0.1163474688316E+00
 0.2125588903985E+00 -0.2377754094914E+00  0.0000000000000E+00 -0.1160903294439E+00
 0.2030503440734E+00 -0.2266540323133E+00  0.0000000000000E+00 -0.1246408315079E+00
 0.1935563992785E+00 -0.2158115189913E+00  0.0000000000000E+00 -0.1389373127981E+00
 0.1836039978561E+00 -0.2046700468091E+00  0.0000000000000E+00 -0.1567454824306E+00
 0.1730981307161E+00 -0.1931890579629E+00  0.0000000000000E+00 -0.1772169996171E+00
 0.1628087087516E+00 -0.1822485222742E+00  0.0000000000000E+00 -0.1999699346426E+00
 0.1531824886140E+00 -0.1723616580345E+00  0.0000000000000E+00 -0.2248740958763E+00
 0.1442466687574E+00 -0.1636077157838E+00  0.0000000000000E+00 -0.2522778027376E+00
 0.1361737709176E+00 -0.1561928495863E+00  0.0000000000000E+00 -0.2824291201888E+00
 0.1290999711259E+00 -0.1502903075630E+00  0.0000000000000E+00 -0.3153310492895E+00
 0.1236470316466E+00 -0.1466406261954E+00  0.0000000000000E+00 -0.3507261642912E+00
 0.1217499080332E+00 -0.1474887097485E+00  0.0000000000000E+00 -0.3879650368714E+00
 0.6192430012055E-01 -0.1247284114787E+00  0.0000000000000E+00 -0.6121961532164E+00
 0.1408867064771E+00 -0.1978510489790E+00  0.0000000000000E+00 -0.5478510989695E+00
 0.1968792875985E+00 -0.2477350665021E+00  0.0000000000000E+00 -0.4453045009805E+00
 0.2293631493595E+00 -0.2743189038703E+00  0.0000000000000E+00 -0.3407821580985E+00
 0.2433612389887E+00 -0.2830827124719E+00  0.0000000000000E+00 -0.2550051947449E+00
 0.2456647439276E+00 -0.2810458091861E+00  0.0000000000000E+00 -0.1944745739479E+00
 0.2417887420907E+00 -0.2737386936997E+00  0.0000000000000E+00 -0.1577694521658E+00
 0.2352561305352E+00 -0.2645509539232E+00  0.0000000000000E+00 -0.1401573555191E+00
 0.2278402026883E+00 -0.2550733796499E+00  0.0000000000000E+00 -0.1365772728593E+00
 0.2201660994562E+00 -0.2457672622137E+00  0.0000000000000E+00 -0.1428905462611E+00
 0.2122338423133E+00 -0.2365046515381E+00  0.0000000000000E+00 -0.1559855740729E+00
 0.2037216529329E+00 -0.2268585772531E+00  0.0000000000000E+00 -0.1734906045667E+00
 0.1945018076702E+00 -0.2167484667276E+00  0.0000000000000E+00 -0.1945971787352E+00
 0.1853344533713E+00 -0.2070281624417E+00  0.0000000000000E+00 -0.2188070620114E+00
 0.1767525919332E+00 -0.1982857471364E+00  0.0000000000000E+00 -0.2456790734626E+00
 0.1688385334842E+00 -0.1906548703109E+00  0.0000000000000E+00 -0.2752750382534E+00
 0.1618195310848E+00 -0.1844000541094E+00  0.0000000000000E+00 -0.3075481971680E+00
 0.1558372136888E+00 -0.1797067888556E+00  0.0000000000000E+00 -0.3422282285117E+00
 0.1514200689851E+00 -0.1772186627888E+00  0.0000000000000E+00 -0.3787043982122E+00
 0.1502901045700E+00 -0.1789272091122E+00  0.0000000000000E+00 -0.4157633067965E+00
 0.5602362292354E-01 -0.1181437902549E+00  0.0000000000000E+00 -0.5892105037717E+00
 0.1286272968863E+00 -0.1855785081643E+00  0.0000000000000E+00 -0.5387849934751E+00
 0.1845623280489E+00 -0.2360559690917E+00  0.0000000000000E+00 -0.4527830416556E+00
 0.2209272881040E+00 -0.2671095932600E+00  0.0000000000000E+00 -0.3608326661201E+00
 0.2405415733951E+00 -0.2819192283742E+00  0.0000000000000E+00 -0.2814384255874E+00
 0.2484576462354E+00 -0.2857361830064E+00  0.0000000000000E+00 -0.2221177599114E+00
 0.2493098723429E+00 -0.2832470950580E+00  0.0000000000000E+00 -0.1835696360269E+00
 0.2464369155106E+00 -0.2777252492018E+00  0.0000000000000E+00 -0.1629890338270E+00
 0.2418055206891E+00 -0.2710146052967E+00  0.0000000000000E+00 -0.1565221715576E+00
 0.2363330941507E+00 -0.2639040159100E+00  0.0000000000000E+00 -0.1605795345346E+00
 0.2302670949012E+00 -0.2565276750450E+00  0.0000000000000E+00 -0.1722042434610E+00
 0.2234514495053E+00 -0.2486294703920E+00  0.0000000000000E+00 -0.1890138163288E+00
 0.2157669810902E+00 -0.2401313425878E+00  0.0000000000000E+00 -0.2102383049040E+00
 0.2079646052522E+00 -0.2318639267475E+00  0.0000000000000E+00 -0.2352777787929E+00
 0.2006464544278E+00 -0.2244742186826E+00  0.0000000000000E+00 -0.2634264363198E+00
 0.1939439305592E+00 -0.2181421232713E+00  0.0000000000000E+00 -0.2944747078791E+00
 0.1881128958337E+00 -0.2131607190183E+00  0.0000000000000E+00 -0.3280995986505E+00
 0.1832659987814E+00 -0.2096882502471E+00  0.0000000000000E+00 -0.3637894546702E+00
 0.1797940368073E+00 -0.2082230071087E+00  0.0000000000000E+00 -0.4006461540465E+00
 0.1791482312828E+00 -0.2104485751685E+00  0.0000000000000E+00 -0.4369970696874E+00
 0.5133841970420E-01 -0.1130386755395E+00  0.0000000000000E+00 -0.5677176611992E+00
 0.1185931596343E+00 -0.1756492149211E+00  0.0000000000000E+00 -0.5273236696634E+00
 0.1738142988284E+00 -0.2259374795911E+00  0.0000000000000E+00 -0.4549599114861E+00
 0.2128376018335E+00 -0.2601346011708E+00  0.0000000000000E+00 -0.3745258203350E+00
 0.2369358484099E+00 -0.2798067797334E+00  0.0000000000000E+00 -0.3021274485672E+00
 0.2497660200663E+00 -0.2887820282051E+00  0.0000000000000E+00 -0.2454749145272E+00
 0.2551145377447E+00 -0.2909135741297E+00  0.0000000000000E+00 -0.2065855036043E+00
 0.2559958230821E+00 -0.2891919619457E+00  0.0000000000000E+00 -0.1841264398191E+00
 0.2543995664794E+00 -0.2855282390081E+00  0.0000000000000E+00 -0.1753490384754E+00
 0.2514152200240E+00 -0.2809152175306E+00  0.0000000000000E+00 -0.1773035966188E+00
 0.2474809591345E+00 -0.2756955509042E+00  0.0000000000000E+00 -0.1873251217084E+00
 0.2425951617522E+00 -0.2697767074833E+00  0.0000000000000E+00 -0.2031310265375E+00
 0.2366699252911E+00 -0.2631071661934E+00  0.0000000000000E+00 -0.2240031893619E+00
 0.2304432543062E+00 -0.2564927493002E+00  0.0000000000000E+00 -0.2492669811790E+00
 0.2245676432473E+00 -0.2506217501973E+00  0.0000000000000E+00 -0.2780098425689E+00
 0.2192154312464E+00 -0.2457107402523E+00  0.0000000000000E+00 -0.3097887739810E+00
 0.2146505183376E+00 -0.2420583817801E+00  0.0000000000000E+00 -0.3440504343774E+00
 0.2109344291789E+00 -0.2397704728239E+00  0.0000000000000E+00 -0.3801000610783E+00
 0.2082929517492E+00 -0.2391712061271E+00  0.0000000000000E+00 -0.4168360535701E+00
 0.2078660559366E+00 -0.2416009388392E+00  0.0000000000000E+00 -0.4522256651650E+00
 0.4760622489460E-01 -0.1090888279517E+00  0.0000000000000E+00 -0.5474289286742E+00
 0.1103887400884E+00 -0.1676435570012E+00  0.0000000000000E+00 -0.5142302134171E+00
 0.1645297247282E+00 -0.2172823970205E+00  0.0000000000000E+00 -0.4530573771927E+00
 0.2053128255673E+00 -0.2536448763383E+00  0.0000000000000E+00 -0.3829345486647E+00
 0.2329502556598E+00 -0.2771882344925E+00  0.0000000000000E+00 -0.3176169915241E+00
 0.2500048046583E+00 -0.2906227625873E+00  0.0000000000000E+00 -0.2645226443591E+00
 0.2595028145930E+00 -0.2970453576301E+00  0.0000000000000E+00 -0.2264153727944E+00
 0.2640783077696E+00 -0.2990909586244E+00  0.0000000000000E+00 -0.2030295189979E+00
 0.2656333647180E+00 -0.2986142680702E+00  0.0000000000000E+00 -0.1925494489888E+00
 0.2653304226163E+00 -0.2967074081081E+00  0.0000000000000E+00 -0.1926605143259E+00
 0.2637358254754E+00 -0.2938588349055E+00  0.0000000000000E+00 -0.2010599148087E+00
 0.2609748510905E+00 -0.2901140923201E+00  0.0000000000000E+00 -0.2156448421297E+00
 0.2569974314500E+00 -0.2854555137241E+00  0.0000000000000E+00 -0.2357639900162E+00
 0.2525196000894E+00 -0.2806567030377E+00  0.0000000000000E+00 -0.2607005317536E+00
 0.2482238164136E+00 -0.2764279840174E+00  0.0000000000000E+00 -0.2893988879975E+00
 0.2443153350396E+00 -0.2730137604715E+00  0.0000000000000E+00 -0.3212350903992E+00
 0.2410535009557E+00 -0.2707044129519E+00  0.0000000000000E+00 -0.3554889644489E+00
 0.2384399004246E+00 -0.2695429701767E+00  0.0000000000000E+00 -0.3913583521133E+00
 0.2365219474064E+00 -0.2696662755188E+00  0.0000000000000E+00 -0.4276361813402E+00
 0.2360932792893E+00 -0.2720426164166E+00  0.0000000000000E+00 -0.4620231394470E+00
 0.4462632892612E-01 -0.1060493973694E+00  0.0000000000000E+00 -0.5280830451418E+00
 0.1036890485412E+00 -0.1612185364784E+00  0.0000000000000E+00 -0.5000090056530E+00
 0.1565729335210E+00 -0.2099586726494E+00  0.0000000000000E+00 -0.4479844001597E+00
 0.1984612168654E+00 -0.2477694414738E+00  0.0000000000000E+00 -0.3869497791903E+00
 0.2288636248848E+00 -0.2743689505726E+00  0.0000000000000E+00 -0.3284726640743E+00
 0.2495013774797E+00 -0.2916066772770E+00  0.0000000000000E+00 -0.2794081276757E+00
 0.2627480409740E+00 -0.3019255143913E+00  0.0000000000000E+00 -0.2428701385709E+00
 0.2708516345381E+00 -0.3075889018180E+00  0.0000000000000E+00 -0.2193283890882E+00
 0.2755626585925E+00 -0.3103215911479E+00  0.0000000000000E+00 -0.2077130766007E+00
 0.2780429618367E+00 -0.3112357289161E+00  0.0000000000000E+00 -0.2062862472428E+00
 0.2789295949487E+00 -0.3109063613988E+00  0.0000000000000E+00 -0.2131262508350E+00
 0.2784398978605E+00 -0.3094827571963E+00  0.0000000000000E+00 -0.2263576047180E+00
 0.2765564114850E+00 -0.3069760024885E+00  0.0000000000000E+00 -0.2454052399838E+00
 0.2739591387819E+00 -0.3041145265456E+00  0.0000000000000E+00 -0.2695413795932E+00
 0.2713384586149E+00 -0.3016095806340E+00  0.0000000000000E+00 -0.2976293265882E+00
 0.2689257667999E+00 -0.2997262393896E+00  0.0000000000000E+00 -0.3289205620898E+00
 0.2669727358241E+00 -0.2987430576203E+00  0.0000000000000E+00 -0.3625980800040E+00
 0.2654265815824E+00 -0.2986455507274E+00  0.0000000000000E+00 -0.3978381471423E+00
 0.2641558380528E+00 -0.2993837899634E+00  0.0000000000000E+00 -0.4334425340813E+00
 0.2635675659754E+00 -0.3015207199086E+00  0.0000000000000E+00 -0.4669447892002E+00
 0.4224306142359E-01 -0.1037319339760E+00  0.0000000000000E+00 -0.5094516057497E+00
 0.9822616357540E-01 -0.1560922425163E+00  0.0000000000000E+00 -0.4849934783890E+00
 0.1497983163814E+00 -0.2038218821366E+00  0.0000000000000E+00 -0.4404222593389E+00
 0.1923199964204E+00 -0.2425591666611E+00  0.0000000000000E+00 -0.3873047754854E+00
 0.2248604575677E+00 -0.2715526366031E+00  0.0000000000000E+00 -0.3352363898621E+00
 0.2485057517697E+00 -0.2920008617996E+00  0.0000000000000E+00 -0.2903738485754E+00
 0.2650851289608E+00 -0.3057990511121E+00  0.0000000000000E+00 -0.2559131240748E+00
 0.2764833963307E+00 -0.3148556755752E+00  0.0000000000000E+00 -0.2328001924768E+00
 0.2842687214264E+00 -0.3207279065033E+00  0.0000000000000E+00 -0.2205361275187E+00
 0.2895523374558E+00 -0.3244929262282E+00  0.0000000000000E+00 -0.2178774421779E+00
 0.2929947507897E+00 -0.3267627646630E+00  0.0000000000000E+00 -0.2232691948732E+00
 0.2948699698863E+00 -0.3277545397980E+00  0.0000000000000E+00 -0.2350842429524E+00
 0.2951807857802E+00 -0.3274954751746E+00  0.0000000000000E+00 -0.2528266500266E+00
 0.2945532410654E+00 -0.3266514483863E+00  0.0000000000000E+00 -0.2757844856120E+00
 0.2936614553621E+00 -0.3259110828353E+00  0.0000000000000E+00 -0.3027932854287E+00
 0.2927570583522E+00 -0.3255537855202E+00  0.0000000000000E+00 -0.3330282669682E+00
 0.2920910948097E+00 -0.3258534284858E+00  0.0000000000000E+00 -0.3656380371065E+00
 0.2915787071078E+00 -0.3267608327709E+00  0.0000000000000E+00 -0.3998640663050E+00
 0.2909252223932E+00 -0.3280568077058E+00  0.0000000000000E+00 -0.4346536668027E+00
 0.2900983980771E+00 -0.3298537865259E+00  0.0000000000000E+00 -0.4675040122450E+00
 0.4033411939783E-01 -0.1019889232740E+00  0.0000000000000E+00 -0.4913389105453E+00
 0.9377817672914E-01 -0.1520314804321E+00  0.0000000000000E+00 -0.4694019489827E+00
 0.1440611764653E+00 -0.1987271668753E+00  0.0000000000000E+00 -0.4308842749710E+00
 0.1868810603540E+00 -0.2380150473908E+00  0.0000000000000E+00 -0.3846004181949E+00
 0.2210561603285E+00 -0.2688686766272E+00  0.0000000000000E+00 -0.3384062968409E+00
 0.2472031269305E+00 -0.2920041432758E+00  0.0000000000000E+00 -0.2977096529259E+00
 0.2667077477393E+00 -0.3088690379236E+00  0.0000000000000E+00 -0.2656124726772E+00
 0.2811287689099E+00 -0.3210502018338E+00  0.0000000000000E+00 -0.2433411952871E+00
 0.2918435558538E+00 -0.3299239547168E+00  0.0000000000000E+00 -0.2308165610114E+00
 0.2998819948218E+00 -0.3364977881418E+00  0.0000000000000E+00 -0.2272019272523E+00
 0.3058924882228E+00 -0.3413827712900E+00  0.0000000000000E+00 -0.2312761027757E+00
 0.3101741209720E+00 -0.3448313485476E+00  0.0000000000000E+00 -0.2416626966336E+00
 0.3127349005969E+00 -0.3468715038390E+00  0.0000000000000E+00 -0.2579440501954E+00
 0.3141266115334E+00 -0.3480867437540E+00  0.0000000000000E+00 -0.2794488356767E+00
 0.3149793793987E+00 -0.3491153289792E+00  0.0000000000000E+00 -0.3050275794641E+00
 0.3155566961830E+00 -0.3502419404569E+00  0.0000000000000E+00 -0.3338087179427E+00
 0.3161250304935E+00 -0.3517511605494E+00  0.0000000000000E+00 -0.3649411105411E+00
 0.3166108403110E+00 -0.3536040658934E+00  0.0000000000000E+00 -0.3978024311601E+00
 0.3165992656795E+00 -0.3554575130512E+00  0.0000000000000E+00 -0.4316496868621E+00
 0.3155540839213E+00 -0.3569174147175E+00  0.0000000000000E+00 -0.4641522175789E+00
 0.3880218454611E-01 -0.1007029919534E+00  0.0000000000000E+00 -0.4735794721904E+00
 0.9016027126727E-01 -0.1488419916077E+00  0.0000000000000E+00 -0.4533739525761E+00
 0.1392234642781E+00 -0.1945355291587E+00  0.0000000000000E+00 -0.4197580045892E+00
 0.1821080375586E+00 -0.2341068322315E+00  0.0000000000000E+00 -0.3793279369579E+00
 0.2175160221349E+00 -0.2663925877117E+00  0.0000000000000E+00 -0.3384295661827E+00
 0.2457260876620E+00 -0.2917598546114E+00  0.0000000000000E+00 -0.3017229795666E+00
 0.2677701991083E+00 -0.3112980597462E+00  0.0000000000000E+00 -0.2721055557818E+00
 0.2849239682415E+00 -0.3263130000313E+00  0.0000000000000E+00 -0.2509401811762E+00
 0.2983795776520E+00 -0.3380024158618E+00  0.0000000000000E+00 -0.2384427660351E+00
 0.3090695192570E+00 -0.3472849558160E+00  0.0000000000000E+00 -0.2341006651967E+00
 0.3176056514190E+00 -0.3547441441323E+00  0.0000000000000E+00 -0.2369853551276E+00
 0.3242867986387E+00 -0.3606413078577E+00  0.0000000000000E+00 -0.2459616945248E+00
 0.3291125227419E+00 -0.3649914217328E+00  0.0000000000000E+00 -0.2606886268556E+00
 0.3325413129847E+00 -0.3682771213038E+00  0.0000000000000E+00 -0.2805633199262E+00
 0.3351258309448E+00 -0.3710539112030E+00  0.0000000000000E+00 -0.3044945012349E+00
 0.3371225172009E+00 -0.3735896310602E+00  0.0000000000000E+00 -0.3315699885064E+00
 0.3388302326198E+00 -0.3761955101086E+00  0.0000000000000E+00 -0.3609213259832E+00
 0.3402566506757E+00 -0.3789116412115E+00  0.0000000000000E+00 -0.3920757719368E+00
 0.3409619132460E+00 -0.3813724342469E+00  0.0000000000000E+00 -0.4247847308774E+00
 0.3398496096819E+00 -0.3826295896360E+00  0.0000000000000E+00 -0.4572556099133E+00
 0.3756866036653E-01 -0.9977903612292E-01  0.0000000000000E+00 -0.4560347185204E+00
 0.8721750354225E-01 -0.1463606198715E+00  0.0000000000000E+00 -0.4369938915863E+00
 0.1351567772475E+00 -0.1911172020569E+00  0.0000000000000E+00 -0.4073352356507E+00
 0.1779478818985E+00 -0.2307855798839E+00  0.0000000000000E+00 -0.3718883048781E+00
 0.2142694456955E+00 -0.2641613091178E+00  0.0000000000000E+00 -0.3357021070564E+00
 0.2441654084757E+00 -0.2913671693229E+00  0.0000000000000E+00 -0.3027209484174E+00
 0.2683915133413E+00 -0.3132122192409E+00  0.0000000000000E+00 -0.2755731877759E+00
 0.2879838090951E+00 -0.3307632315666E+00  0.0000000000000E+00 -0.2556555152364E+00
 0.3039631203875E+00 -0.3450508284414E+00  0.0000000000000E+00 -0.2433798777441E+00
 0.3171590312728E+00 -0.3568969566677E+00  0.0000000000000E+00 -0.2384844070560E+00
 0.3281319284057E+00 -0.3668407935889E+00  0.0000000000000E+00 -0.2402904668679E+00
 0.3371619649192E+00 -0.3751330742704E+00  0.0000000000000E+00 -0.2478872392500E+00
 0.3442313865387E+00 -0.3817668501013E+00  0.0000000000000E+00 -0.2610076049045E+00
 0.3496927107396E+00 -0.3871123675554E+00  0.0000000000000E+00 -0.2791499628026E+00
 0.3539893058128E+00 -0.3916118529552E+00  0.0000000000000E+00 -0.3013396869726E+00
 0.3573244570426E+00 -0.3954733481362E+00  0.0000000000000E+00 -0.3266512727695E+00
 0.3600222174006E+00 -0.3990108986493E+00  0.0000000000000E+00 -0.3540936773205E+00
 0.3622622494405E+00 -0.4024387712205E+00  0.0000000000000E+00 -0.3832228524125E+00
 0.3637744287874E+00 -0.4055616169199E+00  0.0000000000000E+00 -0.4144105243203E+00
 0.3629286323469E+00 -0.4069284751679E+00  0.0000000000000E+00 -0.4470551734968E+00
 0.3656868698418E-01 -0.9913774903779E-01  0.0000000000000E+00 -0.4385886969503E+00
 0.8481896023163E-01 -0.1444492848493E+00  0.0000000000000E+00 -0.4203053714081E+00
 0.1317441404288E+00 -0.1883535204041E+00  0.0000000000000E+00 -0.3938331121639E+00
 0.1743391204583E+00 -0.2279927746676E+00  0.0000000000000E+00 -0.3626087278785E+00
 0.2113205713309E+00 -0.2621843825111E+00  0.0000000000000E+00 -0.3305721198617E+00
 0.2425791493824E+00 -0.2908907005290E+00  0.0000000000000E+00 -0.3009998171622E+00
 0.2686603896056E+00 -0.3147061452019E+00  0.0000000000000E+00 -0.2762213983558E+00
 0.2904018246388E+00 -0.3344985158574E+00  0.0000000000000E+00 -0.2575963160529E+00
 0.3086709093324E+00 -0.3511477079537E+00  0.0000000000000E+00 -0.2456560974847E+00
 0.3241958886584E+00 -0.3653785520407E+00  0.0000000000000E+00 -0.2403274110360E+00
 0.3374782802293E+00 -0.3776771290570E+00  0.0000000000000E+00 -0.2411408238970E+00
 0.3487673168062E+00 -0.3882701578732E+00  0.0000000000000E+00 -0.2473886142371E+00
 0.3580247505163E+00 -0.3971258545075E+00  0.0000000000000E+00 -0.2588713196673E+00
 0.3654965037264E+00 -0.4045018961583E+00  0.0000000000000E+00 -0.2752181086413E+00
 0.3714974132800E+00 -0.4107116333830E+00  0.0000000000000E+00 -0.2956421206028E+00
 0.3761338279161E+00 -0.4158611714562E+00  0.0000000000000E+00 -0.3192990099141E+00
 0.3796375800431E+00 -0.4201688696843E+00  0.0000000000000E+00 -0.3450796004133E+00
 0.3824075555047E+00 -0.4239795310073E+00  0.0000000000000E+00 -0.3720369561742E+00
 0.3847159455537E+00 -0.4277067548026E+00  0.0000000000000E+00 -0.4009974931044E+00
 0.3847192882133E+00 -0.4297079165838E+00  0.0000000000000E+00 -0.4336354587201E+00
 0.3574604048999E-01 -0.9871008905849E-01  0.0000000000000E+00 -0.4211458452346E+00
 0.8285275077347E-01 -0.1429881416882E+00  0.0000000000000E+00 -0.4033146408828E+00
 0.1288827457646E+00 -0.1861419545358E+00  0.0000000000000E+00 -0.3794082216629E+00
 0.1712179204027E+00 -0.2256657369065E+00  0.0000000000000E+00 -0.3517602658302E+00
 0.2086556909972E+00 -0.2604520743373E+00  0.0000000000000E+00 -0.3233442822197E+00
 0.2410002532247E+00 -0.2903684356679E+00  0.0000000000000E+00 -0.2968391706749E+00
 0.2686402840359E+00 -0.3158482063794E+00  0.0000000000000E+00 -0.2742686397527E+00
 0.2922517893048E+00 -0.3375964115874E+00  0.0000000000000E+00 -0.2569077933422E+00
 0.3125687448539E+00 -0.3563607536362E+00  0.0000000000000E+00 -0.2453495734537E+00
 0.3302235629711E+00 -0.3727736700547E+00  0.0000000000000E+00 -0.2396601486142E+00
 0.3456569088069E+00 -0.3872636492765E+00  0.0000000000000E+00 -0.2395400977066E+00
 0.3590801071327E+00 -0.4000268467114E+00  0.0000000000000E+00 -0.2444623569851E+00
 0.3704353347162E+00 -0.4110072172623E+00  0.0000000000000E+00 -0.2542863568894E+00
 0.3798710563156E+00 -0.4203593419947E+00  0.0000000000000E+00 -0.2687861468645E+00
 0.3875799655480E+00 -0.4282742546075E+00  0.0000000000000E+00 -0.2874139052394E+00
 0.3935564126591E+00 -0.4347517493513E+00  0.0000000000000E+00 -0.3095269500245E+00
 0.3978697538494E+00 -0.4398419169194E+00  0.0000000000000E+00 -0.3341517350145E+00
 0.4006911609346E+00 -0.4436958181072E+00  0.0000000000000E+00 -0.3598923245597E+00
 0.4032852234539E+00 -0.4472583945188E+00  0.0000000000000E+00 -0.3856560712224E+00
 0.4049814011498E+00 -0.4506449100368E+00  0.0000000000000E+00 -0.4167280100756E+00
 0.3504735416459E-01 -0.9841033497053E-01  0.0000000000000E+00 -0.4035751483069E+00
 0.8123181720177E-01 -0.1418979279603E+00  0.0000000000000E+00 -0.3859586359209E+00
 0.1264907319904E+00 -0.1843961889483E+00  0.0000000000000E+00 -0.3641921634921E+00
 0.1685190200428E+00 -0.2237401125548E+00  0.0000000000000E+00 -0.3395681851086E+00
 0.2062491500872E+00 -0.2589413827708E+00  0.0000000000000E+00 -0.3142845231037E+00
 0.2394426442870E+00 -0.2898181567493E+00  0.0000000000000E+00 -0.2904987388541E+00
 0.2683743085283E+00 -0.3166855917900E+00  0.0000000000000E+00 -0.2699368074214E+00
 0.2935903606389E+00 -0.3401169523171E+00  0.0000000000000E+00 -0.2537599440059E+00
 0.3157108064780E+00 -0.3607464569323E+00  0.0000000000000E+00 -0.2425783107778E+00
 0.3352828995032E+00 -0.3791230603924E+00  0.0000000000000E+00 -0.2365575955164E+00
 0.3526837520188E+00 -0.3956174791187E+00  0.0000000000000E+00 -0.2355464402856E+00
 0.3680828518147E+00 -0.4103823302665E+00  0.0000000000000E+00 -0.2391557567054E+00
 0.3814143580871E+00 -0.4233588881155E+00  0.0000000000000E+00 -0.2472981790940E+00
 0.3927362004304E+00 -0.4346033551575E+00  0.0000000000000E+00 -0.2599212464676E+00
 0.4021297241145E+00 -0.4441889291123E+00  0.0000000000000E+00 -0.2766967723351E+00
 0.4095266616803E+00 -0.4520593274816E+00  0.0000000000000E+00 -0.2972180759393E+00
 0.4148427486335E+00 -0.4581393117069E+00  0.0000000000000E+00 -0.3208565221575E+00
 0.4179793118349E+00 -0.4622906763007E+00  0.0000000000000E+00 -0.3466816183235E+00
 0.4192739826318E+00 -0.4648652575495E+00  0.0000000000000E+00 -0.3725487877685E+00
 0.4227760025223E+00 -0.4679737431902E+00  0.0000000000000E+00 -0.3978937341342E+00
 0.3504735423230E-01 -0.9841033488164E-01  0.0000000000000E+00  0.4035751544426E+00
 0.8123181727355E-01 -0.1418979278841E+00  0.0000000000000E+00  0.3859586412476E+00
 0.1264907320750E+00 -0.1843961888887E+00  0.0000000000000E+00  0.3641921677366E+00
 0.1685190200793E+00 -0.2237401124524E+00  0.0000000000000E+00  0.3395681882528E+00
 0.2062491500228E+00 -0.2589413825761E+00  0.0000000000000E+00  0.3142845252906E+00
 0.2394426441032E+00 -0.2898181564475E+00  0.0000000000000E+00  0.2904987402912E+00
 0.2683743082399E+00 -0.3166855913992E+00  0.0000000000000E+00  0.2699368083158E+00
 0.2935903602827E+00 -0.3401169518758E+00  0.0000000000000E+00  0.2537599445282E+00
 0.3157108060981E+00 -0.3607464564843E+00  0.0000000000000E+00  0.2425783110492E+00
 0.3352828991384E+00 -0.3791230599752E+00  0.0000000000000E+00  0.2365575956132E+00
 0.3526837516961E+00 -0.3956174787564E+00  0.0000000000000E+00  0.2355464402587E+00
 0.3680828515479E+00 -0.4103823299703E+00  0.0000000000000E+00  0.2391557565911E+00
 0.3814143578815E+00 -0.4233588878860E+00  0.0000000000000E+00  0.2472981788967E+00
 0.3927362002657E+00 -0.4346033549727E+00  0.0000000000000E+00  0.2599212462026E+00
 0.4021297239732E+00 -0.4441889289529E+00  0.0000000000000E+00  0.2766967720228E+00
 0.4095266615498E+00 -0.4520593273328E+00  0.0000000000000E+00  0.2972180755980E+00
 0.4148427485008E+00 -0.4581393115550E+00  0.0000000000000E+00  0.3208565218047E+00
 0.4179793116902E+00 -0.4622906761347E+00  0.0000000000000E+00  0.3466816179670E+00
 0.4192739824502E+00 -0.4648652573454E+00  0.0000000000000E+00  0.3725487874053E+00
 0.4227760022719E+00 -0.4679737429422E+00  0.0000000000000E+00  0.3978937337214E+00
 0.3574604058200E-01 -0.9871008900971E-01  0.0000000000000E+00  0.4211458510155E+00
 0.8285275089751E-01 -0.1429881416759E+00  0.0000000000000E+00  0.4033146458785E+00
 0.1288827459081E+00 -0.1861419545438E+00  0.0000000000000E+00  0.3794082255621E+00
 0.1712179204854E+00 -0.2256657368565E+00  0.0000000000000E+00  0.3517602686253E+00
 0.2086556909560E+00 -0.2604520741703E+00  0.0000000000000E+00  0.3233442840761E+00
 0.2410002530400E+00 -0.2903684353687E+00  0.0000000000000E+00  0.2968391718186E+00
 0.2686402837273E+00 -0.3158482059713E+00  0.0000000000000E+00  0.2742686403997E+00
 0.2922517889159E+00 -0.3375964111161E+00  0.0000000000000E+00  0.2569077936623E+00
 0.3125687444355E+00 -0.3563607531526E+00  0.0000000000000E+00  0.2453495735611E+00
 0.3302235625671E+00 -0.3727736696012E+00  0.0000000000000E+00  0.2396601485768E+00
 0.3456569084458E+00 -0.3872636488790E+00  0.0000000000000E+00  0.2395400975674E+00
 0.3590801068286E+00 -0.4000268463803E+00  0.0000000000000E+00  0.2444623567690E+00
 0.3704353344737E+00 -0.4110072169972E+00  0.0000000000000E+00  0.2542863565872E+00
 0.3798710561053E+00 -0.4203593417630E+00  0.0000000000000E+00  0.2687861464907E+00
 0.3875799653469E+00 -0.4282742543836E+00  0.0000000000000E+00  0.2874139048125E+00
 0.3935564124505E+00 -0.4347517491166E+00  0.0000000000000E+00  0.3095269495655E+00
 0.3978697536145E+00 -0.4398419166538E+00  0.0000000000000E+00  0.3341517345469E+00
 0.4006911606551E+00 -0.4436958177922E+00  0.0000000000000E+00  0.3598923241013E+00
 0.4032852230917E+00 -0.4472583941210E+00  0.0000000000000E+00  0.3856560707650E+00
 0.4049814007220E+00 -0.4506449095684E+00  0.0000000000000E+00  0.4167280095737E+00
 0.3656868710803E-01 -0.9913774903900E-01  0.0000000000000E+00  0.4385887023985E+00
 0.8481896042249E-01 -0.1444492849172E+00  0.0000000000000E+00  0.4203053760855E+00
 0.1317441406441E+00 -0.1883535204936E+00  0.0000000000000E+00  0.3938331157230E+00
 0.1743391205969E+00 -0.2279927746803E+00  0.0000000000000E+00  0.3626087303253E+00
 0.2113205713204E+00 -0.2621843823796E+00  0.0000000000000E+00  0.3305721213890E+00
 0.2425791492039E+00 -0.2908907002396E+00  0.0000000000000E+00  0.3009998180168E+00
 0.2686603892848E+00 -0.3147061447848E+00  0.0000000000000E+00  0.2762213987621E+00
 0.2904018242271E+00 -0.3344985153664E+00  0.0000000000000E+00  0.2575963161792E+00
 0.3086709088875E+00 -0.3511477074470E+00  0.0000000000000E+00  0.2456560974368E+00
 0.3241958882288E+00 -0.3653785515651E+00  0.0000000000000E+00  0.2403274108712E+00
 0.3374782798452E+00 -0.3776771286398E+00  0.0000000000000E+00  0.2411408236486E+00
 0.3487673164818E+00 -0.3882701575248E+00  0.0000000000000E+00  0.2473886139192E+00
 0.3580247502543E+00 -0.3971258542244E+00  0.0000000000000E+00  0.2588713192548E+00
 0.3654965034884E+00 -0.4045018958979E+00  0.0000000000000E+00  0.2752181081462E+00
 0.3714974130359E+00 -0.4107116331121E+00  0.0000000000000E+00  0.2956421200445E+00
 0.3761338276431E+00 -0.4158611711494E+00  0.0000000000000E+00  0.3192990093169E+00
 0.3796375797140E+00 -0.4201688693133E+00  0.0000000000000E+00  0.3450795998056E+00
 0.3824075550936E+00 -0.4239795305456E+00  0.0000000000000E+00  0.3720369555690E+00
 0.3847159450341E+00 -0.4277067542217E+00  0.0000000000000E+00  0.4009974924793E+00
 0.3847192876032E+00 -0.4297079158960E+00  0.0000000000000E+00  0.4336354581105E+00
 0.3756866052863E-01 -0.9977903618254E-01  0.0000000000000E+00  0.4560347236604E+00
 0.8721750381325E-01 -0.1463606200342E+00  0.0000000000000E+00  0.4369938959542E+00
 0.1351567775470E+00 -0.1911172022409E+00  0.0000000000000E+00  0.4073352388703E+00
 0.1779478821019E+00 -0.2307855799686E+00  0.0000000000000E+00  0.3718883069757E+00
 0.2142694457221E+00 -0.2641613090285E+00  0.0000000000000E+00  0.3357021082563E+00
 0.2441654083091E+00 -0.2913671690494E+00  0.0000000000000E+00  0.3027209489885E+00
 0.2683915130152E+00 -0.3132122188221E+00  0.0000000000000E+00  0.2755731879509E+00
 0.2879838086699E+00 -0.3307632310657E+00  0.0000000000000E+00  0.2556555151797E+00
 0.3039631199279E+00 -0.3450508279238E+00  0.0000000000000E+00  0.2433798775513E+00
 0.3171590308313E+00 -0.3568969561841E+00  0.0000000000000E+00  0.2384844067723E+00
 0.3281319280141E+00 -0.3668407931682E+00  0.0000000000000E+00  0.2402904665156E+00
 0.3371619645914E+00 -0.3751330739224E+00  0.0000000000000E+00  0.2478872388318E+00
 0.3442313862750E+00 -0.3817668498186E+00  0.0000000000000E+00  0.2610076043788E+00
 0.3496927104915E+00 -0.3871123672844E+00  0.0000000000000E+00  0.2791499621781E+00
 0.3539893055422E+00 -0.3916118526541E+00  0.0000000000000E+00  0.3013396862686E+00
 0.3573244567191E+00 -0.3954733477717E+00  0.0000000000000E+00  0.3266512720109E+00
 0.3600222169899E+00 -0.3990108981850E+00  0.0000000000000E+00  0.3540936765335E+00
 0.3622622489164E+00 -0.4024387706275E+00  0.0000000000000E+00  0.3832228516023E+00
 0.3637744281283E+00 -0.4055616161727E+00  0.0000000000000E+00  0.4144105234845E+00
 0.3629286315494E+00 -0.4069284742563E+00  0.0000000000000E+00  0.4470551727326E+00
 0.3880218475297E-01 -0.1007029920799E+00  0.0000000000000E+00  0.4735794770478E+00
 0.9016027163133E-01 -0.1488419918794E+00  0.0000000000000E+00  0.4533739566408E+00
 0.1392234646728E+00 -0.1945355294491E+00  0.0000000000000E+00  0.4197580074664E+00
 0.1821080378340E+00 -0.2341068323958E+00  0.0000000000000E+00  0.3793279387030E+00
 0.2175160222031E+00 -0.2663925876694E+00  0.0000000000000E+00  0.3384295670568E+00
 0.2457260875115E+00 -0.2917598543584E+00  0.0000000000000E+00  0.3017229798620E+00
 0.2677701987830E+00 -0.3112980593320E+00  0.0000000000000E+00  0.2721055557373E+00
 0.2849239678114E+00 -0.3263129995296E+00  0.0000000000000E+00  0.2509401809501E+00
 0.2983795771890E+00 -0.3380024153451E+00  0.0000000000000E+00  0.2384427657102E+00
 0.3090695188174E+00 -0.3472849553389E+00  0.0000000000000E+00  0.2341006648040E+00
 0.3176056510355E+00 -0.3547441437242E+00  0.0000000000000E+00  0.2369853546781E+00
 0.3242867983246E+00 -0.3606413075275E+00  0.0000000000000E+00  0.2459616940095E+00
 0.3291125224939E+00 -0.3649914214684E+00  0.0000000000000E+00  0.2606886262162E+00
 0.3325413127437E+00 -0.3682771210401E+00  0.0000000000000E+00  0.2805633191666E+00
 0.3351258306647E+00 -0.3710539108893E+00  0.0000000000000E+00  0.3044945003719E+00
 0.3371225168445E+00 -0.3735896306557E+00  0.0000000000000E+00  0.3315699875618E+00
 0.3388302321480E+00 -0.3761955095708E+00  0.0000000000000E+00  0.3609213249793E+00
 0.3402566500616E+00 -0.3789116405096E+00  0.0000000000000E+00  0.3920757708807E+00
 0.3409619124635E+00 -0.3813724333490E+00  0.0000000000000E+00  0.4247847297929E+00
 0.3398496086981E+00 -0.3826295885011E+00  0.0000000000000E+00  0.4572556089359E+00
 0.4033411965630E-01 -0.1019889234760E+00  0.0000000000000E+00  0.4913389151464E+00
 0.9377817719900E-01 -0.1520314808266E+00  0.0000000000000E+00  0.4694019527477E+00
 0.1440611769650E+00 -0.1987271672824E+00  0.0000000000000E+00  0.4308842774996E+00
 0.1868810607065E+00 -0.2380150476401E+00  0.0000000000000E+00  0.3846004195829E+00
 0.2210561604407E+00 -0.2688686766344E+00  0.0000000000000E+00  0.3384062973916E+00
 0.2472031267988E+00 -0.2920041430459E+00  0.0000000000000E+00  0.2977096529556E+00
 0.2667077474195E+00 -0.3088690375193E+00  0.0000000000000E+00  0.2656124724282E+00
 0.2811287684828E+00 -0.3210502013398E+00  0.0000000000000E+00  0.2433411949079E+00
 0.2918435553985E+00 -0.3299239542128E+00  0.0000000000000E+00  0.2308165605692E+00
 0.2998819943975E+00 -0.3364977876851E+00  0.0000000000000E+00  0.2272019267625E+00
 0.3058924878626E+00 -0.3413827709102E+00  0.0000000000000E+00  0.2312761022370E+00
 0.3101741206880E+00 -0.3448313482525E+00  0.0000000000000E+00  0.2416626960258E+00
 0.3127349003817E+00 -0.3468715036107E+00  0.0000000000000E+00  0.2579440494441E+00
 0.3141266113170E+00 -0.3480867435157E+00  0.0000000000000E+00  0.2794488347792E+00
 0.3149793791278E+00 -0.3491153286723E+00  0.0000000000000E+00  0.3050275784324E+00
 0.3155566958151E+00 -0.3502419400341E+00  0.0000000000000E+00  0.3338087167936E+00
 0.3161250299849E+00 -0.3517511599629E+00  0.0000000000000E+00  0.3649411092943E+00
 0.3166108396316E+00 -0.3536040651074E+00  0.0000000000000E+00  0.3978024298279E+00
 0.3165992647913E+00 -0.3554575120206E+00  0.0000000000000E+00  0.4316496854908E+00
 0.3155540827597E+00 -0.3569174133674E+00  0.0000000000000E+00  0.4641522163259E+00
 0.4224306174092E-01 -0.1037319342626E+00  0.0000000000000E+00  0.5094516101206E+00
 0.9822616416363E-01 -0.1560922430472E+00  0.0000000000000E+00  0.4849934818538E+00
 0.1497983169940E+00 -0.2038218826688E+00  0.0000000000000E+00  0.4404222615091E+00
 0.1923199968525E+00 -0.2425591669980E+00  0.0000000000000E+00  0.3873047765101E+00
 0.2248604577237E+00 -0.2715526366595E+00  0.0000000000000E+00  0.3352363900929E+00
 0.2485057516572E+00 -0.2920008615934E+00  0.0000000000000E+00  0.2903738483522E+00
 0.2650851286500E+00 -0.3057990507213E+00  0.0000000000000E+00  0.2559131236396E+00
 0.2764833959140E+00 -0.3148556750966E+00  0.0000000000000E+00  0.2328001919635E+00
 0.2842687209894E+00 -0.3207279060232E+00  0.0000000000000E+00  0.2205361269757E+00
 0.2895523370600E+00 -0.3244929258056E+00  0.0000000000000E+00  0.2178774416037E+00
 0.2929947504676E+00 -0.3267627643270E+00  0.0000000000000E+00  0.2232691942543E+00
 0.2948699696484E+00 -0.3277545395543E+00  0.0000000000000E+00  0.2350842422581E+00
 0.2951807856140E+00 -0.3274954749993E+00  0.0000000000000E+00  0.2528266491678E+00
 0.2945532408909E+00 -0.3266514481913E+00  0.0000000000000E+00  0.2757844845785E+00
 0.2936614551201E+00 -0.3259110825556E+00  0.0000000000000E+00  0.3027932842259E+00
 0.2927570579959E+00 -0.3255537851031E+00  0.0000000000000E+00  0.3330282656067E+00
 0.2920910942906E+00 -0.3258534278777E+00  0.0000000000000E+00  0.3656380356028E+00
 0.2915787063895E+00 -0.3267608319284E+00  0.0000000000000E+00  0.3998640646752E+00
 0.2909252214214E+00 -0.3280568065653E+00  0.0000000000000E+00  0.4346536651080E+00
 0.2900983967543E+00 -0.3298537849774E+00  0.0000000000000E+00  0.4675040106546E+00
 0.4462632931005E-01 -0.1060493977502E+00  0.0000000000000E+00  0.5280830493076E+00
 0.1036890492601E+00 -0.1612185371588E+00  0.0000000000000E+00  0.5000090088124E+00
 0.1565729342523E+00 -0.2099586733126E+00  0.0000000000000E+00  0.4479844019579E+00
 0.1984612173764E+00 -0.2477694418974E+00  0.0000000000000E+00  0.3869497798446E+00
 0.2288636250814E+00 -0.2743689506749E+00  0.0000000000000E+00  0.3284726639910E+00
 0.2495013773847E+00 -0.2916066770929E+00  0.0000000000000E+00  0.2794081272163E+00
 0.2627480406744E+00 -0.3019255140167E+00  0.0000000000000E+00  0.2428701379714E+00
 0.2708516341384E+00 -0.3075889013621E+00  0.0000000000000E+00  0.2193283884629E+00
 0.2755626581841E+00 -0.3103215907026E+00  0.0000000000000E+00  0.2077130759753E+00
 0.2780429614818E+00 -0.3112357285408E+00  0.0000000000000E+00  0.2062862465978E+00
 0.2789295946784E+00 -0.3109063611208E+00  0.0000000000000E+00  0.2131262501457E+00
 0.2784398976834E+00 -0.3094827570193E+00  0.0000000000000E+00  0.2263576039450E+00
 0.2765564113828E+00 -0.3069760023817E+00  0.0000000000000E+00  0.2454052390259E+00
 0.2739591386655E+00 -0.3041145264111E+00  0.0000000000000E+00  0.2695413784323E+00
 0.2713384584212E+00 -0.3016095804019E+00  0.0000000000000E+00  0.2976293252216E+00
 0.2689257664786E+00 -0.2997262390030E+00  0.0000000000000E+00  0.3289205605196E+00
 0.2669727353219E+00 -0.2987430570195E+00  0.0000000000000E+00  0.3625980782412E+00
 0.2654265808542E+00 -0.2986455498591E+00  0.0000000000000E+00  0.3978381452026E+00
 0.2641558370251E+00 -0.2993837887422E+00  0.0000000000000E+00  0.4334425320317E+00
 0.2635675645169E+00 -0.3015207181880E+00  0.0000000000000E+00  0.4669447872133E+00
 0.4760622535343E-01 -0.1090888284368E+00  0.0000000000000E+00  0.5474289326581E+00
 0.1103887409496E+00 -0.1676435578436E+00  0.0000000000000E+00  0.5142302162601E+00
 0.1645297255809E+00 -0.2172823978176E+00  0.0000000000000E+00  0.4530573786008E+00
 0.2053128261527E+00 -0.2536448768436E+00  0.0000000000000E+00  0.3829345489413E+00
 0.2329502558903E+00 -0.2771882346336E+00  0.0000000000000E+00  0.3176169911355E+00
 0.2500048045767E+00 -0.2906227624213E+00  0.0000000000000E+00  0.2645226436851E+00
 0.2595028143058E+00 -0.2970453572733E+00  0.0000000000000E+00  0.2264153720573E+00
 0.2640783073933E+00 -0.2990909581982E+00  0.0000000000000E+00  0.2030295182850E+00
 0.2656333643482E+00 -0.2986142676703E+00  0.0000000000000E+00  0.1925494483002E+00
 0.2653304223143E+00 -0.2967074077925E+00  0.0000000000000E+00  0.1926605136241E+00
 0.2637358252696E+00 -0.2938588346987E+00  0.0000000000000E+00  0.2010599140594E+00
 0.2609748509872E+00 -0.2901140922234E+00  0.0000000000000E+00  0.2156448412875E+00
 0.2569974314247E+00 -0.2854555136993E+00  0.0000000000000E+00  0.2357639889720E+00
 0.2525196000456E+00 -0.2806567029791E+00  0.0000000000000E+00  0.2607005304814E+00
 0.2482238162861E+00 -0.2764279838521E+00  0.0000000000000E+00  0.2893988864847E+00
 0.2443153347760E+00 -0.2730137601397E+00  0.0000000000000E+00  0.3212350886368E+00
 0.2410535004982E+00 -0.2707044123885E+00  0.0000000000000E+00  0.3554889624380E+00
 0.2384398997183E+00 -0.2695429693168E+00  0.0000000000000E+00  0.3913583498632E+00
 0.2365219463567E+00 -0.2696662742536E+00  0.0000000000000E+00  0.4276361789135E+00
 0.2360932777302E+00 -0.2720426145606E+00  0.0000000000000E+00  0.4620231370116E+00
 0.5133842024679E-01 -0.1130386761398E+00  0.0000000000000E+00  0.5677176650211E+00
 0.1185931606486E+00 -0.1756492159368E+00  0.0000000000000E+00  0.5273236721712E+00
 0.1738142998016E+00 -0.2259374805209E+00  0.0000000000000E+00  0.4549599124815E+00
 0.2128376024841E+00 -0.2601346017480E+00  0.0000000000000E+00  0.3745258202272E+00
 0.2369358486637E+00 -0.2798067799022E+00  0.0000000000000E+00  0.3021274478876E+00
 0.2497660199921E+00 -0.2887820280511E+00  0.0000000000000E+00  0.2454749136666E+00
 0.2551145374705E+00 -0.2909135737919E+00  0.0000000000000E+00  0.2065855027609E+00
 0.2559958227355E+00 -0.2891919615565E+00  0.0000000000000E+00  0.1841264390456E+00
 0.2543995661579E+00 -0.2855282386640E+00  0.0000000000000E+00  0.1753490377434E+00
 0.2514152197858E+00 -0.2809152172861E+00  0.0000000000000E+00  0.1773035958742E+00
 0.2474809590042E+00 -0.2756955507800E+00  0.0000000000000E+00  0.1873251209101E+00
 0.2425951617336E+00 -0.2697767074779E+00  0.0000000000000E+00  0.2031310256379E+00
 0.2366699253527E+00 -0.2631071662615E+00  0.0000000000000E+00  0.2240031882495E+00
 0.2304432543464E+00 -0.2564927493298E+00  0.0000000000000E+00  0.2492669798198E+00
 0.2245676432013E+00 -0.2506217501155E+00  0.0000000000000E+00  0.2780098409385E+00
 0.2192154310613E+00 -0.2457107399981E+00  0.0000000000000E+00  0.3097887720562E+00
 0.2146505179524E+00 -0.2420583812842E+00  0.0000000000000E+00  0.3440504321444E+00
 0.2109344285288E+00 -0.2397704720099E+00  0.0000000000000E+00  0.3801000585324E+00
 0.2082929507181E+00 -0.2391712048617E+00  0.0000000000000E+00  0.4168360507587E+00
 0.2078660543224E+00 -0.2416009368960E+00  0.0000000000000E+00  0.4522256622407E+00
 0.5602362355924E-01 -0.1181437909822E+00  0.0000000000000E+00  0.5892105074462E+00
 0.1286272980626E+00 -0.1855785093630E+00  0.0000000000000E+00  0.5387849956200E+00
 0.1845623291369E+00 -0.2360559701480E+00  0.0000000000000E+00  0.4527830422109E+00
 0.2209272888047E+00 -0.2671095938929E+00  0.0000000000000E+00  0.3608326656240E+00
 0.2405415736577E+00 -0.2819192285556E+00  0.0000000000000E+00  0.2814384246386E+00
 0.2484576461609E+00 -0.2857361828571E+00  0.0000000000000E+00  0.2221177589006E+00
 0.2493098720824E+00 -0.2832470947408E+00  0.0000000000000E+00  0.1835696351139E+00
 0.2464369152005E+00 -0.2777252488570E+00  0.0000000000000E+00  0.1629890330214E+00
 0.2418055204254E+00 -0.2710146050186E+00  0.0000000000000E+00  0.1565221708012E+00
 0.2363330939859E+00 -0.2639040157466E+00  0.0000000000000E+00  0.1605795337601E+00
 0.2302670948552E+00 -0.2565276750124E+00  0.0000000000000E+00  0.1722042426250E+00
 0.2234514495790E+00 -0.2486294704861E+00  0.0000000000000E+00  0.1890138153860E+00
 0.2157669812453E+00 -0.2401313427559E+00  0.0000000000000E+00  0.2102383037464E+00
 0.2079646053843E+00 -0.2318639268744E+00  0.0000000000000E+00  0.2352777773789E+00
 0.2006464544750E+00 -0.2244742186975E+00  0.0000000000000E+00  0.2634264346113E+00
 0.1939439304703E+00 -0.2181421231146E+00  0.0000000000000E+00  0.2944747058356E+00
 0.1881128955468E+00 -0.2131607186189E+00  0.0000000000000E+00  0.3280995962381E+00
 0.1832659982230E+00 -0.2096882495187E+00  0.0000000000000E+00  0.3637894518627E+00
 0.1797940358412E+00 -0.2082230058943E+00  0.0000000000000E+00  0.4006461508634E+00
 0.1791482296699E+00 -0.2104485731988E+00  0.0000000000000E+00  0.4369970662523E+00
 0.6192430085905E-01 -0.1247284123455E+00  0.0000000000000E+00  0.6121961567501E+00
 0.1408867078215E+00 -0.1978510503675E+00  0.0000000000000E+00  0.5478511007127E+00
 0.1968792887887E+00 -0.2477350676711E+00  0.0000000000000E+00  0.4453045010640E+00
 0.2293631500884E+00 -0.2743189045355E+00  0.0000000000000E+00  0.3407821572158E+00
 0.2433612392413E+00 -0.2830827126464E+00  0.0000000000000E+00  0.2550051935605E+00
 0.2456647438443E+00 -0.2810458090334E+00  0.0000000000000E+00  0.1944745728334E+00
 0.2417887418456E+00 -0.2737386934059E+00  0.0000000000000E+00  0.1577694512246E+00
 0.2352561302694E+00 -0.2645509536318E+00  0.0000000000000E+00  0.1401573547098E+00
 0.2278402024916E+00 -0.2550733794476E+00  0.0000000000000E+00  0.1365772720958E+00
 0.2201660993728E+00 -0.2457672621396E+00  0.0000000000000E+00  0.1428905454687E+00
 0.2122338423578E+00 -0.2365046516032E+00  0.0000000000000E+00  0.1559855732112E+00
 0.2037216531034E+00 -0.2268585774512E+00  0.0000000000000E+00  0.1734906035976E+00
 0.1945018079212E+00 -0.2167484669987E+00  0.0000000000000E+00  0.1945971775605E+00
 0.1853344535988E+00 -0.2070281626702E+00  0.0000000000000E+00  0.2188070605820E+00
 0.1767525920808E+00 -0.1982857472568E+00  0.0000000000000E+00  0.2456790717254E+00
 0.1688385335048E+00 -0.1906548702673E+00  0.0000000000000E+00  0.2752750361487E+00
 0.1618195309186E+00 -0.1844000538326E+00  0.0000000000000E+00  0.3075481946377E+00
 0.1558372132569E+00 -0.1797067882523E+00  0.0000000000000E+00  0.3422282255006E+00
 0.1514200681342E+00 -0.1772186616819E+00  0.0000000000000E+00  0.3787043946984E+00
 0.1502901030251E+00 -0.1789272071891E+00  0.0000000000000E+00  0.4157633028566E+00
 0.6938924886335E-01 -0.1332316284296E+00  0.0000000000000E+00  0.6369727452928E+00
 0.1558532050173E+00 -0.2129819414947E+00  0.0000000000000E+00  0.5533575335856E+00
 0.2108025028943E+00 -0.2609944961132E+00  0.0000000000000E+00  0.4308642145084E+00
 0.2377546165006E+00 -0.2813208674597E+00  0.0000000000000E+00  0.3131060811739E+00
 0.2448198285935E+00 -0.2826719043279E+00  0.0000000000000E+00  0.2223943071286E+00
 0.2408831927018E+00 -0.2741808416204E+00  0.0000000000000E+00  0.1628537829041E+00
 0.2322515015698E+00 -0.2620882613227E+00  0.0000000000000E+00  0.1298670532460E+00
 0.2223622285112E+00 -0.2495910419913E+00  0.0000000000000E+00  0.1163474680449E+00
 0.2125588902773E+00 -0.2377754093735E+00  0.0000000000000E+00  0.1160903286873E+00
 0.2030503440769E+00 -0.2266540323340E+00  0.0000000000000E+00  0.1246408307085E+00
 0.1935563994162E+00 -0.2158115191570E+00  0.0000000000000E+00  0.1389373119240E+00
 0.1836039981239E+00 -0.2046700471120E+00  0.0000000000000E+00  0.1567454814548E+00
 0.1730981310611E+00 -0.1931890583357E+00  0.0000000000000E+00  0.1772169984579E+00
 0.1628087090730E+00 -0.1822485226040E+00  0.0000000000000E+00  0.1999699332434E+00
 0.1531824888634E+00 -0.1723616582634E+00  0.0000000000000E+00  0.2248740941685E+00
 0.1442466688943E+00 -0.1636077158627E+00  0.0000000000000E+00  0.2522778006418E+00
 0.1361737708883E+00 -0.1561928494520E+00  0.0000000000000E+00  0.2824291176213E+00
 0.1290999708509E+00 -0.1502903071209E+00  0.0000000000000E+00  0.3153310461604E+00
 0.1236470309622E+00 -0.1466406252547E+00  0.0000000000000E+00  0.3507261605237E+00
 0.1217499066325E+00 -0.1474887079567E+00  0.0000000000000E+00  0.3879650324726E+00
 0.7889060342886E-01 -0.1442645145851E+00  0.0000000000000E+00  0.6638013029597E+00
 0.1741106615723E+00 -0.2316024125181E+00  0.0000000000000E+00  0.5534962771264E+00
 0.2262287947096E+00 -0.2756940344710E+00  0.0000000000000E+00  0.4071812764059E+00
 0.2454428893241E+00 -0.2873735846958E+00  0.0000000000000E+00  0.2763655217672E+00
 0.2441268177278E+00 -0.2798294556247E+00  0.0000000000000E+00  0.1834590698156E+00
 0.2335398978094E+00 -0.2645469733785E+00  0.0000000000000E+00  0.1280135839544E+00
 0.2204508143912E+00 -0.2480616496829E+00  0.0000000000000E+00  0.1008819356464E+00
 0.2077609396884E+00 -0.2328741148994E+00  0.0000000000000E+00  0.9241770712443E-01
 0.1961014806511E+00 -0.2192796140092E+00  0.0000000000000E+00  0.9564463743798E-01
 0.1851759552645E+00 -0.2067673734240E+00  0.0000000000000E+00  0.1061905934328E+00
 0.1744375569986E+00 -0.1946601510324E+00  0.0000000000000E+00  0.1212830757466E+00
 0.1633066264568E+00 -0.1822789786204E+00  0.0000000000000E+00  0.1389390909097E+00
 0.1517788598727E+00 -0.1696820890738E+00  0.0000000000000E+00  0.1582419813415E+00
 0.1406359623114E+00 -0.1577803997582E+00  0.0000000000000E+00  0.1789252902556E+00
 0.1302231664822E+00 -0.1469983380398E+00  0.0000000000000E+00  0.2012028524608E+00
 0.1205121826220E+00 -0.1373576247865E+00  0.0000000000000E+00  0.2256956591128E+00
 0.1115929121011E+00 -0.1289730957630E+00  0.0000000000000E+00  0.2529293069809E+00
 0.1035518856508E+00 -0.1219541680194E+00  0.0000000000000E+00  0.2831747662227E+00
 0.9703981326459E-01 -0.1170664711448E+00  0.0000000000000E+00  0.3165639834101E+00
 0.9411718131846E-01 -0.1167205272179E+00  0.0000000000000E+00  0.3531100618749E+00
 0.9108127806115E-01 -0.1587071832829E+00  0.0000000000000E+00  0.6927942053518E+00
 0.1963528933482E+00 -0.2544754697143E+00  0.0000000000000E+00  0.5453799968476E+00
 0.2427722284888E+00 -0.2913670126476E+00  0.0000000000000E+00  0.3710866223087E+00
 0.2513498083685E+00 -0.2912620350733E+00  0.0000000000000E+00  0.2290827044649E+00
 0.2402395372386E+00 -0.2734303561340E+00  0.0000000000000E+00  0.1386696551264E+00
 0.2230612242824E+00 -0.2515704088418E+00  0.0000000000000E+00  0.9137221493533E-01
 0.2062770162179E+00 -0.2315842934743E+00  0.0000000000000E+00  0.7216720408103E-01
 0.1915991699396E+00 -0.2145790988350E+00  0.0000000000000E+00  0.6926608287394E-01
 0.1786967735385E+00 -0.1998331215025E+00  0.0000000000000E+00  0.7574391516600E-01
 0.1667754594679E+00 -0.1863512412523E+00  0.0000000000000E+00  0.8781519363367E-01
 0.1550948530374E+00 -0.1732759483950E+00  0.0000000000000E+00  0.1031860934991E+00
 0.1430356882362E+00 -0.1598975321821E+00  0.0000000000000E+00  0.1202028594873E+00
 0.1307541996153E+00 -0.1464428180963E+00  0.0000000000000E+00  0.1378210252991E+00
 0.1190441628549E+00 -0.1338577252303E+00  0.0000000000000E+00  0.1558764298443E+00
 0.1081367075367E+00 -0.1224672326958E+00  0.0000000000000E+00  0.1749481834883E+00
 0.9795795731735E-01 -0.1122419968995E+00  0.0000000000000E+00  0.1958830719955E+00
 0.8849073036003E-01 -0.1031747843681E+00  0.0000000000000E+00  0.2194248345910E+00
 0.7972352550077E-01 -0.9525287359927E-01  0.0000000000000E+00  0.2460575888899E+00
 0.7225264781560E-01 -0.8917168051466E-01  0.0000000000000E+00  0.2762881961098E+00
 0.6813727476921E-01 -0.8737323502883E-01  0.0000000000000E+00  0.3108568132495E+00
 0.1068836384716E+00 -0.1778875202502E+00  0.0000000000000E+00  0.7236310775977E+00
 0.2233560671281E+00 -0.2824734025830E+00  0.0000000000000E+00  0.5242043837501E+00
 0.2594724669658E+00 -0.3068750485823E+00  0.0000000000000E+00  0.3181490144601E+00
 0.2537478238876E+00 -0.2910260454434E+00  0.0000000000000E+00  0.1701654740249E+00
 0.2318882717694E+00 -0.2621343615101E+00  0.0000000000000E+00  0.8970785689796E-01
 0.2090346580467E+00 -0.2348863945063E+00  0.0000000000000E+00  0.5518640760854E-01
 0.1898721392305E+00 -0.2128640200846E+00  0.0000000000000E+00  0.4524631905860E-01
 0.1741837455041E+00 -0.1950409162669E+00  0.0000000000000E+00  0.4764005765248E-01
 0.1606402668896E+00 -0.1797462792243E+00  0.0000000000000E+00  0.5673922166893E-01
 0.1481035178862E+00 -0.1656693256804E+00  0.0000000000000E+00  0.6968632676555E-01
 0.1357465448148E+00 -0.1518840986736E+00  0.0000000000000E+00  0.8474537593604E-01
 0.1229843143743E+00 -0.1377240043893E+00  0.0000000000000E+00  0.1006355711698E+00
 0.1102100431119E+00 -0.1236608018529E+00  0.0000000000000E+00  0.1161029861641E+00
 0.9822653139755E-01 -0.1106782987781E+00  0.0000000000000E+00  0.1310679493099E+00
 0.8714279079670E-01 -0.9899677937264E-01  0.0000000000000E+00  0.1464865425273E+00
 0.7686466744076E-01 -0.8855702877212E-01  0.0000000000000E+00  0.1633476350406E+00
 0.6725197910132E-01 -0.7920572752979E-01  0.0000000000000E+00  0.1825107490694E+00
 0.5815221893206E-01 -0.7075413684976E-01  0.0000000000000E+00  0.2045624491456E+00
 0.5001475044550E-01 -0.6371751064597E-01  0.0000000000000E+00  0.2302914780870E+00
 0.4473088173602E-01 -0.6038518907768E-01  0.0000000000000E+00  0.2611466799916E+00
 0.1276431288590E+00 -0.2039372692025E+00  0.0000000000000E+00  0.7548662924767E+00
 0.2558184363834E+00 -0.3164396224558E+00  0.0000000000000E+00  0.4814328260650E+00
 0.2741584283594E+00 -0.3195820271842E+00  0.0000000000000E+00  0.2422989254743E+00
 0.2499632563356E+00 -0.2836584684652E+00  0.0000000000000E+00  0.1001196273959E+00
 0.2178051396107E+00 -0.2446677240860E+00  0.0000000000000E+00  0.4040205276318E-01
 0.1915206390744E+00 -0.2147298911271E+00  0.0000000000000E+00  0.2242529023543E-01
 0.1717066799975E+00 -0.1924169060409E+00  0.0000000000000E+00  0.2131587438642E-01
 0.1559290833003E+00 -0.1746945797209E+00  0.0000000000000E+00  0.2798926739791E-01
 0.1422554343347E+00 -0.1593513539554E+00  0.0000000000000E+00  0.3880948608369E-01
 0.1294155191203E+00 -0.1449846618670E+00  0.0000000000000E+00  0.5188172816158E-01
 0.1166015269739E+00 -0.1307002582753E+00  0.0000000000000E+00  0.6599960644065E-01
 0.1033242209721E+00 -0.1159346422992E+00  0.0000000000000E+00  0.8029708398215E-01
 0.9029660769874E-01 -0.1014879696299E+00  0.0000000000000E+00  0.9322582172419E-01
 0.7832602956533E-01 -0.8838710717853E-01  0.0000000000000E+00  0.1047784784995E+00
 0.6739978908728E-01 -0.7675330622032E-01  0.0000000000000E+00  0.1162863323875E+00
 0.5744766994469E-01 -0.6653399568615E-01  0.0000000000000E+00  0.1287517824715E+00
 0.4820060244009E-01 -0.5741531329262E-01  0.0000000000000E+00  0.1430142839149E+00
 0.3933818930112E-01 -0.4899259316312E-01  0.0000000000000E+00  0.1596080437135E+00
 0.3108797960797E-01 -0.4151126765564E-01  0.0000000000000E+00  0.1794144256222E+00
 0.2499228514739E-01 -0.3688680813106E-01  0.0000000000000E+00  0.2044057283355E+00
 0.1552249010476E+00 -0.2406981889765E+00  0.0000000000000E+00  0.7812004698493E+00
 0.2936599894572E+00 -0.3561610924956E+00  0.0000000000000E+00  0.4006749405965E+00
 0.2820211277120E+00 -0.3237286310691E+00  0.0000000000000E+00  0.1360675705191E+00
 0.2361999534799E+00 -0.2647248996943E+00  0.0000000000000E+00  0.2439803603666E-01
 0.1975892654143E+00 -0.2212309848015E+00  0.0000000000000E+00 -0.2291645046852E-02
 0.1713852797695E+00 -0.1920331125252E+00  0.0000000000000E+00 -0.4799171657942E-02
 0.1524275874979E+00 -0.1709235789792E+00  0.0000000000000E+00  0.9231664718836E-03
 0.1372786911702E+00 -0.1539882745263E+00  0.0000000000000E+00  0.1045679794316E-01
 0.1238534166385E+00 -0.1389657913889E+00  0.0000000000000E+00  0.2200200943823E-01
 0.1109552207833E+00 -0.1245481192679E+00  0.0000000000000E+00  0.3441155825544E-01
 0.9785620157909E-01 -0.1099285532424E+00  0.0000000000000E+00  0.4693255641339E-01
 0.8420144344017E-01 -0.9468054453591E-01  0.0000000000000E+00  0.5919126080095E-01
 0.7111551024502E-01 -0.8002360617151E-01  0.0000000000000E+00  0.6929279971223E-01
 0.5941550293090E-01 -0.6705504717506E-01  0.0000000000000E+00  0.7731174054436E-01
 0.4898462344356E-01 -0.5582017245150E-01  0.0000000000000E+00  0.8491095498888E-01
 0.3983845403030E-01 -0.4632324354010E-01  0.0000000000000E+00  0.9290462865486E-01
 0.3156793824294E-01 -0.3805852160894E-01  0.0000000000000E+00  0.1019740416352E+00
 0.2368422501973E-01 -0.3040961544059E-01  0.0000000000000E+00  0.1124604019134E+00
 0.1617798854978E-01 -0.2330902766820E-01  0.0000000000000E+00  0.1250555443763E+00
 0.1013339494487E-01 -0.1816130286478E-01  0.0000000000000E+00  0.1418494337866E+00
 0.1929099698216E+00 -0.2958479767801E+00  0.0000000000000E+00  0.7881588176638E+00
 0.3330523813404E+00 -0.3983341267939E+00  0.0000000000000E+00  0.2434844692369E+00
 0.2717589156008E+00 -0.3027426103517E+00  0.0000000000000E+00 -0.2613911376593E-02
 0.2097205408195E+00 -0.2340197163950E+00  0.0000000000000E+00 -0.3690463896335E-01
 0.1732746147208E+00 -0.1938751926264E+00  0.0000000000000E+00 -0.3418327429915E-01
 0.1497455849601E+00 -0.1679819002430E+00  0.0000000000000E+00 -0.2598979547658E-01
 0.1327020790809E+00 -0.1490378854492E+00  0.0000000000000E+00 -0.1594320850477E-01
 0.1186273377312E+00 -0.1333230193511E+00  0.0000000000000E+00 -0.5005462146902E-02
 0.1057141461124E+00 -0.1188728156911E+00  0.0000000000000E+00  0.6281200613004E-02
 0.9294952278307E-01 -0.1045914756962E+00  0.0000000000000E+00  0.1725658276192E-01
 0.7970334051117E-01 -0.8977652758113E-01  0.0000000000000E+00  0.2748183278724E-01
 0.6573876220815E-01 -0.7408939542866E-01  0.0000000000000E+00  0.3722030837818E-01
 0.5270017388288E-01 -0.5929338342339E-01  0.0000000000000E+00  0.4432094633146E-01
 0.4146374915921E-01 -0.4663730904070E-01  0.0000000000000E+00  0.4899267631523E-01
 0.3186970535353E-01 -0.3617965480239E-01  0.0000000000000E+00  0.5305603700088E-01
 0.2408369386361E-01 -0.2799403018124E-01  0.0000000000000E+00  0.5675950552922E-01
 0.1748482646467E-01 -0.2129492902437E-01  0.0000000000000E+00  0.6055564882924E-01
 0.1141504547362E-01 -0.1524488314859E-01  0.0000000000000E+00  0.6464937568570E-01
 0.5797066996952E-02 -0.9705132590405E-02  0.0000000000000E+00  0.6924464600029E-01
 0.1293803942409E-02 -0.5410195851770E-02  0.0000000000000E+00  0.7574385762519E-01
 0.2283242001258E+00 -0.3994510135957E+00  0.0000000000000E+00  0.6374547398822E+00
 0.3412159489959E+00 -0.3750881422922E+00  0.0000000000000E+00 -0.7915613648429E-01
 0.2286306922062E+00 -0.2537551566187E+00  0.0000000000000E+00 -0.1037235593420E+00
 0.1767867146785E+00 -0.1972568899940E+00  0.0000000000000E+00 -0.7403388193494E-01
 0.1469396257588E+00 -0.1648526026170E+00  0.0000000000000E+00 -0.5584148734115E-01
 0.1276980576074E+00 -0.1435937307210E+00  0.0000000000000E+00 -0.4162362509089E-01
 0.1130474567193E+00 -0.1272789013547E+00  0.0000000000000E+00 -0.2952342322367E-01
 0.1003210763798E+00 -0.1130503932264E+00  0.0000000000000E+00 -0.1851928474296E-01
 0.8807809813873E-01 -0.9932079104868E-01  0.0000000000000E+00 -0.8476417368200E-02
 0.7558918126869E-01 -0.8529543069928E-01  0.0000000000000E+00  0.3989897350696E-03
 0.6236551888343E-01 -0.7048407023806E-01  0.0000000000000E+00  0.7662263112042E-02
 0.4808569609395E-01 -0.5436793572257E-01  0.0000000000000E+00  0.1401199376283E-01
 0.3493594720970E-01 -0.3910614455473E-01  0.0000000000000E+00  0.1801979980168E-01
 0.2423919774389E-01 -0.2688312386571E-01  0.0000000000000E+00  0.2037667363533E-01
 0.1595485725715E-01 -0.1777583191632E-01  0.0000000000000E+00  0.2166353561519E-01
 0.1018172426700E-01 -0.1155473809811E-01  0.0000000000000E+00  0.2130014347509E-01
 0.5963307324120E-02 -0.7156195814469E-02  0.0000000000000E+00  0.2001985655520E-01
 0.2599980962281E-02 -0.3629941026716E-02  0.0000000000000E+00  0.1772366663821E-01
-0.1824191931377E-04 -0.6553446150441E-03  0.0000000000000E+00  0.1436598231849E-01
-0.7035842102843E-03  0.2117446474794E-03  0.0000000000000E+00  0.1005338031669E-01
 0.4251884539898E+00 -0.4760087731069E+00  0.0000000000000E+00 -0.4200404101238E+00
 0.4074815290310E+00 -0.4559207324816E+00  0.0000000000000E+00 -0.4353923477229E+00
 0.3886832911278E+00 -0.4360564238562E+00  0.0000000000000E+00 -0.4505282075207E+00
 0.3688738792050E+00 -0.4151431947195E+00  0.0000000000000E+00 -0.4638491099078E+00
 0.3475828377392E+00 -0.3926747084804E+00  0.0000000000000E+00 -0.4747938859575E+00
 0.3248169115063E+00 -0.3685942210353E+00  0.0000000000000E+00 -0.4830471706473E+00
 0.3006305571086E+00 -0.3429312640697E+00  0.0000000000000E+00 -0.4882432107652E+00
 0.2751126822829E+00 -0.3157529047057E+00  0.0000000000000E+00 -0.4899417925785E+00
 0.2483750331954E+00 -0.2871514101610E+00  0.0000000000000E+00 -0.4876252357179E+00
 0.2205624745640E+00 -0.2572520871115E+00  0.0000000000000E+00 -0.4807004648072E+00
 0.1918687196862E+00 -0.2262284320027E+00  0.0000000000000E+00 -0.4684991698499E+00
 0.1625590751247E+00 -0.1943245171612E+00  0.0000000000000E+00 -0.4502789053562E+00
 0.1330020220442E+00 -0.1618865807999E+00  0.0000000000000E+00 -0.4252296346598E+00
 0.1037132341060E+00 -0.1294075081561E+00  0.0000000000000E+00 -0.3924930597407E+00
 0.7541616330714E-01 -0.9758909640003E-01  0.0000000000000E+00 -0.3512081679542E+00
 0.4912356561038E-01 -0.6742682676635E-01  0.0000000000000E+00 -0.3006062404758E+00
 0.2623518971895E-01 -0.4032028509309E-01  0.0000000000000E+00 -0.2402131908759E+00
 0.8642229448245E-02 -0.1818238950538E-01  0.0000000000000E+00 -0.1702180851013E+00
-0.1373794995029E-02 -0.3483163753268E-02  0.0000000000000E+00 -0.9243822013616E-01
-0.1121313466706E-02  0.1408018257970E-02  0.0000000000000E+00 -0.1002300491251E-01
 0.4401942612026E+00 -0.4915874757136E+00  0.0000000000000E+00 -0.4167756699551E+00
 0.4254745442153E+00 -0.4761972755040E+00  0.0000000000000E+00 -0.4322068174147E+00
 0.4076700298370E+00 -0.4572757611010E+00  0.0000000000000E+00 -0.4467440078391E+00
 0.3882983649632E+00 -0.4369644279919E+00  0.0000000000000E+00 -0.4614754440637E+00
 0.3676069968913E+00 -0.4152636417443E+00  0.0000000000000E+00 -0.4747214928026E+00
 0.3455086130971E+00 -0.3920459719282E+00  0.0000000000000E+00 -0.4857741211083E+00
 0.3219710886647E+00 -0.3672362969596E+00  0.0000000000000E+00 -0.4941032906363E+00
 0.2969998129815E+00 -0.3408112894609E+00  0.0000000000000E+00 -0.4992245270374E+00
 0.2706365082746E+00 -0.3127856467390E+00  0.0000000000000E+00 -0.5006125886121E+00
 0.2429577208902E+00 -0.2832086842065E+00  0.0000000000000E+00 -0.4976689215051E+00
 0.2140835059670E+00 -0.2521710194178E+00  0.0000000000000E+00 -0.4896993773191E+00
 0.1841948673975E+00 -0.2198208253576E+00  0.0000000000000E+00 -0.4758934972728E+00
 0.1535621986506E+00 -0.1863911933718E+00  0.0000000000000E+00 -0.4553014335971E+00
 0.1225888840643E+00 -0.1522428596248E+00  0.0000000000000E+00 -0.4268093977781E+00
 0.9187766023135E-01 -0.1179299217610E+00  0.0000000000000E+00 -0.3891190997632E+00
 0.6233138277841E-01 -0.8430225860720E-01  0.0000000000000E+00 -0.3407496597695E+00
 0.3531226171179E-01 -0.5266642239201E-01  0.0000000000000E+00 -0.2801009909348E+00
 0.1287165042978E-01 -0.2505049333267E-01  0.0000000000000E+00 -0.2057368860630E+00
-0.1800243066240E-02 -0.4634584158060E-02  0.0000000000000E+00 -0.1171137862978E+00
-0.4986062010245E-02  0.4214438139306E-02  0.0000000000000E+00 -0.1751140867713E-01
 0.4542349761975E+00 -0.5070319222465E+00  0.0000000000000E+00 -0.4072604900631E+00
 0.4412890508048E+00 -0.4936570485188E+00  0.0000000000000E+00 -0.4257586462372E+00
 0.4255512709122E+00 -0.4773206019659E+00  0.0000000000000E+00 -0.4417233013063E+00
 0.4076025692674E+00 -0.4586474284584E+00  0.0000000000000E+00 -0.4572811712425E+00
 0.3880149122325E+00 -0.4382871270870E+00  0.0000000000000E+00 -0.4720103060931E+00
 0.3669421448451E+00 -0.4163345901761E+00  0.0000000000000E+00 -0.4851107142068E+00
 0.3443941372423E+00 -0.3927675176117E+00  0.0000000000000E+00 -0.4959589097150E+00
 0.3203651126352E+00 -0.3675470109878E+00  0.0000000000000E+00 -0.5040058008954E+00
 0.2948615220302E+00 -0.3406486274894E+00  0.0000000000000E+00 -0.5087070850699E+00
 0.2679130495689E+00 -0.3120694540276E+00  0.0000000000000E+00 -0.5094674456517E+00
 0.2395795874703E+00 -0.2818332405017E+00  0.0000000000000E+00 -0.5056000292100E+00
 0.2099624146875E+00 -0.2499995552652E+00  0.0000000000000E+00 -0.4962869900605E+00
 0.1792229798089E+00 -0.2166804483321E+00  0.0000000000000E+00 -0.4805329388452E+00
 0.1476140912492E+00 -0.1820689773470E+00  0.0000000000000E+00 -0.4571046800514E+00
 0.1155317104064E+00 -0.1464877162983E+00  0.0000000000000E+00 -0.4244522145599E+00
 0.8360495568682E-01 -0.1104734713991E+00  0.0000000000000E+00 -0.3806067466517E+00
 0.5285530342258E-01 -0.7493315711328E-01  0.0000000000000E+00 -0.3230646533486E+00
 0.2502767096086E-01 -0.4145482812873E-01  0.0000000000000E+00 -0.2486752289320E+00
 0.3204178999123E-02 -0.1296840387547E-01  0.0000000000000E+00 -0.1537326979448E+00
-0.6262217065307E-02  0.4242176210874E-02  0.0000000000000E+00 -0.3595073092324E-01
 0.4682368741836E+00 -0.5224758170762E+00  0.0000000000000E+00 -0.3949146618422E+00
 0.4565147959924E+00 -0.5106056596839E+00  0.0000000000000E+00 -0.4154244579730E+00
 0.4424998994102E+00 -0.4962887375257E+00  0.0000000000000E+00 -0.4333472899650E+00
 0.4262719256680E+00 -0.4796608781914E+00  0.0000000000000E+00 -0.4501540083517E+00
 0.4081871876326E+00 -0.4610814816162E+00  0.0000000000000E+00 -0.4660523874797E+00
 0.3884791095261E+00 -0.4407812546988E+00  0.0000000000000E+00 -0.4806257816044E+00
 0.3672375941460E+00 -0.4188205138395E+00  0.0000000000000E+00 -0.4933150990320E+00
 0.3444894908846E+00 -0.3951973718998E+00  0.0000000000000E+00 -0.5035754076257E+00
 0.3202475519539E+00 -0.3698932629098E+00  0.0000000000000E+00 -0.5108600776753E+00
 0.2945312297272E+00 -0.3428937088900E+00  0.0000000000000E+00 -0.5145847547660E+00
 0.2673777220652E+00 -0.3141973342890E+00  0.0000000000000E+00 -0.5140856171122E+00
 0.2388507376180E+00 -0.2838225402217E+00  0.0000000000000E+00 -0.5085738228056E+00
 0.2090520112818E+00 -0.2518162814477E+00  0.0000000000000E+00 -0.4970785809778E+00
 0.1781396970081E+00 -0.2182687623386E+00  0.0000000000000E+00 -0.4783688471911E+00
 0.1463603594310E+00 -0.1833397768410E+00  0.0000000000000E+00 -0.4508387009720E+00
 0.1141068380553E+00 -0.1473081658111E+00  0.0000000000000E+00 -0.4123323324155E+00
 0.8203462686400E-01 -0.1106703863165E+00  0.0000000000000E+00 -0.3598597955708E+00
 0.5129427031403E-01 -0.7434810822634E-01  0.0000000000000E+00 -0.2891040132179E+00
 0.2413362610167E-01 -0.4019118497168E-01  0.0000000000000E+00 -0.1934706933503E+00
 0.5926046026823E-02 -0.1262776473567E-01  0.0000000000000E+00 -0.6130544147542E-01
 0.4819522935285E+00 -0.5376412589731E+00  0.0000000000000E+00 -0.3803352952517E+00
 0.4713443995226E+00 -0.5271314245447E+00  0.0000000000000E+00 -0.4020703139514E+00
 0.4588123866012E+00 -0.5145906735440E+00  0.0000000000000E+00 -0.4214764820586E+00
 0.4442301177122E+00 -0.4999101210672E+00  0.0000000000000E+00 -0.4394682421894E+00
 0.4277668162252E+00 -0.4832668432142E+00  0.0000000000000E+00 -0.4563464246803E+00
 0.4096043345862E+00 -0.4648330996004E+00  0.0000000000000E+00 -0.4719307455175E+00
 0.3898582762292E+00 -0.4447078875601E+00  0.0000000000000E+00 -0.4858073689426E+00
 0.3685882552965E+00 -0.4229261725102E+00  0.0000000000000E+00 -0.4974794550844E+00
 0.3458282824962E+00 -0.3994942887966E+00  0.0000000000000E+00 -0.5064128701668E+00
 0.3216086656990E+00 -0.3744111297321E+00  0.0000000000000E+00 -0.5120251462877E+00
 0.2959688393411E+00 -0.3476800929023E+00  0.0000000000000E+00 -0.5136548031049E+00
 0.2689658722435E+00 -0.3193158136009E+00  0.0000000000000E+00 -0.5105177763168E+00
 0.2406818719286E+00 -0.2893491804970E+00  0.0000000000000E+00 -0.5016482148125E+00
 0.2112328093760E+00 -0.2578327050634E+00  0.0000000000000E+00 -0.4858134171419E+00
 0.1807809999010E+00 -0.2248478753013E+00  0.0000000000000E+00 -0.4613842902600E+00
 0.1495551826182E+00 -0.1905164002069E+00  0.0000000000000E+00 -0.4261260903599E+00
 0.1178813190630E+00 -0.1550168350688E+00  0.0000000000000E+00 -0.3768376093991E+00
 0.8623865182323E-01 -0.1186064792800E+00  0.0000000000000E+00 -0.3086749878379E+00
 0.5532798335974E-01 -0.8162188702563E-01  0.0000000000000E+00 -0.2136941906450E+00
 0.2583804500801E-01 -0.4396349499114E-01  0.0000000000000E+00 -0.7658430933200E-01
 0.4952353200385E+00 -0.5523442754290E+00  0.0000000000000E+00 -0.3638319306173E+00
 0.4857065470756E+00 -0.5431567555675E+00  0.0000000000000E+00 -0.3861244214240E+00
 0.4745051402851E+00 -0.5322247419556E+00  0.0000000000000E+00 -0.4064301232144E+00
 0.4614342555468E+00 -0.5193594523957E+00  0.0000000000000E+00 -0.4252303038085E+00
 0.4465390600743E+00 -0.5046066607027E+00  0.0000000000000E+00 -0.4427562000687E+00
 0.4299318660735E+00 -0.4880723427488E+00  0.0000000000000E+00 -0.4589074517074E+00
 0.4117103595015E+00 -0.4698403795250E+00  0.0000000000000E+00 -0.4733600729785E+00
 0.3919407462201E+00 -0.4499585429588E+00  0.0000000000000E+00 -0.4856643831966E+00
 0.3706662487871E+00 -0.4284474927069E+00  0.0000000000000E+00 -0.4952922891382E+00
 0.3479198823874E+00 -0.4053143962579E+00  0.0000000000000E+00 -0.5016426037811E+00
 0.3237334031109E+00 -0.3805613790947E+00  0.0000000000000E+00 -0.5040192861113E+00
 0.2981412854418E+00 -0.3541886068485E+00  0.0000000000000E+00 -0.5015914688470E+00
 0.2711799269661E+00 -0.3261920923066E+00  0.0000000000000E+00 -0.4933342439884E+00
 0.2428810517350E+00 -0.2965551808450E+00  0.0000000000000E+00 -0.4779422980301E+00
 0.2132559060320E+00 -0.2652299685272E+00  0.0000000000000E+00 -0.4537001725777E+00
 0.1822612024379E+00 -0.2320994273474E+00  0.0000000000000E+00 -0.4182794072905E+00
 0.1497264957534E+00 -0.1968985822209E+00  0.0000000000000E+00 -0.3684077358115E+00
 0.1151825751356E+00 -0.1590368318690E+00  0.0000000000000E+00 -0.2993008177565E+00
 0.7741070223605E-01 -0.1171445954169E+00  0.0000000000000E+00 -0.2036453369883E+00
 0.3272199816348E-01 -0.6761104022119E-01  0.0000000000000E+00 -0.7037794201799E-01
 0.5079580358824E+00 -0.5664413874860E+00  0.0000000000000E+00 -0.3455991216547E+00
 0.4994856781056E+00 -0.5585482740759E+00  0.0000000000000E+00 -0.3679182540015E+00
 0.4894991434659E+00 -0.5491033312249E+00  0.0000000000000E+00 -0.3885583510912E+00
 0.4777909464998E+00 -0.5379012543555E+00  0.0000000000000E+00 -0.4077046159458E+00
 0.4643320826423E+00 -0.5249123158675E+00  0.0000000000000E+00 -0.4254644111595E+00
 0.4491713953589E+00 -0.5101797618642E+00  0.0000000000000E+00 -0.4417316906509E+00
 0.4323702274853E+00 -0.4937551287896E+00  0.0000000000000E+00 -0.4562115898108E+00
 0.4139764520375E+00 -0.4756727342832E+00  0.0000000000000E+00 -0.4684727434375E+00
 0.3940198413542E+00 -0.4559459967912E+00  0.0000000000000E+00 -0.4779803562545E+00
 0.3725141666056E+00 -0.4345698956873E+00  0.0000000000000E+00 -0.4841028757232E+00
 0.3494580445984E+00 -0.4115220315318E+00  0.0000000000000E+00 -0.4860963422502E+00
 0.3248304581336E+00 -0.3867580419585E+00  0.0000000000000E+00 -0.4830704227857E+00
 0.2985780257543E+00 -0.3601987092024E+00  0.0000000000000E+00 -0.4739367178983E+00
 0.2705897785924E+00 -0.3317046505985E+00  0.0000000000000E+00 -0.4573356522401E+00
 0.2406512914623E+00 -0.3010307739136E+00  0.0000000000000E+00 -0.4315344273322E+00
 0.2083622317988E+00 -0.2677451971451E+00  0.0000000000000E+00 -0.3942853101794E+00
 0.1729840772897E+00 -0.2310815503923E+00  0.0000000000000E+00 -0.3426326392007E+00
 0.1331477596834E+00 -0.1896609883877E+00  0.0000000000000E+00 -0.2726799251343E+00
 0.8625386820013E-01 -0.1409429862579E+00  0.0000000000000E+00 -0.1794588032721E+00
 0.2755008557108E-01 -0.8042790220042E-01  0.0000000000000E+00 -0.5795825048316E-01
 0.5200215138097E+00 -0.5798217878353E+00  0.0000000000000E+00 -0.3258114783798E+00
 0.5125679943127E+00 -0.5731805013310E+00  0.0000000000000E+00 -0.3477320068174E+00
 0.5036887651963E+00 -0.5651089081783E+00  0.0000000000000E+00 -0.3682190260504E+00
 0.4931877602383E+00 -0.5554110166962E+00  0.0000000000000E+00 -0.3872579553019E+00
 0.4809917961388E+00 -0.5440125655828E+00  0.0000000000000E+00 -0.4048331923314E+00
 0.4670966335586E+00 -0.5309056691546E+00  0.0000000000000E+00 -0.4207920798193E+00
 0.4515195647598E+00 -0.5161012971366E+00  0.0000000000000E+00 -0.4348294500529E+00
 0.4342731470457E+00 -0.4996035084214E+00  0.0000000000000E+00 -0.4465083312427E+00
 0.4153533344572E+00 -0.4813980957854E+00  0.0000000000000E+00 -0.4552785165935E+00
 0.3947331922814E+00 -0.4614468964489E+00  0.0000000000000E+00 -0.4604811883292E+00
 0.3723555496795E+00 -0.4396809608763E+00  0.0000000000000E+00 -0.4613386021581E+00
 0.3481198898537E+00 -0.4159880449344E+00  0.0000000000000E+00 -0.4569309177902E+00
 0.3218592125009E+00 -0.3901903050978E+00  0.0000000000000E+00 -0.4461622805647E+00
 0.2933013332609E+00 -0.3620069964526E+00  0.0000000000000E+00 -0.4277181538404E+00
 0.2620058558947E+00 -0.3309939724313E+00  0.0000000000000E+00 -0.4000176696916E+00
 0.2272621171050E+00 -0.2964463900684E+00  0.0000000000000E+00 -0.3611713410665E+00
 0.1879236358959E+00 -0.2572427786519E+00  0.0000000000000E+00 -0.3089749176112E+00
 0.1421439412573E+00 -0.2115987584815E+00  0.0000000000000E+00 -0.2410210617486E+00
 0.8699928242012E-01 -0.1567270461487E+00  0.0000000000000E+00 -0.1551774262794E+00
 0.1829414056582E-01 -0.8855074597281E-01  0.0000000000000E+00 -0.5045670475639E-01
 0.5313490833891E+00 -0.5924010976694E+00  0.0000000000000E+00 -0.3046433448380E+00
 0.5248597759397E+00 -0.5869520751133E+00  0.0000000000000E+00 -0.3258327187138E+00
 0.5169791462981E+00 -0.5801395960175E+00  0.0000000000000E+00 -0.3457672904189E+00
 0.5075273125541E+00 -0.5717833490130E+00  0.0000000000000E+00 -0.3643022242551E+00
 0.4964018694962E+00 -0.5617807505750E+00  0.0000000000000E+00 -0.3813174351138E+00
 0.4835529550697E+00 -0.5500806006006E+00  0.0000000000000E+00 -0.3966013319527E+00
 0.4689505764516E+00 -0.5366502496511E+00  0.0000000000000E+00 -0.4098194082492E+00
 0.4525610282317E+00 -0.5214523223231E+00  0.0000000000000E+00 -0.4205170554484E+00
 0.4343316459920E+00 -0.5044300100967E+00  0.0000000000000E+00 -0.4281283776089E+00
 0.4141789075145E+00 -0.4854958179979E+00  0.0000000000000E+00 -0.4319799793911E+00
 0.3919750113412E+00 -0.4645189388124E+00  0.0000000000000E+00 -0.4312874745126E+00
 0.3675287868165E+00 -0.4413071775403E+00  0.0000000000000E+00 -0.4251465337665E+00
 0.3405570098178E+00 -0.4155796983506E+00  0.0000000000000E+00 -0.4125225502805E+00
 0.3106416269525E+00 -0.3869264039981E+00  0.0000000000000E+00 -0.3922456688543E+00
 0.2771671531853E+00 -0.3547487092653E+00  0.0000000000000E+00 -0.3630231719944E+00
 0.2392310946066E+00 -0.3181754543838E+00  0.0000000000000E+00 -0.3234924142353E+00
 0.1955216207942E+00 -0.2759488601776E+00  0.0000000000000E+00 -0.2723588619791E+00
 0.1441663260335E+00 -0.2262868621701E+00  0.0000000000000E+00 -0.2087065322555E+00
 0.8261798203866E-01 -0.1667662135167E+00  0.0000000000000E+00 -0.1325671190609E+00
 0.7490681727177E-02 -0.9423516023099E-01  0.0000000000000E+00 -0.4578987174252E-01
 0.5418859598784E+00 -0.6041205442816E+00  0.0000000000000E+00 -0.2822525708260E+00
 0.5362982819058E+00 -0.5997973574627E+00  0.0000000000000E+00 -0.3024578508981E+00
 0.5293152255349E+00 -0.5941377839499E+00  0.0000000000000E+00 -0.3215219788866E+00
 0.5207684299251E+00 -0.5869739408097E+00  0.0000000000000E+00 -0.3392267977876E+00
 0.5105315947451E+00 -0.5781811220961E+00  0.0000000000000E+00 -0.3553731634483E+00
 0.4985130898153E+00 -0.5676690626852E+00  0.0000000000000E+00 -0.3696946486276E+00
 0.4846340278937E+00 -0.5553598847234E+00  0.0000000000000E+00 -0.3818246970964E+00
 0.4688082015242E+00 -0.5411683235266E+00  0.0000000000000E+00 -0.3912916488782E+00
 0.4509258969595E+00 -0.5249860619305E+00  0.0000000000000E+00 -0.3975232351604E+00
 0.4308391937689E+00 -0.5066677335511E+00  0.0000000000000E+00 -0.3998521393866E+00
 0.4083455655310E+00 -0.4860154196410E+00  0.0000000000000E+00 -0.3975208376091E+00
 0.3831668473912E+00 -0.4627587868247E+00  0.0000000000000E+00 -0.3896879513914E+00
 0.3549210048167E+00 -0.4365284329404E+00  0.0000000000000E+00 -0.3754413941404E+00
 0.3230845250141E+00 -0.4068204608759E+00  0.0000000000000E+00 -0.3538271439717E+00
 0.2869440459661E+00 -0.3729511706544E+00  0.0000000000000E+00 -0.3239079801369E+00
 0.2455384184977E+00 -0.3340031957947E+00  0.0000000000000E+00 -0.2848751525977E+00
 0.1975986352024E+00 -0.2887708308362E+00  0.0000000000000E+00 -0.2362486505725E+00
 0.1415121416349E+00 -0.2357272031338E+00  0.0000000000000E+00 -0.1782080470386E+00
 0.7533494073450E-01 -0.1730481172160E+00  0.0000000000000E+00 -0.1120856015442E+00
-0.3044411865602E-02 -0.9876633245596E-01  0.0000000000000E+00 -0.4115017441994E-01
 0.5515860500567E+00 -0.6149224791168E+00  0.0000000000000E+00 -0.2587161983880E+00
 0.5468231388980E+00 -0.6116421187453E+00  0.0000000000000E+00 -0.2777120710793E+00
 0.5406426059661E+00 -0.6070319289430E+00  0.0000000000000E+00 -0.2956352017439E+00
 0.5328746007583E+00 -0.6009251135032E+00  0.0000000000000E+00 -0.3122353881928E+00
 0.5233689840868E+00 -0.5931754333156E+00  0.0000000000000E+00 -0.3272617609003E+00
 0.5119943555173E+00 -0.5836557346691E+00  0.0000000000000E+00 -0.3404076882489E+00
 0.4986232586696E+00 -0.5722431049126E+00  0.0000000000000E+00 -0.3512841700461E+00
 0.4831156124718E+00 -0.5588025998395E+00  0.0000000000000E+00 -0.3594139266298E+00
 0.4653033287743E+00 -0.5431723618930E+00  0.0000000000000E+00 -0.3642357797156E+00
 0.4449753415679E+00 -0.5251493242045E+00  0.0000000000000E+00 -0.3651139382092E+00
 0.4218613302153E+00 -0.5044737942307E+00  0.0000000000000E+00 -0.3613512988776E+00
 0.3956125599631E+00 -0.4808113798312E+00  0.0000000000000E+00 -0.3522091973884E+00
 0.3657788831381E+00 -0.4537313617473E+00  0.0000000000000E+00 -0.3369387963554E+00
 0.3317820242956E+00 -0.4226816970265E+00  0.0000000000000E+00 -0.3148321852985E+00
 0.2928873052355E+00 -0.3869627865922E+00  0.0000000000000E+00 -0.2853046861421E+00
 0.2481797145287E+00 -0.3457057968712E+00  0.0000000000000E+00 -0.2480235044275E+00
 0.1965578489860E+00 -0.2978680197722E+00  0.0000000000000E+00 -0.2030989282594E+00
 0.1367663913232E+00 -0.2422665516306E+00  0.0000000000000E+00 -0.1513468525314E+00
 0.6750859612050E-01 -0.1776852410879E+00  0.0000000000000E+00 -0.9462602268187E-01
-0.1228496648388E-01 -0.1031242269791E+00  0.0000000000000E+00 -0.3617038774686E-01
 0.5604114818040E+00 -0.6247599081129E+00  0.0000000000000E+00 -0.2341288455426E+00
 0.5563861406433E+00 -0.6224237996338E+00  0.0000000000000E+00 -0.2516983407130E+00
 0.5509130943561E+00 -0.6187550975410E+00  0.0000000000000E+00 -0.2682482955250E+00
 0.5438091144086E+00 -0.6135762874910E+00  0.0000000000000E+00 -0.2835181302668E+00
 0.5348980788428E+00 -0.6067177229782E+00  0.0000000000000E+00 -0.2972300170895E+00
 0.5240104026803E+00 -0.5980168908907E+00  0.0000000000000E+00 -0.3090562128289E+00
 0.5109723634733E+00 -0.5873078381071E+00  0.0000000000000E+00 -0.3186012447283E+00
 0.4955927309842E+00 -0.5744080898334E+00  0.0000000000000E+00 -0.3253987270515E+00
 0.4776493586768E+00 -0.5591056872614E+00  0.0000000000000E+00 -0.3289179978025E+00
 0.4568758836936E+00 -0.5411464684567E+00  0.0000000000000E+00 -0.3285776374270E+00
 0.4329479267860E+00 -0.5202209816459E+00  0.0000000000000E+00 -0.3237656944572E+00
 0.4054683726756E+00 -0.4959506136883E+00  0.0000000000000E+00 -0.3138687682477E+00
 0.3739520677356E+00 -0.4678732615964E+00  0.0000000000000E+00 -0.2983139739650E+00
 0.3378116092488E+00 -0.4354301636746E+00  0.0000000000000E+00 -0.2766293352749E+00
 0.2963480409611E+00 -0.3979575623035E+00  0.0000000000000E+00 -0.2485290543687E+00
 0.2487537158314E+00 -0.3546900418345E+00  0.0000000000000E+00 -0.2140292806320E+00
 0.1941387390430E+00 -0.3047865735525E+00  0.0000000000000E+00 -0.1735948523371E+00
 0.1315985608655E+00 -0.2473951449955E+00  0.0000000000000E+00 -0.1283067945676E+00
 0.6034603834177E-01 -0.1817776706789E+00  0.0000000000000E+00 -0.8000923777992E-01
-0.2008074530241E-01 -0.1075071290863E+00  0.0000000000000E+00 -0.3133293252777E-01
 0.5683297811200E+00 -0.6335936887432E+00  0.0000000000000E+00 -0.2086153981530E+00
 0.5649512933346E+00 -0.6320956433639E+00  0.0000000000000E+00 -0.2245578470883E+00
 0.5600900956234E+00 -0.6292557523615E+00  0.0000000000000E+00 -0.2395394098995E+00
 0.5535430626884E+00 -0.6248789780881E+00  0.0000000000000E+00 -0.2533011827735E+00
 0.5451065018686E+00 -0.6187705380198E+00  0.0000000000000E+00 -0.2655581577083E+00
 0.5345746197909E+00 -0.6107343075767E+00  0.0000000000000E+00 -0.2759804605183E+00
 0.5217312927642E+00 -0.6005647272855E+00  0.0000000000000E+00 -0.2841833278487E+00
 0.5063395499640E+00 -0.5880365472385E+00  0.0000000000000E+00 -0.2897278026044E+00
 0.4881308162787E+00 -0.5728944280925E+00  0.0000000000000E+00 -0.2921302551690E+00
 0.4667944871820E+00 -0.5548429573549E+00  0.0000000000000E+00 -0.2908793757857E+00
 0.4419679527115E+00 -0.5335371814045E+00  0.0000000000000E+00 -0.2854607723922E+00
 0.4132274262743E+00 -0.5085739823728E+00  0.0000000000000E+00 -0.2753906513152E+00
 0.3800806643956E+00 -0.4794853315166E+00  0.0000000000000E+00 -0.2602609394406E+00
 0.3419638365046E+00 -0.4457355742046E+00  0.0000000000000E+00 -0.2397984073415E+00
 0.2982464644640E+00 -0.4067264620428E+00  0.0000000000000E+00 -0.2139393772819E+00
 0.2482503050234E+00 -0.3618155291726E+00  0.0000000000000E+00 -0.1829183992749E+00
 0.1912900650707E+00 -0.3103551605735E+00  0.0000000000000E+00 -0.1473626716662E+00
 0.1267445228806E+00 -0.2517604394129E+00  0.0000000000000E+00 -0.1083707954569E+00
 0.5416158945317E-01 -0.1856093697924E+00  0.0000000000000E+00 -0.6753343803964E-01
-0.2661602688384E-01 -0.1117635363001E+00  0.0000000000000E+00 -0.2683390991446E-01
 0.5753126913935E+00 -0.6413899716314E+00  0.0000000000000E+00 -0.1823075681372E+00
 0.5724906789460E+00 -0.6406212486129E+00  0.0000000000000E+00 -0.1964477333846E+00
 0.5681475950068E+00 -0.6384959953885E+00  0.0000000000000E+00 -0.2097008093136E+00
 0.5620581771695E+00 -0.6347991181134E+00  0.0000000000000E+00 -0.2218192396463E+00
 0.5539913130622E+00 -0.6293105620143E+00  0.0000000000000E+00 -0.2325266347854E+00
 0.5437078516924E+00 -0.6218030884432E+00  0.0000000000000E+00 -0.2415075794412E+00
 0.5309541998386E+00 -0.6120359815286E+00  0.0000000000000E+00 -0.2484034460857E+00
 0.5154544228121E+00 -0.5997473445492E+00  0.0000000000000E+00 -0.2528165082132E+00
 0.4969024175284E+00 -0.5846465223120E+00  0.0000000000000E+00 -0.2543217683179E+00
 0.4749548901768E+00 -0.5664073615061E+00  0.0000000000000E+00 -0.2524859121542E+00
 0.4492256386221E+00 -0.5446627839053E+00  0.0000000000000E+00 -0.2468934835127E+00
 0.4192818724563E+00 -0.5190013641207E+00  0.0000000000000E+00 -0.2371809279559E+00
 0.3846438687270E+00 -0.4889671427708E+00  0.0000000000000E+00 -0.2230792314449E+00
 0.3447900670036E+00 -0.4540646704508E+00  0.0000000000000E+00 -0.2044651924236E+00
 0.2991706038384E+00 -0.4137721341691E+00  0.0000000000000E+00 -0.1814194891380E+00
 0.2472329994350E+00 -0.3675660727200E+00  0.0000000000000E+00 -0.1542861215214E+00
 0.1884635559724E+00 -0.3149610703779E+00  0.0000000000000E+00 -0.1237217860277E+00
 0.1224455923385E+00 -0.2555655736406E+00  0.0000000000000E+00 -0.9071535884887E-01
 0.4892906146788E-01 -0.1891488580364E+00  0.0000000000000E+00 -0.5654989869909E-01
-0.3210518820409E-01 -0.1157035431863E+00  0.0000000000000E+00 -0.2268117167894E-01
 0.5813364263502E+00 -0.6481201410118E+00  0.0000000000000E+00 -0.1553324416620E+00
 0.5789825824606E+00 -0.6479718757467E+00  0.0000000000000E+00 -0.1675240187913E+00
 0.5750680330443E+00 -0.6464485551879E+00  0.0000000000000E+00 -0.1789209081946E+00
 0.5693457200390E+00 -0.6433150829578E+00  0.0000000000000E+00 -0.1892960991663E+00
 0.5615588860584E+00 -0.6383275831834E+00  0.0000000000000E+00 -0.1983948240677E+00
 0.5514387791645E+00 -0.6312310706622E+00  0.0000000000000E+00 -0.2059297904019E+00
 0.5386998798435E+00 -0.6217547379939E+00  0.0000000000000E+00 -0.2115809804775E+00
 0.5230344399906E+00 -0.6096066067491E+00  0.0000000000000E+00 -0.2150020474380E+00
 0.5041075698236E+00 -0.5944687466905E+00  0.0000000000000E+00 -0.2158332536314E+00
 0.4815536270214E+00 -0.5759937927799E+00  0.0000000000000E+00 -0.2137206381997E+00
 0.4549745364382E+00 -0.5538033593584E+00  0.0000000000000E+00 -0.2083412817894E+00
 0.4239408299120E+00 -0.5274890998595E+00  0.0000000000000E+00 -0.1994345618024E+00
 0.3879965349372E+00 -0.4966174818728E+00  0.0000000000000E+00 -0.1868388741949E+00
 0.3466694314397E+00 -0.4607397204291E+00  0.0000000000000E+00 -0.1705322210527E+00
 0.2994884520141E+00 -0.4194085557893E+00  0.0000000000000E+00 -0.1506731307152E+00
 0.2460097931095E+00 -0.3722033764282E+00  0.0000000000000E+00 -0.1276354458324E+00
 0.1858520837579E+00 -0.3187640539680E+00  0.0000000000000E+00 -0.1020268329046E+00
 0.1187380428346E+00 -0.2588311252278E+00  0.0000000000000E+00 -0.7467764501416E-01
 0.4453518362104E-01 -0.1922853265138E+00  0.0000000000000E+00 -0.4658688531360E-01
-0.3671709471034E-01 -0.1191742863160E+00  0.0000000000000E+00 -0.1881963302960E-01
 0.5863817222218E+00 -0.6537607693958E+00  0.0000000000000E+00 -0.1278087850384E+00
 0.5844105435475E+00 -0.6541251282818E+00  0.0000000000000E+00 -0.1379336620690E+00
 0.5808403136395E+00 -0.6530942310628E+00  0.0000000000000E+00 -0.1473753501074E+00
 0.5754040217081E+00 -0.6504145317488E+00  0.0000000000000E+00 -0.1559359153611E+00
 0.5678222098633E+00 -0.6458209516138E+00  0.0000000000000E+00 -0.1633929021377E+00
 0.5578009408601E+00 -0.6390347964796E+00  0.0000000000000E+00 -0.1694979833342E+00
 0.5450285272515E+00 -0.6297604911477E+00  0.0000000000000E+00 -0.1739791580028E+00
 0.5291722820628E+00 -0.6176823581391E+00  0.0000000000000E+00 -0.1765481378125E+00
 0.5098762808413E+00 -0.6024624021260E+00  0.0000000000000E+00 -0.1769130465581E+00
 0.4867608267187E+00 -0.5837397673938E+00  0.0000000000000E+00 -0.1747961774736E+00
 0.4594242079360E+00 -0.5611324316378E+00  0.0000000000000E+00 -0.1699564404898E+00
 0.4274473915786E+00 -0.5342417476113E+00  0.0000000000000E+00 -0.1622158658582E+00
 0.3904024127247E+00 -0.5026605533189E+00  0.0000000000000E+00 -0.1514889109184E+00
 0.3478652742376E+00 -0.4659856257276E+00  0.0000000000000E+00 -0.1378122423675E+00
 0.2994340019630E+00 -0.4238350955982E+00  0.0000000000000E+00 -0.1213711272826E+00
 0.2447518705351E+00 -0.3758708519324E+00  0.0000000000000E+00 -0.1025167547270E+00
 0.1835344746764E+00 -0.3218246993109E+00  0.0000000000000E+00 -0.8176731732745E-01
 0.1155971352706E+00 -0.2615249712087E+00  0.0000000000000E+00 -0.5978580487317E-01
 0.4087640791019E-01 -0.1949176626541E+00  0.0000000000000E+00 -0.3733087401704E-01
-0.4056263981806E-01 -0.1220740116631E+00  0.0000000000000E+00 -0.1518429788922E-01
 0.5904336233407E+00 -0.6582933848369E+00  0.0000000000000E+00 -0.9984778218147E-01
 0.5887627478289E+00 -0.6590641990249E+00  0.0000000000000E+00 -0.1078137568653E+00
 0.5854583734648E+00 -0.6584201824492E+00  0.0000000000000E+00 -0.1152259426462E+00
 0.5802363229483E+00 -0.6560918368434E+00  0.0000000000000E+00 -0.1219228627509E+00
 0.5727981614517E+00 -0.6517962872210E+00  0.0000000000000E+00 -0.1277229175418E+00
 0.5628295605487E+00 -0.6452355768737E+00  0.0000000000000E+00 -0.1324250354133E+00
 0.5499983404535E+00 -0.6360946642721E+00  0.0000000000000E+00 -0.1358119361255E+00
 0.5339531146142E+00 -0.6240400220019E+00  0.0000000000000E+00 -0.1376572942949E+00
 0.5143233272208E+00 -0.6087196039868E+00  0.0000000000000E+00 -0.1377369653372E+00
 0.4907212633734E+00 -0.5897647402306E+00  0.0000000000000E+00 -0.1358440226462E+00
 0.4627464926232E+00 -0.5667944005471E+00  0.0000000000000E+00 -0.1318071047923E+00
 0.4299931531408E+00 -0.5394222153447E+00  0.0000000000000E+00 -0.1255112020307E+00
 0.3920604211957E+00 -0.5072665811347E+00  0.0000000000000E+00 -0.1169194019218E+00
 0.3485663471204E+00 -0.4699640235168E+00  0.0000000000000E+00 -0.1060932523478E+00
 0.2991648684894E+00 -0.4271856398808E+00  0.0000000000000E+00 -0.9320839862382E-01
 0.2435651353578E+00 -0.3786558014169E+00  0.0000000000000E+00 -0.7856131009330E-01
 0.1815512624213E+00 -0.3241713240339E+00  0.0000000000000E+00 -0.6256280506998E-01
 0.1129994725228E+00 -0.2636181785022E+00  0.0000000000000E+00 -0.4571549917937E-01
 0.3788865966402E-01 -0.1969819931769E+00  0.0000000000000E+00 -0.2857647536396E-01
-0.4370033131670E-01 -0.1243479025778E+00  0.0000000000000E+00 -0.1171319035050E-01
 0.5934810491318E+00 -0.6617040364280E+00  0.0000000000000E+00 -0.7155346772758E-01
 0.5920313050848E+00 -0.6627770717925E+00  0.0000000000000E+00 -0.7729135893839E-01
 0.5889198791212E+00 -0.6624184635386E+00  0.0000000000000E+00 -0.8262054749545E-01
 0.5838488810158E+00 -0.6603459231460E+00  0.0000000000000E+00 -0.8742180541138E-01
 0.5765051394075E+00 -0.6562627173570E+00  0.0000000000000E+00 -0.9156087145267E-01
 0.5665589087298E+00 -0.6498562872927E+00  0.0000000000000E+00 -0.9488998674231E-01
 0.5536629474827E+00 -0.6407972418431E+00  0.0000000000000E+00 -0.9725112299827E-01
 0.5374526526539E+00 -0.6287393894487E+00  0.0000000000000E+00 -0.9848189486797E-01
 0.5175478691611E+00 -0.6133214068827E+00  0.0000000000000E+00 -0.9842431207585E-01
 0.4935568270389E+00 -0.5941705829504E+00  0.0000000000000E+00 -0.9693614545406E-01
 0.4650825134280E+00 -0.5709089329623E+00  0.0000000000000E+00 -0.9390441494102E-01
 0.4317316468498E+00 -0.5431618448481E+00  0.0000000000000E+00 -0.8926016664697E-01
 0.3931262390427E+00 -0.5105692429768E+00  0.0000000000000E+00 -0.8299322785344E-01
 0.3489174513781E+00 -0.4727989896003E+00  0.0000000000000E+00 -0.7516504808289E-01
 0.2988010387944E+00 -0.4295618470038E+00  0.0000000000000E+00 -0.6591719152716E-01
 0.2425331215672E+00 -0.3806267924984E+00  0.0000000000000E+00 -0.5547280812650E-01
 0.1799444319891E+00 -0.3258348940412E+00  0.0000000000000E+00 -0.4412885033227E-01
 0.1109507363652E+00 -0.2651095279916E+00  0.0000000000000E+00 -0.3223829121085E-01
 0.3555766594056E-01 -0.1984610001687E+00  0.0000000000000E+00 -0.2018407609893E-01
-0.4614041600116E-01 -0.1259856095394E+00  0.0000000000000E+00 -0.8353444463097E-02
 0.5955163182856E+00 -0.6639828136711E+00  0.0000000000000E+00 -0.4302470015740E-01
 0.5942115666820E+00 -0.6652557902832E+00  0.0000000000000E+00 -0.4648625124248E-01
 0.5912251394762E+00 -0.6650848146095E+00  0.0000000000000E+00 -0.4969677329678E-01
 0.5862494466864E+00 -0.6631785336027E+00  0.0000000000000E+00 -0.5258327883777E-01
 0.5789612048974E+00 -0.6592306894904E+00  0.0000000000000E+00 -0.5506337442068E-01
 0.5690203109780E+00 -0.6529188948503E+00  0.0000000000000E+00 -0.5704675160388E-01
 0.5560696201255E+00 -0.6439043031164E+00  0.0000000000000E+00 -0.5843750724923E-01
 0.5397361061402E+00 -0.6318326279157E+00  0.0000000000000E+00 -0.5913802261726E-01
 0.5196338801197E+00 -0.6163369746361E+00  0.0000000000000E+00 -0.5905451518156E-01
 0.4953694132319E+00 -0.5970428199837E+00  0.0000000000000E+00 -0.5810410503954E-01
 0.4665491418274E+00 -0.5735753134032E+00  0.0000000000000E+00 -0.5622304374396E-01
 0.4327894376158E+00 -0.5455688859532E+00  0.0000000000000E+00 -0.5337552271098E-01
 0.3937286763726E+00 -0.5126789127965E+00  0.0000000000000E+00 -0.4956218464078E-01
 0.3490408159147E+00 -0.4745948648702E+00  0.0000000000000E+00 -0.4482714398481E-01
 0.2984495051591E+00 -0.4310540092666E+00  0.0000000000000E+00 -0.3926208710481E-01
 0.2417413480640E+00 -0.3818543279599E+00  0.0000000000000E+00 -0.3300603851872E-01
 0.1787766495188E+00 -0.3268650311897E+00  0.0000000000000E+00 -0.2623982449787E-01
 0.1094960100118E+00 -0.2660330352445E+00  0.0000000000000E+00 -0.1917521678026E-01
 0.3392145155733E-01 -0.1993841804100E+00  0.0000000000000E+00 -0.1203962195694E-01
-0.4784471937619E-01 -0.1270207407353E+00  0.0000000000000E+00 -0.5055161463622E-02
 0.5965348479231E+00 -0.6651235475796E+00  0.0000000000000E+00 -0.1435681883030E-01
 0.5953016410939E+00 -0.6664959278942E+00  0.0000000000000E+00 -0.1551364556557E-01
 0.5923763567438E+00 -0.6664178171833E+00  0.0000000000000E+00 -0.1658570190345E-01
 0.5874462866529E+00 -0.6645930929144E+00  0.0000000000000E+00 -0.1754842724329E-01
 0.5801829821746E+00 -0.6607106265976E+00  0.0000000000000E+00 -0.1837403335365E-01
 0.5702411161720E+00 -0.6544430680170E+00  0.0000000000000E+00 -0.1903212927870E-01
 0.5572586147827E+00 -0.6454468579391E+00  0.0000000000000E+00 -0.1949055992312E-01
 0.5408583409409E+00 -0.6333637520027E+00  0.0000000000000E+00 -0.1971675721829E-01
 0.5206517271317E+00 -0.6178242433909E+00  0.0000000000000E+00 -0.1967964375711E-01
 0.4962446420246E+00 -0.5984531623406E+00  0.0000000000000E+00 -0.1935203262723E-01
 0.4672455978843E+00 -0.5748775587809E+00  0.0000000000000E+00 -0.1871339700648E-01
 0.4332761836852E+00 -0.5467367609360E+00  0.0000000000000E+00 -0.1775280323842E-01
 0.3939833318716E+00 -0.5136942363945E+00  0.0000000000000E+00 -0.1647170451738E-01
 0.3490526936446E+00 -0.4754505606719E+00  0.0000000000000E+00 -0.1488619556994E-01
 0.2982220405186E+00 -0.4317564506657E+00  0.0000000000000E+00 -0.1302827114260E-01
 0.2412933057286E+00 -0.3824245199587E+00  0.0000000000000E+00 -0.1094566735185E-01
 0.1781417496608E+00 -0.3273382753728E+00  0.0000000000000E+00 -0.8700056558135E-02
 0.1087208665682E+00 -0.2664570050027E+00  0.0000000000000E+00 -0.6363641001814E-02
 0.3306209888806E-01 -0.1998156132351E+00  0.0000000000000E+00 -0.4014607210092E-02
-0.4873359385706E-01 -0.1275174362773E+00  0.0000000000000E+00 -0.1726821036907E-02
 0.5965348479129E+00 -0.6651235475683E+00  0.0000000000000E+00  0.1435681885269E-01
 0.5953016410744E+00 -0.6664959278716E+00  0.0000000000000E+00  0.1551364622742E-01
 0.5923763567157E+00 -0.6664178171494E+00  0.0000000000000E+00  0.1658570321768E-01
 0.5874462866170E+00 -0.6645930928697E+00  0.0000000000000E+00  0.1754842920947E-01
 0.5801829821325E+00 -0.6607106265430E+00  0.0000000000000E+00  0.1837403595556E-01
 0.5702411161256E+00 -0.6544430679539E+00  0.0000000000000E+00  0.1903213248324E-01
 0.5572586147347E+00 -0.6454468578696E+00  0.0000000000000E+00  0.1949056367918E-01
 0.5408583408945E+00 -0.6333637519293E+00  0.0000000000000E+00  0.1971676145586E-01
 0.5206517270907E+00 -0.6178242433166E+00  0.0000000000000E+00  0.1967964838622E-01
 0.4962446419931E+00 -0.5984531622687E+00  0.0000000000000E+00  0.1935203753941E-01
 0.4672455978662E+00 -0.5748775587148E+00  0.0000000000000E+00  0.1871340207586E-01
 0.4332761836844E+00 -0.5467367608788E+00  0.0000000000000E+00  0.1775280832511E-01
 0.3939833318911E+00 -0.5136942363486E+00  0.0000000000000E+00  0.1647170947257E-01
 0.3490526936864E+00 -0.4754505606386E+00  0.0000000000000E+00  0.1488620024201E-01
 0.2982220405831E+00 -0.4317564506449E+00  0.0000000000000E+00  0.1302827538498E-01
 0.2412933058144E+00 -0.3824245199486E+00  0.0000000000000E+00  0.1094567103184E-01
 0.1781417497643E+00 -0.3273382753695E+00  0.0000000000000E+00  0.8700059565708E-02
 0.1087208666841E+00 -0.2664570050004E+00  0.0000000000000E+00  0.6363643257291E-02
 0.3306209900875E-01 -0.1998156132261E+00  0.0000000000000E+00  0.4014608671097E-02
-0.4873359374013E-01 -0.1275174362529E+00  0.0000000000000E+00  0.1726821702695E-02
 0.5955163182548E+00 -0.6639828136374E+00  0.0000000000000E+00  0.4302470018027E-01
 0.5942115666236E+00 -0.6652557902155E+00  0.0000000000000E+00  0.4648625190099E-01
 0.5912251393915E+00 -0.6650848145079E+00  0.0000000000000E+00  0.4969677460449E-01
 0.5862494465782E+00 -0.6631785334683E+00  0.0000000000000E+00  0.5258328079501E-01
 0.5789612047699E+00 -0.6592306893260E+00  0.0000000000000E+00  0.5506337701262E-01
 0.5690203108370E+00 -0.6529188946599E+00  0.0000000000000E+00  0.5704675479924E-01
 0.5560696199790E+00 -0.6439043029059E+00  0.0000000000000E+00  0.5843751099909E-01
 0.5397361059976E+00 -0.6318326276926E+00  0.0000000000000E+00  0.5913802685410E-01
 0.5196338799919E+00 -0.6163369744094E+00  0.0000000000000E+00  0.5905451981799E-01
 0.4953694131310E+00 -0.5970428197631E+00  0.0000000000000E+00  0.5810410996940E-01
 0.4665491417656E+00 -0.5735753131988E+00  0.0000000000000E+00  0.5622304884304E-01
 0.4327894376043E+00 -0.5455688857742E+00  0.0000000000000E+00  0.5337552784002E-01
 0.3937286764209E+00 -0.5126789126503E+00  0.0000000000000E+00  0.4956218965016E-01
 0.3490408160289E+00 -0.4745948647611E+00  0.0000000000000E+00  0.4482714872032E-01
 0.2984495053408E+00 -0.4310540091943E+00  0.0000000000000E+00  0.3926209141542E-01
 0.2417413483091E+00 -0.3818543279193E+00  0.0000000000000E+00  0.3300604226543E-01
 0.1787766498173E+00 -0.3268650311696E+00  0.0000000000000E+00  0.2623982756274E-01
 0.1094960103477E+00 -0.2660330352281E+00  0.0000000000000E+00  0.1917521907440E-01
 0.3392145190903E-01 -0.1993841803755E+00  0.0000000000000E+00  0.1203962342744E-01
-0.4784471903409E-01 -0.1270207406567E+00  0.0000000000000E+00  0.5055162098756E-02
 0.5934810490808E+00 -0.6617040363722E+00  0.0000000000000E+00  0.7155346775134E-01
 0.5920313049875E+00 -0.6627770716800E+00  0.0000000000000E+00  0.7729135959003E-01
 0.5889198789796E+00 -0.6624184633693E+00  0.0000000000000E+00  0.8262054878940E-01
 0.5838488808341E+00 -0.6603459229216E+00  0.0000000000000E+00  0.8742180734939E-01
 0.5765051391924E+00 -0.6562627170813E+00  0.0000000000000E+00  0.9156087402230E-01
 0.5665589084905E+00 -0.6498562869723E+00  0.0000000000000E+00  0.9488998991559E-01
 0.5536629472317E+00 -0.6407972414873E+00  0.0000000000000E+00  0.9725112673042E-01
 0.5374526524065E+00 -0.6287393890695E+00  0.0000000000000E+00  0.9848189909608E-01
 0.5175478689353E+00 -0.6133214064944E+00  0.0000000000000E+00  0.9842431671746E-01
 0.4935568268543E+00 -0.5941705825692E+00  0.0000000000000E+00  0.9693615040737E-01
 0.4650825133049E+00 -0.5709089326049E+00  0.0000000000000E+00  0.9390442008513E-01
 0.4317316468074E+00 -0.5431618445302E+00  0.0000000000000E+00  0.8926017184391E-01
 0.3931262390974E+00 -0.5105692427112E+00  0.0000000000000E+00  0.8299323295243E-01
 0.3489174515407E+00 -0.4727989893948E+00  0.0000000000000E+00  0.7516505292515E-01
 0.2988010390686E+00 -0.4295618468593E+00  0.0000000000000E+00  0.6591719595399E-01
 0.2425331219473E+00 -0.3806267924069E+00  0.0000000000000E+00  0.5547281198820E-01
 0.1799444324594E+00 -0.3258348939852E+00  0.0000000000000E+00  0.4412885349822E-01
 0.1109507368998E+00 -0.2651095279440E+00  0.0000000000000E+00  0.3223829357913E-01
 0.3555766650477E-01 -0.1984610000942E+00  0.0000000000000E+00  0.2018407760477E-01
-0.4614041544927E-01 -0.1259856093961E+00  0.0000000000000E+00  0.8353445085163E-02
 0.5904336232703E+00 -0.6582933847600E+00  0.0000000000000E+00  0.9984778220608E-01
 0.5887627476934E+00 -0.6590641988685E+00  0.0000000000000E+00  0.1078137575060E+00
 0.5854583732665E+00 -0.6584201822127E+00  0.0000000000000E+00  0.1152259439184E+00
 0.5802363226924E+00 -0.6560918365287E+00  0.0000000000000E+00  0.1219228646582E+00
 0.5727981611467E+00 -0.6517962868330E+00  0.0000000000000E+00  0.1277229200751E+00
 0.5628295602069E+00 -0.6452355764205E+00  0.0000000000000E+00  0.1324250385492E+00
 0.5499983400913E+00 -0.6360946637659E+00  0.0000000000000E+00  0.1358119398253E+00
 0.5339531142523E+00 -0.6240400214587E+00  0.0000000000000E+00  0.1376572985025E+00
 0.5143233268835E+00 -0.6087196034261E+00  0.0000000000000E+00  0.1377369699773E+00
 0.4907212630880E+00 -0.5897647396747E+00  0.0000000000000E+00  0.1358440276237E+00
 0.4627464924183E+00 -0.5667944000195E+00  0.0000000000000E+00  0.1318071099917E+00
 0.4299931530441E+00 -0.5394222148679E+00  0.0000000000000E+00  0.1255112073167E+00
 0.3920604212313E+00 -0.5072665807281E+00  0.0000000000000E+00  0.1169194071426E+00
 0.3485663473055E+00 -0.4699640231930E+00  0.0000000000000E+00  0.1060932573388E+00
 0.2991648688312E+00 -0.4271856396430E+00  0.0000000000000E+00  0.9320840321536E-01
 0.2435651358504E+00 -0.3786558012557E+00  0.0000000000000E+00  0.7856131412023E-01
 0.1815512630439E+00 -0.3241713239260E+00  0.0000000000000E+00  0.6256280838303E-01
 0.1129994732398E+00 -0.2636181784102E+00  0.0000000000000E+00  0.4571550165767E-01
 0.3788866042653E-01 -0.1969819930510E+00  0.0000000000000E+00  0.2857647692595E-01
-0.4370033056771E-01 -0.1243479023587E+00  0.0000000000000E+00  0.1171319096127E-01
 0.5863817221331E+00 -0.6537607692987E+00  0.0000000000000E+00  0.1278087850639E+00
 0.5844105433746E+00 -0.6541251280826E+00  0.0000000000000E+00  0.1379336626948E+00
 0.5808403133848E+00 -0.6530942307601E+00  0.0000000000000E+00  0.1473753513497E+00
 0.5754040213773E+00 -0.6504145313441E+00  0.0000000000000E+00  0.1559359172259E+00
 0.5678222094663E+00 -0.6458209511123E+00  0.0000000000000E+00  0.1633929046198E+00
 0.5578009404112E+00 -0.6390347958907E+00  0.0000000000000E+00  0.1694979864160E+00
 0.5450285267705E+00 -0.6297604904855E+00  0.0000000000000E+00  0.1739791616529E+00
 0.5291722815748E+00 -0.6176823574230E+00  0.0000000000000E+00  0.1765481419839E+00
 0.5098762803765E+00 -0.6024624013800E+00  0.0000000000000E+00  0.1769130511851E+00
 0.4867608263119E+00 -0.5837397666461E+00  0.0000000000000E+00  0.1747961824705E+00
 0.4594242076242E+00 -0.5611324309188E+00  0.0000000000000E+00  0.1699564457491E+00
 0.4274473913988E+00 -0.5342417469514E+00  0.0000000000000E+00  0.1622158712495E+00
 0.3904024127105E+00 -0.5026605527450E+00  0.0000000000000E+00  0.1514889162898E+00
 0.3478652744144E+00 -0.4659856252592E+00  0.0000000000000E+00  0.1378122475484E+00
 0.2994340023440E+00 -0.4238350952429E+00  0.0000000000000E+00  0.1213711320897E+00
 0.2447518711163E+00 -0.3758708516816E+00  0.0000000000000E+00  0.1025167589744E+00
 0.1835344754335E+00 -0.3218246991367E+00  0.0000000000000E+00  0.8176732083991E-01
 0.1155971361582E+00 -0.2615249710630E+00  0.0000000000000E+00  0.5978580750235E-01
 0.4087640886341E-01 -0.1949176624708E+00  0.0000000000000E+00  0.3733087565736E-01
-0.4056263887746E-01 -0.1220740113633E+00  0.0000000000000E+00  0.1518429848926E-01
 0.5813364262444E+00 -0.6481201408960E+00  0.0000000000000E+00  0.1553324416886E+00
 0.5789825822515E+00 -0.6479718755062E+00  0.0000000000000E+00  0.1675240193991E+00
 0.5750680327339E+00 -0.6464485548202E+00  0.0000000000000E+00  0.1789209094003E+00
 0.5693457196330E+00 -0.6433150824635E+00  0.0000000000000E+00  0.1892961009782E+00
 0.5615588855671E+00 -0.6383275825674E+00  0.0000000000000E+00  0.1983948264849E+00
 0.5514387786035E+00 -0.6312310699341E+00  0.0000000000000E+00  0.2059297934132E+00
 0.5386998792347E+00 -0.6217547371692E+00  0.0000000000000E+00  0.2115809840605E+00
 0.5230344393629E+00 -0.6096066058494E+00  0.0000000000000E+00  0.2150020515562E+00
 0.5041075692125E+00 -0.5944687457437E+00  0.0000000000000E+00  0.2158332582315E+00
 0.4815536264683E+00 -0.5759937918196E+00  0.0000000000000E+00  0.2137206432082E+00
 0.4549745359889E+00 -0.5538033584221E+00  0.0000000000000E+00  0.2083412871101E+00
 0.4239408296138E+00 -0.5274890989859E+00  0.0000000000000E+00  0.1994345673130E+00
 0.3879965348347E+00 -0.4966174810983E+00  0.0000000000000E+00  0.1868388797460E+00
 0.3466694315697E+00 -0.4607397197825E+00  0.0000000000000E+00  0.1705322264684E+00
 0.2994884523992E+00 -0.4194085552859E+00  0.0000000000000E+00  0.1506731357969E+00
 0.2460097937514E+00 -0.3722033760635E+00  0.0000000000000E+00  0.1276354503682E+00
 0.1858520846315E+00 -0.3187640537120E+00  0.0000000000000E+00  0.1020268366842E+00
 0.1187380438850E+00 -0.2588311250221E+00  0.0000000000000E+00  0.7467764784956E-01
 0.4453518476469E-01 -0.1922853262731E+00  0.0000000000000E+00  0.4658688706354E-01
-0.3671709357644E-01 -0.1191742859360E+00  0.0000000000000E+00  0.1881963362193E-01
 0.5753126912724E+00 -0.6413899714986E+00  0.0000000000000E+00  0.1823075681613E+00
 0.5724906787024E+00 -0.6406212483330E+00  0.0000000000000E+00  0.1964477339651E+00
 0.5681475946419E+00 -0.6384959949576E+00  0.0000000000000E+00  0.2097008104683E+00
 0.5620581766885E+00 -0.6347991175309E+00  0.0000000000000E+00  0.2218192413856E+00
 0.5539913124749E+00 -0.6293105612840E+00  0.0000000000000E+00  0.2325266371126E+00
 0.5437078510148E+00 -0.6218030875740E+00  0.0000000000000E+00  0.2415075823523E+00
 0.5309541990937E+00 -0.6120359805359E+00  0.0000000000000E+00  0.2484034495683E+00
 0.5154544220310E+00 -0.5997473434560E+00  0.0000000000000E+00  0.2528165122434E+00
 0.4969024167506E+00 -0.5846465211489E+00  0.0000000000000E+00  0.2543217728569E+00
 0.4749548894500E+00 -0.5664073603112E+00  0.0000000000000E+00  0.2524859171449E+00
 0.4492256380004E+00 -0.5446627827230E+00  0.0000000000000E+00  0.2468934888741E+00
 0.4192818719977E+00 -0.5190013629985E+00  0.0000000000000E+00  0.2371809335788E+00
 0.3846438684893E+00 -0.4889671417562E+00  0.0000000000000E+00  0.2230792371873E+00
 0.3447900670384E+00 -0.4540646695851E+00  0.0000000000000E+00  0.2044651981078E+00
 0.2991706041825E+00 -0.4137721334797E+00  0.0000000000000E+00  0.1814194945512E+00
 0.2472330001015E+00 -0.3675660722116E+00  0.0000000000000E+00  0.1542861264220E+00
 0.1884635569405E+00 -0.3149610700231E+00  0.0000000000000E+00  0.1237217901602E+00
 0.1224455935462E+00 -0.2555655733729E+00  0.0000000000000E+00  0.9071536196956E-01
 0.4892906281037E-01 -0.1891488577482E+00  0.0000000000000E+00  0.5654990061184E-01
-0.3210518686695E-01 -0.1157035427374E+00  0.0000000000000E+00  0.2268117227619E-01
 0.5683297809856E+00 -0.6335936885956E+00  0.0000000000000E+00  0.2086153981740E+00
 0.5649512930589E+00 -0.6320956430474E+00  0.0000000000000E+00  0.2245578476373E+00
 0.5600900952063E+00 -0.6292557518705E+00  0.0000000000000E+00  0.2395394109944E+00
 0.5535430621338E+00 -0.6248789774203E+00  0.0000000000000E+00  0.2533011844258E+00
 0.5451065011851E+00 -0.6187705371768E+00  0.0000000000000E+00  0.2655581599253E+00
 0.5345746189933E+00 -0.6107343065656E+00  0.0000000000000E+00  0.2759804633026E+00
 0.5217312918751E+00 -0.6005647261205E+00  0.0000000000000E+00  0.2841833311983E+00
 0.5063395490151E+00 -0.5880365459420E+00  0.0000000000000E+00  0.2897278065091E+00
 0.4881308153118E+00 -0.5728944266962E+00  0.0000000000000E+00  0.2921302596070E+00
 0.4667944862492E+00 -0.5548429559002E+00  0.0000000000000E+00  0.2908793807188E+00
 0.4419679518741E+00 -0.5335371799410E+00  0.0000000000000E+00  0.2854607777597E+00
 0.4132274256013E+00 -0.5085739809572E+00  0.0000000000000E+00  0.2753906570267E+00
 0.3800806639592E+00 -0.4794853302086E+00  0.0000000000000E+00  0.2602609453685E+00
 0.3419638363744E+00 -0.4457355730608E+00  0.0000000000000E+00  0.2397984133136E+00
 0.2982464646974E+00 -0.4067264611082E+00  0.0000000000000E+00  0.2139393830763E+00
 0.2482503056530E+00 -0.3618155284685E+00  0.0000000000000E+00  0.1829184046202E+00
 0.1912900660892E+00 -0.3103551600833E+00  0.0000000000000E+00  0.1473626762526E+00
 0.1267445242256E+00 -0.2517604390678E+00  0.0000000000000E+00  0.1083707989637E+00
 0.5416159099710E-01 -0.1856093694617E+00  0.0000000000000E+00  0.6753344018396E-01
-0.2661602532998E-01 -0.1117635357944E+00  0.0000000000000E+00  0.2683391051697E-01
 0.5604114816580E+00 -0.6247599079523E+00  0.0000000000000E+00  0.2341288455580E+00
 0.5563861403371E+00 -0.6224237992829E+00  0.0000000000000E+00  0.2516983412246E+00
 0.5509130938885E+00 -0.6187550969926E+00  0.0000000000000E+00  0.2682482965497E+00
 0.5438091137816E+00 -0.6135762867404E+00  0.0000000000000E+00  0.2835181318164E+00
 0.5348980780624E+00 -0.6067177220240E+00  0.0000000000000E+00  0.2972300191736E+00
 0.5240104017587E+00 -0.5980168897368E+00  0.0000000000000E+00  0.3090562154566E+00
 0.5109723624311E+00 -0.5873078367647E+00  0.0000000000000E+00  0.3186012479072E+00
 0.4955927298515E+00 -0.5744080883228E+00  0.0000000000000E+00  0.3253987307854E+00
 0.4776493574954E+00 -0.5591056856133E+00  0.0000000000000E+00  0.3289180020878E+00
 0.4568758825177E+00 -0.5411464667131E+00  0.0000000000000E+00  0.3285776422473E+00
 0.4329479256822E+00 -0.5202209798603E+00  0.0000000000000E+00  0.3237656997762E+00
 0.4054683717222E+00 -0.4959506119245E+00  0.0000000000000E+00  0.3138687740011E+00
 0.3739520670197E+00 -0.4678732599264E+00  0.0000000000000E+00  0.2983139800489E+00
 0.3378116088606E+00 -0.4354301621729E+00  0.0000000000000E+00  0.2766293415336E+00
 0.2963480409847E+00 -0.3979575610381E+00  0.0000000000000E+00  0.2485290605817E+00
 0.2487537163297E+00 -0.3546900408527E+00  0.0000000000000E+00  0.2140292865047E+00
 0.1941387400365E+00 -0.3047865728616E+00  0.0000000000000E+00  0.1735948575012E+00
 0.1315985623064E+00 -0.2473951445376E+00  0.0000000000000E+00  0.1283067986015E+00
 0.6034604008682E-01 -0.1817776703059E+00  0.0000000000000E+00  0.8000924026345E-01
-0.2008074350498E-01 -0.1075071285473E+00  0.0000000000000E+00  0.3133293314374E-01
 0.5515860499009E+00 -0.6149224789451E+00  0.0000000000000E+00  0.2587161983950E+00
 0.5468231385634E+00 -0.6116421183627E+00  0.0000000000000E+00  0.2777120715488E+00
 0.5406426054505E+00 -0.6070319283410E+00  0.0000000000000E+00  0.2956352026898E+00
 0.5328746000611E+00 -0.6009251126740E+00  0.0000000000000E+00  0.3122353896245E+00
 0.5233689832101E+00 -0.5931754322536E+00  0.0000000000000E+00  0.3272617628283E+00
 0.5119943544691E+00 -0.5836557333736E+00  0.0000000000000E+00  0.3404076906868E+00
 0.4986232574660E+00 -0.5722431033900E+00  0.0000000000000E+00  0.3512841730100E+00
 0.4831156111394E+00 -0.5588025981057E+00  0.0000000000000E+00  0.3594139301361E+00
 0.4653033273517E+00 -0.5431723599748E+00  0.0000000000000E+00  0.3642357837780E+00
 0.4449753401079E+00 -0.5251493221415E+00  0.0000000000000E+00  0.3651139428340E+00
 0.4218613287859E+00 -0.5044737920762E+00  0.0000000000000E+00  0.3613513040563E+00
 0.3956125586484E+00 -0.4808113776533E+00  0.0000000000000E+00  0.3522092030886E+00
 0.3657788820374E+00 -0.4537313596275E+00  0.0000000000000E+00  0.3369388025075E+00
 0.3317820235202E+00 -0.4226816950571E+00  0.0000000000000E+00  0.3148321917781E+00
 0.2928873049008E+00 -0.3869627848681E+00  0.0000000000000E+00  0.2853046927482E+00
 0.2481797147389E+00 -0.3457057954758E+00  0.0000000000000E+00  0.2480235108597E+00
 0.1965578498092E+00 -0.2978680187540E+00  0.0000000000000E+00  0.2030989340991E+00
 0.1367663927540E+00 -0.2422665509673E+00  0.0000000000000E+00  0.1513468572400E+00
 0.6750859802671E-01 -0.1776852406382E+00  0.0000000000000E+00  0.9462602563742E-01
-0.1228496441627E-01 -0.1031242264296E+00  0.0000000000000E+00  0.3617038836684E-01
 0.5418859597145E+00 -0.6041205441007E+00  0.0000000000000E+00  0.2822525708254E+00
 0.5362982815458E+00 -0.5997973570522E+00  0.0000000000000E+00  0.3024578513271E+00
 0.5293152249752E+00 -0.5941377832997E+00  0.0000000000000E+00  0.3215219797513E+00
 0.5207684291609E+00 -0.5869739399077E+00  0.0000000000000E+00  0.3392267990922E+00
 0.5105315937734E+00 -0.5781811209312E+00  0.0000000000000E+00  0.3553731652020E+00
 0.4985130886381E+00 -0.5676690612505E+00  0.0000000000000E+00  0.3696946508460E+00
 0.4846340265209E+00 -0.5553598830190E+00  0.0000000000000E+00  0.3818246998009E+00
 0.4688081999758E+00 -0.5411683215613E+00  0.0000000000000E+00  0.3912916520944E+00
 0.4509258952673E+00 -0.5249860597239E+00  0.0000000000000E+00  0.3975232389158E+00
 0.4308391919796E+00 -0.5066677311360E+00  0.0000000000000E+00  0.3998521437069E+00
 0.4083455637082E+00 -0.4860154170654E+00  0.0000000000000E+00  0.3975208425122E+00
 0.3831668456181E+00 -0.4627587841543E+00  0.0000000000000E+00  0.3896879568795E+00
 0.3549210031984E+00 -0.4365284302603E+00  0.0000000000000E+00  0.3754414001856E+00
 0.3230845236776E+00 -0.4068204582909E+00  0.0000000000000E+00  0.3538271504960E+00
 0.2869440450573E+00 -0.3729511682851E+00  0.0000000000000E+00  0.3239079869824E+00
 0.2455384181700E+00 -0.3340031937676E+00  0.0000000000000E+00  0.2848751594878E+00
 0.1975986355929E+00 -0.2887708292598E+00  0.0000000000000E+00  0.2362486570658E+00
 0.1415121428186E+00 -0.2357272020558E+00  0.0000000000000E+00  0.1782080524883E+00
 0.7533494265424E-01 -0.1730481165557E+00  0.0000000000000E+00  0.1120856050797E+00
-0.3044409526958E-02 -0.9876633189377E-01  0.0000000000000E+00  0.4115017499366E-01
 0.5313490832189E+00 -0.5924010974820E+00  0.0000000000000E+00  0.3046433448389E+00
 0.5248597755587E+00 -0.5869520746811E+00  0.0000000000000E+00  0.3258327191125E+00
 0.5169791456991E+00 -0.5801395953263E+00  0.0000000000000E+00  0.3457672912091E+00
 0.5075273117264E+00 -0.5717833480447E+00  0.0000000000000E+00  0.3643022254336E+00
 0.4964018684301E+00 -0.5617807493116E+00  0.0000000000000E+00  0.3813174366858E+00
 0.4835529537598E+00 -0.5500805990282E+00  0.0000000000000E+00  0.3966013339325E+00
 0.4689505748998E+00 -0.5366502477615E+00  0.0000000000000E+00  0.4098194106587E+00
 0.4525610264485E+00 -0.5214523201159E+00  0.0000000000000E+00  0.4205170583156E+00
 0.4343316439990E+00 -0.5044300075811E+00  0.0000000000000E+00  0.4281283809668E+00
 0.4141789053465E+00 -0.4854958151947E+00  0.0000000000000E+00  0.4319799832764E+00
 0.3919750090502E+00 -0.4645189357576E+00  0.0000000000000E+00  0.4312874789618E+00
 0.3675287844754E+00 -0.4413071742882E+00  0.0000000000000E+00  0.4251465388096E+00
 0.3405570075257E+00 -0.4155796949789E+00  0.0000000000000E+00  0.4125225559299E+00
 0.3106416248398E+00 -0.3869264006122E+00  0.0000000000000E+00  0.3922456750849E+00
 0.2771671514170E+00 -0.3547487060012E+00  0.0000000000000E+00  0.3630231787114E+00
 0.2392310933822E+00 -0.3181754514067E+00  0.0000000000000E+00  0.3234924212229E+00
 0.1955216203333E+00 -0.2759488576682E+00  0.0000000000000E+00  0.2723588688241E+00
 0.1441663265342E+00 -0.2262868602851E+00  0.0000000000000E+00  0.2087065382465E+00
 0.8261798359621E-01 -0.1667662123091E+00  0.0000000000000E+00  0.1325671230945E+00
 0.7490684214396E-02 -0.9423515952556E-01  0.0000000000000E+00  0.4578987221214E-01
 0.5200215136351E+00 -0.5798217876432E+00  0.0000000000000E+00  0.3258114783824E+00
 0.5125679939143E+00 -0.5731805008806E+00  0.0000000000000E+00  0.3477320071791E+00
 0.5036887645609E+00 -0.5651089074491E+00  0.0000000000000E+00  0.3682190267517E+00
 0.4931877593482E+00 -0.5554110156630E+00  0.0000000000000E+00  0.3872579563313E+00
 0.4809917949771E+00 -0.5440125642209E+00  0.0000000000000E+00  0.4048331936887E+00
 0.4670966321126E+00 -0.5309056674426E+00  0.0000000000000E+00  0.4207920815141E+00
 0.4515195630227E+00 -0.5161012950580E+00  0.0000000000000E+00  0.4348294521023E+00
 0.4342731450179E+00 -0.4996035059660E+00  0.0000000000000E+00  0.4465083336699E+00
 0.4153533321476E+00 -0.4813980929500E+00  0.0000000000000E+00  0.4552785194282E+00
 0.3947331897099E+00 -0.4614468932397E+00  0.0000000000000E+00  0.4604811916075E+00
 0.3723555468804E+00 -0.4396809573115E+00  0.0000000000000E+00  0.4613386059217E+00
 0.3481198868805E+00 -0.4159880410490E+00  0.0000000000000E+00  0.4569309220839E+00
 0.3218592094340E+00 -0.3901903009500E+00  0.0000000000000E+00  0.4461622854296E+00
 0.2933013302163E+00 -0.3620069921323E+00  0.0000000000000E+00  0.4277181592996E+00
 0.2620058530365E+00 -0.3309939680703E+00  0.0000000000000E+00  0.4000176757228E+00
 0.2272621146586E+00 -0.2964463858524E+00  0.0000000000000E+00  0.3611713475512E+00
 0.1879236341575E+00 -0.2572427748276E+00  0.0000000000000E+00  0.3089749242437E+00
 0.1421439405859E+00 -0.2115987553463E+00  0.0000000000000E+00  0.2410210678786E+00
 0.8699928315796E-01 -0.1567270439818E+00  0.0000000000000E+00  0.1551774306844E+00
 0.1829414291592E-01 -0.8855074490247E-01  0.0000000000000E+00  0.5045670549574E-01
 0.5079580357060E+00 -0.5664413872913E+00  0.0000000000000E+00  0.3455991216490E+00
 0.4994856776939E+00 -0.5585482736103E+00  0.0000000000000E+00  0.3679182543039E+00
 0.4894991427989E+00 -0.5491033304614E+00  0.0000000000000E+00  0.3885583516704E+00
 0.4777909455532E+00 -0.5379012532623E+00  0.0000000000000E+00  0.4077046167822E+00
 0.4643320813930E+00 -0.5249123144140E+00  0.0000000000000E+00  0.4254644122476E+00
 0.4491713937884E+00 -0.5101797600235E+00  0.0000000000000E+00  0.4417316919935E+00
 0.4323702255801E+00 -0.4937551265391E+00  0.0000000000000E+00  0.4562115914159E+00
 0.4139764497889E+00 -0.4756727316042E+00  0.0000000000000E+00  0.4684727453172E+00
 0.3940198387593E+00 -0.4559459936694E+00  0.0000000000000E+00  0.4779803584260E+00
 0.3725141636689E+00 -0.4345698921140E+00  0.0000000000000E+00  0.4841028782112E+00
 0.3494580413341E+00 -0.4115220275062E+00  0.0000000000000E+00  0.4860963450880E+00
 0.3248304545713E+00 -0.3867580374922E+00  0.0000000000000E+00  0.4830704260166E+00
 0.2985780219459E+00 -0.3601987043261E+00  0.0000000000000E+00  0.4739367215749E+00
 0.2705897746240E+00 -0.3317046453724E+00  0.0000000000000E+00  0.4573356564193E+00
 0.2406512874720E+00 -0.3010307684431E+00  0.0000000000000E+00  0.4315344320605E+00
 0.2083622280031E+00 -0.2677451916047E+00  0.0000000000000E+00  0.3942853154603E+00
 0.1729840740218E+00 -0.2310815450587E+00  0.0000000000000E+00  0.3426326449205E+00
 0.1331477574412E+00 -0.1896609836805E+00  0.0000000000000E+00  0.2726799309040E+00
 0.8625386767903E-01 -0.1409429827578E+00  0.0000000000000E+00  0.1794588080669E+00
 0.2755008740939E-01 -0.8042790047599E-01  0.0000000000000E+00  0.5795825211914E-01
 0.4952353198642E+00 -0.5523442752353E+00  0.0000000000000E+00  0.3638319305929E+00
 0.4857065466575E+00 -0.5431567550935E+00  0.0000000000000E+00  0.3861244216455E+00
 0.4745051395962E+00 -0.5322247411674E+00  0.0000000000000E+00  0.4064301236395E+00
 0.4614342545570E+00 -0.5193594512561E+00  0.0000000000000E+00  0.4252303044123E+00
 0.4465390587572E+00 -0.5046066591780E+00  0.0000000000000E+00  0.4427562008408E+00
 0.4299318644076E+00 -0.4880723408099E+00  0.0000000000000E+00  0.4589074526416E+00
 0.4117103574691E+00 -0.4698403771461E+00  0.0000000000000E+00  0.4733600740689E+00
 0.3919407438064E+00 -0.4499585401157E+00  0.0000000000000E+00  0.4856643844372E+00
 0.3706662459792E+00 -0.4284474893766E+00  0.0000000000000E+00  0.4952922905248E+00
 0.3479198791756E+00 -0.4053143924189E+00  0.0000000000000E+00  0.5016426053140E+00
 0.3237333994904E+00 -0.3805613747288E+00  0.0000000000000E+00  0.5040192877982E+00
 0.2981412814159E+00 -0.3541886019433E+00  0.0000000000000E+00  0.5015914707067E+00
 0.2711799225522E+00 -0.3261920868608E+00  0.0000000000000E+00  0.4933342460544E+00
 0.2428810469749E+00 -0.2965551748774E+00  0.0000000000000E+00  0.4779423003551E+00
 0.2132559010096E+00 -0.2652299620927E+00  0.0000000000000E+00  0.4537001752360E+00
 0.1822611973104E+00 -0.2320994205654E+00  0.0000000000000E+00  0.4182794103748E+00
 0.1497264908067E+00 -0.1968985753245E+00  0.0000000000000E+00  0.3684077394112E+00
 0.1151825708834E+00 -0.1590368252923E+00  0.0000000000000E+00  0.2993008218780E+00
 0.7741069960756E-01 -0.1171445899546E+00  0.0000000000000E+00  0.2036453413050E+00
 0.3272199874203E-01 -0.6761103716671E-01  0.0000000000000E+00  0.7037794477217E-01
 0.4819522933609E+00 -0.5376412587851E+00  0.0000000000000E+00  0.3803352951993E+00
 0.4713443991054E+00 -0.5271314240700E+00  0.0000000000000E+00  0.4020703140725E+00
 0.4588123859004E+00 -0.5145906727417E+00  0.0000000000000E+00  0.4214764823030E+00
 0.4442301166943E+00 -0.4999101198971E+00  0.0000000000000E+00  0.4394682425314E+00
 0.4277668148642E+00 -0.4832668416440E+00  0.0000000000000E+00  0.4563464251052E+00
 0.4096043328619E+00 -0.4648330976031E+00  0.0000000000000E+00  0.4719307460069E+00
 0.3898582741235E+00 -0.4447078851106E+00  0.0000000000000E+00  0.4858073694714E+00
 0.3685882527915E+00 -0.4229261695829E+00  0.0000000000000E+00  0.4974794556213E+00
 0.3458282795734E+00 -0.3994942853641E+00  0.0000000000000E+00  0.5064128706768E+00
 0.3216086623393E+00 -0.3744111257659E+00  0.0000000000000E+00  0.5120251467331E+00
 0.2959688355251E+00 -0.3476800883721E+00  0.0000000000000E+00  0.5136548034465E+00
 0.2689658679524E+00 -0.3193158084759E+00  0.0000000000000E+00  0.5105177765150E+00
 0.2406818671463E+00 -0.2893491747471E+00  0.0000000000000E+00  0.5016482148286E+00
 0.2112328040931E+00 -0.2578326986627E+00  0.0000000000000E+00  0.4858134169418E+00
 0.1807809941238E+00 -0.2248478682364E+00  0.0000000000000E+00  0.4613842898192E+00
 0.1495551763881E+00 -0.1905163924944E+00  0.0000000000000E+00  0.4261260896732E+00
 0.1178813124978E+00 -0.1550168267933E+00  0.0000000000000E+00  0.3768376084948E+00
 0.8623864520917E-01 -0.1186064706798E+00  0.0000000000000E+00  0.3086749867965E+00
 0.5532797737066E-01 -0.8162187869451E-01  0.0000000000000E+00  0.2136941896117E+00
 0.2583804151726E-01 -0.4396348854291E-01  0.0000000000000E+00  0.7658430826024E-01
 0.4682368740271E+00 -0.5224758168986E+00  0.0000000000000E+00  0.3949146617531E+00
 0.4565147955821E+00 -0.5106056592151E+00  0.0000000000000E+00  0.4154244579764E+00
 0.4424998987055E+00 -0.4962887367180E+00  0.0000000000000E+00  0.4333472900104E+00
 0.4262719246369E+00 -0.4796608770073E+00  0.0000000000000E+00  0.4501540084193E+00
 0.4081871862558E+00 -0.4610814800310E+00  0.0000000000000E+00  0.4660523875501E+00
 0.3884791077893E+00 -0.4407812526930E+00  0.0000000000000E+00  0.4806257816428E+00
 0.3672375920349E+00 -0.4188205113930E+00  0.0000000000000E+00  0.4933150989904E+00
 0.3444894883841E+00 -0.3951973689915E+00  0.0000000000000E+00  0.5035754074463E+00
 0.3202475490483E+00 -0.3698932595173E+00  0.0000000000000E+00  0.5108600772918E+00
 0.2945312264007E+00 -0.3428937049908E+00  0.0000000000000E+00  0.5145847541030E+00
 0.2673777183033E+00 -0.3141973298615E+00  0.0000000000000E+00  0.5140856160836E+00
 0.2388507334084E+00 -0.2838225352464E+00  0.0000000000000E+00  0.5085738213126E+00
 0.2090520066168E+00 -0.2518162759095E+00  0.0000000000000E+00  0.4970785789074E+00
 0.1781396918884E+00 -0.2182687562314E+00  0.0000000000000E+00  0.4783688444171E+00
 0.1463603538736E+00 -0.1833397701758E+00  0.0000000000000E+00  0.4508386973613E+00
 0.1141068321094E+00 -0.1473081586328E+00  0.0000000000000E+00  0.4123323278472E+00
 0.8203462064230E-01 -0.1106703787378E+00  0.0000000000000E+00  0.3598597899835E+00
 0.5129426406036E-01 -0.7434810049985E-01  0.0000000000000E+00  0.2891040067262E+00
 0.2413362034172E-01 -0.4019117765295E-01  0.0000000000000E+00  0.1934706865370E+00
 0.5926041956358E-02 -0.1262775919635E-01  0.0000000000000E+00  0.6130543663008E-01
 0.4542349760562E+00 -0.5070319220840E+00  0.0000000000000E+00  0.4072604899320E+00
 0.4412890504059E+00 -0.4936570480611E+00  0.0000000000000E+00  0.4257586461117E+00
 0.4255512702090E+00 -0.4773206011596E+00  0.0000000000000E+00  0.4417233011515E+00
 0.4076025682400E+00 -0.4586474272788E+00  0.0000000000000E+00  0.4572811710529E+00
 0.3880149108750E+00 -0.4382871255250E+00  0.0000000000000E+00  0.4720103058351E+00
 0.3669421431513E+00 -0.4163345882216E+00  0.0000000000000E+00  0.4851107138245E+00
 0.3443941352048E+00 -0.3927675152532E+00  0.0000000000000E+00  0.4959589091407E+00
 0.3203651102470E+00 -0.3675470082140E+00  0.0000000000000E+00  0.5040058000527E+00
 0.2948615192875E+00 -0.3406486242924E+00  0.0000000000000E+00  0.5087070838742E+00
 0.2679130464734E+00 -0.3120694504053E+00  0.0000000000000E+00  0.5094674440090E+00
 0.2395795840325E+00 -0.2818332364615E+00  0.0000000000000E+00  0.5056000270158E+00
 0.2099624109305E+00 -0.2499995508281E+00  0.0000000000000E+00  0.4962869871993E+00
 0.1792229757747E+00 -0.2166804435398E+00  0.0000000000000E+00  0.4805329351930E+00
 0.1476140870068E+00 -0.1820689722710E+00  0.0000000000000E+00  0.4571046754833E+00
 0.1155317060650E+00 -0.1464877110546E+00  0.0000000000000E+00  0.4244522089693E+00
 0.8360495141353E-01 -0.1104734661693E+00  0.0000000000000E+00  0.3806067399915E+00
 0.5285529946860E-01 -0.7493315217613E-01  0.0000000000000E+00  0.3230646457186E+00
 0.2502766769134E-01 -0.4145482390302E-01  0.0000000000000E+00  0.2486752207644E+00
 0.3204176911114E-02 -0.1296840096808E-01  0.0000000000000E+00  0.1537326904330E+00
-0.6262217666762E-02  0.4242177198016E-02  0.0000000000000E+00  0.3595072709438E-01
 0.4401942610768E+00 -0.4915874755684E+00  0.0000000000000E+00  0.4167756697784E+00
 0.4254745438178E+00 -0.4761972750497E+00  0.0000000000000E+00  0.4322068171594E+00
 0.4076700291349E+00 -0.4572757602942E+00  0.0000000000000E+00  0.4467440075278E+00
 0.3882983639637E+00 -0.4369644268425E+00  0.0000000000000E+00  0.4614754436718E+00
 0.3676069955964E+00 -0.4152636402520E+00  0.0000000000000E+00  0.4747214922685E+00
 0.3455086115052E+00 -0.3920459700885E+00  0.0000000000000E+00  0.4857741203614E+00
 0.3219710867754E+00 -0.3672362947691E+00  0.0000000000000E+00  0.4941032896008E+00
 0.2969998107990E+00 -0.3408112869215E+00  0.0000000000000E+00  0.4992245256329E+00
 0.2706365058108E+00 -0.3127856438608E+00  0.0000000000000E+00  0.5006125867539E+00
 0.2429577181674E+00 -0.2832086810108E+00  0.0000000000000E+00  0.4976689191040E+00
 0.2140835030220E+00 -0.2521710159416E+00  0.0000000000000E+00  0.4896993742840E+00
 0.1841948642859E+00 -0.2198208216588E+00  0.0000000000000E+00  0.4758934935146E+00
 0.1535621954526E+00 -0.1863911895354E+00  0.0000000000000E+00  0.4553014290377E+00
 0.1225888808918E+00 -0.1522428557710E+00  0.0000000000000E+00  0.4268093923668E+00
 0.9187765723345E-01 -0.1179299180534E+00  0.0000000000000E+00  0.3891190935058E+00
 0.6233138014573E-01 -0.8430225525973E-01  0.0000000000000E+00  0.3407496527811E+00
 0.3531225966991E-01 -0.5266641966850E-01  0.0000000000000E+00  0.2801009835331E+00
 0.1287164920599E-01 -0.2505049152165E-01  0.0000000000000E+00  0.2057368789295E+00
-0.1800243380693E-02 -0.4634583457301E-02  0.0000000000000E+00  0.1171137807474E+00
-0.4986061795421E-02  0.4214438041704E-02  0.0000000000000E+00  0.1751140670312E-01
 0.4251884538310E+00 -0.4760087729414E+00  0.0000000000000E+00  0.4200404099256E+00
 0.4074815286141E+00 -0.4559207319966E+00  0.0000000000000E+00  0.4353923474784E+00
 0.3886832904616E+00 -0.4360564230842E+00  0.0000000000000E+00  0.4505282071589E+00
 0.3688738782853E+00 -0.4151431936547E+00  0.0000000000000E+00  0.4638491093729E+00
 0.3475828365613E+00 -0.3926747071159E+00  0.0000000000000E+00  0.4747938851930E+00
 0.3248169100724E+00 -0.3685942193707E+00  0.0000000000000E+00  0.4830471695905E+00
 0.3006305554279E+00 -0.3429312621124E+00  0.0000000000000E+00  0.4882432093484E+00
 0.2751126803725E+00 -0.3157529024719E+00  0.0000000000000E+00  0.4899417907305E+00
 0.2483750310822E+00 -0.2871514076776E+00  0.0000000000000E+00  0.4876252333665E+00
 0.2205624722866E+00 -0.2572520844187E+00  0.0000000000000E+00  0.4807004618839E+00
 0.1918687172985E+00 -0.2262284291572E+00  0.0000000000000E+00  0.4684991662955E+00
 0.1625590726988E+00 -0.1943245142399E+00  0.0000000000000E+00  0.4502789011297E+00
 0.1330020196740E+00 -0.1618865779044E+00  0.0000000000000E+00  0.4252296297525E+00
 0.1037132319090E+00 -0.1294075054149E+00  0.0000000000000E+00  0.3924930541952E+00
 0.7541616142268E-01 -0.9758909396901E-01  0.0000000000000E+00  0.3512081618929E+00
 0.4912356418917E-01 -0.6742682481987E-01  0.0000000000000E+00  0.3006062341419E+00
 0.2623518889402E-01 -0.4032028379791E-01  0.0000000000000E+00  0.2402131846872E+00
 0.8642229265250E-02 -0.1818238895510E-01  0.0000000000000E+00  0.1702180797151E+00
-0.1373794706982E-02 -0.3483163822166E-02  0.0000000000000E+00  0.9243821643911E-01
-0.1121313288387E-02  0.1408018097727E-02  0.0000000000000E+00  0.1002300381112E-01
</DataArray>
<DataArray type="Float64" Name="S_Centroid" NumberOfComponents="4" ComponentName0="S11" ComponentName1="S22" ComponentName2="S33" ComponentName3="S12" format="ascii">
-0.5856855764186E+00 -0.4682906841667E+01 -0.1053718499319E+01 -0.6126732617262E+00
 0.8366854806642E-01 -0.3652412298850E+01 -0.7137487607925E+00 -0.2925948719992E-01
-0.1644668404537E-01 -0.3363625625135E+01 -0.6760144719096E+00 -0.3458818403643E-01
 0.2533586260105E-02 -0.3226401269511E+01 -0.6447735462581E+00 -0.1472381941229E-01
-0.9543569580757E-03 -0.3155433798824E+01 -0.6312776405632E+00 -0.7521696205845E-02
-0.3928106642259E-04 -0.3120851344855E+01 -0.6241781344852E+00 -0.2784594958689E-02
-0.1714941840935E-03 -0.3108983343191E+01 -0.6218309767410E+00  0.3313306113772E-03
-0.9920469258273E-04 -0.3112837561016E+01 -0.6225873624189E+00  0.2639285858081E-02
-0.9586653542304E-04 -0.3128670437932E+01 -0.6257532702180E+00  0.4503396972013E-02
-0.8912842963682E-04 -0.3154474223112E+01 -0.6309126797097E+00  0.6152482922448E-02
-0.9304021987222E-04 -0.3189344186421E+01 -0.6378874548335E+00  0.7741764291421E-02
-0.1032857987944E-03 -0.3233168642715E+01 -0.6466543953387E+00  0.9397517895320E-02
-0.1229952200923E-03 -0.3286532860874E+01 -0.6573311810138E+00  0.1124797706291E-01
-0.1546989394817E-03 -0.3350804102922E+01 -0.6701917703589E+00  0.1346065016796E-01
-0.2257184168993E-03 -0.3428642793024E+01 -0.6857737125070E+00  0.1636124033517E-01
-0.9879110774748E-03 -0.3525773868682E+01 -0.7053523664624E+00  0.2185265972798E-01
-0.3203165830124E-02 -0.3645106698128E+01 -0.7296619836644E+00  0.3470992212145E-01
-0.5995669800905E-02 -0.3776910245908E+01 -0.7565811944158E+00  0.5861270755448E-01
-0.8434693466087E-02 -0.3909793891214E+01 -0.7836457286133E+00  0.9194573808858E-01
-0.1089764092660E-01 -0.4042509024160E+01 -0.8106813450974E+00  0.1307669129597E+00
-0.1384605316320E-01 -0.4178901406147E+01 -0.8385495043573E+00  0.1725890709857E+00
-0.1755788086179E-01 -0.4323575149564E+01 -0.8682266190228E+00  0.2166550458598E+00
-0.2222863568659E-01 -0.4480432360160E+01 -0.9005322125883E+00  0.2632907936883E+00
-0.2807730490227E-01 -0.4652472006873E+01 -0.9361098763043E+00  0.3134347277606E+00
-0.3541557983019E-01 -0.4841817913065E+01 -0.9754467131142E+00  0.3684374414982E+00
-0.4470506183955E-01 -0.5049403555618E+01 -0.1018821738673E+01  0.4299699397242E+00
-0.5612451702277E-01 -0.5273660943355E+01 -0.1065957107960E+01  0.4991786507535E+00
-0.6951582398732E-01 -0.5512907781159E+01 -0.1116484737666E+01  0.5758945121270E+00
-0.8528470959428E-01 -0.5769558535170E+01 -0.1170968666402E+01  0.6601501896888E+00
-0.1043802602329E+00 -0.6047403039872E+01 -0.1230356678355E+01  0.7537122471180E+00
-0.1279173988245E+00 -0.6348692169286E+01 -0.1295321932924E+01  0.8595810482970E+00
-0.1574430237783E+00 -0.6674837506845E+01 -0.1366456126487E+01  0.9815169870760E+00
-0.1949497577363E+00 -0.7026001547180E+01 -0.1444190282503E+01  0.1123929214866E+01
-0.2427330740674E+00 -0.7399548874292E+01 -0.1528456412448E+01  0.1290820726946E+01
-0.2995916386830E+00 -0.7788261174443E+01 -0.1617570586729E+01  0.1481460876216E+01
-0.3605075299911E+00 -0.8191332249701E+01 -0.1710367981425E+01  0.1682889239397E+01
-0.3960991617797E+00 -0.8674516429483E+01 -0.1814123145285E+01  0.1883701973982E+01
-0.5147578212258E+00 -0.9383348604035E+01 -0.1979621314551E+01  0.2134784882790E+01
-0.2841655193901E+00 -0.1048465103095E+02 -0.2153763342162E+01  0.2434702190810E+01
-0.2304778346871E+01 -0.1245028700033E+02 -0.2951013113413E+01  0.3865875801894E+01
 0.7602870896944E+01 -0.1157445239099E+02 -0.7943163106461E+00  0.1912154586511E+01
-0.6224615941065E+00 -0.4115163657104E+01 -0.9475250643614E+00 -0.6758225464603E+00
-0.9474409343728E-01 -0.3799603071658E+01 -0.7788694446252E+00 -0.2892792610539E+00
-0.4513223312726E-02 -0.3450624882834E+01 -0.6910276315265E+00 -0.9531372984354E-01
-0.1233011898586E-01 -0.3301587205913E+01 -0.6627834748561E+00 -0.5605337263340E-01
-0.4248416596415E-02 -0.3217941141693E+01 -0.6444379212608E+00 -0.2783843859947E-01
-0.3336524060176E-02 -0.3174158134466E+01 -0.6354989411749E+00 -0.1253700882648E-01
-0.2192906501511E-02 -0.3155034012393E+01 -0.6314453931883E+00 -0.2085998129843E-02
-0.1722637794346E-02 -0.3153129306638E+01 -0.6309703982886E+00  0.5498039251075E-02
-0.1440695654149E-02 -0.3164236891646E+01 -0.6331355268944E+00  0.1156025629519E-01
-0.1325197979074E-02 -0.3186066649081E+01 -0.6374783789112E+00  0.1683774445100E-01
-0.1320513383355E-02 -0.3217488270536E+01 -0.6437617663767E+00  0.2183879352750E-01
-0.1416866860686E-02 -0.3258207321085E+01 -0.6519248473036E+00  0.2696284320309E-01
-0.1630394733621E-02 -0.3308630584301E+01 -0.6620522056723E+00  0.3260061317600E-01
-0.1997388223419E-02 -0.3369909346680E+01 -0.6743813570297E+00  0.3924277592530E-01
-0.2911610771532E-02 -0.3444229954752E+01 -0.6894283233780E+00  0.4791027067869E-01
-0.5650940558571E-02 -0.3534319943864E+01 -0.7079941874345E+00  0.6058371841772E-01
-0.1097501511964E-01 -0.3640131180965E+01 -0.7302212500980E+00  0.7944060731768E-01
-0.1734297195189E-01 -0.3756492935751E+01 -0.7547671927875E+00  0.1056745598742E+00
-0.2285848702687E-01 -0.3877356714702E+01 -0.7800430519694E+00  0.1390875184941E+00
-0.2748720390967E-01 -0.4000755667683E+01 -0.8056485863237E+00  0.1782927787072E+00
-0.3213159774213E-01 -0.4128393098891E+01 -0.8321049517260E+00  0.2217578038974E+00
-0.3751963975855E-01 -0.4263239198500E+01 -0.8601517804690E+00  0.2687244858766E+00
-0.4414919508042E-01 -0.4408139888456E+01 -0.8904578299761E+00  0.3192068878638E+00
-0.5242509849957E-01 -0.4565321386052E+01 -0.9235493106723E+00  0.3737564751419E+00
-0.6279102876964E-01 -0.4736195257316E+01 -0.9597972715193E+00  0.4332573339271E+00
-0.7559852264273E-01 -0.4921062209598E+01 -0.9993321613394E+00  0.4986036617921E+00
-0.9072998856523E-01 -0.5119070131921E+01 -0.1041960039624E+01  0.5703645280164E+00
-0.1080131691272E+00 -0.5329362899345E+01 -0.1087475229899E+01  0.6489524350262E+00
-0.1281264519237E+00 -0.5552296578705E+01 -0.1136084623055E+01  0.7350391452563E+00
-0.1523879402647E+00 -0.5788786326976E+01 -0.1188234871154E+01  0.8298213908198E+00
-0.1821900813674E+00 -0.6038899226753E+01 -0.1244217880164E+01  0.9351896682981E+00
-0.2190954990374E+00 -0.6301197826176E+01 -0.1304058684475E+01  0.1053528103704E+01
-0.2648127810808E+00 -0.6572244634109E+01 -0.1367411503414E+01  0.1187117171571E+01
-0.3197648351460E+00 -0.6845854973953E+01 -0.1433123983175E+01  0.1336864981857E+01
-0.3808115777385E+00 -0.7114419996960E+01 -0.1499046337277E+01  0.1500597660097E+01
-0.4366688114745E+00 -0.7377062887666E+01 -0.1562746363115E+01  0.1674517955181E+01
-0.5050612313834E+00 -0.7651618890916E+01 -0.1631336048769E+01  0.1869524153086E+01
-0.5519238136235E+00 -0.7941143238288E+01 -0.1698613435694E+01  0.2075317419550E+01
-0.8300777756323E+00 -0.8248001731601E+01 -0.1815615928501E+01  0.2476441067561E+01
-0.1214776832670E+01 -0.7415547203220E+01 -0.1726064832898E+01  0.2213288283151E+01
 0.7337394020135E+01 -0.5875441044309E+01  0.2923905995220E+00 -0.6368616621855E+00
-0.6606466175647E+00 -0.3824725387912E+01 -0.8970744144628E+00 -0.6554813339314E+00
-0.2221419135221E+00 -0.3740101249105E+01 -0.7924486443339E+00 -0.4091744684760E+00
-0.5133367764829E-01 -0.3514613158550E+01 -0.7131893778669E+00 -0.1845923382754E+00
-0.2612062198729E-01 -0.3356459767151E+01 -0.6765160879086E+00 -0.9534819429732E-01
-0.1537396614749E-01 -0.3270337317523E+01 -0.6571422665263E+00 -0.5213976915604E-01
-0.9442755569400E-02 -0.3220701121703E+01 -0.6460287850811E+00 -0.2467734935759E-01
-0.6720395558323E-02 -0.3196408907403E+01 -0.6406258701383E+00 -0.6668248044679E-02
-0.5116065806715E-02 -0.3189841488338E+01 -0.6389915203506E+00  0.6572405043217E-02
-0.4280609668658E-02 -0.3196846952245E+01 -0.6402255219228E+00  0.1708438206299E-01
-0.3892825188711E-02 -0.3215004654396E+01 -0.6437795055099E+00  0.2617923068629E-01
-0.3841634313822E-02 -0.3243055578367E+01 -0.6493794522127E+00  0.3471575687772E-01
-0.4081524520859E-02 -0.3280555008917E+01 -0.6569273164765E+00  0.4336934233803E-01
-0.4640018186080E-02 -0.3327723102246E+01 -0.6664726340176E+00  0.5277640068946E-01
-0.5673078641954E-02 -0.3385422085603E+01 -0.6782190429553E+00  0.6372861944433E-01
-0.7849999724780E-02 -0.3455022200920E+01 -0.6925744504490E+00  0.7748530347095E-01
-0.1251624017626E-01 -0.3537515259185E+01 -0.7100063104521E+00  0.9558391128082E-01
-0.2019002722672E-01 -0.3632039978099E+01 -0.7304460119495E+00  0.1189313152008E+00
-0.2918124009513E-01 -0.3735619522039E+01 -0.7529601636467E+00  0.1477690437920E+00
-0.3736345749735E-01 -0.3844938938903E+01 -0.7764604908503E+00  0.1823085411087E+00
-0.4435462559942E-01 -0.3958364292598E+01 -0.8005437955686E+00  0.2223962590722E+00
-0.5104222036149E-01 -0.4076397039271E+01 -0.8254878642272E+00  0.2673570068027E+00
-0.5839281546415E-01 -0.4200749727810E+01 -0.8518285213480E+00  0.3166155797265E+00
-0.6712610915612E-01 -0.4333314201841E+01 -0.8800880753137E+00  0.3700196362411E+00
-0.7780044968095E-01 -0.4475589159678E+01 -0.9106779354420E+00  0.4278021155682E+00
-0.9090204637369E-01 -0.4628378800422E+01 -0.9438561834236E+00  0.4904028690099E+00
-0.1066886359621E+00 -0.4791644773945E+01 -0.9796666965797E+00  0.5581993806932E+00
-0.1249851471856E+00 -0.4964703425089E+01 -0.1017937729623E+01  0.6314539913461E+00
-0.1456907089667E+00 -0.5146665996231E+01 -0.1058471356812E+01  0.7106159468032E+00
-0.1695426056352E+00 -0.5336657848107E+01 -0.1101240107158E+01  0.7963601075961E+00
-0.1979213870519E+00 -0.5533602076444E+01 -0.1146304709780E+01  0.8894007020590E+00
-0.2322623580819E+00 -0.5735526971391E+01 -0.1193557883680E+01  0.9905845985969E+00
-0.2739271236841E+00 -0.5938738506270E+01 -0.1242533144506E+01  0.1100771656620E+01
-0.3238139340780E+00 -0.6137179268224E+01 -0.1292198659716E+01  0.1220133861358E+01
-0.3810465326110E+00 -0.6322231846104E+01 -0.1340655695720E+01  0.1347200534387E+01
-0.4400632000092E+00 -0.6483949071198E+01 -0.1384802474877E+01  0.1478511981457E+01
-0.4962492404674E+00 -0.6613276646873E+01 -0.1421905198656E+01  0.1613420668611E+01
-0.5507405535330E+00 -0.6687449019792E+01 -0.1447637936237E+01  0.1748028229198E+01
-0.6187137102125E+00 -0.6656674664177E+01 -0.1455077696560E+01  0.1877848309794E+01
-0.7836577405551E+00 -0.6242999626351E+01 -0.1405331494322E+01  0.1892522441738E+01
 0.5547686780652E-01 -0.4914854249870E+01 -0.9718754908948E+00  0.7954309110571E+00
 0.7466290652342E+01 -0.3897288931163E+01  0.7138003548723E+00 -0.1444454373083E+01
-0.6854789310098E+00 -0.3649475252511E+01 -0.8669908496233E+00 -0.6193842487253E+00
-0.3157207186899E+00 -0.3653421536482E+01 -0.7938284628634E+00 -0.4584128812057E+00
-0.1130774492904E+00 -0.3528241849570E+01 -0.7282638706240E+00 -0.2549261044393E+00
-0.5180089715559E-01 -0.3396482224779E+01 -0.6896566346635E+00 -0.1375455403184E+00
-0.3042655489758E-01 -0.3311316402649E+01 -0.6683486014686E+00 -0.7657684708364E-01
-0.1938559392700E-01 -0.3260332405572E+01 -0.6559436096742E+00 -0.3859734405362E-01
-0.1360213196299E-01 -0.3232785096534E+01 -0.6492774553744E+00 -0.1277484187206E-01
-0.1041468266624E-01 -0.3222765741095E+01 -0.6466360943879E+00  0.6165771720498E-02
-0.8663085915938E-02 -0.3226336130335E+01 -0.6469998528912E+00  0.2125306139440E-01
-0.7837673495329E-02 -0.3241174717042E+01 -0.6498024877903E+00  0.3425228759397E-01
-0.7677789167477E-02 -0.3265976538844E+01 -0.6547308753584E+00  0.4637357116223E-01
-0.8091814139478E-02 -0.3300189670038E+01 -0.6616563066949E+00  0.5854777943980E-01
-0.9118781303801E-02 -0.3343853105314E+01 -0.6705943873162E+00  0.7163454647110E-01
-0.1102892158911E-01 -0.3397479633964E+01 -0.6817017212688E+00  0.8662342976732E-01
-0.1461132118089E-01 -0.3461719489543E+01 -0.6952661725051E+00  0.1047598481652E+00
-0.2105841369968E-01 -0.3536646464596E+01 -0.7115409862619E+00  0.1271427370924E+00
-0.3063230675084E-01 -0.3621236817682E+01 -0.7303738357699E+00  0.1540735581490E+00
-0.4169955867966E-01 -0.3713673508930E+01 -0.7510746247138E+00  0.1854414491396E+00
-0.5220405102562E-01 -0.3812093877614E+01 -0.7728595972444E+00  0.2215611818793E+00
-0.6154512073304E-01 -0.3915301768416E+01 -0.7953693896817E+00  0.2628295752770E+00
-0.7043942765278E-01 -0.4023209936578E+01 -0.8187298850463E+00  0.3091522477219E+00
-0.7990759465997E-01 -0.4136626278515E+01 -0.8433067872013E+00  0.3601881923816E+00
-0.9079905111434E-01 -0.4256637816666E+01 -0.8694873865124E+00  0.4157114841357E+00
-0.1037673522819E+00 -0.4384094344026E+01 -0.8975723526364E+00  0.4757001865352E+00
-0.1193018802932E+00 -0.4519301489512E+01 -0.9277206877851E+00  0.5402262173069E+00
-0.1376029494379E+00 -0.4661935729991E+01 -0.9599077501895E+00  0.6092950256007E+00
-0.1585145869614E+00 -0.4811201989152E+01 -0.9939433300336E+00  0.6829054919834E+00
-0.1820014671450E+00 -0.4965906070735E+01 -0.1029581522918E+01  0.7612940937265E+00
-0.2087473596830E+00 -0.5124287012630E+01 -0.1066606890356E+01  0.8448277246168E+00
-0.2399963258724E+00 -0.5283864334614E+01 -0.1104772148560E+01  0.9336516801207E+00
-0.2769971925910E+00 -0.5441050961223E+01 -0.1143609647804E+01  0.1027603002235E+01
-0.3206424330472E+00 -0.5590432982890E+01 -0.1182215100804E+01  0.1126028343872E+01
-0.3708910755785E+00 -0.5724164696567E+01 -0.1219011172594E+01  0.1227149263345E+01
-0.4252821788177E+00 -0.5831794884948E+01 -0.1251415431401E+01  0.1327301246062E+01
-0.4778408804724E+00 -0.5900652449343E+01 -0.1275698684972E+01  0.1421445326197E+01
-0.5220688256286E+00 -0.5912048539944E+01 -0.1286823492290E+01  0.1503826455265E+01
-0.5536946653612E+00 -0.5826163638727E+01 -0.1275971679831E+01  0.1560265370403E+01
-0.5702363546711E+00 -0.5544956330060E+01 -0.1223038555171E+01  0.1541065881713E+01
-0.4259130386495E+00 -0.4828909594836E+01 -0.1050964542358E+01  0.1194539807527E+01
 0.1163896737355E+01 -0.3664998271741E+01 -0.5002203143310E+00 -0.1369643827944E+00
 0.7360832590220E+01 -0.3135213660293E+01  0.8451237985788E+00 -0.1634179428297E+01
-0.7008293021354E+00 -0.3533456619163E+01 -0.8468571968788E+00 -0.5819274825617E+00
-0.3849917890731E+00 -0.3574213379319E+01 -0.7918410454778E+00 -0.4726653320547E+00
-0.1746766026478E+00 -0.3514746809284E+01 -0.7378846933818E+00 -0.3014522962070E+00
-0.8581217620686E-01 -0.3418634666839E+01 -0.7008893790533E+00 -0.1756634118389E+00
-0.5010750525889E-01 -0.3342344417977E+01 -0.6784903947575E+00 -0.1006201256523E+00
-0.3253056408176E-01 -0.3292791488827E+01 -0.6650644204920E+00 -0.5297660820066E-01
-0.2294819264459E-01 -0.3264104954436E+01 -0.6574106392123E+00 -0.1992088535205E-01
-0.1758864492529E-01 -0.3251773252596E+01 -0.6538723892478E+00  0.4630087886714E-02
-0.1461568754393E-01 -0.3252609447804E+01 -0.6534450368067E+00  0.2425064999030E-01
-0.1316818673011E-01 -0.3264508646341E+01 -0.6555353763825E+00  0.4114868228657E-01
-0.1282517947295E-01 -0.3286220144015E+01 -0.6598090745296E+00  0.5682839594767E-01
-0.1341956268271E-01 -0.3317127791270E+01 -0.6661094807164E+00  0.7245085060663E-01
-0.1499326347611E-01 -0.3357103489862E+01 -0.6744193607173E+00  0.8905673956558E-01
-0.1788223597959E-01 -0.3406326517201E+01 -0.6848417608410E+00  0.1077374511966E+00
-0.2287533062861E-01 -0.3464920869090E+01 -0.6975592503381E+00  0.1296286936192E+00
-0.3094048266831E-01 -0.3532493195541E+01 -0.7126867462618E+00  0.1555052013787E+00
-0.4213035448767E-01 -0.3608056083578E+01 -0.7300372984915E+00  0.1853989518971E+00
-0.5494079690372E-01 -0.3690435785340E+01 -0.7490753276109E+00  0.2190958802361E+00
-0.6749467905598E-01 -0.3778556452586E+01 -0.7692102377905E+00  0.2569174308998E+00
-0.7907821271796E-01 -0.3871561843186E+01 -0.7901280229547E+00  0.2994718520759E+00
-0.9020537275063E-01 -0.3969087458771E+01 -0.8118585784019E+00  0.3470020725119E+00
-0.1018353254094E+00 -0.4071325640815E+01 -0.8346322056819E+00  0.3993656138732E+00
-0.1148565039461E+00 -0.4178718628195E+01 -0.8587150392241E+00  0.4563109578417E+00
-0.1299595431228E+00 -0.4291565392666E+01 -0.8843050003349E+00  0.5176187458500E+00
-0.1476142491128E+00 -0.4409751977213E+01 -0.9114732588472E+00  0.5830664853528E+00
-0.1679828994104E+00 -0.4532674528073E+01 -0.9401314995058E+00  0.6523608792985E+00
-0.1909362380725E+00 -0.4659305967485E+01 -0.9700484555664E+00  0.7252273066411E+00
-0.2164613096784E+00 -0.4788079075011E+01 -0.1000908091853E+01  0.8015660569184E+00
-0.2451085214403E+00 -0.4916560059713E+01 -0.1032333731614E+01  0.8812801694931E+00
-0.2778485606475E+00 -0.5041282494699E+01 -0.1063826226922E+01  0.9638644928412E+00
-0.3155410413271E+00 -0.5157494662681E+01 -0.1094607157112E+01  0.1048167649840E+01
-0.3584163860408E+00 -0.5258597032156E+01 -0.1123402700379E+01  0.1132122197593E+01
-0.4052965610870E+00 -0.5335615096074E+01 -0.1148182348541E+01  0.1212151994205E+01
-0.4522805099561E+00 -0.5376946640504E+01 -0.1165845447464E+01  0.1282598336403E+01
-0.4918999151807E+00 -0.5367545242462E+01 -0.1171889048991E+01  0.1335646222041E+01
-0.5139110377511E+00 -0.5283901529212E+01 -0.1159562530671E+01  0.1359528034148E+01
-0.5034725823581E+00 -0.5078461976647E+01 -0.1116386928437E+01  0.1326725245011E+01
-0.4103238178640E+00 -0.4653954681399E+01 -0.1012855714945E+01  0.1150578025336E+01
 0.5372450039800E-01 -0.3894426114897E+01 -0.7681403343460E+00  0.5781265806255E+00
 0.2009846236351E+01 -0.3026809136489E+01 -0.2033925830585E+00 -0.6910040972991E+00
 0.7171776127888E+01 -0.2780856538964E+01  0.8781839308707E+00 -0.1636579593796E+01
-0.7105022920207E+00 -0.3451985869877E+01 -0.8324976447847E+00 -0.5464570144047E+00
-0.4369498549975E+00 -0.3508117179930E+01 -0.7890134187428E+00 -0.4693083580522E+00
-0.2307590004180E+00 -0.3489764258568E+01 -0.7441046628853E+00 -0.3287252580234E+00
-0.1236676337840E+00 -0.3426420834753E+01 -0.7100177042875E+00 -0.2060759786663E+00
-0.7378528954688E-01 -0.3363868350228E+01 -0.6875307382000E+00 -0.1227375167313E+00
-0.4855581329574E-01 -0.3318511801179E+01 -0.6734135329296E+00 -0.6703560760953E-01
-0.3458206288923E-01 -0.3290380002919E+01 -0.6649924230708E+00 -0.2752656610231E-01
-0.2659741662713E-01 -0.3276855261893E+01 -0.6606905455490E+00  0.2281687895096E-02
-0.2210794982543E-01 -0.3275631059937E+01 -0.6595478117806E+00  0.2627443417972E-01
-0.1986619733124E-01 -0.3284985393016E+01 -0.6609703279186E+00  0.4696839735538E-01
-0.1925468631787E-01 -0.3303792414543E+01 -0.6646094300757E+00  0.6611121703924E-01
-0.2001394239415E-01 -0.3331419222061E+01 -0.6702866428791E+00  0.8505075874236E-01
-0.2216539402185E-01 -0.3367598501860E+01 -0.6779527892787E+00  0.1049612959004E+00
-0.2605558349377E-01 -0.3412236764090E+01 -0.6876584797637E+00  0.1269701316329E+00
-0.3239702381016E-01 -0.3465107014575E+01 -0.6995008181004E+00  0.1520861911048E+00
-0.4192634066440E-01 -0.3525589195488E+01 -0.7135031178625E+00  0.1808714381191E+00
-0.5453914763117E-01 -0.3592781259547E+01 -0.7294640923054E+00  0.2132581271199E+00
-0.6887564100373E-01 -0.3665873682934E+01 -0.7469498759179E+00  0.2490325700475E+00
-0.8326164144631E-01 -0.3744216697976E+01 -0.7654956792913E+00  0.2884935392559E+00
-0.9693883236733E-01 -0.3827178364753E+01 -0.7848234511189E+00  0.3322948189317E+00
-0.1102328495668E+00 -0.3914262471076E+01 -0.8048990761226E+00  0.3808433830410E+00
-0.1239793904894E+00 -0.4005252728374E+01 -0.8258464360787E+00  0.4341291176368E+00
-0.1390323989629E+00 -0.4100097053870E+01 -0.8478259032001E+00  0.4918893976980E+00
-0.1560677526585E+00 -0.4198643055858E+01 -0.8709421746813E+00  0.5537520346349E+00
-0.1755156147787E+00 -0.4300420220699E+01 -0.8951871804348E+00  0.6192564112786E+00
-0.1975003345097E+00 -0.4404553074390E+01 -0.9204106954951E+00  0.6878483131729E+00
-0.2218960218840E+00 -0.4509749227345E+01 -0.9463290639473E+00  0.7589637936029E+00
-0.2486560093297E+00 -0.4614087702306E+01 -0.9725487568192E+00  0.8321077663020E+00
-0.2781305407108E+00 -0.4714633352469E+01 -0.9985527935156E+00  0.9066484651052E+00
-0.3109140755847E+00 -0.4807256406760E+01 -0.1023634111722E+01  0.9813894401840E+00
-0.3473244396984E+00 -0.4886453854780E+01 -0.1046755674494E+01  0.1054232007556E+01
-0.3867654447580E+00 -0.4944930407875E+01 -0.1066339186416E+01  0.1121824299402E+01
-0.4268182740039E+00 -0.4973181736635E+01 -0.1080000018221E+01  0.1179002039841E+01
-0.4619593041334E+00 -0.4959117585736E+01 -0.1084215394130E+01  0.1218189277130E+01
-0.4823605202545E+00 -0.4886821899199E+01 -0.1073836499892E+01  0.1228618599458E+01
-0.4725054566207E+00 -0.4731901774414E+01 -0.1040881461717E+01  0.1192894689506E+01
-0.4021039476073E+00 -0.4449622967315E+01 -0.9703453974438E+00  0.1072468539685E+01
-0.1757713048856E+00 -0.3972087068894E+01 -0.8295716871174E+00  0.7693557359726E+00
 0.5448606402038E+00 -0.3288469962953E+01 -0.5487218727265E+00  0.9369381619950E-01
 0.2629610038553E+01 -0.2683526264430E+01 -0.1078324533603E-01 -0.1007116527827E+01
 0.6958015850488E+01 -0.2592994579487E+01  0.8730042672089E+00 -0.1584483820157E+01
-0.7168629831354E+00 -0.3392357214621E+01 -0.8218440517976E+00 -0.5135895621202E+00
-0.4766182855047E+00 -0.3454268247418E+01 -0.7861773182996E+00 -0.4570084753629E+00
-0.2798969457011E+00 -0.3461314996972E+01 -0.7482423996843E+00 -0.3421023896915E+00
-0.1621730312717E+00 -0.3424481625925E+01 -0.7173309421283E+00 -0.2281390791905E+00
-0.1001843385222E+00 -0.3377062160353E+01 -0.6954493101380E+00 -0.1416457206550E+00
-0.6703521043140E-01 -0.3337996500084E+01 -0.6810063522508E+00 -0.8008980092102E-01
-0.4826248356844E-01 -0.3311821545350E+01 -0.6720168157976E+00 -0.3511136280521E-01
-0.3732720790918E-01 -0.3298078428963E+01 -0.6670811373147E+00 -0.5680321738615E-03
-0.3107611346930E-01 -0.3295429974039E+01 -0.6653012274154E+00  0.2751367021343E-01
-0.2788299196103E-01 -0.3302626890539E+01 -0.6661019864258E+00  0.5181806878204E-01
-0.2691546856939E-01 -0.3318734144579E+01 -0.6691299326004E+00  0.7426453036783E-01
-0.2780462677329E-01 -0.3343143987648E+01 -0.6741897329304E+00  0.9633949550859E-01
-0.3052519181505E-01 -0.3375489884543E+01 -0.6812030254224E+00  0.1193043276284E+00
-0.3538638543925E-01 -0.3415479180327E+01 -0.6901731234377E+00  0.1442834308262E+00
-0.4298230821622E-01 -0.3462666813243E+01 -0.7011298347395E+00  0.1721733796725E+00
-0.5383658013235E-01 -0.3516333412907E+01 -0.7140340092479E+00  0.2034074065007E+00
-0.6773020396989E-01 -0.3575662143339E+01 -0.7286784803198E+00  0.2379019544515E+00
-0.8343829278354E-01 -0.3640049746534E+01 -0.7446976189603E+00  0.2754832737652E+00
-0.9947726773876E-01 -0.3709071318680E+01 -0.7617097286340E+00  0.3164199070673E+00
-0.1150827064527E+00 -0.3782227761913E+01 -0.7794621052879E+00  0.3613316400150E+00
-0.1304186034958E+00 -0.3858955875116E+01 -0.7978749076116E+00  0.4106765683790E+00
-0.1461688783897E+00 -0.3938770270329E+01 -0.8169878419177E+00  0.4645107317357E+00
-0.1631001940490E+00 -0.4021252435330E+01 -0.8368705383462E+00  0.5225552555607E+00
-0.1818302851314E+00 -0.4105891313286E+01 -0.8575443324620E+00  0.5843147412347E+00
-0.2027280899772E+00 -0.4191917271177E+01 -0.8789290853280E+00  0.6491298776798E+00
-0.2258660353188E+00 -0.4278206475654E+01 -0.9008145156177E+00  0.7162073154142E+00
-0.2510849582193E+00 -0.4363215930350E+01 -0.9228601914655E+00  0.7846851436182E+00
-0.2782468240499E+00 -0.4444730198919E+01 -0.9445954186694E+00  0.8536515016291E+00
-0.3074428445950E+00 -0.4519466142846E+01 -0.9653818118734E+00  0.9219203467841E+00
-0.3388139413150E+00 -0.4582895150263E+01 -0.9843418329834E+00  0.9876058207035E+00
-0.3720243967485E+00 -0.4629120818807E+01 -0.1000229058016E+01  0.1047728942877E+01
-0.4055378149552E+00 -0.4650589684436E+01 -0.1011225514947E+01  0.1097812663937E+01
-0.4356035759117E+00 -0.4637792681965E+01 -0.1014679266695E+01  0.1131331196217E+01
-0.4548632857459E+00 -0.4578902121018E+01 -0.1006753096354E+01  0.1139015782855E+01
-0.4505667305337E+00 -0.4458683369716E+01 -0.9818500346807E+00  0.1107578227442E+01
-0.4009262365830E+00 -0.4255200424881E+01 -0.9312253461692E+00  0.1015451241361E+01
-0.2600054860338E+00 -0.3934108473324E+01 -0.8388228043710E+00  0.8190981523160E+00
 0.9639501135494E-01 -0.3462987267537E+01 -0.6733184612696E+00  0.4298906219675E+00
 0.9977824032748E+00 -0.2894336585813E+01 -0.3793108421599E+00 -0.2666377861307E+00
 0.3077088348129E+01 -0.2488498513430E+01  0.1177179686938E+00 -0.1180923025893E+01
 0.6747158429348E+01 -0.2481635705141E+01  0.8531045575537E+00 -0.1521091666527E+01
-0.7212758575023E+00 -0.3347333765635E+01 -0.8137219367528E+00 -0.4832192361600E+00
-0.5075116637042E+00 -0.3410542668368E+01 -0.7836108780912E+00 -0.4402303758763E+00
-0.3222656521725E+00 -0.3433168328211E+01 -0.7510868072688E+00 -0.3458809944966E+00
-0.1994174454153E+00 -0.3416581979422E+01 -0.7231998957439E+00 -0.2426352620883E+00
-0.1280111332306E+00 -0.3383550731870E+01 -0.7023123834854E+00 -0.1567143400678E+00
-0.8740654513047E-01 -0.3351894842871E+01 -0.6878602878501E+00 -0.9158281434929E-01
-0.6370128064646E-01 -0.3328749548805E+01 -0.6784901760006E+00 -0.4228358835257E-01
-0.4961448613105E-01 -0.3315593679896E+01 -0.6730416432344E+00 -0.3641873581209E-02
-0.4142177723913E-01 -0.3312088537630E+01 -0.6707020729680E+00  0.2814774966943E-01
-0.3714485503198E-01 -0.3317496094170E+01 -0.6709281998381E+00  0.5580473087018E-01
-0.3573683644589E-01 -0.3331117275043E+01 -0.6733708323319E+00  0.8134023330904E-01
-0.3670661588264E-01 -0.3352407479718E+01 -0.6778228292204E+00  0.1063275491340E+00
-0.3995814190087E-01 -0.3380944402231E+01 -0.6841805190214E+00  0.1320743697979E+00
-0.4572768198529E-01 -0.3416305912472E+01 -0.6924067292092E+00  0.1596808021762E+00
-0.5447131151036E-01 -0.3457923076038E+01 -0.7024788879774E+00  0.1899538551651E+00
-0.6652518277474E-01 -0.3505044826366E+01 -0.7143140124722E+00  0.2232548691976E+00
-0.8158597253366E-01 -0.3556925852273E+01 -0.7277023758049E+00  0.2595232433795E+00
-0.9854467287013E-01 -0.3613077576615E+01 -0.7423244609585E+00  0.2986358906225E+00
-0.1160818748311E+00 -0.3673186156414E+01 -0.7578536175420E+00  0.3408301101427E+00
-0.1334446712127E+00 -0.3736821896797E+01 -0.7740533251363E+00  0.3866553722773E+00
-0.1506609945547E+00 -0.3803382588751E+01 -0.7908087284451E+00  0.4365511649443E+00
-0.1682536668385E+00 -0.3872206162097E+01 -0.8080919778287E+00  0.4905851676079E+00
-0.1868671602602E+00 -0.3942610090378E+01 -0.8258954624344E+00  0.5484483393964E+00
-0.2070263289906E+00 -0.4013807210497E+01 -0.8441667204765E+00  0.6095390677301E+00
-0.2290158824154E+00 -0.4084784647595E+01 -0.8627601188582E+00  0.6730259439031E+00
-0.2528339193768E+00 -0.4154206534659E+01 -0.8814081039411E+00  0.7378918841986E+00
-0.2782471772618E+00 -0.4220320178700E+01 -0.8997134845992E+00  0.8029781421805E+00
-0.3049723590256E+00 -0.4280692870894E+01 -0.9171330596502E+00  0.8669592536378E+00
-0.3327911475653E+00 -0.4331834362632E+01 -0.9329251159411E+00  0.9281092429960E+00
-0.3613341240453E+00 -0.4369039447842E+01 -0.9460747284750E+00  0.9838895318732E+00
-0.3895382710716E+00 -0.4386321207360E+01 -0.9551719099194E+00  0.1030534448211E+01
-0.4148573481273E+00 -0.4376241502687E+01 -0.9582197844414E+00  0.1062620937356E+01
-0.4321485042829E+00 -0.4329750250983E+01 -0.9523797652448E+00  0.1072523231455E+01
-0.4320952537302E+00 -0.4235982868450E+01 -0.9336156383479E+00  0.1049659799584E+01
-0.3987885055941E+00 -0.4081667133979E+01 -0.8960911412674E+00  0.9790140750909E+00
-0.3042026022217E+00 -0.3849691928446E+01 -0.8307789185131E+00  0.8370132747436E+00
-0.9019492205639E-01 -0.3519130609666E+01 -0.7218651171011E+00  0.5813677437715E+00
 0.3791450002751E+00 -0.3087217045853E+01 -0.5416144171862E+00  0.1434696180769E+00
 0.1395034184412E+01 -0.2635065427444E+01 -0.2480062523020E+00 -0.5264550963664E+00
 0.3399199344193E+01 -0.2371946746285E+01  0.2054505226432E+00 -0.1270587325859E+01
 0.6549341672371E+01 -0.2410243318990E+01  0.8278196830117E+00 -0.1459196624443E+01
-0.7245209396745E+00 -0.3312489168142E+01 -0.8074020335944E+00 -0.4550699552148E+00
-0.5320676207923E+00 -0.3374874389507E+01 -0.7813884137035E+00 -0.4213399181252E+00
-0.3586191637833E+00 -0.3406937507178E+01 -0.7531113454144E+00 -0.3431694062405E+00
-0.2344044951629E+00 -0.3405346629620E+01 -0.7279502358039E+00 -0.2508234994293E+00
-0.1562103089226E+00 -0.3384961452895E+01 -0.7082343629169E+00 -0.1678612726849E+00
-0.1090660904261E+00 -0.3360979885033E+01 -0.6940092054334E+00 -0.1011576178330E+00
-0.8057093214679E-01 -0.3341559466937E+01 -0.6844260900154E+00 -0.4873729849626E-01
-0.6326303570071E-01 -0.3329617436019E+01 -0.6785761044556E+00 -0.6707290328089E-02
-0.5301800853532E-01 -0.3325736939158E+01 -0.6757509996081E+00  0.2833929752457E-01
-0.4755664032050E-01 -0.3329691648937E+01 -0.6754496679165E+00  0.5903230537777E-01
-0.4563168537298E-01 -0.3341041217431E+01 -0.6773345906539E+00  0.8739677283672E-01
-0.4662427583761E-01 -0.3359334970180E+01 -0.6811918593541E+00  0.1150412936841E+00
-0.5034910874166E-01 -0.3384135769001E+01 -0.6868969857841E+00  0.1432852634228E+00
-0.5694600233873E-01 -0.3414950691997E+01 -0.6943793492142E+00  0.1731927613291E+00
-0.6672725469129E-01 -0.3451151691234E+01 -0.7035757996692E+00  0.2055023185731E+00
-0.7986669729920E-01 -0.3491992082138E+01 -0.7143717665324E+00  0.2405389646327E+00
-0.9599667354655E-01 -0.3536783432856E+01 -0.7265560321070E+00  0.2782798956289E+00
-0.1141022115702E+00 -0.3585098519107E+01 -0.7398401571599E+00  0.3186505556913E+00
-0.1329977669259E+00 -0.3636670439356E+01 -0.7539336524908E+00  0.3618574812619E+00
-0.1519464142693E+00 -0.3691098308469E+01 -0.7686089560009E+00  0.4083651813621E+00
-0.1708601366010E+00 -0.3747753482344E+01 -0.7837227354674E+00  0.4585536279179E+00
-0.1901009601866E+00 -0.3805858953602E+01 -0.7991919946665E+00  0.5124617365059E+00
-0.2101695935882E+00 -0.3864547860212E+01 -0.8149435029036E+00  0.5697344525162E+00
-0.2314710740777E+00 -0.3922828556051E+01 -0.8308599384064E+00  0.6296723362960E+00
-0.2541828516297E+00 -0.3979499686280E+01 -0.8467365201993E+00  0.6912899193787E+00
-0.2782025307713E+00 -0.4033058421296E+01 -0.8622522032620E+00  0.7533600729700E+00
-0.3031826999478E+00 -0.4081596647173E+01 -0.8769558824917E+00  0.8144374710576E+00
-0.3286474659554E+00 -0.4122547601863E+01 -0.8902390268293E+00  0.8728031915602E+00
-0.3540280128047E+00 -0.4152342275609E+01 -0.9012740711127E+00  0.9262286108429E+00
-0.3784064814819E+00 -0.4166286235868E+01 -0.9089385570141E+00  0.9715852366518E+00
-0.3999522975979E+00 -0.4158552110319E+01 -0.9117008951688E+00  0.1004435575882E+01
-0.4150810203135E+00 -0.4122124846257E+01 -0.9074411868360E+00  0.1018605338332E+01
-0.4172497048157E+00 -0.4048799416541E+01 -0.8932098375812E+00  0.1005664565640E+01
-0.3951885881095E+00 -0.3929233474140E+01 -0.8648844253377E+00  0.9541992811815E+00
-0.3299487600654E+00 -0.3753001571093E+01 -0.8165900783999E+00  0.8484352114362E+00
-0.1882728680768E+00 -0.3508969383836E+01 -0.7394484614012E+00  0.6650466617051E+00
 0.9532859720412E-01 -0.3189134156121E+01 -0.6187611210037E+00  0.3674810912641E+00
 0.6554221368038E+00 -0.2811065408301E+01 -0.4311286607238E+00 -0.9002838120408E-01
 0.1734676891783E+01 -0.2462301876457E+01 -0.1455249991032E+00 -0.7096389531352E+00
 0.3631349412305E+01 -0.2299553251543E+01  0.2663592361214E+00 -0.1310152672634E+01
 0.6367398468822E+01 -0.2362415586568E+01  0.8009965883867E+00 -0.1401695969955E+01
-0.7270481414458E+00 -0.3284967920673E+01 -0.8024032243805E+00 -0.4288557533356E+00
-0.5519803736533E+00 -0.3345547025212E+01 -0.7795054913886E+00 -0.4016173095669E+00
-0.3898464325475E+00 -0.3383178553205E+01 -0.7546050083950E+00 -0.3361325220447E+00
-0.2667157482010E+00 -0.3392478830968E+01 -0.7318389267390E+00 -0.2539906421129E+00
-0.1840164077327E+00 -0.3382694896239E+01 -0.7133422714240E+00 -0.1753448740433E+00
-0.1314510035056E+00 -0.3366059955969E+01 -0.6995022023184E+00 -0.1086598697895E+00
-0.9852732095790E-01 -0.3350698365136E+01 -0.6898451474982E+00 -0.5425851643641E-01
-0.7805576356691E-01 -0.3340412980898E+01 -0.6836937590807E+00 -0.9579193635333E-02
-0.6571718960987E-01 -0.3336544669185E+01 -0.6804523818985E+00  0.2822914075262E-01
-0.5900593808885E-01 -0.3339342580725E+01 -0.6796697138906E+00  0.6159837174704E-01
-0.5649997563669E-01 -0.3348628431800E+01 -0.6810256916354E+00  0.9249646155910E-01
-0.5745466761861E-01 -0.3364066721806E+01 -0.6843042880818E+00  0.1225195311027E+00
-0.6158418384890E-01 -0.3385239987375E+01 -0.6893648445171E+00  0.1529695035795E+00
-0.6891870784386E-01 -0.3411630558113E+01 -0.6961098635643E+00  0.1848673146618E+00
-0.7962913217331E-01 -0.3442595021035E+01 -0.7044448411386E+00  0.2188989722105E+00
-0.9374896620091E-01 -0.3477410505639E+01 -0.7142319050109E+00  0.2553735966549E+00
-0.1108585383303E+00 -0.3515433777078E+01 -0.7252584738888E+00  0.2943084388466E+00
-0.1300153732722E+00 -0.3556268477847E+01 -0.7372567812099E+00  0.3356699845133E+00
-0.1501381755645E+00 -0.3599659565488E+01 -0.7499595593858E+00  0.3796344734934E+00
-0.1705027036902E+00 -0.3645211076795E+01 -0.7631427674687E+00  0.4265776333353E+00
-0.1909190966087E+00 -0.3692274946163E+01 -0.7766388201272E+00  0.4767976123017E+00
-0.2115930471851E+00 -0.3740001696310E+01 -0.7903189604758E+00  0.5302769138152E+00
-0.2328690538789E+00 -0.3787401638880E+01 -0.8040541505332E+00  0.5866003961297E+00
-0.2550119571962E+00 -0.3833339909957E+01 -0.8176703856150E+00  0.6449744033452E+00
-0.2780703083895E+00 -0.3876479417319E+01 -0.8309099575232E+00  0.7042724509191E+00
-0.3018146793073E+00 -0.3915199858846E+01 -0.8434029201984E+00  0.7630715386396E+00
-0.3257470724448E+00 -0.3947497378455E+01 -0.8546489029151E+00  0.8196576128283E+00
-0.3491596718892E+00 -0.3970753442126E+01 -0.8639826356773E+00  0.8719503805439E+00
-0.3711027021859E+00 -0.3981434758898E+01 -0.8705075051883E+00  0.9172714035726E+00
-0.3900893799055E+00 -0.3975013571288E+01 -0.8730206032477E+00  0.9519831268548E+00
-0.4035108606443E+00 -0.3946022505882E+01 -0.8699066862678E+00  0.9711056422984E+00
-0.4067564630903E+00 -0.3888111048069E+01 -0.8589735150315E+00  0.9679181537482E+00
-0.3919373327686E+00 -0.3794211221026E+01 -0.8372297232346E+00  0.9335009607943E+00
-0.3459695913308E+00 -0.3656880048119E+01 -0.8005699398193E+00  0.8561259176196E+00
-0.2473020668694E+00 -0.3468987252541E+01 -0.7432578749574E+00  0.7202356831410E+00
-0.5902952113101E-01 -0.3225446378095E+01 -0.6568951896337E+00  0.5046038883957E+00
 0.2869785641293E+00 -0.2928815365567E+01 -0.5283673681607E+00  0.1807988266943E+00
 0.9156602227296E+00 -0.2608354519444E+01 -0.3385388643875E+00 -0.2758147027945E+00
 0.2021367081787E+01 -0.2346021489318E+01 -0.6493088247373E-01 -0.8358715311057E+00
 0.3798971887319E+01 -0.2253691217643E+01  0.3090561385406E+00 -0.1319410626727E+01
 0.6201220980508E+01 -0.2330027960793E+01  0.7742386154802E+00 -0.1348476239052E+01
-0.7291206658372E+00 -0.3262849714992E+01 -0.7983940880628E+00 -0.4043242320573E+00
-0.5684367300915E+00 -0.3321205411646E+01 -0.7779284399395E+00 -0.3817636812820E+00
-0.4167901219378E+00 -0.3361946322601E+01 -0.7557473001692E+00 -0.3262572122295E+00
-0.2962711905161E+00 -0.3379033640641E+01 -0.7350609771846E+00 -0.2532750896415E+00
-0.2109213024114E+00 -0.3377862293917E+01 -0.7177567299611E+00 -0.1795924285195E+00
-0.1540832935314E+00 -0.3367901297221E+01 -0.7043969286468E+00 -0.1140982156333E+00
-0.1172350784660E+00 -0.3356635655692E+01 -0.6947741571846E+00 -0.5872398989888E-01
-0.9376609484791E-01 -0.3348274530047E+01 -0.6884081352370E+00 -0.1212057317231E-01
-0.7935837227836E-01 -0.3344710878440E+01 -0.6848138603481E+00  0.2793388280838E-01
-0.7136769384174E-01 -0.3346602538928E+01 -0.6835940567403E+00  0.6359154529879E-01
-0.6823209598766E-01 -0.3354019911743E+01 -0.6844504117453E+00  0.9670293190555E-01
-0.6909017116529E-01 -0.3366753875932E+01 -0.6871688196591E+00  0.1288099502332E+00
-0.7355150518874E-01 -0.3384432813209E+01 -0.6915968739852E+00  0.1611726890745E+00
-0.8153163057506E-01 -0.3406548448984E+01 -0.6976160263070E+00  0.1947636403256E+00
-0.9306694562965E-01 -0.3432471087314E+01 -0.7051076170957E+00  0.2302266888608E+00
-0.1080689180645E+00 -0.3461512273017E+01 -0.7139162488545E+00  0.2678651539248E+00
-0.1260728539802E+00 -0.3493065927536E+01 -0.7238277670891E+00  0.3077321980179E+00
-0.1461889047807E+00 -0.3526750022121E+01 -0.7345877963265E+00  0.3498260761751E+00
-0.1674129959188E+00 -0.3562303589495E+01 -0.7459433281983E+00  0.3942928865209E+00
-0.1890260647450E+00 -0.3599323308455E+01 -0.7576698859302E+00  0.4414210916501E+00
-0.2107453591996E+00 -0.3637147411399E+01 -0.7695785655874E+00  0.4914164982179E+00
-0.2326259205159E+00 -0.3674884494484E+01 -0.7815020946453E+00  0.5441878581606E+00
-0.2548494823479E+00 -0.3711469826386E+01 -0.7932638735673E+00  0.5992493167469E+00
-0.2775256128329E+00 -0.3745677395241E+01 -0.8046406136048E+00  0.6557147682407E+00
-0.3005547479155E+00 -0.3776083985776E+01 -0.8153277588877E+00  0.7123274034586E+00
-0.3235558029794E+00 -0.3801002193542E+01 -0.8249116115965E+00  0.7674839708688E+00
-0.3458489751694E+00 -0.3818392378113E+01 -0.8328482830668E+00  0.8192254673842E+00
-0.3664638641189E+00 -0.3825661291599E+01 -0.8384250436371E+00  0.8651505588156E+00
-0.3840502430495E+00 -0.3819410687072E+01 -0.8406921985516E+00  0.9021938713293E+00
-0.3965484366585E+00 -0.3795405919378E+01 -0.8383908837004E+00  0.9263007105828E+00
-0.4005868030455E+00 -0.3748693730527E+01 -0.8298561190802E+00  0.9320858229802E+00
-0.3905782935195E+00 -0.3673763935896E+01 -0.8128684579957E+00  0.9124884982779E+00
-0.3574030054618E+00 -0.3564876952609E+01 -0.7844560033036E+00  0.8584118685406E+00
-0.2864199676941E+00 -0.3416677955922E+01 -0.7406195957593E+00  0.7583126227189E+00
-0.1541312656610E+00 -0.3225385614617E+01 -0.6759033861274E+00  0.5976904314653E+00
 0.7826812634424E-01 -0.2991296856450E+01 -0.5826057547026E+00  0.3586604139132E+00
 0.4777540829316E+00 -0.2724587434895E+01 -0.4493666770888E+00  0.2158342143934E-01
 0.1155277894762E+01 -0.2459636806158E+01 -0.2608717861664E+00 -0.4207440898789E+00
 0.2261972415213E+01 -0.2267471019808E+01 -0.1099720935274E-02 -0.9201507941707E+00
 0.3920035352407E+01 -0.2224838612620E+01  0.3390393530094E+00 -0.1309956647714E+01
 0.6049680262655E+01 -0.2308601786600E+01  0.7482157063604E+00 -0.1298708131634E+01
-0.7308947867406E+00 -0.3244799427176E+01 -0.7951388546318E+00 -0.3812636989584E+00
-0.5822770730783E+00 -0.3300798264678E+01 -0.7766150791237E+00 -0.3621632076419E+00
-0.4401836027643E+00 -0.3343073322047E+01 -0.7566513962373E+00 -0.3145608691649E+00
-0.3231744907150E+00 -0.3365637429454E+01 -0.7377623950273E+00 -0.2496190349426E+00
-0.2366173439466E+00 -0.3371303876299E+01 -0.7215842548015E+00 -0.1810877086254E+00
-0.1765832023606E+00 -0.3367183624465E+01 -0.7087533759263E+00 -0.1175932489076E+00
-0.1363867462553E+00 -0.3359834993577E+01 -0.6992443583860E+00 -0.6209011303221E-01
-0.1101688531137E+00 -0.3353512429523E+01 -0.6927362668499E+00 -0.1424065448747E-01
-0.9377400317610E-01 -0.3350455083654E+01 -0.6888458276306E+00  0.2754528106757E-01
-0.8450874209918E-01 -0.3351643815644E+01 -0.6872305217893E+00  0.6508974359374E-01
-0.8071203591069E-01 -0.3357370810178E+01 -0.6876165794641E+00  0.1000788702664E+00
-0.8142056610157E-01 -0.3367555078797E+01 -0.6897951392585E+00  0.1339659137205E+00
-0.8614162322286E-01 -0.3381888372868E+01 -0.6936060095537E+00  0.1679491440781E+00
-0.9467724306412E-01 -0.3399895655692E+01 -0.6989145901658E+00  0.2029478755764E+00
-0.1069386357446E+00 -0.3420979817069E+01 -0.7055837010767E+00  0.2395695199658E+00
-0.1227301152498E+00 -0.3444492664298E+01 -0.7134445665407E+00  0.2781150160520E+00
-0.1415454703034E+00 -0.3469860417394E+01 -0.7222811883024E+00  0.3186663147747E+00
-0.1625298094673E+00 -0.3496707442855E+01 -0.7318474613699E+00  0.3612440877583E+00
-0.1847324791102E+00 -0.3524759465436E+01 -0.7418983999643E+00  0.4059642170122E+00
-0.2074301443234E+00 -0.3553601327464E+01 -0.7522063055663E+00  0.4530319745173E+00
-0.2302521713985E+00 -0.3582563610601E+01 -0.7625631677630E+00  0.5025576990252E+00
-0.2531084266230E+00 -0.3610736156802E+01 -0.7727689282001E+00  0.5543669318777E+00
-0.2760149762637E+00 -0.3637016863929E+01 -0.7826063797003E+00  0.6078964224799E+00
-0.2989152665443E+00 -0.3660132728735E+01 -0.7918096108547E+00  0.6621694803158E+00
-0.3215454340528E+00 -0.3678620017416E+01 -0.8000331022152E+00  0.7158090908563E+00
-0.3433514456431E+00 -0.3690772845671E+01 -0.8068248702854E+00  0.7670491324633E+00
-0.3634465188172E+00 -0.3694572691501E+01 -0.8116038541575E+00  0.8137137921650E+00
-0.3805758019240E+00 -0.3687520791421E+01 -0.8136193307929E+00  0.8531263567442E+00
-0.3929799947114E+00 -0.3666437329244E+01 -0.8118834768890E+00  0.8819031114191E+00
-0.3980377393568E+00 -0.3627479428723E+01 -0.8051034456129E+00  0.8956693696583E+00
-0.3916529062262E+00 -0.3566319120530E+01 -0.7915944171468E+00  0.8887726680530E+00
-0.3673452579616E+00 -0.3478399718289E+01 -0.7691490067113E+00  0.8540117554159E+00
-0.3149302763874E+00 -0.3359404144984E+01 -0.7348668952246E+00  0.7824035597330E+00
-0.2185519147248E+00 -0.3206084540745E+01 -0.6849273013002E+00  0.6630242752323E+00
-0.5352001557862E-01 -0.3017762793626E+01 -0.6142565709940E+00  0.4830580362689E+00
 0.2192506040322E+00 -0.2799077668347E+01 -0.5159654205514E+00  0.2285977377390E+00
 0.6628949722361E+00 -0.2565046787461E+01 -0.3804303687139E+00 -0.1116603178022E+00
 0.1372773561062E+01 -0.2350745216517E+01 -0.1955943340057E+00 -0.5316460186971E+00
 0.2463563075727E+01 -0.2214755614452E+01  0.4976149299656E-01 -0.9735218663336E+00
 0.4007222384877E+01 -0.2207552109274E+01  0.3599340604840E+00 -0.1288695809396E+01
 0.5911400219027E+01 -0.2295399059890E+01  0.7232002426041E+00 -0.1251548715145E+01
-0.7324645616298E+00 -0.3229863305257E+01 -0.7924655851859E+00 -0.3594994677332E+00
-0.5941037553436E+00 -0.3283513625867E+01 -0.7755234877983E+00 -0.3430228907698E+00
-0.4606393887305E+00 -0.3326308201786E+01 -0.7573895293894E+00 -0.3017402332444E+00
-0.3476184303619E+00 -0.3352642852809E+01 -0.7400522676618E+00 -0.2437752511290E+00
-0.2609416717532E+00 -0.3363635700487E+01 -0.7249154852501E+00 -0.1803064035978E+00
-0.1986646009158E+00 -0.3364483778487E+01 -0.7126296864996E+00 -0.1193318383279E+00
-0.1557136379375E+00 -0.3360733169795E+01 -0.7032893720264E+00 -0.6437624826651E-01
-0.1270492755646E+00 -0.3356439838223E+01 -0.6966978331391E+00 -0.1589032466720E-01
-0.1087959216375E+00 -0.3354008619587E+01 -0.6925609185649E+00  0.2713101407531E-01
-0.9829197334503E-01 -0.3354651558238E+01 -0.6905887166071E+00  0.6615930482187E-01
-0.9382027067593E-01 -0.3358846330880E+01 -0.6905333306010E+00  0.1026841912707E+00
-0.9433473116801E-01 -0.3366633698398E+01 -0.6921936962277E+00  0.1380437570671E+00
-0.9924771089005E-01 -0.3377778344330E+01 -0.6954052214063E+00  0.1733585738818E+00
-0.1082533583250E+00 -0.3391853807482E+01 -0.7000214435925E+00  0.2094902664153E+00
-0.1211481419763E+00 -0.3408307261159E+01 -0.7058910911456E+00  0.2470118558655E+00
-0.1376413339657E+00 -0.3426533975052E+01 -0.7128350724256E+00  0.2862211978143E+00
-0.1571865696642E+00 -0.3445990029857E+01 -0.7206353306425E+00  0.3272208392362E+00
-0.1789485738009E+00 -0.3466303542627E+01 -0.7290504341494E+00  0.3700452237823E+00
-0.2020096030737E+00 -0.3487185778394E+01 -0.7378390872882E+00  0.4147798803026E+00
-0.2256320482723E+00 -0.3508210343634E+01 -0.7467684895089E+00  0.4615521276129E+00
-0.2493596115015E+00 -0.3528706975450E+01 -0.7556133286499E+00  0.5103783091157E+00
-0.2729616951077E+00 -0.3547765295149E+01 -0.7641454094379E+00  0.5609971375417E+00
-0.2962880100178E+00 -0.3564276076500E+01 -0.7721128288089E+00  0.6127650981315E+00
-0.3191084050844E+00 -0.3576956740618E+01 -0.7792130407517E+00  0.6646179994681E+00
-0.3409818382565E+00 -0.3584344067904E+01 -0.7850651929305E+00  0.7150692419373E+00
-0.3611641372377E+00 -0.3584758757431E+01 -0.7891845906934E+00  0.7622089282252E+00
-0.3785427093125E+00 -0.3576255128193E+01 -0.7909595792874E+00  0.8036755388312E+00
-0.3915649219673E+00 -0.3556488714738E+01 -0.7896107391072E+00  0.8365656027140E+00
-0.3980640711009E+00 -0.3522565398160E+01 -0.7841259055365E+00  0.8572478829140E+00
-0.3948818313902E+00 -0.3471106769849E+01 -0.7731977317694E+00  0.8611252339169E+00
-0.3772550436176E+00 -0.3398482206404E+01 -0.7551474612568E+00  0.8424112344971E+00
-0.3379202966897E+00 -0.3301144691308E+01 -0.7278130084447E+00  0.7939477729548E+00
-0.2658323888626E+00 -0.3176207683225E+01 -0.6884080246757E+00  0.7071190610693E+00
-0.1443075622718E+00 -0.3022413491098E+01 -0.6333442201115E+00  0.5719630426118E+00
 0.5178546195292E-01 -0.2841753155224E+01 -0.5579935469689E+00  0.3777429149183E+00
 0.3604770285896E+00 -0.2642063336273E+01 -0.4563172683363E+00  0.1146741010786E+00
 0.8393936776237E+00 -0.2440923081397E+01 -0.3203058855275E+00 -0.2212841289773E+00
 0.1568429910408E+01 -0.2271422971592E+01 -0.1405986143318E+00 -0.6146274594791E+00
 0.2632589127342E+01 -0.2180171958788E+01  0.9048343505901E-01 -0.1004007508761E+01
 0.4069546343097E+01 -0.2198529630118E+01  0.3742033481718E+00 -0.1259828676696E+01
 0.5785044140244E+01 -0.2288589056787E+01  0.6992910271116E+00 -0.1206313719557E+01
-0.7338872653227E+00 -0.3217344749020E+01 -0.7902464146441E+00 -0.3388876625802E+00
-0.6043539955715E+00 -0.3268723550418E+01 -0.7746155207406E+00 -0.3244490744504E+00
-0.4786582579110E+00 -0.3311383038489E+01 -0.7580082705752E+00 -0.2882736697164E+00
-0.3698295853066E+00 -0.3340232332967E+01 -0.7420123947116E+00 -0.2363332812418E+00
-0.2838303299465E+00 -0.3355300056548E+01 -0.7278260881443E+00 -0.1776835441065E+00
-0.2201220202532E+00 -0.3360277042940E+01 -0.7160798233091E+00 -0.1195323047499E+00
-0.1749896591687E+00 -0.3359727405955E+01 -0.7069434235591E+00 -0.6564693854283E-01
-0.1442093769261E+00 -0.3357361879485E+01 -0.7003142617177E+00 -0.1705554717083E-01
-0.1242603858348E+00 -0.3355607075231E+01 -0.6959735025840E+00  0.2673660561837E-01
-0.1125799933098E+00 -0.3355818449433E+01 -0.6936796988852E+00  0.6685484644920E-01
-0.1074362997341E+00 -0.3358617982968E+01 -0.6932108668701E+00  0.1045747221687E+00
-0.1077220686990E+00 -0.3364155485436E+01 -0.6943755211740E+00  0.1411006567010E+00
-0.1127657568294E+00 -0.3372271379995E+01 -0.6970074377510E+00  0.1774635686753E+00
-0.1221622768653E+00 -0.3382596337278E+01 -0.7009517332737E+00  0.2144632099109E+00
-0.1356042113259E+00 -0.3394628418194E+01 -0.7060465364249E+00  0.2526379058967E+00
-0.1527157625064E+00 -0.3407807983991E+01 -0.7121047599106E+00  0.2922793887944E+00
-0.1729105819970E+00 -0.3421620208979E+01 -0.7189061689077E+00  0.3335026094483E+00
-0.1953599345217E+00 -0.3435697495912E+01 -0.7262114969081E+00  0.3763481851119E+00
-0.2191615753603E+00 -0.3449739149275E+01 -0.7337801558611E+00  0.4208712466925E+00
-0.2435539034078E+00 -0.3463311309687E+01 -0.7413730536662E+00  0.4671268757407E+00
-0.2679953426766E+00 -0.3475750341426E+01 -0.7487491479778E+00  0.5150417346415E+00
-0.2921186790841E+00 -0.3486161130365E+01 -0.7556559731499E+00  0.5642683396932E+00
-0.3156079340367E+00 -0.3493452037378E+01 -0.7618120056347E+00  0.6140834355001E+00
-0.3380546173089E+00 -0.3496362562941E+01 -0.7668834474774E+00  0.6633401520413E+00
-0.3588309688282E+00 -0.3493466183843E+01 -0.7704594420149E+00  0.7104539650750E+00
-0.3769898943705E+00 -0.3483150537790E+01 -0.7720280979363E+00  0.7533917489448E+00
-0.3911804287531E+00 -0.3463588060154E+01 -0.7709537092695E+00  0.7896391201674E+00
-0.3995468154252E+00 -0.3432638287457E+01 -0.7664370319973E+00  0.8161154709887E+00
-0.3995259525306E+00 -0.3387744327014E+01 -0.7574540671959E+00  0.8290122605914E+00
-0.3874587673021E+00 -0.3326041123627E+01 -0.7426999892530E+00  0.8236038857156E+00
-0.3579876097858E+00 -0.3244632759339E+01 -0.7205240845616E+00  0.7940933599741E+00
-0.3031951049976E+00 -0.3140988798100E+01 -0.6888367908839E+00  0.7335269006661E+00
-0.2114006061845E+00 -0.3013591302300E+01 -0.6449983913082E+00  0.6338616210585E+00
-0.6548780847174E-01 -0.2862961247091E+01 -0.5856898198399E+00  0.4863362115555E+00
 0.1594388692614E+00 -0.2693236014557E+01 -0.5067594366104E+00  0.2824745714080E+00
 0.4993562919377E+00 -0.2514375878938E+01 -0.4030039234052E+00  0.1641405373403E-01
 0.1005530106697E+01 -0.2344813214440E+01 -0.2678566255400E+00 -0.3099413572477E+00
 0.1743485482193E+01 -0.2214230464630E+01 -0.9414899789037E-01 -0.6748636598419E+00
 0.2774621478992E+01 -0.2158611254672E+01  0.1232020466997E+00 -0.1017415076701E+01
 0.4113483502916E+01 -0.2195649604267E+01  0.3835667854454E+00 -0.1225972816663E+01
 0.5669399187690E+01 -0.2286859968054E+01  0.6765078540078E+00 -0.1162487883715E+01
-0.7351981098791E+00 -0.3206725645196E+01 -0.7883847627628E+00 -0.3193091946971E+00
-0.6133491478542E+00 -0.3255940585829E+01 -0.7738579582681E+00 -0.3064902657283E+00
-0.4946451474625E+00 -0.3298044404639E+01 -0.7585379217233E+00 -0.2744904248135E+00
-0.3900374712522E+00 -0.3328485184235E+01 -0.7437045421795E+00 -0.2277494464607E+00
-0.3052835425670E+00 -0.3346609689525E+01 -0.7303786573018E+00 -0.1736002767841E+00
-0.2408151983722E+00 -0.3354947477531E+01 -0.7191525458969E+00 -0.1184204246341E+00
-0.1940302912066E+00 -0.3357169798045E+01 -0.7102400284336E+00 -0.6599583840936E-01
-0.1614716313781E+00 -0.3356567788175E+01 -0.7036078943951E+00 -0.1774987846431E-01
-0.1400119362395E+00 -0.3355483953856E+01 -0.6990991884365E+00  0.2638821095928E-01
-0.1272381875242E+00 -0.3355340013507E+01 -0.6965156505851E+00  0.6721974410326E-01
-0.1214408139610E+00 -0.3356860257489E+01 -0.6956602246561E+00  0.1058013914066E+00
-0.1214737138400E+00 -0.3360286575531E+01 -0.6963520682506E+00  0.1431930481254E+00
-0.1265947924046E+00 -0.3365532610778E+01 -0.6984254910439E+00  0.1803277819210E+00
-0.1363102796286E+00 -0.3372289484344E+01 -0.7017199632510E+00  0.2179398939972E+00
-0.1502197023043E+00 -0.3380109097597E+01 -0.7060657705014E+00  0.2565313387211E+00
-0.1678705724313E+00 -0.3388477509326E+01 -0.7112696269502E+00  0.2963835739514E+00
-0.1886361745795E+00 -0.3396909263853E+01 -0.7171090983723E+00  0.3376163541276E+00
-0.2116833505398E+00 -0.3405043399767E+01 -0.7233453608401E+00  0.3802700330964E+00
-0.2361107558588E+00 -0.3412571783738E+01 -0.7297365187934E+00  0.4243695095014E+00
-0.2611238442361E+00 -0.3419058702367E+01 -0.7360365202884E+00  0.4699035003479E+00
-0.2860950663783E+00 -0.3423855007721E+01 -0.7419900258763E+00  0.5167150423888E+00
-0.3105237036561E+00 -0.3426094180378E+01 -0.7473235879429E+00  0.5643741399023E+00
-0.3339296304922E+00 -0.3424722627629E+01 -0.7517304628260E+00  0.6120811789046E+00
-0.3557235398171E+00 -0.3418528606210E+01 -0.7548504404536E+00  0.6586132898110E+00
-0.3750846347432E+00 -0.3406153557561E+01 -0.7562476497298E+00  0.7023008872556E+00
-0.3908545098621E+00 -0.3386087067394E+01 -0.7553883267074E+00  0.7410092351031E+00
-0.4014371925392E+00 -0.3356657875181E+01 -0.7516190247441E+00  0.7721046067071E+00
-0.4046756769774E+00 -0.3315968982355E+01 -0.7441289429550E+00  0.7923782699129E+00
-0.3976295736219E+00 -0.3261837374040E+01 -0.7318934004383E+00  0.7979117463398E+00
-0.3761845310145E+00 -0.3191938918559E+01 -0.7136247005485E+00  0.7839383895470E+00
-0.3344717309448E+00 -0.3104120011056E+01 -0.6877183586480E+00  0.7447603903893E+00
-0.2640602187360E+00 -0.2996833518076E+01 -0.6521787570807E+00  0.6737624265100E+00
-0.1528647020301E+00 -0.2869816490806E+01 -0.6045362475755E+00  0.5636276504612E+00
 0.1629067286755E-01 -0.2725101935766E+01 -0.5417622606525E+00  0.4069343708054E+00
 0.2675024665142E+00 -0.2568437405887E+01 -0.4601869947318E+00  0.1974764315905E+00
 0.6340187212983E+00 -0.2410989241179E+01 -0.3553941092720E+00 -0.6709803174894E-01
 0.1160487312307E+01 -0.2270858131933E+01 -0.2220741672344E+00 -0.3802712528010E+00
 0.1899626394372E+01 -0.2173732694676E+01 -0.5482126087766E-01 -0.7166134142190E+00
 0.2894343786082E+01 -0.2146597997266E+01  0.1495491599916E+00 -0.1017954363896E+01
 0.4143749931048E+01 -0.2197478712515E+01  0.3892542495069E+00 -0.1188799994818E+01
 0.5563382324529E+01 -0.2289225102183E+01  0.6548314542271E+00 -0.1119697873195E+01
-0.7364189144761E+00 -0.3197614888602E+01 -0.7868067723399E+00 -0.3006646415987E+00
-0.6213282838569E+00 -0.3244784629151E+01 -0.7732225941235E+00 -0.2891615465901E+00
-0.5089257970417E+00 -0.3286066107009E+01 -0.7589983921200E+00 -0.2606173339216E+00
-0.4084584646336E+00 -0.3317420372265E+01 -0.7451757784837E+00 -0.2183744248322E+00
-0.3253407712318E+00 -0.3337783235984E+01 -0.7326248123601E+00 -0.1683814677484E+00
-0.2606542410473E+00 -0.3348801654984E+01 -0.7218911899632E+00 -0.1162142392277E+00
-0.2126887704448E+00 -0.3353366830729E+01 -0.7132111308624E+00 -0.6553260653168E-01
-0.1786804012060E+00 -0.3354325970672E+01 -0.7066012849048E+00 -0.1800706554994E-01
-0.1559060578346E+00 -0.3353865702405E+01 -0.7019543625079E+00  0.2609590388184E-01
-0.1421371462245E+00 -0.3353410640375E+01 -0.6991095677375E+00  0.6728709568112E-01
-0.1357174869545E+00 -0.3353747752504E+01 -0.6978930582912E+00  0.1064098704489E+00
-0.1354835592382E+00 -0.3355191770333E+01 -0.6981350763173E+00  0.1443755346103E+00
-0.1406371570829E+00 -0.3357723164462E+01 -0.6996720747348E+00  0.1820146380106E+00
-0.1506073726379E+00 -0.3361092923740E+01 -0.7023400697413E+00  0.2199933479802E+00
-0.1649112125769E+00 -0.3364907121406E+01 -0.7059636773163E+00  0.2587750079332E+00
-0.1830267133271E+00 -0.3368697381630E+01 -0.7103448295764E+00  0.2986263682354E+00
-0.2042862740815E+00 -0.3372008454569E+01 -0.7152589563883E+00  0.3396652935869E+00
-0.2278432765333E+00 -0.3374489288207E+01 -0.7204665236838E+00  0.3819266047675E+00
-0.2527851850570E+00 -0.3375829817639E+01 -0.7257230113534E+00  0.4254054249225E+00
-0.2782765759909E+00 -0.3375599010862E+01 -0.7307751282600E+00  0.4700299969875E+00
-0.3036027126928E+00 -0.3373170141714E+01 -0.7353545818389E+00  0.5155668386591E+00
-0.3281319666451E+00 -0.3367716938950E+01 -0.7391697921336E+00  0.5615092904953E+00
-0.3512222463249E+00 -0.3358240916373E+01 -0.7418926435947E+00  0.6069870731893E+00
-0.3721028690847E+00 -0.3343601399950E+01 -0.7431408648805E+00  0.6507097244086E+00
-0.3897566884001E+00 -0.3322534239330E+01 -0.7424581966095E+00  0.6909365799811E+00
-0.4028097632102E+00 -0.3293660374318E+01 -0.7392940385220E+00  0.7254535388915E+00
-0.4094198810648E+00 -0.3255495769163E+01 -0.7329831409679E+00  0.7515408238052E+00
-0.4071369593778E+00 -0.3206416423189E+01 -0.7227106872826E+00  0.7659086849185E+00
-0.3926691211544E+00 -0.3144636209163E+01 -0.7074610766056E+00  0.7645914839563E+00
-0.3614990566325E+00 -0.3068380959222E+01 -0.6859760133928E+00  0.7428601233225E+00
-0.3073365923147E+00 -0.2976222506405E+01 -0.6567118295296E+00  0.6952095344852E+00
-0.2213810983430E+00 -0.2867533114286E+01 -0.6177828517314E+00  0.6154677176407E+00
-0.9136553358345E-01 -0.2743157543055E+01 -0.5669046237753E+00  0.4971449887283E+00
 0.9961507201850E-01 -0.2606352396552E+01 -0.5013474723774E+00  0.3342102715925E+00
 0.3744224557539E+00 -0.2463975332336E+01 -0.4179105815438E+00  0.1226107072880E+00
 0.7631779520318E+00 -0.2327667148801E+01 -0.3128978440164E+00 -0.1370105623480E+00
 0.1304056687406E+01 -0.2214436242149E+01 -0.1820759136619E+00 -0.4347367203034E+00
 0.2038684659484E+01 -0.2145914271911E+01 -0.2144592280508E-01 -0.7433248082255E+00
 0.2995642568205E+01 -0.2141701389237E+01  0.1707882383386E+00 -0.1008684597866E+01
 0.4163835656375E+01 -0.2203010239306E+01  0.3921650892577E+00 -0.1149400407803E+01
 0.5466017944966E+01 -0.2294920305727E+01  0.6342195372984E+00 -0.1077687523643E+01
-0.7375632971271E+00 -0.3189713715947E+01 -0.7854554143190E+00 -0.2828701076844E+00
-0.6284713194663E+00 -0.3234957979631E+01 -0.7726858713334E+00 -0.2724586957737E+00
-0.5217617771000E+00 -0.3275252804074E+01 -0.7594029275507E+00 -0.2468103720524E+00
-0.4252884003531E+00 -0.3307023361319E+01 -0.7464623634576E+00 -0.2084764163977E+00
-0.3440634701486E+00 -0.3328972252206E+01 -0.7346071554173E+00 -0.1622988538043E+00
-0.2795867594235E+00 -0.3342082650372E+01 -0.7243338927525E+00 -0.1131153201784E+00
-0.2308509763203E+00 -0.3348582012864E+01 -0.7158866085044E+00 -0.6437297560126E-01
-0.1957017035729E+00 -0.3350881513160E+01 -0.7093166539162E+00 -0.1787437252421E-01
-0.1718107423421E+00 -0.3350968109067E+01 -0.7045557807805E+00  0.2585711361095E-01
-0.1571544517841E+00 -0.3350220365499E+01 -0.7014749739094E+00  0.6708102123200E-01
-0.1501543980753E+00 -0.3349452751358E+01 -0.6999214403163E+00  0.1064405932198E+00
-0.1496491100746E+00 -0.3349033062103E+01 -0.6997364448624E+00  0.1447002096694E+00
-0.1547987862004E+00 -0.3348999681524E+01 -0.7007597039870E+00  0.1825864516052E+00
-0.1649672038676E+00 -0.3349160113812E+01 -0.7028254740089E+00  0.2206957836209E+00
-0.1795989133198E+00 -0.3349173073351E+01 -0.7057544078508E+00  0.2594507293582E+00
-0.1981088379567E+00 -0.3348615040873E+01 -0.7093447863360E+00  0.2990991605978E+00
-0.2197880951604E+00 -0.3347062015705E+01 -0.7133700328031E+00  0.3397514172016E+00
-0.2437692977624E+00 -0.3344176469600E+01 -0.7175891641654E+00  0.3814326376104E+00
-0.2691188394418E+00 -0.3339652226757E+01 -0.7217542239947E+00  0.4241089661800E+00
-0.2949536264572E+00 -0.3333069763383E+01 -0.7256046887804E+00  0.4676540291318E+00
-0.3204704108484E+00 -0.3323832491642E+01 -0.7288605913589E+00  0.5117655476918E+00
-0.3449089669705E+00 -0.3311164604903E+01 -0.7312147252706E+00  0.5558675539560E+00
-0.3674679564814E+00 -0.3294136945563E+01 -0.7323209913214E+00  0.5990265934812E+00
-0.3871964213706E+00 -0.3271698342185E+01 -0.7317789636155E+00  0.6398944793119E+00
-0.4028802882998E+00 -0.3242700864872E+01 -0.7291162414991E+00  0.6766743377357E+00
-0.4129296553432E+00 -0.3205920628945E+01 -0.7237700676427E+00  0.7070951180719E+00
-0.4152595969842E+00 -0.3160084633873E+01 -0.7150688568267E+00  0.7283832971101E+00
-0.4071404109324E+00 -0.3103862113708E+01 -0.7022005153917E+00  0.7372122965560E+00
-0.3849597179011E+00 -0.3035874701546E+01 -0.6841668940843E+00  0.7296262415866E+00
-0.3438540138463E+00 -0.2954891663997E+01 -0.6597491453998E+00  0.7010018809529E+00
-0.2772040242919E+00 -0.2860174238233E+01 -0.6274756618552E+00  0.6461029657047E+00
-0.1759801741200E+00 -0.2751928836501E+01 -0.5855818108501E+00  0.5592763404515E+00
-0.2793841399592E-01 -0.2631942989109E+01 -0.5319762885480E+00  0.4349128795673E+00
 0.1832787226524E+00 -0.2504411850962E+01 -0.4642266325795E+00  0.2683519839223E+00
 0.4789868629142E+00 -0.2376866428106E+01 -0.3795759186944E+00  0.5749516244125E-01
 0.8860032411839E+00 -0.2260872073916E+01 -0.2749737706439E+00 -0.1945652347381E+00
 0.1436422635359E+01 -0.2171902296765E+01 -0.1470959344730E+00 -0.4755549893797E+00
 0.2162464628625E+01 -0.2127764873051E+01  0.6939951218195E-02 -0.7577687862170E+00
 0.3081722134468E+01 -0.2142161686804E+01  0.1879120923328E+00 -0.9918293153626E+00
 0.4176379999886E+01 -0.2211517526134E+01  0.3929725006062E+00 -0.1108487257222E+01
 0.5376406441250E+01 -0.2303347139970E+01  0.6146118694143E+00 -0.1036307681664E+01
-0.7386398299770E+00 -0.3182791764461E+01 -0.7842863305743E+00 -0.2658539457351E+00
-0.6349151217991E+00 -0.3226226591194E+01 -0.7722283541058E+00 -0.2563664447144E+00
-0.5333631946814E+00 -0.3265439262309E+01 -0.7597605027193E+00 -0.2331760643701E+00
-0.4407001045051E+00 -0.3297262717163E+01 -0.7475925754735E+00 -0.1982597380873E+00
-0.3615235509743E+00 -0.3320281213805E+01 -0.7363609639284E+00 -0.1555766496603E+00
-0.2975873778881E+00 -0.3334982747340E+01 -0.7265140358714E+00 -0.1093044565922E+00
-0.2484300167958E+00 -0.3343040142657E+01 -0.7182940425940E+00 -0.6263168722362E-01
-0.2124218871342E+00 -0.3346455537413E+01 -0.7117754955158E+00 -0.1740696117309E-01
-0.1876071359485E+00 -0.3346993941940E+01 -0.7069202261116E+00  0.2565993111289E-01
-0.1721758742970E+00 -0.3345952392242E+01 -0.7036256637926E+00  0.6661814962338E-01
-0.1646451060448E+00 -0.3344143243228E+01 -0.7017576803116E+00  0.1059290663495E+00
-0.1638721772407E+00 -0.3341968381620E+01 -0.7011681222204E+00  0.1442163129663E+00
-0.1689894988001E+00 -0.3339513835767E+01 -0.7017006773695E+00  0.1821038643716E+00
-0.1793070889419E+00 -0.3336638442605E+01 -0.7031891167877E+00  0.2201181474134E+00
-0.1942065099393E+00 -0.3333050741630E+01 -0.7054514608260E+00  0.2586390961152E+00
-0.2130452985765E+00 -0.3328370892501E+01 -0.7082832487697E+00  0.2978921355632E+00
-0.2350731601397E+00 -0.3322207152798E+01 -0.7114560731891E+00  0.3379755557055E+00
-0.2593961640261E+00 -0.3314239096636E+01 -0.7147270627828E+00  0.3789017117538E+00
-0.2850516951348E+00 -0.3304170142958E+01 -0.7178443783153E+00  0.4206089295173E+00
-0.3111033694067E+00 -0.3291598962544E+01 -0.7205404771271E+00  0.4629220308056E+00
-0.3366582819489E+00 -0.3275966362477E+01 -0.7225249396516E+00  0.5054780002560E+00
-0.3608298556964E+00 -0.3256555889099E+01 -0.7234771597397E+00  0.5476399351445E+00
-0.3826607335734E+00 -0.3232519469845E+01 -0.7230360514578E+00  0.5884200317437E+00
-0.4010222350440E+00 -0.3202910380660E+01 -0.7207865338814E+00  0.6264233781539E+00
-0.4145052181859E+00 -0.3166714355884E+01 -0.7162439254867E+00  0.6598123406318E+00
-0.4213067479510E+00 -0.3122881136511E+01 -0.7088375874550E+00  0.6862810635135E+00
-0.4191067610870E+00 -0.3070365853157E+01 -0.6978945332483E+00  0.7030329774186E+00
-0.4049136243720E+00 -0.3008142772927E+01 -0.6826112896315E+00  0.7067451966497E+00
-0.3748291108781E+00 -0.2935241695134E+01 -0.6620141710671E+00  0.6935218414223E+00
-0.3237024315012E+00 -0.2850956223105E+01 -0.6349317403825E+00  0.6589027287350E+00
-0.2446763114531E+00 -0.2755186922098E+01 -0.5999726556505E+00  0.5979788057926E+00
-0.1286243888077E+00 -0.2648876169406E+01 -0.5555001199204E+00  0.5056636013131E+00
 0.3649458270301E-01 -0.2534584742149E+01 -0.4996180393340E+00  0.3772408500790E+00
 0.2662717963855E+00 -0.2417181645997E+01 -0.4301819763326E+00  0.2093470617712E+00
 0.5802764639805E+00 -0.2304509124774E+01 -0.3448465372973E+00  0.1592713183608E-02
 0.1002010351763E+01 -0.2207665955795E+01 -0.2411311243994E+00 -0.2410070756798E+00
 0.1558012046263E+01 -0.2140378849279E+01 -0.1164733623386E+00 -0.5046800820632E+00
 0.2272648330837E+01 -0.2116991620098E+01  0.3113134261162E-01 -0.7621749638408E+00
 0.3155206007648E+01 -0.2146637344507E+01  0.2017137356341E+00 -0.9690009875919E+00
 0.4183450709728E+01 -0.2222456340928E+01  0.3921988796044E+00 -0.1066495664341E+01
 0.5293681551487E+01 -0.2314042220375E+01  0.5959278751026E+00 -0.9955291125448E+00
-0.7396539809642E+00 -0.3176670161335E+01 -0.7832648401313E+00 -0.2495541792930E+00
-0.6407648593049E+00 -0.3218405934424E+01 -0.7718341702470E+00 -0.2408633328230E+00
-0.5438990789075E+00 -0.3256487702811E+01 -0.7600773676698E+00 -0.2197861080708E+00
-0.4548436110136E+00 -0.3288100173391E+01 -0.7485887680358E+00 -0.1878793833873E+00
-0.3777959263411E+00 -0.3311782015237E+01 -0.7379155993114E+00 -0.1483978949376E+00
-0.3146495198257E+00 -0.3327654273446E+01 -0.7284607695092E+00 -0.1049402050691E+00
-0.2653610889310E+00 -0.3336932189733E+01 -0.7204586664684E+00 -0.6041777627361E-01
-0.2287456885167E+00 -0.3341245825736E+01 -0.7139983134899E+00 -0.1666341197251E-01
-0.2031894875337E+00 -0.3342131627272E+01 -0.7090642335270E+00  0.2548609652796E-01
-0.1870960519374E+00 -0.3340781300094E+01 -0.7055754809201E+00  0.6590916024014E-01
-0.1790894023405E+00 -0.3337981361923E+01 -0.7034141633343E+00  0.1049063826646E+00
-0.1780594150866E+00 -0.3334150556211E+01 -0.7024420047268E+00  0.1429701429977E+00
-0.1831232641912E+00 -0.3329411876146E+01 -0.7025070385357E+00  0.1806255234784E+00
-0.1935480970677E+00 -0.3323669240110E+01 -0.7034434779178E+00  0.2183298296801E+00
-0.2086612738066E+00 -0.3316677359002E+01 -0.7050677370680E+00  0.2564193262909E+00
-0.2277681763461E+00 -0.3308098511851E+01 -0.7071733481771E+00  0.2950942208783E+00
-0.2500773007128E+00 -0.3297574034326E+01 -0.7095302775805E+00  0.3344373280296E+00
-0.2746637479171E+00 -0.3284803908640E+01 -0.7118935419195E+00  0.3744460836401E+00
-0.3005296549181E+00 -0.3269506467437E+01 -0.7140072351106E+00  0.4150325225903E+00
-0.3266808807334E+00 -0.3251304831261E+01 -0.7155971530621E+00  0.4559784311983E+00
-0.3521340918594E+00 -0.3229683809592E+01 -0.7163635909649E+00  0.4968682713250E+00
-0.3758787163055E+00 -0.3203993905554E+01 -0.7159745350408E+00  0.5370132299680E+00
-0.3968051159705E+00 -0.3173477677740E+01 -0.7140565693825E+00  0.5753809134355E+00
-0.4136107186406E+00 -0.3137304633229E+01 -0.7101830809565E+00  0.6105414710390E+00
-0.4246952942364E+00 -0.3094607553827E+01 -0.7038605801010E+00  0.6406322081914E+00
-0.4280486685638E+00 -0.3044523231009E+01 -0.6945143902636E+00  0.6633339399365E+00
-0.4211265284164E+00 -0.2986245865410E+01 -0.6814744889200E+00  0.6758556642695E+00
-0.4006961834599E+00 -0.2919059115329E+01 -0.6639510696513E+00  0.6749145291858E+00
-0.3626104268108E+00 -0.2842392626299E+01 -0.6410006201736E+00  0.6567177342937E+00
-0.3014901521736E+00 -0.2756035586430E+01 -0.6115051568329E+00  0.6170141280970E+00
-0.2103270249356E+00 -0.2660468456200E+01 -0.5741591047828E+00  0.5512632035879E+00
-0.8001754566274E-01 -0.2557265618324E+01 -0.5274566406571E+00  0.4549682035791E+00
 0.1011255531643E+00 -0.2449596820782E+01 -0.4696942605226E+00  0.3242846838534E+00
 0.3477647368562E+00 -0.2342770586052E+01 -0.3990011757848E+00  0.1570362965340E+00
 0.6776164435897E+00 -0.2244653336704E+01 -0.3134073832931E+00 -0.4572163644478E-01
 0.1110969878427E+01 -0.2165617218294E+01 -0.2109294711165E+00 -0.2775319393764E+00
 0.1669396995076E+01 -0.2117584195199E+01 -0.8963744136029E-01 -0.5238048535072E+00
 0.2370750844558E+01 -0.2111850918976E+01  0.5177998588801E-01 -0.7583624274408E+00
 0.3218206218916E+01 -0.2153999767342E+01  0.2128412934865E+00 -0.9413788128926E+00
 0.4186758440107E+01 -0.2235392652875E+01  0.3902731632619E+00 -0.1023600647970E+01
 0.5216982968210E+01 -0.2326603144476E+01  0.5780759733609E+00 -0.9554776236171E+00
-0.7406093200348E+00 -0.3171209335776E+01 -0.7823637428202E+00 -0.2339164782700E+00
-0.6461020945431E+00 -0.3211350267411E+01 -0.7714904838868E+00 -0.2259245637506E+00
-0.5535057169652E+00 -0.3248284482741E+01 -0.7603580512715E+00 -0.2066874312588E+00
-0.4678477334562E+00 -0.3279496556481E+01 -0.7494688691555E+00 -0.1774522656136E+00
-0.3929538877425E+00 -0.3303524323192E+01 -0.7392956532033E+00 -0.1409106494134E+00
-0.3307791718522E+00 -0.3320218483521E+01 -0.7301995419555E+00 -0.1001591899975E+00
-0.2815969057906E+00 -0.3330420169472E+01 -0.7224034258171E+00 -0.5783166511177E-01
-0.2445940169151E+00 -0.3335428233326E+01 -0.7160044607175E+00 -0.1570232457275E-01
-0.2184646039399E+00 -0.3336554740908E+01 -0.7110038795643E+00  0.2531356582986E-01
-0.2018187486064E+00 -0.3334871852638E+01 -0.7073381307890E+00  0.6496027589452E-01
-0.1933937820127E+00 -0.3331122207630E+01 -0.7049032084323E+00  0.1033998575956E+00
-0.1921227119943E+00 -0.3325726466248E+01 -0.7035698461324E+00  0.1410051574246E+00
-0.1971184302095E+00 -0.3318834207184E+01 -0.7031905379570E+00  0.1782079409738E+00
-0.2076151613333E+00 -0.3310387709227E+01 -0.7036005845965E+00  0.2153984916682E+00
-0.2228941070598E+00 -0.3300183713714E+01 -0.7046155746543E+00  0.2528691414434E+00
-0.2422133193339E+00 -0.3287924756843E+01 -0.7060276257560E+00  0.2907929954793E+00
-0.2647406367347E+00 -0.3273285793345E+01 -0.7076052965601E+00  0.3292350169427E+00
-0.2895169447748E+00 -0.3255990104777E+01 -0.7091014204768E+00  0.3681764623384E+00
-0.3155043769985E+00 -0.3235775703810E+01 -0.7102560267452E+00  0.4075049590200E+00
-0.3416476726772E+00 -0.3212295794344E+01 -0.7107887039959E+00  0.4469649861040E+00
-0.3668727972182E+00 -0.3185085007995E+01 -0.7103915716284E+00  0.4860967247602E+00
-0.3900477869442E+00 -0.3153567140432E+01 -0.7087229960361E+00  0.5241688467732E+00
-0.4099149762911E+00 -0.3117082903661E+01 -0.7053995865017E+00  0.5601147172926E+00
-0.4250028530227E+00 -0.3074926944770E+01 -0.6999859699891E+00  0.5924817886291E+00
-0.4335258867880E+00 -0.3026388751221E+01 -0.6919829379132E+00  0.6193979338143E+00
-0.4332748263913E+00 -0.2970800995357E+01 -0.6808151744946E+00  0.6385511040877E+00
-0.4214945799673E+00 -0.2907602387360E+01 -0.6658194033870E+00  0.6471820407257E+00
-0.3947344569332E+00 -0.2836383964156E+01 -0.6462236938474E+00  0.6420797886271E+00
-0.3486360093199E+00 -0.2756959900376E+01 -0.6211191911946E+00  0.6195904388947E+00
-0.2776490357682E+00 -0.2669579280977E+01 -0.5894456721325E+00  0.5757068851535E+00
-0.1746945805766E+00 -0.2575237772502E+01 -0.5499864788111E+00  0.5062828328902E+00
-0.3079659251431E-01 -0.2476037765722E+01 -0.5013668791181E+00  0.4074130529392E+00
 0.1652567531717E+00 -0.2375605735571E+01 -0.4420698030673E+00  0.2760784056801E+00
 0.4270884455351E+00 -0.2279490334646E+01 -0.3704803833427E+00  0.1111574083797E+00
 0.7705302878735E+00 -0.2195364436319E+01 -0.2849668339354E+00 -0.8511307785565E-01
 0.1212839797994E+01 -0.2132716404899E+01 -0.1839753241225E+00 -0.3052554943995E+00
 0.1771209382943E+01 -0.2101704135512E+01 -0.6609895149878E-01 -0.5343880406865E+00
 0.2458176397535E+01 -0.2110999014260E+01  0.6943547768978E-01 -0.7477917947653E+00
 0.3272241160913E+01 -0.2163392166442E+01  0.2217698021988E+00 -0.9099963983026E+00
 0.4188037964534E+01 -0.2249506755147E+01  0.3877062476547E+00 -0.9795275364823E+00
 0.5144913941840E+01 -0.2341037680812E+01  0.5607752605617E+00 -0.9166828458239E+00
-0.7415082728226E+00 -0.3166300073303E+01 -0.7815616808712E+00 -0.2188925659081E+00
-0.6509906217979E+00 -0.3204944430003E+01 -0.7711870218518E+00 -0.2115236740124E+00
-0.5622932812865E+00 -0.3240736723095E+01 -0.7606060122101E+00 -0.1939091671081E+00
-0.4798222252268E+00 -0.3271415106624E+01 -0.7502474775496E+00 -0.1670658369292E+00
-0.4070664083630E+00 -0.3295542876105E+01 -0.7405218679283E+00 -0.1332336209309E+00
-0.3459902692393E+00 -0.3312772651841E+01 -0.7317525951199E+00 -0.9507739719664E-01
-0.2971037985185E+00 -0.3323641663103E+01 -0.7241491031150E+00 -0.5496358722882E-01
-0.2599017039115E+00 -0.3329158522550E+01 -0.7178120559886E+00 -0.1457986157607E-01
-0.2333509898443E+00 -0.3330422096363E+01 -0.7127546278623E+00  0.2511862239286E-01
-0.2162567840930E+00 -0.3328378304592E+01 -0.7089270283008E+00  0.6377463429298E-01
-0.2074716746584E+00 -0.3323713007993E+01 -0.7062369470541E+00  0.1014337205302E+00
-0.2059794451004E+00 -0.3316836387026E+01 -0.7045631769240E+00  0.1383622013859E+00
-0.2108979016444E+00 -0.3307915022313E+01 -0.7037625952784E+00  0.1749054849747E+00
-0.2214371879974E+00 -0.3296922815641E+01 -0.7036720112132E+00  0.2113899817965E+00
-0.2368396148119E+00 -0.3283694183435E+01 -0.7041067701414E+00  0.2480646750143E+00
-0.2563203735417E+00 -0.3267969829450E+01 -0.7048580511015E+00  0.2850745816227E+00
-0.2790075298498E+00 -0.3249458547396E+01 -0.7056932259648E+00  0.3224654105683E+00
-0.3039055269135E+00 -0.3227909318661E+01 -0.7063629796405E+00  0.3602017638960E+00
-0.3299330327894E+00 -0.3203083955443E+01 -0.7066034081757E+00  0.3981490769473E+00
-0.3559713402190E+00 -0.3174670638489E+01 -0.7061284062637E+00  0.4360202074689E+00
-0.3808560126264E+00 -0.3142258759540E+01 -0.7046229649329E+00  0.4733192354838E+00
-0.4033366400748E+00 -0.3105350485722E+01 -0.7017374356160E+00  0.5092818660602E+00
-0.4220122979571E+00 -0.3063390329554E+01 -0.6970805358895E+00  0.5428178717909E+00
-0.4352484583414E+00 -0.3015804372047E+01 -0.6902105763627E+00  0.5724644058481E+00
-0.4410815778754E+00 -0.2962045089616E+01 -0.6806253436404E+00  0.5963551776806E+00
-0.4371133702149E+00 -0.2901645751129E+01 -0.6677518342190E+00  0.6122044547755E+00
-0.4203933231232E+00 -0.2834290225574E+01 -0.6509367194392E+00  0.6173082291804E+00
-0.3872770587218E+00 -0.2759869628830E+01 -0.6294293468896E+00  0.6085547175867E+00
-0.3332323101935E+00 -0.2678561999294E+01 -0.6023588708733E+00  0.5824575926004E+00
-0.2525917788247E+00 -0.2591036136330E+01 -0.5687255915056E+00  0.5352785459140E+00
-0.1382781437770E+00 -0.2498736396462E+01 -0.5274029159067E+00  0.4632772690317E+00
 0.1846897524572E-01 -0.2404193468183E+01 -0.4771449056975E+00  0.3631245460127E+00
 0.2282934515589E+00 -0.2311354491820E+01 -0.4166122142602E+00  0.2325618672428E+00
 0.5037129956527E+00 -0.2225844586010E+01 -0.3444263232038E+00  0.7137953267494E-01
 0.8587004944865E+00 -0.2154985810574E+01 -0.2592570670808E+00 -0.1172538647873E+00
 0.1307706577400E+01 -0.2107303285658E+01 -0.1599193440344E+00 -0.3251984185778E+00
 0.1864114433575E+01 -0.2091292764209E+01 -0.4543566680385E-01 -0.5376804294438E+00
 0.2536121827266E+01 -0.2113386073015E+01  0.8454715211013E-01 -0.7316388214183E+00
 0.3318862324144E+01 -0.2174228846073E+01  0.2289266990255E+00 -0.8757117909544E+00
 0.4186858764634E+01 -0.2263892729701E+01  0.3845932127176E+00 -0.9343220192415E+00
 0.5084410166289E+01 -0.2356823431971E+01  0.5455173549924E+00 -0.8788582354393E+00
-0.7423525920318E+00 -0.3161856840392E+01 -0.7808418981201E+00 -0.2044389609843E+00
-0.6554807257112E+00 -0.3199097514368E+01 -0.7709156595034E+00 -0.1976334910687E+00
-0.5703510747757E+00 -0.3233769163417E+01 -0.7608240589757E+00 -0.1814675285733E+00
-0.4908600990354E+00 -0.3263823176854E+01 -0.7509366663677E+00 -0.1567846747942E+00
-0.4201967246840E+00 -0.3287862568557E+01 -0.7416118696992E+00 -0.1254610743647E+00
-0.3603013600966E+00 -0.3305395627560E+01 -0.7331394084560E+00 -0.8979196610835E-01
-0.3118584954170E+00 -0.3316713820700E+01 -0.7257144740375E+00 -0.5189294773879E-01
-0.2746153665956E+00 -0.3322574361063E+01 -0.7194379562522E+00 -0.1334807249480E-01
-0.2477778134264E+00 -0.3323878241689E+01 -0.7143312216675E+00  0.2487754544747E-01
-0.2303317255847E+00 -0.3321444105285E+01 -0.7103551767591E+00  0.6235349429409E-01
-0.2212434799983E+00 -0.3315892570024E+01 -0.7074272205460E+00  0.9902980777976E-01
-0.2195526135959E+00 -0.3307613500295E+01 -0.7054332332900E+00  0.1350798143336E+00
-0.2243892628286E+00 -0.3296781999804E+01 -0.7042342630203E+00  0.1707704632049E+00
-0.2349471479528E+00 -0.3283397165870E+01 -0.7036688732501E+00  0.2063683188108E+00
-0.2504361680961E+00 -0.3267326728689E+01 -0.7035525898408E+00  0.2420804094552E+00
-0.2700327975907E+00 -0.3248347313076E+01 -0.7036760326189E+00  0.2780235373706E+00
-0.2928265117037E+00 -0.3226201441191E+01 -0.7038056010665E+00  0.3142236349563E+00
-0.3177839618406E+00 -0.3200665672304E+01 -0.7036899373146E+00  0.3506288680030E+00
-0.3437780138341E+00 -0.3171529045705E+01 -0.7030614223842E+00  0.3870849944023E+00
-0.3696251457895E+00 -0.3138518805848E+01 -0.7016288007826E+00  0.4232788855064E+00
-0.3940714228275E+00 -0.3101283104735E+01 -0.6990709159294E+00  0.4586865675599E+00
-0.4157513357354E+00 -0.3059406320364E+01 -0.6950315415767E+00  0.4925203105621E+00
-0.4331259704154E+00 -0.3012440667792E+01 -0.6891133379100E+00  0.5236770024807E+00
-0.4444045371171E+00 -0.2959947584086E+01 -0.6808704343864E+00  0.5506957917414E+00
-0.4474539708759E+00 -0.2901545797705E+01 -0.6697999636970E+00  0.5717308878833E+00
-0.4396984079007E+00 -0.2836970275725E+01 -0.6553337464903E+00  0.5845405631522E+00
-0.4180085155556E+00 -0.2766146627039E+01 -0.6368310380084E+00  0.5864967783451E+00
-0.3785709675783E+00 -0.2689254512171E+01 -0.6135651050927E+00  0.5746096573710E+00
-0.3167157753872E+00 -0.2606811337847E+01 -0.5847054313595E+00  0.5455823909137E+00
-0.2267081742979E+00 -0.2519863054375E+01 -0.5493142539200E+00  0.4959609202705E+00
-0.1015354933937E+00 -0.2430237103956E+01 -0.5063545270153E+00  0.4224108385484E+00
 0.6727542097029E-01 -0.2340800073563E+01 -0.4547049372942E+00  0.3221499481928E+00
 0.2897348167665E+00 -0.2255701958923E+01 -0.3931934342903E+00  0.1936039528392E+00
 0.5772271312386E+00 -0.2180514651163E+01 -0.3206575087630E+00  0.3732970171188E-01
 0.9419335173833E+00 -0.2122102797665E+01 -0.2360338595735E+00 -0.1428008487433E+00
 0.1395746454310E+01 -0.2088005401179E+01 -0.1384517914371E+00 -0.3382835058894E+00
 0.1948764244473E+01 -0.2085192125353E+01 -0.2728557658248E-01 -0.5347421572653E+00
 0.2605675220871E+01 -0.2118201159055E+01  0.9749481381596E-01 -0.7108906287578E+00
 0.3359212323102E+01 -0.2186046585011E+01  0.2346331511144E+00 -0.8390266418970E+00
 0.4183930892564E+01 -0.2278303676168E+01  0.3811254489584E+00 -0.8890555258401E+00
 0.5033829968532E+01 -0.2372722024018E+01  0.5322215968335E+00 -0.8385109427108E+00
-0.7431436507171E+00 -0.3157812727819E+01 -0.7801912873330E+00 -0.1905159809734E+00
-0.6596123218949E+00 -0.3193737939798E+01 -0.7706700638225E+00 -0.1842266652370E+00
-0.5777516769926E+00 -0.3227321353308E+01 -0.7610146174001E+00 -0.1693692439097E+00
-0.5010398771621E+00 -0.3256692936824E+01 -0.7515465739961E+00 -0.1466555133699E+00
-0.4324017470220E+00 -0.3280501946477E+01 -0.7425807497652E+00 -0.1176670089745E+00
-0.3737332508944E+00 -0.3298152124198E+01 -0.7343770859615E+00 -0.8438316957882E-01
-0.3258455231358E+00 -0.3309736797580E+01 -0.7271164749779E+00 -0.4868831706938E-01
-0.2886914662028E+00 -0.3315797313558E+01 -0.7208977666945E+00 -0.1205383655620E-01
-0.2616838028971E+00 -0.3317054213247E+01 -0.7157476138942E+00  0.2456787511633E-01
-0.2439734174631E+00 -0.3314201902863E+01 -0.7116350746695E+00  0.6069725687997E-01
-0.2346364508924E+00 -0.3307790973247E+01 -0.7084854953851E+00  0.9620821852931E-01
-0.2327708670082E+00 -0.3298183557334E+01 -0.7061908953916E+00  0.1311945760838E+00
-0.2375248429108E+00 -0.3285556066130E+01 -0.7046161923078E+00  0.1658532674870E+00
-0.2480821399953E+00 -0.3269926893951E+01 -0.7036018172738E+00  0.2003957243386E+00
-0.2636259470779E+00 -0.3251192871174E+01 -0.7029637741254E+00  0.2349891403822E+00
-0.2832978556639E+00 -0.3229164204099E+01 -0.7024924224206E+00  0.2697227601521E+00
-0.3061501874977E+00 -0.3203616714392E+01 -0.7019533908379E+00  0.3046029947026E+00
-0.3311112019450E+00 -0.3174355893029E+01 -0.7010934294418E+00  0.3395623935353E+00
-0.3570066027397E+00 -0.3141200730594E+01 -0.6996414770923E+00  0.3744298104746E+00
-0.3825875622231E+00 -0.3103920786772E+01 -0.6973016801896E+00  0.4088716995573E+00
-0.4065121594809E+00 -0.3062226011317E+01 -0.6937476444973E+00  0.4423438920032E+00
-0.4273035635755E+00 -0.3015785621688E+01 -0.6886178473139E+00  0.4740446027325E+00
-0.4432906140843E+00 -0.2964261814944E+01 -0.6815104959609E+00  0.5028684058260E+00
-0.4525337036041E+00 -0.2907353166261E+01 -0.6719773839862E+00  0.5273684196480E+00
-0.4527396634075E+00 -0.2844845250165E+01 -0.6595169925420E+00  0.5457332157795E+00
-0.4411674970853E+00 -0.2776672720324E+01 -0.6435680530718E+00  0.5557811300395E+00
-0.4145263122008E+00 -0.2702996144138E+01 -0.6235045005587E+00  0.5549779961324E+00
-0.3688582797886E+00 -0.2624268945099E+01 -0.5986254538978E+00  0.5404742204418E+00
-0.2993896425784E+00 -0.2541320925121E+01 -0.5681421220059E+00  0.5091782266569E+00
-0.2003626215183E+00 -0.2455532004176E+01 -0.5311789330541E+00  0.4579274853705E+00
-0.6488244782932E-01 -0.2369050093387E+01 -0.4867865154970E+00  0.3837836618831E+00
 0.1151814336545E+00 -0.2284994502400E+01 -0.4339626202155E+00  0.2844726921533E+00
 0.3491639810746E+00 -0.2207619024726E+01 -0.3716910142688E+00  0.1590216488443E+00
 0.6473188477598E+00 -0.2142343434847E+01 -0.2990049218729E+00  0.8612844484099E-02
 0.1020131571363E+01 -0.2095509308867E+01 -0.2150755507056E+00 -0.1623817919043E+00
 0.1477191520898E+01 -0.2073686892820E+01 -0.1192990761621E+00 -0.3453354096597E+00
 0.2025786825125E+01 -0.2082469953806E+01 -0.1133662590514E-01 -0.5264783572364E+00
 0.2667795446880E+01 -0.2124818379912E+01  0.1085954150119E+00 -0.6863211341885E+00
 0.3394192509798E+01 -0.2198478310589E+01  0.2391428434054E+00 -0.8004767536455E+00
 0.4180526411312E+01 -0.2292894281070E+01  0.3775264316739E+00 -0.8436283989681E+00
 0.4987285875860E+01 -0.2388617967658E+01  0.5197335893850E+00 -0.7973847295679E+00
-0.7438826220260E+00 -0.3154115567325E+01 -0.7795996494872E+00 -0.1770869491643E+00
-0.6634172970281E+00 -0.3188809586565E+01 -0.7704453881991E+00 -0.1712759467816E+00
-0.5845542239952E+00 -0.3221345204795E+01 -0.7611798971005E+00 -0.1576139983026E+00
-0.5104276608237E+00 -0.3250001479270E+01 -0.7520858392258E+00 -0.1367110931684E+00
-0.4437319909848E+00 -0.3273475571858E+01 -0.7434415236468E+00 -0.1099086585697E+00
-0.3863073891487E+00 -0.3291095993638E+01 -0.7354806875170E+00 -0.7891639460642E-01
-0.3390551501382E+00 -0.3302796639429E+01 -0.7283703687670E+00 -0.4540783210180E-01
-0.3020945991027E+00 -0.3308934723236E+01 -0.7222058752294E+00 -0.1073827953815E-01
-0.2750161475585E+00 -0.3310068430131E+01 -0.7170169262223E+00  0.2416932735376E-01
-0.2571194125658E+00 -0.3306773765412E+01 -0.7127786462167E+00  0.5880629837801E-01
-0.2475844630626E+00 -0.3299529456270E+01 -0.7094227944377E+00  0.9298790835988E-01
-0.2455684460299E+00 -0.3288664673700E+01 -0.7068466344788E+00  0.1267414622389E+00
-0.2502417261814E+00 -0.3274351227231E+01 -0.7049186011866E+00  0.1602025546059E+00
-0.2607834207658E+00 -0.3256621569905E+01 -0.7034810086168E+00  0.1935326908827E+00
-0.2763549589255E+00 -0.3235397673819E+01 -0.7023505370147E+00  0.2268619655579E+00
-0.2960665864424E+00 -0.3210520949167E+01 -0.7013175175722E+00  0.2602534081233E+00
-0.3189351167413E+00 -0.3181799794599E+01 -0.7001469927011E+00  0.2936948327741E+00
-0.3438504520533E+00 -0.3149069480112E+01 -0.6985839968427E+00  0.3271045039333E+00
-0.3695906197821E+00 -0.3112180979951E+01 -0.6963543303231E+00  0.3602973581033E+00
-0.3948417897692E+00 -0.3070948584008E+01 -0.6931580850844E+00  0.3929249143729E+00
-0.4181761590209E+00 -0.3025146115236E+01 -0.6886644651133E+00  0.4244304313139E+00
-0.4380097876185E+00 -0.2974529089730E+01 -0.6825077856398E+00  0.4540071899253E+00
-0.4525454457649E+00 -0.2918870464073E+01 -0.6742831920152E+00  0.4805577262391E+00
-0.4597027080911E+00 -0.2858005816072E+01 -0.6635417147201E+00  0.5026606104348E+00
-0.4570383901199E+00 -0.2791885832141E+01 -0.6497848541347E+00  0.5185516894196E+00
-0.4416594082799E+00 -0.2720640212354E+01 -0.6324599335511E+00  0.5261237170926E+00
-0.4101307229153E+00 -0.2644655006033E+01 -0.6109571548936E+00  0.5229515487342E+00
-0.3583735532501E+00 -0.2564640268603E+01 -0.5846027730819E+00  0.5063401695066E+00
-0.2815415527558E+00 -0.2481709913400E+01 -0.5526503014662E+00  0.4734133730167E+00
-0.1738926857965E+00 -0.2397535444704E+01 -0.5142856337635E+00  0.4213004800740E+00
-0.2869350050161E-01 -0.2314527090529E+01 -0.4686441251896E+00  0.3474417192484E+00
 0.1618037560516E+00 -0.2235983936168E+01 -0.4148360422049E+00  0.2500255697305E+00
 0.4062378713483E+00 -0.2166182691898E+01 -0.3519889693550E+00  0.1285954466352E+00
 0.7137580518270E+00 -0.2110319025428E+01 -0.2793121988822E+00 -0.1517367895664E-01
 0.1093268757567E+01 -0.2074178066807E+01 -0.1961818647714E+00 -0.1765869265068E+00
 0.1552306522074E+01 -0.2063405391202E+01 -0.1022197753487E+00 -0.3470874261232E+00
 0.2095774620723E+01 -0.2082373956553E+01  0.2680132873811E-02 -0.5136542717344E+00
 0.2723301587480E+01 -0.2132738290620E+01  0.1181126611319E+00 -0.6585627280749E+00
 0.3424692593036E+01 -0.2211290208218E+01  0.2426804805798E+00 -0.7604358339497E+00
 0.4176781423115E+01 -0.2307703899176E+01  0.3738155103580E+00 -0.7979037229686E+00
 0.4944637526031E+01 -0.2404756595606E+01  0.5079761936543E+00 -0.7554962450703E+00
-0.7445705861563E+00 -0.3150724911874E+01 -0.7790591112149E+00 -0.1641175620382E+00
-0.6669212695759E+00 -0.3184268735151E+01 -0.7702380124229E+00 -0.1587543122882E+00
-0.5908070081721E+00 -0.3215802888947E+01 -0.7613219907684E+00 -0.1461961840729E+00
-0.5190789738377E+00 -0.3243730581132E+01 -0.7525619222079E+00 -0.1269731154818E+00
-0.4542318221914E+00 -0.3266795589255E+01 -0.7442054933787E+00 -0.1022293961425E+00
-0.3980447899622E+00 -0.3284272700494E+01 -0.7364635090654E+00 -0.7344401913501E-01
-0.3514817863869E+00 -0.3295967664837E+01 -0.7294899011150E+00 -0.4209984228286E-01
-0.3147960275190E+00 -0.3302081426297E+01 -0.7233755015423E+00 -0.9436542278548E-02
-0.2877294516659E+00 -0.3303027644526E+01 -0.7181514299397E+00  0.2366441607557E-01
-0.2697143543783E+00 -0.3299271549104E+01 -0.7137971913329E+00  0.5668162534098E-01
-0.2600277059216E+00 -0.3291220452873E+01 -0.7102496423425E+00  0.8938720587136E-01
-0.2578850535315E+00 -0.3279167235055E+01 -0.7074104682585E+00  0.1217541874388E+00
-0.2624817125965E+00 -0.3263274464424E+01 -0.7051512459117E+00  0.1538654446715E+00
-0.2729964001495E+00 -0.3243584137340E+01 -0.7033161179782E+00  0.1858380740238E+00
-0.2885730282543E+00 -0.3220039732984E+01 -0.7017225627041E+00  0.2177682960307E+00
-0.3082937480142E+00 -0.3192511494917E+01 -0.7001610590194E+00  0.2496948430441E+00
-0.3311416738540E+00 -0.3160839414057E+01 -0.6983962279891E+00  0.2815884163859E+00
-0.3559689205473E+00 -0.3124888909977E+01 -0.6961715764786E+00  0.3133547491295E+00
-0.3815060546304E+00 -0.3084544308076E+01 -0.6932100828709E+00  0.3447980115820E+00
-0.4063752598969E+00 -0.3039666225631E+01 -0.6892083073756E+00  0.3755601582301E+00
-0.4290655153871E+00 -0.2990093492810E+01 -0.6838318118292E+00  0.4050792194403E+00
-0.4478904060822E+00 -0.2935668267607E+01 -0.6767117448217E+00  0.4325523195581E+00
-0.4609331941644E+00 -0.2876273662706E+01 -0.6674413813198E+00  0.4568998138287E+00
-0.4659810628085E+00 -0.2811880419287E+01 -0.6555723061879E+00  0.4767365809916E+00
-0.4604513379197E+00 -0.2742600598421E+01 -0.6406103968139E+00  0.4903576082964E+00
-0.4413121548723E+00 -0.2668752134876E+01 -0.6220128672183E+00  0.4957427002532E+00
-0.4050014591476E+00 -0.2590935001654E+01 -0.5991873010889E+00  0.4905882531002E+00
-0.3473416910601E+00 -0.2510097199414E+01 -0.5714877866106E+00  0.4723644042546E+00
-0.2634418699270E+00 -0.2427608133355E+01 -0.5382100086763E+00  0.4384155859480E+00
-0.1476085156254E+00 -0.2345390386414E+01 -0.4985997878375E+00  0.3861575584275E+00
 0.6696659768461E-02 -0.2266063776104E+01 -0.4518734300006E+00  0.3133858519723E+00
 0.2068122065753E+00 -0.2193044754736E+01 -0.3972465155517E+00  0.2187019160508E+00
 0.4606773686816E+00 -0.2130568963310E+01 -0.3339783239024E+00  0.1020815141553E+00
 0.7763812123919E+00 -0.2083558817238E+01 -0.2614355248649E+00 -0.3442968027389E-01
 0.1161371811716E+01 -0.2057234260710E+01 -0.1791724924686E+00 -0.1859651079727E+00
 0.1621372105550E+01 -0.2056377354627E+01 -0.8700105111170E-01 -0.3441883718928E+00
 0.2159271877807E+01 -0.2084291760776E+01  0.1499602362957E-01 -0.4969172037321E+00
 0.2772918770428E+01 -0.2141561412120E+01  0.1262714735431E+00 -0.6281306938329E+00
 0.3451387036696E+01 -0.2224307481238E+01  0.2454159147486E+00 -0.7191372966492E+00
 0.4172805778277E+01 -0.2322603865869E+01  0.3700403879957E+00 -0.7517920251611E+00
 0.4905691178259E+01 -0.2420971359098E+01  0.4969439712372E+00 -0.7129320902883E+00
-0.7452085904385E+00 -0.3147609660657E+01 -0.7785636618206E+00 -0.1515753833298E+00
-0.6701449267002E+00 -0.3180081623351E+01 -0.7700453214847E+00 -0.1466350039328E+00
-0.5965495448324E+00 -0.3210665043012E+01 -0.7614429289154E+00 -0.1351061664601E+00
-0.5270403724795E+00 -0.3237866277761E+01 -0.7529813412683E+00 -0.1174545192459E+00
-0.4639398762667E+00 -0.3260472732891E+01 -0.7448825329311E+00 -0.9466113067509E-01
-0.4089653569931E+00 -0.3277721175299E+01 -0.7373373174456E+00 -0.6800713218790E-01
-0.3631227569336E+00 -0.3289314407927E+01 -0.7304874438573E+00 -0.3880368720267E-01
-0.3267724393535E+00 -0.3295321274872E+01 -0.7244187536397E+00 -0.8177801763072E-02
-0.2997847697327E+00 -0.3296027889291E+01 -0.7191625425210E+00  0.2303883774549E-01
-0.2817093469466E+00 -0.3291797357563E+01 -0.7147013515518E+00  0.5432536767134E-01
-0.2719123232124E+00 -0.3282967739046E+01 -0.7109760230461E+00  0.8542424646966E-01
-0.2696656723261E+00 -0.3269793893911E+01 -0.7078919237959E+00  0.1162655219946E+00
-0.2741912351643E+00 -0.3252425689352E+01 -0.7053233954135E+00  0.1468877230438E+00
-0.2846706034421E+00 -0.3230910883451E+01 -0.7031163078559E+00  0.1773692000240E+00
-0.3002337603137E+00 -0.3205211188879E+01 -0.7010890002856E+00  0.2077758867075E+00
-0.3199377399987E+00 -0.3175223353807E+01 -0.6990322291775E+00  0.2381245964936E+00
-0.3427338914698E+00 -0.3140817748012E+01 -0.6967103382782E+00  0.2683708529703E+00
-0.3674375588615E+00 -0.3101889871026E+01 -0.6938654963169E+00  0.2984099479817E+00
-0.3927326906224E+00 -0.3058358139002E+01 -0.6902181762100E+00  0.3280385501695E+00
-0.4171791358604E+00 -0.3010130308963E+01 -0.6854618991789E+00  0.3568942793121E+00
-0.4391858386804E+00 -0.2957110446989E+01 -0.6792592672556E+00  0.3844169674498E+00
-0.4569689363749E+00 -0.2899226644032E+01 -0.6712391260835E+00  0.4098159487214E+00
-0.4684990731871E+00 -0.2836470306072E+01 -0.6609938857014E+00  0.4320387421726E+00
-0.4714397735368E+00 -0.2768943998869E+01 -0.6480767641383E+00  0.4497466715321E+00
-0.4630796321993E+00 -0.2696915722862E+01 -0.6319990804298E+00  0.4613046246018E+00
-0.4402612789446E+00 -0.2620883085400E+01 -0.6122288819918E+00  0.4647903983790E+00
-0.3993121413315E+00 -0.2541646892968E+01 -0.5881918156247E+00  0.4580319995467E+00
-0.3359763065741E+00 -0.2460373530963E+01 -0.5592699758412E+00  0.4386719747331E+00
-0.2453426026260E+00 -0.2378659727166E+01 -0.5248004737785E+00  0.4042765328336E+00
-0.1217929375361E+00 -0.2298641302184E+01 -0.4840868551575E+00  0.3525379184719E+00
 0.4099101178750E-01 -0.2223100893376E+01 -0.4364219828210E+00  0.2815796836065E+00
 0.2499244479528E+00 -0.2155520248103E+01 -0.3811191657091E+00  0.1903649346603E+00
 0.5122580787702E+00 -0.2100045173734E+01 -0.3175574237248E+00  0.7922115513250E-01
 0.8350780466007E+00 -0.2061294601467E+01 -0.2452433146276E+00 -0.4954507353635E-01
 0.1224504940283E+01 -0.2043932821222E+01 -0.1638855786299E+00 -0.1910227474048E+00
 0.1684671104725E+01 -0.2051949327224E+01 -0.7345564559435E-01 -0.3372106461570E+00
 0.2216775916438E+01 -0.2087720681480E+01  0.2581104737620E-01 -0.4768166505722E+00
 0.2817269402606E+01 -0.2150964953304E+01  0.1332608918461E+00 -0.5954374863543E+00
 0.3474799862569E+01 -0.2237352407759E+01  0.2474894946498E+00 -0.6767495557918E+00
 0.4168704817067E+01 -0.2337404735004E+01  0.3662600218703E+00 -0.7052683651975E+00
 0.4870268715478E+01 -0.2437040174353E+01  0.4866457154765E+00 -0.6697730998715E+00
-0.7457976792639E+00 -0.3144746171934E+01 -0.7781087818343E+00 -0.1394294388366E+00
-0.6731050479975E+00 -0.3176222481614E+01 -0.7698655173942E+00 -0.1348915205389E+00
-0.6018142202532E+00 -0.3205909249267E+01 -0.7615447052519E+00 -0.1243312076734E+00
-0.5343508326132E+00 -0.3232398348883E+01 -0.7533498475250E+00 -0.1081612446796E+00
-0.4728895641168E+00 -0.3254516945064E+01 -0.7454813129447E+00 -0.8722627929393E-01
-0.4190874846089E+00 -0.3271475190143E+01 -0.7381125459491E+00 -0.6263707692283E-01
-0.3739773759324E+00 -0.3282893186413E+01 -0.7313741233674E+00 -0.3555052872571E-01
-0.3380049168210E+00 -0.3288728464347E+01 -0.7253466870422E+00 -0.6985467094976E-02
-0.3111487378213E+00 -0.3289155384356E+01 -0.7200608351652E+00  0.2228166835112E-01
-0.2930613387559E+00 -0.3284444049374E+01 -0.7155010882879E+00  0.5174113011556E-01
-0.2831900267902E+00 -0.3274866658133E+01 -0.7116113475884E+00  0.8111732353799E-01
-0.2808603448632E+00 -0.3260639638201E+01 -0.7083000071674E+00  0.1103075731345E+00
-0.2853212418676E+00 -0.3241897750548E+01 -0.7054438089951E+00  0.1393140358979E+00
-0.2957596035726E+00 -0.3218691441355E+01 -0.7028902194593E+00  0.1681819819700E+00
-0.3112944789284E+00 -0.3190997756693E+01 -0.7004584575619E+00  0.1969508835987E+00
-0.3309605053266E+00 -0.3158737687037E+01 -0.6979396488727E+00  0.2256183597859E+00
-0.3536792897662E+00 -0.3121810571690E+01 -0.6950979826489E+00  0.2541270380937E+00
-0.3782307938991E+00 -0.3080141520079E+01 -0.6916744731023E+00  0.2823641129262E+00
-0.4032537279398E+00 -0.3033683193953E+01 -0.6873873946214E+00  0.3101220775621E+00
-0.4272478182628E+00 -0.2982390560554E+01 -0.6819276859249E+00  0.3370392762878E+00
-0.4485456288881E+00 -0.2926232292872E+01 -0.6749555944096E+00  0.3625640257958E+00
-0.4652712336746E+00 -0.2865220725247E+01 -0.6660984017099E+00  0.3859257738295E+00
-0.4752898190305E+00 -0.2799452556027E+01 -0.6549484847709E+00  0.4061079665107E+00
-0.4761501789103E+00 -0.2729157530552E+01 -0.6410615514450E+00  0.4218277262810E+00
-0.4650229896109E+00 -0.2654752736820E+01 -0.6239551545838E+00  0.4315294779835E+00
-0.4386383777740E+00 -0.2576905521973E+01 -0.6031087889365E+00  0.4333983340389E+00
-0.3932288342603E+00 -0.2496603384218E+01 -0.5779664523081E+00  0.4254017497174E+00
-0.3244785090739E+00 -0.2415211228073E+01 -0.5479379555943E+00  0.4053590560566E+00
-0.2274768237039E+00 -0.2334525993142E+01 -0.5124005710046E+00  0.3710559801227E+00
-0.9670206739234E-01 -0.2256862085936E+01 -0.4707128376798E+00  0.3204478618993E+00
 0.7392767248670E-01 -0.2185124345684E+01 -0.4222393409313E+00  0.2519564891517E+00
 0.2909007581031E+00 -0.2122817527597E+01 -0.3663833593583E+00  0.1648553576068E+00
 0.5608018714095E+00 -0.2073962214942E+01 -0.3026320732161E+00  0.5974800227049E-01
 0.8897802401255E+00 -0.2042858929763E+01 -0.2306157413640E+00 -0.6089533411127E-01
 0.1282757505640E+01 -0.2033638962712E+01 -0.1501762936521E+00 -0.1922245982118E+00
 0.1742480048029E+01 -0.2049574382245E+01 -0.6141886775858E-01 -0.3266591245749E+00
 0.2268735290980E+01 -0.2092245520102E+01  0.3529795470141E-01 -0.4538192952126E+00
 0.2856882798795E+01 -0.2160677540149E+01  0.1392410538041E+00 -0.5608177555151E+00
 0.3495351333957E+01 -0.2250246661792E+01  0.2490209381437E+00 -0.6334111261434E+00
 0.4164581832517E+01 -0.2351915184374E+01  0.3625333350307E+00 -0.6583451017030E+00
 0.4838188306670E+01 -0.2452761848888E+01  0.4770852986655E+00 -0.6260761702172E+00
-0.7463389047405E+00 -0.3142116749701E+01 -0.7776911424768E+00 -0.1276498918256E+00
-0.6758152955286E+00 -0.3172671941961E+01 -0.7696974589674E+00 -0.1234975841327E+00
-0.6066276104119E+00 -0.3201518747616E+01 -0.7616292829547E+00 -0.1138561483026E+00
-0.5410429341036E+00 -0.3227319776731E+01 -0.7536725533974E+00 -0.9909360747484E-01
-0.4811096050560E+00 -0.3248937727319E+01 -0.7460094775913E+00 -0.7993938885378E-01
-0.4284278566040E+00 -0.3265564370251E+01 -0.7387984563799E+00 -0.5735681539393E-01
-0.3840462581212E+00 -0.3276753356898E+01 -0.7321599339139E+00 -0.3236418741901E-01
-0.3484780892329E+00 -0.3282368673507E+01 -0.7261693633688E+00 -0.5877491065047E-02
-0.3217928055011E+00 -0.3282487378703E+01 -0.7208560475825E+00  0.2138541589672E-01
-0.3037325381920E+00 -0.3277295761726E+01 -0.7162056706558E+00  0.4893422325318E-01
-0.2938177017847E+00 -0.3267004396960E+01 -0.7121644303610E+00  0.7648516137249E-01
-0.2914239281791E+00 -0.3251791914268E+01 -0.7086431790491E+00  0.1039120264965E+00
-0.2958270500296E+00 -0.3231776483331E+01 -0.7055207171853E+00  0.1311880728033E+00
-0.3062209278067E+00 -0.3207008822519E+01 -0.7026459605354E+00  0.1583310392786E+00
-0.3217161423383E+00 -0.3177478778503E+01 -0.6998389945967E+00  0.1853578851383E+00
-0.3413274147927E+00 -0.3143129403851E+01 -0.6968913741133E+00  0.2122499970236E+00
-0.3639486953051E+00 -0.3103887432409E+01 -0.6935672358779E+00  0.2389396356924E+00
-0.3883262575351E+00 -0.3059706753383E+01 -0.6896066124595E+00  0.2653084170062E+00
-0.4130554110256E+00 -0.3010573890688E+01 -0.6847258705459E+00  0.2911479958445E+00
-0.4365784623082E+00 -0.2956490399932E+01 -0.6786137825602E+00  0.3161022986920E+00
-0.4571556720254E+00 -0.2897488130114E+01 -0.6709287704256E+00  0.3396344346149E+00
-0.4728247497100E+00 -0.2833661065797E+01 -0.6612971729556E+00  0.3610013670552E+00
-0.4813527952977E+00 -0.2765207178004E+01 -0.6493120043359E+00  0.3792306041886E+00
-0.4801828973081E+00 -0.2692477621496E+01 -0.6345321132162E+00  0.3931036039335E+00
-0.4663785302976E+00 -0.2616030559131E+01 -0.6164818270720E+00  0.4011528536580E+00
-0.4365698528826E+00 -0.2536692109686E+01 -0.5946524013748E+00  0.4016785886229E+00
-0.3869088751851E+00 -0.2455621678906E+01 -0.5685061192896E+00  0.3927935642692E+00
-0.3130360491607E+00 -0.2374362978532E+01 -0.5374798135477E+00  0.3724958342848E+00
-0.2100584915786E+00 -0.2294887554259E+01 -0.5009892166328E+00  0.3387856958663E+00
-0.7256629763889E-01 -0.2219657240868E+01 -0.4584447145328E+00  0.2898657706738E+00
 0.1052771552291E+00 -0.2151664548907E+01 -0.4092774848342E+00  0.2244250740604E+00
 0.3295389757362E+00 -0.2094403966645E+01 -0.3529730034415E+00  0.1419976441229E+00
 0.6061692973899E+00 -0.2051746966819E+01 -0.2891155381940E+00  0.4339335059060E-01
 0.9404519063863E+00 -0.2027672875297E+01 -0.2174441970223E+00 -0.6883882772678E-01
 0.1336234530962E+01 -0.2025811602076E+01 -0.1379154162780E+00 -0.1899959047620E+00
 0.1795063045709E+01 -0.2048793379936E+01 -0.5074606760161E-01 -0.3129794189606E+00
 0.2315550495636E+01 -0.2097520199680E+01  0.4360605984095E-01 -0.4283232194008E+00
 0.2892209100467E+01 -0.2170466038381E+01  0.1443486145681E+00 -0.5245488140903E+00
 0.3513387420260E+01 -0.2262821559605E+01  0.2501131758579E+00 -0.5892432521731E+00
 0.4160530143340E+01 -0.2365963458221E+01  0.3589133423721E+00 -0.6110493758578E+00
 0.4809266998302E+01 -0.2467962315223E+01  0.4682609435935E+00 -0.5818813044905E+00
-0.7468333252259E+00 -0.3139708420323E+01 -0.7773083606925E+00 -0.1162077832688E+00
-0.6782868277824E+00 -0.3169415741367E+01 -0.7695405252969E+00 -0.1124270962908E+00
-0.6110115397245E+00 -0.3197481347414E+01 -0.7616985887780E+00 -0.1036639153967E+00
-0.5471438656686E+00 -0.3222626212474E+01 -0.7539540268633E+00 -0.9024737670595E-01
-0.4886245522576E+00 -0.3243744310545E+01 -0.7464737836838E+00 -0.7280847057649E-01
-0.4370013790369E+00 -0.3260014930074E+01 -0.7394032728402E+00 -0.5218212456590E-01
-0.3933308153598E+00 -0.3270938312827E+01 -0.7328538365578E+00 -0.2926195199878E-01
-0.3581794443238E+00 -0.3276300032692E+01 -0.7268959062348E+00 -0.4866753201669E-02
-0.3316925666878E+00 -0.3276092915626E+01 -0.7215571072149E+00  0.2034596442307E-01
-0.3136898715254E+00 -0.3270428427221E+01 -0.7168236704308E+00  0.4591179442849E-01
-0.3037570169354E+00 -0.3259460291179E+01 -0.7126434722420E+00  0.7154711679849E-01
-0.3013158354629E+00 -0.3243330788874E+01 -0.7089293354312E+00  0.9711034676050E-01
-0.3056681808315E+00 -0.3222140794466E+01 -0.7055618055732E+00  0.1225527322969E+00
-0.3160159439885E+00 -0.3195939475544E+01 -0.7023910943730E+00  0.1478698168114E+00
-0.3314632407928E+00 -0.3164727294320E+01 -0.6992381174420E+00  0.1730600152237E+00
-0.3510071379331E+00 -0.3128467275269E+01 -0.6958948930101E+00  0.1980915801256E+00
-0.3735160529527E+00 -0.3087111833045E+01 -0.6921255875130E+00  0.2228890899623E+00
-0.3977045170661E+00 -0.3040642485892E+01 -0.6876694108387E+00  0.2473312023052E+00
-0.4221266648278E+00 -0.2989078746041E+01 -0.6822410923400E+00  0.2712120316649E+00
-0.4451705122052E+00 -0.2932467496939E+01 -0.6755276118949E+00  0.2941857124096E+00
-0.4650284645279E+00 -0.2870901592010E+01 -0.6671860212495E+00  0.3157360538839E+00
-0.4796578367409E+00 -0.2804553249369E+01 -0.6568422270096E+00  0.3351544072685E+00
-0.4867351686583E+00 -0.2733716790184E+01 -0.6440904013662E+00  0.3515198206137E+00
-0.4836068793891E+00 -0.2658858050659E+01 -0.6284929953749E+00  0.3636857962989E+00
-0.4672397404728E+00 -0.2580667323225E+01 -0.6095814218229E+00  0.3702803369183E+00
-0.4341758615936E+00 -0.2500117784452E+01 -0.5868587379540E+00  0.3697252192267E+00
-0.3804999584635E+00 -0.2418525659910E+01 -0.5598051320165E+00  0.3602826233869E+00
-0.3018227649921E+00 -0.2337594266096E+01 -0.5278834140837E+00  0.3401292668492E+00
-0.1932825848850E+00 -0.2259445957721E+01 -0.4905457158308E+00  0.3074730421790E+00
-0.4959154059246E-01 -0.2186662459826E+01 -0.4472508067483E+00  0.2607465098669E+00
 0.1348395541595E+00 -0.2122295259429E+01 -0.3974911469769E+00  0.1988747443974E+00
 0.3656697441268E+00 -0.2069803422049E+01 -0.3408267406631E+00  0.1216049170631E+00
 0.6482528798326E+00 -0.2032895143112E+01 -0.2769284567824E+00  0.2988999764387E-01
 0.9870816512337E+00 -0.2015235180263E+01 -0.2056307088700E+00 -0.7371555357355E-01
 0.1385049349585E+01 -0.2019989433877E+01 -0.1269880187507E+00 -0.1847252659364E+00
 0.1842667752773E+01 -0.2049219771875E+01 -0.4131040443590E-01 -0.2965656711829E+00
 0.2357576629076E+01 -0.2103254012600E+01  0.5086452405322E-01 -0.4006703966720E+00
 0.2923632299602E+01 -0.2180128958205E+01  0.1487006704952E+00 -0.4868648323090E+00
 0.3529197021992E+01 -0.2274924486242E+01  0.2508545108881E+00 -0.5443536173430E+00
 0.4156628619113E+01 -0.2379400819057E+01  0.3554455653076E+00 -0.5634121516571E+00
 0.4783324720285E+01 -0.2482491576279E+01  0.4601666356583E+00 -0.5372192452015E+00
-0.7472819964657E+00 -0.3137511936743E+01 -0.7769587982192E+00 -0.1050748244844E+00
-0.6805287797801E+00 -0.3166443659445E+01 -0.7693944993100E+00 -0.1016540927221E+00
-0.6149839336521E+00 -0.3193788508334E+01 -0.7617544997483E+00 -0.9373590601604E-01
-0.5526762733474E+00 -0.3218315471657E+01 -0.7541983602393E+00 -0.8161462667137E-01
-0.4954552895400E+00 -0.3238945704920E+01 -0.7468802100213E+00 -0.6583610116352E-01
-0.4448212016145E+00 -0.3254850202376E+01 -0.7399342918240E+00 -0.4712263856830E-01
-0.4018328955085E+00 -0.3265486273016E+01 -0.7334638446344E+00 -0.2625534374681E-01
-0.3670987735868E+00 -0.3270573938289E+01 -0.7275345532164E+00 -0.3961482276475E-02
-0.3408271836032E+00 -0.3270033516574E+01 -0.7221721507967E+00  0.1916243880698E-01
-0.3229044893593E+00 -0.3263910268105E+01 -0.7173629621823E+00  0.4268287739385E-01
-0.3129740501492E+00 -0.3252306142730E+01 -0.7130560492013E+00  0.6632331768546E-01
-0.3104997736681E+00 -0.3235329136914E+01 -0.7091657926838E+00  0.8993393859529E-01
-0.3148081811768E+00 -0.3213062773191E+01 -0.7055742013875E+00  0.1134502684373E+00
-0.3251097315931E+00 -0.3185553366668E+01 -0.7021326301148E+00  0.1368507010142E+00
-0.3405036801332E+00 -0.3152810129440E+01 -0.6986627723256E+00  0.1601190059118E+00
-0.3599715040056E+00 -0.3114814059437E+01 -0.6949571230442E+00  0.1832134443146E+00
-0.3823582344493E+00 -0.3071541422856E+01 -0.6907799417545E+00  0.2060536675213E+00
-0.4063488101968E+00 -0.3022999933104E+01 -0.6858697588804E+00  0.2285180280081E+00
-0.4304587438163E+00 -0.2969240774240E+01 -0.6799399137432E+00  0.2504063117452E+00
-0.4530252571811E+00 -0.2910354314154E+01 -0.6726759242907E+00  0.2713872253472E+00
-0.4721776704416E+00 -0.2846491562775E+01 -0.6637338565337E+00  0.2909707656064E+00
-0.4857991003275E+00 -0.2777898812701E+01 -0.6527395923322E+00  0.3084889941066E+00
-0.4914831561314E+00 -0.2704961020776E+01 -0.6392888449077E+00  0.3230793054449E+00
-0.4864885628170E+00 -0.2628251171481E+01 -0.6229479561423E+00  0.3336741357193E+00
-0.4676955747878E+00 -0.2548582009284E+01 -0.6032555258036E+00  0.3390034404400E+00
-0.4315694500354E+00 -0.2467061553492E+01 -0.5797262093441E+00  0.3376157100762E+00
-0.3741394409238E+00 -0.2385147729932E+01 -0.5518574423945E+00  0.3279252113903E+00
-0.2909982740620E+00 -0.2304685028369E+01 -0.5191366682218E+00  0.3082856927399E+00
-0.1773254721323E+00 -0.2227924804890E+01 -0.4810500625727E+00  0.2771042480743E+00
-0.2796062849367E-01 -0.2157544739819E+01 -0.4371010801759E+00  0.2330252826194E+00
 0.1624417606270E+00 -0.2096632057134E+01 -0.3868380650656E+00  0.1751794587715E+00
 0.3991521236112E+00 -0.2048592423809E+01 -0.3298880649554E+00  0.1034828278203E+00
 0.6869712589463E+00 -0.2016964670639E+01 -0.2659986863023E+00  0.1897489009838E-01
 0.1029676028286E+01 -0.2005112756584E+01 -0.1950873485666E+00 -0.7584690176510E-01
 0.1429317975915E+01 -0.2015779271591E+01 -0.1172922608830E+00 -0.1767678816083E+00
 0.1885522978538E+01 -0.2050527410002E+01 -0.3300088678467E-01 -0.2777677375151E+00
 0.2395126929465E+01 -0.2109201589352E+01  0.5718506887458E-01 -0.3711569941441E+00
 0.2951480780762E+01 -0.2189492476525E+01  0.1523976631184E+00 -0.4479663610401E+00
 0.3543022829725E+01 -0.2286420939977E+01  0.2513203816946E+00 -0.4988377845020E+00
 0.4152940424767E+01 -0.2392099655720E+01  0.3521681590569E+00 -0.5154638523341E+00
 0.4760188179059E+01 -0.2496219507065E+01  0.4527937411458E+00 -0.4921169719572E+00
-0.7476859584887E+00 -0.3135520963394E+01 -0.7766413959493E+00 -0.9422323231336E-01
-0.6825486405016E+00 -0.3163748644333E+01 -0.7692594684298E+00 -0.9115270087317E-01
-0.6185595070912E+00 -0.3190434564525E+01 -0.7617988256750E+00 -0.8405228085727E-01
-0.5576589741826E+00 -0.3214387069675E+01 -0.7544092200131E+00 -0.7318441569149E-01
-0.5016194880157E+00 -0.3234550672598E+01 -0.7472340432575E+00 -0.5902033459731E-01
-0.4518987947145E+00 -0.3250091012891E+01 -0.7403979725538E+00 -0.4218275436730E-01
-0.4095545293728E+00 -0.3260430901259E+01 -0.7339970970638E+00 -0.2335082687744E-01
-0.3752277292435E+00 -0.3265235732572E+01 -0.7280927032126E+00 -0.3165695665040E-02
-0.3491788959296E+00 -0.3264363783859E+01 -0.7227085467268E+00  0.1783701354122E-01
-0.3313513238934E+00 -0.3257802257660E+01 -0.7178307270071E+00  0.3925837724306E-01
-0.3214389362783E+00 -0.3245606536410E+01 -0.7134091051682E+00  0.6083474698983E-01
-0.3189434847935E+00 -0.3227852843614E+01 -0.7093592762518E+00  0.8241427058848E-01
-0.3232144394002E+00 -0.3204607820720E+01 -0.7055644625379E+00  0.1039224178127E+00
-0.3334709428054E+00 -0.3175914076953E+01 -0.7018770144105E+00  0.1253251314428E+00
-0.3488086557152E+00 -0.3141787994604E+01 -0.6981193404666E+00  0.1465952880147E+00
-0.3681953569185E+00 -0.3102226635315E+01 -0.6940844087893E+00  0.1676842623575E+00
-0.3904548471141E+00 -0.3057228191690E+01 -0.6895366180357E+00  0.1885095279962E+00
-0.4142447878855E+00 -0.3006824890278E+01 -0.6842139458282E+00  0.2089517557533E+00
-0.4380448972035E+00 -0.2951097874644E+01 -0.6778285644700E+00  0.2288194843856E+00
-0.4601454127382E+00 -0.2890178627339E+01 -0.6700648180001E+00  0.2478000682454E+00
-0.4786176148827E+00 -0.2824272856164E+01 -0.6605781040528E+00  0.2654347405333E+00
-0.4912768032587E+00 -0.2753696107117E+01 -0.6489945917459E+00  0.2811020346718E+00
-0.4956413438060E+00 -0.2678917570904E+01 -0.6349117924030E+00  0.2940038252026E+00
-0.4888911245324E+00 -0.2600609179171E+01 -0.6179000699480E+00  0.3031575740949E+00
-0.4678296869819E+00 -0.2519695891142E+01 -0.5975051245283E+00  0.3074006841825E+00
-0.4288558462738E+00 -0.2437408053449E+01 -0.5732527884867E+00  0.3054124363662E+00
-0.3679538334578E+00 -0.2355330349769E+01 -0.5446568447615E+00  0.2957606441355E+00
-0.2807078596966E+00 -0.2275430960229E+01 -0.5112277716029E+00  0.2769732777404E+00
-0.1623454481559E+00 -0.2200070501682E+01 -0.4724831970081E+00  0.2476473652241E+00
-0.7834789310195E-02 -0.2132002152340E+01 -0.4279673947072E+00  0.2066209740826E+00
 0.1879347885976E+00 -0.2074330627498E+01 -0.3772791734019E+00  0.1532012562074E+00
 0.4298696115358E+00 -0.2030396467917E+01 -0.3201053760462E+00  0.8743252170974E-01
 0.7222641378324E+00 -0.2003569669041E+01 -0.2562611100603E+00  0.1039083115987E-01
 0.1068254182649E+01 -0.1996932448720E+01 -0.1857356559820E+00 -0.7553612681300E-01
 0.1469154858004E+01 -0.2012846334472E+01 -0.1087382969139E+00 -0.1664489505249E+00
 0.1923837468592E+01 -0.2052440845232E+01 -0.2572067571119E-01 -0.2568976217098E+00
 0.2428476411036E+01 -0.2115155451952E+01  0.6266419275046E-01 -0.3400416280602E+00
 0.2976035563904E+01 -0.2198407315674E+01  0.1555256519635E+00 -0.4080269942364E+00
 0.3555068863943E+01 -0.2297194133958E+01  0.2515749497457E+00 -0.4527803682965E+00
 0.4149513841351E+01 -0.2403950482788E+01  0.3491126769148E+00 -0.4672331872531E+00
 0.4739693943688E+01 -0.2509032504384E+01  0.4461322945086E+00 -0.4466010785661E+00
-0.7480462203648E+00 -0.3133731406249E+01 -0.7763555368914E+00 -0.8362559893375E-01
-0.6843525508631E+00 -0.3161326091206E+01 -0.7691357398749E+00 -0.8089710307581E-01
-0.6217503212257E+00 -0.3187416070436E+01 -0.7618332896845E+00 -0.7459219263138E-01
-0.5621075544272E+00 -0.3210841802365E+01 -0.7545898826026E+00 -0.6494333203754E-01
-0.5071320172357E+00 -0.3230567653270E+01 -0.7475399452404E+00 -0.5235546090270E-01
-0.4582440585439E+00 -0.3245755940714E+01 -0.7408000108904E+00 -0.3736241830933E-01
-0.4164977585630E+00 -0.3255801790636E+01 -0.7344599207841E+00 -0.2055046185184E-01
-0.3825594731121E+00 -0.3260325267241E+01 -0.7285769589273E+00 -0.2479640158612E-02
-0.3567326063073E+00 -0.3259131925652E+01 -0.7231729171679E+00  0.1637468348483E-01
-0.3390086968894E+00 -0.3252158542674E+01 -0.7182334586152E+00  0.3565100484130E-01
-0.3291255417267E+00 -0.3239419145797E+01 -0.7137089481397E+00  0.5510328075935E-01
-0.3266184968600E+00 -0.3220961011894E+01 -0.7095159123234E+00  0.7458296570842E-01
-0.3308580005406E+00 -0.3196834791003E+01 -0.7055385688220E+00  0.9401050753629E-01
-0.3410716585725E+00 -0.3167078911013E+01 -0.7016301243721E+00  0.1133437067796E+00
-0.3563525209572E+00 -0.3131715595046E+01 -0.6976136335958E+00  0.1325480881319E+00
-0.3756564078786E+00 -0.3090756141100E+01 -0.6932825201264E+00  0.1515711357830E+00
-0.3977880460413E+00 -0.3044218663583E+01 -0.6884013521829E+00  0.1703308208898E+00
-0.4213802681076E+00 -0.2992158004338E+01 -0.6827076646623E+00  0.1887126695654E+00
-0.4448800533243E+00 -0.2934683203435E+01 -0.6759126614237E+00  0.2065368833276E+00
-0.4665347300835E+00 -0.2871964017990E+01 -0.6676997595643E+00  0.2235132255313E+00
-0.4843628163351E+00 -0.2804256849867E+01 -0.6577239430413E+00  0.2392187622713E+00
-0.4961183219970E+00 -0.2731941093584E+01 -0.6456118927365E+00  0.2530836932045E+00
-0.4992520758174E+00 -0.2655563181895E+01 -0.6309630609445E+00  0.2643798399423E+00
-0.4908738250801E+00 -0.2575885246148E+01 -0.6133518233853E+00  0.2722150185858E+00
-0.4677197768428E+00 -0.2493933808772E+01 -0.5923307259494E+00  0.2755387110051E+00
-0.4261318926342E+00 -0.2411048887691E+01 -0.5674361645205E+00  0.2731641231809E+00
-0.3620584463897E+00 -0.2328927311074E+01 -0.5381971595126E+00  0.2638131245121E+00
-0.2710825065117E+00 -0.2249644519362E+01 -0.5041454126870E+00  0.2461842883912E+00
-0.1484833789767E+00 -0.2175652709566E+01 -0.4648272246349E+00  0.2190549182944E+00
 0.1064486628760E-01 -0.2109763372083E+01 -0.4198237074149E+00  0.1814390280245E+00
 0.2111912632586E+00 -0.2055084955900E+01 -0.3687787440236E+00  0.1327930522255E+00
 0.4577265837329E+00 -0.2014886506414E+01 -0.3114319891770E+00  0.7325285683053E-01
 0.7540879617525E+00 -0.1992375056238E+01 -0.2476574225875E+00  0.3887457723126E-02
 0.1102843500531E+01 -0.1990373949448E+01 -0.1775060924285E+00 -0.7306931448015E-01
 0.1504669716581E+01 -0.2010906197312E+01 -0.1012472976547E+00 -0.1540670543622E+00
 0.1957799449815E+01 -0.2054727610237E+01 -0.1938563237340E-01 -0.2342351229904E+00
 0.2457865246096E+01 -0.2120940292498E+01  0.6738499172364E-01 -0.3075519748249E+00
 0.2997536765088E+01 -0.2206745967211E+01  0.1581581619321E+00 -0.3671983313270E+00
 0.3565506195827E+01 -0.2307143565273E+01  0.2516725298611E+00 -0.4062563572685E+00
 0.4146384161865E+01 -0.2414859198547E+01  0.3463049978240E+00 -0.4187472929244E+00
 0.4721690554518E+01 -0.2520831110660E+01  0.4401718953307E+00 -0.4006996534551E+00
-0.7483637442441E+00 -0.3132140860832E+01 -0.7761009325801E+00 -0.7325478993873E-01
-0.6859455396810E+00 -0.3159173245868E+01 -0.7690237685692E+00 -0.7086150634988E-01
-0.6245662343723E+00 -0.3184731250277E+01 -0.7618595082824E+00 -0.6533396690786E-01
-0.5660348690948E+00 -0.3207681373155E+01 -0.7547432596964E+00 -0.5687593755139E-01
-0.5120053092709E+00 -0.3227004663620E+01 -0.7478020057213E+00 -0.4583264147435E-01
-0.4638654478385E+00 -0.3241861494981E+01 -0.7411453996079E+00 -0.3265781020890E-01
-0.4226645229847E+00 -0.3251624840073E+01 -0.7348578835618E+00 -0.1785250252778E-01
-0.3890884003872E+00 -0.3255877367522E+01 -0.7289931644447E+00 -0.1900224232117E-02
-0.3634755332189E+00 -0.3254380208446E+01 -0.7235711591149E+00  0.1478301021239E-01
-0.3458579766299E+00 -0.3247026823814E+01 -0.7185769707965E+00  0.3187517262085E-01
-0.3360111686623E+00 -0.3233795021520E+01 -0.7139612486753E+00  0.4915168795467E-01
-0.3334998892293E+00 -0.3214706167341E+01 -0.7096412218885E+00  0.6647186226573E-01
-0.3377133860967E+00 -0.3189796136317E+01 -0.7055019149956E+00  0.8375554546511E-01
-0.3478872441927E+00 -0.3159099012274E+01 -0.7013972617450E+00  0.1009562850061E+00
-0.3631126545997E+00 -0.3122641744434E+01 -0.6971508901950E+00  0.1180355309204E+00
-0.3823350893734E+00 -0.3080448113738E+01 -0.6925566509421E+00  0.1349397012978E+00
-0.4043423529446E+00 -0.3032554085969E+01 -0.6873792980255E+00  0.1515898064098E+00
-0.4277450033290E+00 -0.2979035034207E+01 -0.6813560176602E+00  0.1678786274238E+00
-0.4509605257438E+00 -0.2920025524527E+01 -0.6741972201006E+00  0.1836407301611E+00
-0.4721976360775E+00 -0.2855730333125E+01 -0.6655856037585E+00  0.1986117111372E+00
-0.4894275596114E+00 -0.2786452071255E+01 -0.6551759359361E+00  0.2124086019969E+00
-0.5003496561794E+00 -0.2712628068365E+01 -0.6425955544843E+00  0.2245178949104E+00
-0.5023549116112E+00 -0.2634874506902E+01 -0.6274458930523E+00  0.2342861730526E+00
-0.4924914389307E+00 -0.2554034530220E+01 -0.6093052029095E+00  0.2409162112274E+00
-0.4674370414319E+00 -0.2471225277888E+01 -0.5877324726218E+00  0.2434734242647E+00
-0.4234855971399E+00 -0.2387883764257E+01 -0.5622738806579E+00  0.2409072865468E+00
-0.3565571587078E+00 -0.2305804778476E+01 -0.5324723953713E+00  0.2320935170938E+00
-0.2622390443292E+00 -0.2227155685621E+01 -0.4978789534091E+00  0.2158971951815E+00
-0.1358634059502E+00 -0.2154464567311E+01 -0.4580656014779E+00  0.1912662681418E+00
 0.2735589725672E-01 -0.2090587049263E+01 -0.4126462365502E+00  0.1573739032671E+00
 0.2321031091498E+00 -0.2038625521613E+01 -0.3613044878765E+00  0.1138008905939E+00
 0.4826451544679E+00 -0.2001775697908E+01 -0.3038261132154E+00  0.6074200979798E-01
 0.7824122578594E+00 -0.1983091777221E+01 -0.2401359074507E+00 -0.7783443001213E-03
 0.1133476101368E+01 -0.1985163755245E+01 -0.1703375333136E+00 -0.6871667610491E-01
 0.1535965218435E+01 -0.2009718146259E+01 -0.9475058697666E-01 -0.1398974235121E+00
 0.1987576641178E+01 -0.2057192052012E+01 -0.1392308237423E-01 -0.2100327550459E+00
 0.2483501769804E+01 -0.2126408443650E+01  0.7141866629497E-01 -0.2738901352581E+00
 0.3016188737899E+01 -0.2214400180931E+01  0.1603577137831E+00 -0.3256138896236E+00
 0.3574477565806E+01 -0.2316183321694E+01  0.2516588525724E+00 -0.3593325399419E+00
 0.4143575956463E+01 -0.2424744919224E+01  0.3437662125703E+00 -0.3700322829815E+00
 0.4706039967853E+01 -0.2531528361864E+01  0.4349023276784E+00 -0.3544432394468E+00
-0.7486394296268E+00 -0.3130748157262E+01 -0.7758775289392E+00 -0.6308386548900E-01
-0.6873317107970E+00 -0.3157288711928E+01 -0.7689240960029E+00 -0.6102011911677E-01
-0.6270152668036E+00 -0.3182379536260E+01 -0.7618789719656E+00 -0.5625524821377E-01
-0.5694514572231E+00 -0.3204908066158E+01 -0.7548719159248E+00 -0.4896513231827E-01
-0.5162496764461E+00 -0.3223869185290E+01 -0.7480237834937E+00 -0.3944044508770E-01
-0.4687701005479E+00 -0.3238422230963E+01 -0.7414384773505E+00 -0.2806194034875E-01
-0.4280565914246E+00 -0.3247922545492E+01 -0.7351958383385E+00 -0.1525194045691E-01
-0.3948099239866E+00 -0.3251922211838E+01 -0.7293464380330E+00 -0.1421435776412E-02
-0.3693969227267E+00 -0.3250145342965E+01 -0.7239084639254E+00  0.1307185402012E-01
-0.3518832812147E+00 -0.3242448692824E+01 -0.7188664055197E+00  0.2794686143647E-01
-0.3420762902686E+00 -0.3228778856908E+01 -0.7141710400774E+00  0.4300359915140E-01
-0.3395660757596E+00 -0.3209134454740E+01 -0.7097401166759E+00  0.5811304943651E-01
-0.3437584224129E+00 -0.3183538052100E+01 -0.7054593054148E+00  0.7319829431707E-01
-0.3538962085417E+00 -0.3152019480101E+01 -0.7011831481769E+00  0.8821207780468E-01
-0.3690693304653E+00 -0.3114609479750E+01 -0.6967357724252E+00  0.1031147456340E+00
-0.3882144138695E+00 -0.3071342625917E+01 -0.6919114182675E+00  0.1178542506656E+00
-0.4101044845822E+00 -0.3022270610864E+01 -0.6864750293185E+00  0.1323569978619E+00
-0.4333304642131E+00 -0.2967487095740E+01 -0.6801635221258E+00  0.1465252413860E+00
-0.4562837432892E+00 -0.2907149535657E+01 -0.6726866658131E+00  0.1602103713727E+00
-0.4771389055701E+00 -0.2841494108235E+01 -0.6637266126513E+00  0.1731768842933E+00
-0.4938255107037E+00 -0.2770864731016E+01 -0.6529380580736E+00  0.1850854373814E+00
-0.5039949910801E+00 -0.2695750317299E+01 -0.6399490712118E+00  0.1954828759362E+00
-0.5049861490039E+00 -0.2616828887648E+01 -0.6243630166341E+00  0.2037947245996E+00
-0.4937937644883E+00 -0.2535015060672E+01 -0.6057617740586E+00  0.2093226417545E+00
-0.4670457188286E+00 -0.2451505448351E+01 -0.5837102421338E+00  0.2112511365866E+00
-0.4209957852490E+00 -0.2367821455169E+01 -0.5577634563948E+00  0.2086676476041E+00
-0.3515422840794E+00 -0.2285842133563E+01 -0.5274768913884E+00  0.2006010379097E+00
-0.2542803652866E+00 -0.2207812520641E+01 -0.4924185845232E+00  0.1860786108852E+00
-0.1245936685008E+00 -0.2136322743896E+01 -0.4521832892174E+00  0.1642097107455E+00
 0.4219316250070E-01 -0.2074261095310E+01 -0.4064135926178E+00  0.1343111582054E+00
 0.2505794604446E+00 -0.2024717557902E+01 -0.3548276247789E+00  0.9606573167368E-01
 0.5045624408071E+00 -0.1990816458344E+01 -0.2972508079368E+00  0.4969858273768E-01
 0.8072165625984E+00 -0.1975472636834E+01 -0.2336512183289E+00 -0.3842452171077E-02
 0.1160186028492E+01 -0.1981070050077E+01 -0.1641768067633E+00 -0.6273404943738E-01
 0.1563135279511E+01 -0.2009079714217E+01 -0.8918888827021E-01 -0.1241950308894E+00
 0.2013316531083E+01 -0.2059670376954E+01 -0.9270769312362E-02 -0.1845200326625E+00
 0.2505565090534E+01 -0.2131436226083E+01  0.7482577400508E-01 -0.2392370673219E+00
 0.3032164233206E+01 -0.2221278743043E+01  0.1621771004493E+00 -0.2833923167531E+00
 0.3582101226734E+01 -0.2324240483154E+01  0.2515721524646E+00 -0.3120689113572E+00
 0.4141105343344E+01 -0.2433538357286E+01  0.3415134023005E+00 -0.3211138276505E+00
 0.4692618478151E+01 -0.2541048657222E+01  0.4303139705979E+00 -0.3078652125200E+00
-0.7488740985095E+00 -0.3129552986160E+01 -0.7756854284924E+00 -0.5308602027704E-01
-0.6885143913701E+00 -0.3155672044770E+01 -0.7688372986847E+00 -0.5134713456457E-01
-0.6291038952038E+00 -0.3180361183409E+01 -0.7618930270756E+00 -0.4733312067630E-01
-0.5723658849567E+00 -0.3202524463454E+01 -0.7549780809321E+00 -0.4119245835808E-01
-0.5198735846988E+00 -0.3221168051424E+01 -0.7482083383738E+00 -0.3316530425241E-01
-0.4729639625727E+00 -0.3235450823078E+01 -0.7416829681822E+00 -0.2356517326097E-01
-0.4326755224911E+00 -0.3244714223510E+01 -0.7354779601597E+00 -0.1274100106656E-01
-0.3997203075413E+00 -0.3248485640073E+01 -0.7296412003954E+00 -0.1034742224656E-02
-0.3744878112586E+00 -0.3246458809700E+01 -0.7241893349829E+00  0.1125309877355E-01
-0.3570712250838E+00 -0.3238459926816E+01 -0.7191062410955E+00  0.2388346622785E-01
-0.3473043175216E+00 -0.3224409227691E+01 -0.7143427196870E+00  0.3668345029982E-01
-0.3447986083642E+00 -0.3204285821393E+01 -0.7098168965285E+00  0.4953888128051E-01
-0.3489740811393E+00 -0.3178100616202E+01 -0.7054149499798E+00  0.6237933158515E-01
-0.3590800705507E+00 -0.3145879484490E+01 -0.7009919214537E+00  0.7515973954043E-01
-0.3742055931614E+00 -0.3107656173368E+01 -0.6963723636827E+00  0.8784197614723E-01
-0.3932798403209E+00 -0.3063474417127E+01 -0.6913508617915E+00  0.1003778623804E+00
-0.4150631934396E+00 -0.3013399464709E+01 -0.6856925418474E+00  0.1127013231810E+00
-0.4381296418179E+00 -0.2957540887859E+01 -0.6791341160552E+00  0.1247260831264E+00
-0.4608480058838E+00 -0.2896076166150E+01 -0.6713848444111E+00  0.1363225461178E+00
-0.4813633675716E+00 -0.2829268950088E+01 -0.6621264733984E+00  0.1472868004280E+00
-0.4975693742742E+00 -0.2757499202013E+01 -0.6510137249584E+00  0.1573263097232E+00
-0.5070763124674E+00 -0.2681300697499E+01 -0.6376754114954E+00  0.1660517722587E+00
-0.5071784102080E+00 -0.2601405037704E+01 -0.6217166988467E+00  0.1729712199250E+00
-0.4948252074623E+00 -0.2518788507822E+01 -0.6027227520381E+00  0.1774884848428E+00
-0.4666027132066E+00 -0.2434715922874E+01 -0.5802637358628E+00  0.1789097216605E+00
-0.4187318346053E+00 -0.2350780596659E+01 -0.5539024945067E+00  0.1764615143396E+00
-0.3470945095632E+00 -0.2268932650352E+01 -0.5232054397794E+00  0.1693248594176E+00
-0.2472956838812E+00 -0.2191481568663E+01 -0.4877554577769E+00  0.1566850741657E+00
-0.1147670122024E+00 -0.2121067373919E+01 -0.4471668838876E+00  0.1378043377371E+00
 0.5506755819396E-01 -0.2060601938344E+01 -0.4011068820070E+00  0.1121292110966E+00
 0.2665448058910E+00 -0.2013159427801E+01 -0.3493229295874E+00  0.7942485089476E-01
 0.5234282109753E+00 -0.1981797834974E+01 -0.2916739291459E+00  0.3992230845449E-01
 0.8284878677089E+00 -0.1969308707660E+01 -0.2281641713901E+00 -0.5533840151055E-02
 0.1183007014806E+01 -0.1977898413312E+01 -0.1589782820702E+00 -0.5536452093651E-01
 0.1586263837950E+01 -0.2008822205026E+01 -0.8451167467460E-01 -0.1071974956694E+00
 0.2035146791657E+01 -0.2062026659053E+01 -0.5375973559338E-02 -0.1579072300012E+00
 0.2524207328003E+01 -0.2135920982048E+01  0.7765727034818E-01 -0.2037563184990E+00
 0.3045607801619E+01 -0.2227305567098E+01  0.1636604493430E+00 -0.2406400956315E+00
 0.3588474175222E+01 -0.2331253750045E+01  0.2514440887822E+00 -0.2645199711791E+00
 0.4138982068090E+01 -0.2441180638778E+01  0.3395602909222E+00 -0.2720176172051E+00
 0.4681317293699E+01 -0.2549326968185E+01  0.4263980714565E+00 -0.2610018163906E+00
-0.7490684818381E+00 -0.3128555592869E+01 -0.7755248264976E+00 -0.4323453876463E-01
-0.6894962489618E+00 -0.3154323419185E+01 -0.7687639450847E+00 -0.4181672010894E-01
-0.6308372890167E+00 -0.3178676950993E+01 -0.7619028593551E+00 -0.3854420999873E-01
-0.5747850265133E+00 -0.3200533204304E+01 -0.7550636574147E+00 -0.3353835625437E-01
-0.5228838851261E+00 -0.3218907338655E+01 -0.7483582559077E+00 -0.2699190798596E-01
-0.4764519032182E+00 -0.3232958107944E+01 -0.7418820132873E+00 -0.1915569065518E-01
-0.4365226461780E+00 -0.3242016181981E+01 -0.7357077765947E+00 -0.1030959722941E-01
-0.4038165372594E+00 -0.3245589401534E+01 -0.7298811986347E+00 -0.7294721058003E-03
-0.3787408325204E+00 -0.3243347129964E+01 -0.7244176032916E+00  0.9340374507087E-02
-0.3614107055301E+00 -0.3235090740753E+01 -0.7193002999749E+00  0.1970362654700E-01
-0.3516813973447E+00 -0.3220718803597E+01 -0.7144800508349E+00  0.3021640682510E-01
-0.3491820028008E+00 -0.3200194183526E+01 -0.7098752478433E+00  0.4078197292489E-01
-0.3533443345681E+00 -0.3173517918536E+01 -0.7053724611316E+00  0.5133909722808E-01
-0.3634232360552E+00 -0.3140712374555E+01 -0.7008271325651E+00  0.6184745135799E-01
-0.3785071427802E+00 -0.3101813638900E+01 -0.6960641667083E+00  0.7227269382802E-01
-0.3975191512710E+00 -0.3056873015611E+01 -0.6908784436714E+00  0.8257254354040E-01
-0.4192091230655E+00 -0.3005967103816E+01 -0.6850352555842E+00  0.9269030319042E-01
-0.4421368702706E+00 -0.2949218896876E+01 -0.6782711635363E+00  0.1025529117433E+00
-0.4646522677704E+00 -0.2886822843430E+01 -0.6702950322283E+00  0.1120516808264E+00
-0.4848756463849E+00 -0.2819065876675E+01 -0.6607883144585E+00  0.1210165924725E+00
-0.5006705941820E+00 -0.2746358441318E+01 -0.6494058167770E+00  0.1292046136764E+00
-0.5096130729856E+00 -0.2669272145858E+01 -0.6357770532426E+00  0.1362932409991E+00
-0.5089602878471E+00 -0.2588583634129E+01 -0.6195087936266E+00  0.1418759863939E+00
-0.4956244314831E+00 -0.2505320841604E+01 -0.6001890635609E+00  0.1454615547230E+00
-0.4661572908731E+00 -0.2420805446948E+01 -0.5773925561680E+00  0.1464797632860E+00
-0.4167534772352E+00 -0.2336690348274E+01 -0.5506887733077E+00  0.1442971283129E+00
-0.3432828859495E+00 -0.2254984028743E+01 -0.5196533906819E+00  0.1382456341552E+00
-0.2413608143934E+00 -0.2178048134129E+01 -0.4838817969148E+00  0.1276646917591E+00
-0.1064616554688E+00 -0.2108561918492E+01 -0.4430047213934E+00  0.1119616861528E+00
 0.6590488337325E-01 -0.2049453793445E+01 -0.3967097879258E+00  0.9070082217599E-01
 0.2799373737516E+00 -0.2003781151799E+01 -0.3447687607469E+00  0.6371291337908E-01
 0.5392028932678E+00 -0.1974543214649E+01 -0.2870680685540E+00  0.3121443518639E-01
 0.8462185218464E+00 -0.1964426279727E+01 -0.2236415549087E+00 -0.6075152516939E-02
 0.1201970720293E+01 -0.1975488258203E+01 -0.1547035098872E+00 -0.4684011220572E-01
 0.1605423975328E+01 -0.2008807051439E+01 -0.8067661642440E-01 -0.8912780090514E-01
 0.2053175746480E+01 -0.2064149629383E+01 -0.2194776613240E-02 -0.1303887066641E+00
 0.2539555509772E+01 -0.2139778671266E+01  0.7995536889273E-01 -0.1675972243620E+00
 0.3056638585612E+01 -0.2232418098753E+01  0.1648440998283E+00 -0.1974538579449E+00
 0.3593674857241E+01 -0.2337172326357E+01  0.2513005099214E+00 -0.2167358689121E+00
 0.4137211313085E+01 -0.2447622448333E+01  0.3379177779857E+00 -0.2227696745157E+00
 0.4672042875892E+01 -0.2556308283141E+01  0.4231469248555E+00 -0.2138919962641E+00
-0.7492232075574E+00 -0.3127756530258E+01 -0.7753959591175E+00 -0.3350276272149E-01
-0.6902793832280E+00 -0.3153243360387E+01 -0.7687045601777E+00 -0.3240301222979E-01
-0.6322194982530E+00 -0.3177327842553E+01 -0.7619094795146E+00 -0.2986477177105E-01
-0.5767142912963E+00 -0.3198936783942E+01 -0.7551302263001E+00 -0.2598238560631E-01
-0.5252860064462E+00 -0.3217092269192E+01 -0.7484756662808E+00 -0.2090354423723E-01
-0.4792378178436E+00 -0.3230953107308E+01 -0.7420381960876E+00 -0.1481990446477E-01
-0.4395990586768E+00 -0.3239841848657E+01 -0.7358881924323E+00 -0.7945746066628E-02
-0.4070962247714E+00 -0.3243251351828E+01 -0.7300695261988E+00 -0.4931785502620E-03
-0.3821500625704E+00 -0.3240832087903E+01 -0.7245964408920E+00  0.7348780906144E-02
-0.3648927260848E+00 -0.3232365999651E+01 -0.7194517558678E+00  0.1542704657881E-01
-0.3551962416097E+00 -0.3217734530564E+01 -0.7145861650830E+00  0.2362827250323E-01
-0.3527035879516E+00 -0.3196887572975E+01 -0.7099182427639E+00  0.3187518224800E-01
-0.3568560280981E+00 -0.3169818177770E+01 -0.7053348516840E+00  0.4011793109330E-01
-0.3669128876560E+00 -0.3136545777474E+01 -0.7006917434671E+00  0.4832300102466E-01
-0.3819622312520E+00 -0.3097108227728E+01 -0.6958141021644E+00  0.5646171273389E-01
-0.4009223429891E+00 -0.3051562848366E+01 -0.6904970485601E+00  0.6449938039961E-01
-0.4225346801665E+00 -0.2999995352725E+01 -0.6845060167782E+00  0.7239024421660E-01
-0.4453476716399E+00 -0.2942539576394E+01 -0.6775774597036E+00  0.8007592071009E-01
-0.4676959494462E+00 -0.2879403725778E+01 -0.6694199450201E+00  0.8747020681937E-01
-0.4876799385402E+00 -0.2810893612098E+01 -0.6597147199581E+00  0.9443887803656E-01
-0.5031390971714E+00 -0.2737444353951E+01 -0.6481166998821E+00  0.1007906143450E+00
-0.5116219089981E+00 -0.2659658114189E+01 -0.6342560140885E+00  0.1062721083453E+00
-0.5103560480158E+00 -0.2578347819513E+01 -0.6177407827109E+00  0.1105647522671E+00
-0.4962240702577E+00 -0.2494582884597E+01 -0.5981613998843E+00  0.1132842716724E+00
-0.4657508379021E+00 -0.2409730480063E+01 -0.5750962721626E+00  0.1139856979658E+00
-0.4151106554932E+00 -0.2325490926971E+01 -0.5481203246605E+00  0.1121759763476E+00
-0.3401648516591E+00 -0.2243918809125E+01 -0.5168167398581E+00  0.1073369432873E+00
-0.2365384444503E+00 -0.2167416466329E+01 -0.4807909893202E+00  0.9895865490420E-01
-0.9974179366496E-01 -0.2098692987054E+01 -0.4396869626957E+00  0.8658720590745E-01
 0.7464484899965E-01 -0.2040687983096E+01 -0.3932086326785E+00  0.6989434143292E-01
 0.2907077572941E+00 -0.1996443113423E+01 -0.3411470763093E+00  0.4876278353843E-01
 0.5518559215826E+00 -0.1968908369744E+01 -0.2834104938554E+00  0.2337785895035E-01
 0.8604045324098E+00 -0.1960684318188E+01 -0.2200559604347E+00 -0.5683452296539E-02
 0.1217105357197E+01 -0.1973709920118E+01 -0.1513209148391E+00 -0.3738349382073E-01
 0.1620677294602E+01 -0.2008922883975E+01 -0.7764911903159E-01 -0.7019684133944E-01
 0.2067492837080E+01 -0.2065950114083E+01  0.3085446039484E-03 -0.1021458852342E+00
 0.2551713154151E+01 -0.2142941942049E+01  0.8175424363873E-01 -0.1308976956573E+00
 0.3065352596939E+01 -0.2236566017929E+01  0.1657573182719E+00 -0.1539223854337E+00
 0.3597765403952E+01 -0.2341955040583E+01  0.2511620764164E+00 -0.1687633860762E+00
 0.4135795209783E+01 -0.2452823415016E+01  0.3365943639691E+00 -0.1733965267630E+00
 0.4664717143660E+01 -0.2561947215557E+01  0.4205539918874E+00 -0.1665771073598E+00
-0.7493387904522E+00 -0.3127156462615E+01 -0.7752990621663E+00 -0.2386406853504E-01
-0.6908653966353E+00 -0.3152432530469E+01 -0.7686595968748E+00 -0.2308011588270E-01
-0.6332536001740E+00 -0.3176314898108E+01 -0.7619137110098E+00 -0.2127076983384E-01
-0.5781578038233E+00 -0.3197737389668E+01 -0.7551790499514E+00 -0.1850341792168E-01
-0.5270841109831E+00 -0.3215727126093E+01 -0.7485622585696E+00 -0.1488240294937E-01
-0.4813247154556E+00 -0.3229443038162E+01 -0.7421535617825E+00 -0.1054282974946E-01
-0.4419056249212E+00 -0.3238201866762E+01 -0.7360215093042E+00 -0.5635954916175E-02
-0.4095575346897E+00 -0.3241485606249E+01 -0.7302086390687E+00 -0.3119863155697E-03
-0.3847108980468E+00 -0.3238930908164E+01 -0.7247283720414E+00  0.5294613435036E-02
-0.3675102539337E+00 -0.3230305392193E+01 -0.7195631399476E+00  0.1107430809971E-01
-0.3578399862537E+00 -0.3215477782861E+01 -0.7146635644722E+00  0.1694538678430E-01
-0.3553533794331E+00 -0.3194388262028E+01 -0.7099483388713E+00  0.2285158004037E-01
-0.3594987715962E+00 -0.3167023842370E+01 -0.7053045333030E+00  0.2875610194403E-01
-0.3695388897813E+00 -0.3133401685120E+01 -0.7005881254198E+00  0.3463385920169E-01
-0.3845615726052E+00 -0.3093560913559E+01 -0.6956245075984E+00  0.4046330668435E-01
-0.4034815307357E+00 -0.3047563336689E+01 -0.6902089837698E+00  0.4621869614680E-01
-0.4250339252686E+00 -0.2995501523121E+01 -0.6841070998719E+00  0.5186644273263E-01
-0.4477586244723E+00 -0.2937517500582E+01 -0.6770552350998E+00  0.5736400089591E-01
-0.4699787793930E+00 -0.2873829899278E+01 -0.6687617456994E+00  0.6264889719109E-01
-0.4897798261634E+00 -0.2804758834681E+01 -0.6589077419875E+00  0.6762418810520E-01
-0.5049830796830E+00 -0.2730758097214E+01 -0.6471482450227E+00  0.7215198686279E-01
-0.5131164067846E+00 -0.2652452931097E+01 -0.6331138770104E+00  0.7605003888914E-01
-0.5113853876047E+00 -0.2570683616490E+01 -0.6164138100043E+00  0.7908946262966E-01
-0.4966504960992E+00 -0.2486550764478E+01 -0.5966402610060E+00  0.8099463625554E-01
-0.4654166711103E+00 -0.2401455657250E+01 -0.5733744742160E+00  0.8144694912019E-01
-0.4138434199714E+00 -0.2317134030293E+01 -0.5461954981918E+00  0.8009406926446E-01
-0.3377862750286E+00 -0.2235674687960E+01 -0.5146922002672E+00  0.7656667844870E-01
-0.2328783874147E+00 -0.2159509876366E+01 -0.4784776598861E+00  0.7050264737702E-01
-0.9465812414027E-01 -0.2091370148804E+01 -0.4372056611037E+00  0.6158157375552E-01
 0.8124024107317E-01 -0.2034202335219E+01 -0.3905924246495E+00  0.4957476341319E-01
 0.2988177784638E+00 -0.1991034960926E+01 -0.3384434415356E+00  0.3440612193844E-01
 0.5613643948782E+00 -0.1964779840164E+01 -0.2806830932398E+00  0.1621706019588E-01
 0.8710442203930E+00 -0.1957972397191E+01 -0.2173856385988E+00 -0.4571097279829E-02
 0.1228434635739E+01 -0.1972462327118E+01 -0.1488055404933E+00 -0.2720970456711E-01
 0.1632073486666E+01 -0.2009083215008E+01 -0.7540194679197E-01 -0.5060582407087E-01
 0.2078169051802E+01 -0.2067359022984E+01  0.2162005795826E-02 -0.7334995197174E-01
 0.2560761561661E+01 -0.2145358612536E+01  0.8308059106302E-01 -0.9378668734032E-01
 0.3071824543327E+01 -0.2239710212750E+01  0.1664228685953E+00 -0.1101283607190E+00
 0.3600793436800E+01 -0.2345569673369E+01  0.2510447564270E+00 -0.1206467663679E+00
 0.4134734063200E+01 -0.2456751674501E+01  0.3355964827406E+00 -0.1239252601556E+00
 0.4659277575853E+01 -0.2566207728958E+01  0.4186139756168E+00 -0.1191005431700E+00
-0.7494156239066E+00 -0.3126756014911E+01 -0.7752343393154E+00 -0.1429185210178E-01
-0.6912554475186E+00 -0.3151891564162E+01 -0.7686294137897E+00 -0.1382210765021E-01
-0.6339418105170E+00 -0.3175639033504E+01 -0.7619161801576E+00 -0.1273794749840E-01
-0.5791185417465E+00 -0.3196936772239E+01 -0.7552110740507E+00 -0.1107980888618E-01
-0.5282812165031E+00 -0.3214815183750E+01 -0.7486192912060E+00 -0.8909849016555E-02
-0.4827147898464E+00 -0.3228433315371E+01 -0.7422296321036E+00 -0.6308426149903E-02
-0.4434429847911E+00 -0.3237104164201E+01 -0.7361094407674E+00 -0.3365582339761E-02
-0.4111991320057E+00 -0.3240302655661E+01 -0.7303003684158E+00 -0.1709246161945E-03
-0.3864199634734E+00 -0.3237656393246E+01 -0.7248152821446E+00  0.3195092835420E-02
-0.3692581089037E+00 -0.3228923567375E+01 -0.7196363459791E+00  0.6666678866349E-02
-0.3596060797362E+00 -0.3213964484797E+01 -0.7147141235567E+00  0.1019451357343E-01
-0.3571239780712E+00 -0.3192712864870E+01 -0.7099673791676E+00  0.1374441127350E-01
-0.3612648510167E+00 -0.3165151673820E+01 -0.7052833154769E+00  0.1729382984664E-01
-0.3712937107122E+00 -0.3131296526057E+01 -0.7005180577923E+00  0.2082725283206E-01
-0.3862982689874E+00 -0.3091187362768E+01 -0.6954971367149E+00  0.2433132781864E-01
-0.4051908708986E+00 -0.3044888975182E+01 -0.6900159794982E+00  0.2779021451694E-01
-0.4267024834475E+00 -0.2992498511354E+01 -0.6838402091503E+00  0.3118339975844E-01
-0.4493672571921E+00 -0.2934163488965E+01 -0.6767061593151E+00  0.3448501663153E-01
-0.4715006664724E+00 -0.2870109537294E+01 -0.6683220507120E+00  0.3765721930393E-01
-0.4911781272276E+00 -0.2800666376944E+01 -0.6583689106449E+00  0.4064141307447E-01
-0.5062088376359E+00 -0.2726300324879E+01 -0.6465018421366E+00  0.4335437390298E-01
-0.5141069170004E+00 -0.2647652090881E+01 -0.6323518109991E+00  0.4568622171676E-01
-0.5120632433961E+00 -0.2565580256674E+01 -0.6155287091861E+00  0.4749910812838E-01
-0.4969236403625E+00 -0.2481206270323E+01 -0.5956259910126E+00  0.4862720833041E-01
-0.4651798953982E+00 -0.2395954148677E+01 -0.5722268173420E+00  0.4887905247713E-01
-0.4129818595604E+00 -0.2311583160474E+01 -0.5449130121267E+00  0.4804319145115E-01
-0.3361815025852E+00 -0.2230204750734E+01 -0.5132772583123E+00  0.4589836697536E-01
-0.2304177998313E+00 -0.2154270806957E+01 -0.4769377284647E+00  0.4222816367184E-01
-0.9124827962640E-01 -0.2086525756426E+01 -0.4355548137007E+00  0.3684188238174E-01
 0.8565624491415E-01 -0.2029920679585E+01 -0.3888528927285E+00  0.2960462798453E-01
 0.3042395858933E+00 -0.1987474717470E+01 -0.3366470313317E+00  0.2047381602835E-01
 0.5677120303969E+00 -0.1962073647413E+01 -0.2788723275587E+00  0.9537892239796E-02
 0.8781371895127E+00 -0.1956209081981E+01 -0.2156143817065E+00 -0.2946706453840E-02
 0.1235976978100E+01 -0.1971671198494E+01 -0.1471388462712E+00 -0.1652786445229E-01
 0.1639650035382E+01 -0.2009224664963E+01 -0.7391492701760E-01 -0.3054854767697E-01
 0.2085257292443E+01 -0.2068325816640E+01  0.3386295210968E-02 -0.4416434250931E-01
 0.2566760831599E+01 -0.2146990511997E+01  0.8395406517145E-01 -0.5638642453413E-01
 0.3076109247645E+01 -0.2241821997711E+01  0.1668574524732E+00 -0.6614992048181E-01
 0.3602793474269E+01 -0.2347992460042E+01  0.2509602065850E+00 -0.7242841626029E-01
 0.4134027300695E+01 -0.2459383562770E+01  0.3349287525757E+00 -0.7438348252267E-01
 0.4655677262507E+01 -0.2569062943075E+01  0.4173228701051E+00 -0.7150731856943E-01
-0.7494539736658E+00 -0.3126555663199E+01 -0.7752019389244E+00 -0.4759519369519E-02
-0.6914502879179E+00 -0.3151620949388E+01 -0.7686142589143E+00 -0.4603041790643E-02
-0.6342855634813E+00 -0.3175300923102E+01 -0.7619173086701E+00 -0.4241893779066E-02
-0.5795984359981E+00 -0.3196536150914E+01 -0.7552269286362E+00 -0.3689555714913E-02
-0.5288792858433E+00 -0.3214358654885E+01 -0.7486475993014E+00 -0.2966673073739E-02
-0.4834094734463E+00 -0.3227927550668E+01 -0.7422674158835E+00 -0.2099915743904E-02
-0.4442115600527E+00 -0.3236554001408E+01 -0.7361531232616E+00 -0.1119179918293E-02
-0.4120201456540E+00 -0.3239709449539E+01 -0.7303459299215E+00 -0.5424852237678E-04
-0.3872750444536E+00 -0.3237017023716E+01 -0.7248584244352E+00  0.1068097953545E-02
-0.3701328819992E+00 -0.3228230235637E+01 -0.7196726342512E+00  0.2225918180468E-02
-0.3604902001028E+00 -0.3213205201951E+01 -0.7147390910613E+00  0.3402723934681E-02
-0.3580104935635E+00 -0.3191872414520E+01 -0.7099765921961E+00  0.4587049798086E-02
-0.3621491612967E+00 -0.3164212810416E+01 -0.7052724048518E+00  0.5771303550971E-02
-0.3721723629444E+00 -0.3130241221107E+01 -0.7004827272482E+00  0.6950236321459E-02
-0.3871677539174E+00 -0.3089997988725E+01 -0.6954331588912E+00  0.8119326282889E-02
-0.4060465013863E+00 -0.3043549392498E+01 -0.6899191890575E+00  0.9273227889942E-02
-0.4275374763283E+00 -0.2990994872966E+01 -0.6837064800469E+00  0.1040504279201E-01
-0.4501719673237E+00 -0.2932484701294E+01 -0.6765313438047E+00  0.1150609185391E-01
-0.4722616036564E+00 -0.2868248021188E+01 -0.6681019349244E+00  0.1256369932328E-01
-0.4918767830054E+00 -0.2798619376417E+01 -0.6580992416910E+00  0.1355826209913E-01
-0.5068206389927E+00 -0.2724071370692E+01 -0.6461784115658E+00  0.1446195683214E-01
-0.5146004164506E+00 -0.2645252469797E+01 -0.6319705866667E+00  0.1523806904772E-01
-0.5123996508294E+00 -0.2563030425735E+01 -0.6150860244785E+00  0.1584056295650E-01
-0.4970568620959E+00 -0.2478537116463E+01 -0.5951188045797E+00  0.1621408878508E-01
-0.4650573017774E+00 -0.2393207923667E+01 -0.5716530536072E+00  0.1629477338424E-01
-0.4125460558340E+00 -0.2308813859081E+01 -0.5442719910932E+00  0.1601212641334E-01
-0.3353734035941E+00 -0.2227477635353E+01 -0.5125702154274E+00  0.1529245189960E-01
-0.2291813533575E+00 -0.2151660871106E+01 -0.4761684519881E+00  0.1406375666255E-01
-0.8953716072114E-01 -0.2084114799453E+01 -0.4347303985128E+00  0.1226273294770E-01
 0.8786993524592E-01 -0.2027792457886E+01 -0.3879845103094E+00  0.9844803797788E-02
 0.3069549830355E+00 -0.1985708108049E+01 -0.3357506300057E+00  0.6796286605154E-02
 0.5708883938093E+00 -0.1960734335759E+01 -0.2779691925320E+00  0.3147261651381E-02
 0.8816835791441E+00 -0.1955340736129E+01 -0.2147314345968E+00 -0.1016188695098E-02
 0.1239744961276E+01 -0.1971287729157E+01 -0.1463085557563E+00 -0.5542876937803E-02
 0.1643432024906E+01 -0.2009305676222E+01 -0.7317473135370E-01 -0.1021358656822E-01
 0.2088792661830E+01 -0.2068817399034E+01  0.3995052618687E-02 -0.1474706699840E-01
 0.2569750615414E+01 -0.2147812644038E+01  0.8438759553253E-01 -0.1881444860952E-01
 0.3078242689459E+01 -0.2242882550976E+01  0.1670720301863E+00 -0.2206205891704E-01
 0.3603787964750E+01 -0.2349207741214E+01  0.2509160484462E+00 -0.2414950311446E-01
 0.4133674164659E+01 -0.2460703409212E+01  0.3345941560752E+00 -0.2479921911689E-01
 0.4653884925682E+01 -0.2570495003920E+01  0.4166779905614E+00 -0.2384362348153E-01
-0.7494539736516E+00 -0.3126555663141E+01 -0.7752019389100E+00  0.4759519211798E-02
-0.6914502879038E+00 -0.3151620949331E+01 -0.7686142589002E+00  0.4603041652965E-02
-0.6342855634659E+00 -0.3175300923047E+01 -0.7619173086560E+00  0.4241893652663E-02
-0.5795984359801E+00 -0.3196536150862E+01 -0.7552269286221E+00  0.3689555580047E-02
-0.5288792858218E+00 -0.3214358654836E+01 -0.7486475992872E+00  0.2966672901019E-02
-0.4834094734204E+00 -0.3227927550622E+01 -0.7422674158691E+00  0.2099915496107E-02
-0.4442115600222E+00 -0.3236554001366E+01 -0.7361531232471E+00  0.1119179552791E-02
-0.4120201456188E+00 -0.3239709449501E+01 -0.7303459299070E+00  0.5424799309241E-04
-0.3872750444136E+00 -0.3237017023684E+01 -0.7248584244208E+00 -0.1068098694315E-02
-0.3701328819545E+00 -0.3228230235611E+01 -0.7196726342372E+00 -0.2225919180654E-02
-0.3604902000536E+00 -0.3213205201934E+01 -0.7147390910480E+00 -0.3402725242399E-02
-0.3580104935099E+00 -0.3191872414512E+01 -0.7099765921838E+00 -0.4587051460443E-02
-0.3621491612389E+00 -0.3164212810419E+01 -0.7052724048410E+00 -0.5771305614994E-02
-0.3721723628827E+00 -0.3130241221124E+01 -0.7004827272394E+00 -0.6950238833243E-02
-0.3871677538515E+00 -0.3089997988759E+01 -0.6954331588849E+00 -0.8119329287866E-02
-0.4060465013167E+00 -0.3043549392551E+01 -0.6899191890542E+00 -0.9273231431785E-02
-0.4275374762560E+00 -0.2990994873041E+01 -0.6837064800475E+00 -0.1040504691167E-01
-0.4501719672492E+00 -0.2932484701394E+01 -0.6765313438098E+00 -0.1150609658895E-01
-0.4722616035814E+00 -0.2868248021315E+01 -0.6681019349348E+00 -0.1256370470441E-01
-0.4918767829324E+00 -0.2798619376574E+01 -0.6580992417078E+00 -0.1355826814798E-01
-0.5068206389246E+00 -0.2724071370880E+01 -0.6461784115898E+00 -0.1446196355378E-01
-0.5146004163917E+00 -0.2645252470017E+01 -0.6319705866989E+00 -0.1523807642514E-01
-0.5123996507852E+00 -0.2563030425987E+01 -0.6150860245199E+00 -0.1584057094408E-01
-0.4970568620724E+00 -0.2478537116743E+01 -0.5951188046311E+00 -0.1621409729863E-01
-0.4650573017843E+00 -0.2393207923973E+01 -0.5716530536697E+00 -0.1629478229371E-01
-0.4125460558818E+00 -0.2308813859405E+01 -0.5442719911676E+00 -0.1601213553500E-01
-0.3353734036927E+00 -0.2227477635688E+01 -0.5125702155141E+00 -0.1529246098719E-01
-0.2291813535192E+00 -0.2151660871440E+01 -0.4761684520872E+00 -0.1406376540513E-01
-0.8953716095683E-01 -0.2084114799774E+01 -0.4347303986241E+00 -0.1226274096704E-01
 0.8786993492787E-01 -0.2027792458178E+01 -0.3879845104315E+00 -0.9844810658636E-02
 0.3069549826299E+00 -0.1985708108298E+01 -0.3357506301368E+00 -0.6796291827412E-02
 0.5708883933178E+00 -0.1960734335952E+01 -0.2779691926689E+00 -0.3147264743387E-02
 0.8816835785772E+00 -0.1955340736255E+01 -0.2147314347352E+00  0.1016188202639E-02
 0.1239744960655E+01 -0.1971287729208E+01 -0.1463085558908E+00  0.5542879437088E-02
 0.1643432024263E+01 -0.2009305676198E+01 -0.7317473147744E-01  0.1021359231756E-01
 0.2088792661211E+01 -0.2068817398940E+01  0.3995052513643E-02  0.1474707606423E-01
 0.2569750614874E+01 -0.2147812643886E+01  0.8438759545503E-01  0.1881446081557E-01
 0.3078242689057E+01 -0.2242882550779E+01  0.1670720301451E+00  0.2206207381337E-01
 0.3603787964543E+01 -0.2349207740988E+01  0.2509160484501E+00  0.2414951996344E-01
 0.4133674164696E+01 -0.2460703408964E+01  0.3345941561322E+00  0.2479923692887E-01
 0.4653884925987E+01 -0.2570495003648E+01  0.4166779906769E+00  0.2384364107289E-01
-0.7494156238642E+00 -0.3126756014738E+01 -0.7752343392723E+00  0.1429185194379E-01
-0.6912554474762E+00 -0.3151891563992E+01 -0.7686294137472E+00  0.1382210751253E-01
-0.6339418104707E+00 -0.3175639033339E+01 -0.7619161801154E+00  0.1273794737226E-01
-0.5791185416925E+00 -0.3196936772082E+01 -0.7552110740083E+00  0.1107980875184E-01
-0.5282812164384E+00 -0.3214815183601E+01 -0.7486192911633E+00  0.8909848844569E-02
-0.4827147897689E+00 -0.3228433315233E+01 -0.7422296320605E+00  0.6308425903070E-02
-0.4434429846997E+00 -0.3237104164075E+01 -0.7361094407239E+00  0.3365581975432E-02
-0.4111991319000E+00 -0.3240302655550E+01 -0.7303003683722E+00  0.1709240884193E-03
-0.3864199633533E+00 -0.3237656393151E+01 -0.7248152821014E+00 -0.3195093574176E-02
-0.3692581087699E+00 -0.3228923567299E+01 -0.7196363459371E+00 -0.6666679863875E-02
-0.3596060795890E+00 -0.3213964484744E+01 -0.7147141235167E+00 -0.1019451487754E-01
-0.3571239779111E+00 -0.3192712864846E+01 -0.7099673791307E+00 -0.1374441293122E-01
-0.3612648508438E+00 -0.3165151673831E+01 -0.7052833154444E+00 -0.1729383190468E-01
-0.3712937105269E+00 -0.3131296526109E+01 -0.7005180577657E+00 -0.2082725533651E-01
-0.3862982687903E+00 -0.3091187362870E+01 -0.6954971366958E+00 -0.2433133081474E-01
-0.4051908706908E+00 -0.3044888975341E+01 -0.6900159794885E+00 -0.2779021804846E-01
-0.4267024832308E+00 -0.2992498511579E+01 -0.6838402091520E+00 -0.3118340386631E-01
-0.4493672569688E+00 -0.2934163489265E+01 -0.6767061593304E+00 -0.3448502135344E-01
-0.4715006662476E+00 -0.2870109537675E+01 -0.6683220507433E+00 -0.3765722467106E-01
-0.4911781270081E+00 -0.2800666377415E+01 -0.6583689106951E+00 -0.4064141910859E-01
-0.5062088374309E+00 -0.2726300325443E+01 -0.6465018422084E+00 -0.4335438060994E-01
-0.5141069168227E+00 -0.2647652091541E+01 -0.6323518110955E+00 -0.4568622908024E-01
-0.5120632432617E+00 -0.2565580257428E+01 -0.6155287093100E+00 -0.4749911610379E-01
-0.4969236402926E+00 -0.2481206271165E+01 -0.5956259911671E+00 -0.4862721683462E-01
-0.4651798954197E+00 -0.2395954149595E+01 -0.5722268175298E+00 -0.4887906138202E-01
-0.4129818597024E+00 -0.2311583161448E+01 -0.5449130123500E+00 -0.4804320057382E-01
-0.3361815028805E+00 -0.2230204751740E+01 -0.5132772585726E+00 -0.4589837607184E-01
-0.2304178003154E+00 -0.2154270807962E+01 -0.4769377287625E+00 -0.4222817243236E-01
-0.9124828033194E-01 -0.2086525757391E+01 -0.4355548140348E+00 -0.3684189042940E-01
 0.8565624396124E-01 -0.2029920680466E+01 -0.3888528930953E+00 -0.2960463488424E-01
 0.3042395846781E+00 -0.1987474718223E+01 -0.3366470317254E+00 -0.2047382130022E-01
 0.5677120289242E+00 -0.1962073647996E+01 -0.2788723279698E+00 -0.9537895389712E-02
 0.8781371878133E+00 -0.1956209082360E+01 -0.2156143821223E+00  0.2946705897566E-02
 0.1235976976236E+01 -0.1971671198650E+01 -0.1471388466753E+00  0.1652786688670E-01
 0.1639650033453E+01 -0.2009224664894E+01 -0.7391492738958E-01  0.3054855336530E-01
 0.2085257290583E+01 -0.2068325816362E+01  0.3386294894782E-02  0.4416435152330E-01
 0.2566760829975E+01 -0.2146990511543E+01  0.8395406493741E-01  0.5638643670148E-01
 0.3076109246434E+01 -0.2241821997124E+01  0.1668574523484E+00  0.6614993535338E-01
 0.3602793473647E+01 -0.2347992459365E+01  0.2509602065960E+00  0.7242843309640E-01
 0.4134027300803E+01 -0.2459383562028E+01  0.3349287527457E+00  0.7438350032600E-01
 0.4655677263425E+01 -0.2569062942260E+01  0.4173228704516E+00  0.7150733614439E-01
-0.7493387903815E+00 -0.3127156462327E+01 -0.7752990620945E+00  0.2386406837650E-01
-0.6908653965647E+00 -0.3152432530185E+01 -0.7686595968039E+00  0.2308011574500E-01
-0.6332536000968E+00 -0.3176314897833E+01 -0.7619137109394E+00  0.2127076970823E-01
-0.5781578037333E+00 -0.3197737389405E+01 -0.7551790498807E+00  0.1850341778837E-01
-0.5270841108753E+00 -0.3215727125844E+01 -0.7485622584984E+00  0.1488240277885E-01
-0.4813247153264E+00 -0.3229443037931E+01 -0.7421535617105E+00  0.1054282950452E-01
-0.4419056247688E+00 -0.3238201866552E+01 -0.7360215092317E+00  0.5635954554199E-02
-0.4095575345135E+00 -0.3241485606062E+01 -0.7302086389961E+00  0.3119857908274E-03
-0.3847108978471E+00 -0.3238930908004E+01 -0.7247283719695E+00 -0.5294614169787E-02
-0.3675102537110E+00 -0.3230305392065E+01 -0.7195631398775E+00 -0.1107430909191E-01
-0.3578399860088E+00 -0.3215477782772E+01 -0.7146635644054E+00 -0.1694538808128E-01
-0.3553533791666E+00 -0.3194388261987E+01 -0.7099483388097E+00 -0.2285158168878E-01
-0.3594987713084E+00 -0.3167023842386E+01 -0.7053045332487E+00 -0.2875610399016E-01
-0.3695388894729E+00 -0.3133401685205E+01 -0.7005881253752E+00 -0.3463386169144E-01
-0.3845615722771E+00 -0.3093560913727E+01 -0.6956245075664E+00 -0.4046330966272E-01
-0.4034815303898E+00 -0.3047563336953E+01 -0.6902089837534E+00 -0.4621869965760E-01
-0.4250339249076E+00 -0.2995501523495E+01 -0.6841070998745E+00 -0.5186644681689E-01
-0.4477586241008E+00 -0.2937517501080E+01 -0.6770552351251E+00 -0.5736400559163E-01
-0.4699787790185E+00 -0.2873829899913E+01 -0.6687617457516E+00 -0.6264890253005E-01
-0.4897798257973E+00 -0.2804758835465E+01 -0.6589077420709E+00 -0.6762419410985E-01
-0.5049830793404E+00 -0.2730758098154E+01 -0.6471482451422E+00 -0.7215199354018E-01
-0.5131164064866E+00 -0.2652452932197E+01 -0.6331138771708E+00 -0.7605004622462E-01
-0.5113853873791E+00 -0.2570683617748E+01 -0.6164138102107E+00 -0.7908947058044E-01
-0.4966504959808E+00 -0.2486550765883E+01 -0.5966402612634E+00 -0.8099464474102E-01
-0.4654166711422E+00 -0.2401455658783E+01 -0.5733744745289E+00 -0.8144695801528E-01
-0.4138434202038E+00 -0.2317134031923E+01 -0.5461954985642E+00 -0.8009407838902E-01
-0.3377862755171E+00 -0.2235674689644E+01 -0.5146922007016E+00 -0.7656668756246E-01
-0.2328783882164E+00 -0.2159509878050E+01 -0.4784776603832E+00 -0.7050265617293E-01
-0.9465812531029E-01 -0.2091370150422E+01 -0.4372056616614E+00 -0.6158158185939E-01
 0.8124023949044E-01 -0.2034202336700E+01 -0.3905924252622E+00 -0.4957477039065E-01
 0.2988177764439E+00 -0.1991034962194E+01 -0.3384434421932E+00 -0.3440612730922E-01
 0.5613643924272E+00 -0.1964779841150E+01 -0.2806830939272E+00 -0.1621706346200E-01
 0.8710442175608E+00 -0.1957972397837E+01 -0.2173856392946E+00  0.4571096595643E-02
 0.1228434632629E+01 -0.1972462327392E+01 -0.1488055411700E+00  0.2720970687095E-01
 0.1632073483445E+01 -0.2009083214904E+01 -0.7540194741541E-01  0.5060582963653E-01
 0.2078169048694E+01 -0.2067359022529E+01  0.2162005265321E-02  0.7334996088125E-01
 0.2560761558941E+01 -0.2145358611785E+01  0.8308059066912E-01  0.9378669942950E-01
 0.3071824541299E+01 -0.2239710211778E+01  0.1664228683842E+00  0.1101283755410E+00
 0.3600793435757E+01 -0.2345569672246E+01  0.2510447564431E+00  0.1206467831780E+00
 0.4134734063380E+01 -0.2456751673269E+01  0.3355964830230E+00  0.1239252779415E+00
 0.4659277577392E+01 -0.2566207727607E+01  0.4186139761950E+00  0.1191005607126E+00
-0.7492232074583E+00 -0.3127756529854E+01 -0.7753959590168E+00  0.3350276256213E-01
-0.6902793831292E+00 -0.3153243359990E+01 -0.7687045600785E+00  0.3240301209206E-01
-0.6322194981449E+00 -0.3177327842168E+01 -0.7619094794159E+00  0.2986477164623E-01
-0.5767142911703E+00 -0.3198936783574E+01 -0.7551302262011E+00  0.2598238547453E-01
-0.5252860062953E+00 -0.3217092268844E+01 -0.7484756661810E+00  0.2090354406889E-01
-0.4792378176628E+00 -0.3230953106985E+01 -0.7420381959868E+00  0.1481990422263E-01
-0.4395990584637E+00 -0.3239841848362E+01 -0.7358881923306E+00  0.7945745708152E-02
-0.4070962245250E+00 -0.3243251351565E+01 -0.7300695260969E+00  0.4931780300069E-03
-0.3821500622912E+00 -0.3240832087678E+01 -0.7245964407911E+00 -0.7348781634954E-02
-0.3648927257736E+00 -0.3232365999470E+01 -0.7194517557694E+00 -0.1542704756302E-01
-0.3551962412677E+00 -0.3217734530438E+01 -0.7145861649893E+00 -0.2362827378955E-01
-0.3527035875796E+00 -0.3196887572914E+01 -0.7099182426774E+00 -0.3187518388242E-01
-0.3568560276967E+00 -0.3169818177790E+01 -0.7053348516077E+00 -0.4011793312160E-01
-0.3669128872258E+00 -0.3136545777591E+01 -0.7006917434046E+00 -0.4832300349233E-01
-0.3819622307942E+00 -0.3097108227960E+01 -0.6958141021194E+00 -0.5646171568568E-01
-0.4009223425058E+00 -0.3051562848733E+01 -0.6904970485369E+00 -0.6449938387925E-01
-0.4225346796618E+00 -0.2999995353246E+01 -0.6845060167815E+00 -0.7239024826534E-01
-0.4453476711205E+00 -0.2942539577090E+01 -0.6775774597387E+00 -0.8007592536634E-01
-0.4676959489223E+00 -0.2879403726666E+01 -0.6694199450928E+00 -0.8747021211588E-01
-0.4876799380271E+00 -0.2810893613193E+01 -0.6597147200746E+00 -0.9443888399678E-01
-0.5031390966902E+00 -0.2737444355267E+01 -0.6481167000490E+00 -0.1007906209777E+00
-0.5116219085785E+00 -0.2659658115730E+01 -0.6342560143128E+00 -0.1062721156384E+00
-0.5103560476964E+00 -0.2578347821277E+01 -0.6177407829997E+00 -0.1105647601805E+00
-0.4962240700873E+00 -0.2494582886569E+01 -0.5981614002446E+00 -0.1132842801292E+00
-0.4657508379401E+00 -0.2409730482216E+01 -0.5750962726009E+00 -0.1139857068454E+00
-0.4151106558100E+00 -0.2325490929263E+01 -0.5481203251823E+00 -0.1121759854746E+00
-0.3401648523323E+00 -0.2243918811497E+01 -0.5168167404670E+00 -0.1073369524262E+00
-0.2365384455605E+00 -0.2167416468704E+01 -0.4807909900173E+00 -0.9895866375251E-01
-0.9974179528997E-01 -0.2098692989342E+01 -0.4396869634783E+00 -0.8658721409492E-01
 0.7464484679602E-01 -0.2040687985195E+01 -0.3932086335391E+00 -0.6989434852661E-01
 0.2907077544759E+00 -0.1996443115228E+01 -0.3411470772339E+00 -0.4876278905724E-01
 0.5518559181572E+00 -0.1968908371154E+01 -0.2834104948226E+00 -0.2337786239126E-01
 0.8604045284454E+00 -0.1960684319124E+01 -0.2200559614148E+00  0.5683451419775E-02
 0.1217105352837E+01 -0.1973709920529E+01 -0.1513209157932E+00  0.3738349592721E-01
 0.1620677290078E+01 -0.2008922883853E+01 -0.7764911991201E-01  0.7019684671946E-01
 0.2067492832708E+01 -0.2065950113466E+01  0.3085438529218E-03  0.1021458939849E+00
 0.2551713150319E+01 -0.2142941941013E+01  0.8175424307925E-01  0.1308977076276E+00
 0.3065352594075E+01 -0.2236566016579E+01  0.1657573179692E+00  0.1539224001804E+00
 0.3597765402476E+01 -0.2341955039020E+01  0.2511620764339E+00  0.1687634028471E+00
 0.4135795210036E+01 -0.2452823413301E+01  0.3365943643626E+00  0.1733965445230E+00
 0.4664717145837E+01 -0.2561947213676E+01  0.4205539926988E+00  0.1665771248544E+00
-0.7490684817107E+00 -0.3128555592349E+01 -0.7755248263681E+00  0.4323453860416E-01
-0.6894962488347E+00 -0.3154323418674E+01 -0.7687639449571E+00  0.4181671997117E-01
-0.6308372888777E+00 -0.3178676950497E+01 -0.7619028592281E+00  0.3854420987494E-01
-0.5747850263513E+00 -0.3200533203829E+01 -0.7550636572874E+00  0.3353835612460E-01
-0.5228838849320E+00 -0.3218907338207E+01 -0.7483582557793E+00  0.2699190782049E-01
-0.4764519029859E+00 -0.3232958107527E+01 -0.7418820131575E+00  0.1915569041669E-01
-0.4365226459042E+00 -0.3242016181600E+01 -0.7357077764637E+00  0.1030959687551E-01
-0.4038165369432E+00 -0.3245589401194E+01 -0.7298811985034E+00  0.7294715914345E-03
-0.3787408321623E+00 -0.3243347129672E+01 -0.7244176031616E+00 -0.9340375228058E-02
-0.3614107051314E+00 -0.3235090740517E+01 -0.7193002998481E+00 -0.1970362752065E-01
-0.3516813969067E+00 -0.3220718803430E+01 -0.7144800507140E+00 -0.3021640809724E-01
-0.3491820023245E+00 -0.3200194183444E+01 -0.7098752477317E+00 -0.4078197454071E-01
-0.3533443340541E+00 -0.3173517918557E+01 -0.7053724610331E+00 -0.5133909923260E-01
-0.3634232355043E+00 -0.3140712374701E+01 -0.7008271324842E+00 -0.6184745379615E-01
-0.3785071421937E+00 -0.3101813639195E+01 -0.6960641666498E+00 -0.7227269674427E-01
-0.3975191506517E+00 -0.3056873016079E+01 -0.6908784436410E+00 -0.8257254697835E-01
-0.4192091224183E+00 -0.3005967104482E+01 -0.6850352555879E+00 -0.9269030719166E-01
-0.4421368696038E+00 -0.2949218897765E+01 -0.6782711635808E+00 -0.1025529163467E+00
-0.4646522670973E+00 -0.2886822844568E+01 -0.6702950323212E+00 -0.1120516860660E+00
-0.4848756457244E+00 -0.2819065878081E+01 -0.6607883146077E+00 -0.1210165983731E+00
-0.5006705935608E+00 -0.2746358443009E+01 -0.6494058169909E+00 -0.1292046202491E+00
-0.5096130724415E+00 -0.2669272147841E+01 -0.6357770535304E+00 -0.1362932482349E+00
-0.5089602874295E+00 -0.2588583636401E+01 -0.6195087939974E+00 -0.1418759942565E+00
-0.4956244312547E+00 -0.2505320844147E+01 -0.6001890640240E+00 -0.1454615631406E+00
-0.4661572909104E+00 -0.2420805449729E+01 -0.5773925567317E+00 -0.1464797721436E+00
-0.4167534776271E+00 -0.2336690351238E+01 -0.5506887739790E+00 -0.1442971374415E+00
-0.3432828867966E+00 -0.2254984031816E+01 -0.5196533914660E+00 -0.1382456433260E+00
-0.2413608158006E+00 -0.2178048137213E+01 -0.4838817978132E+00 -0.1276647006758E+00
-0.1064616575365E+00 -0.2108561921471E+01 -0.4430047224029E+00 -0.1119616944502E+00
 0.6590488056096E-01 -0.2049453796188E+01 -0.3967097890369E+00 -0.9070082942374E-01
 0.2799373701458E+00 -0.2003781154168E+01 -0.3447687619419E+00 -0.6371291909483E-01
 0.5392028888747E+00 -0.1974543216516E+01 -0.2870680698058E+00 -0.3121443886101E-01
 0.8462185167500E+00 -0.1964426280983E+01 -0.2236415561791E+00  0.6075151381811E-02
 0.1201970714677E+01 -0.1975488258780E+01 -0.1547035111260E+00  0.4684011404669E-01
 0.1605423969487E+01 -0.2008807051325E+01 -0.8067661756975E-01  0.8912780603405E-01
 0.2053175740824E+01 -0.2064149628624E+01 -0.2194777592761E-02  0.1303887151995E+00
 0.2539555504802E+01 -0.2139778669961E+01  0.7995536815966E-01  0.1675972361704E+00
 0.3056638581891E+01 -0.2232418097037E+01  0.1648440994271E+00  0.1974538725891E+00
 0.3593674855318E+01 -0.2337172324363E+01  0.2513005099356E+00  0.2167358856301E+00
 0.4137211313410E+01 -0.2447622446146E+01  0.3379177784882E+00  0.2227696922418E+00
 0.4672042878726E+01 -0.2556308280744E+01  0.4231469259016E+00  0.2138920136957E+00
-0.7488740983538E+00 -0.3129552985524E+01 -0.7756854283341E+00  0.5308602011516E-01
-0.6885143912149E+00 -0.3155672044145E+01 -0.7688372985286E+00  0.5134713442671E-01
-0.6291038950340E+00 -0.3180361182802E+01 -0.7618930269203E+00  0.4733312055378E-01
-0.5723658847587E+00 -0.3202524462873E+01 -0.7549780807763E+00  0.4119245823080E-01
-0.5198735844616E+00 -0.3221168050876E+01 -0.7482083382166E+00  0.3316530409045E-01
-0.4729639622890E+00 -0.3235450822568E+01 -0.7416829680233E+00  0.2356517302692E-01
-0.4326755221569E+00 -0.3244714223042E+01 -0.7354779599993E+00  0.1274100071823E-01
-0.3997203071557E+00 -0.3248485639655E+01 -0.7296412002346E+00  0.1034741717475E-02
-0.3744878108223E+00 -0.3246458809339E+01 -0.7241893348234E+00 -0.1125309948490E-01
-0.3570712245985E+00 -0.3238459926524E+01 -0.7191062409399E+00 -0.2388346718843E-01
-0.3473043169887E+00 -0.3224409227482E+01 -0.7143427195387E+00 -0.3668345155433E-01
-0.3447986077849E+00 -0.3204285821287E+01 -0.7098168963915E+00 -0.4953888287316E-01
-0.3489740805144E+00 -0.3178100616222E+01 -0.7054149498588E+00 -0.6237933355992E-01
-0.3590800698808E+00 -0.3145879484662E+01 -0.7009919213541E+00 -0.7515974194165E-01
-0.3742055924479E+00 -0.3107656173721E+01 -0.6963723636105E+00 -0.8784197901895E-01
-0.3932798395670E+00 -0.3063474417691E+01 -0.6913508617535E+00 -0.1003778657661E+00
-0.4150631926512E+00 -0.3013399465516E+01 -0.6856925418511E+00 -0.1127013271226E+00
-0.4381296410051E+00 -0.2957540888940E+01 -0.6791341161089E+00 -0.1247260876635E+00
-0.4608480050616E+00 -0.2896076167535E+01 -0.6713848445237E+00 -0.1363225512857E+00
-0.4813633667630E+00 -0.2829268951803E+01 -0.6621264735797E+00 -0.1472868062534E+00
-0.4975693735119E+00 -0.2757499204079E+01 -0.6510137252190E+00 -0.1573263162199E+00
-0.5070763117965E+00 -0.2681300699925E+01 -0.6376754118463E+00 -0.1660517794217E+00
-0.5071784096880E+00 -0.2601405040487E+01 -0.6217166992993E+00 -0.1729712277227E+00
-0.4948252071691E+00 -0.2518788510942E+01 -0.6027227526036E+00 -0.1774884932098E+00
-0.4666027132333E+00 -0.2434715926292E+01 -0.5802637365517E+00 -0.1789097304885E+00
-0.4187318350613E+00 -0.2350780600310E+01 -0.5539024953280E+00 -0.1764615234678E+00
-0.3470945105711E+00 -0.2268932654145E+01 -0.5232054407396E+00 -0.1693248686258E+00
-0.2472956855694E+00 -0.2191481572480E+01 -0.4877554588781E+00 -0.1566850831653E+00
-0.1147670146958E+00 -0.2121067377619E+01 -0.4471668851262E+00 -0.1378043461697E+00
 0.5506755478964E-01 -0.2060601941765E+01 -0.4011068833720E+00 -0.1121292185353E+00
 0.2665448015114E+00 -0.2013159430774E+01 -0.3493229310578E+00 -0.7942485685612E-01
 0.5234282056233E+00 -0.1981797837335E+01 -0.2916739306886E+00 -0.3992231242209E-01
 0.8284878614823E+00 -0.1969308709276E+01 -0.2281641729586E+00  0.5533838690510E-02
 0.1183007007925E+01 -0.1977898414094E+01 -0.1589782836029E+00  0.5536452244136E-01
 0.1586263830773E+01 -0.2008822204954E+01 -0.8451167609547E-01  0.1071975004789E+00
 0.2035146784686E+01 -0.2062026658179E+01 -0.5375974778708E-02  0.1579072382618E+00
 0.2524207321862E+01 -0.2135920980494E+01  0.7765726943082E-01  0.2037563300996E+00
 0.3045607797008E+01 -0.2227305565031E+01  0.1636604488342E+00  0.2406401101440E+00
 0.3588474172831E+01 -0.2331253747633E+01  0.2514440887863E+00  0.2645199878293E+00
 0.4138982068488E+01 -0.2441180636131E+01  0.3395602915313E+00  0.2720176348899E+00
 0.4681317297219E+01 -0.2549326965287E+01  0.4263980727403E+00  0.2610018337450E+00
-0.7486394294426E+00 -0.3130748156510E+01 -0.7758775287519E+00  0.6308386532540E-01
-0.6873317106136E+00 -0.3157288711189E+01 -0.7689240958183E+00  0.6102011897879E-01
-0.6270152666030E+00 -0.3182379535542E+01 -0.7618789717819E+00  0.5625524809274E-01
-0.5694514569892E+00 -0.3204908065471E+01 -0.7548719157405E+00  0.4896513219390E-01
-0.5162496761658E+00 -0.3223869184640E+01 -0.7480237833076E+00  0.3944044492985E-01
-0.4687701002127E+00 -0.3238422230357E+01 -0.7414384771623E+00  0.2806194011988E-01
-0.4280565910302E+00 -0.3247922544936E+01 -0.7351958381485E+00  0.1525194011505E-01
-0.3948099235320E+00 -0.3251922211339E+01 -0.7293464378423E+00  0.1421435277645E-02
-0.3693969222130E+00 -0.3250145342533E+01 -0.7239084637363E+00 -0.1307185472011E-01
-0.3518832806440E+00 -0.3242448692472E+01 -0.7188664053351E+00 -0.2794686238155E-01
-0.3420762896425E+00 -0.3228778856654E+01 -0.7141710399013E+00 -0.4300360038486E-01
-0.3395660750793E+00 -0.3209134454606E+01 -0.7097401165131E+00 -0.5811305100137E-01
-0.3437584216791E+00 -0.3183538052114E+01 -0.7054593052708E+00 -0.7319829625614E-01
-0.3538962077548E+00 -0.3152019480293E+01 -0.7011831480581E+00 -0.8821208016147E-01
-0.3690693296270E+00 -0.3114609480156E+01 -0.6967357723387E+00 -0.1031147484522E+00
-0.3882144129831E+00 -0.3071342626573E+01 -0.6919114182215E+00 -0.1178542539882E+00
-0.4101044836542E+00 -0.3022270611808E+01 -0.6864750293216E+00 -0.1323570017315E+00
-0.4333304632546E+00 -0.2967487097008E+01 -0.6801635221878E+00 -0.1465252458430E+00
-0.4562837423180E+00 -0.2907149537286E+01 -0.6726866659447E+00 -0.1602103764538E+00
-0.4771389046126E+00 -0.2841494110256E+01 -0.6637266128641E+00 -0.1731768900275E+00
-0.4938255097977E+00 -0.2770864733455E+01 -0.6529380583801E+00 -0.1850854437858E+00
-0.5039949902781E+00 -0.2695750320168E+01 -0.6399490716252E+00 -0.1954828830102E+00
-0.5049861483757E+00 -0.2616828890946E+01 -0.6243630171681E+00 -0.2037947323175E+00
-0.4937937641225E+00 -0.2535015064377E+01 -0.6057617747264E+00 -0.2093226500580E+00
-0.4670457188344E+00 -0.2451505452417E+01 -0.5837102429482E+00 -0.2112511453761E+00
-0.4209957857553E+00 -0.2367821459522E+01 -0.5577634573667E+00 -0.2086676567287E+00
-0.3515422852309E+00 -0.2285842138097E+01 -0.5274768925257E+00 -0.2006010471589E+00
-0.2542803672371E+00 -0.2207812525220E+01 -0.4924185858291E+00 -0.1860786199807E+00
-0.1245936714004E+00 -0.2136322748351E+01 -0.4521832906884E+00 -0.1642097193369E+00
 0.4219315852371E-01 -0.2074261099449E+01 -0.4064135942412E+00 -0.1343111658708E+00
 0.2505794553085E+00 -0.2024717561524E+01 -0.3548276265304E+00 -0.9606573792871E-01
 0.5045624345080E+00 -0.1990816461251E+01 -0.2972508097779E+00 -0.4969858705797E-01
 0.8072165552444E+00 -0.1975472638860E+01 -0.2336512202048E+00  0.3842450316392E-02
 0.1160186020337E+01 -0.1981070051111E+01 -0.1641768086013E+00  0.6273405053300E-01
 0.1563135270975E+01 -0.2009079714228E+01 -0.8918888997950E-01  0.1241950353077E+00
 0.2013316522764E+01 -0.2059670375999E+01 -0.9270770785148E-02  0.1845200405845E+00
 0.2505565083182E+01 -0.2131436224307E+01  0.7482577288999E-01  0.2392370786651E+00
 0.3032164227667E+01 -0.2221278740645E+01  0.1621770998210E+00  0.2833923311022E+00
 0.3582101223849E+01 -0.2324240480341E+01  0.2515721524501E+00  0.3120689279243E+00
 0.4141105343814E+01 -0.2433538354195E+01  0.3415134030126E+00  0.3211138452865E+00
 0.4692618482392E+01 -0.2541048653842E+01  0.4303139721221E+00  0.3078652297839E+00
-0.7483637440315E+00 -0.3132140859963E+01 -0.7761009323638E+00  0.7325478977310E-01
-0.6859455394695E+00 -0.3159173245014E+01 -0.7690237683561E+00  0.7086150621174E-01
-0.6245662341410E+00 -0.3184731249447E+01 -0.7618595080702E+00  0.6533396678852E-01
-0.5660348688248E+00 -0.3207681372360E+01 -0.7547432594835E+00  0.5687593743034E-01
-0.5120053089475E+00 -0.3227004662868E+01 -0.7478020055062E+00  0.4583264132112E-01
-0.4638654474520E+00 -0.3241861494279E+01 -0.7411453993902E+00  0.3265780998584E-01
-0.4226645225304E+00 -0.3251624839428E+01 -0.7348578833418E+00  0.1785250219319E-01
-0.3890883998643E+00 -0.3255877366941E+01 -0.7289931642240E+00  0.1900223742841E-02
-0.3634755326289E+00 -0.3254380207940E+01 -0.7235711588958E+00 -0.1478301089947E-01
-0.3458579759752E+00 -0.3247026823399E+01 -0.7185769705825E+00 -0.3187517354810E-01
-0.3360111679448E+00 -0.3233795021216E+01 -0.7139612484710E+00 -0.4915168916378E-01
-0.3334998884501E+00 -0.3214706167174E+01 -0.7096412216994E+00 -0.6647186379825E-01
-0.3377133852563E+00 -0.3189796136320E+01 -0.7055019148281E+00 -0.8375554736252E-01
-0.3478872432915E+00 -0.3159099012483E+01 -0.7013972616065E+00 -0.1009562873110E+00
-0.3631126536390E+00 -0.3122641744888E+01 -0.6971508900938E+00 -0.1180355336757E+00
-0.3823350883568E+00 -0.3080448114480E+01 -0.6925566508874E+00 -0.1349397045467E+00
-0.4043423518790E+00 -0.3032554087044E+01 -0.6873792980274E+00 -0.1515898101949E+00
-0.4277450022265E+00 -0.2979035035658E+01 -0.6813560177299E+00 -0.1678786317866E+00
-0.4509605246242E+00 -0.2920025526397E+01 -0.6741972202505E+00 -0.1836407351400E+00
-0.4721976349705E+00 -0.2855730335451E+01 -0.6655856040022E+00 -0.1986117167638E+00
-0.4894275585598E+00 -0.2786452074066E+01 -0.6551759362880E+00 -0.2124086082919E+00
-0.5003496552424E+00 -0.2712628071679E+01 -0.6425955549596E+00 -0.2245179018784E+00
-0.5023549108679E+00 -0.2634874510718E+01 -0.6274458936669E+00 -0.2342861806745E+00
-0.4924914384822E+00 -0.2554034534516E+01 -0.6093052036791E+00 -0.2409162194535E+00
-0.4674370414035E+00 -0.2471225282615E+01 -0.5877324735615E+00 -0.2434734330053E+00
-0.4234855976798E+00 -0.2387883769331E+01 -0.5622738817807E+00 -0.2409072956621E+00
-0.3565571599829E+00 -0.2305804783778E+01 -0.5324723966867E+00 -0.2320935263856E+00
-0.2622390465185E+00 -0.2227155690995E+01 -0.4978789549217E+00 -0.2158972043835E+00
-0.1358634092309E+00 -0.2154464572563E+01 -0.4580656031845E+00 -0.1912662769135E+00
 0.2735589273162E-01 -0.2090587054171E+01 -0.4126462384369E+00 -0.1573739111933E+00
 0.2321031032787E+00 -0.2038625525940E+01 -0.3613044899160E+00 -0.1138008971900E+00
 0.4826451472363E+00 -0.2001775701420E+01 -0.3038261153641E+00 -0.6074201453096E-01
 0.7824122493818E+00 -0.1983091779719E+01 -0.2401359096457E+00  0.7783419808596E-03
 0.1133476091929E+01 -0.1985163756591E+01 -0.1703375354706E+00  0.6871667671464E-01
 0.1535965208516E+01 -0.2009718146405E+01 -0.9475058898965E-01  0.1398974274625E+00
 0.1987576631472E+01 -0.2057192051019E+01 -0.1392308411688E-01  0.2100327625605E+00
 0.2483501761191E+01 -0.2126408441683E+01  0.7141866496582E-01  0.2738901462896E+00
 0.3016188731382E+01 -0.2214400178225E+01  0.1603577130209E+00  0.3256139037739E+00
 0.3574477562393E+01 -0.2316183318498E+01  0.2516588525290E+00  0.3593325564089E+00
 0.4143575957002E+01 -0.2424744915710E+01  0.3437662133810E+00  0.3700323005623E+00
 0.4706039972854E+01 -0.2531528358025E+01  0.4349023294463E+00  0.3544432566085E+00
-0.7480462201238E+00 -0.3133731405263E+01 -0.7763555366460E+00  0.8362559876573E-01
-0.6843525506234E+00 -0.3161326090237E+01 -0.7691357396330E+00  0.8089710293742E-01
-0.6217503209636E+00 -0.3187416069494E+01 -0.7618332894438E+00  0.7459219251391E-01
-0.5621075541212E+00 -0.3210841801462E+01 -0.7545898823609E+00  0.6494333192016E-01
-0.5071320168691E+00 -0.3230567652416E+01 -0.7475399449962E+00  0.5235546075455E-01
-0.4582440581060E+00 -0.3245755939915E+01 -0.7408000106431E+00  0.3736241809257E-01
-0.4164977580490E+00 -0.3255801789899E+01 -0.7344599205340E+00  0.2055046152516E-01
-0.3825594725216E+00 -0.3260325266575E+01 -0.7285769586760E+00  0.2479639679741E-02
-0.3567326056423E+00 -0.3259131925069E+01 -0.7231729169184E+00 -0.1637468415752E-01
-0.3390086961524E+00 -0.3252158542192E+01 -0.7182334583714E+00 -0.3565100574849E-01
-0.3291255409201E+00 -0.3239419145438E+01 -0.7137089479068E+00 -0.5510328194087E-01
-0.3266184959847E+00 -0.3220961011690E+01 -0.7095159121075E+00 -0.7458296720401E-01
-0.3308579995965E+00 -0.3196834790989E+01 -0.7055385686305E+00 -0.9401050938607E-01
-0.3410716575599E+00 -0.3167078911231E+01 -0.7016301242133E+00 -0.1133437090249E+00
-0.3563525198770E+00 -0.3131715595542E+01 -0.6976136334791E+00 -0.1325480908151E+00
-0.3756564067342E+00 -0.3090756141924E+01 -0.6932825200623E+00 -0.1515711389470E+00
-0.3977880448402E+00 -0.3044218664784E+01 -0.6884013521828E+00 -0.1703308245776E+00
-0.4213802668628E+00 -0.2992158005967E+01 -0.6827076647391E+00 -0.1887126738196E+00
-0.4448800520570E+00 -0.2934683205540E+01 -0.6759126615912E+00 -0.2065368881884E+00
-0.4665347288263E+00 -0.2871964020616E+01 -0.6676997598379E+00 -0.2235132310331E+00
-0.4843628151354E+00 -0.2804256853049E+01 -0.6577239434376E+00 -0.2392187684389E+00
-0.4961183209201E+00 -0.2731941097343E+01 -0.6456118932729E+00 -0.2530837000483E+00
-0.4992520749518E+00 -0.2655563186234E+01 -0.6309630616393E+00 -0.2643798474509E+00
-0.4908738245389E+00 -0.2575885251046E+01 -0.6133518242565E+00 -0.2722150267187E+00
-0.4677197767661E+00 -0.2493933814174E+01 -0.5923307270144E+00 -0.2755387196842E+00
-0.4261318931892E+00 -0.2411048893507E+01 -0.5674361657948E+00 -0.2731641322795E+00
-0.3620584477659E+00 -0.2328927317173E+01 -0.5381971610076E+00 -0.2638131338457E+00
-0.2710825089136E+00 -0.2249644525568E+01 -0.5041454144087E+00 -0.2461842977078E+00
-0.1484833826092E+00 -0.2175652715662E+01 -0.4648272265808E+00 -0.2190549272658E+00
 0.1064486124371E-01 -0.2109763377817E+01 -0.4198237095705E+00 -0.1814390362436E+00
 0.2111912566784E+00 -0.2055084960998E+01 -0.3687787463591E+00 -0.1327930592089E+00
 0.4577265755875E+00 -0.2014886510603E+01 -0.3114319916439E+00 -0.7325286203656E-01
 0.7540879521582E+00 -0.1992375059280E+01 -0.2476574251148E+00 -0.3887460579528E-02
 0.1102843489798E+01 -0.1990373951174E+01 -0.1775060949204E+00  0.7306931452352E-01
 0.1504669705250E+01 -0.2010906197656E+01 -0.1012472999898E+00  0.1540670577626E+00
 0.1957799438673E+01 -0.2054727609258E+01 -0.1938563440591E-01  0.2342351300224E+00
 0.2457865236161E+01 -0.2120940290379E+01  0.6738499016058E-01  0.3075519854847E+00
 0.2997536757535E+01 -0.2206745964226E+01  0.1581581610185E+00  0.3671983452393E+00
 0.3565506191846E+01 -0.2307143561717E+01  0.2516725297759E+00  0.4062563736167E+00
 0.4146384162468E+01 -0.2414859194631E+01  0.3463049987279E+00  0.4187473104439E+00
 0.4721690560325E+01 -0.2520831106389E+01  0.4401718973463E+00  0.4006996705040E+00
-0.7476859582191E+00 -0.3135520962290E+01 -0.7766413956747E+00  0.9422323214261E-01
-0.6825486402338E+00 -0.3163748643248E+01 -0.7692594681592E+00  0.9115270073444E-01
-0.6185595067984E+00 -0.3190434563471E+01 -0.7617988254056E+00  0.8405228074182E-01
-0.5576589738406E+00 -0.3214387068664E+01 -0.7544092197425E+00  0.7318441557809E-01
-0.5016194876060E+00 -0.3234550671640E+01 -0.7472340429839E+00  0.5902033445460E-01
-0.4518987942255E+00 -0.3250091011993E+01 -0.7403979722765E+00  0.4218275415721E-01
-0.4095545287996E+00 -0.3260430900429E+01 -0.7339970967831E+00  0.2335082655914E-01
-0.3752277285862E+00 -0.3265235731819E+01 -0.7280927029304E+00  0.3165695197330E-02
-0.3491788951909E+00 -0.3264363783195E+01 -0.7227085464464E+00 -0.1783701419826E-01
-0.3313513230762E+00 -0.3257802257106E+01 -0.7178307267329E+00 -0.3925837812808E-01
-0.3214389353849E+00 -0.3245606535992E+01 -0.7134091049060E+00 -0.6083474814058E-01
-0.3189434838247E+00 -0.3227852843367E+01 -0.7093592760086E+00 -0.8241427204264E-01
-0.3232144383556E+00 -0.3204607820684E+01 -0.7055644623217E+00 -0.1039224196088E+00
-0.3334709416847E+00 -0.3175914077175E+01 -0.7018770142307E+00 -0.1253251336209E+00
-0.3488086545188E+00 -0.3141787995136E+01 -0.6981193403338E+00 -0.1465952906165E+00
-0.3681953556498E+00 -0.3102226636212E+01 -0.6940844087151E+00 -0.1676842654254E+00
-0.3904548457802E+00 -0.3057228193010E+01 -0.6895366180328E+00 -0.1885095315738E+00
-0.4142447865004E+00 -0.3006824892077E+01 -0.6842139459111E+00 -0.2089517598842E+00
-0.4380448957897E+00 -0.2951097876979E+01 -0.6778285646542E+00 -0.2288194891119E+00
-0.4601454113304E+00 -0.2890178630260E+01 -0.6700648183029E+00 -0.2478000736047E+00
-0.4786176135322E+00 -0.2824272859714E+01 -0.6605781044926E+00 -0.2654347465548E+00
-0.4912768020370E+00 -0.2753696111322E+01 -0.6489945923425E+00 -0.2811020413723E+00
-0.4956413428094E+00 -0.2678917575771E+01 -0.6349117931769E+00 -0.2940038325791E+00
-0.4888911238858E+00 -0.2600609184678E+01 -0.6179000709202E+00 -0.3031575821172E+00
-0.4678296868403E+00 -0.2519695897234E+01 -0.5975051257184E+00 -0.3074006927855E+00
-0.4288558468222E+00 -0.2437408060030E+01 -0.5732527899126E+00 -0.3054124454377E+00
-0.3679538349090E+00 -0.2355330356698E+01 -0.5446568464374E+00 -0.2957606535072E+00
-0.2807078622813E+00 -0.2275430967312E+01 -0.5112277735365E+00 -0.2769732871766E+00
-0.1623454521073E+00 -0.2200070508678E+01 -0.4724831991976E+00 -0.2476473744114E+00
-0.7834794839050E-02 -0.2132002158966E+01 -0.4279673971381E+00 -0.2066209826241E+00
 0.1879347813389E+00 -0.2074330633442E+01 -0.3772791760425E+00 -0.1532012636231E+00
 0.4298696024994E+00 -0.2030396472866E+01 -0.3201053788432E+00 -0.8743252744939E-01
 0.7222641271311E+00 -0.2003569672714E+01 -0.2562611129351E+00 -0.1039083462799E-01
 0.1068254170613E+01 -0.1996932450911E+01 -0.1857356588273E+00  0.7553612620509E-01
 0.1469154845228E+01 -0.2012846335089E+01 -0.1087382995925E+00  0.1664489532873E+00
 0.1923837455963E+01 -0.2052440844329E+01 -0.2572067805640E-01  0.2568976281765E+00
 0.2428476399713E+01 -0.2115155449729E+01  0.6266419093052E-01  0.3400416382810E+00
 0.2976035555245E+01 -0.2198407312444E+01  0.1555256508777E+00  0.4080270078660E+00
 0.3555068859343E+01 -0.2297194130069E+01  0.2515749496036E+00  0.4527803845051E+00
 0.4149513842012E+01 -0.2403950478497E+01  0.3491126779051E+00  0.4672332047058E+00
 0.4739693950354E+01 -0.2509032499712E+01  0.4461322967763E+00  0.4466010954933E+00
-0.7472819961676E+00 -0.3137511935521E+01 -0.7769587979153E+00  0.1050748243106E+00
-0.6805287794843E+00 -0.3166443658244E+01 -0.7693944990105E+00  0.1016540925829E+00
-0.6149839333286E+00 -0.3193788507167E+01 -0.7617544994502E+00  0.9373590590274E-01
-0.5526762729694E+00 -0.3218315470537E+01 -0.7541983599397E+00  0.8161462656217E-01
-0.4954552890870E+00 -0.3238945703857E+01 -0.7468802097182E+00  0.6583610102645E-01
-0.4448212010743E+00 -0.3254850201378E+01 -0.7399342915164E+00  0.4712263836512E-01
-0.4018328948766E+00 -0.3265486272090E+01 -0.7334638443228E+00  0.2625534343715E-01
-0.3670987728638E+00 -0.3270573937445E+01 -0.7275345529029E+00  0.3961481820477E-02
-0.3408271827924E+00 -0.3270033515826E+01 -0.7221721504849E+00 -0.1916243944726E-01
-0.3229044884644E+00 -0.3263910267474E+01 -0.7173629618772E+00 -0.4268287825473E-01
-0.3129740491721E+00 -0.3252306142247E+01 -0.7130560489092E+00 -0.6632331880232E-01
-0.3104997726094E+00 -0.3235329136616E+01 -0.7091657924126E+00 -0.8993394000355E-01
-0.3148081800356E+00 -0.3213062773125E+01 -0.7055742011460E+00 -0.1134502701737E+00
-0.3251097303683E+00 -0.3185553366886E+01 -0.7021326299134E+00 -0.1368507031174E+00
-0.3405036788245E+00 -0.3152810130000E+01 -0.6986627721758E+00 -0.1601190084225E+00
-0.3599715026156E+00 -0.3114814060401E+01 -0.6949571229589E+00 -0.1832134472751E+00
-0.3823582329858E+00 -0.3071541424287E+01 -0.6907799417481E+00 -0.2060536709754E+00
-0.4063488086738E+00 -0.3022999935067E+01 -0.6858697589685E+00 -0.2285180320007E+00
-0.4304587422570E+00 -0.2969240776799E+01 -0.6799399139430E+00 -0.2504063163202E+00
-0.4530252556222E+00 -0.2910354317367E+01 -0.6726759246215E+00 -0.2713872305454E+00
-0.4721776689381E+00 -0.2846491566690E+01 -0.6637338570160E+00 -0.2909707714620E+00
-0.4857990989558E+00 -0.2777898817352E+01 -0.6527395929881E+00 -0.3084890006431E+00
-0.4914831549951E+00 -0.2704961026174E+01 -0.6392888457600E+00 -0.3230793126687E+00
-0.4864885620516E+00 -0.2628251177608E+01 -0.6229479572145E+00 -0.3336741436116E+00
-0.4676955745626E+00 -0.2548582016084E+01 -0.6032555271185E+00 -0.3390034489495E+00
-0.4315694505541E+00 -0.2467061560864E+01 -0.5797262109223E+00 -0.3376157191074E+00
-0.3741394424210E+00 -0.2385147737726E+01 -0.5518574442526E+00 -0.3279252207930E+00
-0.2909982767945E+00 -0.2304685036376E+01 -0.5191366703698E+00 -0.3082857022971E+00
-0.1773254763645E+00 -0.2227924812847E+01 -0.4810500650106E+00 -0.2771042574902E+00
-0.2796063446809E-01 -0.2157544747411E+01 -0.4371010828892E+00 -0.2330252915102E+00
 0.1624417527265E+00 -0.2096632064011E+01 -0.3868380680212E+00 -0.1751794666623E+00
 0.3991521137123E+00 -0.2048592429614E+01 -0.3298880680960E+00 -0.1034828341535E+00
 0.6869712471511E+00 -0.2016964675043E+01 -0.2659986895420E+00 -0.1897489425499E-01
 0.1029676014938E+01 -0.2005112759336E+01 -0.1950873517867E+00  0.7584690041620E-01
 0.1429317961661E+01 -0.2015779272570E+01 -0.1172922639297E+00  0.1767678836371E+00
 0.1885522964359E+01 -0.2050527409249E+01 -0.3300088946971E-01  0.2777677433249E+00
 0.2395126916672E+01 -0.2109201587081E+01  0.5718506677037E-01  0.3711570038500E+00
 0.2951480770916E+01 -0.2189492473090E+01  0.1523976618360E+00  0.4479663743358E+00
 0.3543022824447E+01 -0.2286420935785E+01  0.2513203814772E+00  0.4988378005470E+00
 0.4152940425472E+01 -0.2392099651083E+01  0.3521681601255E+00  0.5154638697147E+00
 0.4760188186645E+01 -0.2496219502025E+01  0.4527937436711E+00  0.4921169887560E+00
-0.7468333248992E+00 -0.3139708418983E+01 -0.7773083603592E+00  0.1162077830914E+00
-0.6782868274586E+00 -0.3169415740048E+01 -0.7695405249684E+00  0.1124270961510E+00
-0.6110115393704E+00 -0.3197481346133E+01 -0.7616985884509E+00  0.1036639152857E+00
-0.5471438652543E+00 -0.3222626211244E+01 -0.7539540265345E+00  0.9024737660113E-01
-0.4886245517612E+00 -0.3243744309376E+01 -0.7464737833508E+00  0.7280847044519E-01
-0.4370013784457E+00 -0.3260014928974E+01 -0.7394032725019E+00  0.5218212436964E-01
-0.3933308146696E+00 -0.3270938311803E+01 -0.7328538362149E+00  0.2926195169779E-01
-0.3581794435362E+00 -0.3276300031754E+01 -0.7268959058896E+00  0.4866752757707E-02
-0.3316925658070E+00 -0.3276092914789E+01 -0.7215571068712E+00 -0.2034596504571E-01
-0.3136898705552E+00 -0.3270428426508E+01 -0.7168236700942E+00 -0.4591179526343E-01
-0.3037570158779E+00 -0.3259460290623E+01 -0.7126434719195E+00 -0.7154711787842E-01
-0.3013158343182E+00 -0.3243330788518E+01 -0.7089293351312E+00 -0.9711034811843E-01
-0.3056681795979E+00 -0.3222140794362E+01 -0.7055618053056E+00 -0.1225527339676E+00
-0.3160159426638E+00 -0.3195939475749E+01 -0.7023910941491E+00 -0.1478698188318E+00
-0.3314632393759E+00 -0.3164727294899E+01 -0.6992381172744E+00 -0.1730600176336E+00
-0.3510071364263E+00 -0.3128467276290E+01 -0.6958948929128E+00 -0.1980915829671E+00
-0.3735160513633E+00 -0.3087111834578E+01 -0.6921255875018E+00 -0.2228890932795E+00
-0.3977045154077E+00 -0.3040642488011E+01 -0.6876694109308E+00 -0.2473312061438E+00
-0.4221266631244E+00 -0.2989078748817E+01 -0.6822410925544E+00 -0.2712120360710E+00
-0.4451705104952E+00 -0.2932467500436E+01 -0.6755276122525E+00 -0.2941857174275E+00
-0.4650284628684E+00 -0.2870901596287E+01 -0.6671860217730E+00 -0.3157360595530E+00
-0.4796578352134E+00 -0.2804553254466E+01 -0.6568422277235E+00 -0.3351544136193E+00
-0.4867351673734E+00 -0.2733716796118E+01 -0.6440904022959E+00 -0.3515198276624E+00
-0.4836068784914E+00 -0.2658858057415E+01 -0.6284929965465E+00 -0.3636858040394E+00
-0.4672397401449E+00 -0.2580667330749E+01 -0.6095814232623E+00 -0.3702803453145E+00
-0.4341758620569E+00 -0.2500117792643E+01 -0.5868587396848E+00 -0.3697252282012E+00
-0.3804999599748E+00 -0.2418525668608E+01 -0.5598051340584E+00 -0.3602826328096E+00
-0.3018227678350E+00 -0.2337594275080E+01 -0.5278834164491E+00 -0.3401292765248E+00
-0.1932825893546E+00 -0.2259445966706E+01 -0.4905457185218E+00 -0.3074730518320E+00
-0.4959154696730E-01 -0.2186662468468E+01 -0.4472508097516E+00 -0.2607465191298E+00
 0.1348395456599E+00 -0.2122295267337E+01 -0.3974911502584E+00 -0.1988747528036E+00
 0.3656697333998E+00 -0.2069803428818E+01 -0.3408267441623E+00 -0.1216049240495E+00
 0.6482528669618E+00 -0.2032895148361E+01 -0.2769284604064E+00 -0.2989000256784E-01
 0.9870816365684E+00 -0.2015235183692E+01 -0.2056307124889E+00  0.7371555138894E-01
 0.1385049333815E+01 -0.2019989435322E+01 -0.1269880221938E+00  0.1847252671279E+00
 0.1842667736978E+01 -0.2049219771359E+01 -0.4131040749193E-01  0.2965656762340E+00
 0.2357576614724E+01 -0.2103254010349E+01  0.5086452163291E-01  0.4006704057763E+00
 0.2923632288469E+01 -0.2180128954614E+01  0.1487006689868E+00  0.4868648452115E+00
 0.3529197015962E+01 -0.2274924481785E+01  0.2508545105735E+00  0.5443536331966E+00
 0.4156628619848E+01 -0.2379400814108E+01  0.3554455664445E+00  0.5634121689606E+00
 0.4783324728858E+01 -0.2482491570911E+01  0.4601666384465E+00  0.5372192618670E+00
-0.7463389043851E+00 -0.3142116748242E+01 -0.7776911421139E+00  0.1276498916442E+00
-0.6758152951769E+00 -0.3172671940526E+01 -0.7696974586099E+00  0.1234975839922E+00
-0.6066276100271E+00 -0.3201518746220E+01 -0.7616292825986E+00  0.1138561481939E+00
-0.5410429336530E+00 -0.3227319775390E+01 -0.7536725530392E+00  0.9909360737447E-01
-0.4811096045160E+00 -0.3248937726043E+01 -0.7460094772282E+00  0.7993938872818E-01
-0.4284278559617E+00 -0.3265564369047E+01 -0.7387984560107E+00  0.5735681520434E-01
-0.3840462573733E+00 -0.3276753355773E+01 -0.7321599335392E+00  0.3236418712645E-01
-0.3484780883821E+00 -0.3282368672470E+01 -0.7261693629912E+00  0.5877490633170E-02
-0.3217928045523E+00 -0.3282487377771E+01 -0.7208560472062E+00 -0.2138541650105E-01
-0.3037325371495E+00 -0.3277295760924E+01 -0.7162056702870E+00 -0.4893422406051E-01
-0.2938177006505E+00 -0.3267004396325E+01 -0.7121644300073E+00 -0.7648516241254E-01
-0.2914239269525E+00 -0.3251791913847E+01 -0.7086431787196E+00 -0.1039120277996E+00
-0.2958270487079E+00 -0.3231776483180E+01 -0.7055207168907E+00 -0.1311880744020E+00
-0.3062209263868E+00 -0.3207008822702E+01 -0.7026459602880E+00 -0.1583310412083E+00
-0.3217161408182E+00 -0.3177478779091E+01 -0.6998389944103E+00 -0.1853578874376E+00
-0.3413274131735E+00 -0.3143129404920E+01 -0.6968913740031E+00 -0.2122499997342E+00
-0.3639486935932E+00 -0.3103887434036E+01 -0.6935672358608E+00 -0.2389396388587E+00
-0.3883262557444E+00 -0.3059706755648E+01 -0.6896066125545E+00 -0.2653084206749E+00
-0.4130554091802E+00 -0.3010573893671E+01 -0.6847258707735E+00 -0.2911480000639E+00
-0.4365784604471E+00 -0.2956490403709E+01 -0.6786137829433E+00 -0.3161023035097E+00
-0.4571556702077E+00 -0.2897488134749E+01 -0.6709287709890E+00 -0.3396344400755E+00
-0.4728247480212E+00 -0.2833661071339E+01 -0.6612971737261E+00 -0.3610013731972E+00
-0.4813527938541E+00 -0.2765207184477E+01 -0.6493120053417E+00 -0.3792306110380E+00
-0.4801828962633E+00 -0.2692477628892E+01 -0.6345321144864E+00 -0.3931036114980E+00
-0.4663785298469E+00 -0.2616030567399E+01 -0.6164818286355E+00 -0.4011528619179E+00
-0.4365698532633E+00 -0.2536692118724E+01 -0.5946524032585E+00 -0.4016785975206E+00
-0.3869088766753E+00 -0.2455621688550E+01 -0.5685061215164E+00 -0.3927935736970E+00
-0.3130360520718E+00 -0.2374362988550E+01 -0.5374798161335E+00 -0.3724958440713E+00
-0.2100584962387E+00 -0.2294887564346E+01 -0.5009892195823E+00 -0.3387857057601E+00
-0.7256630436346E-01 -0.2219657250651E+01 -0.4584447178342E+00 -0.2898657803272E+00
 0.1052771461807E+00 -0.2151664557955E+01 -0.4092774884535E+00 -0.2244250830190E+00
 0.3295389642227E+00 -0.2094403974502E+01 -0.3529730073156E+00 -0.1419976518207E+00
 0.6061692834682E+00 -0.2051746973047E+01 -0.2891155422239E+00 -0.4339335636240E-01
 0.9404518904020E+00 -0.2027672879536E+01 -0.2174442010669E+00  0.6883882460599E-01
 0.1336234513640E+01 -0.2025811604113E+01 -0.1379154201496E+00  0.1899959050029E+00
 0.1795063028223E+01 -0.2048793379764E+01 -0.5074607106437E-01  0.3129794231393E+00
 0.2315550479620E+01 -0.2097520197530E+01  0.4360605706793E-01  0.4283232278045E+00
 0.2892209087938E+01 -0.2170466034692E+01  0.1443486128003E+00  0.5245488265301E+00
 0.3513387413389E+01 -0.2262821554923E+01  0.2501131754202E+00  0.5892432678025E+00
 0.4160530144080E+01 -0.2365963452999E+01  0.3589133435644E+00  0.6110493930794E+00
 0.4809267007935E+01 -0.2467962309570E+01  0.4682609466507E+00  0.5818813210204E+00
-0.7457976788797E+00 -0.3144746170355E+01 -0.7781087814416E+00  0.1394294386508E+00
-0.6731050476179E+00 -0.3176222480060E+01 -0.7698655170075E+00  0.1348915203975E+00
-0.6018142198376E+00 -0.3205909247756E+01 -0.7615447048666E+00  0.1243312075669E+00
-0.5343508321260E+00 -0.3232398347431E+01 -0.7533498471372E+00  0.1081612445837E+00
-0.4728895635330E+00 -0.3254516943680E+01 -0.7454813125512E+00  0.8722627917376E-01
-0.4190874839156E+00 -0.3271475188833E+01 -0.7381125455485E+00  0.6263707673943E-01
-0.3739773751275E+00 -0.3282893185183E+01 -0.7313741229604E+00  0.3555052844106E-01
-0.3380049159085E+00 -0.3288728463207E+01 -0.7253466866316E+00  0.6985466674904E-02
-0.3111487368071E+00 -0.3289155383323E+01 -0.7200608347557E+00 -0.2228166893666E-01
-0.2930613376447E+00 -0.3284444048476E+01 -0.7155010878860E+00 -0.5174113089378E-01
-0.2831900255836E+00 -0.3274866657410E+01 -0.7116113472026E+00 -0.8111732453528E-01
-0.2808603435596E+00 -0.3260639637705E+01 -0.7083000068075E+00 -0.1103075743783E+00
-0.2853212404632E+00 -0.3241897750341E+01 -0.7054438086727E+00 -0.1393140374184E+00
-0.2957596020627E+00 -0.3218691441505E+01 -0.7028902191875E+00 -0.1681819838010E+00
-0.3112944773101E+00 -0.3190997757279E+01 -0.7004584573555E+00 -0.1969508857773E+00
-0.3309605035998E+00 -0.3158737688142E+01 -0.6979396487484E+00 -0.2256183623536E+00
-0.3536792879364E+00 -0.3121810573399E+01 -0.6950979826248E+00 -0.2541270410949E+00
-0.3782307919795E+00 -0.3080141522481E+01 -0.6916744731988E+00 -0.2823641164087E+00
-0.4032537259544E+00 -0.3033683197135E+01 -0.6873873948609E+00 -0.3101220815761E+00
-0.4272478162508E+00 -0.2982390564601E+01 -0.6819276863319E+00 -0.3370392808843E+00
-0.4485456269102E+00 -0.2926232297858E+01 -0.6749555950113E+00 -0.3625640310251E+00
-0.4652712318186E+00 -0.2865220731231E+01 -0.6660984025356E+00 -0.3859257797377E+00
-0.4752898174180E+00 -0.2799452563042E+01 -0.6549484858514E+00 -0.4061079731348E+00
-0.4761501777030E+00 -0.2729157538597E+01 -0.6410615528125E+00 -0.4218277336428E+00
-0.4650229890151E+00 -0.2654752745849E+01 -0.6239551562706E+00 -0.4315294860810E+00
-0.4386383780428E+00 -0.2576905531888E+01 -0.6031087909732E+00 -0.4333983428355E+00
-0.3932288356923E+00 -0.2496603394852E+01 -0.5779664547213E+00 -0.4254017591303E+00
-0.3244785120083E+00 -0.2415211239185E+01 -0.5479379584036E+00 -0.4053590659413E+00
-0.2274768285013E+00 -0.2334526004412E+01 -0.5124005742180E+00 -0.3710559902551E+00
-0.9670207440898E-01 -0.2256862096960E+01 -0.4707128412881E+00 -0.3204478719564E+00
 0.7392766294599E-01 -0.2185124355994E+01 -0.4222393449014E+00 -0.2519564986951E+00
 0.2909007458526E+00 -0.2122817536681E+01 -0.3663833636253E+00 -0.1648553660723E+00
 0.5608018564688E+00 -0.2073962222300E+01 -0.3026320776758E+00 -0.5974800897201E-01
 0.8897802228255E+00 -0.2042858934966E+01 -0.2306157458645E+00  0.6089532994827E-01
 0.1282757486732E+01 -0.2033638965484E+01 -0.1501762979883E+00  0.1922245973788E+00
 0.1742480028773E+01 -0.2049574382542E+01 -0.6141887166896E-01  0.3266591277533E+00
 0.2268735273183E+01 -0.2092245518149E+01  0.3529795153287E-01  0.4538193028016E+00
 0.2856882784738E+01 -0.2160677536429E+01  0.1392410517368E+00  0.5608177674103E+00
 0.3495351326140E+01 -0.2250246656933E+01  0.2490209375520E+00  0.6334111415087E+00
 0.4164581833227E+01 -0.2351915178921E+01  0.3625333362634E+00  0.6583451188375E+00
 0.4838188317443E+01 -0.2452761843000E+01  0.4770853019978E+00  0.6260761866113E+00
-0.7452085900256E+00 -0.3147609658957E+01 -0.7785636613980E+00  0.1515753831389E+00
-0.6701449262928E+00 -0.3180081621678E+01 -0.7700453210686E+00  0.1466350037903E+00
-0.5965495443859E+00 -0.3210665041386E+01 -0.7614429285008E+00  0.1351061663559E+00
-0.5270403719553E+00 -0.3237866276196E+01 -0.7529813408506E+00  0.1174545191542E+00
-0.4639398756386E+00 -0.3260472731397E+01 -0.7448825325068E+00  0.9466113055989E-01
-0.4089653562488E+00 -0.3277721173881E+01 -0.7373373170131E+00  0.6800713200989E-01
-0.3631227560724E+00 -0.3289314406589E+01 -0.7304874434174E+00  0.3880368692506E-01
-0.3267724383810E+00 -0.3295321273623E+01 -0.7244187531955E+00  0.8177801354285E-02
-0.2997847686561E+00 -0.3296027888150E+01 -0.7191625420775E+00 -0.2303883831205E-01
-0.2817093457706E+00 -0.3291797356561E+01 -0.7147013511162E+00 -0.5432536841913E-01
-0.2719123219380E+00 -0.3282967738227E+01 -0.7109760226273E+00 -0.8542424742143E-01
-0.2696656709507E+00 -0.3269793893331E+01 -0.7078919234047E+00 -0.1162655231748E+00
-0.2741912336828E+00 -0.3252425689077E+01 -0.7053233950622E+00 -0.1468877244799E+00
-0.2846706018483E+00 -0.3230910883559E+01 -0.7031163075586E+00 -0.1773692017480E+00
-0.3002337586029E+00 -0.3205211189453E+01 -0.7010890000582E+00 -0.2077758887554E+00
-0.3199377381698E+00 -0.3175223354937E+01 -0.6990322290378E+00 -0.2381245989060E+00
-0.3427338895272E+00 -0.3140817749792E+01 -0.6967103382457E+00 -0.2683708557919E+00
-0.3674375568173E+00 -0.3101889873553E+01 -0.6938654964135E+00 -0.2984099512610E+00
-0.3927326885000E+00 -0.3058358142373E+01 -0.6902181764597E+00 -0.3280385539588E+00
-0.4171791336986E+00 -0.3010130313272E+01 -0.6854618996084E+00 -0.3568942836657E+00
-0.4391858365405E+00 -0.2957110452322E+01 -0.6792592678942E+00 -0.3844169724236E+00
-0.4569689343465E+00 -0.2899226650456E+01 -0.6712391269627E+00 -0.4098159543694E+00
-0.4684990713958E+00 -0.2836470313631E+01 -0.6609938868550E+00 -0.4320387485432E+00
-0.4714397721512E+00 -0.2768944007572E+01 -0.6480767656018E+00 -0.4497466786615E+00
-0.4630796314354E+00 -0.2696915732672E+01 -0.6319990822390E+00 -0.4613046325071E+00
-0.4402612790702E+00 -0.2620883096221E+01 -0.6122288841812E+00 -0.4647904070459E+00
-0.3993121426656E+00 -0.2541646904638E+01 -0.5881918182254E+00 -0.4580320089195E+00
-0.3359763094816E+00 -0.2460373543234E+01 -0.5592699788769E+00 -0.4386719846972E+00
-0.2453426075025E+00 -0.2378659739703E+01 -0.5248004772613E+00 -0.4042765431961E+00
-0.1217929447803E+00 -0.2298641314560E+01 -0.4840868590816E+00 -0.3525379289392E+00
 0.4099100182151E-01 -0.2223100905081E+01 -0.4364219871552E+00 -0.2815796937618E+00
 0.2499244350255E+00 -0.2155520258571E+01 -0.3811191703883E+00 -0.1903649439463E+00
 0.5122580628529E+00 -0.2100045182393E+01 -0.3175574286401E+00 -0.7922116284606E-01
 0.8350780279955E+00 -0.2061294607810E+01 -0.2452433196173E+00  0.4954506821932E-01
 0.1224504919755E+01 -0.2043932824900E+01 -0.1638855834711E+00  0.1910227453626E+00
 0.1684671083615E+01 -0.2051949328137E+01 -0.7345564999890E-01  0.3372106481910E+00
 0.2216775896729E+01 -0.2087720679839E+01  0.2581104376260E-01  0.4768166572144E+00
 0.2817269386867E+01 -0.2150964949635E+01  0.1332608894323E+00  0.5954374976078E+00
 0.3474799853677E+01 -0.2237352402781E+01  0.2474894938671E+00  0.6767495708453E+00
 0.4168704817705E+01 -0.2337404729369E+01  0.3662600231248E+00  0.7052683822391E+00
 0.4870268727479E+01 -0.2437040168284E+01  0.4866457190906E+00  0.6697731161322E+00
-0.7445705857145E+00 -0.3150724910053E+01 -0.7790591107623E+00  0.1641175618418E+00
-0.6669212691407E+00 -0.3184268733359E+01 -0.7702380119773E+00  0.1587543121444E+00
-0.5908070076946E+00 -0.3215802887205E+01 -0.7613219903244E+00  0.1461961839709E+00
-0.5190789732762E+00 -0.3243730579454E+01 -0.7525619217601E+00  0.1269731153941E+00
-0.4542318215186E+00 -0.3266795587650E+01 -0.7442054929233E+00  0.1022293960315E+00
-0.3980447891669E+00 -0.3284272698965E+01 -0.7364635086006E+00  0.7344401896122E-01
-0.3514817854704E+00 -0.3295967663386E+01 -0.7294899006416E+00  0.4209984201100E-01
-0.3147960264886E+00 -0.3302081424934E+01 -0.7233755010636E+00  0.9436541880120E-02
-0.2877294505299E+00 -0.3303027643270E+01 -0.7181514294613E+00 -0.2366441662318E-01
-0.2697143531417E+00 -0.3299271547989E+01 -0.7137971908626E+00 -0.5668162605709E-01
-0.2600277045848E+00 -0.3291220451947E+01 -0.7102496418899E+00 -0.8938720677485E-01
-0.2578850520904E+00 -0.3279167234379E+01 -0.7074104678350E+00 -0.1217541885508E+00
-0.2624817110441E+00 -0.3263274464071E+01 -0.7051512455305E+00 -0.1538654460168E+00
-0.2729963984780E+00 -0.3243584137392E+01 -0.7033161176543E+00 -0.1858380756323E+00
-0.2885730264574E+00 -0.3220039733533E+01 -0.7017225624545E+00 -0.2177682979374E+00
-0.3082937460894E+00 -0.3192511496059E+01 -0.7001610588630E+00 -0.2496948452887E+00
-0.3311416718042E+00 -0.3160839415896E+01 -0.6983962279469E+00 -0.2815884190130E+00
-0.3559689183834E+00 -0.3124888912617E+01 -0.6961715765738E+00 -0.3133547521884E+00
-0.3815060523741E+00 -0.3084544311624E+01 -0.6932100831293E+00 -0.3447980151266E+00
-0.4063752575866E+00 -0.3039666230192E+01 -0.6892083078258E+00 -0.3755601623181E+00
-0.4290655130837E+00 -0.2990093498480E+01 -0.6838318125026E+00 -0.4050792241331E+00
-0.4478904038764E+00 -0.2935668274467E+01 -0.6767117457525E+00 -0.4325523249177E+00
-0.4609331921848E+00 -0.2876273670810E+01 -0.6674413825447E+00 -0.4568998199151E+00
-0.4659810612286E+00 -0.2811880428657E+01 -0.6555723077458E+00 -0.4767365878562E+00
-0.4604513369647E+00 -0.2742600609028E+01 -0.6406103987444E+00 -0.4903576159757E+00
-0.4413121548226E+00 -0.2668752146635E+01 -0.6220128695603E+00 -0.4957427087572E+00
-0.4050014603412E+00 -0.2590935014406E+01 -0.5991873038779E+00 -0.4905882624020E+00
-0.3473416938881E+00 -0.2510097212911E+01 -0.5714877898756E+00 -0.4723644142725E+00
-0.2634418748194E+00 -0.2427608147251E+01 -0.5382100124341E+00 -0.4384155965244E+00
-0.1476085230252E+00 -0.2345390400260E+01 -0.4985997920867E+00 -0.3861575693038E+00
 0.6696649452418E-02 -0.2266063789352E+01 -0.4518734347133E+00 -0.3133858627597E+00
 0.2068121930418E+00 -0.2193044766762E+01 -0.3972465206635E+00 -0.2187019262057E+00
 0.4606773518413E+00 -0.2130568973466E+01 -0.3339783293016E+00 -0.1020815229626E+00
 0.7763811925030E+00 -0.2083558824928E+01 -0.2614355303807E+00  0.3442967368601E-01
 0.1161371789539E+01 -0.2057234265493E+01 -0.1791724978609E+00  0.1859651045743E+00
 0.1621372082496E+01 -0.2056377356332E+01 -0.8700105606356E-01  0.3441883726199E+00
 0.2159271856041E+01 -0.2084291759588E+01  0.1499601951401E-01  0.4969172092741E+00
 0.2772918752830E+01 -0.2141561408599E+01  0.1262714707279E+00  0.6281307043285E+00
 0.3451387026576E+01 -0.2224307476206E+01  0.2454159137311E+00  0.7191373113325E+00
 0.4172805778784E+01 -0.2322603860109E+01  0.3700403892489E+00  0.7517920421030E+00
 0.4905691191582E+01 -0.2420971352910E+01  0.4969439751395E+00  0.7129321064202E+00
-0.7438826215554E+00 -0.3154115565382E+01 -0.7795996490043E+00  0.1770869489617E+00
-0.6634172965652E+00 -0.3188809584652E+01 -0.7704453877240E+00  0.1712759466361E+00
-0.5845542234866E+00 -0.3221345202935E+01 -0.7611798966268E+00  0.1576139982026E+00
-0.5104276602243E+00 -0.3250001477479E+01 -0.7520858387476E+00  0.1367110930841E+00
-0.4437319902668E+00 -0.3273475570141E+01 -0.7434415231598E+00  0.1099086584618E+00
-0.3863073883025E+00 -0.3291095991996E+01 -0.7354806870192E+00  0.7891639443524E-01
-0.3390551491673E+00 -0.3302796637861E+01 -0.7283703682593E+00  0.4540783183399E-01
-0.3020945980168E+00 -0.3308934721752E+01 -0.7222058747154E+00  0.1073827914884E-01
-0.2750161463670E+00 -0.3310068428752E+01 -0.7170169257083E+00 -0.2416932788276E-01
-0.2571194112737E+00 -0.3306773764175E+01 -0.7127786457109E+00 -0.5880629906142E-01
-0.2475844616693E+00 -0.3299529455227E+01 -0.7094227939504E+00 -0.9298790921236E-01
-0.2455684445294E+00 -0.3288664672917E+01 -0.7068466340220E+00 -0.1267414632781E+00
-0.2502417245649E+00 -0.3274351226787E+01 -0.7049186007744E+00 -0.1602025558538E+00
-0.2607834190236E+00 -0.3256621569889E+01 -0.7034810082651E+00 -0.1935326923675E+00
-0.2763549570494E+00 -0.3235397674329E+01 -0.7023505367415E+00 -0.2268619673127E+00
-0.2960665844282E+00 -0.3210520950308E+01 -0.7013175173978E+00 -0.2602534101872E+00
-0.3189351145903E+00 -0.3181799796483E+01 -0.7001469926476E+00 -0.2936948351917E+00
-0.3438504497746E+00 -0.3149069482851E+01 -0.6985839969349E+00 -0.3271045067542E+00
-0.3695906173961E+00 -0.3112180983664E+01 -0.6963543305885E+00 -0.3602973613829E+00
-0.3948417873125E+00 -0.3070948588810E+01 -0.6931580855534E+00 -0.3929249181718E+00
-0.4181761565531E+00 -0.3025146121235E+01 -0.6886644658196E+00 -0.4244304356990E+00
-0.4380097852308E+00 -0.2974529097019E+01 -0.6825077866201E+00 -0.4540071949668E+00
-0.4525454435872E+00 -0.2918870472722E+01 -0.6742831933095E+00 -0.4805577320085E+00
-0.4597027063006E+00 -0.2858005826114E+01 -0.6635417163704E+00 -0.5026606169993E+00
-0.4570383889493E+00 -0.2791885843563E+01 -0.6497848561850E+00 -0.5185516968355E+00
-0.4416594080213E+00 -0.2720640225081E+01 -0.6324599360449E+00 -0.5261237253952E+00
-0.4101307239237E+00 -0.2644655019914E+01 -0.6109571578716E+00 -0.5229515579277E+00
-0.3583735559414E+00 -0.2564640283396E+01 -0.5846027765787E+00 -0.5063401795452E+00
-0.2815415575947E+00 -0.2481709928752E+01 -0.5526503055044E+00 -0.4734133837825E+00
-0.1738926932723E+00 -0.2397535460147E+01 -0.5142856383473E+00 -0.4213004913493E+00
-0.2869351108252E-01 -0.2314527105479E+01 -0.4686441302957E+00 -0.3474417306797E+00
 0.1618037419949E+00 -0.2235983949944E+01 -0.4148360477713E+00 -0.2500255807960E+00
 0.4062378536522E+00 -0.2166182703770E+01 -0.3519889752687E+00 -0.1285954566162E+00
 0.7137580306866E+00 -0.2110319034700E+01 -0.2793122049647E+00  0.1517367097649E-01
 0.1093268733719E+01 -0.2074178072930E+01 -0.1961818707654E+00  0.1765869215928E+00
 0.1552306496987E+01 -0.2063405393910E+01 -0.1022197809079E+00  0.3470874253604E+00
 0.2095774596738E+01 -0.2082373955986E+01  0.2680128190388E-02  0.5136542759970E+00
 0.2723301567821E+01 -0.2132738287364E+01  0.1181126578513E+00  0.6585627376735E+00
 0.3424692581504E+01 -0.2211290203210E+01  0.2426804792752E+00  0.7604358481903E+00
 0.4176781423411E+01 -0.2307703893354E+01  0.3738155115817E+00  0.7979037398022E+00
 0.4944637540776E+01 -0.2404756589369E+01  0.5079761978510E+00  0.7554962610808E+00
-0.7431436502176E+00 -0.3157812725752E+01 -0.7801912868197E+00  0.1905159807639E+00
-0.6596123214044E+00 -0.3193737937764E+01 -0.7706700633177E+00  0.1842266650896E+00
-0.5777516764524E+00 -0.3227321351331E+01 -0.7610146168967E+00  0.1693692438113E+00
-0.5010398765241E+00 -0.3256692934918E+01 -0.7515465734873E+00  0.1466555132882E+00
-0.4324017462581E+00 -0.3280501944646E+01 -0.7425807492461E+00  0.1176670088682E+00
-0.3737332499972E+00 -0.3298152122438E+01 -0.7343770854301E+00  0.8438316940816E-01
-0.3258455221119E+00 -0.3309736795890E+01 -0.7271164744352E+00  0.4868831680347E-01
-0.2886914650642E+00 -0.3315797311947E+01 -0.7208977661444E+00  0.1205383617438E-01
-0.2616838016544E+00 -0.3317054211736E+01 -0.7157476133436E+00 -0.2456787562724E-01
-0.2439734161209E+00 -0.3314201901494E+01 -0.7116350741271E+00 -0.6069725752967E-01
-0.2346364494488E+00 -0.3307790972074E+01 -0.7084854948619E+00 -0.9620821932801E-01
-0.2327708654554E+00 -0.3298183556431E+01 -0.7061908949004E+00 -0.1311945770455E+00
-0.2375248412377E+00 -0.3285556065581E+01 -0.7046161918634E+00 -0.1658532686310E+00
-0.2480821381900E+00 -0.3269926893853E+01 -0.7036018168931E+00 -0.2003957256908E+00
-0.2636259451302E+00 -0.3251192871632E+01 -0.7029637738274E+00 -0.2349891419744E+00
-0.2832978535674E+00 -0.3229164205226E+01 -0.7024924222266E+00 -0.2697227620223E+00
-0.3061501852522E+00 -0.3203616716306E+01 -0.7019533907716E+00 -0.3046029968950E+00
-0.3311111995578E+00 -0.3174355895853E+01 -0.7010934295293E+00 -0.3395623960998E+00
-0.3570066002289E+00 -0.3141200734458E+01 -0.6996414773628E+00 -0.3744298134679E+00
-0.3825875596228E+00 -0.3103920791801E+01 -0.6973016806754E+00 -0.4088717030427E+00
-0.4065121568489E+00 -0.3062226017634E+01 -0.6937476452343E+00 -0.4423438960526E+00
-0.4273035610019E+00 -0.3015785629400E+01 -0.6886178483416E+00 -0.4740446074245E+00
-0.4432906116993E+00 -0.2964261824135E+01 -0.6815104973221E+00 -0.5028684112431E+00
-0.4525337015879E+00 -0.2907353176981E+01 -0.6719773857269E+00 -0.5273684258735E+00
-0.4527396619977E+00 -0.2844845262416E+01 -0.6595169947103E+00 -0.5457332228903E+00
-0.4411674965839E+00 -0.2776672734048E+01 -0.6435680557164E+00 -0.5557811380971E+00
-0.4145263129781E+00 -0.2702996159197E+01 -0.6235045037259E+00 -0.5549780051735E+00
-0.3688582822833E+00 -0.2624268961258E+01 -0.5986254576285E+00 -0.5404742304597E+00
-0.2993896472898E+00 -0.2541320942029E+01 -0.5681421263297E+00 -0.5091782375778E+00
-0.2003626289830E+00 -0.2455532021351E+01 -0.5311789379820E+00 -0.4579274970238E+00
-0.6488245857811E-01 -0.2369050110213E+01 -0.4867865210118E+00 -0.3837836739595E+00
 0.1151814191718E+00 -0.2284994518138E+01 -0.4339626262597E+00 -0.2844727041628E+00
 0.3491639626056E+00 -0.2207619038562E+01 -0.3716910207298E+00 -0.1590216600745E+00
 0.6473188254172E+00 -0.2142343445971E+01 -0.2990049285662E+00 -0.8612853981421E-02
 0.1020131545836E+01 -0.2095509316602E+01 -0.2150755573580E+00  0.1623817853014E+00
 0.1477191493686E+01 -0.2073686896783E+01 -0.1192990823972E+00  0.3453354071998E+00
 0.2025786798744E+01 -0.2082469954062E+01 -0.1133663123256E-01  0.5264783600105E+00
 0.2667795424923E+01 -0.2124818377065E+01  0.1085954111899E+00  0.6863211427216E+00
 0.3394192496633E+01 -0.2198478305696E+01  0.2391428417511E+00  0.8004767673529E+00
 0.4180526411298E+01 -0.2292894275258E+01  0.3775264328336E+00  0.8436284156829E+00
 0.4987285892134E+01 -0.2388617961450E+01  0.5197335938814E+00  0.7973847454672E+00
-0.7423525915033E+00 -0.3161856838200E+01 -0.7808418975761E+00  0.2044389607671E+00
-0.6554807251932E+00 -0.3199097512212E+01 -0.7709156589687E+00  0.1976334909192E+00
-0.5703510742035E+00 -0.3233769161322E+01 -0.7608240584423E+00  0.1814675284762E+00
-0.4908600983578E+00 -0.3263823174833E+01 -0.7509366658279E+00  0.1567846747142E+00
-0.4201967238733E+00 -0.3287862566610E+01 -0.7416118691475E+00  0.1254610742580E+00
-0.3603013591485E+00 -0.3305395625679E+01 -0.7331394078902E+00  0.8979196593557E-01
-0.3118584943416E+00 -0.3316713818882E+01 -0.7257144734588E+00  0.5189294747208E-01
-0.2746153654076E+00 -0.3322574359316E+01 -0.7194379556652E+00  0.1334807211844E-01
-0.2477778121373E+00 -0.3323878240037E+01 -0.7143312210792E+00 -0.2487754594104E-01
-0.2303317241986E+00 -0.3321444103771E+01 -0.7103551761791E+00 -0.6235349490918E-01
-0.2212434785116E+00 -0.3315892568710E+01 -0.7074272199859E+00 -0.9902980852195E-01
-0.2195526119985E+00 -0.3307613499259E+01 -0.7054332327633E+00 -0.1350798152132E+00
-0.2243892611069E+00 -0.3296781999137E+01 -0.7042342625426E+00 -0.1707704642382E+00
-0.2349471460923E+00 -0.3283397165675E+01 -0.7036688728390E+00 -0.2063683200216E+00
-0.2504361660843E+00 -0.3267326729079E+01 -0.7035525895164E+00 -0.2420804108737E+00
-0.2700327954199E+00 -0.3248347314171E+01 -0.7036760324038E+00 -0.2780235390339E+00
-0.2928265093713E+00 -0.3226201443119E+01 -0.7038056009856E+00 -0.3142236369078E+00
-0.3177839593514E+00 -0.3200665675197E+01 -0.7036899373956E+00 -0.3506288702926E+00
-0.3437780112036E+00 -0.3171529049703E+01 -0.7030614226577E+00 -0.3870849970875E+00
-0.3696251430492E+00 -0.3138518811091E+01 -0.7016288012831E+00 -0.4232788886531E+00
-0.3940714200320E+00 -0.3101283111357E+01 -0.6990709166948E+00 -0.4586865712447E+00
-0.4157513329725E+00 -0.3059406328489E+01 -0.6950315426491E+00 -0.4925203148713E+00
-0.4331259678151E+00 -0.3012440677521E+01 -0.6891133393357E+00 -0.5236770075082E+00
-0.4444045348602E+00 -0.2959947595487E+01 -0.6808704362151E+00 -0.5506957975860E+00
-0.4474539692033E+00 -0.2901545810799E+01 -0.6697999659813E+00 -0.5717308946429E+00
-0.4396984071214E+00 -0.2836970290473E+01 -0.6553337492841E+00 -0.5845405709153E+00
-0.4180085160540E+00 -0.2766146643322E+01 -0.6368310413646E+00 -0.5864967871824E+00
-0.3785709698141E+00 -0.2689254529767E+01 -0.6135651090591E+00 -0.5746096673174E+00
-0.3167157798920E+00 -0.2606811356413E+01 -0.5847054359738E+00 -0.5455824019446E+00
-0.2267081816566E+00 -0.2519863073423E+01 -0.5493142592014E+00 -0.4959609322687E+00
-0.1015355042032E+00 -0.2430237122843E+01 -0.5063545329546E+00 -0.4224108512585E+00
 0.6727540617324E-01 -0.2340800091497E+01 -0.4547049438404E+00 -0.3221499611684E+00
 0.2897347976268E+00 -0.2255701975000E+01 -0.3931934413337E+00 -0.1936039653872E+00
 0.5772271077622E+00 -0.2180514664449E+01 -0.3206575161156E+00 -0.3732971285255E-01
 0.9419334901813E+00 -0.2122102807334E+01 -0.2360338669476E+00  0.1428008402652E+00
 0.1395746424885E+01 -0.2088005406697E+01 -0.1384517984255E+00  0.3382835014992E+00
 0.1948764215503E+01 -0.2085192126679E+01 -0.2728558264174E-01  0.5347421583058E+00
 0.2605675196346E+01 -0.2118201156792E+01  0.9749480936351E-01  0.7108906360211E+00
 0.3359212308035E+01 -0.2186046580343E+01  0.2346331490348E+00  0.8390266549565E+00
 0.4183930892111E+01 -0.2278303670444E+01  0.3811254500125E+00  0.8890555424242E+00
 0.5033829986454E+01 -0.2372722017936E+01  0.5322216016343E+00  0.8385109585135E+00
-0.7415082722652E+00 -0.3166300070985E+01 -0.7815616802962E+00  0.2188925656824E+00
-0.6509906212525E+00 -0.3204944427726E+01 -0.7711870212872E+00  0.2115236738606E+00
-0.5622932806816E+00 -0.3240736720882E+01 -0.7606060116466E+00  0.1939091670118E+00
-0.4798222245085E+00 -0.3271415104486E+01 -0.7502474769785E+00  0.1670658368494E+00
-0.4070664075047E+00 -0.3295542874039E+01 -0.7405218673435E+00  0.1332336208212E+00
-0.3459902682404E+00 -0.3312772649835E+01 -0.7317525945190E+00  0.9507739701843E-01
-0.2971037973935E+00 -0.3323641661151E+01 -0.7241491024995E+00  0.5496358695804E-01
-0.2599017026780E+00 -0.3329158520658E+01 -0.7178120553634E+00  0.1457986120278E-01
-0.2333509885143E+00 -0.3330422094558E+01 -0.7127546272354E+00 -0.2511862286999E-01
-0.2162567826699E+00 -0.3328378302922E+01 -0.7089270276822E+00 -0.6377463487254E-01
-0.2074716731362E+00 -0.3323713006525E+01 -0.7062369464559E+00 -0.1014337212129E+00
-0.2059794434666E+00 -0.3316836385842E+01 -0.7045631763606E+00 -0.1383622021784E+00
-0.2108978998824E+00 -0.3307915021513E+01 -0.7037625947660E+00 -0.1749054858903E+00
-0.2214371860903E+00 -0.3296922815334E+01 -0.7036720107703E+00 -0.2113899828568E+00
-0.2368396127448E+00 -0.3283694183741E+01 -0.7041067697892E+00 -0.2480646762480E+00
-0.2563203713045E+00 -0.3267969830497E+01 -0.7048580508636E+00 -0.2850745830656E+00
-0.2790075274379E+00 -0.3249458549321E+01 -0.7056932258674E+00 -0.3224654122627E+00
-0.3039055243293E+00 -0.3227909321607E+01 -0.7063629797129E+00 -0.3602017658918E+00
-0.3299330300452E+00 -0.3203083959560E+01 -0.7066034084502E+00 -0.3981490793022E+00
-0.3559713373426E+00 -0.3174670643929E+01 -0.7061284067764E+00 -0.4360202102508E+00
-0.3808560096690E+00 -0.3142258766453E+01 -0.7046229657242E+00 -0.4733192387736E+00
-0.4033366371205E+00 -0.3105350494249E+01 -0.7017374367306E+00 -0.5092818699518E+00
-0.4220122951333E+00 -0.3063390339813E+01 -0.6970805373767E+00 -0.5428178763889E+00
-0.4352484558289E+00 -0.3015804384128E+01 -0.6902105782764E+00 -0.5724644112668E+00
-0.4410815759166E+00 -0.2962045103563E+01 -0.6806253460381E+00 -0.5963551840385E+00
-0.4371133691245E+00 -0.2901645766926E+01 -0.6677518371604E+00 -0.6122044621886E+00
-0.4203933232950E+00 -0.2834290243125E+01 -0.6509367229838E+00 -0.6173082377547E+00
-0.3872770606339E+00 -0.2759869647936E+01 -0.6294293510932E+00 -0.6085547274011E+00
-0.3332323144083E+00 -0.2678562019625E+01 -0.6023588757824E+00 -0.5824576036839E+00
-0.2525917859738E+00 -0.2591036157399E+01 -0.5687255971493E+00 -0.5352785582100E+00
-0.1382781545267E+00 -0.2498736417609E+01 -0.5274029222860E+00 -0.4632772823489E+00
 0.1846896026482E-01 -0.2404193488567E+01 -0.4771449127704E+00 -0.3631245599624E+00
 0.2282934318723E+00 -0.2311354510448E+01 -0.4166122219231E+00 -0.2325618811671E+00
 0.5037129711350E+00 -0.2225844601813E+01 -0.3444263312680E+00 -0.7137954558347E-01
 0.8587004656346E+00 -0.2154985822552E+01 -0.2592570752467E+00  0.1172538542360E+00
 0.1307706545683E+01 -0.2107303293089E+01 -0.1599193518641E+00  0.3251984119957E+00
 0.1864114401811E+01 -0.2091292766909E+01 -0.4543567369669E-01  0.5376804284627E+00
 0.2536121799861E+01 -0.2113386071551E+01  0.8454714692192E-01  0.7316388271625E+00
 0.3318862306852E+01 -0.2174228841764E+01  0.2289266964288E+00  0.8757118032188E+00
 0.4186858763560E+01 -0.2263892724148E+01  0.3845932136133E+00  0.9343220356741E+00
 0.5084410186024E+01 -0.2356823426103E+01  0.5455173601132E+00  0.8788582511869E+00
-0.7406093194571E+00 -0.3171209333332E+01 -0.7823637422159E+00  0.2339164780339E+00
-0.6461020939763E+00 -0.3211350265009E+01 -0.7714904832931E+00  0.2259245635906E+00
-0.5535057163374E+00 -0.3248284480406E+01 -0.7603580506788E+00  0.2066874311548E+00
-0.4678477327110E+00 -0.3279496554220E+01 -0.7494688685542E+00  0.1774522655235E+00
-0.3929538868557E+00 -0.3303524320996E+01 -0.7392956525868E+00  0.1409106492895E+00
-0.3307791708277E+00 -0.3320218481375E+01 -0.7301995413214E+00  0.1001591898035E+00
-0.2815969046468E+00 -0.3330420167366E+01 -0.7224034251672E+00  0.5783166482915E-01
-0.2445940156716E+00 -0.3335428231267E+01 -0.7160044600571E+00  0.1570232419831E-01
-0.2184646026089E+00 -0.3336554738926E+01 -0.7110038789018E+00 -0.2531356629075E-01
-0.2018187471895E+00 -0.3334871850783E+01 -0.7073381301347E+00 -0.6496027643456E-01
-0.1933937805017E+00 -0.3331122205973E+01 -0.7049032077989E+00 -0.1033998582109E+00
-0.1921227103737E+00 -0.3325726464877E+01 -0.7035698455342E+00 -0.1410051581176E+00
-0.1971184284601E+00 -0.3318834206201E+01 -0.7031905374105E+00 -0.1782079417551E+00
-0.2076151594359E+00 -0.3310387708746E+01 -0.7036005841208E+00 -0.2153984925565E+00
-0.2228941049975E+00 -0.3300183713858E+01 -0.7046155742707E+00 -0.2528691424649E+00
-0.2422133170949E+00 -0.3287924757746E+01 -0.7060276254887E+00 -0.2907929966678E+00
-0.2647406343123E+00 -0.3273285795147E+01 -0.7076052964361E+00 -0.3292350183383E+00
-0.2895169421688E+00 -0.3255990107629E+01 -0.7091014205259E+00 -0.3681764639888E+00
-0.3155043742172E+00 -0.3235775707868E+01 -0.7102560270006E+00 -0.4075049609815E+00
-0.3416476697430E+00 -0.3212295799771E+01 -0.7107887044944E+00 -0.4469649884443E+00
-0.3668727941771E+00 -0.3185085014952E+01 -0.7103915724115E+00 -0.4860967275619E+00
-0.3900477838741E+00 -0.3153567149072E+01 -0.7087229971501E+00 -0.5241688501341E+00
-0.4099149733130E+00 -0.3117082914121E+01 -0.7053995879980E+00 -0.5601147213251E+00
-0.4250028503101E+00 -0.3074926957158E+01 -0.6999859719242E+00 -0.5924817934590E+00
-0.4335258845768E+00 -0.3026388765606E+01 -0.6919829403478E+00 -0.6193979395769E+00
-0.4332748249913E+00 -0.2970801011749E+01 -0.6808151774931E+00 -0.6385511109230E+00
-0.4214945797699E+00 -0.2907602405695E+01 -0.6658194070145E+00 -0.6471820487718E+00
-0.3947344584201E+00 -0.2836383984268E+01 -0.6462236981671E+00 -0.6420797980062E+00
-0.3486360130660E+00 -0.2756959921965E+01 -0.6211191962616E+00 -0.6195904496911E+00
-0.2776490424333E+00 -0.2669579303581E+01 -0.5894456779863E+00 -0.5757068973784E+00
-0.1746945908781E+00 -0.2575237795467E+01 -0.5499864854645E+00 -0.5062828464300E+00
-0.3079660716546E-01 -0.2476037788190E+01 -0.5013668865420E+00 -0.4074130674861E+00
 0.1652567335772E+00 -0.2375605756491E+01 -0.4420698111702E+00 -0.2760784206466E+00
 0.4270884207184E+00 -0.2279490352839E+01 -0.3704803919446E+00 -0.1111574228091E+00
 0.7705302581684E+00 -0.2195364450616E+01 -0.2849668427359E+00  0.8511306534119E-01
 0.1212839764748E+01 -0.2132716414378E+01 -0.1839753326675E+00  0.3052554855578E+00
 0.1771209349001E+01 -0.2101704139801E+01 -0.6609895914489E-01  0.5343880374291E+00
 0.2458176367610E+01 -0.2110999013837E+01  0.6943547178915E-01  0.7477917985881E+00
 0.3272241141438E+01 -0.2163392162722E+01  0.2217697990477E+00  0.9099964093119E+00
 0.4188037962545E+01 -0.2249506749987E+01  0.3877062482888E+00  0.9795275523331E+00
 0.5144913962930E+01 -0.2341037675329E+01  0.5607752658763E+00  0.9166828611989E+00
-0.7396539803583E+00 -0.3176670158761E+01 -0.7832648394954E+00  0.2495541790436E+00
-0.6407648587151E+00 -0.3218405931893E+01 -0.7718341696229E+00  0.2408633326475E+00
-0.5438990782585E+00 -0.3256487700346E+01 -0.7600773670470E+00  0.2197861079486E+00
-0.4548436102495E+00 -0.3288100170997E+01 -0.7485887674041E+00  0.1878793832742E+00
-0.3777959254412E+00 -0.3311782012898E+01 -0.7379155986637E+00  0.1483978947866E+00
-0.3146495187988E+00 -0.3327654271144E+01 -0.7284607688434E+00  0.1049402048481E+00
-0.2653610877986E+00 -0.3336932187455E+01 -0.7204586657864E+00  0.6041777597085E-01
-0.2287456872993E+00 -0.3341245823491E+01 -0.7139983127975E+00  0.1666341159216E-01
-0.2031894862423E+00 -0.3342131625092E+01 -0.7090642328327E+00 -0.2548609697404E-01
-0.1870960505713E+00 -0.3340781298031E+01 -0.7055754802343E+00 -0.6590916073939E-01
-0.1790894008886E+00 -0.3337981360050E+01 -0.7034141626694E+00 -0.1049063832089E+00
-0.1780594135308E+00 -0.3334150554617E+01 -0.7024420040968E+00 -0.1429701435860E+00
-0.1831232625100E+00 -0.3329411874934E+01 -0.7025070379570E+00 -0.1806255241181E+00
-0.1935480952397E+00 -0.3323669239395E+01 -0.7034434774090E+00 -0.2183298303868E+00
-0.2086612718139E+00 -0.3316677358907E+01 -0.7050677366506E+00 -0.2564193270882E+00
-0.2277681741751E+00 -0.3308098512511E+01 -0.7071733478750E+00 -0.2950942217966E+00
-0.2500772983548E+00 -0.3297574035883E+01 -0.7095302774204E+00 -0.3344373291057E+00
-0.2746637453689E+00 -0.3284803911246E+01 -0.7118935419310E+00 -0.3744460849181E+00
-0.3005296521836E+00 -0.3269506471252E+01 -0.7140072353266E+00 -0.4150325241229E+00
-0.3266808778291E+00 -0.3251304836451E+01 -0.7155971535193E+00 -0.4559784330507E+00
-0.3521340888237E+00 -0.3229683816326E+01 -0.7163635917045E+00 -0.4968682735784E+00
-0.3758787132075E+00 -0.3203993913995E+01 -0.7159745361094E+00 -0.5370132327211E+00
-0.3968051129195E+00 -0.3173477688039E+01 -0.7140565708319E+00 -0.5753809168035E+00
-0.4136107157972E+00 -0.3137304645511E+01 -0.7101830828443E+00 -0.6105414751543E+00
-0.4246952918227E+00 -0.3094607568185E+01 -0.7038605824898E+00 -0.6406322132004E+00
-0.4280486668728E+00 -0.3044523247484E+01 -0.6945143932204E+00 -0.6633339459972E+00
-0.4211265278237E+00 -0.2986245883974E+01 -0.6814744925144E+00 -0.6758556715464E+00
-0.4006961844319E+00 -0.2919059135858E+01 -0.6639510739517E+00 -0.6749145378395E+00
-0.3626104299140E+00 -0.2842392648542E+01 -0.6410006252429E+00 -0.6567177444608E+00
-0.3014901580740E+00 -0.2756035609971E+01 -0.6115051627211E+00 -0.6170141398580E+00
-0.2103270343786E+00 -0.2660468480423E+01 -0.5741591115159E+00 -0.5512632169157E+00
-0.8001755942230E-01 -0.2557265642387E+01 -0.5274566482216E+00 -0.4549682182658E+00
 0.1011255343874E+00 -0.2449596843616E+01 -0.4696942688446E+00 -0.3242846994150E+00
 0.3477647126207E+00 -0.2342770606401E+01 -0.3990011847017E+00 -0.1570363120982E+00
 0.6776164140199E+00 -0.2244653353255E+01 -0.3134073925173E+00  0.4572162223006E-01
 0.1110969844662E+01 -0.2165617229914E+01 -0.2109294801934E+00  0.2775319283530E+00
 0.1669396959853E+01 -0.2117584201283E+01 -0.8963744962185E-01  0.5238048478302E+00
 0.2370750812740E+01 -0.2111850919850E+01  0.5177997934967E-01  0.7583624289947E+00
 0.3218206197492E+01 -0.2153999764460E+01  0.2128412897780E+00  0.9413788221825E+00
 0.4186758437042E+01 -0.2235392648336E+01  0.3902731635567E+00  0.1023600662768E+01
 0.5216982989878E+01 -0.2326603139653E+01  0.5780759786592E+00  0.9554776382420E+00
-0.7386398293429E+00 -0.3182791761756E+01 -0.7842863299065E+00  0.2658539454710E+00
-0.6349151211868E+00 -0.3226226588533E+01 -0.7722283534510E+00  0.2563664445220E+00
-0.5333631940123E+00 -0.3265439259712E+01 -0.7597605020662E+00  0.2331760642276E+00
-0.4407001037242E+00 -0.3297262714632E+01 -0.7475925748111E+00  0.1982597379483E+00
-0.3615235500654E+00 -0.3320281211319E+01 -0.7363609632495E+00  0.1555766494788E+00
-0.2975873768650E+00 -0.3334982744875E+01 -0.7265140351739E+00  0.1093044563412E+00
-0.2484300156830E+00 -0.3343040140201E+01 -0.7182940418803E+00  0.6263168689863E-01
-0.2124218859523E+00 -0.3346455534976E+01 -0.7117754947919E+00  0.1740696078564E-01
-0.1876071347067E+00 -0.3346993939554E+01 -0.7069202253860E+00 -0.2565993154489E-01
-0.1721758729919E+00 -0.3345952389963E+01 -0.7036256630758E+00 -0.6661815008279E-01
-0.1646451046625E+00 -0.3344143241131E+01 -0.7017576796157E+00 -0.1059290668246E+00
-0.1638721757606E+00 -0.3341968379794E+01 -0.7011681215592E+00 -0.1442163134529E+00
-0.1689894971986E+00 -0.3339513834315E+01 -0.7017006767589E+00 -0.1821038648743E+00
-0.1793070871958E+00 -0.3336638441643E+01 -0.7031891162461E+00 -0.2201181479451E+00
-0.1942065080288E+00 -0.3333050741282E+01 -0.7054514603742E+00 -0.2586390966967E+00
-0.2130452964871E+00 -0.3328370892899E+01 -0.7082832484314E+00 -0.2978921362217E+00
-0.2350731578614E+00 -0.3322207154086E+01 -0.7114560729910E+00 -0.3379755564741E+00
-0.2593961615522E+00 -0.3314239098966E+01 -0.7147270627538E+00 -0.3789017126730E+00
-0.2850516924649E+00 -0.3304170146492E+01 -0.7178443784880E+00 -0.4206089306356E+00
-0.3111033665516E+00 -0.3291598967453E+01 -0.7205404775377E+00 -0.4629220321848E+00
-0.3366582789392E+00 -0.3275966368934E+01 -0.7225249403411E+00 -0.5054780019753E+00
-0.3608298525912E+00 -0.3256555897277E+01 -0.7234771607543E+00 -0.5476399373017E+00
-0.3826607304701E+00 -0.3232519479907E+01 -0.7230360528494E+00 -0.5884200344550E+00
-0.4010222320896E+00 -0.3202910392750E+01 -0.7207865357084E+00 -0.6264233815560E+00
-0.4145052155860E+00 -0.3166714370117E+01 -0.7162439278134E+00 -0.6598123448789E+00
-0.4213067459801E+00 -0.3122881152961E+01 -0.7088375903507E+00 -0.6862810687782E+00
-0.4191067600996E+00 -0.3070365871834E+01 -0.6978945367863E+00 -0.7030329838879E+00
-0.4049136248155E+00 -0.3008142793755E+01 -0.6826112938858E+00 -0.7067452045180E+00
-0.3748291133042E+00 -0.2935241717914E+01 -0.6620141761084E+00 -0.6935218508759E+00
-0.3237024365719E+00 -0.2850956247477E+01 -0.6349317462711E+00 -0.6589027399216E+00
-0.2446763199317E+00 -0.2755186947499E+01 -0.5999726624265E+00 -0.5979788187729E+00
-0.1286244015218E+00 -0.2648876195030E+01 -0.5555001275879E+00 -0.5056636159867E+00
 0.3649456495000E-01 -0.2534584766924E+01 -0.4996180478398E+00 -0.3772408660815E+00
 0.2662717729852E+00 -0.2417181668612E+01 -0.4301819855356E+00 -0.2093470783415E+00
 0.5802764348220E+00 -0.2304509143773E+01 -0.3448465469289E+00 -0.1592729031383E-02
 0.1002010317724E+01 -0.2207665969816E+01 -0.2411311340115E+00  0.2410070624486E+00
 0.1558012009893E+01 -0.2140378857438E+01 -0.1164733712447E+00  0.5046800738378E+00
 0.2272648297084E+01 -0.2116991622503E+01  0.3113133538010E-01  0.7621749629402E+00
 0.3155205984074E+01 -0.2146637342613E+01  0.2017137312978E+00  0.9690009950120E+00
 0.4183450705329E+01 -0.2222456337101E+01  0.3921988794898E+00  0.1066495678057E+01
 0.5293681573707E+01 -0.2314042216268E+01  0.5959278803678E+00  0.9955291264075E+00
-0.7375632964646E+00 -0.3189713713108E+01 -0.7854554136187E+00  0.2828701074040E+00
-0.6284713188321E+00 -0.3234957976837E+01 -0.7726858706477E+00  0.2724586955628E+00
-0.5217617764122E+00 -0.3275252801344E+01 -0.7594029268671E+00  0.2468103718874E+00
-0.4252883995578E+00 -0.3307023358649E+01 -0.7464623627644E+00  0.2084764162297E+00
-0.3440634692351E+00 -0.3328972249568E+01 -0.7346071547072E+00  0.1622988535889E+00
-0.2795867584109E+00 -0.3342082647739E+01 -0.7243338920234E+00  0.1131153198946E+00
-0.2308509752357E+00 -0.3348582010223E+01 -0.7158866077593E+00  0.6437297525250E-01
-0.1957017024361E+00 -0.3350881510522E+01 -0.7093166531613E+00  0.1787437212908E-01
-0.1718107411597E+00 -0.3350968106469E+01 -0.7045557800245E+00 -0.2585711402913E-01
-0.1571544505498E+00 -0.3350220362999E+01 -0.7014749731625E+00 -0.6708102165229E-01
-0.1501543967724E+00 -0.3349452749031E+01 -0.6999214395903E+00 -0.1064405936275E+00
-0.1496491086800E+00 -0.3349033060039E+01 -0.6997364441707E+00 -0.1447002100579E+00
-0.1547987846884E+00 -0.3348999679825E+01 -0.7007597033449E+00 -0.1825864519764E+00
-0.1649672022138E+00 -0.3349160112593E+01 -0.7028254734343E+00 -0.2206957839853E+00
-0.1795989115034E+00 -0.3349173072735E+01 -0.7057544073642E+00 -0.2594507297338E+00
-0.1981088359617E+00 -0.3348615040992E+01 -0.7093447859607E+00 -0.2990991610088E+00
-0.2197880929752E+00 -0.3347062016700E+01 -0.7133700325651E+00 -0.3397514176774E+00
-0.2437692953784E+00 -0.3344176471625E+01 -0.7175891640935E+00 -0.3814326381870E+00
-0.2691188368544E+00 -0.3339652229974E+01 -0.7217542241207E+00 -0.4241089669017E+00
-0.2949536236707E+00 -0.3333069767966E+01 -0.7256046891398E+00 -0.4676540300564E+00
-0.3204704078853E+00 -0.3323832497769E+01 -0.7288605919918E+00 -0.5117655488953E+00
-0.3449089638800E+00 -0.3311164612754E+01 -0.7312147262228E+00 -0.5558675555338E+00
-0.3674679533494E+00 -0.3294136955312E+01 -0.7323209926448E+00 -0.5990265955490E+00
-0.3871964183293E+00 -0.3271698353993E+01 -0.7317789653687E+00 -0.6398944820079E+00
-0.4028802855362E+00 -0.3242700878878E+01 -0.7291162437475E+00 -0.6766743412189E+00
-0.4129296531108E+00 -0.3205920645254E+01 -0.7237700704579E+00 -0.7070951225251E+00
-0.4152595956137E+00 -0.3160084652535E+01 -0.7150688602851E+00 -0.7283833027382E+00
-0.4071404108459E+00 -0.3103862134698E+01 -0.7022005195724E+00 -0.7372123035830E+00
-0.3849597196283E+00 -0.3035874724725E+01 -0.6841668990655E+00 -0.7296262502430E+00
-0.3438540180368E+00 -0.2954891689071E+01 -0.6597491512525E+00 -0.7010018914505E+00
-0.2772040317162E+00 -0.2860174264703E+01 -0.6274756686340E+00 -0.6461029781916E+00
-0.1759801856453E+00 -0.2751928863616E+01 -0.5855818185781E+00 -0.5592763549399E+00
-0.2793843051922E-01 -0.2631943015822E+01 -0.5319762971953E+00 -0.4349128958270E+00
 0.1832787003535E+00 -0.2504411875926E+01 -0.4642266420320E+00 -0.2683520013314E+00
 0.4789868344732E+00 -0.2376866449737E+01 -0.3795759287090E+00 -0.5749517981337E-01
 0.8860032071591E+00 -0.2260872090613E+01 -0.2749737807881E+00  0.1945652193041E+00
 0.1436422598023E+01 -0.2171902307311E+01 -0.1470959440495E+00  0.4755549784846E+00
 0.2162464592923E+01 -0.2127764877258E+01  0.6939943236398E-02  0.7577687826539E+00
 0.3081722108518E+01 -0.2142161686068E+01  0.1879120872900E+00  0.9918293207296E+00
 0.4176379993879E+01 -0.2211517523098E+01  0.3929725000120E+00  0.1108487269788E+01
 0.5376406463953E+01 -0.2303347136664E+01  0.6146118746162E+00  0.1036307694789E+01
-0.7364189137852E+00 -0.3197614885627E+01 -0.7868067716069E+00  0.3006646413006E+00
-0.6213282832014E+00 -0.3244784626222E+01 -0.7732225934067E+00  0.2891615463589E+00
-0.5089257963366E+00 -0.3286066104143E+01 -0.7589983914059E+00  0.2606173337315E+00
-0.4084584638269E+00 -0.3317420369451E+01 -0.7451757777597E+00  0.2183744246319E+00
-0.3253407703190E+00 -0.3337783233189E+01 -0.7326248116186E+00  0.1683814674959E+00
-0.2606542400528E+00 -0.3348801652176E+01 -0.7218911892028E+00  0.1162142389090E+00
-0.2126887693972E+00 -0.3353366827896E+01 -0.7132111300864E+00  0.6553260615848E-01
-0.1786804001237E+00 -0.3354325967829E+01 -0.7066012841198E+00  0.1800706514747E-01
-0.1559060567210E+00 -0.3353865699592E+01 -0.7019543617225E+00 -0.2609590428579E-01
-0.1421371450699E+00 -0.3353410637651E+01 -0.6991095669616E+00 -0.6728709606271E-01
-0.1357174857395E+00 -0.3353747749944E+01 -0.6978930575362E+00 -0.1064098707913E+00
-0.1354835579378E+00 -0.3355191768027E+01 -0.6981350755959E+00 -0.1443755349047E+00
-0.1406371556696E+00 -0.3357723162510E+01 -0.6996720740619E+00 -0.1820146382569E+00
-0.1506073710860E+00 -0.3361092922256E+01 -0.7023400691340E+00 -0.2199933481865E+00
-0.1649112108648E+00 -0.3364907120511E+01 -0.7059636767948E+00 -0.2587750081146E+00
-0.1830267114379E+00 -0.3368697381454E+01 -0.7103448291633E+00 -0.2986263684132E+00
-0.2042862720028E+00 -0.3372008455252E+01 -0.7152589561091E+00 -0.3396652937866E+00
-0.2278432742545E+00 -0.3374489289900E+01 -0.7204665235668E+00 -0.3819266050207E+00
-0.2527851825686E+00 -0.3375829820507E+01 -0.7257230114292E+00 -0.4254054252688E+00
-0.2782765732917E+00 -0.3375599015078E+01 -0.7307751285634E+00 -0.4700299974800E+00
-0.3036027097973E+00 -0.3373170147460E+01 -0.7353545824090E+00 -0.5155668393696E+00
-0.3281319635926E+00 -0.3367716946411E+01 -0.7391697930153E+00 -0.5615092915158E+00
-0.3512222431894E+00 -0.3358240925733E+01 -0.7418926448395E+00 -0.6069870746328E+00
-0.3721028659825E+00 -0.3343601411384E+01 -0.7431408665470E+00 -0.6507097264119E+00
-0.3897566854999E+00 -0.3322534253002E+01 -0.7424581987639E+00 -0.6909365827050E+00
-0.4028097607418E+00 -0.3293660390362E+01 -0.7392940412371E+00 -0.7254535425249E+00
-0.4094198793311E+00 -0.3255495787672E+01 -0.7329831443230E+00 -0.7515408285658E+00
-0.4071369587717E+00 -0.3206416444190E+01 -0.7227106913615E+00 -0.7659086910540E+00
-0.3926691221768E+00 -0.3144636232581E+01 -0.7074610814935E+00 -0.7645914917357E+00
-0.3614990599100E+00 -0.3068380984837E+01 -0.6859760191712E+00 -0.7428601330161E+00
-0.3073365986115E+00 -0.2976222533797E+01 -0.6567118362676E+00 -0.6952095463255E+00
-0.2213811085530E+00 -0.2867533142781E+01 -0.6177828594724E+00 -0.6154677317547E+00
-0.9136554868215E-01 -0.2743157571658E+01 -0.5669046325155E+00 -0.4971450050315E+00
 0.9961505109348E-01 -0.2606352423909E+01 -0.5013474820339E+00 -0.3342102896305E+00
 0.3744224283651E+00 -0.2463975356764E+01 -0.4179105919071E+00 -0.1226107260254E+00
 0.7631779183638E+00 -0.2327667168452E+01 -0.3128978546801E+00  0.1370105447599E+00
 0.1304056649347E+01 -0.2214436255428E+01 -0.1820759239294E+00  0.4347367066341E+00
 0.2038684621853E+01 -0.2145914278234E+01 -0.2144593159572E-01  0.7433248017702E+00
 0.2995642539646E+01 -0.2141701389852E+01  0.1707882325038E+00  0.1008684600948E+01
 0.4163835648449E+01 -0.2203010237152E+01  0.3921650881032E+00  0.1149400419130E+01
 0.5466017968058E+01 -0.2294920303302E+01  0.6342195424019E+00  0.1077687536066E+01
-0.7351981091598E+00 -0.3206725642084E+01 -0.7883847619965E+00  0.3193091943794E+00
-0.6133491471785E+00 -0.3255940582764E+01 -0.7738579575198E+00  0.3064902654748E+00
-0.4946451467417E+00 -0.3298044401634E+01 -0.7585379209783E+00  0.2744904245955E+00
-0.3900374704375E+00 -0.3328485181274E+01 -0.7437045414244E+00  0.2277494462246E+00
-0.3052835416609E+00 -0.3346609686567E+01 -0.7303786565290E+00  0.1736002764914E+00
-0.2408151974040E+00 -0.3354947474542E+01 -0.7191525451054E+00  0.1184204242790E+00
-0.1940302902055E+00 -0.3357169795015E+01 -0.7102400276274E+00  0.6599583801203E-01
-0.1614716303595E+00 -0.3356567785123E+01 -0.7036078935810E+00  0.1774987805579E-01
-0.1400119352032E+00 -0.3355483950824E+01 -0.6990991876229E+00 -0.2638821134783E-01
-0.1272381864574E+00 -0.3355340010556E+01 -0.6965156497816E+00 -0.6721974444627E-01
-0.1214408128417E+00 -0.3356860254695E+01 -0.6956602238734E+00 -0.1058013916858E+00
-0.1214737126413E+00 -0.3360286572980E+01 -0.6963520675008E+00 -0.1431930483304E+00
-0.1265947910979E+00 -0.3365532608570E+01 -0.6984254903410E+00 -0.1803277820498E+00
-0.1363102781872E+00 -0.3372289482589E+01 -0.7017199626117E+00 -0.2179398940555E+00
-0.1502197007058E+00 -0.3380109096413E+01 -0.7060657699449E+00 -0.2565313387215E+00
-0.1678705706589E+00 -0.3388477508842E+01 -0.7112696264988E+00 -0.2963835739122E+00
-0.1886361726196E+00 -0.3396909264206E+01 -0.7171090980509E+00 -0.3376163540705E+00
-0.2116833483795E+00 -0.3405043401106E+01 -0.7233453606758E+00 -0.3802700330484E+00
-0.2361107534854E+00 -0.3412571786226E+01 -0.7297365188162E+00 -0.4243695094967E+00
-0.2611238416426E+00 -0.3419058706176E+01 -0.7360365205315E+00 -0.4699035004349E+00
-0.2860950635714E+00 -0.3423855013035E+01 -0.7419900263778E+00 -0.5167150426343E+00
-0.3105237006655E+00 -0.3426094187387E+01 -0.7473235887464E+00 -0.5643741403933E+00
-0.3339296273797E+00 -0.3424722636523E+01 -0.7517304639822E+00 -0.6120811797494E+00
-0.3557235366840E+00 -0.3418528617179E+01 -0.7548504420208E+00 -0.6586132911428E+00
-0.3750846317381E+00 -0.3406153570788E+01 -0.7562476517742E+00 -0.7023008892333E+00
-0.3908545071897E+00 -0.3386087083044E+01 -0.7553883293029E+00 -0.7410092379168E+00
-0.4014371904724E+00 -0.3356657893388E+01 -0.7516190279721E+00 -0.7721046105826E+00
-0.4046756758746E+00 -0.3315969003199E+01 -0.7441289469031E+00 -0.7923782751151E+00
-0.3976295739487E+00 -0.3261837397513E+01 -0.7318934051984E+00 -0.7979117531689E+00
-0.3761845333659E+00 -0.3191938944524E+01 -0.7136247062117E+00 -0.7839383983246E+00
-0.3344717360649E+00 -0.3104120039187E+01 -0.6877183652982E+00 -0.7447604014263E+00
-0.2640602275261E+00 -0.2996833547792E+01 -0.6521787647819E+00 -0.6737624400464E+00
-0.1528647155247E+00 -0.2869816521194E+01 -0.6045362563521E+00 -0.5636276665661E+00
 0.1629065358575E-01 -0.2725101965510E+01 -0.5417622704578E+00 -0.4069343892168E+00
 0.2675024405377E+00 -0.2568437433238E+01 -0.4601870053975E+00 -0.1974764514741E+00
 0.6340186883870E+00 -0.2410989264061E+01 -0.3553941204305E+00  0.6709801211387E-01
 0.1160487273847E+01 -0.2270858148325E+01 -0.2220741782048E+00  0.3802712362839E+00
 0.1899626354893E+01 -0.2173732703483E+01 -0.5482127053476E-01  0.7166134046228E+00
 0.2894343754679E+01 -0.2146597999470E+01  0.1495491532704E+00  0.1017954364410E+01
 0.4143749920839E+01 -0.2197478711350E+01  0.3892542476981E+00  0.1188800004785E+01
 0.5563382347885E+01 -0.2289225100718E+01  0.6548314591911E+00  0.1119697884960E+01
-0.7338872645750E+00 -0.3217344745767E+01 -0.7902464138439E+00  0.3388876622409E+00
-0.6043539948765E+00 -0.3268723547213E+01 -0.7746155199605E+00  0.3244490741724E+00
-0.4786582571767E+00 -0.3311383035343E+01 -0.7580082697991E+00  0.2882736694675E+00
-0.3698295844882E+00 -0.3340232329854E+01 -0.7420123939253E+00  0.2363332809663E+00
-0.2838303290543E+00 -0.3355300053420E+01 -0.7278260873404E+00  0.1776835437710E+00
-0.2201220193205E+00 -0.3360277039763E+01 -0.7160798224871E+00  0.1195323043582E+00
-0.1749896582236E+00 -0.3359727402723E+01 -0.7069434227235E+00  0.6564693812310E-01
-0.1442093759800E+00 -0.3357361876221E+01 -0.7003142608756E+00  0.1705554675880E-01
-0.1242603848835E+00 -0.3355607071980E+01 -0.6959735017436E+00 -0.2673660598968E-01
-0.1125799923373E+00 -0.3355818446257E+01 -0.6936796980556E+00 -0.6685484675355E-01
-0.1074362987164E+00 -0.3358617979941E+01 -0.6932108660611E+00 -0.1045747223870E+00
-0.1077220676079E+00 -0.3364155482642E+01 -0.6943755203970E+00 -0.1411006568219E+00
-0.1127657556355E+00 -0.3372271377530E+01 -0.6970074370193E+00 -0.1774635686950E+00
-0.1221622755410E+00 -0.3382596335249E+01 -0.7009517326029E+00 -0.2144632098329E+00
-0.1356042098487E+00 -0.3394628416716E+01 -0.7060465358338E+00 -0.2526379057312E+00
-0.1527157608592E+00 -0.3407807983188E+01 -0.7121047594206E+00 -0.2922793885565E+00
-0.1729105801660E+00 -0.3421620208987E+01 -0.7189061685431E+00 -0.3335026091562E+00
-0.1953599324927E+00 -0.3435697496876E+01 -0.7262114966951E+00 -0.3763481847876E+00
-0.2191615731170E+00 -0.3449739151354E+01 -0.7337801558283E+00 -0.4208712463651E+00
-0.2435539009380E+00 -0.3463311313053E+01 -0.7413730538455E+00 -0.4671268754531E+00
-0.2679953399795E+00 -0.3475750346261E+01 -0.7487491484054E+00 -0.5150417344549E+00
-0.2921186761803E+00 -0.3486161136860E+01 -0.7556559738681E+00 -0.5642683396885E+00
-0.3156079309762E+00 -0.3493452045729E+01 -0.7618120066930E+00 -0.6140834357792E+00
-0.3380546141776E+00 -0.3496362573351E+01 -0.7668834489331E+00 -0.6633401527308E+00
-0.3588309657543E+00 -0.3493466196511E+01 -0.7704594439339E+00 -0.7104539663284E+00
-0.3769898915330E+00 -0.3483150552911E+01 -0.7720281003930E+00 -0.7533917509496E+00
-0.3911804263938E+00 -0.3463588077900E+01 -0.7709537123468E+00 -0.7896391231514E+00
-0.3995468138637E+00 -0.3432638307962E+01 -0.7664370357859E+00 -0.8161154752267E+00
-0.3995259521898E+00 -0.3387744350339E+01 -0.7574540717926E+00 -0.8290122664070E+00
-0.3874587687358E+00 -0.3326041149721E+01 -0.7426999947584E+00 -0.8236038934722E+00
-0.3579876137047E+00 -0.3244632787980E+01 -0.7205240910735E+00 -0.7940933700522E+00
-0.3031951122908E+00 -0.3140988828823E+01 -0.6888367984872E+00 -0.7335269134125E+00
-0.2114006179203E+00 -0.3013591334308E+01 -0.6449984000568E+00 -0.6338616366978E+00
-0.6548782584994E-01 -0.2862961279147E+01 -0.5856898297268E+00 -0.4863362300373E+00
 0.1594388450751E+00 -0.2693236044903E+01 -0.5067594475169E+00 -0.2824745921496E+00
 0.4993562602420E+00 -0.2514375905305E+01 -0.4030039350179E+00 -0.1641407523284E-01
 0.1005530068250E+01 -0.2344813234356E+01 -0.2678566372126E+00  0.3099413378600E+00
 0.1743485441030E+01 -0.2214230476360E+01 -0.9414900846884E-01  0.6748636468450E+00
 0.2774621444519E+01 -0.2158611258763E+01  0.1232020389870E+00  0.1017415074303E+01
 0.4113483489995E+01 -0.2195649604218E+01  0.3835667828709E+00  0.1225972825114E+01
 0.5669399211154E+01 -0.2286859967630E+01  0.6765078587855E+00  0.1162487894868E+01
-0.7324645608537E+00 -0.3229863301859E+01 -0.7924655843511E+00  0.3594994673700E+00
-0.5941037546307E+00 -0.3283513622519E+01 -0.7755234869861E+00  0.3430228904647E+00
-0.4606393879855E+00 -0.3326308198495E+01 -0.7573895285820E+00  0.3017402329612E+00
-0.3476184295453E+00 -0.3352642849537E+01 -0.7400522668441E+00  0.2437752508106E+00
-0.2609416708833E+00 -0.3363635697182E+01 -0.7249154844152E+00  0.1803064032181E+00
-0.1986646000285E+00 -0.3364483775115E+01 -0.7126296856477E+00  0.1193318379008E+00
-0.1557136370578E+00 -0.3360733166356E+01 -0.7032893711627E+00  0.6437624782776E-01
-0.1270492746992E+00 -0.3356439834745E+01 -0.6966978322705E+00  0.1589032425545E-01
-0.1087959207777E+00 -0.3354008616120E+01 -0.6925609176995E+00 -0.2713101442675E-01
-0.9829197247200E-01 -0.3354651554840E+01 -0.6905887157531E+00 -0.6615930508721E-01
-0.9382026976434E-01 -0.3358846327624E+01 -0.6905333297675E+00 -0.1026841914311E+00
-0.9433473018889E-01 -0.3366633695365E+01 -0.6921936954252E+00 -0.1380437571102E+00
-0.9924770981338E-01 -0.3377778341610E+01 -0.6954052206470E+00 -0.1733585738021E+00
-0.1082533571231E+00 -0.3391853805178E+01 -0.7000214428913E+00 -0.2094902662143E+00
-0.1211481406264E+00 -0.3408307259382E+01 -0.7058910905203E+00 -0.2470118555509E+00
-0.1376413324512E+00 -0.3426533973924E+01 -0.7128350718971E+00 -0.2862211973982E+00
-0.1571865679715E+00 -0.3445990029507E+01 -0.7206353302341E+00 -0.3272208387332E+00
-0.1789485719145E+00 -0.3466303543199E+01 -0.7290504338864E+00 -0.3700452232097E+00
-0.2020096009745E+00 -0.3487185780040E+01 -0.7378390871976E+00 -0.4147798796843E+00
-0.2256320459427E+00 -0.3508210346523E+01 -0.7467684896209E+00 -0.4615521269862E+00
-0.2493596089343E+00 -0.3528706979762E+01 -0.7556133289988E+00 -0.5103783085354E+00
-0.2729616923153E+00 -0.3547765301072E+01 -0.7641454100641E+00 -0.5609971370815E+00
-0.2962880070387E+00 -0.3564276084235E+01 -0.7721128297601E+00 -0.6127650978851E+00
-0.3191084019897E+00 -0.3576956750375E+01 -0.7792130420842E+00 -0.6646179995532E+00
-0.3409818351548E+00 -0.3584344079900E+01 -0.7850651947093E+00 -0.7150692424987E+00
-0.3611641342812E+00 -0.3584758771883E+01 -0.7891845929926E+00 -0.7622089294433E+00
-0.3785427067087E+00 -0.3576255145312E+01 -0.7909595821903E+00 -0.8036755409302E+00
-0.3915649199957E+00 -0.3556488734707E+01 -0.7896107427066E+00 -0.8365656059710E+00
-0.3980640701373E+00 -0.3522565421109E+01 -0.7841259099337E+00 -0.8572478876669E+00
-0.3948818319377E+00 -0.3471106795817E+01 -0.7731977370725E+00 -0.8611252405602E+00
-0.3772550463397E+00 -0.3398482235281E+01 -0.7551474675767E+00 -0.8424112434684E+00
-0.3379203024426E+00 -0.3301144722763E+01 -0.7278130158864E+00 -0.7939477846964E+00
-0.2658323987180E+00 -0.3176207716607E+01 -0.6884080333230E+00 -0.7071190759561E+00
-0.1443075775100E+00 -0.3022413525304E+01 -0.6333442300004E+00 -0.5719630608155E+00
 0.5178543993664E-01 -0.2841753188556E+01 -0.5579935580387E+00 -0.3777429361526E+00
 0.3604769986218E+00 -0.2642063366338E+01 -0.4563172803429E+00 -0.1146741241596E+00
 0.8393936397161E+00 -0.2440923105271E+01 -0.3203058978839E+00  0.2212841067758E+00
 0.1568429867843E+01 -0.2271422986766E+01 -0.1405986258797E+00  0.6146274428291E+00
 0.2632589089602E+01 -0.2180171965146E+01  0.9048342623941E-01  0.1004007503034E+01
 0.4069546326955E+01 -0.2198529631338E+01  0.3742033446994E+00  0.1259828683411E+01
 0.5785044163629E+01 -0.2288589057484E+01  0.6992910316492E+00  0.1206313730147E+01
-0.7308947859364E+00 -0.3244799423629E+01 -0.7951388537616E+00  0.3812636985688E+00
-0.5822770723494E+00 -0.3300798261183E+01 -0.7766150782789E+00  0.3621632073069E+00
-0.4401836020122E+00 -0.3343073318604E+01 -0.7566513953983E+00  0.3145608688439E+00
-0.3231744899071E+00 -0.3365637426017E+01 -0.7377623941783E+00  0.2496190345782E+00
-0.2366173431088E+00 -0.3371303872808E+01 -0.7215842539359E+00  0.1810877082012E+00
-0.1765832015293E+00 -0.3367183620892E+01 -0.7087533750456E+00  0.1175932484485E+00
-0.1363867454505E+00 -0.3359834989930E+01 -0.6992443574955E+00  0.6209011257974E-01
-0.1101688523359E+00 -0.3353512425835E+01 -0.6927362659567E+00  0.1424065408120E-01
-0.9377400241262E-01 -0.3350455079974E+01 -0.6888458267420E+00 -0.2754528139587E-01
-0.8450874132893E-01 -0.3351643812032E+01 -0.6872305209128E+00 -0.6508974381976E-01
-0.8071203510767E-01 -0.3357370806701E+01 -0.6876165786080E+00 -0.1000788703721E+00
-0.8142056523687E-01 -0.3367555075530E+01 -0.6897951384322E+00 -0.1339659136928E+00
-0.8614162226654E-01 -0.3381888369898E+01 -0.6936060087684E+00 -0.1679491439101E+00
-0.9467724198844E-01 -0.3399895653115E+01 -0.6989145894353E+00 -0.2029478752670E+00
-0.1069386345271E+00 -0.3420979814994E+01 -0.7055837004182E+00 -0.2395695195205E+00
-0.1227301138744E+00 -0.3444492662840E+01 -0.7134445659741E+00 -0.2781150154802E+00
-0.1415454687569E+00 -0.3469860416680E+01 -0.7222811878501E+00 -0.3186663140875E+00
-0.1625298077334E+00 -0.3496707443020E+01 -0.7318474610561E+00 -0.3612440869685E+00
-0.1847324771672E+00 -0.3524759466628E+01 -0.7418983998143E+00 -0.4059642161386E+00
-0.2074301421494E+00 -0.3553601329847E+01 -0.7522063056080E+00 -0.4530319735913E+00
-0.2302521689808E+00 -0.3582563614348E+01 -0.7625631680288E+00 -0.5025576980953E+00
-0.2531084239662E+00 -0.3610736162099E+01 -0.7727689287281E+00 -0.5543669310091E+00
-0.2760149733964E+00 -0.3637016870976E+01 -0.7826063805363E+00 -0.6078964217564E+00
-0.2989152635233E+00 -0.3660132737748E+01 -0.7918096120531E+00 -0.6621694798438E+00
-0.3215454309667E+00 -0.3678620028624E+01 -0.8000331038395E+00 -0.7158090907692E+00
-0.3433514426184E+00 -0.3690772859313E+01 -0.8068248724088E+00 -0.7670491329297E+00
-0.3634465160272E+00 -0.3694572707819E+01 -0.8116038568630E+00 -0.8137137934002E+00
-0.3805757996051E+00 -0.3687520810645E+01 -0.8136193341739E+00 -0.8531263590208E+00
-0.3929799931881E+00 -0.3666437351571E+01 -0.8118834810498E+00 -0.8819031150788E+00
-0.3980377390746E+00 -0.3627479454280E+01 -0.8051034506678E+00 -0.8956693751138E+00
-0.3916529077889E+00 -0.3566319149324E+01 -0.7915944232182E+00 -0.8887726757843E+00
-0.3673452621711E+00 -0.3478399750136E+01 -0.7691490139226E+00 -0.8540117659445E+00
-0.3149302842855E+00 -0.3359404179407E+01 -0.7348669036890E+00 -0.7824035735698E+00
-0.2185519276267E+00 -0.3206084576831E+01 -0.6849273110978E+00 -0.6630242927692E+00
-0.5352003505692E-01 -0.3017762829822E+01 -0.6142565821290E+00 -0.4830580575492E+00
 0.2192505763546E+00 -0.2799077702238E+01 -0.5159654328651E+00 -0.2285977619990E+00
 0.6628949355240E+00 -0.2565046815726E+01 -0.3804303817092E+00  0.1116602929631E+00
 0.1372773517536E+01 -0.2350745235751E+01 -0.1955943465576E+00  0.5316459981796E+00
 0.2463563034583E+01 -0.2214755623572E+01  0.4976148294369E-01  0.9735218567843E+00
 0.4007222364914E+01 -0.2207552111963E+01  0.3599340559537E+00  0.1288695814071E+01
 0.5911400242104E+01 -0.2295399061795E+01  0.7232002468384E+00  0.1251548725223E+01
-0.7291206650051E+00 -0.3262849711291E+01 -0.7983940871563E+00  0.4043242316383E+00
-0.5684367293490E+00 -0.3321205407999E+01 -0.7779284390616E+00  0.3817636809141E+00
-0.4167901211835E+00 -0.3361946319001E+01 -0.7557472992983E+00  0.3262572118668E+00
-0.2962711897254E+00 -0.3379033637029E+01 -0.7350609763042E+00  0.2532750892290E+00
-0.2109213016169E+00 -0.3377862290233E+01 -0.7177567290655E+00  0.1795924280527E+00
-0.1540832927671E+00 -0.3367901293443E+01 -0.7043969277383E+00  0.1140982151481E+00
-0.1172350777443E+00 -0.3356635651837E+01 -0.6947741562692E+00  0.5872398944010E-01
-0.9376609416326E-01 -0.3348274526153E+01 -0.6884081343213E+00  0.1212057277792E-01
-0.7935837161416E-01 -0.3344710874556E+01 -0.6848138594386E+00 -0.2793388310973E-01
-0.7136769317566E-01 -0.3346602535111E+01 -0.6835940558437E+00 -0.6359154548532E-01
-0.6823209529393E-01 -0.3354019908054E+01 -0.6844504108688E+00 -0.9670293196035E-01
-0.6909017041562E-01 -0.3366753872442E+01 -0.6871688188111E+00 -0.1288099501429E+00
-0.7355150435390E-01 -0.3384432809996E+01 -0.6915968731757E+00 -0.1611726888304E+00
-0.8153162962768E-01 -0.3406548446140E+01 -0.6976160255489E+00 -0.1947636399244E+00
-0.9306694454755E-01 -0.3432471084942E+01 -0.7051076164049E+00 -0.2302266883053E+00
-0.1080689168324E+00 -0.3461512271228E+01 -0.7139162482503E+00 -0.2678651532219E+00
-0.1260728525856E+00 -0.3493065926450E+01 -0.7238277665930E+00 -0.3077321971756E+00
-0.1461889032069E+00 -0.3526750021868E+01 -0.7345877959612E+00 -0.3498260752020E+00
-0.1674129941424E+00 -0.3562303590217E+01 -0.7459433279874E+00 -0.3942928854312E+00
-0.1890260627405E+00 -0.3599323310305E+01 -0.7576698858993E+00 -0.4414210904695E+00
-0.2107453569493E+00 -0.3637147414544E+01 -0.7695785657662E+00 -0.4914164969880E+00
-0.2326259180183E+00 -0.3674884499102E+01 -0.7815020950694E+00 -0.5441878569373E+00
-0.2548494796226E+00 -0.3711469832676E+01 -0.7932638742803E+00 -0.5992493156029E+00
-0.2775256099233E+00 -0.3745677403420E+01 -0.8046406146588E+00 -0.6557147672689E+00
-0.3005547448914E+00 -0.3776083996082E+01 -0.8153277603441E+00 -0.7123274027782E+00
-0.3235557999422E+00 -0.3801002206231E+01 -0.8249116135267E+00 -0.7674839706336E+00
-0.3458489722584E+00 -0.3818392393452E+01 -0.8328482855524E+00 -0.8192254677947E+00
-0.3664638615267E+00 -0.3825661309860E+01 -0.8384250467709E+00 -0.8651505601322E+00
-0.3840502410473E+00 -0.3819410708512E+01 -0.8406922024391E+00 -0.9021938738875E+00
-0.3965484356281E+00 -0.3795405944209E+01 -0.8383908884603E+00 -0.9263007148003E+00
-0.4005868035197E+00 -0.3748693758871E+01 -0.8298561248439E+00 -0.9320858293614E+00
-0.3905782962268E+00 -0.3673763967725E+01 -0.8128684649031E+00 -0.9124885074021E+00
-0.3574030113819E+00 -0.3564876987646E+01 -0.7844560114950E+00 -0.8584118810321E+00
-0.2864199781222E+00 -0.3416677993490E+01 -0.7406196053585E+00 -0.7583126391718E+00
-0.1541312822723E+00 -0.3225385653405E+01 -0.6759033972071E+00 -0.5976904522651E+00
 0.7826810154259E-01 -0.2991296894163E+01 -0.5826057672056E+00 -0.3586604388052E+00
 0.4777540482033E+00 -0.2724587467941E+01 -0.4493666906435E+00 -0.2158344856912E-01
 0.1155277850932E+01 -0.2459636830165E+01 -0.2608717997339E+00  0.4207440653698E+00
 0.2261972370649E+01 -0.2267471032347E+01 -0.1099732355917E-02  0.9201507802262E+00
 0.3920035327923E+01 -0.2224838617055E+01  0.3390393472255E+00  0.1309956649917E+01
 0.6049680285141E+01 -0.2308601789815E+01  0.7482157102145E+00  0.1298708141245E+01
-0.7270481405861E+00 -0.3284967916812E+01 -0.8024032234364E+00  0.4288557528838E+00
-0.5519803729005E+00 -0.3345547021407E+01 -0.7795054904771E+00  0.4016173091625E+00
-0.3898464317976E+00 -0.3383178549439E+01 -0.7546050074918E+00  0.3361325216368E+00
-0.2667157474387E+00 -0.3392478827171E+01 -0.7318389258272E+00  0.2539906416516E+00
-0.1840164069946E+00 -0.3382694892353E+01 -0.7133422704991E+00  0.1753448735390E+00
-0.1314510028192E+00 -0.3366059951983E+01 -0.6995022013839E+00  0.1086598692871E+00
-0.9852732032663E-01 -0.3350698361076E+01 -0.6898451465600E+00  0.5425851598089E-01
-0.7805576297888E-01 -0.3340412976806E+01 -0.6836937581448E+00  0.9579193260222E-02
-0.6571718904589E-01 -0.3336544665109E+01 -0.6804523809705E+00 -0.2822914102313E-01
-0.5900593752628E-01 -0.3339342576716E+01 -0.6796697129764E+00 -0.6159837189434E-01
-0.5649997505072E-01 -0.3348628427913E+01 -0.6810256907409E+00 -0.9249646156768E-01
-0.5745466698260E-01 -0.3364066718104E+01 -0.6843042872143E+00 -0.1225195309590E+00
-0.6158418313480E-01 -0.3385239983931E+01 -0.6893648436854E+00 -0.1529695032730E+00
-0.6891870702491E-01 -0.3411630555012E+01 -0.6961098627801E+00 -0.1848673141868E+00
-0.7962913122802E-01 -0.3442595018372E+01 -0.7044448404170E+00 -0.2188989715672E+00
-0.9374896511461E-01 -0.3477410503521E+01 -0.7142319043701E+00 -0.2553735958478E+00
-0.1108585370916E+00 -0.3515433775619E+01 -0.7252584733493E+00 -0.2943084378809E+00
-0.1300153718645E+00 -0.3556268477171E+01 -0.7372567807931E+00 -0.3356699833939E+00
-0.1501381739627E+00 -0.3599659565727E+01 -0.7499595591131E+00 -0.3796344722306E+00
-0.1705027018667E+00 -0.3645211078091E+01 -0.7631427673633E+00 -0.4265776319496E+00
-0.1909190945422E+00 -0.3692274948673E+01 -0.7766388202158E+00 -0.4767976108276E+00
-0.2115930448694E+00 -0.3740001700204E+01 -0.7903189607913E+00 -0.5302769122985E+00
-0.2328690513255E+00 -0.3787401644349E+01 -0.8040541511163E+00 -0.5866003946304E+00
-0.2550119544361E+00 -0.3833339917218E+01 -0.8176703865150E+00 -0.6449744019413E+00
-0.2780703054758E+00 -0.3876479426613E+01 -0.8309099587992E+00 -0.7042724497133E+00
-0.3018146763168E+00 -0.3915199870439E+01 -0.8434029219189E+00 -0.7630715377680E+00
-0.3257470694839E+00 -0.3947497392636E+01 -0.8546489051592E+00 -0.8196576124718E+00
-0.3491596691079E+00 -0.3970753459199E+01 -0.8639826385357E+00 -0.8719503809443E+00
-0.3711026998015E+00 -0.3981434779171E+01 -0.8705075087660E+00 -0.9172714050487E+00
-0.3900893782327E+00 -0.3975013595049E+01 -0.8730206076654E+00 -0.9519831298147E+00
-0.4035108601363E+00 -0.3946022533366E+01 -0.8699066916631E+00 -0.9711056472518E+00
-0.4067564643857E+00 -0.3888111079404E+01 -0.8589735215576E+00 -0.9679181613067E+00
-0.3919373367536E+00 -0.3794211256144E+01 -0.8372297310552E+00 -0.9335009716641E+00
-0.3459695992258E+00 -0.3656880086621E+01 -0.8005699490987E+00 -0.8561259325628E+00
-0.2473020803537E+00 -0.3468987293451E+01 -0.7432578858363E+00 -0.7202357028664E+00
-0.5902954248067E-01 -0.3225446419420E+01 -0.6568952021687E+00 -0.5046039132154E+00
 0.2869785323010E+00 -0.2928815403667E+01 -0.5283673821464E+00 -0.1807988555346E+00
 0.9156601795272E+00 -0.2608354549019E+01 -0.3385388789430E+00  0.2758146743423E+00
 0.2021367033993E+01 -0.2346021506151E+01 -0.6493089539923E-01  0.8358715121317E+00
 0.3798971857508E+01 -0.2253691224234E+01  0.3090561312601E+00  0.1319410625843E+01
 0.6201221002041E+01 -0.2330027965456E+01  0.7742386188542E+00  0.1348476248230E+01
-0.7245209387881E+00 -0.3312489164112E+01 -0.8074020326113E+00  0.4550699547262E+00
-0.5320676200339E+00 -0.3374874385536E+01 -0.7813884127575E+00  0.4213399176804E+00
-0.3586191630470E+00 -0.3406937503235E+01 -0.7531113444787E+00  0.3431694057843E+00
-0.2344044944426E+00 -0.3405346625627E+01 -0.7279502348612E+00  0.2508234989214E+00
-0.1562103082547E+00 -0.3384961448799E+01 -0.7082343619642E+00  0.1678612721520E+00
-0.1090660898276E+00 -0.3360979880840E+01 -0.6940092044750E+00  0.1011576173258E+00
-0.8057093161100E-01 -0.3341559462680E+01 -0.6844260890570E+00  0.4873729805530E-01
-0.6326303521035E-01 -0.3329617431743E+01 -0.6785761035023E+00  0.6707289980193E-02
-0.5301800806993E-01 -0.3325736934905E+01 -0.6757509986645E+00 -0.2833929776056E-01
-0.4755663985842E-01 -0.3329691644753E+01 -0.6754496669873E+00 -0.5903230548670E-01
-0.4563168489124E-01 -0.3341041213364E+01 -0.6773345897440E+00 -0.8739677280468E-01
-0.4662427531171E-01 -0.3359334966284E+01 -0.6811918584696E+00 -0.1150412934973E+00
-0.5034910814566E-01 -0.3384135765340E+01 -0.6868969849327E+00 -0.1432852630692E+00
-0.5694600164686E-01 -0.3414950688648E+01 -0.6943793484061E+00 -0.1731927608002E+00
-0.6672725388222E-01 -0.3451151688289E+01 -0.7035757989184E+00 -0.2055023178663E+00
-0.7986669635936E-01 -0.3491992079697E+01 -0.7143717658563E+00 -0.2405389637502E+00
-0.9599667246569E-01 -0.3536783431027E+01 -0.7265560315250E+00 -0.2782798945736E+00
-0.1141022103323E+00 -0.3585098518005E+01 -0.7398401566920E+00 -0.3186505544655E+00
-0.1329977655049E+00 -0.3636670439103E+01 -0.7539336521561E+00 -0.3618574798727E+00
-0.1519464126360E+00 -0.3691098309196E+01 -0.7686089558196E+00 -0.4083651798254E+00
-0.1708601347328E+00 -0.3747753484192E+01 -0.7837227354632E+00 -0.4585536262610E+00
-0.1901009580736E+00 -0.3805858956728E+01 -0.7991919948692E+00 -0.5124617347639E+00
-0.2101695912352E+00 -0.3864547864801E+01 -0.8149435033507E+00 -0.5697344507350E+00
-0.2314710715053E+00 -0.3922828562312E+01 -0.8308599391443E+00 -0.6296723345382E+00
-0.2541828488748E+00 -0.3979499694456E+01 -0.8467365212836E+00 -0.6912899177287E+00
-0.2782025278886E+00 -0.4033058431657E+01 -0.8622522047577E+00 -0.7533600715437E+00
-0.3031826970140E+00 -0.4081596660018E+01 -0.8769558844742E+00 -0.8144374700130E+00
-0.3286474630793E+00 -0.4122547617521E+01 -0.8902390293857E+00 -0.8728031911141E+00
-0.3540280101497E+00 -0.4152342294425E+01 -0.9012740743450E+00 -0.9262286112878E+00
-0.3784064792958E+00 -0.4166286258196E+01 -0.9089385610426E+00 -0.9715852383719E+00
-0.3999522962485E+00 -0.4158552136494E+01 -0.9117009001339E+00 -0.1004435579372E+01
-0.4150810203373E+00 -0.4122124876553E+01 -0.9074411928999E+00 -0.1018605344208E+01
-0.4172497069804E+00 -0.4048799451103E+01 -0.8932098449264E+00 -0.1005664574652E+01
-0.3951885935076E+00 -0.3929233512867E+01 -0.8648844341627E+00 -0.9541992942080E+00
-0.3299487702810E+00 -0.3753001613423E+01 -0.8165900889090E+00 -0.8484352294545E+00
-0.1882728854769E+00 -0.3508969428272E+01 -0.7394484737685E+00 -0.6650466855926E+00
 0.9532856928082E-01 -0.3189134199315E+01 -0.6187611352270E+00 -0.3674811209351E+00
 0.6554220954958E+00 -0.2811065444259E+01 -0.4311286761770E+00  0.9002834915873E-01
 0.1734676841297E+01 -0.2462301898749E+01 -0.1455250136589E+00  0.7096389284979E+00
 0.3631349376277E+01 -0.2299553260930E+01  0.2663592270386E+00  0.1310152667786E+01
 0.6367398488920E+01 -0.2362415592890E+01  0.8009965911418E+00  0.1401695978688E+01
-0.7212758565903E+00 -0.3347333761426E+01 -0.8137219357287E+00  0.4832192356298E+00
-0.5075116629472E+00 -0.3410542664220E+01 -0.7836108771101E+00  0.4402303753871E+00
-0.3222656514625E+00 -0.3433168324078E+01 -0.7510868063001E+00  0.3458809939906E+00
-0.1994174447536E+00 -0.3416581975218E+01 -0.7231998947708E+00  0.2426352615404E+00
-0.1280111326474E+00 -0.3383550727560E+01 -0.7023123825068E+00  0.1567143395206E+00
-0.8740654462793E-01 -0.3351894838476E+01 -0.6878602868707E+00  0.9158281385303E-01
-0.6370128020819E-01 -0.3328749544366E+01 -0.6784901750251E+00  0.4228358793891E-01
-0.4961448573653E-01 -0.3315593675452E+01 -0.6730416422668E+00  0.3641873268586E-02
-0.4142177686824E-01 -0.3312088533219E+01 -0.6707020720117E+00 -0.2814774986780E-01
-0.3714485466495E-01 -0.3317496089831E+01 -0.6709281988967E+00 -0.5580473094249E-01
-0.3573683606260E-01 -0.3331117270814E+01 -0.6733708314094E+00 -0.8134023324309E-01
-0.3670661546149E-01 -0.3352407475645E+01 -0.6778228283216E+00 -0.1063275489160E+00
-0.3995814141820E-01 -0.3380944398370E+01 -0.6841805181527E+00 -0.1320743694141E+00
-0.4572768141684E-01 -0.3416305908892E+01 -0.6924067283795E+00 -0.1596808016151E+00
-0.5447131083528E-01 -0.3457923072823E+01 -0.7024788871994E+00 -0.1899538544210E+00
-0.6652518198013E-01 -0.3505044823611E+01 -0.7143140117623E+00 -0.2232548682707E+00
-0.8158597161059E-01 -0.3556925850080E+01 -0.7277023751818E+00 -0.2595232422712E+00
-0.9854467180314E-01 -0.3613077575090E+01 -0.7423244604402E+00 -0.2986358893333E+00
-0.1160818735940E+00 -0.3673186155668E+01 -0.7578536171454E+00 -0.3408301086774E+00
-0.1334446697763E+00 -0.3736821896944E+01 -0.7740533248783E+00 -0.3866553706483E+00
-0.1506609928962E+00 -0.3803382589914E+01 -0.7908087283461E+00 -0.4365511631715E+00
-0.1682536649462E+00 -0.3872206164421E+01 -0.8080919779150E+00 -0.4905851657154E+00
-0.1868671581341E+00 -0.3942610094034E+01 -0.8258954627404E+00 -0.5484483374155E+00
-0.2070263266422E+00 -0.4013807215687E+01 -0.8441667210450E+00 -0.6095390657070E+00
-0.2290158798669E+00 -0.4084784654556E+01 -0.8627601197406E+00 -0.6730259419033E+00
-0.2528339166632E+00 -0.4154206543658E+01 -0.8814081051982E+00 -0.7378918823170E+00
-0.2782471744327E+00 -0.4220320190039E+01 -0.8997134863012E+00 -0.8029781405494E+00
-0.3049723561526E+00 -0.4280692884911E+01 -0.9171330618790E+00 -0.8669592524435E+00
-0.3327911447619E+00 -0.4331834379698E+01 -0.9329251187937E+00 -0.9281092424966E+00
-0.3613341214941E+00 -0.4369039468358E+01 -0.9460747320681E+00 -0.9838895324160E+00
-0.3895382690548E+00 -0.4386321231744E+01 -0.9551719143928E+00 -0.1030534450255E+01
-0.4148573470714E+00 -0.4376241531342E+01 -0.9582197899612E+00 -0.1062620941494E+01
-0.4321485048186E+00 -0.4329750284250E+01 -0.9523797720053E+00 -0.1072523238436E+01
-0.4320952567809E+00 -0.4235982906526E+01 -0.9336156465732E+00 -0.1049659810342E+01
-0.3987885125505E+00 -0.4081667176756E+01 -0.8960911512141E+00 -0.9790140907782E+00
-0.3042026153290E+00 -0.3849691975097E+01 -0.8307789304649E+00 -0.8370132967159E+00
-0.9019494506898E-01 -0.3519130657575E+01 -0.7218651312854E+00 -0.5813677730408E+00
 0.3791449625011E+00 -0.3087217088883E+01 -0.5416144333472E+00 -0.1434696528816E+00
 0.1395034132327E+01 -0.2635065456713E+01 -0.2480062685729E+00  0.5264550655768E+00
 0.3399199301058E+01 -0.2371946759500E+01  0.2054505113731E+00  0.1270587315816E+01
 0.6549341690359E+01 -0.2410243327338E+01  0.8278196849397E+00  0.1459196632614E+01
-0.7168629822000E+00 -0.3392357210219E+01 -0.8218440507303E+00  0.5135895615428E+00
-0.4766182847593E+00 -0.3454268243076E+01 -0.7861773172821E+00  0.4570084748256E+00
-0.2798969450344E+00 -0.3461314992630E+01 -0.7482423986826E+00  0.3421023891378E+00
-0.1621730306878E+00 -0.3424481621499E+01 -0.7173309411264E+00  0.2281390786158E+00
-0.1001843380366E+00 -0.3377062155830E+01 -0.6954493091364E+00  0.1416457201134E+00
-0.6703521002925E-01 -0.3337996495501E+01 -0.6810063512538E+00  0.8008980045412E-01
-0.4826248322612E-01 -0.3311821540747E+01 -0.6720168148085E+00  0.3511136243177E-01
-0.3732720760561E-01 -0.3298078424373E+01 -0.6670811363360E+00  0.5680319038403E-03
-0.3107611318623E-01 -0.3295429969493E+01 -0.6653012264496E+00 -0.2751367037208E-01
-0.2788299168152E-01 -0.3302626886067E+01 -0.6661019854753E+00 -0.5181806882069E-01
-0.2691546827649E-01 -0.3318734140210E+01 -0.6691299316682E+00 -0.7426453027582E-01
-0.2780462644908E-01 -0.3343143983421E+01 -0.6741897320202E+00 -0.9633949527233E-01
-0.3052519143894E-01 -0.3375489880503E+01 -0.6812030245392E+00 -0.1193043272325E+00
-0.3538638498865E-01 -0.3415479176535E+01 -0.6901731225891E+00 -0.1442834302563E+00
-0.4298230767095E-01 -0.3462666809774E+01 -0.7011298339367E+00 -0.1721733789196E+00
-0.5383657947973E-01 -0.3516333409852E+01 -0.7140340085062E+00 -0.2034074055628E+00
-0.6773020320203E-01 -0.3575662140793E+01 -0.7286784796571E+00 -0.2379019533291E+00
-0.8343829188610E-01 -0.3640049744594E+01 -0.7446976183929E+00 -0.2754832724583E+00
-0.9947726668607E-01 -0.3709071317442E+01 -0.7617097281760E+00 -0.3164199055802E+00
-0.1150827052169E+00 -0.3782227761473E+01 -0.7794621049529E+00 -0.3613316383572E+00
-0.1304186020565E+00 -0.3858955875580E+01 -0.7978749074165E+00 -0.4106765665632E+00
-0.1461688767348E+00 -0.3938770271822E+01 -0.8169878418854E+00 -0.4645107297741E+00
-0.1631001921747E+00 -0.4021252438010E+01 -0.8368705385072E+00 -0.5225552534704E+00
-0.1818302830408E+00 -0.4105891317342E+01 -0.8575443328550E+00 -0.5843147390453E+00
-0.2027280876808E+00 -0.4191917276834E+01 -0.8789290860001E+00 -0.6491298754384E+00
-0.2258660328344E+00 -0.4278206483171E+01 -0.9008145166242E+00 -0.7162073131945E+00
-0.2510849555733E+00 -0.4363215940020E+01 -0.9228601928703E+00 -0.7846851415254E+00
-0.2782468212820E+00 -0.4444730211077E+01 -0.9445954205474E+00 -0.8536514998159E+00
-0.3074428417739E+00 -0.4519466157870E+01 -0.9653818143142E+00 -0.9219203454672E+00
-0.3388139385625E+00 -0.4582895168582E+01 -0.9843418360968E+00 -0.9876058201813E+00
-0.3720243942650E+00 -0.4629120840896E+01 -0.1000229061937E+01 -0.1047728943555E+01
-0.4055378130573E+00 -0.4650589710801E+01 -0.1011225519840E+01 -0.1097812666355E+01
-0.4356035750852E+00 -0.4637792713110E+01 -0.1014679272759E+01 -0.1131331201084E+01
-0.4548632867193E+00 -0.4578902157406E+01 -0.1006753103827E+01 -0.1139015791087E+01
-0.4505667344286E+00 -0.4458683411682E+01 -0.9818500438528E+00 -0.1107578240251E+01
-0.4009262453113E+00 -0.4255200472367E+01 -0.9312253574120E+00 -0.1015451260398E+01
-0.2600055032923E+00 -0.3934108524907E+01 -0.8388228181393E+00 -0.8190981795957E+00
 0.9639497909200E-01 -0.3462987317900E+01 -0.6733184777948E+00 -0.4298906579813E+00
 0.9977823515231E+00 -0.2894336623920E+01 -0.3793108601315E+00  0.2666377491443E+00
 0.3077088297187E+01 -0.2488498532162E+01  0.1177179547591E+00  0.1180923008994E+01
 0.6747158444236E+01 -0.2481635716205E+01  0.8531045583183E+00  0.1521091673761E+01
-0.7105022910655E+00 -0.3451985865262E+01 -0.8324976436707E+00  0.5464570137734E+00
-0.4369498542796E+00 -0.3508117175374E+01 -0.7890134176879E+00  0.4693083574645E+00
-0.2307589998176E+00 -0.3489764253997E+01 -0.7441046618510E+00  0.3287252574305E+00
-0.1236676332984E+00 -0.3426420830097E+01 -0.7100177032592E+00  0.2060759780876E+00
-0.7378528916821E-01 -0.3363868345504E+01 -0.6875307371795E+00  0.1227375162214E+00
-0.4855581299349E-01 -0.3318511796429E+01 -0.6734135319192E+00  0.6703560719133E-01
-0.3458206263730E-01 -0.3290379998177E+01 -0.6649924220720E+00  0.2752656578089E-01
-0.2659741640657E-01 -0.3276855257182E+01 -0.6606905445628E+00 -0.2281688117048E-02
-0.2210794962105E-01 -0.3275631055281E+01 -0.6595478108085E+00 -0.2627443429845E-01
-0.1986619712953E-01 -0.3284985388435E+01 -0.6609703269621E+00 -0.4696839736477E-01
-0.1925468610563E-01 -0.3303792410061E+01 -0.6646094291368E+00 -0.6611121693018E-01
-0.2001394215716E-01 -0.3331419217705E+01 -0.6702866419604E+00 -0.8505075850182E-01
-0.2216539374321E-01 -0.3367598497666E+01 -0.6779527883842E+00 -0.1049612955119E+00
-0.2605558315353E-01 -0.3412236760108E+01 -0.6876584788992E+00 -0.1269701310794E+00
-0.3239702338852E-01 -0.3465107010872E+01 -0.6995008172755E+00 -0.1520861903736E+00
-0.4192634014847E-01 -0.3525589192149E+01 -0.7135031170916E+00 -0.1808714372057E+00
-0.5453914701369E-01 -0.3592781256662E+01 -0.7294640916051E+00 -0.2132581260245E+00
-0.6887564027149E-01 -0.3665873680591E+01 -0.7469498753030E+00 -0.2490325687716E+00
-0.8326164057553E-01 -0.3744216696255E+01 -0.7654956787729E+00 -0.2884935378048E+00
-0.9693883133330E-01 -0.3827178363728E+01 -0.7848234507071E+00 -0.3322948173129E+00
-0.1102328483525E+00 -0.3914262470831E+01 -0.8048990758307E+00 -0.3808433812596E+00
-0.1239793890845E+00 -0.4005252729015E+01 -0.8258464359260E+00 -0.4341291156934E+00
-0.1390323973607E+00 -0.4100097055538E+01 -0.8478259032132E+00 -0.4918893955959E+00
-0.1560677508553E+00 -0.4198643058726E+01 -0.8709421748944E+00 -0.5537520323883E+00
-0.1755156127748E+00 -0.4300420224977E+01 -0.8951871808896E+00 -0.6192564089175E+00
-0.1975003323099E+00 -0.4404553080318E+01 -0.9204106962409E+00 -0.6878483107502E+00
-0.2218960194960E+00 -0.4509749235198E+01 -0.9463290650403E+00 -0.7589637911977E+00
-0.2486560067674E+00 -0.4614087712400E+01 -0.9725487583255E+00 -0.8321077640316E+00
-0.2781305380072E+00 -0.4714633365171E+01 -0.9985527955152E+00 -0.9066484631404E+00
-0.3109140728075E+00 -0.4807256422501E+01 -0.1023634114315E+01 -0.9813894387651E+00
-0.3473244369722E+00 -0.4886453874063E+01 -0.1046755677805E+01 -0.1054232007019E+01
-0.3867654422950E+00 -0.4944930431270E+01 -0.1066339190603E+01 -0.1121824300212E+01
-0.4268182721485E+00 -0.4973181764764E+01 -0.1080000023476E+01 -0.1179002042627E+01
-0.4619593034172E+00 -0.4959117619263E+01 -0.1084215400692E+01 -0.1218189282725E+01
-0.4823605214946E+00 -0.4886821938828E+01 -0.1073836508066E+01 -0.1228618609004E+01
-0.4725054612414E+00 -0.4731901820817E+01 -0.1040881471922E+01 -0.1192894704692E+01
-0.4021039586842E+00 -0.4449623020582E+01 -0.9703454103125E+00 -0.1072468563148E+01
-0.1757713295341E+00 -0.3972087125865E+01 -0.8295717034415E+00 -0.7693557706996E+00
 0.5448605918808E+00 -0.3288470011854E+01 -0.5487218921713E+00 -0.9369385842312E-01
 0.2629609979747E+01 -0.2683526291405E+01 -0.1078326249221E-01  0.1007116502036E+01
 0.6958015860795E+01 -0.2592994594613E+01  0.8730042662452E+00  0.1584483825516E+01
-0.7008293011672E+00 -0.3533456614304E+01 -0.8468571957134E+00  0.5819274818685E+00
-0.3849917884068E+00 -0.3574213374518E+01 -0.7918410443843E+00  0.4726653314187E+00
-0.1746766021425E+00 -0.3514746804462E+01 -0.7378846923163E+00  0.3014522955957E+00
-0.8581217583811E-01 -0.3418634661957E+01 -0.7008893780030E+00  0.1756634112910E+00
-0.5010750498938E-01 -0.3342344413076E+01 -0.6784903937234E+00  0.1006201252034E+00
-0.3253056387261E-01 -0.3292791483941E+01 -0.6650644194730E+00  0.5297660784879E-01
-0.2294819247322E-01 -0.3264104949585E+01 -0.6574106382078E+00  0.1992088509182E-01
-0.1758864477686E-01 -0.3251773247795E+01 -0.6538723882577E+00 -0.4630088057472E-02
-0.1461568740688E-01 -0.3252609443066E+01 -0.6534450358316E+00 -0.2425065007089E-01
-0.1316818659470E-01 -0.3264508641680E+01 -0.6555353754231E+00 -0.4114868227277E-01
-0.1282517932974E-01 -0.3286220139446E+01 -0.6598090735871E+00 -0.5682839583181E-01
-0.1341956252137E-01 -0.3317127786813E+01 -0.6661094797926E+00 -0.7245085037662E-01
-0.1499326328379E-01 -0.3357103485542E+01 -0.6744193598147E+00 -0.8905673920490E-01
-0.1788223573929E-01 -0.3406326513056E+01 -0.6848417599640E+00 -0.1077374506861E+00
-0.2287533032167E-01 -0.3464920865178E+01 -0.6975592494944E+00 -0.1296286929421E+00
-0.3094048228128E-01 -0.3532493191941E+01 -0.7126867454644E+00 -0.1555052005279E+00
-0.4213035401325E-01 -0.3608056080376E+01 -0.7300372977562E+00 -0.1853989508731E+00
-0.5494079632977E-01 -0.3690435782612E+01 -0.7490753269505E+00 -0.2190958790435E+00
-0.6749467836153E-01 -0.3778556450393E+01 -0.7692102372131E+00 -0.2569174295466E+00
-0.7907821188389E-01 -0.3871561841581E+01 -0.7901280224668E+00 -0.2994718505679E+00
-0.9020537176495E-01 -0.3969087457813E+01 -0.8118585780133E+00 -0.3470020708465E+00
-0.1018353242638E+00 -0.4071325640593E+01 -0.8346322054083E+00 -0.3993656120403E+00
-0.1148565026325E+00 -0.4178718628828E+01 -0.8587150390880E+00 -0.4563109558322E+00
-0.1299595416316E+00 -0.4291565394309E+01 -0.8843050003653E+00 -0.5176187436644E+00
-0.1476142474367E+00 -0.4409751980053E+01 -0.9114732590799E+00 -0.5830664830063E+00
-0.1679828975448E+00 -0.4532674532325E+01 -0.9401314999830E+00 -0.6523608768259E+00
-0.1909362360120E+00 -0.4659305973393E+01 -0.9700484563358E+00 -0.7252273040972E+00
-0.2164613074185E+00 -0.4788079082855E+01 -0.1000908092969E+01 -0.8015660543860E+00
-0.2451085189853E+00 -0.4916560069830E+01 -0.1032333733146E+01 -0.8812801670947E+00
-0.2778485580231E+00 -0.5041282507497E+01 -0.1063826228956E+01 -0.9638644907537E+00
-0.3155410385944E+00 -0.5157494678653E+01 -0.1094607159760E+01 -0.1048167648321E+01
-0.3584163833184E+00 -0.5258597051892E+01 -0.1123402703782E+01 -0.1132122197012E+01
-0.4052965585913E+00 -0.5335615120251E+01 -0.1148182352878E+01 -0.1212151995081E+01
-0.4522805080380E+00 -0.5376946669897E+01 -0.1165845452960E+01 -0.1282598339434E+01
-0.4918999143654E+00 -0.5367545278008E+01 -0.1171889055937E+01 -0.1335646228186E+01
-0.5139110389409E+00 -0.5283901572121E+01 -0.1159562539491E+01 -0.1359528044876E+01
-0.5034725875596E+00 -0.5078462028445E+01 -0.1116386939836E+01 -0.1326725262917E+01
-0.4103238331895E+00 -0.4653954742392E+01 -0.1012855730209E+01 -0.1150578055288E+01
 0.5372445998334E-01 -0.3894426175800E+01 -0.7681403546095E+00 -0.5781266252081E+00
 0.2009846171156E+01 -0.3026809175872E+01 -0.2033926039739E+00  0.6910040606880E+00
 0.7171776131439E+01 -0.2780856560786E+01  0.8781839272167E+00  0.1636579595206E+01
-0.6854789300415E+00 -0.3649475247360E+01 -0.8669908483994E+00  0.6193842479620E+00
-0.3157207181124E+00 -0.3653421531397E+01 -0.7938284617309E+00  0.4584128805352E+00
-0.1130774489126E+00 -0.3528241844483E+01 -0.7282638695311E+00  0.2549261038514E+00
-0.5180089691312E-01 -0.3396482219697E+01 -0.6896566335986E+00  0.1375455398475E+00
-0.3042655472858E-01 -0.3311316397612E+01 -0.6683486004273E+00  0.7657684672296E-01
-0.1938559379798E-01 -0.3260332400588E+01 -0.6559436086515E+00  0.3859734378110E-01
-0.1360213185901E-01 -0.3232785091608E+01 -0.6492774543685E+00  0.1277484167844E-01
-0.1041468257671E-01 -0.3222765736234E+01 -0.6466360933977E+00 -0.6165771840263E-02
-0.8663085833382E-02 -0.3226336125544E+01 -0.6469998519166E+00 -0.2125306144119E-01
-0.7837673413694E-02 -0.3241174712329E+01 -0.6498024868313E+00 -0.3425228756479E-01
-0.7677789080370E-02 -0.3265976534216E+01 -0.6547308744156E+00 -0.4637357105068E-01
-0.8091814040282E-02 -0.3300189665509E+01 -0.6616563057692E+00 -0.5854777923555E-01
-0.9118781184174E-02 -0.3343853100899E+01 -0.6705943864092E+00 -0.7163454615878E-01
-0.1102892143592E-01 -0.3397479629689E+01 -0.6817017203832E+00 -0.8662342932717E-01
-0.1461132097700E-01 -0.3461719485454E+01 -0.6952661716465E+00 -0.1047598475770E+00
-0.2105841343141E-01 -0.3536646460763E+01 -0.7115409854417E+00 -0.1271427363451E+00
-0.3063230640967E-01 -0.3621236814186E+01 -0.7303738350026E+00 -0.1540735572439E+00
-0.4169955825400E-01 -0.3713673505838E+01 -0.7510746240104E+00 -0.1854414480863E+00
-0.5220405049934E-01 -0.3812093874966E+01 -0.7728595966096E+00 -0.2215611806897E+00
-0.6154512009404E-01 -0.3915301766239E+01 -0.7953693891185E+00 -0.2628295739548E+00
-0.7043942689529E-01 -0.4023209934912E+01 -0.8187298845615E+00 -0.3091522462568E+00
-0.7990759377828E-01 -0.4136626277427E+01 -0.8433067868073E+00 -0.3601881907547E+00
-0.9079905009887E-01 -0.4256637816254E+01 -0.8694873862270E+00 -0.4157114823288E+00
-0.1037673511201E+00 -0.4384094344421E+01 -0.8975723524830E+00 -0.4757001845382E+00
-0.1193018789724E+00 -0.4519301490871E+01 -0.9277206877929E+00 -0.5402262151225E+00
-0.1376029479466E+00 -0.4661935732498E+01 -0.9599077503926E+00 -0.6092950232490E+00
-0.1585145852875E+00 -0.4811201993009E+01 -0.9939433304701E+00 -0.6829054894989E+00
-0.1820014652741E+00 -0.4965906076172E+01 -0.1029581523631E+01 -0.7612940911608E+00
-0.2087473576013E+00 -0.5124287019929E+01 -0.1066606891400E+01 -0.8448277220449E+00
-0.2399963235756E+00 -0.5283864344131E+01 -0.1104772150004E+01 -0.9336516776556E+00
-0.2769971900906E+00 -0.5441050973407E+01 -0.1143609649741E+01 -0.1027603000051E+01
-0.3206424303867E+00 -0.5590432998294E+01 -0.1182215103353E+01 -0.1126028342235E+01
-0.3708910728671E+00 -0.5724164715853E+01 -0.1219011175909E+01 -0.1227149262643E+01
-0.4252821762617E+00 -0.5831794908895E+01 -0.1251415435679E+01 -0.1327301246830E+01
-0.4778408783562E+00 -0.5900652478927E+01 -0.1275698690466E+01 -0.1421445329129E+01
-0.5220688244150E+00 -0.5912048576611E+01 -0.1286823499380E+01 -0.1503826461427E+01
-0.5536946659776E+00 -0.5826163684832E+01 -0.1275971689175E+01 -0.1560265381675E+01
-0.5702363603683E+00 -0.5544956389587E+01 -0.1223038568216E+01 -0.1541065902965E+01
-0.4259130656421E+00 -0.4828909665995E+01 -0.1050964561988E+01 -0.1194539848511E+01
 0.1163896670345E+01 -0.3664998328969E+01 -0.5002203391786E+00  0.1369643351394E+00
 0.7360832584175E+01 -0.3135213693813E+01  0.8451237906657E+00  0.1634179421655E+01
-0.6606466166220E+00 -0.3824725382385E+01 -0.8970744131689E+00  0.6554813330919E+00
-0.2221419130873E+00 -0.3740101243687E+01 -0.7924486431632E+00  0.4091744678142E+00
-0.5133367742443E-01 -0.3514613153218E+01 -0.7131893767558E+00  0.1845923377837E+00
-0.2612062186174E-01 -0.3356459761933E+01 -0.6765160868398E+00  0.9534819395092E-01
-0.1537396605873E-01 -0.3270337312402E+01 -0.6571422654843E+00  0.5213976890033E-01
-0.9442755503312E-02 -0.3220701116664E+01 -0.6460287840600E+00  0.2467734917097E-01
-0.6720395505480E-02 -0.3196408902440E+01 -0.6406258691352E+00  0.6668247917547E-02
-0.5116065761252E-02 -0.3189841483450E+01 -0.6389915193639E+00 -0.6572405116321E-02
-0.4280609626662E-02 -0.3196846947431E+01 -0.6402255209517E+00 -0.1708438208299E-01
-0.3892825146876E-02 -0.3215004649659E+01 -0.6437795045543E+00 -0.2617923065126E-01
-0.3841634268949E-02 -0.3243055573711E+01 -0.6493794512725E+00 -0.3471575678270E-01
-0.4081524469287E-02 -0.3280555004347E+01 -0.6569273155522E+00 -0.4336934217487E-01
-0.4640018122915E-02 -0.3327723097771E+01 -0.6664726331099E+00 -0.5277640044554E-01
-0.5673078559153E-02 -0.3385422081237E+01 -0.6782190420654E+00 -0.6372861910198E-01
-0.7849999608990E-02 -0.3455022196692E+01 -0.6925744495803E+00 -0.7748530300797E-01
-0.1251624001278E-01 -0.3537515255154E+01 -0.7100063096133E+00 -0.9558391068193E-01
-0.2019002700537E-01 -0.3632039974341E+01 -0.7304460111538E+00 -0.1189313144672E+00
-0.2918123980575E-01 -0.3735619518609E+01 -0.7529601629029E+00 -0.1477690429394E+00
-0.3736345712973E-01 -0.3844938935817E+01 -0.7764604901596E+00 -0.1823085401526E+00
-0.4435462514957E-01 -0.3958364289862E+01 -0.8005437949313E+00 -0.2223962580126E+00
-0.5104221982905E-01 -0.4076397036906E+01 -0.8254878636477E+00 -0.2673570056234E+00
-0.5839281484544E-01 -0.4200749725865E+01 -0.8518285208353E+00 -0.3166155784032E+00
-0.6712610844185E-01 -0.4333314200390E+01 -0.8800880748808E+00 -0.3700196347510E+00
-0.7780044885725E-01 -0.4475589158822E+01 -0.9106779351059E+00 -0.4278021138948E+00
-0.9090204542483E-01 -0.4628378800282E+01 -0.9438561832058E+00 -0.4904028671473E+00
-0.1066886348750E+00 -0.4791644774664E+01 -0.9796666965059E+00 -0.5581993786502E+00
-0.1249851459461E+00 -0.4964703426817E+01 -0.1017937729721E+01 -0.6314539891421E+00
-0.1456907075580E+00 -0.5146665999135E+01 -0.1058471357111E+01 -0.7106159444638E+00
-0.1695426040366E+00 -0.5336657852394E+01 -0.1101240107696E+01 -0.7963601051543E+00
-0.1979213852421E+00 -0.5533602082393E+01 -0.1146304710608E+01 -0.8894006995701E+00
-0.2322623560410E+00 -0.5735526979361E+01 -0.1193557884866E+01 -0.9905845961561E+00
-0.2739271214041E+00 -0.5938738516716E+01 -0.1242533146139E+01 -0.1100771654388E+01
-0.3238139315869E+00 -0.6137179281711E+01 -0.1292198661915E+01 -0.1220133859586E+01
-0.3810465300088E+00 -0.6322231863311E+01 -0.1340655698641E+01 -0.1347200533438E+01
-0.4400631974463E+00 -0.6483949092939E+01 -0.1384802478712E+01 -0.1478511981759E+01
-0.4962492380510E+00 -0.6613276674409E+01 -0.1421905203680E+01 -0.1613420670706E+01
-0.5507405516803E+00 -0.6687449055553E+01 -0.1447637943018E+01 -0.1748028234077E+01
-0.6187137087160E+00 -0.6656674713552E+01 -0.1455077706136E+01 -0.1877848319787E+01
-0.7836577497129E+00 -0.6242999698763E+01 -0.1405331510636E+01 -0.1892522469835E+01
 0.5547680896167E-01 -0.4914854328235E+01 -0.9718755183367E+00 -0.7954309641358E+00
 0.7466290633966E+01 -0.3897288985584E+01  0.7138003403127E+00  0.1444454351487E+01
-0.6224615932398E+00 -0.4115163651036E+01 -0.9475250629743E+00  0.6758225455571E+00
-0.9474409321287E-01 -0.3799603065882E+01 -0.7788694434251E+00  0.2892792605189E+00
-0.4513223239473E-02 -0.3450624877373E+01 -0.6910276304197E+00  0.9531372954444E-01
-0.1233011893900E-01 -0.3301587200642E+01 -0.6627834737925E+00  0.5605337243281E-01
-0.4248416563042E-02 -0.3217941136546E+01 -0.6444379202246E+00  0.2783843845302E-01
-0.3336524036225E-02 -0.3174158129418E+01 -0.6354989401605E+00  0.1253700872403E-01
-0.2192906482007E-02 -0.3155034007432E+01 -0.6314453921920E+00  0.2085998062693E-02
-0.1722637777558E-02 -0.3153129301755E+01 -0.6309703973087E+00 -0.5498039285903E-02
-0.1440695638496E-02 -0.3164236886840E+01 -0.6331355259301E+00 -0.1156025629841E-01
-0.1325197963350E-02 -0.3186066644350E+01 -0.6374783779619E+00 -0.1683774442123E-01
-0.1320513366312E-02 -0.3217488265881E+01 -0.6437617654422E+00 -0.2183879346155E-01
-0.1416866840783E-02 -0.3258207316507E+01 -0.6519248463839E+00 -0.2696284309575E-01
-0.1630394709094E-02 -0.3308630579803E+01 -0.6620522047677E+00 -0.3260061301880E-01
-0.1997388190825E-02 -0.3369909342266E+01 -0.6743813561404E+00 -0.3924277570596E-01
-0.2911610722612E-02 -0.3444229950435E+01 -0.6894283225048E+00 -0.4791027037779E-01
-0.5650940480806E-02 -0.3534319939683E+01 -0.7079941865828E+00 -0.6058371801664E-01
-0.1097501500169E-01 -0.3640131176983E+01 -0.7302212492782E+00 -0.7944060681610E-01
-0.1734297178558E-01 -0.3756492932008E+01 -0.7547671920057E+00 -0.1056745592915E+00
-0.2285848680873E-01 -0.3877356711193E+01 -0.7800430512239E+00 -0.1390875178452E+00
-0.2748720364264E-01 -0.4000755664399E+01 -0.8056485856135E+00 -0.1782927779869E+00
-0.3213159742864E-01 -0.4128393095844E+01 -0.8321049510538E+00 -0.2217578030870E+00
-0.3751963939593E-01 -0.4263239195720E+01 -0.8601517798405E+00 -0.2687244849532E+00
-0.4414919466087E-01 -0.4408139885991E+01 -0.8904578293992E+00 -0.3192068868068E+00
-0.5242509801137E-01 -0.4565321383964E+01 -0.9235493101570E+00 -0.3737564739345E+00
-0.6279102819892E-01 -0.4736195255682E+01 -0.9597972710784E+00 -0.4332573325584E+00
-0.7559852197620E-01 -0.4921062208512E+01 -0.9993321609888E+00 -0.4986036602628E+00
-0.9072998779247E-01 -0.5119070131474E+01 -0.1041960039380E+01 -0.5703645263361E+00
-0.1080131682361E+00 -0.5329362899627E+01 -0.1087475229777E+01 -0.6489524332023E+00
-0.1281264508955E+00 -0.5552296579838E+01 -0.1136084623076E+01 -0.7350391432896E+00
-0.1523879390752E+00 -0.5788786329131E+01 -0.1188234871347E+01 -0.8298213887216E+00
-0.1821900799864E+00 -0.6038899230156E+01 -0.1244217880569E+01 -0.9351896661000E+00
-0.2190954974335E+00 -0.6301197831122E+01 -0.1304058685143E+01 -0.1053528101473E+01
-0.2648127792365E+00 -0.6572244640974E+01 -0.1367411504418E+01 -0.1187117169426E+01
-0.3197648330820E+00 -0.6845854983204E+01 -0.1433123984612E+01 -0.1336864979990E+01
-0.3808115755633E+00 -0.7114420009111E+01 -0.1499046339272E+01 -0.1500597658749E+01
-0.4366688091535E+00 -0.7377062903375E+01 -0.1562746365793E+01 -0.1674517954422E+01
-0.5050612289965E+00 -0.7651618911934E+01 -0.1631336052495E+01 -0.1869524153149E+01
-0.5519238105403E+00 -0.7941143268471E+01 -0.1698613441114E+01 -0.2075317420257E+01
-0.8300777689863E+00 -0.8248001783890E+01 -0.1815615937630E+01 -0.2476441074464E+01
-0.1214776868491E+01 -0.7415547290644E+01 -0.1726064857547E+01 -0.2213288323805E+01
 0.7337393993580E+01 -0.5875441127815E+01  0.2923905775099E+00  0.6368616207621E+00
-0.5856855756694E+00 -0.4682906834607E+01 -0.1053718497757E+01  0.6126732609138E+00
 0.8366854801667E-01 -0.3652412293045E+01 -0.7137487596413E+00  0.2925948705810E-01
-0.1644668402760E-01 -0.3363625619702E+01 -0.6760144708192E+00  0.3458818394778E-01
 0.2533586267546E-02 -0.3226401264269E+01 -0.6447735452082E+00  0.1472381934772E-01
-0.9543569528699E-03 -0.3155433793712E+01 -0.6312776395397E+00  0.7521696161374E-02
-0.3928106213436E-04 -0.3120851339843E+01 -0.6241781334821E+00  0.2784594927521E-02
-0.1714941806751E-03 -0.3108983338266E+01 -0.6218309757553E+00 -0.3313306310374E-03
-0.9920468942493E-04 -0.3112837556169E+01 -0.6225873614490E+00 -0.2639285867341E-02
-0.9586653241911E-04 -0.3128670433161E+01 -0.6257532692632E+00 -0.4503396970978E-02
-0.8912842658371E-04 -0.3154474218414E+01 -0.6309126787695E+00 -0.6152482910528E-02
-0.9304021649525E-04 -0.3189344181795E+01 -0.6378874539076E+00 -0.7741764267484E-02
-0.1032857947236E-03 -0.3233168638160E+01 -0.6466543944269E+00 -0.9397517857621E-02
-0.1229952149776E-03 -0.3286532856390E+01 -0.6573311801161E+00 -0.1124797700827E-01
-0.1546989329351E-03 -0.3350804098509E+01 -0.6701917694751E+00 -0.1346065009225E-01
-0.2257184063734E-03 -0.3428642788681E+01 -0.6857737116364E+00 -0.1636124022972E-01
-0.9879110574146E-03 -0.3525773864419E+01 -0.7053523656058E+00 -0.2185265958042E-01
-0.3203165794696E-02 -0.3645106693970E+01 -0.7296619828258E+00 -0.3470992192778E-01
-0.5995669746369E-02 -0.3776910241869E+01 -0.7565811935971E+00 -0.5861270732307E-01
-0.8434693392603E-02 -0.3909793887286E+01 -0.7836457278129E+00 -0.9194573782253E-01
-0.1089764083660E-01 -0.4042509020340E+01 -0.8106813443154E+00 -0.1307669126506E+00
-0.1384605305784E-01 -0.4178901402442E+01 -0.8385495035954E+00 -0.1725890706219E+00
-0.1755788073972E-01 -0.4323575145988E+01 -0.8682266182831E+00 -0.2166550454295E+00
-0.2222863554393E-01 -0.4480432356727E+01 -0.9005322118731E+00 -0.2632907931811E+00
-0.2807730473324E-01 -0.4652472003601E+01 -0.9361098756159E+00 -0.3134347271670E+00
-0.3541557962764E-01 -0.4841817909974E+01 -0.9754467124557E+00 -0.3684374408083E+00
-0.4470506159633E-01 -0.5049403552739E+01 -0.1018821738049E+01 -0.4299699389318E+00
-0.5612451673366E-01 -0.5273660940716E+01 -0.1065957107374E+01 -0.4991786498589E+00
-0.6951582364714E-01 -0.5512907778778E+01 -0.1116484737122E+01 -0.5758945111291E+00
-0.8528470919366E-01 -0.5769558533069E+01 -0.1170968665901E+01 -0.6601501885764E+00
-0.1043802597581E+00 -0.6047403038090E+01 -0.1230356677903E+01 -0.7537122458813E+00
-0.1279173982576E+00 -0.6348692167873E+01 -0.1295321932528E+01 -0.8595810469290E+00
-0.1574430230988E+00 -0.6674837505868E+01 -0.1366456126155E+01 -0.9815169855753E+00
-0.1949497569203E+00 -0.7026001546734E+01 -0.1444190282251E+01 -0.1123929213243E+01
-0.2427330731085E+00 -0.7399548874503E+01 -0.1528456412298E+01 -0.1290820725235E+01
-0.2995916375926E+00 -0.7788261175444E+01 -0.1617570586711E+01 -0.1481460874487E+01
-0.3605075289059E+00 -0.8191332251546E+01 -0.1710367981577E+01 -0.1682889237684E+01
-0.3960991602260E+00 -0.8674516432414E+01 -0.1814123145561E+01 -0.1883701971944E+01
-0.5147578206608E+00 -0.9383348609137E+01 -0.1979621315458E+01 -0.2134784880804E+01
-0.2841655113885E+00 -0.1048465104024E+02 -0.2153763342419E+01 -0.2434702184471E+01
-0.2304778357224E+01 -0.1245028703681E+02 -0.2951013122780E+01 -0.3865875808113E+01
 0.7602870879027E+01 -0.1157445244043E+02 -0.7943163241160E+00 -0.1912154614712E+01
-0.1899530068085E+01 -0.2443443706777E+01 -0.2041197669008E+01 -0.7893676591213E+00
-0.1625566483585E+01 -0.2533667092143E+01 -0.1954839775634E+01 -0.7544905617616E+00
-0.1355085480817E+01 -0.2619257206761E+01 -0.1867941058424E+01 -0.7132887185219E+00
-0.1099798830908E+01 -0.2696346759494E+01 -0.1784188422964E+01 -0.6673785550978E+00
-0.8658884590429E+00 -0.2763542606933E+01 -0.1705832596682E+01 -0.6203618725206E+00
-0.6558992454947E+00 -0.2821484660520E+01 -0.1634370431681E+01 -0.5759445991000E+00
-0.4700843573303E+00 -0.2872183493579E+01 -0.1570865885943E+01 -0.5372030529971E+00
-0.3073368080234E+00 -0.2918325005787E+01 -0.1516061048646E+01 -0.5062709786007E+00
-0.1658403516440E+00 -0.2962548965761E+01 -0.1470342975451E+01 -0.4843275890807E+00
-0.4359054785221E-01 -0.3006861160317E+01 -0.1433712299203E+01 -0.4717842441149E+00
 0.6116731117052E-01 -0.3052255968528E+01 -0.1405811665392E+01 -0.4685328455490E+00
 0.1487977474769E+00 -0.3099185731105E+01 -0.1386682348788E+01 -0.4741270568918E+00
 0.2200393437246E+00 -0.3146675054567E+01 -0.1375518780607E+01 -0.4888027016711E+00
 0.2750652676878E+00 -0.3194640326330E+01 -0.1372200274081E+01 -0.5127084665391E+00
 0.3133756390213E+00 -0.3243673314650E+01 -0.1377239904052E+01 -0.5453268236977E+00
 0.3347805988172E+00 -0.3293733575682E+01 -0.1390707895599E+01 -0.5859998574883E+00
 0.3386998109219E+00 -0.3344749709377E+01 -0.1412843448690E+01 -0.6337366979135E+00
 0.3225523243860E+00 -0.3397852082055E+01 -0.1445390882438E+01 -0.6875922019192E+00
 0.2900666883960E+00 -0.3448570780546E+01 -0.1484496919545E+01 -0.7465481878085E+00
 0.1981357984916E+00 -0.3536515918761E+01 -0.1569038652547E+01 -0.7995621733788E+00
-0.1913889223014E+01 -0.2460726164439E+01 -0.2056069226888E+01 -0.7531390643100E+00
-0.1638211343894E+01 -0.2551785159996E+01 -0.1969298351833E+01 -0.7187999850611E+00
-0.1367945210669E+01 -0.2639075402593E+01 -0.1883299683456E+01 -0.6804452688426E+00
-0.1112435204702E+01 -0.2718627164755E+01 -0.1800599309078E+01 -0.6385439575871E+00
-0.8773934953456E+00 -0.2789105356510E+01 -0.1723254456002E+01 -0.5958581265572E+00
-0.6653723057165E+00 -0.2850997670301E+01 -0.1652693884536E+01 -0.5555255142806E+00
-0.4768315160066E+00 -0.2906040501837E+01 -0.1589949844354E+01 -0.5202729642173E+00
-0.3109243353712E+00 -0.2956607082203E+01 -0.1535739762365E+01 -0.4920838095690E+00
-0.1660998109543E+00 -0.3005111238513E+01 -0.1490469189469E+01 -0.4721438806141E+00
-0.4058100645878E-01 -0.3053486595633E+01 -0.1454211769294E+01 -0.4609616587866E+00
 0.6705458719303E-01 -0.3102947935116E+01 -0.1426869869905E+01 -0.4585430516745E+00
 0.1575105651439E+00 -0.3153721537150E+01 -0.1408219153271E+01 -0.4646816057250E+00
 0.2311469061436E+00 -0.3205617901344E+01 -0.1398001364198E+01 -0.4796407222544E+00
 0.2881329574525E+00 -0.3258681907724E+01 -0.1396158003087E+01 -0.5034522195667E+00
 0.3281755627439E+00 -0.3313230079732E+01 -0.1402975619426E+01 -0.5356932035834E+00
 0.3508793717872E+00 -0.3369612134772E+01 -0.1418804395004E+01 -0.5757870209755E+00
 0.3551719045030E+00 -0.3428469323970E+01 -0.1444449783486E+01 -0.6227397200723E+00
 0.3404033394943E+00 -0.3489731064796E+01 -0.1480184027137E+01 -0.6752118812957E+00
 0.2938774031223E+00 -0.3561435160891E+01 -0.1535752142256E+01 -0.7291513358301E+00
 0.2139171108298E+00 -0.3634138048493E+01 -0.1607503836625E+01 -0.7843577433256E+00
-0.1928204542791E+01 -0.2478434579758E+01 -0.2071120382345E+01 -0.7164888503752E+00
-0.1650473912986E+01 -0.2570771310299E+01 -0.1983985249912E+01 -0.6828160055566E+00
-0.1379677656417E+01 -0.2659445673396E+01 -0.1898387960197E+01 -0.6470118873283E+00
-0.1123679020903E+01 -0.2741183599688E+01 -0.1816485427070E+01 -0.6087702169172E+00
-0.8874713077973E+00 -0.2814622742851E+01 -0.1739984199391E+01 -0.5700869960156E+00
-0.6735298126673E+00 -0.2880112209245E+01 -0.1670211746063E+01 -0.5335715944527E+00
-0.4824512607210E+00 -0.2939146061167E+01 -0.1608150737208E+01 -0.5016249534425E+00
-0.3136081158035E+00 -0.2993840656606E+01 -0.1554500919090E+01 -0.4760760933507E+00
-0.1656797117856E+00 -0.3046417294644E+01 -0.1509685589193E+01 -0.4580879033829E+00
-0.3713323973682E-01 -0.3098764095837E+01 -0.1473871743982E+01 -0.4482249232701E+00
 0.7333534388547E-01 -0.3152089014298E+01 -0.1447014221424E+01 -0.4466176044948E+00
 0.1663761662723E+00 -0.3206841514949E+01 -0.1429018710254E+01 -0.4532195133981E+00
 0.2423144239532E+00 -0.3263093465467E+01 -0.1419766145911E+01 -0.4682910504322E+00
 0.3012492195934E+00 -0.3321059387340E+01 -0.1419310775241E+01 -0.4918559944587E+00
 0.3428933617549E+00 -0.3381137770135E+01 -0.1427974868317E+01 -0.5235392055558E+00
 0.3666480318262E+00 -0.3443959061628E+01 -0.1446336180339E+01 -0.5627601777854E+00
 0.3715596505584E+00 -0.3510186752308E+01 -0.1475154734081E+01 -0.6084174022221E+00
 0.3536362124761E+00 -0.3582115313668E+01 -0.1517385173711E+01 -0.6584287377645E+00
 0.3069740936731E+00 -0.3659186527619E+01 -0.1575539839959E+01 -0.7104643000930E+00
 0.2283704935332E+00 -0.3737667338565E+01 -0.1649369512982E+01 -0.7662707242106E+00
-0.1942459268099E+01 -0.2496425765279E+01 -0.2086275960396E+01 -0.6793385856802E+00
-0.1662208188713E+01 -0.2590099343848E+01 -0.1998584535234E+01 -0.6464998279221E+00
-0.1390452021250E+01 -0.2680127240600E+01 -0.1913172248217E+01 -0.6130584928024E+00
-0.1133681884727E+01 -0.2763805317352E+01 -0.1831818980331E+01 -0.5781559629628E+00
-0.8962654773610E+00 -0.2839913146718E+01 -0.1756003948863E+01 -0.5431626479159E+00
-0.6804983893273E+00 -0.2908675376402E+01 -0.1686911665614E+01 -0.5102050064394E+00
-0.4870556268061E+00 -0.2971381600128E+01 -0.1625465492536E+01 -0.4813755309799E+00
-0.3154848206778E+00 -0.3029927937065E+01 -0.1572343992151E+01 -0.4583444144656E+00
-0.1646740292464E+00 -0.3086372598962E+01 -0.1527991911382E+01 -0.4422300738829E+00
-0.3327857318846E-01 -0.3142523162104E+01 -0.1492626811802E+01 -0.4336346408170E+00
 0.7985859816279E-01 -0.3199630852985E+01 -0.1466292956047E+01 -0.4327841126981E+00
 0.1753486077090E+00 -0.3258306588418E+01 -0.1448990247258E+01 -0.4397485258043E+00
 0.2534708402009E+00 -0.3318838641971E+01 -0.1440722863178E+01 -0.4547941499959E+00
 0.3142642991736E+00 -0.3381599081818E+01 -0.1441647344187E+01 -0.4779499001579E+00
 0.3573622837102E+00 -0.3447151678147E+01 -0.1452201011702E+01 -0.5088654629616E+00
 0.3820679291267E+00 -0.3516253909447E+01 -0.1473067407014E+01 -0.5469130945769E+00
 0.3866095461779E+00 -0.3590106341244E+01 -0.1505643489862E+01 -0.5908106768783E+00
 0.3676704481556E+00 -0.3669509744586E+01 -0.1551864465386E+01 -0.6387422107412E+00
 0.3204514062829E+00 -0.3753527667226E+01 -0.1613545838551E+01 -0.6893719906391E+00
 0.2417703416538E+00 -0.3840702341816E+01 -0.1691498035786E+01 -0.7443756325243E+00
-0.1956498689342E+01 -0.2514427328672E+01 -0.2101335223137E+01 -0.6416593990170E+00
-0.1673406329747E+01 -0.2609486964990E+01 -0.2012959843421E+01 -0.6098292923299E+00
-0.1400336670621E+01 -0.2700826946524E+01 -0.1927546895169E+01 -0.5786182713243E+00
-0.1142585449426E+01 -0.2786279730532E+01 -0.1846566629897E+01 -0.5467829412531E+00
-0.9039111344060E+00 -0.2864795033018E+01 -0.1771291894197E+01 -0.5151880338300E+00
-0.6864018333309E+00 -0.2936535922411E+01 -0.1702780740880E+01 -0.4855366233513E+00
-0.4907541700254E+00 -0.3002620934881E+01 -0.1641886295142E+01 -0.4596315335219E+00
-0.3166530944369E+00 -0.3064758091119E+01 -0.1589263253180E+01 -0.4389817942692E+00
-0.1631612426630E+00 -0.3124854476736E+01 -0.1545367384198E+01 -0.4246477929928E+00
-0.2910476348295E-01 -0.3184647386769E+01 -0.1510463506787E+01 -0.4172495574083E+00
 0.8654235707272E-01 -0.3245421258598E+01 -0.1484673079951E+01 -0.4170829940681E+00
 0.1843408426513E+00 -0.3307926411688E+01 -0.1468085213724E+01 -0.4243057173909E+00
 0.2645239957585E+00 -0.3372632473462E+01 -0.1460810980816E+01 -0.4391910686947E+00
 0.3270518580713E+00 -0.3440075045432E+01 -0.1463120894349E+01 -0.4617725959382E+00
 0.3714763210814E+00 -0.3510957174924E+01 -0.1475555997564E+01 -0.4917078013482E+00
 0.3968259153328E+00 -0.3586226000883E+01 -0.1499018036406E+01 -0.5283086769601E+00
 0.4012177931517E+00 -0.3666858284140E+01 -0.1534851026872E+01 -0.5703341732712E+00
 0.3815718180672E+00 -0.3753239868151E+01 -0.1584683979520E+01 -0.6163072886298E+00
 0.3336901093838E+00 -0.3844716056153E+01 -0.1650182190796E+01 -0.6653360947817E+00
 0.2543595056904E+00 -0.3941107496508E+01 -0.1732771551289E+01 -0.7186496029296E+00
-0.1970195393764E+01 -0.2532213831092E+01 -0.2116132330315E+01 -0.6034360508622E+00
-0.1684045540982E+01 -0.2628679605165E+01 -0.2026980813548E+01 -0.5727888692963E+00
-0.1409399204528E+01 -0.2721298860587E+01 -0.1941428085680E+01 -0.5437152238771E+00
-0.1150501132223E+01 -0.2808388753217E+01 -0.1860678241437E+01 -0.5147161549357E+00
-0.9105347343822E+00 -0.2889089373286E+01 -0.1785823326075E+01 -0.4862542731384E+00
-0.6913584908663E+00 -0.2963541949991E+01 -0.1717803202846E+01 -0.4596677622091E+00
-0.4936543140863E+00 -0.3032733312632E+01 -0.1657402180354E+01 -0.4364932018999E+00
-0.3172075350583E+00 -0.3098209143714E+01 -0.1605245834951E+01 -0.4180799698130E+00
-0.1612287156320E+00 -0.3161742178546E+01 -0.1561796316303E+01 -0.4054200823451E+00
-0.2469454950549E-01 -0.3225003657952E+01 -0.1527358153631E+01 -0.3991346382885E+00
 0.9330145133285E-01 -0.3289304801249E+01 -0.1502121570650E+01 -0.3995680594187E+00
 0.1932651013170E+00 -0.3355514385093E+01 -0.1486257159605E+01 -0.4069421561310E+00
 0.2753745924775E+00 -0.3424264318951E+01 -0.1479978167689E+01 -0.4215345823092E+00
 0.3395077940333E+00 -0.3496237500134E+01 -0.1483662958104E+01 -0.4433801382266E+00
 0.3850937026908E+00 -0.3572273296049E+01 -0.1497974405079E+01 -0.4721373647192E+00
 0.4110116497158E+00 -0.3653342260857E+01 -0.1523895383371E+01 -0.5071147551805E+00
 0.4153213209585E+00 -0.3740283711897E+01 -0.1562732319777E+01 -0.5471879827406E+00
 0.3950870312575E+00 -0.3833398212805E+01 -0.1616006251229E+01 -0.5911367928572E+00
 0.3464205445115E+00 -0.3932433675470E+01 -0.1685426167275E+01 -0.6382449970831E+00
 0.2660800691268E+00 -0.4037846673699E+01 -0.1772730299653E+01 -0.6892619526176E+00
-0.1983435213469E+01 -0.2549587039629E+01 -0.2130520453552E+01 -0.5646651236744E+00
-0.1694103512801E+01 -0.2647457078019E+01 -0.2040533472510E+01 -0.5353695418761E+00
-0.1417693265525E+01 -0.2741320001574E+01 -0.1954736230579E+01 -0.5083693484960E+00
-0.1157526956625E+01 -0.2829928820894E+01 -0.1874104210680E+01 -0.4820105408211E+00
-0.9162496401844E+00 -0.2912619583065E+01 -0.1799568530363E+01 -0.4564418803688E+00
-0.6954806376363E+00 -0.2989542374614E+01 -0.1731960811365E+01 -0.4326917748374E+00
-0.4958593810269E+00 -0.3061584865896E+01 -0.1671998791813E+01 -0.4120561021538E+00
-0.3172423262351E+00 -0.3130156046490E+01 -0.1620277231071E+01 -0.3957296210134E+00
-0.1589633386504E+00 -0.3196909357791E+01 -0.1577260163327E+01 -0.3846288426281E+00
-0.2013151289665E-01 -0.3263454733287E+01 -0.1543285531792E+01 -0.3793621314788E+00
 0.1000514631756E+00 -0.3331123881419E+01 -0.1518604032723E+01 -0.3803042941373E+00
 0.2020322869355E+00 -0.3400888406623E+01 -0.1503462372440E+01 -0.3877215752377E+00
 0.2859290019486E+00 -0.3473522885535E+01 -0.1498169121486E+01 -0.4018917970457E+00
 0.3515291135206E+00 -0.3549843126790E+01 -0.1503207582424E+01 -0.4228490913178E+00
 0.3981579986044E+00 -0.3630777595605E+01 -0.1519331206737E+01 -0.4502644139281E+00
 0.4245886493329E+00 -0.3717299964794E+01 -0.1547574314341E+01 -0.4834805302656E+00
 0.4288423358001E+00 -0.3810195383703E+01 -0.1589235928483E+01 -0.5214991724987E+00
 0.4080483823145E+00 -0.3909824585414E+01 -0.1645834811282E+01 -0.5632765458761E+00
 0.3585002410007E+00 -0.4016246716723E+01 -0.1719140839229E+01 -0.6081480789030E+00
 0.2769122657061E+00 -0.4130201132600E+01 -0.1811045762847E+01 -0.6564391345297E+00
-0.1996116458593E+01 -0.2566372180043E+01 -0.2144369654720E+01 -0.5253525572433E+00
-0.1703556978594E+01 -0.2665624457992E+01 -0.2053515269987E+01 -0.4975688527289E+00
-0.1425263085037E+01 -0.2760689623257E+01 -0.1967397767908E+01 -0.4725995937260E+00
-0.1163748174627E+01 -0.2850710180696E+01 -0.1886795422216E+01 -0.4487145200197E+00
-0.9211585760871E+00 -0.2935216223983E+01 -0.1812496151436E+01 -0.4258234512760E+00
-0.6988728155671E+00 -0.3014388111151E+01 -0.1745232631131E+01 -0.4046955889230E+00
-0.4974684249462E+00 -0.3089041581658E+01 -0.1685659698829E+01 -0.3864122688141E+00
-0.3168491686574E+00 -0.3160471813327E+01 -0.1634340857387E+01 -0.3720212917177E+00
-0.1564508665567E+00 -0.3230227425945E+01 -0.1591738793439E+01 -0.3623595040176E+00
-0.1549824548664E-01 -0.3299861728501E+01 -0.1558219183822E+01 -0.3580114806637E+00
 0.1067088972317E+00 -0.3370722125642E+01 -0.1534086213462E+01 -0.3593669973664E+00
 0.2105562347639E+00 -0.3443869058775E+01 -0.1519657023431E+01 -0.3667201038258E+00
 0.2960977936140E+00 -0.3520202048455E+01 -0.1515328995932E+01 -0.3803448284291E+00
 0.3630356335101E+00 -0.3600647195645E+01 -0.1521677430344E+01 -0.4002767267127E+00
 0.4106063849774E+00 -0.3686200275876E+01 -0.1539529124817E+01 -0.4262104122412E+00
 0.4375001027137E+00 -0.3777846737605E+01 -0.1569962914417E+01 -0.4575403515044E+00
 0.4416968568717E+00 -0.3876377673329E+01 -0.1614299979640E+01 -0.4933818583186E+00
 0.4203459922257E+00 -0.3982252193330E+01 -0.1674095910273E+01 -0.5328134536345E+00
 0.3698363007559E+00 -0.4095740411634E+01 -0.1751174927671E+01 -0.5751746623330E+00
 0.2868241057076E+00 -0.4217649526835E+01 -0.1847487943244E+01 -0.6204406278073E+00
-0.2008148104151E+01 -0.2582414025782E+01 -0.2157564195596E+01 -0.4855121789042E+00
-0.1712382851128E+01 -0.2683008393396E+01 -0.2065833879687E+01 -0.4593905922892E+00
-0.1432145209690E+01 -0.2779226578735E+01 -0.1979344735539E+01 -0.4364254861312E+00
-0.1169239562840E+01 -0.2870557657497E+01 -0.1898704688743E+01 -0.4148724732117E+00
-0.9253543693800E+00 -0.2956718659075E+01 -0.1824574318746E+01 -0.3944658341099E+00
-0.7016320587838E+00 -0.3037934636719E+01 -0.1757596342429E+01 -0.3757612370866E+00
-0.4985753512119E+00 -0.3114971249682E+01 -0.1698366898113E+01 -0.3596512097475E+00
-0.3161164701443E+00 -0.3189029945968E+01 -0.1647418811394E+01 -0.3470460593028E+00
-0.1537747495318E+00 -0.3261567965278E+01 -0.1605211071889E+01 -0.3387012928942E+00
-0.1087548465544E-01 -0.3334086938920E+01 -0.1572132335093E+01 -0.3351690797889E+00
 0.1131928215403E+00 -0.3407946014402E+01 -0.1548533996717E+01 -0.3368412116887E+00
 0.2187546245275E+00 -0.3484282050130E+01 -0.1534797886140E+01 -0.3440257812837E+00
 0.3058004348648E+00 -0.3564101720598E+01 -0.1531401600410E+01 -0.3569901018507E+00
 0.3739540237685E+00 -0.3648424020131E+01 -0.1539000894387E+01 -0.3757737610178E+00
 0.4223749842365E+00 -0.3738302934290E+01 -0.1558486132572E+01 -0.4001016542642E+00
 0.4496819193592E+00 -0.3834750012801E+01 -0.1590981999882E+01 -0.4294251936620E+00
 0.4538098663631E+00 -0.3938591916236E+01 -0.1637847559286E+01 -0.4629574439807E+00
 0.4319007316313E+00 -0.4050384758657E+01 -0.1700687488389E+01 -0.4998674769380E+00
 0.3803740519070E+00 -0.4170536447995E+01 -0.1781376321643E+01 -0.5394910054668E+00
 0.2957910732467E+00 -0.4299805324808E+01 -0.1881886693461E+01 -0.5815394859657E+00
-0.2019448459442E+01 -0.2597574181705E+01 -0.2170000635835E+01 -0.4451645717800E+00
-0.1720558679197E+01 -0.2699454154804E+01 -0.2077406026711E+01 -0.4208443652612E+00
-0.1438369989747E+01 -0.2796767515804E+01 -0.1990514622560E+01 -0.3998680824072E+00
-0.1174066725996E+01 -0.2889310392462E+01 -0.1909787240831E+01 -0.3805264917373E+00
-0.9289207136536E+00 -0.2976976233838E+01 -0.1835771560665E+01 -0.3624319030949E+00
-0.7038477894038E+00 -0.3060043654108E+01 -0.1769028973964E+01 -0.3459672379056E+00
-0.4992683265608E+00 -0.3139245391232E+01 -0.1710101443025E+01 -0.3318608428992E+00
-0.3151283931967E+00 -0.3215706400246E+01 -0.1659492348709E+01 -0.3208960721825E+00
-0.1510151402635E+00 -0.3290804891050E+01 -0.1617655410615E+01 -0.3137473809441E+00
-0.6340908047976E-02 -0.3365995816058E+01 -0.1584998256310E+01 -0.3109280466095E+00
 0.1194259745588E+00 -0.3442646850883E+01 -0.1561913807911E+01 -0.3128211876364E+00
 0.2265506449945E+00 -0.3521959918082E+01 -0.1548842354423E+01 -0.3197377566543E+00
 0.3149629403694E+00 -0.3605033427866E+01 -0.1546333125201E+01 -0.3319358662930E+00
 0.3842158901012E+00 -0.3692966711654E+01 -0.1555112882186E+01 -0.3494605289527E+00
 0.4334006242119E+00 -0.3786868584344E+01 -0.1576129937264E+01 -0.3720692839701E+00
 0.4610713020165E+00 -0.3887786492652E+01 -0.1610556135514E+01 -0.3992700714453E+00
 0.4651153406419E+00 -0.3996593574738E+01 -0.1659794765815E+01 -0.4303606197261E+00
 0.4426514000250E+00 -0.4113927913065E+01 -0.1725499956752E+01 -0.4645834674566E+00
 0.3900894383752E+00 -0.4240286444229E+01 -0.1809592588162E+01 -0.5012785782676E+00
 0.3038264359414E+00 -0.4376358211955E+01 -0.1914089929872E+01 -0.5399859220541E+00
-0.2029944396977E+01 -0.2611729317042E+01 -0.2181586640056E+01 -0.4043361708485E+00
-0.1728063127842E+01 -0.2714823680188E+01 -0.2088156794478E+01 -0.3819450785195E+00
-0.1443962787308E+01 -0.2813165538366E+01 -0.2000850307992E+01 -0.3629504788320E+00
-0.1178287277846E+01 -0.2906821654682E+01 -0.1920001193419E+01 -0.3457175853182E+00
-0.9319328379380E+00 -0.2995849106685E+01 -0.1846057509290E+01 -0.3297819132313E+00
-0.7056019035299E+00 -0.3080584583446E+01 -0.1779507644365E+01 -0.3153897217942E+00
-0.4996293641518E+00 -0.3161741033791E+01 -0.1720844082668E+01 -0.3031282507833E+00
-0.3139641634969E+00 -0.3240381520573E+01 -0.1670542467276E+01 -0.2936649201647E+00
-0.1482480227705E+00 -0.3317816416447E+01 -0.1629050282300E+01 -0.2875948915759E+00
-0.1968201761601E-02 -0.3395458935350E+01 -0.1596790750393E+01 -0.2853878830258E+00
 0.1253357473331E+00 -0.3474682648691E+01 -0.1574193039645E+01 -0.2874096812501E+00
 0.2338730637658E+00 -0.3556744626701E+01 -0.1561749630619E+01 -0.2939649649265E+00
 0.3235170902036E+00 -0.3642822165591E+01 -0.1560073381475E+01 -0.3053000803421E+00
 0.3937572544469E+00 -0.3734085636208E+01 -0.1569954335446E+01 -0.3214653066119E+00
 0.4436230917041E+00 -0.3831696478220E+01 -0.1592394487624E+01 -0.3422504372737E+00
 0.4716095459478E+00 -0.3936742452338E+01 -0.1628612461873E+01 -0.3672175209401E+00
 0.4755557038285E+00 -0.4050143864232E+01 -0.1680056431128E+01 -0.3957397189420E+00
 0.4525473593546E+00 -0.4172603984275E+01 -0.1748426609278E+01 -0.4271249042640E+00
 0.3989622589764E+00 -0.4304675912576E+01 -0.1835685412536E+01 -0.4607261474236E+00
 0.3109618470762E+00 -0.4447009992347E+01 -0.1943942623346E+01 -0.4959737564062E+00
-0.2039570652031E+01 -0.2624769768242E+01 -0.2192239991968E+01 -0.3630585154410E+00
-0.1734876259790E+01 -0.2728994095691E+01 -0.2098019061755E+01 -0.3427124281892E+00
-0.1448944831975E+01 -0.2828289117396E+01 -0.2010299951106E+01 -0.3256980642652E+00
-0.1181951687530E+01 -0.2922958550492E+01 -0.1929307806977E+01 -0.3104865304960E+00
-0.9344579884277E+00 -0.3013208788548E+01 -0.1855403380473E+01 -0.2965745450390E+00
-0.7069687815264E+00 -0.3099435699587E+01 -0.1789010101586E+01 -0.2841033474165E+00
-0.4997339392328E+00 -0.3182342195174E+01 -0.1730575778782E+01 -0.2735403011698E+00
-0.3126974166583E+00 -0.3262941681111E+01 -0.1680550371689E+01 -0.2654479108051E+00
-0.1455444173489E+00 -0.3342486753810E+01 -0.1639374646287E+01 -0.2603448356502E+00
 0.2173789715730E-02 -0.3422353688955E+01 -0.1607484548566E+01 -0.2586540692334E+00
 0.1308547757002E+00 -0.3503919921470E+01 -0.1585340614491E+01 -0.2607171324365E+00
 0.2406563287760E+00 -0.3588489203204E+01 -0.1573481446990E+01 -0.2668248540436E+00
 0.3314001786984E+00 -0.3677306980390E+01 -0.1572576192806E+01 -0.2772089768176E+00
 0.4025188795751E+00 -0.3771607019459E+01 -0.1583471421729E+01 -0.2919236499096E+00
 0.4529863967483E+00 -0.3872600635070E+01 -0.1607218687935E+01 -0.3107890978092E+00
 0.4812432107491E+00 -0.3981416159899E+01 -0.1645081281928E+01 -0.3334187625698E+00
 0.4850806058404E+00 -0.4099017233773E+01 -0.1698550210820E+01 -0.3592553161593E+00
 0.4615454768371E+00 -0.4226157214317E+01 -0.1769367512128E+01 -0.3876685607959E+00
 0.4069605981561E+00 -0.4363427248343E+01 -0.1859539320871E+01 -0.4180322112606E+00
 0.3172523488594E+00 -0.4511430183093E+01 -0.1971263577090E+01 -0.4497154555997E+00
-0.2048269372303E+01 -0.2636598579413E+01 -0.2201887931722E+01 -0.3213675986131E+00
-0.1740979769024E+01 -0.2741856664591E+01 -0.2106933118455E+01 -0.3031703820403E+00
-0.1453333915379E+01 -0.2842021304497E+01 -0.2018816948221E+01 -0.2881385819146E+00
-0.1185103979166E+01 -0.2937601817631E+01 -0.1937671719580E+01 -0.2748744258140E+00
-0.9365558441527E+00 -0.3028938592464E+01 -0.1863782380483E+01 -0.2628676608363E+00
-0.7080153280885E+00 -0.3116485112654E+01 -0.1797515202590E+01 -0.2521819868878E+00
-0.4996506942823E+00 -0.3200941201920E+01 -0.1739278186804E+01 -0.2431840942854E+00
-0.3113956706710E+00 -0.3283280780267E+01 -0.1689497927656E+01 -0.2363422100876E+00
-0.1429697261869E+00 -0.3364707675637E+01 -0.1648608374676E+01 -0.2321019299549E+00
 0.6021697815941E-02 -0.3446565871176E+01 -0.1617055757378E+01 -0.2308375424718E+00
 0.1359213616547E+00 -0.3530235199379E+01 -0.1595327499684E+01 -0.2328607818694E+00
 0.2468406927626E+00 -0.3617058882332E+01 -0.1584002545080E+01 -0.2384422520844E+00
 0.3385550807617E+00 -0.3708341256736E+01 -0.1583799498691E+01 -0.2477960288980E+00
 0.4104466464909E+00 -0.3805372516953E+01 -0.1595615155070E+01 -0.2609779632391E+00
 0.4614395040811E+00 -0.3909410119780E+01 -0.1620546185268E+01 -0.2778363211274E+00
 0.4899243662283E+00 -0.4021620646289E+01 -0.1659897247418E+01 -0.2980335748463E+00
 0.4936462388563E+00 -0.4143005450782E+01 -0.1715198825255E+01 -0.3210783519556E+00
 0.4696076364476E+00 -0.4274356200475E+01 -0.1788231820557E+01 -0.3464017427353E+00
 0.4140645159681E+00 -0.4416283385009E+01 -0.1881042863678E+01 -0.3734086181062E+00
 0.3227399642302E+00 -0.4569323773749E+01 -0.1995894385412E+01 -0.4014499800868E+00
-0.2055989766274E+01 -0.2647130781377E+01 -0.2210466651789E+01 -0.2793032889820E+00
-0.1746357146711E+01 -0.2753316012899E+01 -0.2114846379653E+01 -0.2633466806672E+00
-0.1457144917538E+01 -0.2854259134013E+01 -0.2026359899089E+01 -0.2503020744148E+00
-0.1187782275845E+01 -0.2950645659440E+01 -0.1945061124651E+01 -0.2389230456679E+00
-0.9382788431823E+00 -0.3042933987287E+01 -0.1871170025575E+01 -0.2287188496398E+00
-0.7088009980486E+00 -0.3131631573419E+01 -0.1805003304012E+01 -0.2196992355967E+00
-0.4994411904077E+00 -0.3217439806053E+01 -0.1746934063906E+01 -0.2121472809739E+00
-0.3101198826586E+00 -0.3301301529087E+01 -0.1697368059215E+01 -0.2064468906584E+00
-0.1405831998333E+00 -0.3384379872332E+01 -0.1656732639716E+01 -0.2029743468817E+00
 0.9518130046455E-02 -0.3467991019237E+01 -0.1625482253797E+01 -0.2020541393524E+00
 0.1404798132083E+00 -0.3553516213926E+01 -0.1604127104269E+01 -0.2039638368470E+00
 0.2523723929443E+00 -0.3642331906313E+01 -0.1593280967242E+01 -0.2089484185225E+00
 0.3449304226062E+00 -0.3735793011582E+01 -0.1593705412776E+01 -0.2172011543542E+00
 0.4174918768776E+00 -0.3835239357729E+01 -0.1606341311926E+01 -0.2287770726801E+00
 0.4689366858236E+00 -0.3941969945607E+01 -0.1632325627958E+01 -0.2435500183766E+00
 0.4976106617831E+00 -0.4057185795413E+01 -0.1673000308563E+01 -0.2612296430731E+00
 0.5012146256838E+00 -0.4181920052646E+01 -0.1729931546285E+01 -0.2813886491633E+00
 0.4767042804232E+00 -0.4316991899435E+01 -0.1804935176358E+01 -0.3035212964052E+00
 0.4202665491973E+00 -0.4463014487394E+01 -0.1900091526133E+01 -0.3270768457308E+00
 0.3274546578638E+00 -0.4620449357563E+01 -0.2017707503741E+01 -0.3514247019863E+00
-0.2062687836149E+01 -0.2656292858005E+01 -0.2217920920627E+01 -0.2369088023020E+00
-0.1750993795802E+01 -0.2763289556654E+01 -0.2121713170273E+01 -0.2232723557588E+00
-0.1460390208261E+01 -0.2864913178435E+01 -0.2032892586591E+01 -0.2122207452758E+00
-0.1190019222180E+01 -0.2961997625425E+01 -0.1951447913425E+01 -0.2026750382651E+00
-0.9396724376898E+00 -0.3055102890750E+01 -0.1877544399605E+01 -0.1941857978827E+00
-0.7093778116764E+00 -0.3144785144532E+01 -0.1811456584823E+01 -0.1867287681085E+00
-0.4991596993236E+00 -0.3231750131758E+01 -0.1753527616161E+01 -0.1805182614532E+00
-0.3089240839958E+00 -0.3316916557468E+01 -0.1704145097166E+01 -0.1758628931106E+00
-0.1384375044719E+00 -0.3401414114979E+01 -0.1663730256922E+01 -0.1730734070879E+00
 0.1261207327171E-01 -0.3486535530844E+01 -0.1632744020918E+01 -0.1724240249222E+00
 0.1444807402796E+00 -0.3573662841140E+01 -0.1611715583317E+01 -0.1741546958411E+00
 0.2572038523544E+00 -0.3664200175912E+01 -0.1601288268011E+01 -0.1784802168512E+00
 0.3504807782286E+00 -0.3759545291487E+01 -0.1602260317168E+01 -0.1855700094986E+00
 0.4236115692463E+00 -0.3861080821460E+01 -0.1615610544443E+01 -0.1954757085865E+00
 0.4754377274919E+00 -0.3970142074555E+01 -0.1642511038954E+01 -0.2080944573230E+00
 0.5042652746781E+00 -0.4087959943846E+01 -0.1684336490237E+01 -0.2231817447554E+00
 0.5077540598937E+00 -0.4215593332366E+01 -0.1742684453642E+01 -0.2403738021644E+00
 0.4828140946240E+00 -0.4353879455251E+01 -0.1819400714880E+01 -0.2592317955372E+00
 0.4255665552049E+00 -0.4503422882822E+01 -0.1916592469119E+01 -0.2792631913756E+00
 0.3314235409117E+00 -0.4664610293550E+01 -0.2036597768574E+01 -0.2998861269835E+00
-0.2068326158394E+01 -0.2664022337320E+01 -0.2224203787344E+01 -0.1942302073521E+00
-0.1754877102722E+01 -0.2771707075722E+01 -0.2127494558472E+01 -0.1829812614868E+00
-0.1463079942343E+01 -0.2873907215306E+01 -0.2038383958925E+01 -0.1739287572467E+00
-0.1191842302870E+01 -0.2971578527405E+01 -0.1956807785266E+01 -0.1661740000203E+00
-0.9407752839059E+00 -0.3065365912953E+01 -0.1882886357748E+01 -0.1593265151110E+00
-0.7097903548120E+00 -0.3155867756586E+01 -0.1816859307749E+01 -0.1533445591512E+00
-0.4988530245778E+00 -0.3243795468497E+01 -0.1759044787284E+01 -0.1483862743992E+00
-0.3078550763356E+00 -0.3330049347342E+01 -0.1709815074792E+01 -0.1446929062908E+00
-0.1365783647709E+00 -0.3415732231557E+01 -0.1669585976039E+01 -0.1425132224751E+00
 0.1525923157300E-01 -0.3502117586137E+01 -0.1638823422488E+01 -0.1420711128806E+00
 0.1478813215534E+00 -0.3590587874456E+01 -0.1618072075760E+01 -0.1435662114138E+00
 0.2612938862634E+00 -0.3682569830365E+01 -0.1607999689649E+01 -0.1471793430367E+00
 0.3551668599303E+00 -0.3779496650180E+01 -0.1609434997335E+01 -0.1530532865244E+00
 0.4287685875385E+00 -0.3882786843691E+01 -0.1623388576274E+01 -0.1612338785185E+00
 0.4809080529823E+00 -0.3993806369060E+01 -0.1651062204369E+01 -0.1716395879227E+00
 0.5098570219266E+00 -0.4113811014582E+01 -0.1693858372252E+01 -0.1840708758339E+00
 0.5132389435749E+00 -0.4243879636485E+01 -0.1753401121221E+01 -0.1982279276091E+00
 0.4879221059750E+00 -0.4384860126566E+01 -0.1831560865032E+01 -0.2137434106642E+00
 0.4299685334693E+00 -0.4537342773012E+01 -0.1930465887689E+01 -0.2301958106378E+00
 0.3346741072344E+00 -0.4701646006246E+01 -0.2052476787329E+01 -0.2470765653386E+00
-0.2072873745262E+01 -0.2670267514474E+01 -0.2229276386422E+01 -0.1513159560779E+00
-0.1757996499348E+01 -0.2778510416023E+01 -0.2132158244816E+01 -0.1425096181851E+00
-0.1465222296329E+01 -0.2881177999653E+01 -0.2042808133930E+01 -0.1354619859468E+00
-0.1193274100055E+01 -0.2979322400946E+01 -0.1961120350496E+01 -0.1294644568706E+00
-0.9416194004846E+00 -0.3073656574312E+01 -0.1887179703368E+01 -0.1241994465479E+00
-0.7100757874650E+00 -0.3164813678232E+01 -0.1821198044258E+01 -0.1196209966530E+00
-0.4985603677382E+00 -0.3253510937189E+01 -0.1763473508843E+01 -0.1158413977758E+00
-0.3069521977686E+00 -0.3340635014786E+01 -0.1714365985552E+01 -0.1130411850941E+00
-0.1350442861941E+00 -0.3427267919671E+01 -0.1674286732510E+01 -0.1114103061241E+00
 0.1742229381733E-01 -0.3514667909656E+01 -0.1643705435275E+01 -0.1111224859315E+00
 0.1506455253856E+00 -0.3604217673452E+01 -0.1623178905474E+01 -0.1123349811901E+00
 0.2646078805010E+00 -0.3697361778452E+01 -0.1613394327945E+01 -0.1151915796188E+00
 0.3589556768673E+00 -0.3795561649398E+01 -0.1615204802993E+01 -0.1198059916886E+00
 0.4329317976566E+00 -0.3900264636042E+01 -0.1629646429908E+01 -0.1262161587222E+00
 0.4853188269819E+00 -0.4012861411756E+01 -0.1657945010639E+01 -0.1343602707130E+00
 0.5143603328645E+00 -0.4134627521121E+01 -0.1701525574165E+01 -0.1440832916230E+00
 0.5176491726816E+00 -0.4266656551252E+01 -0.1762033463459E+01 -0.1551503354625E+00
 0.4920179953924E+00 -0.4409801992103E+01 -0.1841358473784E+01 -0.1672701672347E+00
 0.4334786450072E+00 -0.4564638486925E+01 -0.1941645120776E+01 -0.1801032547585E+00
 0.3372337658522E+00 -0.4731426705958E+01 -0.2065270676611E+01 -0.1932340412219E+00
-0.2076305925268E+01 -0.2674987236353E+01 -0.2233107780298E+01 -0.1082164321030E+00
-0.1760343498254E+01 -0.2783653269481E+01 -0.2135678475419E+01 -0.1018955690372E+00
-0.1466823635659E+01 -0.2886675094881E+01 -0.2046144398164E+01 -0.9685774450278E-01
-0.1194332479905E+01 -0.2985176479928E+01 -0.1964369206139E+01 -0.9259177902357E-01
-0.9422302811018E+00 -0.3079921478682E+01 -0.1890411322304E+01 -0.8886350207111E-01
-0.7102638416393E+00 -0.3171569888659E+01 -0.1824461848613E+01 -0.8563291415856E-01
-0.4983132160163E+00 -0.3260844020074E+01 -0.1766803896481E+01 -0.8297448499445E-01
-0.3062471325322E+00 -0.3348620932628E+01 -0.1717787986268E+01 -0.8101332607267E-01
-0.1338663293709E+00 -0.3435967391485E+01 -0.1677821844547E+01 -0.7988316549963E-01
 0.1907115464902E-01 -0.3524130374551E+01 -0.1647377829176E+01 -0.7970782447916E-01
 0.1527442990285E+00 -0.3614492688692E+01 -0.1627021739015E+01 -0.8060066301327E-01
 0.2671179491087E+00 -0.3708512154938E+01 -0.1617455272637E+01 -0.8266606602337E-01
 0.3618206713329E+00 -0.3807671317219E+01 -0.1619549799459E+01 -0.8598670851763E-01
 0.4360761805171E+00 -0.3913439236178E+01 -0.1634360632016E+01 -0.9059093860792E-01
 0.4886470084380E+00 -0.4027225201221E+01 -0.1663131746390E+01 -0.9643544715536E-01
 0.5177550881770E+00 -0.4150319398892E+01 -0.1707305221705E+01 -0.1034095093568E+00
 0.5209694855542E+00 -0.4283825650869E+01 -0.1768542393212E+01 -0.1113443066128E+00
 0.4950948361237E+00 -0.4428599940187E+01 -0.1848747394221E+01 -0.1200287141098E+00
 0.4361036804857E+00 -0.4585202909009E+01 -0.1950076632460E+01 -0.1292138933451E+00
 0.3391279747467E+00 -0.4753850399194E+01 -0.2074919534227E+01 -0.1385923337856E+00
-0.2078604260497E+01 -0.2678150752812E+01 -0.2235674850585E+01 -0.6498351097720E-01
-0.1761911716799E+01 -0.2787101020836E+01 -0.2138035981265E+01 -0.6117874438213E-01
-0.1467888637655E+01 -0.2890360758304E+01 -0.2048377210906E+01 -0.5815448452924E-01
-0.1195030731139E+01 -0.2989101188221E+01 -0.1966541997111E+01 -0.5560204226297E-01
-0.9426269786356E+00 -0.3084120454526E+01 -0.1892571288786E+01 -0.5337801692361E-01
-0.7103768193900E+00 -0.3176096371044E+01 -0.1826642394871E+01 -0.5145555569147E-01
-0.4981352568894E+00 -0.3265754975635E+01 -0.1769028404800E+01 -0.4987704514325E-01
-0.3057637659473E+00 -0.3353967216978E+01 -0.1720073557612E+01 -0.4871600452537E-01
-0.1330679367321E+00 -0.3441789877425E+01 -0.1680183168392E+01 -0.4805187630984E-01
 0.2018308686593E-01 -0.3530462477560E+01 -0.1649831309442E+01 -0.4795883259900E-01
 0.1541557199373E+00 -0.3621367884970E+01 -0.1629589713432E+01 -0.4850529456367E-01
 0.2688030627268E+00 -0.3715972706900E+01 -0.1620169728652E+01 -0.4975456333321E-01
 0.3637418289998E+00 -0.3815773548538E+01 -0.1622454904068E+01 -0.5175683286935E-01
 0.4381829143719E+00 -0.3922253981982E+01 -0.1637513397623E+01 -0.5452961581462E-01
 0.4908753530540E+00 -0.4036835730953E+01 -0.1666601373386E+01 -0.5804725675813E-01
 0.5200264168205E+00 -0.4160818630162E+01 -0.1711172335930E+01 -0.6224330594404E-01
 0.5231889143374E+00 -0.4295312907847E+01 -0.1772898272453E+01 -0.6701601854998E-01
 0.4971481937179E+00 -0.4441175421866E+01 -0.1853692792528E+01 -0.7223744780061E-01
 0.4378497589573E+00 -0.4598956476757E+01 -0.1955720152405E+01 -0.7775573991876E-01
 0.3403779396972E+00 -0.4768841288483E+01 -0.2081377768650E+01 -0.8338206072000E-01
-0.2079756488974E+01 -0.2679737615413E+01 -0.2236962223388E+01 -0.2167012872837E-01
-0.1762696892550E+01 -0.2788830645099E+01 -0.2139217937269E+01 -0.2039983243567E-01
-0.1468420376417E+01 -0.2892209865573E+01 -0.2049496208537E+01 -0.1939148118920E-01
-0.1195377662021E+01 -0.2991070139335E+01 -0.1967630461647E+01 -0.1854185156080E-01
-0.9428221640809E+00 -0.3086226661348E+01 -0.1893652943148E+01 -0.1780266339399E-01
-0.7104295904651E+00 -0.3178366328896E+01 -0.1827734077464E+01 -0.1716449179885E-01
-0.4980423158522E+00 -0.3268217143207E+01 -0.1770141941268E+01 -0.1664108309550E-01
-0.3055180788678E+00 -0.3356647083965E+01 -0.1721217622166E+01 -0.1625668469940E-01
-0.1326648057100E+00 -0.3444707995801E+01 -0.1681365212445E+01 -0.1603764356353E-01
 0.2074286889211E-01 -0.3533635690013E+01 -0.1651059621739E+01 -0.1600866229995E-01
 0.1548651096063E+00 -0.3624813060368E+01 -0.1630875532721E+01 -0.1619261467604E-01
 0.2696491465938E+00 -0.3719711093990E+01 -0.1621529111164E+01 -0.1661071261636E-01
 0.3647057616571E+00 -0.3819833422490E+01 -0.1623909996472E+01 -0.1727978634582E-01
 0.4392394274902E+00 -0.3926670884567E+01 -0.1639092780669E+01 -0.1820575781362E-01
 0.4919923890098E+00 -0.4041651425098E+01 -0.1668339742730E+01 -0.1938012953046E-01
 0.5211645151382E+00 -0.4166079662937E+01 -0.1713110115120E+01 -0.2078074697937E-01
 0.5243003682474E+00 -0.4301068900266E+01 -0.1775081205546E+01 -0.2237361603137E-01
 0.4981754771419E+00 -0.4447476197783E+01 -0.1856171333993E+01 -0.2411587366316E-01
 0.4387214875641E+00 -0.4605846462553E+01 -0.1958548733277E+01 -0.2595647292151E-01
 0.3409988671738E+00 -0.4776349155945E+01 -0.2084614630435E+01 -0.2783167603802E-01
-0.2079756488758E+01 -0.2679737615133E+01 -0.2236962223155E+01  0.2167014427075E-01
-0.1762696892403E+01 -0.2788830644828E+01 -0.2139217937073E+01  0.2039984552780E-01
-0.1468420376314E+01 -0.2892209865319E+01 -0.2049496208370E+01  0.1939149218490E-01
-0.1195377661950E+01 -0.2991070139101E+01 -0.1967630461503E+01  0.1854186071594E-01
-0.9428221640345E+00 -0.3086226661134E+01 -0.1893652943026E+01  0.1780267091660E-01
-0.7104295904393E+00 -0.3178366328702E+01 -0.1827734077361E+01  0.1716449787465E-01
-0.4980423158433E+00 -0.3268217143034E+01 -0.1770141941183E+01  0.1664108789934E-01
-0.3055180788719E+00 -0.3356647083815E+01 -0.1721217622097E+01  0.1625668839878E-01
-0.1326648057222E+00 -0.3444707995673E+01 -0.1681365212391E+01  0.1603764631942E-01
 0.2074286887565E-01 -0.3533635689909E+01 -0.1651059621698E+01  0.1600866426770E-01
 0.1548651095894E+00 -0.3624813060285E+01 -0.1630875532690E+01  0.1619261600193E-01
 0.2696491465795E+00 -0.3719711093926E+01 -0.1621529111140E+01  0.1661071343476E-01
 0.3647057616468E+00 -0.3819833422441E+01 -0.1623909996454E+01  0.1727978677399E-01
 0.4392394274833E+00 -0.3926670884530E+01 -0.1639092780655E+01  0.1820575795093E-01
 0.4919923890059E+00 -0.4041651425071E+01 -0.1668339742719E+01  0.1938012945597E-01
 0.5211645151381E+00 -0.4166079662917E+01 -0.1713110115111E+01  0.2078074675707E-01
 0.5243003682493E+00 -0.4301068900252E+01 -0.1775081205539E+01  0.2237361570929E-01
 0.4981754771416E+00 -0.4447476197775E+01 -0.1856171333990E+01  0.2411587328310E-01
 0.4387214875563E+00 -0.4605846462549E+01 -0.1958548733279E+01  0.2595647252804E-01
 0.3409988671516E+00 -0.4776349155942E+01 -0.2084614630444E+01  0.2783167569589E-01
-0.2078604259852E+01 -0.2678150751973E+01 -0.2235674849888E+01  0.6498352650031E-01
-0.1761911716358E+01 -0.2787101020027E+01 -0.2138035980678E+01  0.6117875746036E-01
-0.1467888637347E+01 -0.2890360757545E+01 -0.2048377210404E+01  0.5815449551277E-01
-0.1195030730925E+01 -0.2989101187520E+01 -0.1966541996681E+01  0.5560205140573E-01
-0.9426269784959E+00 -0.3084120453885E+01 -0.1892571288419E+01  0.5337802443303E-01
-0.7103768193117E+00 -0.3176096370464E+01 -0.1826642394561E+01  0.5145556175365E-01
-0.4981352568618E+00 -0.3265754975119E+01 -0.1769028404544E+01  0.4987704993373E-01
-0.3057637659587E+00 -0.3353967216529E+01 -0.1720073557406E+01  0.4871600821241E-01
-0.1330679367691E+00 -0.3441789877044E+01 -0.1680183168231E+01  0.4805187905498E-01
 0.2018308681680E-01 -0.3530462477248E+01 -0.1649831309318E+01  0.4795883455781E-01
 0.1541557198871E+00 -0.3621367884722E+01 -0.1629589713339E+01  0.4850529588240E-01
 0.2688030626837E+00 -0.3715972706708E+01 -0.1620169728582E+01  0.4975456414605E-01
 0.3637418289680E+00 -0.3815773548392E+01 -0.1622454904014E+01  0.5175683329327E-01
 0.4381829143515E+00 -0.3922253981872E+01 -0.1637513397582E+01  0.5452961594894E-01
 0.4908753530445E+00 -0.4036835730872E+01 -0.1666601373352E+01  0.5804725668167E-01
 0.5200264168199E+00 -0.4160818630102E+01 -0.1711172335902E+01  0.6224330572069E-01
 0.5231889143412E+00 -0.4295312907805E+01 -0.1772898272431E+01  0.6701601822780E-01
 0.4971481937171E+00 -0.4441175421840E+01 -0.1853692792516E+01  0.7223744742097E-01
 0.4378497589364E+00 -0.4598956476743E+01 -0.1955720152409E+01  0.7775573952505E-01
 0.3403779396315E+00 -0.4768841288474E+01 -0.2081377768677E+01  0.8338206037561E-01
-0.2076305924197E+01 -0.2674987234962E+01 -0.2233107779141E+01  0.1082164475878E+00
-0.1760343497521E+01 -0.2783653268139E+01 -0.2135678474443E+01  0.1018955820877E+00
-0.1466823635146E+01 -0.2886675093622E+01 -0.2046144397331E+01  0.9685775546208E-01
-0.1194332479547E+01 -0.2985176478765E+01 -0.1964369205424E+01  0.9259178814164E-01
-0.9422302808671E+00 -0.3079921477618E+01 -0.1890411321693E+01  0.8886350955421E-01
-0.7102638415067E+00 -0.3171569887697E+01 -0.1824461848098E+01  0.8563292019347E-01
-0.4983132159684E+00 -0.3260844019217E+01 -0.1766803896056E+01  0.8297448975821E-01
-0.3062471325495E+00 -0.3348620931881E+01 -0.1717787985925E+01  0.8101332973508E-01
-0.1338663294312E+00 -0.3435967390853E+01 -0.1677821844278E+01  0.7988316822340E-01
 0.1907115456754E-01 -0.3524130374032E+01 -0.1647377828970E+01  0.7970782642021E-01
 0.1527442989449E+00 -0.3614492688280E+01 -0.1627021738861E+01  0.8060066431775E-01
 0.2671179490371E+00 -0.3708512154619E+01 -0.1617455272521E+01  0.8266606682515E-01
 0.3618206712800E+00 -0.3807671316977E+01 -0.1619549799370E+01  0.8598670893311E-01
 0.4360761804841E+00 -0.3913439235996E+01 -0.1634360631945E+01  0.9059093873609E-01
 0.4886470084234E+00 -0.4027225201085E+01 -0.1663131746333E+01  0.9643544707499E-01
 0.5177550881763E+00 -0.4150319398792E+01 -0.1707305221659E+01  0.1034095091315E+00
 0.5209694855600E+00 -0.4283825650799E+01 -0.1768542393176E+01  0.1113443062904E+00
 0.4950948361228E+00 -0.4428599940143E+01 -0.1848747394200E+01  0.1200287137306E+00
 0.4361036804531E+00 -0.4585202908985E+01 -0.1950076632464E+01  0.1292138929508E+00
 0.3391279746392E+00 -0.4753850399177E+01 -0.2074919534270E+01  0.1385923334370E+00
-0.2072873743771E+01 -0.2670267512539E+01 -0.2229276384811E+01  0.1513159715054E+00
-0.1757996498323E+01 -0.2778510414158E+01 -0.2132158243458E+01  0.1425096311945E+00
-0.1465222295609E+01 -0.2881177997903E+01 -0.2042808132769E+01  0.1354619968699E+00
-0.1193274099551E+01 -0.2979322399328E+01 -0.1961120349499E+01  0.1294644659517E+00
-0.9416194001516E+00 -0.3073656572832E+01 -0.1887179702516E+01  0.1241994539916E+00
-0.7100757872749E+00 -0.3164813676892E+01 -0.1821198043539E+01  0.1196210026471E+00
-0.4985603676671E+00 -0.3253510935996E+01 -0.1763473508249E+01  0.1158414024996E+00
-0.3069521977894E+00 -0.3340635013746E+01 -0.1714365985073E+01  0.1130411887196E+00
-0.1350442862759E+00 -0.3427267918790E+01 -0.1674286732134E+01  0.1114103088158E+00
 0.1742229370562E-01 -0.3514667908933E+01 -0.1643705434988E+01  0.1111224878459E+00
 0.1506455252708E+00 -0.3604217672877E+01 -0.1623178905258E+01  0.1123349824733E+00
 0.2646078804018E+00 -0.3697361778007E+01 -0.1613394327782E+01  0.1151915804040E+00
 0.3589556767932E+00 -0.3795561649061E+01 -0.1615204802869E+01  0.1198059920914E+00
 0.4329317976108E+00 -0.3900264635788E+01 -0.1629646429810E+01  0.1262161588411E+00
 0.4853188269618E+00 -0.4012861411565E+01 -0.1657945010558E+01  0.1343602706266E+00
 0.5143603328641E+00 -0.4134627520980E+01 -0.1701525574099E+01  0.1440832913947E+00
 0.5176491726904E+00 -0.4266656551152E+01 -0.1762033463408E+01  0.1551503351396E+00
 0.4920179953927E+00 -0.4409801992039E+01 -0.1841358473753E+01  0.1672701668565E+00
 0.4334786449647E+00 -0.4564638486887E+01 -0.1941645120779E+01  0.1801032543635E+00
 0.3372337657065E+00 -0.4731426705932E+01 -0.2065270676668E+01  0.1932340408667E+00
-0.2068326156491E+01 -0.2664022334854E+01 -0.2224203785291E+01  0.1942302227042E+00
-0.1754877101409E+01 -0.2771707073346E+01 -0.2127494556739E+01  0.1829812744419E+00
-0.1463079941416E+01 -0.2873907213077E+01 -0.2038383957442E+01  0.1739287681221E+00
-0.1191842302217E+01 -0.2971578525345E+01 -0.1956807783991E+01  0.1661740090524E+00
-0.9407752834706E+00 -0.3065365911067E+01 -0.1882886356657E+01  0.1593265225022E+00
-0.7097903545602E+00 -0.3155867754878E+01 -0.1816859306828E+01  0.1533445650909E+00
-0.4988530244795E+00 -0.3243795466974E+01 -0.1759044786522E+01  0.1483862790698E+00
-0.3078550763564E+00 -0.3330049346014E+01 -0.1709815074177E+01  0.1446929098673E+00
-0.1365783648713E+00 -0.3415732230432E+01 -0.1669585975558E+01  0.1425132251241E+00
 0.1525923143273E-01 -0.3502117585213E+01 -0.1638823422120E+01  0.1420711147595E+00
 0.1478813214080E+00 -0.3590587873722E+01 -0.1618072075484E+01  0.1435662126686E+00
 0.2612938861375E+00 -0.3682569829797E+01 -0.1607999689442E+01  0.1471793437997E+00
 0.3551668598368E+00 -0.3779496649748E+01 -0.1609434997176E+01  0.1530532869100E+00
 0.4287685874801E+00 -0.3882786843364E+01 -0.1623388576148E+01  0.1612338786248E+00
 0.4809080529563E+00 -0.3993806368814E+01 -0.1651062204265E+01  0.1716395878280E+00
 0.5098570219255E+00 -0.4113811014398E+01 -0.1693858372166E+01  0.1840708756013E+00
 0.5132389435864E+00 -0.4243879636354E+01 -0.1753401121153E+01  0.1982279272854E+00
 0.4879221059764E+00 -0.4384860126480E+01 -0.1831560864991E+01  0.2137434102869E+00
 0.4299685334183E+00 -0.4537342772960E+01 -0.1930465887688E+01  0.2301958102421E+00
 0.3346741070561E+00 -0.4701646006207E+01 -0.2052476787395E+01  0.2470765649752E+00
-0.2062687833843E+01 -0.2656292855025E+01 -0.2217920918143E+01  0.2369088175609E+00
-0.1750993794205E+01 -0.2763289553784E+01 -0.2121713168173E+01  0.2232723686469E+00
-0.1460390207125E+01 -0.2864913175743E+01 -0.2032892584792E+01  0.2122207560921E+00
-0.1190019221373E+01 -0.2961997622936E+01 -0.1951447911876E+01  0.2026750472362E+00
-0.9396724371466E+00 -0.3055102888471E+01 -0.1877544398278E+01  0.1941858052085E+00
-0.7093778113572E+00 -0.3144785142466E+01 -0.1811456583702E+01  0.1867287739803E+00
-0.4991596991929E+00 -0.3231750129914E+01 -0.1753527615233E+01  0.1805182660573E+00
-0.3089240840124E+00 -0.3316916555860E+01 -0.1704145096418E+01  0.1758628966260E+00
-0.1384375045876E+00 -0.3401414113616E+01 -0.1663730256336E+01  0.1730734096838E+00
 0.1261207310571E-01 -0.3486535529725E+01 -0.1632744020470E+01  0.1724240267570E+00
 0.1444807401057E+00 -0.3573662840250E+01 -0.1611715582980E+01  0.1741546970608E+00
 0.2572038522034E+00 -0.3664200175224E+01 -0.1601288267758E+01  0.1784802175866E+00
 0.3504807781164E+00 -0.3759545290962E+01 -0.1602260316974E+01  0.1855700098629E+00
 0.4236115691759E+00 -0.3861080821062E+01 -0.1615610544289E+01  0.1954757086768E+00
 0.4754377274605E+00 -0.3970142074253E+01 -0.1642511038827E+01  0.2080944572177E+00
 0.5042652746770E+00 -0.4087959943619E+01 -0.1684336490131E+01  0.2231817445171E+00
 0.5077540599077E+00 -0.4215593332201E+01 -0.1742684453558E+01  0.2403738018395E+00
 0.4828140946277E+00 -0.4353879455139E+01 -0.1819400714826E+01  0.2592317951611E+00
 0.4255665551491E+00 -0.4503422882751E+01 -0.1916592469112E+01  0.2792631909791E+00
 0.3314235407064E+00 -0.4664610293495E+01 -0.2036597768645E+01  0.2998861266105E+00
-0.2055989763579E+01 -0.2647130777904E+01 -0.2210466648890E+01  0.2793033041309E+00
-0.1746357144834E+01 -0.2753316009555E+01 -0.2114846377199E+01  0.2633466934766E+00
-0.1457144916191E+01 -0.2854259130878E+01 -0.2026359896983E+01  0.2503020851612E+00
-0.1187782274879E+01 -0.2950645656541E+01 -0.1945061122834E+01  0.2389230545663E+00
-0.9382788425243E+00 -0.3042933984630E+01 -0.1871170024017E+01  0.2287188568873E+00
-0.7088009976549E+00 -0.3131631571008E+01 -0.1805003302693E+01  0.2196992413873E+00
-0.4994411902382E+00 -0.3217439803899E+01 -0.1746934062813E+01  0.2121472854984E+00
-0.3101198826651E+00 -0.3301301527206E+01 -0.1697368058334E+01  0.2064468941006E+00
-0.1405831999597E+00 -0.3384379870736E+01 -0.1656732639025E+01  0.2029743494140E+00
 0.9518129858076E-02 -0.3467991017926E+01 -0.1625482253269E+01  0.2020541411345E+00
 0.1404798130090E+00 -0.3553516212883E+01 -0.1604127103872E+01  0.2039638380245E+00
 0.2523723927700E+00 -0.3642331905506E+01 -0.1593280966945E+01  0.2089484192247E+00
 0.3449304224752E+00 -0.3735793010967E+01 -0.1593705412549E+01  0.2172011546926E+00
 0.4174918767953E+00 -0.3835239357261E+01 -0.1606341311745E+01  0.2287770727509E+00
 0.4689366857861E+00 -0.3941969945250E+01 -0.1632325627808E+01  0.2435500182578E+00
 0.4976106617810E+00 -0.4057185795141E+01 -0.1673000308436E+01  0.2612296428272E+00
 0.5012146257009E+00 -0.4181920052445E+01 -0.1729931546182E+01  0.2813886488366E+00
 0.4767042804308E+00 -0.4316991899295E+01 -0.1804935176288E+01  0.3035212960304E+00
 0.4202665491403E+00 -0.4463014487302E+01 -0.1900091526117E+01  0.3270768453333E+00
 0.3274546576391E+00 -0.4620449357489E+01 -0.2017707503812E+01  0.3514247016004E+00
-0.2048269369234E+01 -0.2636598575471E+01 -0.2201887928426E+01  0.3213676136363E+00
-0.1740979766872E+01 -0.2741856660797E+01 -0.2106933115661E+01  0.3031703947598E+00
-0.1453333913819E+01 -0.2842021300942E+01 -0.2018816945817E+01  0.2881385925806E+00
-0.1185103978036E+01 -0.2937601814342E+01 -0.1937671717503E+01  0.2748744346282E+00
-0.9365558433720E+00 -0.3028938589447E+01 -0.1863782378698E+01  0.2628676679926E+00
-0.7080153276120E+00 -0.3116485109913E+01 -0.1797515201078E+01  0.2521819925835E+00
-0.4996506940667E+00 -0.3200941199467E+01 -0.1739278185550E+01  0.2431840987172E+00
-0.3113956706617E+00 -0.3283280778123E+01 -0.1689497926644E+01  0.2363422134447E+00
-0.1429697263190E+00 -0.3364707673816E+01 -0.1648608373882E+01  0.2321019324134E+00
 0.6021697609281E-02 -0.3446565869681E+01 -0.1617055756772E+01  0.2308375441927E+00
 0.1359213614323E+00 -0.3530235198189E+01 -0.1595327499229E+01  0.2328607829979E+00
 0.2468406925669E+00 -0.3617058881411E+01 -0.1584002544739E+01  0.2384422527481E+00
 0.3385550806140E+00 -0.3708341256034E+01 -0.1583799498430E+01  0.2477960292062E+00
 0.4104466463969E+00 -0.3805372516418E+01 -0.1595615154863E+01  0.2609779632869E+00
 0.4614395040370E+00 -0.3909410119369E+01 -0.1620546185096E+01  0.2778363209925E+00
 0.4899243662240E+00 -0.4021620645971E+01 -0.1659897247271E+01  0.2980335745911E+00
 0.4936462388749E+00 -0.4143005450543E+01 -0.1715198825134E+01  0.3210783516260E+00
 0.4696076364598E+00 -0.4274356200304E+01 -0.1788231820471E+01  0.3464017423616E+00
 0.4140645159139E+00 -0.4416283384891E+01 -0.1881042863648E+01  0.3734086177076E+00
 0.3227399639956E+00 -0.4569323773651E+01 -0.1995894385476E+01  0.4014499796872E+00
-0.2039570648604E+01 -0.2624769763859E+01 -0.2192239988297E+01  0.3630585303238E+00
-0.1734876257369E+01 -0.2728994091476E+01 -0.2098019058636E+01  0.3427124408088E+00
-0.1448944830200E+01 -0.2828289113448E+01 -0.2010299948416E+01  0.3256980748411E+00
-0.1181951686226E+01 -0.2922958546838E+01 -0.1929307804647E+01  0.3104865392147E+00
-0.9344579875147E+00 -0.3013208785192E+01 -0.1855403378466E+01  0.2965745520913E+00
-0.7069687809579E+00 -0.3099435696532E+01 -0.1789010099883E+01  0.2841033530040E+00
-0.4997339389623E+00 -0.3182342192437E+01 -0.1730575777368E+01  0.2735403054958E+00
-0.3126974166254E+00 -0.3262941678715E+01 -0.1680550370547E+01  0.2654479140652E+00
-0.1455444174808E+00 -0.3342486751774E+01 -0.1639374645392E+01  0.2603448380247E+00
 0.2173789494998E-02 -0.3422353687282E+01 -0.1607484547883E+01  0.2586540708848E+00
 0.1308547754580E+00 -0.3503919920139E+01 -0.1585340613979E+01  0.2607171335093E+00
 0.2406563285613E+00 -0.3588489202173E+01 -0.1573481446607E+01  0.2668248546635E+00
 0.3314001785352E+00 -0.3677306979603E+01 -0.1572576192513E+01  0.2772089770912E+00
 0.4025188794697E+00 -0.3771607018858E+01 -0.1583471421496E+01  0.2919236499305E+00
 0.4529863966970E+00 -0.3872600634606E+01 -0.1607218687741E+01  0.3107890976547E+00
 0.4812432107419E+00 -0.3981416159535E+01 -0.1645081281760E+01  0.3334187623026E+00
 0.4850806058611E+00 -0.4099017233491E+01 -0.1698550210678E+01  0.3592553158254E+00
 0.4615454768554E+00 -0.4226157214109E+01 -0.1769367512021E+01  0.3876685604232E+00
 0.4069605981089E+00 -0.4363427248194E+01 -0.1859539320824E+01  0.4180322108613E+00
 0.3172523486246E+00 -0.4511430182967E+01 -0.1971263577141E+01  0.4497154551850E+00
-0.2029944393213E+01 -0.2611729312251E+01 -0.2181586636035E+01  0.4043361855776E+00
-0.1728063125157E+01 -0.2714823675584E+01 -0.2088156791052E+01  0.3819450910302E+00
-0.1443962785314E+01 -0.2813165534055E+01 -0.2000850305029E+01  0.3629504893085E+00
-0.1178287276361E+01 -0.2906821650691E+01 -0.1920001190844E+01  0.3457175939302E+00
-0.9319328368819E+00 -0.2995849103013E+01 -0.1846057507068E+01  0.3297819201669E+00
-0.7056019028585E+00 -0.3080584580098E+01 -0.1779507642476E+01  0.3153897272599E+00
-0.4996293638168E+00 -0.3161741030785E+01 -0.1720844081098E+01  0.3031282549905E+00
-0.3139641634327E+00 -0.3240381517937E+01 -0.1670542466007E+01  0.2936649233161E+00
-0.1482480228958E+00 -0.3317816414204E+01 -0.1629050281305E+01  0.2875948938564E+00
-0.1968201991128E-02 -0.3395458933506E+01 -0.1596790749634E+01  0.2853878845995E+00
 0.1253357470749E+00 -0.3474682647224E+01 -0.1574193039077E+01  0.2874096822610E+00
 0.2338730635345E+00 -0.3556744625566E+01 -0.1561749630193E+01  0.2939649654975E+00
 0.3235170900267E+00 -0.3642822164724E+01 -0.1560073381151E+01  0.3053000805766E+00
 0.3937572543318E+00 -0.3734085635543E+01 -0.1569954335187E+01  0.3214653066021E+00
 0.4436230916466E+00 -0.3831696477702E+01 -0.1592394487407E+01  0.3422504370962E+00
 0.4716095459375E+00 -0.3936742451926E+01 -0.1628612461684E+01  0.3672175206579E+00
 0.4755557038502E+00 -0.4050143863905E+01 -0.1680056430965E+01  0.3957397186020E+00
 0.4525473593809E+00 -0.4172603984024E+01 -0.1748426609148E+01  0.4271249038921E+00
 0.3989622589420E+00 -0.4304675912392E+01 -0.1835685412466E+01  0.4607261470243E+00
 0.3109618468497E+00 -0.4447009992191E+01 -0.1943942623380E+01  0.4959737559757E+00
-0.2019448455363E+01 -0.2597574176542E+01 -0.2170000631492E+01  0.4451645863439E+00
-0.1720558676256E+01 -0.2699454149848E+01 -0.2077406023000E+01  0.4208443776553E+00
-0.1438369987529E+01 -0.2796767511166E+01 -0.1990514619338E+01  0.3998680927758E+00
-0.1174066724318E+01 -0.2889310388164E+01 -0.1909787238023E+01  0.3805265002318E+00
-0.9289207124415E+00 -0.2976976229876E+01 -0.1835771558233E+01  0.3624319099009E+00
-0.7038477886167E+00 -0.3060043650487E+01 -0.1769028971892E+01  0.3459672432359E+00
-0.4992683261502E+00 -0.3139245387973E+01 -0.1710101441301E+01  0.3318608469744E+00
-0.3151283930919E+00 -0.3215706397384E+01 -0.1659492347314E+01  0.3208960752134E+00
-0.1510151403750E+00 -0.3290804888613E+01 -0.1617655409521E+01  0.3137473831207E+00
-0.6340908281361E-02 -0.3365995814053E+01 -0.1584998255477E+01  0.3109280480977E+00
 0.1194259742886E+00 -0.3442646849288E+01 -0.1561913807288E+01  0.3128211885790E+00
 0.2265506447495E+00 -0.3521959916847E+01 -0.1548842353957E+01  0.3197377571716E+00
 0.3149629401806E+00 -0.3605033426923E+01 -0.1546333124847E+01  0.3319358664844E+00
 0.3842158899770E+00 -0.3692966710929E+01 -0.1555112881903E+01  0.3494605289083E+00
 0.4334006241472E+00 -0.3786868583774E+01 -0.1576129937027E+01  0.3720692837658E+00
 0.4610713020012E+00 -0.3887786492192E+01 -0.1610556135305E+01  0.3992700711444E+00
 0.4651153406638E+00 -0.3996593574362E+01 -0.1659794765628E+01  0.4303606193772E+00
 0.4426514000596E+00 -0.4113927912767E+01 -0.1725499956596E+01  0.4645834670847E+00
 0.3900894383607E+00 -0.4240286444002E+01 -0.1809592588062E+01  0.5012785778703E+00
 0.3038264357312E+00 -0.4376358211769E+01 -0.1914089929883E+01  0.5399859216110E+00
-0.2008148099782E+01 -0.2582414020289E+01 -0.2157564190961E+01  0.4855121932930E+00
-0.1712382847938E+01 -0.2683008388129E+01 -0.2065833875712E+01  0.4593906045603E+00
-0.1432145207244E+01 -0.2779226573807E+01 -0.1979344732074E+01  0.4364254963841E+00
-0.1169239560958E+01 -0.2870557652927E+01 -0.1898704685710E+01  0.4148724815778E+00
-0.9253543679980E+00 -0.2956718654854E+01 -0.1824574316112E+01  0.3944658407733E+00
-0.7016320578676E+00 -0.3037934632849E+01 -0.1757596340179E+01  0.3757612422678E+00
-0.4985753507137E+00 -0.3114971246190E+01 -0.1698366896237E+01  0.3596512136775E+00
-0.3161164699889E+00 -0.3189029942894E+01 -0.1647418809876E+01  0.3470460622016E+00
-0.1537747496215E+00 -0.3261567962656E+01 -0.1605211070699E+01  0.3387012949572E+00
-0.1087548488599E-01 -0.3334086936762E+01 -0.1572132334187E+01  0.3351690811837E+00
 0.1131928212628E+00 -0.3407946012684E+01 -0.1548533996040E+01  0.3368412125571E+00
 0.2187546242724E+00 -0.3484282048801E+01 -0.1534797885636E+01  0.3440257817426E+00
 0.3058004346670E+00 -0.3564101719583E+01 -0.1531401600027E+01  0.3569901019949E+00
 0.3739540236366E+00 -0.3648424019350E+01 -0.1539000894082E+01  0.3757737609349E+00
 0.4223749841655E+00 -0.3738302933672E+01 -0.1558486132315E+01  0.4001016540290E+00
 0.4496819193388E+00 -0.3834750012293E+01 -0.1590981999653E+01  0.4294251933384E+00
 0.4538098663828E+00 -0.3938591915809E+01 -0.1637847559076E+01  0.4629574436194E+00
 0.4319007316735E+00 -0.4050384758304E+01 -0.1700687488203E+01  0.4998674765646E+00
 0.3803740519160E+00 -0.4170536447715E+01 -0.1781376321508E+01  0.5394910050740E+00
 0.2957910730576E+00 -0.4299805324584E+01 -0.1881886693444E+01  0.5815394855199E+00
-0.1996116453961E+01 -0.2566372174265E+01 -0.2144369649828E+01  0.5253525714493E+00
-0.1703556975162E+01 -0.2665624452460E+01 -0.2053515265774E+01  0.4975688648722E+00
-0.1425263082357E+01 -0.2760689618084E+01 -0.1967397764217E+01  0.4725996038558E+00
-0.1163748172527E+01 -0.2850710175892E+01 -0.1886795418971E+01  0.4487145282465E+00
-0.9211585745192E+00 -0.2935216219532E+01 -0.1812496148607E+01  0.4258234577834E+00
-0.6988728145061E+00 -0.3014388107057E+01 -0.1745232628708E+01  0.4046955939408E+00
-0.4974684243470E+00 -0.3089041577951E+01 -0.1685659696805E+01  0.3864122725855E+00
-0.3168491684405E+00 -0.3160471810056E+01 -0.1634340855748E+01  0.3720212944726E+00
-0.1564508666162E+00 -0.3230227423151E+01 -0.1591738792153E+01  0.3623595059574E+00
-0.1549824570806E-01 -0.3299861726199E+01 -0.1558219182844E+01  0.3580114819575E+00
 0.1067088969516E+00 -0.3370722123810E+01 -0.1534086212733E+01  0.3593669981547E+00
 0.2105562345024E+00 -0.3443869057359E+01 -0.1519657022888E+01  0.3667201042219E+00
 0.2960977934099E+00 -0.3520202047374E+01 -0.1515328995520E+01  0.3803448285225E+00
 0.3630356333725E+00 -0.3600647194812E+01 -0.1521677430017E+01  0.4002767265876E+00
 0.4106063848995E+00 -0.3686200275213E+01 -0.1539529124543E+01  0.4262104119709E+00
 0.4375001026853E+00 -0.3777846737051E+01 -0.1569962914170E+01  0.4575403511534E+00
 0.4416968568868E+00 -0.3876377672850E+01 -0.1614299979408E+01  0.4933818579401E+00
 0.4203459922742E+00 -0.3982252192916E+01 -0.1674095910055E+01  0.5328134532564E+00
 0.3698363007895E+00 -0.4095740411291E+01 -0.1751174927494E+01  0.5751746619456E+00
 0.2868241055523E+00 -0.4217649526549E+01 -0.1847487943182E+01  0.6204406273637E+00
-0.1983435208605E+01 -0.2549587033619E+01 -0.2130520448441E+01  0.5646651376923E+00
-0.1694103509135E+01 -0.2647457072273E+01 -0.2040533468086E+01  0.5353695538885E+00
-0.1417693262602E+01 -0.2741319996202E+01 -0.1954736226680E+01  0.5083693584961E+00
-0.1157526954292E+01 -0.2829928815896E+01 -0.1874104207235E+01  0.4820105488977E+00
-0.9162496384127E+00 -0.2912619578419E+01 -0.1799568527346E+01  0.4564418867062E+00
-0.6954806364137E+00 -0.2989542370321E+01 -0.1731960808773E+01  0.4326917796773E+00
-0.4958593803121E+00 -0.3061584861995E+01 -0.1671998789644E+01  0.4120561057529E+00
-0.3172423259450E+00 -0.3130156043038E+01 -0.1620277229313E+01  0.3957296236128E+00
-0.1589633386702E+00 -0.3196909354836E+01 -0.1577260161948E+01  0.3846288444351E+00
-0.2013151310196E-01 -0.3263454730851E+01 -0.1543285530744E+01  0.3793621326643E+00
 0.1000514628982E+00 -0.3331123879481E+01 -0.1518604031942E+01  0.3803042948402E+00
 0.2020322866720E+00 -0.3400888405126E+01 -0.1503462371860E+01  0.3877215755672E+00
 0.2859290017418E+00 -0.3473522884394E+01 -0.1498169121047E+01  0.4018917970849E+00
 0.3515291133795E+00 -0.3549843125912E+01 -0.1503207582077E+01  0.4228490911472E+00
 0.3981579985212E+00 -0.3630777594902E+01 -0.1519331206445E+01  0.4502644136187E+00
 0.4245886492968E+00 -0.3717299964198E+01 -0.1547574314078E+01  0.4834805298819E+00
 0.4288423358080E+00 -0.3810195383172E+01 -0.1589235928230E+01  0.5214991720970E+00
 0.4080483823646E+00 -0.3909824584935E+01 -0.1645834811034E+01  0.5632765454883E+00
 0.3585002410571E+00 -0.4016246716304E+01 -0.1719140839006E+01  0.6081480785188E+00
 0.2769122655999E+00 -0.4130201132226E+01 -0.1811045762721E+01  0.6564391340838E+00
-0.1970195388701E+01 -0.2532213824907E+01 -0.2116132325029E+01  0.6034360646893E+00
-0.1684045537089E+01 -0.2628679599261E+01 -0.2026980808944E+01  0.5727888811764E+00
-0.1409399201352E+01 -0.2721298855071E+01 -0.1941428081595E+01  0.5437152337413E+00
-0.1150501129639E+01 -0.2808388748070E+01 -0.1860678237804E+01  0.5147161628505E+00
-0.9105347323864E+00 -0.2889089368480E+01 -0.1785823322878E+01  0.4862542792913E+00
-0.6913584894634E+00 -0.2963541945529E+01 -0.1717803200089E+01  0.4596677668558E+00
-0.4936543132401E+00 -0.3032733308559E+01 -0.1657402178042E+01  0.4364932053127E+00
-0.3172075346825E+00 -0.3098209140098E+01 -0.1605245833075E+01  0.4180799722448E+00
-0.1612287156034E+00 -0.3161742175446E+01 -0.1561796314832E+01  0.4054200840098E+00
-0.2469454968843E-01 -0.3225003655393E+01 -0.1527358152514E+01  0.3991346393584E+00
 0.9330145106348E-01 -0.3289304799213E+01 -0.1502121569820E+01  0.3995680600308E+00
 0.1932651010563E+00 -0.3355514383522E+01 -0.1486257158989E+01  0.4069421563901E+00
 0.2753745922716E+00 -0.3424264317755E+01 -0.1479978167224E+01  0.4215345822913E+00
 0.3395077938920E+00 -0.3496237499214E+01 -0.1483662957738E+01  0.4433801380077E+00
 0.3850937026043E+00 -0.3572273295312E+01 -0.1497974404773E+01  0.4721373643671E+00
 0.4110116496717E+00 -0.3653342260224E+01 -0.1523895383095E+01  0.5071147547587E+00
 0.4153213209558E+00 -0.3740283711317E+01 -0.1562732319506E+01  0.5471879823087E+00
 0.3950870313048E+00 -0.3833398212258E+01 -0.1616006250949E+01  0.5911367924528E+00
 0.3464205445922E+00 -0.3932433674962E+01 -0.1685426166999E+01  0.6382449966970E+00
 0.2660800690920E+00 -0.4037846673213E+01 -0.1772730299441E+01  0.6892619521624E+00
-0.1956498684117E+01 -0.2514427322377E+01 -0.2101335217722E+01  0.6416594126537E+00
-0.1673406325635E+01 -0.2609486958993E+01 -0.2012959838670E+01  0.6098293040783E+00
-0.1400336667181E+01 -0.2700826940919E+01 -0.1927546890918E+01  0.5786182810468E+00
-0.1142585446570E+01 -0.2786279725286E+01 -0.1846566626089E+01  0.5467829489938E+00
-0.9039111321638E+00 -0.2864795028091E+01 -0.1771291890827E+01  0.5151880397826E+00
-0.6864018317272E+00 -0.2936535917808E+01 -0.1702780737963E+01  0.4855366277885E+00
-0.4907541690309E+00 -0.3002620930658E+01 -0.1641886292689E+01  0.4596315367338E+00
-0.3166530939618E+00 -0.3064758087355E+01 -0.1589263251188E+01  0.4389817965214E+00
-0.1631612425753E+00 -0.3124854473502E+01 -0.1545367382637E+01  0.4246477945057E+00
-0.2910476363589E-01 -0.3184647384097E+01 -0.1510463505603E+01  0.4172495583553E+00
 0.8654235681600E-01 -0.3245421256473E+01 -0.1484673079073E+01  0.4170829945845E+00
 0.1843408423973E+00 -0.3307926410049E+01 -0.1468085213073E+01  0.4243057175765E+00
 0.2645239955580E+00 -0.3372632472217E+01 -0.1460810980325E+01  0.4391910686174E+00
 0.3270518579334E+00 -0.3440075044475E+01 -0.1463120893964E+01  0.4617725956689E+00
 0.3714763209939E+00 -0.3510957174159E+01 -0.1475555997245E+01  0.4917078009509E+00
 0.3968259152798E+00 -0.3586226000222E+01 -0.1499018036121E+01  0.5283086764956E+00
 0.4012177931346E+00 -0.3666858283519E+01 -0.1534851026588E+01  0.5703341728013E+00
 0.3815718181071E+00 -0.3753239867536E+01 -0.1584683979212E+01  0.6163072881989E+00
 0.3336901094897E+00 -0.3844716055544E+01 -0.1650182190460E+01  0.6653360943851E+00
 0.2543595057479E+00 -0.3941107495892E+01 -0.1732771550973E+01  0.7186496024585E+00
-0.1942459262753E+01 -0.2496425758945E+01 -0.2086275954906E+01  0.6793385991304E+00
-0.1662208184389E+01 -0.2590099337828E+01 -0.1998584530373E+01  0.6464998395412E+00
-0.1390452017530E+01 -0.2680127234970E+01 -0.1913172243823E+01  0.6130585023768E+00
-0.1133681881574E+01 -0.2763805312058E+01 -0.1831818976361E+01  0.5781559705159E+00
-0.8962654748472E+00 -0.2839913141709E+01 -0.1756003945328E+01  0.5431626536511E+00
-0.6804983875011E+00 -0.2908675371689E+01 -0.1686911662541E+01  0.5102050106498E+00
-0.4870556256450E+00 -0.2971381595777E+01 -0.1625465489946E+01  0.4813755339754E+00
-0.3154848200892E+00 -0.3029927933171E+01 -0.1572343990044E+01  0.4583444165256E+00
-0.1646740290895E+00 -0.3086372595608E+01 -0.1527991909732E+01  0.4422300752344E+00
-0.3327857330403E-01 -0.3142523159330E+01 -0.1492626810552E+01  0.4336346416340E+00
 0.7985859792425E-01 -0.3199630850778E+01 -0.1466292955122E+01  0.4327841131136E+00
 0.1753486074659E+00 -0.3258306586719E+01 -0.1448990246574E+01  0.4397485259133E+00
 0.2534708400089E+00 -0.3318838640683E+01 -0.1440722862663E+01  0.4547941498569E+00
 0.3142642990432E+00 -0.3381599080830E+01 -0.1441647343783E+01  0.4779498998368E+00
 0.3573622836266E+00 -0.3447151677358E+01 -0.1452201011370E+01  0.5088654625176E+00
 0.3820679290678E+00 -0.3516253908767E+01 -0.1473067406722E+01  0.5469130940662E+00
 0.3866095461439E+00 -0.3590106340595E+01 -0.1505643489573E+01  0.5908106763619E+00
 0.3676704481811E+00 -0.3669509743910E+01 -0.1551864465056E+01  0.6387422102705E+00
 0.3204514064135E+00 -0.3753527666508E+01 -0.1613545838152E+01  0.6893719902197E+00
 0.2417703418241E+00 -0.3840702341053E+01 -0.1691498035347E+01  0.7443756320315E+00
-0.1928204537370E+01 -0.2478434573469E+01 -0.2071120376841E+01  0.7164888636470E+00
-0.1650473908455E+01 -0.2570771304337E+01 -0.1983985244980E+01  0.6828160170500E+00
-0.1379677652399E+01 -0.2659445667811E+01 -0.1898387955684E+01  0.6470118967477E+00
-0.1123679017425E+01 -0.2741183594401E+01 -0.1816485422951E+01  0.6087702242675E+00
-0.8874713049838E+00 -0.2814622737805E+01 -0.1739984195697E+01  0.5700870015144E+00
-0.6735298105936E+00 -0.2880112204453E+01 -0.1670211742835E+01  0.5335715984172E+00
-0.4824512593740E+00 -0.2939146056710E+01 -0.1608150734481E+01  0.5016249562051E+00
-0.3136081150869E+00 -0.2993840652598E+01 -0.1554500916869E+01  0.4760760952056E+00
-0.1656797115487E+00 -0.3046417291183E+01 -0.1509685587455E+01  0.4580879045633E+00
-0.3713323980774E-01 -0.3098764092973E+01 -0.1473871742669E+01  0.4482249239498E+00
 0.7333534367009E-01 -0.3152089012019E+01 -0.1447014220454E+01  0.4466176048044E+00
 0.1663761660450E+00 -0.3206841513195E+01 -0.1429018709536E+01  0.4532195134278E+00
 0.2423144237739E+00 -0.3263093464140E+01 -0.1419766145371E+01  0.4682910502295E+00
 0.3012492194742E+00 -0.3321059386324E+01 -0.1419310774820E+01  0.4918559940848E+00
 0.3428933616805E+00 -0.3381137769326E+01 -0.1427974867971E+01  0.5235392050652E+00
 0.3666480317684E+00 -0.3443959060936E+01 -0.1446336180040E+01  0.5627601772282E+00
 0.3715596505055E+00 -0.3510186751651E+01 -0.1475154733797E+01  0.6084174016529E+00
 0.3536362124765E+00 -0.3582115312951E+01 -0.1517385173375E+01  0.6584287372370E+00
 0.3069740938241E+00 -0.3659186526789E+01 -0.1575539839497E+01  0.7104642996323E+00
 0.2283704938396E+00 -0.3737667337631E+01 -0.1649369512398E+01  0.7662707236906E+00
-0.1913889217571E+01 -0.2460726158295E+01 -0.2056069221442E+01  0.7531390774160E+00
-0.1638211339163E+01 -0.2551785154184E+01 -0.1969298346878E+01  0.7187999964325E+00
-0.1367945206325E+01 -0.2639075397122E+01 -0.1883299678843E+01  0.6804452780979E+00
-0.1112435200868E+01 -0.2718627159534E+01 -0.1800599304822E+01  0.6385439647178E+00
-0.8773934922017E+00 -0.2789105351471E+01 -0.1723254452155E+01  0.5958581317986E+00
-0.6653723033693E+00 -0.2850997665462E+01 -0.1652693881159E+01  0.5555255179782E+00
-0.4768315144524E+00 -0.2906040497297E+01 -0.1589949841489E+01  0.5202729667291E+00
-0.3109243345104E+00 -0.2956607078096E+01 -0.1535739760030E+01  0.4920838112054E+00
-0.1660998106258E+00 -0.3005111234959E+01 -0.1490469187644E+01  0.4721438816139E+00
-0.4058100647898E-01 -0.3053486592690E+01 -0.1454211767921E+01  0.4609616593218E+00
 0.6705458700650E-01 -0.3102947932772E+01 -0.1426869868890E+01  0.4585430518730E+00
 0.1575105649359E+00 -0.3153721535349E+01 -0.1408219152522E+01  0.4646816056729E+00
 0.2311469059814E+00 -0.3205617899982E+01 -0.1398001363634E+01  0.4796407219864E+00
 0.2881329573475E+00 -0.3258681906684E+01 -0.1396158002647E+01  0.5034522191392E+00
 0.3281755626833E+00 -0.3313230078905E+01 -0.1402975619066E+01  0.5356932030470E+00
 0.3508793717379E+00 -0.3369612134072E+01 -0.1418804394698E+01  0.5757870203750E+00
 0.3551719044415E+00 -0.3428469323322E+01 -0.1444449783210E+01  0.6227397194516E+00
 0.3404033394453E+00 -0.3489731064099E+01 -0.1480184026833E+01  0.6752118806933E+00
 0.2938774032753E+00 -0.3561435159965E+01 -0.1535752141749E+01  0.7291513352945E+00
 0.2139171113039E+00 -0.3634138047335E+01 -0.1607503835858E+01  0.7843577427684E+00
-0.1899530062726E+01 -0.2443443700945E+01 -0.2041197663748E+01  0.7893676720725E+00
-0.1625566478629E+01 -0.2533667086554E+01 -0.1954839770678E+01  0.7544905730075E+00
-0.1355085476121E+01 -0.2619257201482E+01 -0.1867941053736E+01  0.7132887276037E+00
-0.1099798826681E+01 -0.2696346754404E+01 -0.1784188418585E+01  0.6673785619897E+00
-0.8658884555345E+00 -0.2763542601948E+01 -0.1705832592690E+01  0.6203618774802E+00
-0.6558992428452E+00 -0.2821484655665E+01 -0.1634370428155E+01  0.5759446025067E+00
-0.4700843555471E+00 -0.2872183488975E+01 -0.1570865882941E+01  0.5372030552380E+00
-0.3073368070022E+00 -0.2918325001596E+01 -0.1516061046196E+01  0.5062709800040E+00
-0.1658403512118E+00 -0.2962548962124E+01 -0.1470342973538E+01  0.4843275898908E+00
-0.4359054781344E-01 -0.3006861157309E+01 -0.1433712297771E+01  0.4717842444994E+00
 0.6116731100916E-01 -0.3052255966138E+01 -0.1405811664345E+01  0.4685328456289E+00
 0.1487977473052E+00 -0.3099185729244E+01 -0.1386682347994E+01  0.4741270567552E+00
 0.2200393435736E+00 -0.3146675053186E+01 -0.1375518780029E+01  0.4888027013378E+00
 0.2750652676013E+00 -0.3194640325269E+01 -0.1372200273623E+01  0.5127084660555E+00
 0.3133756389809E+00 -0.3243673313802E+01 -0.1377239903673E+01  0.5453268231163E+00
 0.3347805987785E+00 -0.3293733574979E+01 -0.1390707895287E+01  0.5859998568491E+00
 0.3386998108740E+00 -0.3344749708740E+01 -0.1412843448414E+01  0.6337366972522E+00
 0.3225523243142E+00 -0.3397852081418E+01 -0.1445390882173E+01  0.6875922012444E+00
 0.2900666884163E+00 -0.3448570779715E+01 -0.1484496919145E+01  0.7465481871356E+00
 0.1981357992167E+00 -0.3536515917227E+01 -0.1569038651485E+01  0.7995621727301E+00
-0.4539465754842E+01 -0.7101813555682E+01 -0.5471401262069E+01 -0.1300928044523E+01
 0.3097297045182E+00 -0.2613960459411E+01 -0.1082988452053E+01  0.1615431294562E+00
 0.1298873299895E+00 -0.1839034501206E+01 -0.8032991684345E+00  0.2116807321415E+00
 0.6708985669914E-01 -0.1459618733372E+01 -0.6544885703763E+00  0.1510895546042E+00
 0.2702576750679E-01 -0.1245595572241E+01 -0.5727278067724E+00  0.1139622186724E+00
 0.1298757904291E-01 -0.1094325841821E+01 -0.5082289822165E+00  0.8494617314838E-01
 0.6399231903944E-02 -0.9745246772336E+00 -0.4550189581508E+00  0.6025188350520E-01
 0.2482035244785E-02 -0.8684219202594E+00 -0.4069917449246E+00  0.3779445793648E-01
 0.4220706739488E-04 -0.7648512152207E+00 -0.3594602329203E+00  0.1729881018090E-01
-0.1808582654764E-02 -0.6584804642446E+00 -0.3103358512556E+00 -0.8142655117641E-03
-0.5019581280894E-02 -0.5472627969498E+00 -0.2595727171100E+00 -0.1563727235554E-01
-0.4592566754032E-02 -0.4227706494648E+00 -0.2008607111134E+00 -0.2859590629583E-01
 0.9262869252649E-02 -0.2929497443975E+00 -0.1333328309799E+00 -0.3677510196970E-01
 0.1440181214721E-01 -0.1942607202640E+00 -0.8453368660046E-01 -0.4158504851619E-01
 0.6900229495266E-02 -0.1307760492356E+00 -0.5822163513030E-01 -0.4421129730416E-01
-0.2341022277477E-02 -0.9106127426536E-01 -0.4389907926379E-01 -0.4346968055063E-01
-0.1379994140498E-01 -0.6734893184482E-01 -0.3813997033067E-01 -0.4085685007069E-01
-0.2231852800010E-01 -0.4774677952432E-01 -0.3293069445295E-01 -0.3617074818954E-01
-0.2161089674256E-01 -0.2421131471604E-01 -0.2153643933092E-01 -0.2931833139583E-01
-0.1859725540996E-01 -0.1486121878959E-01 -0.1572548283390E-01 -0.2051710357184E-01
-0.2503827399607E+01 -0.4498757781245E+01 -0.3291215026652E+01 -0.1608487383842E+01
-0.7278419229053E+00 -0.3713092966797E+01 -0.2087239392866E+01 -0.4969070876463E+00
 0.1185849629003E+00 -0.2226319223981E+01 -0.9906351001954E+00  0.5334508444300E-02
 0.7908982363035E-01 -0.1732094900888E+01 -0.7769123843404E+00  0.7531558828586E-01
 0.4858542058253E-01 -0.1449985222480E+01 -0.6586579052213E+00  0.6976178358095E-01
 0.2814063145723E-01 -0.1268706247093E+01 -0.5830658378698E+00  0.5304039826015E-01
 0.1933986940112E-01 -0.1130619168938E+01 -0.5223012694576E+00  0.3253715942817E-01
 0.1433130589355E-01 -0.1014037497122E+01 -0.4698619086855E+00  0.1021522794608E-01
 0.1076696099756E-01 -0.9059145133857E+00 -0.4207193485553E+00 -0.1281877778840E-01
 0.7160117541738E-02 -0.7991296687193E+00 -0.3722256881093E+00 -0.3521751690186E-01
 0.3251884744611E-02 -0.6885026742187E+00 -0.3220678702359E+00 -0.5608537412537E-01
 0.1328454761221E-02 -0.5693987135554E+00 -0.2669930209561E+00 -0.7595981410233E-01
 0.4299461471819E-02 -0.4528170935226E+00 -0.2108032865292E+00 -0.9045091165420E-01
 0.3826660135374E-02 -0.3557694909189E+00 -0.1654131300487E+00 -0.9998505441659E-01
-0.7720670038098E-02 -0.2854731563257E+00 -0.1378010980415E+00 -0.1082776273433E+00
-0.2672356344632E-01 -0.2392856990116E+00 -0.1250243530381E+00 -0.1158357265358E+00
-0.5045296388457E-01 -0.2087376771950E+00 -0.1218196009984E+00 -0.1235829580455E+00
-0.7585856726869E-01 -0.1846745997384E+00 -0.1224505881828E+00 -0.1319375030880E+00
-0.1012902571169E+00 -0.1645645385625E+00 -0.1249517536524E+00 -0.1413156066441E+00
-0.1263316975584E+00 -0.1536949601068E+00 -0.1316125287688E+00 -0.1545793056416E+00
-0.2099248259845E+01 -0.3715260859710E+01 -0.2732819279259E+01 -0.1594286671322E+01
-0.7997223039156E+00 -0.3452053236991E+01 -0.1998334499158E+01 -0.8177039660892E+00
-0.1823985150864E+00 -0.2654846506375E+01 -0.1333505156705E+01 -0.2776889253713E+00
 0.5205938923417E-01 -0.1992531849402E+01 -0.9120220539658E+00 -0.4979191334908E-01
 0.5059512121565E-01 -0.1658875289690E+01 -0.7558916772657E+00  0.4676825251547E-02
 0.3936298008225E-01 -0.1443977397856E+01 -0.6601687746793E+00  0.9794226931846E-02
 0.3078500863438E-01 -0.1289015671205E+01 -0.5913684099081E+00 -0.1884014160595E-02
 0.2606922645390E-01 -0.1162775530857E+01 -0.5342519617145E+00 -0.2134040505219E-01
 0.2233939916865E-01 -0.1050392060483E+01 -0.4831847495922E+00 -0.4490206130108E-01
 0.1827559380831E-01 -0.9429625260370E+00 -0.4346028570452E+00 -0.7022767122502E-01
 0.1342632998460E-01 -0.8346747060727E+00 -0.3859867357824E+00 -0.9578072876652E-01
 0.8633285526601E-02 -0.7214972725448E+00 -0.3350460730488E+00 -0.1207984928442E+00
 0.5450728176092E-02 -0.6114436194208E+00 -0.2848166581626E+00 -0.1414138781930E+00
-0.1745270519493E-02 -0.5179515927563E+00 -0.2442575251201E+00 -0.1577790635947E+00
-0.1861432053691E-01 -0.4463889934315E+00 -0.2185515570108E+00 -0.1732876647444E+00
-0.4473086602794E-01 -0.3964112605994E+00 -0.2073367989890E+00 -0.1896012848644E+00
-0.7867331981617E-01 -0.3628629485608E+00 -0.2075220456108E+00 -0.2081102915290E+00
-0.1183591781094E+00 -0.3391503606720E+00 -0.2150294826819E+00 -0.2295110276380E+00
-0.1619665990054E+00 -0.3231380912980E+00 -0.2279992038643E+00 -0.2552154014619E+00
-0.2153138081845E+00 -0.3308023701357E+00 -0.2566746031595E+00 -0.2894886476914E+00
-0.1918343987713E+01 -0.3271733355980E+01 -0.2439336345349E+01 -0.1540543450707E+01
-0.8940714370536E+00 -0.3229818601227E+01 -0.1938228313076E+01 -0.9825159752951E+00
-0.3333050970221E+00 -0.2756735521292E+01 -0.1452319086924E+01 -0.4944876086690E+00
-0.5707168061893E-01 -0.2235119536834E+01 -0.1077329869471E+01 -0.2043257743051E+00
 0.3012885659685E-01 -0.1857515487183E+01 -0.8588717141970E+00 -0.8245317114396E-01
 0.3965240431825E-01 -0.1618513027170E+01 -0.7420644908580E+00 -0.4576589979453E-01
 0.3867993044508E-01 -0.1447538789336E+01 -0.6621636619995E+00 -0.4350178561858E-01
 0.3646000402287E-01 -0.1313024335048E+01 -0.5999852340598E+00 -0.5712095510202E-01
 0.3403021644937E-01 -0.1197017898101E+01 -0.5466042089897E+00 -0.7920303419655E-01
 0.3043771201921E-01 -0.1089563024613E+01 -0.4977888956566E+00 -0.1058810793877E+00
 0.2514885614387E-01 -0.9842461823729E+00 -0.4507757421843E+00 -0.1346930759901E+00
 0.1854118923136E-01 -0.8763929421353E+00 -0.4031903228422E+00 -0.1638716016513E+00
 0.1073854222073E-01 -0.7720556462644E+00 -0.3578190379930E+00 -0.1902567806794E+00
-0.1982620262003E-02 -0.6824443984871E+00 -0.3216806979962E+00 -0.2138336313898E+00
-0.2395683987257E-01 -0.6123368167364E+00 -0.2990580178477E+00 -0.2373190478614E+00
-0.5603488153065E-01 -0.5620824928689E+00 -0.2905151652309E+00 -0.2627587424858E+00
-0.9788284505332E-01 -0.5289682123765E+00 -0.2946199962448E+00 -0.2918658891082E+00
-0.1481141722609E+00 -0.5086479758328E+00 -0.3086782088211E+00 -0.3257307061824E+00
-0.2063718700133E+00 -0.5026953271089E+00 -0.3332615818022E+00 -0.3661518955544E+00
-0.2782917407970E+00 -0.5308594708940E+00 -0.3803010685302E+00 -0.4171545569216E+00
-0.1833932289488E+01 -0.2996263539138E+01 -0.2270192033696E+01 -0.1476798113237E+01
-0.9784886072209E+00 -0.3043098673036E+01 -0.1890146016927E+01 -0.1069804866833E+01
-0.4565213935693E+00 -0.2768143897844E+01 -0.1515592683120E+01 -0.6492837077718E+00
-0.1561832667097E+00 -0.2379750078680E+01 -0.1191888669310E+01 -0.3472764819941E+00
-0.2056906800195E-01 -0.2036987981179E+01 -0.9670518106621E+00 -0.1830772618934E+00
 0.2665060245937E-01 -0.1785272063645E+01 -0.8265520846609E+00 -0.1126253234890E+00
 0.3987379692088E-01 -0.1603947263601E+01 -0.7351145274750E+00 -0.9233942806087E-01
 0.4409216961740E-01 -0.1462947267262E+01 -0.6668618942017E+00 -0.9722460882513E-01
 0.4480208172574E-01 -0.1344530759467E+01 -0.6108724769892E+00 -0.1157943314254E+00
 0.4287631032120E-01 -0.1237829172326E+01 -0.5616278437179E+00 -0.1422169950425E+00
 0.3810494527131E-01 -0.1135897678674E+01 -0.5159625833907E+00 -0.1729497485984E+00
 0.3070781256907E-01 -0.1033407770525E+01 -0.4712689790441E+00 -0.2053787185822E+00
 0.1977865561387E-01 -0.9347962176672E+00 -0.4300582530743E+00 -0.2369448717370E+00
 0.2806901121577E-02 -0.8498658712103E+00 -0.3981177149319E+00 -0.2674856131206E+00
-0.2332020233912E-01 -0.7830735464976E+00 -0.3790050609920E+00 -0.2989521303784E+00
-0.6010405354490E-01 -0.7352946474253E+00 -0.3738373885078E+00 -0.3333625239743E+00
-0.1076967913493E+00 -0.7054833468052E+00 -0.3821946639632E+00 -0.3724709209304E+00
-0.1655624562998E+00 -0.6917108460721E+00 -0.4029184510929E+00 -0.4174743918099E+00
-0.2339736117188E+00 -0.6981869232587E+00 -0.4381154503282E+00 -0.4699826160500E+00
-0.3179368279914E+00 -0.7469820208865E+00 -0.5005118577031E+00 -0.5329524184789E+00
-0.1790428393752E+01 -0.2809973124688E+01 -0.2162188708183E+01 -0.1413865720227E+01
-0.1056900422158E+01 -0.2897016175910E+01 -0.1858340796379E+01 -0.1113020402320E+01
-0.5628036712781E+00 -0.2742963830246E+01 -0.1553710721776E+01 -0.7573196410968E+00
-0.2501875732087E+00 -0.2464929788524E+01 -0.1276105156778E+01 -0.4675157275930E+00
-0.8063347112403E-01 -0.2177245282058E+01 -0.1061203011304E+01 -0.2829992994448E+00
-0.1064131394109E-02 -0.1938336106159E+01 -0.9115181093382E+00 -0.1864739102881E+00
 0.3280280054643E-01 -0.1754386221374E+01 -0.8091442057365E+00 -0.1472800100150E+00
 0.4730503944025E-01 -0.1610565447277E+01 -0.7347323898198E+00 -0.1413593543257E+00
 0.5358661881832E-01 -0.1491433361719E+01 -0.6757879674492E+00 -0.1545794202905E+00
 0.5482384511577E-01 -0.1386509626764E+01 -0.6258923157871E+00 -0.1792146826224E+00
 0.5173991338727E-01 -0.1288549070355E+01 -0.5813003023006E+00 -0.2105838661909E+00
 0.4469897769179E-01 -0.1191763143588E+01 -0.5391201566038E+00 -0.2453119602137E+00
 0.3208174106195E-01 -0.1099334654334E+01 -0.5016088679656E+00 -0.2812674008768E+00
 0.1226365525990E-01 -0.1019988945946E+01 -0.4736308854213E+00 -0.3181151656338E+00
-0.1681252486294E-01 -0.9580530944962E+00 -0.4581868399367E+00 -0.3570371124242E+00
-0.5687217152014E-01 -0.9148311662766E+00 -0.4567005676061E+00 -0.3997613754833E+00
-0.1083034915590E+00 -0.8906117138594E+00 -0.4694901453558E+00 -0.4478057900012E+00
-0.1711144109397E+00 -0.8853037954571E+00 -0.4965165557472E+00 -0.5021583511776E+00
-0.2460398816291E+00 -0.9049146944495E+00 -0.5409486493849E+00 -0.5638534697798E+00
-0.3369159580593E+00 -0.9716527419177E+00 -0.6150272874293E+00 -0.6344016702852E+00
-0.1768183722268E+01 -0.2679020930578E+01 -0.2090186181536E+01 -0.1354696531181E+01
-0.1127515794567E+01 -0.2783487512832E+01 -0.1838171549815E+01 -0.1129584238387E+01
-0.6581587831566E+00 -0.2706823382988E+01 -0.1581541614077E+01 -0.8309821993854E+00
-0.3388335174671E+00 -0.2513594632329E+01 -0.1340641227004E+01 -0.5640112726296E+00
-0.1450768764810E+00 -0.2283673911257E+01 -0.1141512867342E+01 -0.3744062682575E+00
-0.3815857494244E-01 -0.2071166215284E+01 -0.9913826488917E+00 -0.2612522146797E+00
 0.1700386556784E-01 -0.1895291909434E+01 -0.8827953783781E+00 -0.2058815032497E+00
 0.4506561484481E-01 -0.1753444814735E+01 -0.8029382219121E+00 -0.1886075672310E+00
 0.5934466871009E-01 -0.1636088372361E+01 -0.7410695388364E+00 -0.1951931392957E+00
 0.6548239569869E-01 -0.1534286293262E+01 -0.6903378301036E+00 -0.2167154986014E+00
 0.6541732172446E-01 -0.1441103934741E+01 -0.6465727064779E+00 -0.2475164830947E+00
 0.5995866983865E-01 -0.1350594818286E+01 -0.6065989882319E+00 -0.2835491673113E+00
 0.4708940239498E-01 -0.1264996100895E+01 -0.5724161468431E+00 -0.3229428215869E+00
 0.2586887502484E-01 -0.1192157090189E+01 -0.5481554597369E+00 -0.3651536565718E+00
-0.4825873234561E-02 -0.1136342216364E+01 -0.5363490007511E+00 -0.4106180698757E+00
-0.4670929009239E-01 -0.1099239115249E+01 -0.5385957491445E+00 -0.4606033904135E+00
-0.1002116532538E+00 -0.1082113726422E+01 -0.5556929270380E+00 -0.5161822646774E+00
-0.1657115155381E+00 -0.1086144389836E+01 -0.5883722740336E+00 -0.5779076930273E+00
-0.2442272177404E+00 -0.1118130424979E+01 -0.6403080904543E+00 -0.6460489542169E+00
-0.3385402287452E+00 -0.1199102316296E+01 -0.7226919943363E+00 -0.7206327896275E+00
-0.1757997427792E+01 -0.2585021409778E+01 -0.2041218848481E+01 -0.1299944372289E+01
-0.1190429440964E+01 -0.2695879007154E+01 -0.1826564965983E+01 -0.1129301087235E+01
-0.7443595736677E+00 -0.2670061601671E+01 -0.1604777948339E+01 -0.8793147250621E+00
-0.4225074947540E+00 -0.2541182935524E+01 -0.1392934498697E+01 -0.6389920054780E+00
-0.2109717808633E+00 -0.2363999262429E+01 -0.1210236387278E+01 -0.4538659360793E+00
-0.8142195867906E-01 -0.2183724142358E+01 -0.1064618664787E+01 -0.3323546616244E+00
-0.5999074956183E-02 -0.2023712396520E+01 -0.9539643891742E+00 -0.2650348046448E+00
 0.3701985862786E-01 -0.1889320024334E+01 -0.8705810756738E+00 -0.2374438141346E+00
 0.6134489469293E-01 -0.1776754290022E+01 -0.8062424137596E+00 -0.2369190398736E+00
 0.7410120010216E-01 -0.1679794215143E+01 -0.7546757151553E+00 -0.2543690441000E+00
 0.7846790032510E-01 -0.1592421563356E+01 -0.7115582198195E+00 -0.2835455365527E+00
 0.7586376074357E-01 -0.1508928259583E+01 -0.6735403127464E+00 -0.3198887399137E+00
 0.6416002972020E-01 -0.1430889721203E+01 -0.6423629533675E+00 -0.3616673464507E+00
 0.4298030994552E-01 -0.1365416552526E+01 -0.6215450324365E+00 -0.4081019077647E+00
 0.1202313404097E-01 -0.1316728486010E+01 -0.6132115138702E+00 -0.4589267266504E+00
-0.3026473419398E-01 -0.1286813243544E+01 -0.6190266479668E+00 -0.5148526590657E+00
-0.8425444370885E-01 -0.1277587589590E+01 -0.6400657540272E+00 -0.5763859600363E+00
-0.1505754720187E+00 -0.1290943957388E+01 -0.6775141301027E+00 -0.6435327541739E+00
-0.2304875568046E+00 -0.1333702487667E+01 -0.7351693190368E+00 -0.7157676828073E+00
-0.3260028446737E+00 -0.1424935979367E+01 -0.8229412452120E+00 -0.7917653820123E+00
-0.1755270279197E+01 -0.2517118082260E+01 -0.2008022524792E+01 -0.1249379905537E+01
-0.1246261052406E+01 -0.2628864137021E+01 -0.1821308834411E+01 -0.1118063468191E+01
-0.8224120971535E+00 -0.2637164564342E+01 -0.1626001026779E+01 -0.9087846966155E+00
-0.5011846783193E+00 -0.2557029795210E+01 -0.1437360798913E+01 -0.6954737926018E+00
-0.2766950620310E+00 -0.2425445886062E+01 -0.1270006242382E+01 -0.5204187652076E+00
-0.1285180499591E+00 -0.2278357044003E+01 -0.1131231291293E+01 -0.3968868859297E+00
-0.3463619703376E-01 -0.2138829814211E+01 -0.1021529022694E+01 -0.3219784740689E+00
 0.2359193347330E-01 -0.2016436984338E+01 -0.9366371715307E+00 -0.2860354196586E+00
 0.5923942388353E-01 -0.1911836423993E+01 -0.8707205878431E+00 -0.2787291285103E+00
 0.8009659734262E-01 -0.1821672227342E+01 -0.8185405440237E+00 -0.2916133599530E+00
 0.9025514873944E-01 -0.1741330541935E+01 -0.7760054328338E+00 -0.3183379065294E+00
 0.9176498001986E-01 -0.1665705348695E+01 -0.7397519714011E+00 -0.3540624585866E+00
 0.8259722083159E-01 -0.1595975329092E+01 -0.7112877090783E+00 -0.3971370997817E+00
 0.6285880074514E-01 -0.1538621265096E+01 -0.6936083564857E+00 -0.4465450248751E+00
 0.3296414957357E-01 -0.1497804582564E+01 -0.6884750017594E+00 -0.5013858646159E+00
-0.8392235789758E-02 -0.1475712252470E+01 -0.6975291077128E+00 -0.5617857928095E+00
-0.6147438833882E-01 -0.1474615553543E+01 -0.7219622708531E+00 -0.6276493824846E+00
-0.1271066009738E+00 -0.1496673959409E+01 -0.7631768614441E+00 -0.6984249567127E+00
-0.2068118665691E+00 -0.1548194446326E+01 -0.8248529649685E+00 -0.7728661194272E+00
-0.3021790677044E+00 -0.1645923206272E+01 -0.9156080664467E+00 -0.8484965451707E+00
-0.1757487078712E+01 -0.2468374480017E+01 -0.1986154927565E+01 -0.1202470416836E+01
-0.1295879617100E+01 -0.2578352291816E+01 -0.1820888992572E+01 -0.1099561212065E+01
-0.8930796322978E+00 -0.2609889009774E+01 -0.1646395257598E+01 -0.9240470245362E+00
-0.5748330085962E+00 -0.2566820281085E+01 -0.1476577042405E+01 -0.7363931967607E+00
-0.3411566407095E+00 -0.2473649710885E+01 -0.1322958981894E+01 -0.5743641343176E+00
-0.1777859027041E+00 -0.2358168880969E+01 -0.1191898745303E+01 -0.4533015512072E+00
-0.6747630354176E-01 -0.2241178213064E+01 -0.1085067620052E+01 -0.3746319105628E+00
 0.5489708672481E-02 -0.2133947700052E+01 -0.1000375253411E+01 -0.3326306815494E+00
 0.5306544603578E-01 -0.2040077927032E+01 -0.9338958636996E+00 -0.3194330034378E+00
 0.8310564428290E-01 -0.1958678480069E+01 -0.8815192305838E+00 -0.3277133360507E+00
 0.1002417380538E+00 -0.1886675691909E+01 -0.8396239561825E+00 -0.3514372318380E+00
 0.1070352146307E+00 -0.1819825684472E+01 -0.8050115187836E+00 -0.3857424826165E+00
 0.1016849963810E+00 -0.1759124489528E+01 -0.7789965598032E+00 -0.4290577654582E+00
 0.8470718967214E-01 -0.1710511309742E+01 -0.7641279344945E+00 -0.4801587326199E+00
 0.5712507074930E-01 -0.1678061351516E+01 -0.7618400500282E+00 -0.5376049725173E+00
 0.1792419998951E-01 -0.1664059694560E+01 -0.7736836804858E+00 -0.6009687920773E+00
-0.3304099656308E-01 -0.1670892487083E+01 -0.8008487352824E+00 -0.6695910181971E+00
-0.9676855361723E-01 -0.1700663448912E+01 -0.8447930390460E+00 -0.7424274591126E+00
-0.1751002224798E+00 -0.1758843260156E+01 -0.9089534345334E+00 -0.8176452130028E+00
-0.2695419816759E+00 -0.1859733029706E+01 -0.1000759252811E+01 -0.8918307551872E+00
-0.1763184616019E+01 -0.2434111535925E+01 -0.1972729186410E+01 -0.1158607472775E+01
-0.1340187434631E+01 -0.2541176719505E+01 -0.1824241147817E+01 -0.1076170755288E+01
-0.9570772792236E+00 -0.2588717192463E+01 -0.1666523397466E+01 -0.9284896160308E+00
-0.6434920167681E+00 -0.2573990806107E+01 -0.1512216922916E+01 -0.7643384094667E+00
-0.4036180932308E+00 -0.2512771679199E+01 -0.1370703189566E+01 -0.6165866302291E+00
-0.2279974046819E+00 -0.2426152705531E+01 -0.1247450548636E+01 -0.5009692137270E+00
-0.1033111650492E+00 -0.2331997337772E+01 -0.1144594993423E+01 -0.4216030689221E+00
-0.1649219194707E-01 -0.2241748459171E+01 -0.1061373103334E+01 -0.3757682448334E+00
 0.4309513736405E-01 -0.2160691825597E+01 -0.9952704409450E+00 -0.3578551808523E+00
 0.8298741227766E-01 -0.2089789885626E+01 -0.9431971600812E+00 -0.3618440750258E+00
 0.1080272093976E+00 -0.2027387119022E+01 -0.9020991552356E+00 -0.3822961670619E+00
 0.1211145410223E+00 -0.1970199212655E+01 -0.8690697934632E+00 -0.4145531157187E+00
 0.1207274027251E+00 -0.1919179094784E+01 -0.8452722931239E+00 -0.4571493664155E+00
 0.1077097367373E+00 -0.1879784157145E+01 -0.8328749754793E+00 -0.5087081252676E+00
 0.8358019367142E-01 -0.1855968352573E+01 -0.8330224325711E+00 -0.5673670261109E+00
 0.4762797067997E-01 -0.1850029873711E+01 -0.8471288922759E+00 -0.6322219882290E+00
-0.1812362712101E-03 -0.1864299197447E+01 -0.8763058016249E+00 -0.7021437441968E+00
-0.6101184967212E-01 -0.1900623696073E+01 -0.9219687041619E+00 -0.7757144109930E+00
-0.1370885605987E+00 -0.1963472879942E+01 -0.9872638745500E+00 -0.8506858243023E+00
-0.2301653701018E+00 -0.2064724533940E+01 -0.1078598252164E+01 -0.9229095214934E+00
-0.1771459098146E+01 -0.2411030742935E+01 -0.1965770220322E+01 -0.1117201896159E+01
-0.1380029824670E+01 -0.2514855527997E+01 -0.1830596111110E+01 -0.1049449415988E+01
-0.1015100099163E+01 -0.2573516923891E+01 -0.1686649996558E+01 -0.9246068929799E+00
-0.7072988691491E+00 -0.2580595613140E+01 -0.1545310402756E+01 -0.7814990795414E+00
-0.4635941386675E+00 -0.2545792059345E+01 -0.1414411509478E+01 -0.6481979424115E+00
-0.2782415743859E+00 -0.2484884707790E+01 -0.1298669349329E+01 -0.5398421317829E+00
-0.1411445991605E+00 -0.2412769793750E+01 -0.1200339761623E+01 -0.4620721897511E+00
-0.4158141091493E-01 -0.2340231479693E+01 -0.1119452055746E+01 -0.4143459574746E+00
 0.2972639205192E-01 -0.2273325172216E+01 -0.1054491424003E+01 -0.3929580594795E+00
 0.7977161905921E-01 -0.2214260344942E+01 -0.1003209698620E+01 -0.3931847234329E+00
 0.1133561698119E+00 -0.2162540405017E+01 -0.9631165881035E+00 -0.4103263570851E+00
 0.1335406985054E+00 -0.2115801929484E+01 -0.9316627761970E+00 -0.4400915149073E+00
 0.1390848833518E+00 -0.2075008772215E+01 -0.9098842254581E+00 -0.4811510004232E+00
 0.1310706245079E+00 -0.2045159185939E+01 -0.8996216215910E+00 -0.5320419019694E+00
 0.1113925695754E+00 -0.2030043352288E+01 -0.9017658655876E+00 -0.5906099759841E+00
 0.7963678370728E-01 -0.2031910546622E+01 -0.9175686662426E+00 -0.6555818176728E+00
 0.3586952439790E-01 -0.2052938289164E+01 -0.9480223170354E+00 -0.7254876831372E+00
-0.2122776464411E-01 -0.2094627238168E+01 -0.9944518487992E+00 -0.7986905151647E+00
-0.9432086469904E-01 -0.2160395245661E+01 -0.1059716569181E+01 -0.8727269014020E+00
-0.1857544884651E+00 -0.2259778554253E+01 -0.1149400527162E+01 -0.9429043669831E+00
-0.1781718451269E+01 -0.2396721416239E+01 -0.1963866732747E+01 -0.1077720501163E+01
-0.1416157502851E+01 -0.2497412952787E+01 -0.1839378109485E+01 -0.1020426542976E+01
-0.1067817709599E+01 -0.2563865082937E+01 -0.1706890908163E+01 -0.9142538786184E+00
-0.7664756179270E+00 -0.2587825245278E+01 -0.1576521401708E+01 -0.7896934275594E+00
-0.5207948763449E+00 -0.2574805390081E+01 -0.1454932121530E+01 -0.6703523762055E+00
-0.3278508451220E+00 -0.2536455152043E+01 -0.1346223815253E+01 -0.5702206691883E+00
-0.1801720592823E+00 -0.2484962083051E+01 -0.1252613043719E+01 -0.4956533444242E+00
-0.6907597416067E-01 -0.2430057757120E+01 -0.1174592850723E+01 -0.4476089576859E+00
 0.1340557178499E-01 -0.2377958714809E+01 -0.1111339974403E+01 -0.4239042383044E+00
 0.7360393491225E-01 -0.2331615212968E+01 -0.1061265297994E+01 -0.4209923416532E+00
 0.1161017756518E+00 -0.2291391925678E+01 -0.1022386367919E+01 -0.4349515326690E+00
 0.1439626260062E+00 -0.2255721682294E+01 -0.9925267539378E+00 -0.4619542957175E+00
 0.1562025526297E+00 -0.2225562404296E+01 -0.9725991278162E+00 -0.5008270207813E+00
 0.1540487536705E+00 -0.2205435596519E+01 -0.9641518136932E+00 -0.5500844485954E+00
 0.1396517531303E+00 -0.2198911674272E+01 -0.9678521604817E+00 -0.6074067894481E+00
 0.1128792179677E+00 -0.2208149380606E+01 -0.9847769739423E+00 -0.6712664537888E+00
 0.7389888009104E-01 -0.2235145176656E+01 -0.1015785756809E+01 -0.7399960822409E+00
 0.2127075218245E-01 -0.2281064483602E+01 -0.1062103051073E+01 -0.8119145866631E+00
-0.4814873574374E-01 -0.2348310484614E+01 -0.1126335830711E+01 -0.8845766008833E+00
-0.1376821522226E+00 -0.2444164953620E+01 -0.1213468136668E+01 -0.9529485501610E+00
-0.1793550014553E+01 -0.2389366322790E+01 -0.1965970673565E+01 -0.1039697155434E+01
-0.1449216745257E+01 -0.2487251056677E+01 -0.1850139862216E+01 -0.9897826097597E+00
-0.1115862303540E+01 -0.2559210053763E+01 -0.1727284003551E+01 -0.8988209381553E+00
-0.8213067509913E+00 -0.2596323744600E+01 -0.1606286328854E+01 -0.7904179097948E+00
-0.5750813450148E+00 -0.2601257241232E+01 -0.1492879131750E+01 -0.6841558982325E+00
-0.3763507311708E+00 -0.2582500176100E+01 -0.1390659922890E+01 -0.5925996914508E+00
-0.2197574739565E+00 -0.2549896986348E+01 -0.1301737593041E+01 -0.5222716822089E+00
-0.9836508189709E-01 -0.2511993948776E+01 -0.1226868741305E+01 -0.4751024340114E+00
-0.5421290901943E-02 -0.2474795284454E+01 -0.1165701787461E+01 -0.4500737299949E+00
 0.6469824621223E-01 -0.2441608954530E+01 -0.1117148030076E+01 -0.4446478415401E+00
 0.1162394013093E+00 -0.2413383112794E+01 -0.1079657541659E+01 -0.4556514184781E+00
 0.1521395231211E+00 -0.2389185008263E+01 -0.1051411375350E+01 -0.4797637615164E+00
 0.1716288282648E+00 -0.2369906932795E+01 -0.1033190706509E+01 -0.5159727555748E+00
 0.1759889566646E+00 -0.2359540390092E+01 -0.1026269171108E+01 -0.5628254812973E+00
 0.1675076906167E+00 -0.2361359814281E+01 -0.1031110495507E+01 -0.6179454809679E+00
 0.1463239718032E+00 -0.2377393760335E+01 -0.1048602797950E+01 -0.6796495249761E+00
 0.1127326212899E+00 -0.2409489924819E+01 -0.1079475929921E+01 -0.7462000763327E+00
 0.6524653500781E-01 -0.2458588323687E+01 -0.1124870637826E+01 -0.8160491155699E+00
 0.2495907751552E-03 -0.2526207676984E+01 -0.1187200297507E+01 -0.8870483003168E+00
-0.8701550323017E-01 -0.2617432585295E+01 -0.1271090598383E+01 -0.9540898216819E+00
-0.1806646901667E+01 -0.2387557280390E+01 -0.1971275960567E+01 -0.1002732471314E+01
-0.1479752448768E+01 -0.2483057172689E+01 -0.1862520517360E+01 -0.9579631619661E+00
-0.1159819308332E+01 -0.2558955404734E+01 -0.1747824110708E+01 -0.8793556639193E+00
-0.8721162775861E+00 -0.2606386106522E+01 -0.1634896116384E+01 -0.7848988132791E+00
-0.6264293944333E+00 -0.2626122608119E+01 -0.1528699437322E+01 -0.6906250961537E+00
-0.4234210327483E+00 -0.2624267035375E+01 -0.1432413388385E+01 -0.6075707207496E+00
-0.2594109311360E+00 -0.2608703935747E+01 -0.1348013984016E+01 -0.5420662712094E+00
-0.1289351393213E+00 -0.2586808491289E+01 -0.1276399503149E+01 -0.4966146846621E+00
-0.2633832367961E-01 -0.2564164899495E+01 -0.1217536511804E+01 -0.4710542065278E+00
 0.5329915353851E-01 -0.2544169350460E+01 -0.1170708989584E+01 -0.4636774029318E+00
 0.1138174801545E+00 -0.2528122356734E+01 -0.1134723289114E+01 -0.4719920468639E+00
 0.1579286386554E+00 -0.2515563075838E+01 -0.1108088182665E+01 -0.4931891772033E+00
 0.1850266117331E+00 -0.2507244428964E+01 -0.1091442371330E+01 -0.5264164293972E+00
 0.1963493350607E+00 -0.2506562321366E+01 -0.1085800100809E+01 -0.5703037467415E+00
 0.1942086490885E+00 -0.2516381999550E+01 -0.1091421471949E+01 -0.6225052647173E+00
 0.1790025614645E+00 -0.2538542896412E+01 -0.1108983954613E+01 -0.6812422820681E+00
 0.1512395519004E+00 -0.2574785719873E+01 -0.1139066696058E+01 -0.7447777772184E+00
 0.1095125939610E+00 -0.2626058453989E+01 -0.1182776551213E+01 -0.8118416969035E+00
 0.4983540467263E-01 -0.2693253490330E+01 -0.1242406497108E+01 -0.8809177290043E+00
-0.3452514404825E-01 -0.2779306773371E+01 -0.1322500997833E+01 -0.9472494243985E+00
-0.1820765115680E+01 -0.2390173999813E+01 -0.1979141379262E+01 -0.9664887195396E+00
-0.1508217084084E+01 -0.2483736525181E+01 -0.1876218191595E+01 -0.9252529651913E+00
-0.1200221874323E+01 -0.2562503481292E+01 -0.1768480912653E+01 -0.8566489896523E+00
-0.9192483143254E+00 -0.2618084518928E+01 -0.1662546427412E+01 -0.7741386474806E+00
-0.6748995598585E+00 -0.2650036744508E+01 -0.1562720059088E+01 -0.6906725846065E+00
-0.4688642379267E+00 -0.2662684412250E+01 -0.1471827861850E+01 -0.6157611832882E+00
-0.2987674620420E+00 -0.2662311377651E+01 -0.1391707051126E+01 -0.5553174612294E+00
-0.1603677568911E+00 -0.2655212527375E+01 -0.1323322730248E+01 -0.5121228191422E+00
-0.4897676957922E-01 -0.2646454296232E+01 -0.1266852597718E+01 -0.4866178902621E+00
 0.3965419948535E-01 -0.2639343660128E+01 -0.1221854043403E+01 -0.4777564599725E+00
 0.1089284523150E+00 -0.2635356429712E+01 -0.1187421146365E+01 -0.4836435822853E+00
 0.1612645788858E+00 -0.2634360347857E+01 -0.1162355008468E+01 -0.5019626422945E+00
 0.1961679968691E+00 -0.2636909329815E+01 -0.1147148423575E+01 -0.5320176062593E+00
 0.2147380667779E+00 -0.2645745340801E+01 -0.1142573415893E+01 -0.5725782043954E+00
 0.2191396497814E+00 -0.2663226647037E+01 -0.1148720885796E+01 -0.6214173499629E+00
 0.2100549826656E+00 -0.2690810930957E+01 -0.1165955292739E+01 -0.6766734464802E+00
 0.1883084545631E+00 -0.2730163967103E+01 -0.1194672087864E+01 -0.7365741352570E+00
 0.1528948475185E+00 -0.2782485938075E+01 -0.1235907809427E+01 -0.8001546372547E+00
 0.9964426723841E-01 -0.2848659194307E+01 -0.1292037012445E+01 -0.8669076147384E+00
 0.1934604439824E-01 -0.2929548649087E+01 -0.1367795220734E+01 -0.9331747148656E+00
-0.1835697671386E+01 -0.2396300514655E+01 -0.1989039142395E+01 -0.9306830997760E+00
-0.1534980496968E+01 -0.2488360593308E+01 -0.1890970307633E+01 -0.8918242692667E+00
-0.1237550471323E+01 -0.2569281000176E+01 -0.1789210787066E+01 -0.8312963999612E+00
-0.9630506191099E+00 -0.2631350464472E+01 -0.1689368504999E+01 -0.7589557248565E+00
-0.7206127948343E+00 -0.2673391387493E+01 -0.1595181961648E+01 -0.6851063414870E+00
-0.5125783780887E+00 -0.2698425636182E+01 -0.1509171882880E+01 -0.6177978544140E+00
-0.3375673527803E+00 -0.2711460140755E+01 -0.1433042918327E+01 -0.5623942612231E+00
-0.1923332767501E+00 -0.2717831403948E+01 -0.1367777396459E+01 -0.5217459498851E+00
-0.7302277187946E-01 -0.2722059299860E+01 -0.1313688570386E+01 -0.4966936284520E+00
 0.2399440344154E-01 -0.2727254529159E+01 -0.1270532255865E+01 -0.4867028719375E+00
 0.1016836624819E+00 -0.2734939694898E+01 -0.1237630332097E+01 -0.4903887082914E+00
 0.1621290650627E+00 -0.2745197627865E+01 -0.1214042221438E+01 -0.5058923254103E+00
 0.2049126575583E+00 -0.2758345453580E+01 -0.1200113411086E+01 -0.5326685818697E+00
 0.2309064413042E+00 -0.2776461227645E+01 -0.1196410746546E+01 -0.5696938020999E+00
 0.2419565947084E+00 -0.2801313443547E+01 -0.1202897715903E+01 -0.6149789535040E+00
 0.2387407734242E+00 -0.2833903331838E+01 -0.1219726399361E+01 -0.6666352510906E+00
 0.2229016077849E+00 -0.2875192745952E+01 -0.1246576831777E+01 -0.7226401583830E+00
 0.1940660224744E+00 -0.2927162635816E+01 -0.1284555405012E+01 -0.7820874545372E+00
 0.1487406895887E+00 -0.2991406438294E+01 -0.1336052898503E+01 -0.8457357646047E+00
 0.7454372040837E-01 -0.3067730190363E+01 -0.1406797637311E+01 -0.9123574976721E+00
-0.1851247396264E+01 -0.2405151217211E+01 -0.2000507343259E+01 -0.8950789740938E+00
-0.1560347876889E+01 -0.2496136633081E+01 -0.1906547714850E+01 -0.8577660647938E+00
-0.1272228507014E+01 -0.2578749572698E+01 -0.1809959692874E+01 -0.8037410458843E+00
-0.1003868652846E+01 -0.2646039654691E+01 -0.1715456900191E+01 -0.7400178125970E+00
-0.7637248961485E+00 -0.2696398178703E+01 -0.1626257841056E+01 -0.6746369798567E+00
-0.5545359947390E+00 -0.2731963955327E+01 -0.1544654972613E+01 -0.6142853416456E+00
-0.3756381526229E+00 -0.2756726051728E+01 -0.1472211172311E+01 -0.5637171399587E+00
-0.2245805796573E+00 -0.2775194216404E+01 -0.1409894150573E+01 -0.5257067678813E+00
-0.9822040471306E-01 -0.2791357620310E+01 -0.1358101668316E+01 -0.5013389748652E+00
 0.6523969259588E-02 -0.2808065586897E+01 -0.1316724556950E+01 -0.4904641045528E+00
 0.9219310643009E-01 -0.2826808566493E+01 -0.1285269262970E+01 -0.4921241308011E+00
 0.1605241152167E+00 -0.2847792110404E+01 -0.1263015954535E+01 -0.5048747233423E+00
 0.2111542132309E+00 -0.2871093156713E+01 -0.1250171300266E+01 -0.5283088160760E+00
 0.2447113305056E+00 -0.2898139283817E+01 -0.1247111134893E+01 -0.5616696099275E+00
 0.2625280360970E+00 -0.2930161952871E+01 -0.1253787937704E+01 -0.6033512670256E+00
 0.2650461907200E+00 -0.2967586462401E+01 -0.1270193924468E+01 -0.6516306330063E+00
 0.2536428217392E+00 -0.3010873302244E+01 -0.1295898322551E+01 -0.7042440830472E+00
 0.2316752158368E+00 -0.3059700650147E+01 -0.1329171950754E+01 -0.7592590948489E+00
 0.1957331457625E+00 -0.3120277878789E+01 -0.1374536021036E+01 -0.8183622314890E+00
 0.1318709424542E+00 -0.3192321732883E+01 -0.1438411867853E+01 -0.8849703246363E+00
-0.1867233957080E+01 -0.2416034486294E+01 -0.2013136163279E+01 -0.8594813175023E+00
-0.1584521599157E+01 -0.2506321160972E+01 -0.1922696092384E+01 -0.8230911045099E+00
-0.1304684507106E+01 -0.2590499611416E+01 -0.1830736531062E+01 -0.7743024938176E+00
-0.1041999827432E+01 -0.2661933123885E+01 -0.1740848482704E+01 -0.7178780941133E+00
-0.8044188905100E+00 -0.2719144464857E+01 -0.1656074772822E+01 -0.6598862907795E+00
-0.5947639170796E+00 -0.2763615710237E+01 -0.1578438420835E+01 -0.6057942263585E+00
-0.4128779269604E+00 -0.2798545236713E+01 -0.1509368883098E+01 -0.5597319183165E+00
-0.2569295385488E+00 -0.2827738523867E+01 -0.1449793985658E+01 -0.5243016194908E+00
-0.1243618073360E+00 -0.2854686293183E+01 -0.1400152603693E+01 -0.5007134156177E+00
-0.1259426569829E-01 -0.2881970729355E+01 -0.1360445544224E+01 -0.4891023445072E+00
 0.8056104321613E-01 -0.2910951441183E+01 -0.1330283483670E+01 -0.4888573426548E+00
 0.1564516762827E+00 -0.2941944056206E+01 -0.1309181415243E+01 -0.4989027697619E+00
 0.2147847683643E+00 -0.2974776670869E+01 -0.1297196190887E+01 -0.5189517491746E+00
 0.2559707426702E+00 -0.3010275783694E+01 -0.1294523365998E+01 -0.5485431573112E+00
 0.2808491759735E+00 -0.3049168051851E+01 -0.1301109868363E+01 -0.5865589907602E+00
 0.2892229480338E+00 -0.3091626695567E+01 -0.1317129758000E+01 -0.6316876536235E+00
 0.2819911173726E+00 -0.3137240194661E+01 -0.1341967062922E+01 -0.6819423169092E+00
 0.2604953498297E+00 -0.3185982118442E+01 -0.1374978777760E+01 -0.7344741323502E+00
 0.2401172709681E+00 -0.3231489335817E+01 -0.1405944866913E+01 -0.7870532072146E+00
 0.1929956327635E+00 -0.3299356660626E+01 -0.1459989679392E+01 -0.8504653273746E+00
-0.1882840713772E+01 -0.2427565975990E+01 -0.2025891139050E+01 -0.8236227523146E+00
-0.1608106247500E+01 -0.2518839901961E+01 -0.1939664685327E+01 -0.7876706861916E+00
-0.1335110184775E+01 -0.2604036393718E+01 -0.1851398887196E+01 -0.7432493138519E+00
-0.1077739536991E+01 -0.2678797222361E+01 -0.1765572272418E+01 -0.6929962967021E+00
-0.8428843074307E+00 -0.2741621177779E+01 -0.1684717573775E+01 -0.6413969864460E+00
-0.6333286535190E+00 -0.2793576822766E+01 -0.1610645569769E+01 -0.5928545695708E+00
-0.4492410657691E+00 -0.2837240660841E+01 -0.1544646407589E+01 -0.5508914441638E+00
-0.2892568387405E+00 -0.2875817301883E+01 -0.1487584842320E+01 -0.5178774371667E+00
-0.1512997572674E+00 -0.2912349814242E+01 -0.1439915294957E+01 -0.4950577774991E+00
-0.3319052905514E-01 -0.2949133224871E+01 -0.1401692160790E+01 -0.4827706034861E+00
 0.6681457401175E-01 -0.2987476167802E+01 -0.1372710945600E+01 -0.4807070213808E+00
 0.1499467400482E+00 -0.3027462168982E+01 -0.1352432248169E+01 -0.4880729732640E+00
 0.2157097420280E+00 -0.3069079020646E+01 -0.1341083557549E+01 -0.5046901618256E+00
 0.2643952475545E+00 -0.3112500900441E+01 -0.1338609653461E+01 -0.5304515238335E+00
 0.2965957780302E+00 -0.3157766074676E+01 -0.1344750036013E+01 -0.5646872909376E+00
 0.3116494981619E+00 -0.3205028011473E+01 -0.1359887897807E+01 -0.6065675024088E+00
 0.3089238868994E+00 -0.3254268199012E+01 -0.1384311823182E+01 -0.6548092294240E+00
 0.2892801561235E+00 -0.3303658573874E+01 -0.1416757852749E+01 -0.7075135073564E+00
 0.2536422214566E+00 -0.3355089374046E+01 -0.1457680158020E+01 -0.7603036491238E+00
 0.2805185672630E+00 -0.3355194683491E+01 -0.1445097770962E+01 -0.8120280295039E+00
-0.1882840708489E+01 -0.2427565970620E+01 -0.2025891134043E+01  0.8236227648365E+00
-0.1608106242476E+01 -0.2518839896919E+01 -0.1939664680596E+01  0.7876706970624E+00
-0.1335110179823E+01 -0.2604036388867E+01 -0.1851398882589E+01  0.7432493225142E+00
-0.1077739532401E+01 -0.2678797217503E+01 -0.1765572267977E+01  0.6929963031188E+00
-0.8428843035274E+00 -0.2741621172818E+01 -0.1684717569609E+01  0.6413969909090E+00
-0.6333286504981E+00 -0.2793576817763E+01 -0.1610645565998E+01  0.5928545725036E+00
-0.4492410636700E+00 -0.2837240655970E+01 -0.1544646404313E+01  0.5508914459891E+00
-0.2892568374700E+00 -0.2875817297357E+01 -0.1487584839596E+01  0.5178774382326E+00
-0.1512997566452E+00 -0.2912349810241E+01 -0.1439915292784E+01  0.4950577780528E+00
-0.3319052886770E-01 -0.2949133221492E+01 -0.1401692159114E+01  0.4827706036837E+00
 0.6681457396058E-01 -0.2987476165057E+01 -0.1372710944334E+01  0.4807070213259E+00
 0.1499467399014E+00 -0.3027462166831E+01 -0.1352432247227E+01  0.4880729730306E+00
 0.2157097419529E+00 -0.3069079018946E+01 -0.1341083556785E+01  0.5046901614229E+00
 0.2643952475252E+00 -0.3112500899043E+01 -0.1338609652818E+01  0.5304515232926E+00
 0.2965957780361E+00 -0.3157766073443E+01 -0.1344750035431E+01  0.5646872903004E+00
 0.3116494982122E+00 -0.3205028010283E+01 -0.1359887897224E+01  0.6065675017124E+00
 0.3089238869704E+00 -0.3254268197780E+01 -0.1384311822569E+01  0.6548092287039E+00
 0.2892801562110E+00 -0.3303658572519E+01 -0.1416757852071E+01  0.7075135066289E+00
 0.2536422214355E+00 -0.3355089372493E+01 -0.1457680157300E+01  0.7603036483825E+00
 0.2805185661653E+00 -0.3355194682555E+01 -0.1445097771038E+01  0.8120280286613E+00
-0.1867233952203E+01 -0.2416034481594E+01 -0.2013136158778E+01  0.8594813293001E+00
-0.1584521594294E+01 -0.2506321156566E+01 -0.1922696088027E+01  0.8230911147051E+00
-0.1304684502191E+01 -0.2590499607119E+01 -0.1830736526733E+01  0.7743025017751E+00
-0.1041999822851E+01 -0.2661933119438E+01 -0.1740848478460E+01  0.7178780998174E+00
-0.8044188866533E+00 -0.2719144460150E+01 -0.1656074768797E+01  0.6598862945680E+00
-0.5947639141698E+00 -0.2763615705352E+01 -0.1578438417172E+01  0.6057942286926E+00
-0.4128779250359E+00 -0.2798545231863E+01 -0.1509368879914E+01  0.5597319196369E+00
-0.2569295375000E+00 -0.2827738519307E+01 -0.1449793983022E+01  0.5243016201441E+00
-0.1243618069613E+00 -0.2854686289127E+01 -0.1400152601610E+01  0.5007134158369E+00
-0.1259426576606E-01 -0.2881970725923E+01 -0.1360445542643E+01  0.4891023444309E+00
 0.8056104290957E-01 -0.2910951438393E+01 -0.1330283482503E+01  0.4888573423708E+00
 0.1564516759070E+00 -0.2941944053989E+01 -0.1309181414378E+01  0.4989027693208E+00
 0.2147847680950E+00 -0.2974776669067E+01 -0.1297196190167E+01  0.5189517485580E+00
 0.2559707424977E+00 -0.3010275782062E+01 -0.1294523365312E+01  0.5485431565483E+00
 0.2808491758804E+00 -0.3049168050210E+01 -0.1301109867635E+01  0.5865589898889E+00
 0.2892229480197E+00 -0.3091626693771E+01 -0.1317129757163E+01  0.6316876526867E+00
 0.2819911173934E+00 -0.3137240192597E+01 -0.1341967061942E+01  0.6819423159548E+00
 0.2604953498239E+00 -0.3185982116022E+01 -0.1374978776625E+01  0.7344741314146E+00
 0.2401172706327E+00 -0.3231489333051E+01 -0.1405944865771E+01  0.7870532062811E+00
 0.1929956323146E+00 -0.3299356657417E+01 -0.1459989678095E+01  0.8504653263502E+00
-0.1851247391837E+01 -0.2405151213295E+01 -0.2000507339338E+01  0.8950789852126E+00
-0.1560347872179E+01 -0.2496136629427E+01 -0.1906547710919E+01  0.8577660743395E+00
-0.1272228502111E+01 -0.2578749569039E+01 -0.1809959688850E+01  0.8037410531477E+00
-0.1003868648253E+01 -0.2646039650716E+01 -0.1715456896165E+01  0.7400178175905E+00
-0.7637248923213E+00 -0.2696398174297E+01 -0.1626257837186E+01  0.6746369829737E+00
-0.5545359919236E+00 -0.2731963950602E+01 -0.1544654969069E+01  0.6142853433895E+00
-0.3756381508525E+00 -0.2756726046945E+01 -0.1472211169231E+01  0.5637171407880E+00
-0.2245805788035E+00 -0.2775194211866E+01 -0.1409894148039E+01  0.5257067681390E+00
-0.9822040455260E-01 -0.2791357616265E+01 -0.1358101666340E+01  0.5013389747673E+00
 0.6523968976499E-02 -0.2808065583485E+01 -0.1316724555479E+01  0.4904641042166E+00
 0.9219310592117E-01 -0.2826808563732E+01 -0.1285269261911E+01  0.4921241302942E+00
 0.1605241146573E+00 -0.2847792108217E+01 -0.1263015953770E+01  0.5048747226935E+00
 0.2111542128341E+00 -0.2871093154885E+01 -0.1250171299593E+01  0.5283088152342E+00
 0.2447113302508E+00 -0.2898139282038E+01 -0.1247111134177E+01  0.5616696089171E+00
 0.2625280359592E+00 -0.2930161950907E+01 -0.1253787936846E+01  0.6033512658863E+00
 0.2650461906847E+00 -0.2967586460070E+01 -0.1270193923389E+01  0.6516306317875E+00
 0.2536428217330E+00 -0.3010873299393E+01 -0.1295898321213E+01  0.7042440818071E+00
 0.2316752157767E+00 -0.3059700646644E+01 -0.1329171949136E+01  0.7592590936137E+00
 0.1957331456031E+00 -0.3120277874457E+01 -0.1374536019075E+01  0.8183622302133E+00
 0.1318709424459E+00 -0.3192321727594E+01 -0.1438411865371E+01  0.8849703233921E+00
-0.1835697667449E+01 -0.2396300511622E+01 -0.1989039139118E+01  0.9306831102657E+00
-0.1534980492402E+01 -0.2488360590511E+01 -0.1890970304173E+01  0.8918242781807E+00
-0.1237550466409E+01 -0.2569280997236E+01 -0.1789210783375E+01  0.8312964065318E+00
-0.9630506144849E+00 -0.2631350461023E+01 -0.1689368501204E+01  0.7589557291372E+00
-0.7206127910214E+00 -0.2673391383424E+01 -0.1595181957943E+01  0.6851063439357E+00
-0.5125783753534E+00 -0.2698425631651E+01 -0.1509171879464E+01  0.6177978555796E+00
-0.3375673511461E+00 -0.2711460136081E+01 -0.1433042915362E+01  0.5623942615803E+00
-0.1923332760672E+00 -0.2717831399485E+01 -0.1367777394040E+01  0.5217459497694E+00
-0.7302277190134E-01 -0.2722059295893E+01 -0.1313688568531E+01  0.4966936280586E+00
 0.2399440298419E-01 -0.2727254525840E+01 -0.1270532254520E+01  0.4867028713585E+00
 0.1016836618161E+00 -0.2734939692249E+01 -0.1237630331164E+01  0.4903887075724E+00
 0.1621290643730E+00 -0.2745197625796E+01 -0.1214042220789E+01  0.5058923245568E+00
 0.2049126570892E+00 -0.2758345451818E+01 -0.1200113410479E+01  0.5326685807970E+00
 0.2309064410228E+00 -0.2776461225807E+01 -0.1196410745814E+01  0.5696938008255E+00
 0.2419565945768E+00 -0.2801313441345E+01 -0.1202897714930E+01  0.6149789520673E+00
 0.2387407734156E+00 -0.2833903329038E+01 -0.1219726398049E+01  0.6666352495425E+00
 0.2229016078210E+00 -0.2875192742344E+01 -0.1246576830064E+01  0.7226401567769E+00
 0.1940660225396E+00 -0.2927162631191E+01 -0.1284555402808E+01  0.7820874528837E+00
 0.1487406897174E+00 -0.2991406432425E+01 -0.1336052895684E+01  0.8457357628992E+00
 0.7454372080503E-01 -0.3067730182991E+01 -0.1406797633659E+01  0.9123574961125E+00
-0.1820765112266E+01 -0.2390173997760E+01 -0.1979141376692E+01  0.9664887294528E+00
-0.1508217079646E+01 -0.2483736523338E+01 -0.1876218188644E+01  0.9252529734867E+00
-0.1200221869377E+01 -0.2562503479142E+01 -0.1768480909318E+01  0.8566489955241E+00
-0.9192483096509E+00 -0.2618084516048E+01 -0.1662546423862E+01  0.7741386510422E+00
-0.6748995560481E+00 -0.2650036740803E+01 -0.1562720055556E+01  0.6906725863904E+00
-0.4688642352609E+00 -0.2662684407938E+01 -0.1471827858570E+01  0.6157611838912E+00
-0.2987674605305E+00 -0.2662311373121E+01 -0.1391707048286E+01  0.5553174611388E+00
-0.1603677563587E+00 -0.2655212523039E+01 -0.1323322727961E+01  0.5121228186808E+00
-0.4897676975365E-01 -0.2646454292408E+01 -0.1266852596003E+01  0.4866178895991E+00
 0.3965419889199E-01 -0.2639343656980E+01 -0.1221854042202E+01  0.4777564591712E+00
 0.1089284515378E+00 -0.2635356427258E+01 -0.1187421145577E+01  0.4836435813679E+00
 0.1612645781166E+00 -0.2634360345996E+01 -0.1162355007955E+01  0.5019626412428E+00
 0.1961679963801E+00 -0.2636909328213E+01 -0.1147148423052E+01  0.5320176049544E+00
 0.2147380665207E+00 -0.2645745338998E+01 -0.1142573415166E+01  0.5725782028452E+00
 0.2191396497095E+00 -0.2663226644685E+01 -0.1148720884725E+01  0.6214173482016E+00
 0.2100549827508E+00 -0.2690810927766E+01 -0.1165955291200E+01  0.6766734445523E+00
 0.1883084547450E+00 -0.2730163962800E+01 -0.1194672085756E+01  0.7365741332082E+00
 0.1528948478225E+00 -0.2782485932400E+01 -0.1235907806617E+01  0.8001546350993E+00
 0.9964426773441E-01 -0.2848659186952E+01 -0.1292037008755E+01  0.8669076125253E+00
 0.1934604521710E-01 -0.2929548639620E+01 -0.1367795215900E+01  0.9331747128708E+00
-0.1806646898807E+01 -0.2387557279410E+01 -0.1971275958763E+01  0.1002732480704E+01
-0.1479752444442E+01 -0.2483057171891E+01 -0.1862520514952E+01  0.9579631696497E+00
-0.1159819303333E+01 -0.2558955403436E+01 -0.1747824107748E+01  0.8793556690797E+00
-0.8721162728486E+00 -0.2606386104241E+01 -0.1634896113085E+01  0.7848988161118E+00
-0.6264293906186E+00 -0.2626122604792E+01 -0.1528699433965E+01  0.6906250972775E+00
-0.4234210301471E+00 -0.2624267031298E+01 -0.1432413385246E+01  0.6075707208102E+00
-0.2594109297380E+00 -0.2608703931393E+01 -0.1348013981313E+01  0.5420662707013E+00
-0.1289351389222E+00 -0.2586808487130E+01 -0.1276399501007E+01  0.4966146838882E+00
-0.2633832398042E-01 -0.2564164895880E+01 -0.1217536510246E+01  0.4710542056252E+00
 0.5329915284481E-01 -0.2544169347558E+01 -0.1170708988546E+01  0.4636774019321E+00
 0.1138174793091E+00 -0.2528122354559E+01 -0.1134723288490E+01  0.4719920457644E+00
 0.1579286378552E+00 -0.2515563074274E+01 -0.1108088182306E+01  0.4931891759628E+00
 0.1850266112736E+00 -0.2507244427613E+01 -0.1091442370911E+01  0.5264164278638E+00
 0.1963493348780E+00 -0.2506562319692E+01 -0.1085800100109E+01  0.5703037449098E+00
 0.1942086491337E+00 -0.2516381997146E+01 -0.1091421470798E+01  0.6225052626117E+00
 0.1790025617176E+00 -0.2538542892932E+01 -0.1108983952858E+01  0.6812422797231E+00
 0.1512395523173E+00 -0.2574785714986E+01 -0.1139066693565E+01  0.7447777746741E+00
 0.1095125945938E+00 -0.2626058447376E+01 -0.1182776547807E+01  0.8118416941848E+00
 0.4983540560337E-01 -0.2693253481568E+01 -0.1242406492552E+01  0.8809177262057E+00
-0.3452514276315E-01 -0.2779306761834E+01 -0.1322500991806E+01  0.9472494218414E+00
-0.1793550012277E+01 -0.2389366322978E+01 -0.1965970672583E+01  0.1039697164354E+01
-0.1449216741022E+01 -0.2487251057010E+01 -0.1850139860383E+01  0.9897826168308E+00
-0.1115862298468E+01 -0.2559210053364E+01 -0.1727284000980E+01  0.8988209425843E+00
-0.8213067461822E+00 -0.2596323742930E+01 -0.1606286325809E+01  0.7904179118860E+00
-0.5750813411951E+00 -0.2601257238280E+01 -0.1492879128567E+01  0.6841558987036E+00
-0.3763507286351E+00 -0.2582500172263E+01 -0.1390659919895E+01  0.5925996909953E+00
-0.2197574726684E+00 -0.2549896982196E+01 -0.1301737590485E+01  0.5222716813206E+00
-0.9836508161847E-01 -0.2511993944844E+01 -0.1226868739325E+01  0.4751024329639E+00
-0.5421291304661E-02 -0.2474795281114E+01 -0.1165701786080E+01  0.4500737288868E+00
 0.6469824545259E-01 -0.2441608951950E+01 -0.1117148029220E+01  0.4446478403680E+00
 0.1162394004376E+00 -0.2413383110979E+01 -0.1079657541216E+01  0.4556514172151E+00
 0.1521395223360E+00 -0.2389185007083E+01 -0.1051411375164E+01  0.4797637600994E+00
 0.1716288278804E+00 -0.2369906931786E+01 -0.1033190706215E+01  0.5159727538222E+00
 0.1759889566045E+00 -0.2359540388644E+01 -0.1026269170456E+01  0.5628254791881E+00
 0.1675076908349E+00 -0.2361359811933E+01 -0.1031110494301E+01  0.6179454785132E+00
 0.1463239722910E+00 -0.2377393756690E+01 -0.1048602796008E+01  0.6796495221975E+00
 0.1127326220176E+00 -0.2409489919490E+01 -0.1079475927074E+01  0.7462000732640E+00
 0.6524653604585E-01 -0.2458588316278E+01 -0.1124870633856E+01  0.8160491122438E+00
 0.2495922039252E-03 -0.2526207666934E+01 -0.1187200292112E+01  0.8870482968582E+00
-0.8701550141430E-01 -0.2617432571759E+01 -0.1271090591167E+01  0.9540898184361E+00
-0.1781718449601E+01 -0.2396721417692E+01 -0.1963866732647E+01  0.1077720509665E+01
-0.1416157498685E+01 -0.2497412954332E+01 -0.1839378108253E+01  0.1020426549424E+01
-0.1067817704440E+01 -0.2563865083468E+01 -0.1706890905988E+01  0.9142538822881E+00
-0.7664756130442E+00 -0.2587825244210E+01 -0.1576521398911E+01  0.7896934288948E+00
-0.5207948725271E+00 -0.2574805387484E+01 -0.1454932118515E+01  0.6703523760354E+00
-0.3278508426606E+00 -0.2536455148442E+01 -0.1346223812404E+01  0.5702206682507E+00
-0.1801720581071E+00 -0.2484962079124E+01 -0.1252613041321E+01  0.4956533432008E+00
-0.6907597399450E-01 -0.2430057753462E+01 -0.1174592848925E+01  0.4476089564096E+00
 0.1340557130159E-01 -0.2377958711808E+01 -0.1111339973219E+01  0.4239042370280E+00
 0.7360393411874E-01 -0.2331615210781E+01 -0.1061265297340E+01  0.4209923403368E+00
 0.1161017747932E+00 -0.2291391924299E+01 -0.1022386367674E+01  0.4349515312623E+00
 0.1439626252798E+00 -0.2255721681575E+01 -0.9925267539414E+00  0.4619542941398E+00
 0.1562025523605E+00 -0.2225562403712E+01 -0.9725991276682E+00  0.5008270188264E+00
 0.1540487537729E+00 -0.2205435595392E+01 -0.9641518131156E+00  0.5500844462263E+00
 0.1396517535668E+00 -0.2198911672098E+01 -0.9678521592546E+00  0.6074067866591E+00
 0.1128792187444E+00 -0.2208149376940E+01 -0.9847769718541E+00  0.6712664505844E+00
 0.7389888119193E-01 -0.2235145171054E+01 -0.1015785753659E+01  0.7399960786433E+00
 0.2127075368940E-01 -0.2281064475579E+01 -0.1062103046594E+01  0.8119145827045E+00
-0.4814873375537E-01 -0.2348310473446E+01 -0.1126335824528E+01  0.8845765967004E+00
-0.1376821497950E+00 -0.2444164938216E+01 -0.1213468128287E+01  0.9529485461061E+00
-0.1771459097113E+01 -0.2411030745755E+01 -0.1965770221162E+01  0.1117201904290E+01
-0.1380029820550E+01 -0.2514855530830E+01 -0.1830596110506E+01  0.1049449421790E+01
-0.1015100093905E+01 -0.2573516925367E+01 -0.1686649994780E+01  0.9246068958535E+00
-0.7072988641983E+00 -0.2580595612641E+01 -0.1545310400195E+01  0.7814990801058E+00
-0.4635941348680E+00 -0.2545792057062E+01 -0.1414411506620E+01  0.6481979416185E+00
-0.2782415720167E+00 -0.2484884704410E+01 -0.1298669346627E+01  0.5398421304073E+00
-0.1411445981080E+00 -0.2412769790069E+01 -0.1200339759399E+01  0.4620721882468E+00
-0.4158141085647E-01 -0.2340231476359E+01 -0.1119452054152E+01  0.4143459560197E+00
 0.2972639150676E-01 -0.2273325169620E+01 -0.1054491423039E+01  0.3929580580742E+00
 0.7977161826261E-01 -0.2214260343218E+01 -0.1003209698184E+01  0.3931847220007E+00
 0.1133561690038E+00 -0.2162540404141E+01 -0.9631165880718E+00  0.4103263555561E+00
 0.1335406978761E+00 -0.2115801929298E+01 -0.9316627764050E+00  0.4400915131885E+00
 0.1390848832298E+00 -0.2075008772133E+01 -0.9098842254767E+00  0.4811509982923E+00
 0.1310706248023E+00 -0.2045159185226E+01 -0.8996216211175E+00  0.5320418993730E+00
 0.1113925702642E+00 -0.2030043350404E+01 -0.9017658643784E+00  0.5906099728967E+00
 0.7963678481252E-01 -0.2031910543086E+01 -0.9175686640613E+00  0.6555818140762E+00
 0.3586952591874E-01 -0.2052938283476E+01 -0.9480223136474E+00  0.7254876790332E+00
-0.2122776261643E-01 -0.2094627229747E+01 -0.9944518438887E+00  0.7986905105726E+00
-0.9432086209045E-01 -0.2160395233604E+01 -0.1059716562288E+01  0.8727268964496E+00
-0.1857544853337E+00 -0.2259778537182E+01 -0.1149400517667E+01  0.9429043620128E+00
-0.1763184615650E+01 -0.2434111540222E+01 -0.1972729188256E+01  0.1158607480574E+01
-0.1340187430537E+01 -0.2541176723696E+01 -0.1824241147862E+01  0.1076170760406E+01
-0.9570772738631E+00 -0.2588717194870E+01 -0.1666523396078E+01  0.9284896180621E+00
-0.6434920117645E+00 -0.2573990806114E+01 -0.1512216920567E+01  0.7643384092467E+00
-0.4036180894769E+00 -0.2512771677171E+01 -0.1370703186848E+01  0.6165866288421E+00
-0.2279974024330E+00 -0.2426152702351E+01 -0.1247450546085E+01  0.5009692119708E+00
-0.1033111641367E+00 -0.2331997334362E+01 -0.1144594991391E+01  0.4216030672008E+00
-0.1649219199636E-01 -0.2241748456217E+01 -0.1061373101968E+01  0.3757682432549E+00
 0.4309513677468E-01 -0.2160691823469E+01 -0.9952704402222E+00  0.3578551793584E+00
 0.8298741150609E-01 -0.2089789884427E+01 -0.9431971598805E+00  0.3618440735060E+00
 0.1080272086733E+00 -0.2027387118708E+01 -0.9020991554284E+00  0.3822961654327E+00
 0.1211145405216E+00 -0.1970199213058E+01 -0.8690697938878E+00  0.4145531138828E+00
 0.1207274027707E+00 -0.1919179095268E+01 -0.8452722933299E+00  0.4571493641453E+00
 0.1077097372393E+00 -0.1879784156929E+01 -0.8328749751415E+00  0.5087081224937E+00
 0.8358019462869E-01 -0.1855968351094E+01 -0.8330224314260E+00  0.5673670227835E+00
 0.4762797213433E-01 -0.1850029870463E+01 -0.8471288900659E+00  0.6322219843009E+00
-0.1812343016034E-03 -0.1864299191881E+01 -0.8763057980833E+00  0.7021437396395E+00
-0.6101184708757E-01 -0.1900623687513E+01 -0.9219686989239E+00  0.7757144057973E+00
-0.1370885573175E+00 -0.1963472867288E+01 -0.9872638670604E+00  0.8506858185648E+00
-0.2301653661711E+00 -0.2064724515489E+01 -0.1078598241645E+01  0.9229095155253E+00
-0.1757487079046E+01 -0.2468374485914E+01 -0.1986154930493E+01  0.1202470424335E+01
-0.1295879613015E+01 -0.2578352297425E+01 -0.1820888993288E+01  0.1099561216443E+01
-0.8930796268416E+00 -0.2609889013070E+01 -0.1646395256583E+01  0.9240470256695E+00
-0.5748330035669E+00 -0.2566820281499E+01 -0.1476577040236E+01  0.7363931957482E+00
-0.3411566370410E+00 -0.2473649709029E+01 -0.1322958979297E+01  0.5743641323813E+00
-0.1777859006146E+00 -0.2358168877966E+01 -0.1191898742910E+01  0.4533015491444E+00
-0.6747630279292E-01 -0.2241178209957E+01 -0.1085067618240E+01  0.3746319086995E+00
 0.5489708514654E-02 -0.2133947697537E+01 -0.1000375252303E+01  0.3326306799053E+00
 0.5306544542034E-01 -0.2040077925436E+01 -0.9338958632388E+00  0.3194330018941E+00
 0.8310564356421E-01 -0.1958678479449E+01 -0.8815192306298E+00  0.3277133344700E+00
 0.1002417374412E+00 -0.1886675692201E+01 -0.8396239566077E+00  0.3514372301319E+00
 0.1070352142806E+00 -0.1819825685507E+01 -0.8050115194346E+00  0.3857424806925E+00
 0.1016849966002E+00 -0.1759124490628E+01 -0.7789965602172E+00  0.4290577630957E+00
 0.8470719038077E-01 -0.1710511310090E+01 -0.7641279343253E+00  0.4801587297340E+00
 0.5712507197397E-01 -0.1678061350546E+01 -0.7618400489963E+00  0.5376049690304E+00
 0.1792420179489E-01 -0.1664059691753E+01 -0.7736836783177E+00  0.6009687879069E+00
-0.3304099413853E-01 -0.1670892481858E+01 -0.8008487316869E+00  0.6695910132739E+00
-0.9676855046050E-01 -0.1700663440503E+01 -0.8447930336100E+00  0.7424274533831E+00
-0.1751002184874E+00 -0.1758843247264E+01 -0.9089534265976E+00  0.8176452065067E+00
-0.2695419768538E+00 -0.1859733010260E+01 -0.1000759241405E+01  0.8918307481768E+00
-0.1755270280286E+01 -0.2517118089902E+01 -0.2008022528896E+01  0.1249379912748E+01
-0.1246261048328E+01 -0.2628864144098E+01 -0.1821308835820E+01  0.1118063471749E+01
-0.8224120916191E+00 -0.2637164568437E+01 -0.1626001026102E+01  0.9087846967860E+00
-0.5011846733049E+00 -0.2557029795886E+01 -0.1437360796874E+01  0.6954737908004E+00
-0.2766950585042E+00 -0.2425445884278E+01 -0.1270006239886E+01  0.5204187627904E+00
-0.1285180480816E+00 -0.2278357041163E+01 -0.1131231289076E+01  0.3968868836553E+00
-0.3463619647795E-01 -0.2138829811456E+01 -0.1021529021138E+01  0.3219784721481E+00
 0.2359193320701E-01 -0.2016436982330E+01 -0.9366371707120E+00  0.2860354180072E+00
 0.5923942326279E-01 -0.1911836422985E+01 -0.8707205876611E+00  0.2787291269521E+00
 0.8009659670309E-01 -0.1821672227339E+01 -0.8185405443226E+00  0.2916133583359E+00
 0.9025514826038E-01 -0.1741330542862E+01 -0.7760054334944E+00  0.3183379047709E+00
 0.9176497983087E-01 -0.1665705350388E+01 -0.7397519722858E+00  0.3540624566088E+00
 0.8259722121428E-01 -0.1595975330841E+01 -0.7112877097202E+00  0.3971370973843E+00
 0.6285880164192E-01 -0.1538621266061E+01 -0.6936083565177E+00  0.4465450219580E+00
 0.3296415104456E-01 -0.1497804582187E+01 -0.6884750008908E+00  0.5013858610708E+00
-0.8392233655903E-02 -0.1475712250242E+01 -0.6975291056630E+00  0.5617857885142E+00
-0.6147438547931E-01 -0.1474615548875E+01 -0.7219622673153E+00  0.6276493773207E+00
-0.1271065972591E+00 -0.1496673951468E+01 -0.7631768559662E+00  0.6984249505676E+00
-0.2068118618548E+00 -0.1548194433621E+01 -0.8248529567814E+00  0.7728661122562E+00
-0.3021790619165E+00 -0.1645923186329E+01 -0.9156080543533E+00  0.8484965371301E+00
-0.1757997429720E+01 -0.2585021419341E+01 -0.2041218853881E+01  0.1299944379203E+01
-0.1190429436905E+01 -0.2695879015726E+01 -0.1826564968104E+01  0.1129301089866E+01
-0.7443595680868E+00 -0.2670061606414E+01 -0.1604777947945E+01  0.8793147241995E+00
-0.4225074898105E+00 -0.2541182936265E+01 -0.1392934496722E+01  0.6389920029139E+00
-0.2109717775527E+00 -0.2363999260610E+01 -0.1210236384867E+01  0.4538659332835E+00
-0.8142195707872E-01 -0.2183724139690E+01 -0.1064618662781E+01  0.3323546592574E+00
-0.5999074622794E-02 -0.2023712394188E+01 -0.9539643879214E+00  0.2650348027578E+00
 0.3701985826086E-01 -0.1889320022903E+01 -0.8705810751738E+00  0.2374438125290E+00
 0.6134489409211E-01 -0.1776754289647E+01 -0.8062424138657E+00  0.2369190383296E+00
 0.7410119956567E-01 -0.1679794215779E+01 -0.7546757157061E+00  0.2543690424685E+00
 0.7846789999201E-01 -0.1592421564927E+01 -0.7115582207148E+00  0.2835455347687E+00
 0.7586376071192E-01 -0.1508928261944E+01 -0.6735403138709E+00  0.3198887379222E+00
 0.6416003023858E-01 -0.1430889723614E+01 -0.6423629542571E+00  0.3616673440849E+00
 0.4298031099168E-01 -0.1365416554138E+01 -0.6215450327024E+00  0.4081019049094E+00
 0.1202313571497E-01 -0.1316728486288E+01 -0.6132115132142E+00  0.4589267231650E+00
-0.3026473178039E-01 -0.1286813242011E+01 -0.6190266461120E+00  0.5148526547886E+00
-0.8425444046805E-01 -0.1277587585682E+01 -0.6400657506670E+00  0.5763859547965E+00
-0.1505754678002E+00 -0.1290943950242E+01 -0.6775141247616E+00  0.6435327477880E+00
-0.2304875514028E+00 -0.1333702475632E+01 -0.7351693108416E+00  0.7157676751186E+00
-0.3260028378847E+00 -0.1424935959548E+01 -0.8229412327062E+00  0.7917653730352E+00
-0.1768183725165E+01 -0.2679020942288E+01 -0.2090186188401E+01  0.1354696537751E+01
-0.1127515790568E+01 -0.2783487522892E+01 -0.1838171552664E+01  0.1129584239949E+01
-0.6581587775740E+00 -0.2706823388136E+01 -0.1581541613872E+01  0.8309821974206E+00
-0.3388335126683E+00 -0.2513594632880E+01 -0.1340641225008E+01  0.5640112693700E+00
-0.1450768734850E+00 -0.2283673909311E+01 -0.1141512865019E+01  0.3744062652334E+00
-0.3815857369642E-01 -0.2071166212847E+01 -0.9913826471608E+00  0.2612522123637E+00
 0.1700386565672E-01 -0.1895291907625E+01 -0.8827953774860E+00  0.2058815014862E+00
 0.4506561439807E-01 -0.1753444813950E+01 -0.8029382217527E+00  0.1886075657130E+00
 0.5934466816062E-01 -0.1636088372644E+01 -0.7410695392276E+00  0.1951931377868E+00
 0.6548239528389E-01 -0.1534286294538E+01 -0.6903378308984E+00  0.2167154969773E+00
 0.6541732153835E-01 -0.1441103936953E+01 -0.6465727076049E+00  0.2475164813163E+00
 0.5995866994500E-01 -0.1350594821310E+01 -0.6065989896029E+00  0.2835491653519E+00
 0.4708940300219E-01 -0.1264996103966E+01 -0.5724161480011E+00  0.3229428193261E+00
 0.2586887616344E-01 -0.1192157092455E+01 -0.5481554602668E+00  0.3651536538789E+00
-0.4825871422057E-02 -0.1136342217328E+01 -0.5363490003520E+00  0.4106180665795E+00
-0.4670928747501E-01 -0.1099239114486E+01 -0.5385957475554E+00  0.4606033863180E+00
-0.1002116497230E+00 -0.1082113723434E+01 -0.5556929239743E+00  0.5161822595632E+00
-0.1657115109238E+00 -0.1086144383793E+01 -0.5883722690248E+00  0.5779076866374E+00
-0.2442272117564E+00 -0.1118130414136E+01 -0.6403080825453E+00  0.6460489462588E+00
-0.3385402209921E+00 -0.1199102297349E+01 -0.7226919817872E+00  0.7206327799209E+00
-0.1790428397841E+01 -0.2809973138848E+01 -0.2162188716760E+01  0.1413865726354E+01
-0.1056900418296E+01 -0.2897016187390E+01 -0.1858340799959E+01  0.1113020402632E+01
-0.5628036657468E+00 -0.2742963835418E+01 -0.1553710721607E+01  0.7573196379787E+00
-0.2501875686499E+00 -0.2464929788576E+01 -0.1276105154659E+01  0.4675157237769E+00
-0.8063346857453E-01 -0.2177245279958E+01 -0.1061203009119E+01  0.2829992964059E+00
-0.1064130583078E-02 -0.1938336104090E+01 -0.9115181079843E+00  0.1864739081825E+00
 0.3280280039197E-01 -0.1754386220209E+01 -0.8091442052618E+00  0.1472800084481E+00
 0.4730503895625E-01 -0.1610565447182E+01 -0.7347323900027E+00  0.1413593529186E+00
 0.5358661835370E-01 -0.1491433362658E+01 -0.6757879681091E+00  0.1545794188315E+00
 0.5482384483191E-01 -0.1386509628664E+01 -0.6258923168137E+00  0.1792146810304E+00
 0.5173991333491E-01 -0.1288549073190E+01 -0.5813003036577E+00  0.2105838644547E+00
 0.4469897790106E-01 -0.1191763147258E+01 -0.5391201582303E+00  0.2453119583363E+00
 0.3208174169367E-01 -0.1099334658047E+01 -0.5016088694137E+00  0.2812673987976E+00
 0.1226365641682E-01 -0.1019988948849E+01 -0.4736308862420E+00  0.3181151632056E+00
-0.1681252299628E-01 -0.9580530961368E+00 -0.4581868398304E+00  0.3570371094493E+00
-0.5687216880449E-01 -0.9148311663035E+00 -0.4567005663424E+00  0.3997613717437E+00
-0.1083034878742E+00 -0.8906117118889E+00 -0.4694901426979E+00  0.4478057852427E+00
-0.1711144061052E+00 -0.8853037907661E+00 -0.4965165512702E+00  0.5021583450806E+00
-0.2460398752657E+00 -0.9049146853113E+00 -0.5409486420992E+00  0.5638534619057E+00
-0.3369159495036E+00 -0.9716527247042E+00 -0.6150272753177E+00  0.6344016602074E+00
-0.1833932295155E+01 -0.2996263556187E+01 -0.2270192044373E+01  0.1476798118744E+01
-0.9784886036208E+00 -0.3043098685748E+01 -0.1890146021209E+01  0.1069804865664E+01
-0.4565213881227E+00 -0.2768143902439E+01 -0.1515592682720E+01  0.6492837035063E+00
-0.1561832625291E+00 -0.2379750077928E+01 -0.1191888666992E+01  0.3472764778835E+00
-0.2056906607114E-01 -0.2036987979051E+01 -0.9670518087547E+00  0.1830772591239E+00
 0.2665060276806E-01 -0.1785272062183E+01 -0.8265520838286E+00  0.1126253217414E+00
 0.3987379657615E-01 -0.1603947263186E+01 -0.7351145274421E+00  0.9233942672508E-01
 0.4409216915835E-01 -0.1462947267864E+01 -0.6668618947002E+00  0.9722460753289E-01
 0.4480208137356E-01 -0.1344530761035E+01 -0.6108724778913E+00  0.1157943300305E+00
 0.4287631016444E-01 -0.1237829174819E+01 -0.5616278449632E+00  0.1422169935144E+00
 0.3810494532656E-01 -0.1135897682109E+01 -0.5159625849789E+00  0.1729497469485E+00
 0.3070781283089E-01 -0.1033407774822E+01 -0.4712689809407E+00  0.2053787168396E+00
 0.1977865618682E-01 -0.9347962219946E+00 -0.4300582548389E+00  0.2369448699149E+00
 0.2806902207052E-02 -0.8498658747114E+00 -0.3981177160673E+00  0.2674856110534E+00
-0.2332020052047E-01 -0.7830735487666E+00 -0.3790050612036E+00  0.2989521278491E+00
-0.6010405086417E-01 -0.7352946481990E+00 -0.3738373876115E+00  0.3333625207614E+00
-0.1076967876930E+00 -0.7054833458558E+00 -0.3821946617986E+00  0.3724709167702E+00
-0.1655624514961E+00 -0.6917108428690E+00 -0.4029184473296E+00  0.4174743863501E+00
-0.2339736053082E+00 -0.6981869162621E+00 -0.4381154440269E+00  0.4699826087219E+00
-0.3179368189921E+00 -0.7469820063347E+00 -0.5005118466341E+00  0.5329524085784E+00
-0.1918343995713E+01 -0.3271733376653E+01 -0.2439336358825E+01  0.1540543455283E+01
-0.8940714338262E+00 -0.3229818614656E+01 -0.1938228317870E+01  0.9825159723580E+00
-0.3333050916726E+00 -0.2756735524428E+01 -0.1452319085884E+01  0.4944876034098E+00
-0.5707167700806E-01 -0.2235119535104E+01 -0.1077329866960E+01  0.2043257703615E+00
 0.3012885764253E-01 -0.1857515485507E+01 -0.8588717129181E+00  0.8245316897131E-01
 0.3965240416936E-01 -0.1618513026569E+01 -0.7420644906459E+00  0.4576589847677E-01
 0.3867993002558E-01 -0.1447538789704E+01 -0.6621636623692E+00  0.4350178449736E-01
 0.3646000364886E-01 -0.1313024336308E+01 -0.5999852348279E+00  0.5712095391961E-01
 0.3403021622156E-01 -0.1197017900246E+01 -0.5466042101053E+00  0.7920303288808E-01
 0.3043771197244E-01 -0.1089563027659E+01 -0.4977888971103E+00  0.1058810779666E+00
 0.2514885626972E-01 -0.9842461863823E+00 -0.4507757440096E+00  0.1346930744779E+00
 0.1854118948255E-01 -0.8763929470443E+00 -0.4031903250314E+00  0.1638716000965E+00
 0.1073854263697E-01 -0.7720556511759E+00 -0.3578190401058E+00  0.1902567791832E+00
-0.1982619347620E-02 -0.6824444025274E+00 -0.3216806994654E+00  0.2138336297641E+00
-0.2395683821373E-01 -0.6123368195382E+00 -0.2990580183849E+00  0.2373190458812E+00
-0.5603487904393E-01 -0.5620824942740E+00 -0.2905151647226E+00  0.2627587399508E+00
-0.9788284165790E-01 -0.5289682123451E+00 -0.2946199946341E+00  0.2918658857772E+00
-0.1481141678246E+00 -0.5086479740935E+00 -0.3086782059186E+00  0.3257307017202E+00
-0.2063718640336E+00 -0.5026953224927E+00 -0.3332615768221E+00  0.3661518893219E+00
-0.2782917320051E+00 -0.5308594598770E+00 -0.3803010592200E+00  0.4171545479618E+00
-0.2099248271465E+01 -0.3715260885119E+01 -0.2732819296663E+01  0.1594286674455E+01
-0.7997223012500E+00 -0.3452053250147E+01 -0.1998334504088E+01  0.8177039610641E+00
-0.1823985094333E+00 -0.2654846506463E+01 -0.1333505154089E+01  0.2776889196519E+00
 0.5205939152480E-01 -0.1992531847579E+01 -0.9120220520322E+00  0.4979191031927E-01
 0.5059512130700E-01 -0.1658875289123E+01 -0.7558916769564E+00 -0.4676826630022E-02
 0.3936297970789E-01 -0.1443977398208E+01 -0.6601687750206E+00 -0.9794227881293E-02
 0.3078500826393E-01 -0.1289015672305E+01 -0.5913684105993E+00  0.1884013209454E-02
 0.2606922619983E-01 -0.1162775532709E+01 -0.5342519627042E+00  0.2134040398294E-01
 0.2233939905633E-01 -0.1050392063150E+01 -0.4831847508985E+00  0.4490206011443E-01
 0.1827559384590E-01 -0.9429625295914E+00 -0.4346028586981E+00  0.7022766996601E-01
 0.1342633013687E-01 -0.8346747106385E+00 -0.3859867378568E+00  0.9578072745193E-01
 0.8633285695157E-02 -0.7214972780646E+00 -0.3350460755639E+00  0.1207984915285E+00
 0.5450728319916E-02 -0.6114436249009E+00 -0.2848166606707E+00  0.1414138770784E+00
-0.1745269873306E-02 -0.5179515972550E+00 -0.2442575269308E+00  0.1577790624634E+00
-0.1861431915156E-01 -0.4463889966211E+00 -0.2185515578588E+00  0.1732876633831E+00
-0.4473086391051E-01 -0.3964112624422E+00 -0.2073367988599E+00  0.1896012831229E+00
-0.7867331696772E-01 -0.3628629492467E+00 -0.2075220445944E+00  0.2081102892202E+00
-0.1183591744498E+00 -0.3391503601812E+00 -0.2150294807311E+00  0.2295110244993E+00
-0.1619665940765E+00 -0.3231380889744E+00 -0.2279992004556E+00  0.2552153968933E+00
-0.2153138005938E+00 -0.3308023631758E+00 -0.2566745963207E+00  0.2894886406156E+00
-0.2503827419446E+01 -0.4498757815356E+01 -0.3291215052009E+01  0.1608487384292E+01
-0.7278419179857E+00 -0.3713092974016E+01 -0.2087239393947E+01  0.4969070804783E+00
 0.1185849673556E+00 -0.2226319222107E+01 -0.9906350972207E+00 -0.5334513017781E-02
 0.7908982397435E-01 -0.1732094900819E+01 -0.7769123841463E+00 -0.7531558978220E-01
 0.4858542023926E-01 -0.1449985223210E+01 -0.6586579057254E+00 -0.6976178434055E-01
 0.2814063110763E-01 -0.1268706248324E+01 -0.5830658386129E+00 -0.5304039897481E-01
 0.1933986915446E-01 -0.1130619170677E+01 -0.5223012703907E+00 -0.3253716024021E-01
 0.1433130575988E-01 -0.1014037499491E+01 -0.4698619098620E+00 -0.1021522887951E-01
 0.1076696097530E-01 -0.9059145165171E+00 -0.4207193500376E+00  0.1281877677163E-01
 0.7160117632895E-02 -0.7991296727323E+00 -0.3722256899526E+00  0.3521751586921E-01
 0.3251884895301E-02 -0.6885026793077E+00 -0.3220678725569E+00  0.5608537308067E-01
 0.1328454746701E-02 -0.5693987197439E+00 -0.2669930238715E+00  0.7595981307829E-01
 0.4299461222918E-02 -0.4528170995815E+00 -0.2108032894939E+00  0.9045091095388E-01
 0.3826660414000E-02 -0.3557694957956E+00 -0.1654131322098E+00  0.9998505378563E-01
-0.7720668994123E-02 -0.2854731596517E+00 -0.1378010991140E+00  0.1082776266202E+00
-0.2672356191128E-01 -0.2392857010422E+00 -0.1250243532710E+00  0.1158357256638E+00
-0.5045296191021E-01 -0.2087376783204E+00 -0.1218196005994E+00  0.1235829568946E+00
-0.7585856487278E-01 -0.1846746001537E+00 -0.1224505872519E+00  0.1319375015064E+00
-0.1012902539229E+00 -0.1645645380043E+00 -0.1249517518889E+00  0.1413156041968E+00
-0.1263316925562E+00 -0.1536949570444E+00 -0.1316125249785E+00  0.1545793014013E+00
-0.4539465780778E+01 -0.7101813593964E+01 -0.5471401292251E+01  0.1300928041631E+01
 0.3097297120537E+00 -0.2613960458840E+01 -0.1082988448243E+01 -0.1615431358132E+00
 0.1298873305615E+00 -0.1839034502974E+01 -0.8032991689962E+00 -0.2116807335227E+00
 0.6708985645807E-01 -0.1459618735280E+01 -0.6544885713864E+00 -0.1510895550918E+00
 0.2702576723856E-01 -0.1245595574103E+01 -0.5727278077737E+00 -0.1139622191560E+00
 0.1298757884334E-01 -0.1094325843803E+01 -0.5082289832420E+00 -0.8494617372377E-01
 0.6399231792126E-02 -0.9745246795095E+00 -0.4550189592731E+00 -0.6025188417881E-01
 0.2482035225522E-02 -0.8684219230570E+00 -0.4069917462485E+00 -0.3779445868976E-01
 0.4220707617453E-04 -0.7648512187988E+00 -0.3594602345979E+00 -0.1729881096954E-01
-0.1808582546155E-02 -0.6584804686622E+00 -0.3103358532808E+00  0.8142647661084E-03
-0.5019581117705E-02 -0.5472628024615E+00 -0.2595727196239E+00  0.1563727166991E-01
-0.4592567010318E-02 -0.4227706563964E+00 -0.2008607144917E+00  0.2859590566161E-01
 0.9262868257447E-02 -0.2929497514343E+00 -0.1333328347549E+00  0.3677510166591E-01
 0.1440181225020E-01 -0.1942607251011E+00 -0.8453368882550E-01  0.4158504826908E-01
 0.6900230059926E-02 -0.1307760523924E+00 -0.5822163634861E-01  0.4421129720970E-01
-0.2341021588346E-02 -0.9106127621175E-01 -0.4389907985470E-01  0.4346968059666E-01
-0.1379994064494E-01 -0.6734893309077E-01 -0.3813997055905E-01  0.4085685014579E-01
-0.2231852737077E-01 -0.4774678040771E-01 -0.3293069457236E-01  0.3617074827057E-01
-0.2161089613481E-01 -0.2421131530316E-01 -0.2153643932122E-01  0.2931833128600E-01
-0.1859725425749E-01 -0.1486121810032E-01 -0.1572548196828E-01  0.2051710270377E-01
 0.1105958003648E+00 -0.3567760231584E+01 -0.1624867278552E+01 -0.8572253274785E+00
 0.1144535431175E+00 -0.3409637323057E+01 -0.1548736372644E+01 -0.8885558123999E+00
 0.7181129438223E-01 -0.3294473259303E+01 -0.1514651119671E+01 -0.9194453222164E+00
 0.2624866531528E-01 -0.3173821026768E+01 -0.1479359006130E+01 -0.9466308373142E+00
-0.2300735295323E-01 -0.3044466727728E+01 -0.1441712814264E+01 -0.9689671149848E+00
-0.7389931424069E-01 -0.2904148837114E+01 -0.1399682627587E+01 -0.9858105531410E+00
-0.1254080276376E+00 -0.2752190973353E+01 -0.1352471527035E+01 -0.9964147166554E+00
-0.1764722990749E+00 -0.2588168574454E+01 -0.1299381207263E+01 -0.9998812101548E+00
-0.2260132254656E+00 -0.2411835445020E+01 -0.1239788871983E+01 -0.9951535430884E+00
-0.2728141971269E+00 -0.2223077715751E+01 -0.1173069196077E+01 -0.9810213575449E+00
-0.3154381584152E+00 -0.2021957146284E+01 -0.1098575790422E+01 -0.9561207555712E+00
-0.3521233076685E+00 -0.1808791032466E+01 -0.1015629737287E+01 -0.9189365422884E+00
-0.3806544709642E+00 -0.1584281422325E+01 -0.9235198675034E+00 -0.8678155816421E+00
-0.3981982483965E+00 -0.1349711482891E+01 -0.8215175716213E+00 -0.8010062450184E+00
-0.4011094094880E+00 -0.1107253327233E+01 -0.7089304844607E+00 -0.7167513637531E+00
-0.3847019352121E+00 -0.8604178228499E+00 -0.5852062848048E+00 -0.6134821239175E+00
-0.3432573582962E+00 -0.6149123577493E+00 -0.4503397653992E+00 -0.4902310021851E+00
-0.2697511070497E+00 -0.3792393477655E+00 -0.3050255129895E+00 -0.3473838474273E+00
-0.1608978378789E+00 -0.1695075062869E+00 -0.1552905113641E+00 -0.1886494290023E+00
 0.4589961785708E-02  0.1491376475194E-01  0.9166751449445E-02 -0.2045511208293E-01
 0.1535269302628E+00 -0.3649663835745E+01 -0.1643184341409E+01 -0.8505625924349E+00
 0.1148836704995E+00 -0.3565409474197E+01 -0.1621747123624E+01 -0.8820547301330E+00
 0.7792578793454E-01 -0.3452465198348E+01 -0.1586033518872E+01 -0.9117224657172E+00
 0.2890158105541E-01 -0.3339517984758E+01 -0.1555989705794E+01 -0.9417866213018E+00
-0.2327906944718E-01 -0.3218669433816E+01 -0.1523715792669E+01 -0.9688193738522E+00
-0.7768985994065E-01 -0.3088116740036E+01 -0.1487929098215E+01 -0.9913757581678E+00
-0.1330871891794E+00 -0.2946178561356E+01 -0.1447254899081E+01 -0.1008374063341E+01
-0.1885309046396E+00 -0.2791841528965E+01 -0.1400775040241E+01 -0.1018825566209E+01
-0.2429866494721E+00 -0.2624301569826E+01 -0.1347625459652E+01 -0.1021658344935E+01
-0.2952713407545E+00 -0.2442889322483E+01 -0.1286935508457E+01 -0.1015650861038E+01
-0.3439537558645E+00 -0.2247033452856E+01 -0.1217763985010E+01 -0.9993864851352E+00
-0.3872454077671E+00 -0.2036289053003E+01 -0.1139061193673E+01 -0.9712112197117E+00
-0.4228499967842E+00 -0.1810414863307E+01 -0.1049634481581E+01 -0.9291865999313E+00
-0.4477574752198E+00 -0.1569519695269E+01 -0.9481202677249E+00 -0.8710395880086E+00
-0.4579525709461E+00 -0.1314310049160E+01 -0.8329634293373E+00 -0.7941206124056E+00
-0.4480563429689E+00 -0.1046561002171E+01 -0.7024701504341E+00 -0.6954074694812E+00
-0.4107292161290E+00 -0.7698258862316E+00 -0.5548608967022E+00 -0.5716346758407E+00
-0.3368542109264E+00 -0.4916384713068E+00 -0.3893915596620E+00 -0.4198711963873E+00
-0.2130872961964E+00 -0.2246560353561E+00 -0.2057393653078E+00 -0.2390077273322E+00
-0.4502223980693E-01 -0.7469177941573E-02 -0.2467096627922E-01 -0.3573756875781E-01
 0.1659547605318E+00 -0.3757583603646E+01 -0.1688065551982E+01 -0.8311438579456E+00
 0.1268289227680E+00 -0.3689277608178E+01 -0.1674350877896E+01 -0.8688951971070E+00
 0.8173412850749E-01 -0.3603457192351E+01 -0.1655209835808E+01 -0.9014761258460E+00
 0.3163750685694E-01 -0.3504076772442E+01 -0.1632046450686E+01 -0.9332268808436E+00
-0.2360852034918E-01 -0.3396269908062E+01 -0.1607342857276E+01 -0.9632863397467E+00
-0.8149113159674E-01 -0.3278539032235E+01 -0.1579214172995E+01 -0.9900218665309E+00
-0.1409414680036E+00 -0.3149764551481E+01 -0.1546631825235E+01 -0.1012161041055E+01
-0.2009241178614E+00 -0.3008728706355E+01 -0.1508536823556E+01 -0.1028583267968E+01
-0.2604249889377E+00 -0.2854343968672E+01 -0.1463941406364E+01 -0.1038177725474E+01
-0.3182806971416E+00 -0.2685556223945E+01 -0.1411803349330E+01 -0.1039729481765E+01
-0.3730912137058E+00 -0.2501306839807E+01 -0.1350967081725E+01 -0.1031836795143E+01
-0.4231095510087E+00 -0.2300505348256E+01 -0.1280098999408E+01 -0.1012830592782E+01
-0.4660973250821E+00 -0.2082029686152E+01 -0.1197619692242E+01 -0.9806794678263E+00
-0.4991122661502E+00 -0.1844757445185E+01 -0.1101618761533E+01 -0.9328666947391E+00
-0.5181918051653E+00 -0.1587658853807E+01 -0.9897498072066E+00 -0.8662290100084E+00
-0.5178166337344E+00 -0.1309973479625E+01 -0.8590613511002E+00 -0.7767484631845E+00
-0.4901545983993E+00 -0.1011740152030E+01 -0.7058905309113E+00 -0.6593156196134E+00
-0.4230682510144E+00 -0.6944253903757E+00 -0.5252220101212E+00 -0.5075004676198E+00
-0.2991112082655E+00 -0.3651217506643E+00 -0.3121894899052E+00 -0.3137402001417E+00
-0.9014640724095E-01 -0.4727133260953E-01 -0.6458633756591E-01 -0.7336883867836E-01
 0.1770007055256E+00 -0.3866724568202E+01 -0.1734170211059E+01 -0.8059482901275E+00
 0.1338899932543E+00 -0.3813540441279E+01 -0.1729435706185E+01 -0.8478050169589E+00
 0.8634293333723E-01 -0.3745447424611E+01 -0.1719779106537E+01 -0.8843822251355E+00
 0.3289176294076E-01 -0.3664793153769E+01 -0.1706993649360E+01 -0.9186816504423E+00
-0.2510788188686E-01 -0.3573143269453E+01 -0.1691178036840E+01 -0.9511273221584E+00
-0.8661636880944E-01 -0.3471352552064E+01 -0.1672245388569E+01 -0.9808689428453E+00
-0.1503207880345E+00 -0.3358721231393E+01 -0.1649249744948E+01 -0.1006765509045E+01
-0.2151927632104E+00 -0.3234322817840E+01 -0.1621272318982E+01 -0.1027704914355E+01
-0.2801789148985E+00 -0.3097080202341E+01 -0.1587311781077E+01 -0.1042571587938E+01
-0.3441149976927E+00 -0.2945849443138E+01 -0.1546283283269E+01 -0.1050172969762E+01
-0.4056158840762E+00 -0.2779391626222E+01 -0.1496953526043E+01 -0.1049154321488E+01
-0.4629729305231E+00 -0.2596333249966E+01 -0.1437873901183E+01 -0.1037905761669E+01
-0.5140194188793E+00 -0.2395114492770E+01 -0.1367292935007E+01 -0.1014446084451E+01
-0.5559372853188E+00 -0.2173930998250E+01 -0.1283038090023E+01 -0.9762629542430E+00
-0.5849458427959E+00 -0.1930660685813E+01 -0.1182335065448E+01 -0.9200789823216E+00
-0.5957968101593E+00 -0.1662796826806E+01 -0.1061539006681E+01 -0.8414945566324E+00
-0.5807298482173E+00 -0.1367280923061E+01 -0.9155650601787E+00 -0.7344077466584E+00
-0.5277310985168E+00 -0.1040557133791E+01 -0.7370954673153E+00 -0.5900081907191E+00
-0.4149003257632E+00 -0.6774505752551E+00 -0.5134049221764E+00 -0.3948381500147E+00
-0.1900846871201E+00 -0.2658145270284E+00 -0.2142726301063E+00 -0.1251131459697E+00
 0.1866207456741E+00 -0.3974985594442E+01 -0.1780531474405E+01 -0.7761944807350E+00
 0.1401879810228E+00 -0.3935223549088E+01 -0.1783666712466E+01 -0.8205516617906E+00
 0.8931628858782E-01 -0.3883757429513E+01 -0.1783387331711E+01 -0.8601560865315E+00
 0.3293922398009E-01 -0.3820694406816E+01 -0.1780244931418E+01 -0.8968739643791E+00
-0.2850357884141E-01 -0.3747008314262E+01 -0.1774490585258E+01 -0.9313192347968E+00
-0.9396315546220E-01 -0.3663095542792E+01 -0.1765817583701E+01 -0.9631239712249E+00
-0.1624367118328E+00 -0.3568829219857E+01 -0.1753694983446E+01 -0.9914436108910E+00
-0.2328928364506E+00 -0.3463563972976E+01 -0.1737334696024E+01 -0.1015264194873E+01
-0.3043078196438E+00 -0.3346440766163E+01 -0.1715851830977E+01 -0.1033495654240E+01
-0.3755535448292E+00 -0.3216450671342E+01 -0.1688241977318E+01 -0.1044949278986E+01
-0.4453168565430E+00 -0.3072455357626E+01 -0.1653352936466E+01 -0.1048275109227E+01
-0.5120081026589E+00 -0.2913157842746E+01 -0.1609827990257E+01 -0.1041873013736E+01
-0.5736545409068E+00 -0.2737046593378E+01 -0.1556029529167E+01 -0.1023771867794E+01
-0.6277538430016E+00 -0.2542306964715E+01 -0.1489928575848E+01 -0.9914559541549E+00
-0.6710592228941E+00 -0.2326687286287E+01 -0.1408940855741E+01 -0.9416005931309E+00
-0.6992150002783E+00 -0.2087262278241E+01 -0.1309644317582E+01 -0.8696450830724E+00
-0.7061777312592E+00 -0.1820047749027E+01 -0.1187325972723E+01 -0.7690563463361E+00
-0.6828951809753E+00 -0.1518997757585E+01 -0.1034889678498E+01 -0.6299489552821E+00
-0.6148608983878E+00 -0.1173839961639E+01 -0.8406894020801E+00 -0.4361105935067E+00
-0.4740597576274E+00 -0.7589640027529E+00 -0.5795211659089E+00 -0.1562945089676E+00
 0.1954361432474E+00 -0.4080398943761E+01 -0.1825932511610E+01 -0.7425141447191E+00
 0.1456323793556E+00 -0.4053809675655E+01 -0.1836843324602E+01 -0.7880090239533E+00
 0.9129910066750E-01 -0.4017802462831E+01 -0.1845456575536E+01 -0.8294492317225E+00
 0.3137509966254E-01 -0.3971864527839E+01 -0.1852030026546E+01 -0.8678169472517E+00
-0.3397466242285E-01 -0.3916202097314E+01 -0.1856583072367E+01 -0.9035840825056E+00
-0.1040891781679E+00 -0.3851045135583E+01 -0.1858913122748E+01 -0.9365458205705E+00
-0.1781283461329E+00 -0.3776294630791E+01 -0.1858578794440E+01 -0.9660409660457E+00
-0.2552325540337E+00 -0.3691556186122E+01 -0.1854990703168E+01 -0.9911518032458E+00
-0.3345039844274E+00 -0.3596192727864E+01 -0.1847427450091E+01 -0.1010800590898E+01
-0.4149814585364E+00 -0.3489407088153E+01 -0.1835062612290E+01 -0.1023760416710E+01
-0.4955879865673E+00 -0.3370260569330E+01 -0.1816948816663E+01 -0.1028610788816E+01
-0.5750859066625E+00 -0.3237656897762E+01 -0.1791989113534E+01 -0.1023656059702E+01
-0.6520354426438E+00 -0.3090288584510E+01 -0.1758892288301E+01 -0.1006804580385E+01
-0.7247603074707E+00 -0.2926540850399E+01 -0.1716111539846E+01 -0.9753924457504E+00
-0.7913234005169E+00 -0.2744326971730E+01 -0.1661755670741E+01 -0.9259187202973E+00
-0.8495437130008E+00 -0.2540811591047E+01 -0.1593466988861E+01 -0.8536314441423E+00
-0.8970945556452E+00 -0.2311890793423E+01 -0.1508223110236E+01 -0.7518525226741E+00
-0.9320098841064E+00 -0.2051272770747E+01 -0.1402142844225E+01 -0.6108179959168E+00
-0.9544412845428E+00 -0.1748544540913E+01 -0.1270403334742E+01 -0.4156027288845E+00
-0.9819407616216E+00 -0.1391463367605E+01 -0.1115499937907E+01 -0.1436284532144E+00
 0.2034223172527E+00 -0.4181881455154E+01 -0.1869875790071E+01 -0.7053043304795E+00
 0.1503212078604E+00 -0.4168184722913E+01 -0.1888395847285E+01 -0.7508535802037E+00
 0.9224364262045E-01 -0.4146950135065E+01 -0.1905712046616E+01 -0.7929762273598E+00
 0.2827301309073E-01 -0.4117409442742E+01 -0.1921894117061E+01 -0.8320502372988E+00
-0.4168594926556E-01 -0.4079418191356E+01 -0.1936918941179E+01 -0.8682947173562E+00
-0.1172549200861E+00 -0.4032973932335E+01 -0.1950607555691E+01 -0.9014932469574E+00
-0.1978699827655E+00 -0.3977973480831E+01 -0.1962646422912E+01 -0.9310440615935E+00
-0.2829023340675E+00 -0.3914123505668E+01 -0.1972602139672E+01 -0.9560668241172E+00
-0.3717075747096E+00 -0.3840955896484E+01 -0.1979951826439E+01 -0.9754701155961E+00
-0.4636286697035E+00 -0.3757849334795E+01 -0.1984094657082E+01 -0.9879650532976E+00
-0.5579993167598E+00 -0.3664040446341E+01 -0.1984358683624E+01 -0.9920333523356E+00
-0.6541588902784E+00 -0.3558601750152E+01 -0.1979997495980E+01 -0.9858580064845E+00
-0.7514992149662E+00 -0.3440383849623E+01 -0.1970185035360E+01 -0.9672177924135E+00
-0.8495647566814E+00 -0.3307909367617E+01 -0.1954012833464E+01 -0.9333380665530E+00
-0.9482502092532E+00 -0.3159197416662E+01 -0.1930500379284E+01 -0.8806825054738E+00
-0.1048180859694E+01 -0.2991476489612E+01 -0.1898638949358E+01 -0.8046638989779E+00
-0.1151480719750E+01 -0.2800728181014E+01 -0.1857538178647E+01 -0.6992502846501E+00
-0.1263425224642E+01 -0.2581011952531E+01 -0.1806885468688E+01 -0.5564896435825E+00
-0.1396506960901E+01 -0.2323841061481E+01 -0.1748563566085E+01 -0.3662424559544E+00
-0.1578201880935E+01 -0.2018928361993E+01 -0.1690651209888E+01 -0.1182821439391E+00
 0.2105553215758E+00 -0.4278601015309E+01 -0.1911981471205E+01 -0.6649213849877E+00
 0.1541634398796E+00 -0.4277463076546E+01 -0.1937950824318E+01 -0.7096571573457E+00
 0.9209931507763E-01 -0.4270340171622E+01 -0.1963773197595E+01 -0.7514674007122E+00
 0.2356029358294E-01 -0.4256434717784E+01 -0.1989450974328E+01 -0.7903223583999E+00
-0.5171786522812E-01 -0.4235409140954E+01 -0.2014949687795E+01 -0.8261901891014E+00
-0.1336358809810E+00 -0.4207114670869E+01 -0.2040152754195E+01 -0.8587593472664E+00
-0.2219210238792E+00 -0.4171393932781E+01 -0.2064858024393E+01 -0.8874070416439E+00
-0.3162503217428E+00 -0.4127991775720E+01 -0.2088793780510E+01 -0.9112414930710E+00
-0.4163154047336E+00 -0.4076525327059E+01 -0.2111635138587E+01 -0.9291398305361E+00
-0.5218672178647E+00 -0.4016479827761E+01 -0.2133023106034E+01 -0.9397575279646E+00
-0.6327625137160E+00 -0.3947197253366E+01 -0.2152581085069E+01 -0.9415073521065E+00
-0.7490366093346E+00 -0.3867844508958E+01 -0.2169934120094E+01 -0.9325120778791E+00
-0.8710244505588E+00 -0.3777349014543E+01 -0.2184735523057E+01 -0.9105352671970E+00
-0.9995632892041E+00 -0.3674291167755E+01 -0.2196711589199E+01 -0.8728941922188E+00
-0.1136330752474E+01 -0.3556738216992E+01 -0.2205742410054E+01 -0.8163625918693E+00
-0.1284413599133E+01 -0.3421999344431E+01 -0.2212014077865E+01 -0.7370843701211E+00
-0.1449290991944E+01 -0.3266296767082E+01 -0.2216326241120E+01 -0.6305610568607E+00
-0.1640484779564E+01 -0.3084332534771E+01 -0.2220664132105E+01 -0.4918797182532E+00
-0.1874291880557E+01 -0.2869093222461E+01 -0.2229390992764E+01 -0.3166886253167E+00
-0.2171629573969E+01 -0.2607731152032E+01 -0.2246299535523E+01 -0.1029728669333E+00
 0.2167686739550E+00 -0.4369966762656E+01 -0.1952003096739E+01 -0.6217211124185E+00
 0.1570208966217E+00 -0.4380986662377E+01 -0.1985263904869E+01 -0.6649647326082E+00
 0.9070331059422E-01 -0.4387332375958E+01 -0.2019415655599E+01 -0.7056475320395E+00
 0.1709543499501E-01 -0.4388254207627E+01 -0.2054444617926E+01 -0.7434739276541E+00
-0.6421500945772E-01 -0.4383327747945E+01 -0.2090345090677E+01 -0.7781988478020E+00
-0.1533887602320E+00 -0.4372301235777E+01 -0.2127074292729E+01 -0.8093904740293E+00
-0.2504632975911E+00 -0.4354956468686E+01 -0.2164547284660E+01 -0.8363661399624E+00
-0.3554588547310E+00 -0.4331023554097E+01 -0.2202646726563E+01 -0.8581980730397E+00
-0.4684578899685E+00 -0.4300138122010E+01 -0.2241240119945E+01 -0.8737313835838E+00
-0.5896742902329E+00 -0.4261816029996E+01 -0.2280200444724E+01 -0.8815917953906E+00
-0.7195335917201E+00 -0.4215427268651E+01 -0.2319431598492E+01 -0.8801785201272E+00
-0.8587833316725E+00 -0.4160154617439E+01 -0.2358900830099E+01 -0.8676459879823E+00
-0.1008655887266E+01 -0.4094928168007E+01 -0.2398684499894E+01 -0.8418827563572E+00
-0.1171111979087E+01 -0.4018328434255E+01 -0.2439036988084E+01 -0.8005013656579E+00
-0.1349204125250E+01 -0.3928452545507E+01 -0.2480498628964E+01 -0.7408636169159E+00
-0.1547617814207E+01 -0.3822746587441E+01 -0.2524071262373E+01 -0.6601886010156E+00
-0.1773435624879E+01 -0.3697804936528E+01 -0.2571483057339E+01 -0.5558344126530E+00
-0.2037188490810E+01 -0.3549242321438E+01 -0.2625622475097E+01 -0.4259316988261E+00
-0.2353237294458E+01 -0.3371131971019E+01 -0.2690453547950E+01 -0.2705451411600E+00
-0.2742888592000E+01 -0.3158096110533E+01 -0.2773462803156E+01 -0.9344871791765E-01
 0.2219662695450E+00 -0.4455611302248E+01 -0.1989813160324E+01 -0.5760256552140E+00
 0.1587301133422E+00 -0.4478394949065E+01 -0.2030242467640E+01 -0.6172609207007E+00
 0.8791240585168E-01 -0.4497610085560E+01 -0.2072557904206E+01 -0.6561673043822E+00
 0.8810679948137E-02 -0.4512586755289E+01 -0.2116774750041E+01 -0.6922995878830E+00
-0.7914155286503E-01 -0.4522866931331E+01 -0.2162943982086E+01 -0.7252513545644E+00
-0.1763619379624E+00 -0.4528125829249E+01 -0.2211109244981E+01 -0.7544788753621E+00
-0.2832047370449E+00 -0.4528077853210E+01 -0.2261302811684E+01 -0.7792340763389E+00
-0.4000519603261E+00 -0.4522405127142E+01 -0.2313554825242E+01 -0.7985543861132E+00
-0.5273960716755E+00 -0.4510710192824E+01 -0.2367909938309E+01 -0.8112719091486E+00
-0.6659224879499E+00 -0.4492481378073E+01 -0.2424449810882E+01 -0.8160247749202E+00
-0.8166051677820E+00 -0.4467058171444E+01 -0.2483321763138E+01 -0.8112670161866E+00
-0.9808298721487E+00 -0.4433587565626E+01 -0.2544776189300E+01 -0.7952815340967E+00
-0.1160559817793E+01 -0.4390965688809E+01 -0.2609216981485E+01 -0.7662069274385E+00
-0.1358558959643E+01 -0.4337762986099E+01 -0.2677271307708E+01 -0.7220962127728E+00
-0.1578687357517E+01 -0.4272137223459E+01 -0.2749887546084E+01 -0.6610366946931E+00
-0.1826267924073E+01 -0.4191743902695E+01 -0.2828465551407E+01 -0.5813778629157E+00
-0.2108504221050E+01 -0.4093685716695E+01 -0.2915029263347E+01 -0.4821401036001E+00
-0.2434717589354E+01 -0.3974470018230E+01 -0.3012318167924E+01 -0.3636898922105E+00
-0.2816673101662E+01 -0.3830481502282E+01 -0.3124162655930E+01 -0.2287461257860E+00
-0.3267599493825E+01 -0.3658301210837E+01 -0.3255173322935E+01 -0.8397994786390E-01
 0.2263294289943E+00 -0.4534929877616E+01 -0.2025042205716E+01 -0.5279922420363E+00
 0.1594876935636E+00 -0.4568941933305E+01 -0.2072443487422E+01 -0.5667593291928E+00
 0.8405278087572E-01 -0.4600333079695E+01 -0.2122651735061E+01 -0.6033371469053E+00
-0.7662307855405E-03 -0.4628520170300E+01 -0.2175764602992E+01 -0.6372150784613E+00
-0.9570685078548E-01 -0.4653031007144E+01 -0.2231906787566E+01 -0.6678811452361E+00
-0.2014411870018E+00 -0.4673482375063E+01 -0.2291214068359E+01 -0.6947095684183E+00
-0.3186347452483E+00 -0.4689517865455E+01 -0.2353831721060E+01 -0.7169064700633E+00
-0.4480235249038E+00 -0.4700750925542E+01 -0.2419923985572E+01 -0.7334978100433E+00
-0.5904928094740E+00 -0.4706720121658E+01 -0.2489690071317E+01 -0.7433383265529E+00
-0.7471598476952E+00 -0.4706852364263E+01 -0.2563385733119E+01 -0.7451304867454E+00
-0.9194677989063E+00 -0.4700427493588E+01 -0.2641350780773E+01 -0.7374516309604E+00
-0.1109298643583E+01 -0.4686539217073E+01 -0.2724043787599E+01 -0.7187942809673E+00
-0.1319110899748E+01 -0.4664050677503E+01 -0.2812085934175E+01 -0.6876301972013E+00
-0.1552103601246E+01 -0.4631547364242E+01 -0.2906315946408E+01 -0.6425146643955E+00
-0.1812397011974E+01 -0.4587295348215E+01 -0.3007855401660E+01 -0.5822544619866E+00
-0.2105202307256E+01 -0.4529224804731E+01 -0.3118180734725E+01 -0.5061704176094E+00
-0.2436891656226E+01 -0.4454956428304E+01 -0.3239168591514E+01 -0.4144876090289E+00
-0.2814904068201E+01 -0.4361977306002E+01 -0.3373134237320E+01 -0.3088711278655E+00
-0.3247109198444E+01 -0.4247900371535E+01 -0.3522654488956E+01 -0.1931143321604E+00
-0.3740096371988E+01 -0.4110868864106E+01 -0.3689953651605E+01 -0.7381711791059E-01
 0.2299952261413E+00 -0.4607439022341E+01 -0.2057398578995E+01 -0.4778139708827E+00
 0.1595557841524E+00 -0.4651913363738E+01 -0.2111408057050E+01 -0.5136700835044E+00
 0.7952690566828E-01 -0.4694628983498E+01 -0.2169097971078E+01 -0.5474455015153E+00
-0.1102197946617E-01 -0.4735044031867E+01 -0.2230651019669E+01 -0.5786084295852E+00
-0.1130167746580E+00 -0.4772673112400E+01 -0.2296274241093E+01 -0.6065918721031E+00
-0.2273757707768E+00 -0.4807079013556E+01 -0.2366193742635E+01 -0.6307269654685E+00
-0.3550564460563E+00 -0.4837832782673E+01 -0.2440657931312E+01 -0.6502066224217E+00
-0.4971192680327E+00 -0.4864469560626E+01 -0.2519946743078E+01 -0.6640790353374E+00
-0.6547966873165E+00 -0.4886449939476E+01 -0.2604385907987E+01 -0.6712612205494E+00
-0.8295659967790E+00 -0.4903126621104E+01 -0.2694365523571E+01 -0.6705666075378E+00
-0.1023228466343E+01 -0.4913713810036E+01 -0.2790362862821E+01 -0.6607463157546E+00
-0.1237996539624E+01 -0.4917257711440E+01 -0.2892969490662E+01 -0.6405485071474E+00
-0.1476587428707E+01 -0.4912609183870E+01 -0.3002922400295E+01 -0.6088040289938E+00
-0.1742314429013E+01 -0.4898403300647E+01 -0.3121137325024E+01 -0.5645496642842E+00
-0.2039155821687E+01 -0.4873056245473E+01 -0.3248739663325E+01 -0.5072021521841E+00
-0.2371758380618E+01 -0.4834794128191E+01 -0.3387079670550E+01 -0.4367944506236E+00
-0.2745316715051E+01 -0.4781746564031E+01 -0.3537719732196E+01 -0.3542752091385E+00
-0.3165202627635E+01 -0.4712115714037E+01 -0.3702339611195E+01 -0.2618506013708E+00
-0.3636197450929E+01 -0.4624457488550E+01 -0.3882507811708E+01 -0.1632841588669E+00
-0.4161302258198E+01 -0.4518144641278E+01 -0.4079340032407E+01 -0.6394476031261E-01
 0.2330443254270E+00 -0.4672765759626E+01 -0.2086669068781E+01 -0.4257457108615E+00
 0.1591315933516E+00 -0.4726774274686E+01 -0.2146792054782E+01 -0.4582813209601E+00
 0.7466315956503E-01 -0.4779809693290E+01 -0.2211418865242E+01 -0.4888559389669E+00
-0.2144864350138E-01 -0.4831334528122E+01 -0.2280808084878E+01 -0.5169411897528E+00
-0.1303200963911E+00 -0.4880838630400E+01 -0.2355244595618E+01 -0.5419554243340E+00
-0.2531003103217E+00 -0.4927830629899E+01 -0.2435037535727E+01 -0.5632254300858E+00
-0.3910091903091E+00 -0.4971809275859E+01 -0.2520524672706E+01 -0.5799659756717E+00
-0.5453887145913E+00 -0.5012229931285E+01 -0.2612080756937E+01 -0.5912812302844E+00
-0.7177582925307E+00 -0.5048473579190E+01 -0.2710128972835E+01 -0.5961841947060E+00
-0.9098714293745E+00 -0.5079820185968E+01 -0.2815155052071E+01 -0.5936313796359E+00
-0.1123772688239E+01 -0.5105426300104E+01 -0.2927723517096E+01 -0.5825730053545E+00
-0.1361852647052E+01 -0.5124307379275E+01 -0.3048495204642E+01 -0.5620217378338E+00
-0.1626894675343E+01 -0.5135327314564E+01 -0.3178244327195E+01 -0.5311447747993E+00
-0.1922100985707E+01 -0.5137200623861E+01 -0.3317871748082E+01 -0.4893845051755E+00
-0.2251075433042E+01 -0.5128515951730E+01 -0.3468407942045E+01 -0.4366109743988E+00
-0.2617730260107E+01 -0.5107794891498E+01 -0.3630996812045E+01 -0.3733028559659E+00
-0.3026067255273E+01 -0.5073598790175E+01 -0.3806843031705E+01 -0.3007401465015E+00
-0.3479782786054E+01 -0.5024701000750E+01 -0.3997107369660E+01 -0.2211648888669E+00
-0.3981684274019E+01 -0.4960341251325E+01 -0.4202751986252E+01 -0.1378233430498E+00
-0.4533017252664E+01 -0.4880558107706E+01 -0.4424380408152E+01 -0.5476308150249E-01
 0.2355402100318E+00 -0.4730593112464E+01 -0.2112674858785E+01 -0.3720562618062E+00
 0.1583724046826E+00 -0.4793104854675E+01 -0.2178324245971E+01 -0.4009137419263E+00
 0.6973530064925E-01 -0.4855340582510E+01 -0.2249234476769E+01 -0.4279608356809E+00
-0.3161565772586E-01 -0.4916747479169E+01 -0.2325730668442E+01 -0.4526923261759E+00
-0.1469773285066E+00 -0.4976780904164E+01 -0.2408166363247E+01 -0.4745441530081E+00
-0.2777067090513E+00 -0.5034894223667E+01 -0.2496922432044E+01 -0.4928726115042E+00
-0.4252505985106E+00 -0.5090516648690E+01 -0.2592410599609E+01 -0.5069458087493E+00
-0.5911840938781E+00 -0.5143028045983E+01 -0.2695079698899E+01 -0.5159520579965E+00
-0.7772505076552E+00 -0.5191735979971E+01 -0.2805423642069E+01 -0.5190240173962E+00
-0.9853990686310E+00 -0.5235857242212E+01 -0.2923990458680E+01 -0.5152773721612E+00
-0.1217817556745E+01 -0.5274504998922E+01 -0.3051391593424E+01 -0.5038642524753E+00
-0.1476955562670E+01 -0.5306683062008E+01 -0.3188310145512E+01 -0.4840427105066E+00
-0.1765530926890E+01 -0.5331290160385E+01 -0.3335505902559E+01 -0.4552637380119E+00
-0.2086507309776E+01 -0.5347138893867E+01 -0.3493813706851E+01 -0.4172759032437E+00
-0.2443025903218E+01 -0.5352996264792E+01 -0.3664130409671E+01 -0.3702438556839E+00
-0.2838269532031E+01 -0.5347653502046E+01 -0.3847383816258E+01 -0.3148696360133E+00
-0.3275239179456E+01 -0.5330033574389E+01 -0.4044478184049E+01 -0.2524934410777E+00
-0.3756438984465E+01 -0.5299341703998E+01 -0.4256216912782E+01 -0.1851333855560E+00
-0.4283507344509E+01 -0.5255253955518E+01 -0.4483217799642E+01 -0.1154079566223E+00
-0.4856898786866E+01 -0.5198116562580E+01 -0.4725857202253E+01 -0.4628810550476E-01
 0.2375402054235E+00 -0.4780649869511E+01 -0.2135261536705E+01 -0.3170049832408E+00
 0.1574141820203E+00 -0.4850563202479E+01 -0.2205780034021E+01 -0.3418857529126E+00
 0.6498217647160E-01 -0.4920799820356E+01 -0.2282234286837E+01 -0.3651447108974E+00
-0.4114665988656E-01 -0.4990782594499E+01 -0.2365006743563E+01 -0.3863185700404E+00
-0.1624321742799E+00 -0.5059927971075E+01 -0.2454509262091E+01 -0.4048873963849E+00
-0.3004114743033E+00 -0.5127635355062E+01 -0.2551182003331E+01 -0.4202648787120E+00
-0.4567203330197E+00 -0.5193269797422E+01 -0.2655495354572E+01 -0.4317979196919E+00
-0.6331190656178E+00 -0.5256143749937E+01 -0.2767953516290E+01 -0.4387796890047E+00
-0.8315168131020E+00 -0.5315501782102E+01 -0.2889098732418E+01 -0.4404760281765E+00
-0.1053990368804E+01 -0.5370510453126E+01 -0.3019515378648E+01 -0.4361645681082E+00
-0.1302794057019E+01 -0.5420254859528E+01 -0.3159832982762E+01 -0.4251862897109E+00
-0.1580356125315E+01 -0.5463743596919E+01 -0.3310726861053E+01 -0.4070093101309E+00
-0.1889255158361E+01 -0.5499924617657E+01 -0.3472914485920E+01 -0.3813038251968E+00
-0.2232167870670E+01 -0.5527715431991E+01 -0.3647145143000E+01 -0.3480249412061E+00
-0.2611778183813E+01 -0.5546051687431E+01 -0.3834180029760E+01 -0.3074961853824E+00
-0.3030639054566E+01 -0.5553958115950E+01 -0.4034760659909E+01 -0.2604805019100E+00
-0.3490986283958E+01 -0.5550643990632E+01 -0.4249566218279E+01 -0.2082180265048E+00
-0.3994521321016E+01 -0.5535619967419E+01 -0.4479166394204E+01 -0.1524033572953E+00
-0.4542207704828E+01 -0.5508822032693E+01 -0.4723983964653E+01 -0.9507527622730E-01
-0.5134147736662E+01 -0.5470707702673E+01 -0.4984282043846E+01 -0.3840741437727E-01
 0.2390988097324E+00 -0.4822707282607E+01 -0.2154295976787E+01 -0.2608342553920E+00
 0.1563795356928E+00 -0.4898868108526E+01 -0.2228969623578E+01 -0.2814972697569E+00
 0.6061762351640E-01 -0.4975849909965E+01 -0.2310159168772E+01 -0.3007660208712E+00
-0.4970727394081E-01 -0.5053048312516E+01 -0.2398295119552E+01 -0.3182365622195E+00
-0.1761955430851E+00 -0.5129841104152E+01 -0.2493837217876E+01 -0.3334549025923E+00
-0.3205342911154E+00 -0.5205578120953E+01 -0.2597272827085E+01 -0.3459142519829E+00
-0.4845108651977E+00 -0.5279568087042E+01 -0.2709117100681E+01 -0.3550595064160E+00
-0.6700270123499E+00 -0.5351066363909E+01 -0.2829913879664E+01 -0.3603023223586E+00
-0.8791087295437E+00 -0.5419266622888E+01 -0.2960236408134E+01 -0.3610470340848E+00
-0.1113908204125E+01 -0.5483298387720E+01 -0.3100687090303E+01 -0.3567268930925E+00
-0.1376694602675E+01 -0.5542231910436E+01 -0.3251895452914E+01 -0.3468498788318E+00
-0.1669830050254E+01 -0.5595091846049E+01 -0.3414513282602E+01 -0.3310527877342E+00
-0.1995726470014E+01 -0.5640881436413E+01 -0.3589205706917E+01 -0.3091610429414E+00
-0.2356778668526E+01 -0.5678619079241E+01 -0.3776636931871E+01 -0.2812494744475E+00
-0.2755270166802E+01 -0.5707388934752E+01 -0.3977449767643E+01 -0.2476961783287E+00
-0.3193252139972E+01 -0.5726406111281E+01 -0.4192239367456E+01 -0.2092178669594E+00
-0.3672403700262E+01 -0.5735094208005E+01 -0.4421524005671E+01 -0.1668720763138E+00
-0.4193894688796E+01 -0.5733168594041E+01 -0.4665719731099E+01 -0.1220118467789E+00
-0.4758285867430E+01 -0.5720710646024E+01 -0.4925128348832E+01 -0.7618545723941E-01
-0.5365508939993E+01 -0.5698208417181E+01 -0.5199947144683E+01 -0.3098836306435E-01
 0.2402674046461E+00 -0.4856577530824E+01 -0.2169665753801E+01 -0.2037709842091E+00
 0.1553798779747E+00 -0.4937791337804E+01 -0.2247733380419E+01 -0.2200280754137E+00
 0.5683358064920E-01 -0.5020221753729E+01 -0.2332792435431E+01 -0.2351549851830E+00
-0.5700072431255E-01 -0.5103238115310E+01 -0.2425312248471E+01 -0.2488221690812E+00
-0.1878386297394E+00 -0.5186183322253E+01 -0.2525790311030E+01 -0.2606590156028E+00
-0.3374865582716E+00 -0.5268364674198E+01 -0.2634750072578E+01 -0.2702551745320E+00
-0.5078483036074E+00 -0.5349044245189E+01 -0.2752739490952E+01 -0.2771672168075E+00
-0.7009291029845E+00 -0.5427431705251E+01 -0.2880329572565E+01 -0.2809332538909E+00
-0.9188332368855E+00 -0.5502681939409E+01 -0.3018112125204E+01 -0.2810958478549E+00
-0.1163752133779E+01 -0.5573899090842E+01 -0.3166696067540E+01 -0.2772326995028E+00
-0.1437940484134E+01 -0.5640148214767E+01 -0.3326701680046E+01 -0.2689940916310E+00
-0.1743678088025E+01 -0.5700475513624E+01 -0.3498752183901E+01 -0.2561453104744E+00
-0.2083215485408E+01 -0.5753937946876E+01 -0.3683462103831E+01 -0.2386110245238E+00
-0.2458702360301E+01 -0.5799642651325E+01 -0.3881422145620E+01 -0.2165168417017E+00
-0.2872099859546E+01 -0.5836795814482E+01 -0.4093180956411E+01 -0.1902212218355E+00
-0.3325081787885E+01 -0.5864759082903E+01 -0.4319225198315E+01 -0.1603292044021E+00
-0.3818935403030E+01 -0.5883109226970E+01 -0.4559960964535E+01 -0.1276791941239E+00
-0.4354477586279E+01 -0.5891692489669E+01 -0.4815699923481E+01 -0.9329693717642E-01
-0.4932009800620E+01 -0.5890665527279E+01 -0.5086657391211E+01 -0.5831933752476E-01
-0.5551339220190E+01 -0.5880512980706E+01 -0.5372970520793E+01 -0.2390447012245E-01
 0.2410925358519E+00 -0.4882111899159E+01 -0.2181279095222E+01 -0.1460274852767E+00
 0.1545149224435E+00 -0.4967151926107E+01 -0.2261939385985E+01 -0.1577374673491E+00
 0.5379996816271E-01 -0.5053703475407E+01 -0.2349954642444E+01 -0.1686133623723E+00
-0.6276703545312E-01 -0.5141113179007E+01 -0.2445823694593E+01 -0.1784118479230E+00
-0.1969899108514E+00 -0.5228695452746E+01 -0.2550072114423E+01 -0.1868589214835E+00
-0.3507640646260E+00 -0.5315724052417E+01 -0.2663249408255E+01 -0.1936530343250E+00
-0.5260775357462E+00 -0.5401425251234E+01 -0.2785926302814E+01 -0.1984716797493E+00
-0.7250071652581E+00 -0.5484974687904E+01 -0.2918691463583E+01 -0.2009834590772E+00
-0.9497067134666E+00 -0.5565499680654E+01 -0.3062146997470E+01 -0.2008659431748E+00
-0.1202384603494E+01 -0.5642088321337E+01 -0.3216902266511E+01 -0.1978288684340E+00
-0.1485269679630E+01 -0.5713806198938E+01 -0.3383565654345E+01 -0.1916416633004E+00
-0.1800564085428E+01 -0.5779721197626E+01 -0.3562734073999E+01 -0.1821636055497E+00
-0.2150383346852E+01 -0.5838936337678E+01 -0.3754980242205E+01 -0.1693739345321E+00
-0.2536685268756E+01 -0.5890629928530E+01 -0.3960838132678E+01 -0.1533980574364E+00
-0.2961191494426E+01 -0.5934101234789E+01 -0.4180787572127E+01 -0.1345248807768E+00
-0.3425308526582E+01 -0.5968818381974E+01 -0.4415239635823E+01 -0.1132098125949E+00
-0.3930057713836E+01 -0.5994463127879E+01 -0.4664524783775E+01 -0.9005887830216E-01
-0.4476026181834E+01 -0.6010966037596E+01 -0.4928886330631E+01 -0.6579243109591E-01
-0.5063340405071E+01 -0.6018518634863E+01 -0.5208473735558E+01 -0.4119199207203E-01
-0.5691677116474E+01 -0.6017575865874E+01 -0.5503348887745E+01 -0.1704784585688E-01
 0.2416141244302E+00 -0.4899198663235E+01 -0.2189064727686E+01 -0.8780551059652E-01
 0.1538714504570E+00 -0.4986811643366E+01 -0.2271481884906E+01 -0.9486990057179E-01
 0.5166411727877E-01 -0.5076131617842E+01 -0.2361499719275E+01 -0.1014219864022E+00
-0.6678248447675E-01 -0.5166488530608E+01 -0.2459637370852E+01 -0.1073128140417E+00
-0.2033322362219E+00 -0.5257176707210E+01 -0.2566439196903E+01 -0.1123742336027E+00
-0.3599397346054E+00 -0.5347446701214E+01 -0.2682471618032E+01 -0.1164219421432E+00
-0.5386477591470E+00 -0.5436500511045E+01 -0.2808319679867E+01 -0.1192602189727E+00
-0.7415780302776E+00 -0.5523491234384E+01 -0.2944582546922E+01 -0.1206898421739E+00
-0.9709129051563E+00 -0.5607528642614E+01 -0.3091867519610E+01 -0.1205194188356E+00
-0.1228866283948E+01 -0.5687691729261E+01 -0.3250782257963E+01 -0.1185798062993E+00
-0.1517642858683E+01 -0.5763048801843E+01 -0.3421925071768E+01 -0.1147409056930E+00
-0.1839385866861E+01 -0.5832685149973E+01 -0.3605873368766E+01 -0.1089296382740E+00
-0.2196114843519E+01 -0.5895737659454E+01 -0.3803170666751E+01 -0.1011473156755E+00
-0.2589656570788E+01 -0.5951434862432E+01 -0.4014312963432E+01 -0.9148396739013E-01
-0.3021574423291E+01 -0.5999139790708E+01 -0.4239735669826E+01 -0.8012670844214E-01
-0.3493103192182E+01 -0.6038391667813E+01 -0.4479802572836E+01 -0.6735926233774E-01
-0.4005097790456E+01 -0.6068941386858E+01 -0.4734798401329E+01 -0.5355066228398E-01
-0.4558002598834E+01 -0.6090774213368E+01 -0.5004925089040E+01 -0.3913309550165E-01
-0.5151849812334E+01 -0.6104117698687E+01 -0.5290304716761E+01 -0.2457065707491E-01
-0.5786220816987E+01 -0.6109388251368E+01 -0.5590936247946E+01 -0.1031665605657E-01
 0.2418641770399E+00 -0.4907761931229E+01 -0.2192971938907E+01 -0.2929963028968E-01
 0.1535227949550E+00 -0.4996671368357E+01 -0.2276279823725E+01 -0.3166050117989E-01
 0.5055078025594E-01 -0.5087384627695E+01 -0.2367311902292E+01 -0.3384837125898E-01
-0.6885851781039E-01 -0.5179223336515E+01 -0.2466598465277E+01 -0.3581311685207E-01
-0.2065994796495E+00 -0.5271471356297E+01 -0.2574693286364E+01 -0.3749802728275E-01
-0.3646563760706E+00 -0.5363367335998E+01 -0.2692171137844E+01 -0.3884108019212E-01
-0.5450990238720E+00 -0.5454100957330E+01 -0.2819623984013E+01 -0.3977665293657E-01
-0.7500708104508E+00 -0.5542814050842E+01 -0.2957655877306E+01 -0.4023828006997E-01
-0.9817671493206E+00 -0.5628607849100E+01 -0.3106876241377E+01 -0.4016253831239E-01
-0.1242402993953E+01 -0.5710557301108E+01 -0.3267891330390E+01 -0.3949394416923E-01
-0.1534168954297E+01 -0.5787732862502E+01 -0.3441293845167E+01 -0.3819060616665E-01
-0.1859176738411E+01 -0.5859229576844E+01 -0.3627650958969E+01 -0.3623021072003E-01
-0.2219396113027E+01 -0.5924202517118E+01 -0.3827491346460E+01 -0.3361572353211E-01
-0.2616587306397E+01 -0.5981906714500E+01 -0.4041292179571E+01 -0.3037999098371E-01
-0.3052234538865E+01 -0.6031738586932E+01 -0.4269467358296E+01 -0.2658830847584E-01
-0.3527487726698E+01 -0.6073274772385E+01 -0.4512358363124E+01 -0.2233809665454E-01
-0.4043119672718E+01 -0.6106303450039E+01 -0.4770228855597E+01 -0.1775521747998E-01
-0.4599505441567E+01 -0.6130843694119E+01 -0.5043264080980E+01 -0.1298702246321E-01
-0.5196627384943E+01 -0.6147148659686E+01 -0.5331574727453E+01 -0.8193075945607E-02
-0.5834149412403E+01 -0.6155716116420E+01 -0.5635236784254E+01 -0.3524124567975E-02
 0.2418641770298E+00 -0.4907761931151E+01 -0.2192971938875E+01  0.2929963033538E-01
 0.1535227949757E+00 -0.4996671368164E+01 -0.2276279823625E+01  0.3166050253061E-01
 0.5055078032440E-01 -0.5087384627373E+01 -0.2367311902108E+01  0.3384837394109E-01
-0.6885851767460E-01 -0.5179223336050E+01 -0.2466598464995E+01  0.3581312086469E-01
-0.2065994794232E+00 -0.5271471355675E+01 -0.2574693285966E+01  0.3749803259278E-01
-0.3646563757264E+00 -0.5363367335207E+01 -0.2692171137310E+01  0.3884108673200E-01
-0.5450990233785E+00 -0.5454100956357E+01 -0.2819623983324E+01  0.3977666060202E-01
-0.7500708097737E+00 -0.5542814049676E+01 -0.2957655876440E+01  0.4023828871805E-01
-0.9817671484218E+00 -0.5628607847730E+01 -0.3106876240311E+01  0.4016254775955E-01
-0.1242402992793E+01 -0.5710557299526E+01 -0.3267891329102E+01  0.3949395419409E-01
-0.1534168952836E+01 -0.5787732860698E+01 -0.3441293843633E+01  0.3819061651232E-01
-0.1859176736612E+01 -0.5859229574808E+01 -0.3627650957166E+01  0.3623022110103E-01
-0.2219396110856E+01 -0.5924202514839E+01 -0.3827491344369E+01  0.3361573364474E-01
-0.2616587303826E+01 -0.5981906711963E+01 -0.4041292177171E+01  0.3038000051854E-01
-0.3052234535875E+01 -0.6031738584120E+01 -0.4269467355569E+01  0.2658831713376E-01
-0.3527487723280E+01 -0.6073274769275E+01 -0.4512358360056E+01  0.2233810416472E-01
-0.4043119668876E+01 -0.6106303446605E+01 -0.4770228852177E+01  0.1775522361788E-01
-0.4599505437314E+01 -0.6130843690329E+01 -0.5043264077201E+01  0.1298702706623E-01
-0.5196627380306E+01 -0.6147148655505E+01 -0.5331574723308E+01  0.8193078927251E-02
-0.5834149407408E+01 -0.6155716111802E+01 -0.5635236779736E+01  0.3524125926725E-02
 0.2416141243990E+00 -0.4899198663004E+01 -0.2189064727592E+01  0.8780551064318E-01
 0.1538714505155E+00 -0.4986811642792E+01 -0.2271481884609E+01  0.9486990191568E-01
 0.5166411747487E-01 -0.5076131616885E+01 -0.2361499718733E+01  0.1014219890710E+00
-0.6678248408347E-01 -0.5166488529225E+01 -0.2459637370017E+01  0.1073128180360E+00
-0.2033322355622E+00 -0.5257176705358E+01 -0.2566439195723E+01  0.1123742388924E+00
-0.3599397335992E+00 -0.5347446698856E+01 -0.2682471616450E+01  0.1164219486643E+00
-0.5386477577016E+00 -0.5436500508142E+01 -0.2808319677824E+01  0.1192602266255E+00
-0.7415780282897E+00 -0.5523491230903E+01 -0.2944582544352E+01  0.1206898508205E+00
-0.9709129025149E+00 -0.5607528638525E+01 -0.3091867516447E+01  0.1205194282977E+00
-0.1228866280534E+01 -0.5687691724534E+01 -0.3250782254137E+01  0.1185798163602E+00
-0.1517642854378E+01 -0.5763048796451E+01 -0.3421925067210E+01  0.1147409160992E+00
-0.1839385861551E+01 -0.5832685143885E+01 -0.3605873363409E+01  0.1089296487414E+00
-0.2196114837100E+01 -0.5895737652636E+01 -0.3803170660530E+01  0.1011473258987E+00
-0.2589656563178E+01 -0.5951434854843E+01 -0.4014312956288E+01  0.9148397705443E-01
-0.3021574414431E+01 -0.5999139782295E+01 -0.4239735661708E+01  0.8012671723930E-01
-0.3493103182047E+01 -0.6038391658512E+01 -0.4479802563700E+01  0.6735926998408E-01
-0.4005097779052E+01 -0.6068941376590E+01 -0.4734798391143E+01  0.5355066853882E-01
-0.4558002586202E+01 -0.6090774202041E+01 -0.5004925077780E+01  0.3913310018357E-01
-0.5151849798548E+01 -0.6104117686196E+01 -0.5290304704412E+01  0.2457066007592E-01
-0.5786220802139E+01 -0.6109388237596E+01 -0.5590936234495E+01  0.1031665735277E-01
 0.2410925357980E+00 -0.4882111898777E+01 -0.2181279095068E+01  0.1460274853252E+00
 0.1545149225323E+00 -0.4967151925162E+01 -0.2261939385499E+01  0.1577374686790E+00
 0.5379996847307E-01 -0.5053703473827E+01 -0.2349954641556E+01  0.1686133650131E+00
-0.6276703482639E-01 -0.5141113176723E+01 -0.2445823693225E+01  0.1784118518781E+00
-0.1969899097949E+00 -0.5228695449686E+01 -0.2550072112488E+01  0.1868589267277E+00
-0.3507640630094E+00 -0.5315724048516E+01 -0.2663249405662E+01  0.1936530408011E+00
-0.5260775334192E+00 -0.5401425246430E+01 -0.2785926299463E+01  0.1984716873659E+00
-0.7250071620514E+00 -0.5484974682140E+01 -0.2918691459367E+01  0.2009834677060E+00
-0.9497067091953E+00 -0.5565499673876E+01 -0.3062146992277E+01  0.2008659526475E+00
-0.1202384597963E+01 -0.5642088313496E+01 -0.3216902260227E+01  0.1978288785428E+00
-0.1485269672641E+01 -0.5713806189988E+01 -0.3383565646853E+01  0.1916416737985E+00
-0.1800564076788E+01 -0.5779721187516E+01 -0.3562734065186E+01  0.1821636161557E+00
-0.2150383336388E+01 -0.5838936326353E+01 -0.3754980231964E+01  0.1693739449382E+00
-0.2536685256321E+01 -0.5890629915920E+01 -0.3960838120907E+01  0.1533980673186E+00
-0.2961191479919E+01 -0.5934101220811E+01 -0.4180787558739E+01  0.1345248898111E+00
-0.3425308509953E+01 -0.5968818366522E+01 -0.4415239620745E+01  0.1132098204759E+00
-0.3930057695091E+01 -0.5994463110825E+01 -0.4664524766949E+01  0.9005888476327E-01
-0.4476026161039E+01 -0.6010966018789E+01 -0.4928886312018E+01  0.6579243592914E-01
-0.5063340382346E+01 -0.6018518614136E+01 -0.5208473715136E+01  0.4119199514518E-01
-0.5691677091991E+01 -0.6017575843059E+01 -0.5503348865515E+01  0.1704784712640E-01
 0.2402674045706E+00 -0.4856577530299E+01 -0.2169665753589E+01  0.2037709842593E+00
 0.1553798780886E+00 -0.4937791336498E+01 -0.2247733379751E+01  0.2200280767213E+00
 0.5683358105969E-01 -0.5020221751544E+01 -0.2332792434211E+01  0.2351549877793E+00
-0.5700072347776E-01 -0.5103238112146E+01 -0.2425312246592E+01  0.2488221729736E+00
-0.1878386283281E+00 -0.5186183318013E+01 -0.2525790308374E+01  0.2606590207728E+00
-0.3374865561055E+00 -0.5268364668787E+01 -0.2634750069017E+01  0.2702551809319E+00
-0.5078483004811E+00 -0.5349044238518E+01 -0.2752739486348E+01  0.2771672243581E+00
-0.7009290986665E+00 -0.5427431697238E+01 -0.2880329566770E+01  0.2809332624777E+00
-0.9188332311206E+00 -0.5502681929979E+01 -0.3018112118062E+01  0.2810958573244E+00
-0.1163752126296E+01 -0.5573899079924E+01 -0.3166696058892E+01  0.2772327096609E+00
-0.1437940474652E+01 -0.5640148202296E+01 -0.3326701669728E+01  0.2689941022421E+00
-0.1743678076268E+01 -0.5700475499526E+01 -0.3498752171749E+01  0.2561453212621E+00
-0.2083215471123E+01 -0.5753937931077E+01 -0.3683462089691E+01  0.2386110351784E+00
-0.2458702343273E+01 -0.5799642633731E+01 -0.3881422129347E+01  0.2165168518874E+00
-0.2872099839617E+01 -0.5836795794977E+01 -0.4093180937877E+01  0.1902212312060E+00
-0.3325081764973E+01 -0.5864759061343E+01 -0.4319225177413E+01  0.1603292126203E+00
-0.3818935377135E+01 -0.5883109203176E+01 -0.4559960941181E+01  0.1276792008852E+00
-0.4354477557489E+01 -0.5891692463429E+01 -0.4815699897617E+01  0.9329694223417E-01
-0.4932009769101E+01 -0.5890665498358E+01 -0.5086657362805E+01  0.5831934071251E-01
-0.5551339186178E+01 -0.5880512948857E+01 -0.5372970489838E+01  0.2390447136892E-01
 0.2390988096381E+00 -0.4822707281944E+01 -0.2154295976519E+01  0.2608342554439E+00
 0.1563795358285E+00 -0.4898868106872E+01 -0.2228969622737E+01  0.2814972710340E+00
 0.6061762401217E-01 -0.4975849907195E+01 -0.2310159167236E+01  0.3007660234065E+00
-0.4970727292649E-01 -0.5053048308500E+01 -0.2398295117188E+01  0.3182365660253E+00
-0.1761955413648E+00 -0.5129841098764E+01 -0.2493837214535E+01  0.3334549076578E+00
-0.3205342884692E+00 -0.5205578114071E+01 -0.2597272822606E+01  0.3459142582723E+00
-0.4845108613696E+00 -0.5279568078548E+01 -0.2709117094890E+01  0.3550595138654E+00
-0.6700270070501E+00 -0.5351066353694E+01 -0.2829913872372E+01  0.3603023308715E+00
-0.8791087224496E+00 -0.5419266610852E+01 -0.2960236399143E+01  0.3610470435276E+00
-0.1113908194888E+01 -0.5483298373770E+01 -0.3100687079405E+01  0.3567269032903E+00
-0.1376694590930E+01 -0.5542231894483E+01 -0.3251895439896E+01  0.3468498895651E+00
-0.1669830035636E+01 -0.5595091828004E+01 -0.3414513267250E+01  0.3310527987369E+00
-0.1995726452179E+01 -0.5640881416178E+01 -0.3589205689024E+01  0.3091610539035E+00
-0.2356778647174E+01 -0.5678619056699E+01 -0.3776636911241E+01  0.2812494850208E+00
-0.2755270141705E+01 -0.5707388909760E+01 -0.3977449744100E+01  0.2476961881391E+00
-0.3193252110997E+01 -0.5726406083655E+01 -0.4192239340854E+01  0.2092178756276E+00
-0.3672403667394E+01 -0.5735094177517E+01 -0.4421523975894E+01  0.1668720834821E+00
-0.4193894652141E+01 -0.5733168560414E+01 -0.4665719698067E+01  0.1220118521445E+00
-0.4758285827202E+01 -0.5720710608939E+01 -0.4925128312495E+01  0.7618546058701E-01
-0.5365508896494E+01 -0.5698208376298E+01 -0.5199947105023E+01  0.3098836428892E-01
 0.2375402053133E+00 -0.4780649868717E+01 -0.2135261536384E+01  0.3170049832950E+00
 0.1574141821729E+00 -0.4850563200491E+01 -0.2205780033015E+01  0.3418857541529E+00
 0.6498217703825E-01 -0.4920799817021E+01 -0.2282234285004E+01  0.3651447133580E+00
-0.4114665872305E-01 -0.4990782589662E+01 -0.2365006740742E+01  0.3863185737382E+00
-0.1624321723017E+00 -0.5059927964577E+01 -0.2454509258108E+01  0.4048874013179E+00
-0.3004114712540E+00 -0.5127635346750E+01 -0.2551181997991E+01  0.4202648848576E+00
-0.4567203285998E+00 -0.5193269787151E+01 -0.2655495347667E+01  0.4317979270042E+00
-0.6331190594824E+00 -0.5256143737567E+01 -0.2767953507593E+01  0.4387796974093E+00
-0.8315168048651E+00 -0.5315501767506E+01 -0.2889098721687E+01  0.4404760375643E+00
-0.1053990358041E+01 -0.5370510436187E+01 -0.3019515365628E+01  0.4361645783297E+00
-0.1302794043279E+01 -0.5420254840132E+01 -0.3159832967189E+01  0.4251863005695E+00
-0.1580356108135E+01 -0.5463743574956E+01 -0.3310726842656E+01  0.4070093213770E+00
-0.1889255137293E+01 -0.5499924593009E+01 -0.3472914464433E+01  0.3813038365255E+00
-0.2232167845308E+01 -0.5527715404520E+01 -0.3647145118169E+01  0.3480249522585E+00
-0.2611778153833E+01 -0.5546051656968E+01 -0.3834180001351E+01  0.3074961957533E+00
-0.3030639019761E+01 -0.5553958082277E+01 -0.4034760627724E+01  0.2604805111668E+00
-0.3490986244274E+01 -0.5550643953469E+01 -0.4249566182161E+01  0.2082180342182E+00
-0.3994521276570E+01 -0.5535619926420E+01 -0.4479166354045E+01  0.1524033630819E+00
-0.4542207655898E+01 -0.5508821987449E+01 -0.4723983920392E+01  0.9507527979862E-01
-0.5134147683630E+01 -0.5470707652718E+01 -0.4984281995441E+01  0.3840741558610E-01
 0.2355402099100E+00 -0.4730593111550E+01 -0.2112674858412E+01  0.3720562618554E+00
 0.1583724048484E+00 -0.4793104852373E+01 -0.2178324244811E+01  0.4009137431111E+00
 0.6973530127010E-01 -0.4855340578641E+01 -0.2249234474659E+01  0.4279608380374E+00
-0.3161565644759E-01 -0.4916747473550E+01 -0.2325730665200E+01  0.4526923297254E+00
-0.1469773263295E+00 -0.4976780896609E+01 -0.2408166358673E+01  0.4745441577576E+00
-0.2777067056893E+00 -0.5034894213991E+01 -0.2496922425917E+01  0.4928726174453E+00
-0.4252505936280E+00 -0.5090516636716E+01 -0.2592410591686E+01  0.5069458158566E+00
-0.5911840870850E+00 -0.5143028031540E+01 -0.2695079688918E+01  0.5159520662212E+00
-0.7772504985083E+00 -0.5191735962903E+01 -0.2805423629747E+01  0.5190240266595E+00
-0.9853990566333E+00 -0.5235857222371E+01 -0.2923990443716E+01  0.5152773823463E+00
-0.1217817541356E+01 -0.5274504976170E+01 -0.3051391575498E+01  0.5038642634170E+00
-0.1476955543326E+01 -0.5306683036212E+01 -0.3188310124296E+01  0.4840427219819E+00
-0.1765530903021E+01 -0.5331290131405E+01 -0.3335505877720E+01  0.4552637497310E+00
-0.2086507280847E+01 -0.5347138861546E+01 -0.3493813678063E+01  0.4172759148442E+00
-0.2443025868772E+01 -0.5352996228937E+01 -0.3664130376630E+01  0.3702438667314E+00
-0.2838269491748E+01 -0.5347653462408E+01 -0.3847383778695E+01  0.3148696460146E+00
-0.3275239133208E+01 -0.5330033530644E+01 -0.4044478141752E+01  0.2524934495113E+00
-0.3756438932359E+01 -0.5299341655729E+01 -0.4256216865606E+01  0.1851333919247E+00
-0.4283507286892E+01 -0.5255253902205E+01 -0.4483217747505E+01  0.1154079605259E+00
-0.4856898724304E+01 -0.5198116503644E+01 -0.4725857145149E+01  0.4628810672364E-01
 0.2330443252987E+00 -0.4672765758603E+01 -0.2086669068360E+01  0.4257457109045E+00
 0.1591315935276E+00 -0.4726774272093E+01 -0.2146792053481E+01  0.4582813220805E+00
 0.7466316022297E-01 -0.4779809688925E+01 -0.2211418862881E+01  0.4888559412012E+00
-0.2144864214577E-01 -0.4831334521777E+01 -0.2280808081259E+01  0.5169411931249E+00
-0.1303200940797E+00 -0.4880838621859E+01 -0.2355244590517E+01  0.5419554288584E+00
-0.2531003067495E+00 -0.4927830618944E+01 -0.2435037528900E+01  0.5632254357683E+00
-0.3910091851141E+00 -0.4971809262280E+01 -0.2520524663882E+01  0.5799659825076E+00
-0.5453887073495E+00 -0.5012229914878E+01 -0.2612080745822E+01  0.5912812382532E+00
-0.7177582827502E+00 -0.5048473559764E+01 -0.2710128959108E+01  0.5961842037631E+00
-0.9098714164958E+00 -0.5079820163344E+01 -0.2815155035384E+01  0.5936313897035E+00
-0.1123772671640E+01 -0.5105426274114E+01 -0.2927723497079E+01  0.5825730163085E+00
-0.1361852626059E+01 -0.5124307349757E+01 -0.3048495180902E+01  0.5620217494899E+00
-0.1626894649254E+01 -0.5135327281355E+01 -0.3178244299325E+01  0.5311447868970E+00
-0.1922100953829E+01 -0.5137200586784E+01 -0.3317871715673E+01  0.4893845173635E+00
-0.2251075394745E+01 -0.5128515910570E+01 -0.3468407904701E+01  0.4366109862241E+00
-0.2617730214896E+01 -0.5107794845983E+01 -0.3630996769404E+01  0.3733028668745E+00
-0.3026067202880E+01 -0.5073598739938E+01 -0.3806842983469E+01  0.3007401558613E+00
-0.3479782726526E+01 -0.5024700945303E+01 -0.3997107315621E+01  0.2211648960237E+00
-0.3981684207779E+01 -0.4960341190037E+01 -0.4202751926314E+01  0.1378233474260E+00
-0.4533017180472E+01 -0.4880558039792E+01 -0.4424380342302E+01  0.5476308273210E-01
 0.2299952260118E+00 -0.4607439021219E+01 -0.2057398578529E+01  0.4778139709140E+00
 0.1595557843315E+00 -0.4651913360877E+01 -0.2111408055621E+01  0.5136700845483E+00
 0.7952690634136E-01 -0.4694628978678E+01 -0.2169097968496E+01  0.5474455036066E+00
-0.1102197807661E-01 -0.4735044024854E+01 -0.2230651015720E+01  0.5786084327475E+00
-0.1130167722865E+00 -0.4772673102948E+01 -0.2296274235536E+01  0.6065918763564E+00
-0.2273757671089E+00 -0.4807079001417E+01 -0.2366193735206E+01  0.6307269708311E+00
-0.3550564407169E+00 -0.4837832767600E+01 -0.2440657921719E+01  0.6502066289093E+00
-0.4971192605758E+00 -0.4864469542380E+01 -0.2519946730998E+01  0.6640790429578E+00
-0.6547966772177E+00 -0.4886449917828E+01 -0.2604385893066E+01  0.6712612292949E+00
-0.8295659834290E+00 -0.4903126595838E+01 -0.2694365505422E+01  0.6705666173750E+00
-0.1023228449046E+01 -0.4913713780946E+01 -0.2790362841019E+01  0.6607463266097E+00
-0.1237996517606E+01 -0.4917257678331E+01 -0.2892969464753E+01  0.6405485188890E+00
-0.1476587401126E+01 -0.4912609146550E+01 -0.3002922369791E+01  0.6088040414098E+00
-0.1742314394992E+01 -0.4898403258913E+01 -0.3121137289419E+01  0.5645496770570E+00
-0.2039155780373E+01 -0.4873056199091E+01 -0.3248739622108E+01  0.5072021648638E+00
-0.2371758331263E+01 -0.4834794076862E+01 -0.3387079623228E+01  0.4367944626087E+00
-0.2745316657137E+01 -0.4781746507353E+01 -0.3537719678337E+01  0.3542752196775E+00
-0.3165202561043E+01 -0.4712115651457E+01 -0.3702339550485E+01  0.2618506096031E+00
-0.3636197376087E+01 -0.4624457419308E+01 -0.3882507743988E+01  0.1632841639354E+00
-0.4161302176159E+01 -0.4518144564376E+01 -0.4079339957705E+01  0.6394476156969E-01
 0.2263294288672E+00 -0.4534929876406E+01 -0.2025042205207E+01  0.5279922420506E+00
 0.1594876937348E+00 -0.4568941930206E+01 -0.2072443485885E+01  0.5667593301511E+00
 0.8405278153516E-01 -0.4600333074474E+01 -0.2122651732297E+01  0.6033371488358E+00
-0.7662294138200E-03 -0.4628520162698E+01 -0.2175764598774E+01  0.6372150813832E+00
-0.9570684844000E-01 -0.4653030996886E+01 -0.2231906781642E+01  0.6678811491708E+00
-0.2014411833723E+00 -0.4673482361867E+01 -0.2291214060451E+01  0.6947095733936E+00
-0.3186347399606E+00 -0.4689517849040E+01 -0.2353831710860E+01  0.7169064761120E+00
-0.4480235175083E+00 -0.4700750905631E+01 -0.2419923972738E+01  0.7334978171991E+00
-0.5904927994336E+00 -0.4706720097982E+01 -0.2489690055471E+01  0.7433383348437E+00
-0.7471598343736E+00 -0.4706852336562E+01 -0.2563385713838E+01  0.7451304961839E+00
-0.9194677815583E+00 -0.4700427461613E+01 -0.2641350757591E+01  0.7374516415292E+00
-0.1109298621349E+01 -0.4686539180584E+01 -0.2724043759999E+01  0.7187942926005E+00
-0.1319110871657E+01 -0.4664050636268E+01 -0.2812085901592E+01  0.6876302097567E+00
-0.1552103566232E+01 -0.4631547318024E+01 -0.2906315908229E+01  0.6425146776192E+00
-0.1812396968914E+01 -0.4587295296752E+01 -0.3007855357234E+01  0.5822544754686E+00
-0.2105202255064E+01 -0.4529224747702E+01 -0.3118180683391E+01  0.5061704307364E+00
-0.2436891593991E+01 -0.4454956365273E+01 -0.3239168532639E+01  0.4144876209465E+00
-0.2814903995406E+01 -0.4361977236339E+01 -0.3373134170365E+01  0.3088711374750E+00
-0.3247109115338E+01 -0.4247900294374E+01 -0.3522654413630E+01  0.1931143381922E+00
-0.3740096279873E+01 -0.4110868778187E+01 -0.3689953567929E+01  0.7381711917586E-01
 0.2219662694203E+00 -0.4455611300965E+01 -0.1989813159779E+01  0.5760256552128E+00
 0.1587301134849E+00 -0.4478394945778E+01 -0.2030242466028E+01  0.6172609215763E+00
 0.8791240645794E-01 -0.4497610080015E+01 -0.2072557901315E+01  0.6561673061469E+00
 0.8810681233228E-02 -0.4512586747203E+01 -0.2116774745637E+01  0.6922995905454E+00
-0.7914155065365E-01 -0.4522866920398E+01 -0.2162943975908E+01  0.7252513581432E+00
-0.1763619345327E+00 -0.4528125815158E+01 -0.2211109236747E+01  0.7544788798894E+00
-0.2832047320409E+00 -0.4528077835646E+01 -0.2261302801077E+01  0.7792340818583E+00
-0.4000519533159E+00 -0.4522405105790E+01 -0.2313554811912E+01  0.7985543926770E+00
-0.5273960621349E+00 -0.4510710167370E+01 -0.2367909921862E+01  0.8112719168126E+00
-0.6659224752457E+00 -0.4492481348208E+01 -0.2424449790874E+01  0.8160247837370E+00
-0.8166051511559E+00 -0.4467058136866E+01 -0.2483321739071E+01  0.8112670261931E+00
-0.9808298506976E+00 -0.4433587526038E+01 -0.2544776160611E+01  0.7952815452970E+00
-0.1160559790452E+01 -0.4390965643924E+01 -0.2609216947539E+01  0.7662069397757E+00
-0.1358558925177E+01 -0.4337762935627E+01 -0.2677271267788E+01  0.7220962260877E+00
-0.1578687314534E+01 -0.4272137167096E+01 -0.2749887499391E+01  0.6610367086635E+00
-0.1826267871074E+01 -0.4191743840084E+01 -0.2828465497070E+01  0.5813778769772E+00
-0.2108504156570E+01 -0.4093685647375E+01 -0.2915029200461E+01  0.4821401168518E+00
-0.2434717512213E+01 -0.3974469941521E+01 -0.3012318095615E+01  0.3636899033322E+00
-0.2816673011334E+01 -0.3830481417095E+01 -0.3124162573437E+01  0.2287461330012E+00
-0.3267599391532E+01 -0.3658301115795E+01 -0.3255173230187E+01  0.8397994903476E-01
 0.2167686738129E+00 -0.4369966761339E+01 -0.1952003096186E+01  0.6217211124203E+00
 0.1570208967043E+00 -0.4380986658975E+01 -0.1985263903232E+01  0.6649647334220E+00
 0.9070331109497E-01 -0.4387332370191E+01 -0.2019415652653E+01  0.7056475336521E+00
 0.1709543611094E-01 -0.4388254199180E+01 -0.2054444613432E+01  0.7434739300591E+00
-0.6421500750691E-01 -0.4383327736486E+01 -0.2090345084375E+01  0.7781988510102E+00
-0.1533887571844E+00 -0.4372301220965E+01 -0.2127074284335E+01  0.8093904780697E+00
-0.2504632931253E+00 -0.4354956450173E+01 -0.2164547273860E+01  0.8363661448797E+00
-0.3554588484532E+00 -0.4331023531532E+01 -0.2202646713006E+01  0.8581980788910E+00
-0.4684578813956E+00 -0.4300138095034E+01 -0.2241240103237E+01  0.8737313904367E+00
-0.5896742787728E+00 -0.4261815998246E+01 -0.2280200424415E+01  0.8815918033199E+00
-0.7195335766485E+00 -0.4215427231760E+01 -0.2319431574069E+01  0.8801785292072E+00
-0.8587833121001E+00 -0.4160154575037E+01 -0.2358900800972E+01  0.8676459982743E+00
-0.1008655862104E+01 -0.4094928119728E+01 -0.2398684465377E+01  0.8418827678866E+00
-0.1171111947005E+01 -0.4018328379730E+01 -0.2439036947380E+01  0.8005013783735E+00
-0.1349204084640E+01 -0.3928452484357E+01 -0.2480498581137E+01  0.7408636306242E+00
-0.1547617763168E+01 -0.3822746519253E+01 -0.2524071206336E+01  0.6601886152761E+00
-0.1773435561265E+01 -0.3697804860791E+01 -0.2571482991844E+01  0.5558344266224E+00
-0.2037188412486E+01 -0.3549242237464E+01 -0.2625622398817E+01  0.4259317110526E+00
-0.2353237199691E+01 -0.3371131877681E+01 -0.2690453459541E+01  0.2705451493918E+00
-0.2742888479770E+01 -0.3158096005576E+01 -0.2773462701078E+01  0.9344871887607E-01
 0.2105553214216E+00 -0.4278601013967E+01 -0.1911981470647E+01  0.6649213849931E+00
 0.1541634399176E+00 -0.4277463073043E+01 -0.1937950822653E+01  0.7096571580838E+00
 0.9209931548132E-01 -0.4270340165648E+01 -0.1963773194598E+01  0.7514674021435E+00
 0.2356029451983E-01 -0.4256434708997E+01 -0.1989450969758E+01  0.7903223605006E+00
-0.5171786356988E-01 -0.4235409128995E+01 -0.2014949681395E+01  0.8261901918714E+00
-0.1336358783772E+00 -0.4207114655375E+01 -0.2040152745689E+01  0.8587593507252E+00
-0.2219210200516E+00 -0.4171393913379E+01 -0.2064858013475E+01  0.8874070458263E+00
-0.3162503163482E+00 -0.4127991752026E+01 -0.2088793766838E+01  0.9112414980245E+00
-0.4163153973491E+00 -0.4076525298675E+01 -0.2111635121775E+01  0.9291398363212E+00
-0.5218672079685E+00 -0.4016479794270E+01 -0.2133023085642E+01  0.9397575346549E+00
-0.6327625006591E+00 -0.3947197214334E+01 -0.2152581060587E+01  0.9415073597873E+00
-0.7490365923031E+00 -0.3867844463932E+01 -0.2169934090927E+01  0.9325120866417E+00
-0.8710244285222E+00 -0.3777348963059E+01 -0.2184735488502E+01  0.9105352771254E+00
-0.9995632608435E+00 -0.3674291109333E+01 -0.2196711548411E+01  0.8728942033602E+00
-0.1136330716093E+01 -0.3556738151145E+01 -0.2205742362007E+01  0.8163626041780E+00
-0.1284413552540E+01 -0.3421999270645E+01 -0.2212014021287E+01  0.7370843833553E+00
-0.1449290932349E+01 -0.3266296684782E+01 -0.2216326174430E+01  0.6305610703964E+00
-0.1640484703527E+01 -0.3084332443197E+01 -0.2220664053328E+01  0.4918797307633E+00
-0.1874291784675E+01 -0.2869093120747E+01 -0.2229390899894E+01  0.3166886343067E+00
-0.2171629455016E+01 -0.2607731038302E+01 -0.2246299426162E+01  0.1029728684422E+00
 0.2034223171197E+00 -0.4181881453772E+01 -0.1869875789484E+01  0.7053043304680E+00
 0.1503212079047E+00 -0.4168184719288E+01 -0.1888395845561E+01  0.7508535808210E+00
 0.9224364298573E-01 -0.4146950128862E+01 -0.1905712043528E+01  0.7929762285418E+00
 0.2827301391281E-01 -0.4117409433594E+01 -0.1921894112375E+01  0.8320502390058E+00
-0.4168594783336E-01 -0.4079418178891E+01 -0.1936918934648E+01  0.8682947195769E+00
-0.1172549178558E+00 -0.4032973916182E+01 -0.1950607547050E+01  0.9014932496974E+00
-0.1978699795029E+00 -0.3977973460606E+01 -0.1962646411873E+01  0.9310440648691E+00
-0.2829023294842E+00 -0.3914123480972E+01 -0.1972602125911E+01  0.9560668279532E+00
-0.3717075684522E+00 -0.3840955866893E+01 -0.1979951809590E+01  0.9754701200279E+00
-0.4636286613363E+00 -0.3757849299856E+01 -0.1984094636728E+01  0.9879650583751E+00
-0.5579993057403E+00 -0.3664040405567E+01 -0.1984358659281E+01  0.9920333581270E+00
-0.6541588759171E+00 -0.3558601703021E+01 -0.1979997467079E+01  0.9858580130783E+00
-0.7514991963694E+00 -0.3440383795578E+01 -0.1970185001218E+01  0.9672177999169E+00
-0.8495647326660E+00 -0.3307909306073E+01 -0.1954012793251E+01  0.9333380750821E+00
-0.9482501782143E+00 -0.3159197347008E+01 -0.1930500331958E+01  0.8806825151234E+00
-0.1048180819402E+01 -0.2991476411214E+01 -0.1898638893574E+01  0.8046639097551E+00
-0.1151480667038E+01 -0.2800728093194E+01 -0.1857538112597E+01  0.6992502963231E+00
-0.1263425154982E+01 -0.2581011854506E+01 -0.1806885389876E+01  0.5564896553575E+00
-0.1396506867778E+01 -0.2323840951946E+01 -0.1748563470835E+01  0.3662424657397E+00
-0.1578201759521E+01 -0.2018928241044E+01 -0.1690651095977E+01  0.1182821472778E+00
 0.1954361431562E+00 -0.4080398942350E+01 -0.1825932510990E+01  0.7425141446692E+00
 0.1456323794339E+00 -0.4053809671935E+01 -0.1836843322816E+01  0.7880090244053E+00
 0.9129910103213E-01 -0.4017802456437E+01 -0.1845456572360E+01  0.8294492325900E+00
 0.3137510041561E-01 -0.3971864518394E+01 -0.1852030021753E+01  0.8678169484840E+00
-0.3397466115962E-01 -0.3916202084451E+01 -0.1856583065728E+01  0.9035840840814E+00
-0.1040891762395E+00 -0.3851045118941E+01 -0.1858913114020E+01  0.9365458224770E+00
-0.1781283433465E+00 -0.3776294610000E+01 -0.1858578783359E+01  0.9660409682710E+00
-0.2552325501581E+00 -0.3691556160790E+01 -0.1854990689441E+01  0.9911518057776E+00
-0.3345039791857E+00 -0.3596192697569E+01 -0.1847427433389E+01  0.1010800593728E+01
-0.4149814515945E+00 -0.3489407052433E+01 -0.1835062592239E+01  0.1023760419838E+01
-0.4955879775139E+00 -0.3370260527679E+01 -0.1816948792832E+01  0.1028610792259E+01
-0.5750858949815E+00 -0.3237656849627E+01 -0.1791989085421E+01  0.1023656063497E+01
-0.6520354276653E+00 -0.3090288529287E+01 -0.1758892255306E+01  0.1006804584601E+01
-0.7247602882917E+00 -0.2926540787433E+01 -0.1716111501238E+01  0.9753924504953E+00
-0.7913233758716E+00 -0.2744326900322E+01 -0.1661755625596E+01  0.9259187257223E+00
-0.8495436810315E+00 -0.2540811510468E+01 -0.1593466935963E+01  0.8536314504368E+00
-0.8970945134985E+00 -0.2311890702937E+01 -0.1508223047899E+01  0.7518525300203E+00
-0.9320098271428E+00 -0.2051272669584E+01 -0.1402142769905E+01  0.6108180043281E+00
-0.9544412046654E+00 -0.1748544428012E+01 -0.1270403244136E+01  0.4156027376942E+00
-0.9819406431020E+00 -0.1391463238980E+01 -0.1115499821749E+01  0.1436284588352E+00
 0.1866207456408E+00 -0.3974985593024E+01 -0.1780531473754E+01  0.7761944806280E+00
 0.1401879811571E+00 -0.3935223545313E+01 -0.1783666710629E+01  0.8205516620379E+00
 0.8931628897522E-01 -0.3883757422990E+01 -0.1783387328464E+01  0.8601560870302E+00
 0.3293922469270E-01 -0.3820694397173E+01 -0.1780244926550E+01  0.8968739650771E+00
-0.2850357770536E-01 -0.3747008301162E+01 -0.1774490578567E+01  0.9313192356639E+00
-0.9396315377331E-01 -0.3663095525913E+01 -0.1765817574974E+01  0.9631239722237E+00
-0.1624367094369E+00 -0.3568829198869E+01 -0.1753694972456E+01  0.9914436119701E+00
-0.2328928331712E+00 -0.3463563947523E+01 -0.1737334682520E+01  0.1015264195969E+01
-0.3043078152793E+00 -0.3346440735859E+01 -0.1715851814683E+01  0.1033495655280E+01
-0.3755535391510E+00 -0.3216450635762E+01 -0.1688241957927E+01  0.1044949279895E+01
-0.4453168492864E+00 -0.3072455316303E+01 -0.1653352913634E+01  0.1048275109925E+01
-0.5120080935124E+00 -0.2913157795167E+01 -0.1609827963596E+01  0.1041873014141E+01
-0.5736545294891E+00 -0.2737046538972E+01 -0.1556029498230E+01  0.1023771867827E+01
-0.6277538288273E+00 -0.2542306902852E+01 -0.1489928540110E+01  0.9914559537464E+00
-0.6710592053041E+00 -0.2326687216280E+01 -0.1408940814571E+01  0.9416005922313E+00
-0.6992149783099E+00 -0.2087262199364E+01 -0.1309644270185E+01  0.8696450816709E+00
-0.7061777033758E+00 -0.1820047660570E+01 -0.1187325918043E+01  0.7690563444907E+00
-0.6828951444687E+00 -0.1518997658979E+01 -0.1034889614996E+01  0.6299489531567E+00
-0.6148608479512E+00 -0.1173839852752E+01 -0.8406893271983E+00  0.4361105913979E+00
-0.4740596773165E+00 -0.7589638818747E+00 -0.5795210713500E+00  0.1562945067803E+00
 0.1770007055625E+00 -0.3866724566802E+01 -0.1734170210384E+01  0.8059482899456E+00
 0.1338899934494E+00 -0.3813540437496E+01 -0.1729435704315E+01  0.8478050169660E+00
 0.8634293375151E-01 -0.3745447418023E+01 -0.1719779103246E+01  0.8843822252281E+00
 0.3289176362382E-01 -0.3664793144045E+01 -0.1706993644468E+01  0.9186816505804E+00
-0.2510788084301E-01 -0.3573143256320E+01 -0.1691178030177E+01  0.9511273223022E+00
-0.8661636729666E-01 -0.3471352535275E+01 -0.1672245379967E+01  0.9808689429236E+00
-0.1503207859274E+00 -0.3358721210684E+01 -0.1649249734224E+01  0.1006765508960E+01
-0.2151927603751E+00 -0.3234322792928E+01 -0.1621272305940E+01  0.1027704913989E+01
-0.2801789111907E+00 -0.3097080172926E+01 -0.1587311765509E+01  0.1042571587155E+01
-0.3441149929587E+00 -0.2945849408911E+01 -0.1546283264957E+01  0.1050172968409E+01
-0.4056158781483E+00 -0.2779391586868E+01 -0.1496953504761E+01  0.1049154319389E+01
-0.4629729232199E+00 -0.2596333205174E+01 -0.1437873876698E+01  0.1037905758622E+01
-0.5140194100014E+00 -0.2395114442247E+01 -0.1367292907089E+01  0.1014446080225E+01
-0.5559372746426E+00 -0.2173930941750E+01 -0.1283038058450E+01  0.9762629485817E+00
-0.5849458300587E+00 -0.1930660623188E+01 -0.1182335030027E+01  0.9200789749528E+00
-0.5957967950273E+00 -0.1662796758105E+01 -0.1061538967280E+01  0.8414945473094E+00
-0.5807298302265E+00 -0.1367280848742E+01 -0.9155650167931E+00  0.7344077352559E+00
-0.5277310769515E+00 -0.1040557055164E+01 -0.7370954202248E+00  0.5900081774706E+00
-0.4149002994343E+00 -0.6774504955439E+00 -0.5134048723376E+00  0.3948381361100E+00
-0.1900846567706E+00 -0.2658144574553E+00 -0.2142725831427E+00  0.1251131360812E+00
 0.1659547606305E+00 -0.3757583602307E+01 -0.1688065551306E+01  0.8311438576782E+00
 0.1268289230163E+00 -0.3689277604434E+01 -0.1674350876019E+01  0.8688951968510E+00
 0.8173412893159E-01 -0.3603457185765E+01 -0.1655209832514E+01  0.9014761255301E+00
 0.3163750753233E-01 -0.3504076762759E+01 -0.1632046445817E+01  0.9332268804566E+00
-0.2360851935079E-01 -0.3396269895147E+01 -0.1607342850737E+01  0.9632863392201E+00
-0.8149113017617E-01 -0.3278539015924E+01 -0.1579214164662E+01  0.9900218657507E+00
-0.1409414660572E+00 -0.3149764531591E+01 -0.1546631814972E+01  0.1012161039883E+01
-0.2009241152810E+00 -0.3008728682705E+01 -0.1508536811227E+01  0.1028583266248E+01
-0.2604249856060E+00 -0.2854343941097E+01 -0.1463941391837E+01  0.1038177723034E+01
-0.3182806929317E+00 -0.2685556192316E+01 -0.1411803332485E+01  0.1039729478413E+01
-0.3730912084756E+00 -0.2501306804054E+01 -0.1350967062463E+01  0.1031836790665E+01
-0.4231095445989E+00 -0.2300505308402E+01 -0.1280098977663E+01  0.1012830586942E+01
-0.4660973173114E+00 -0.2082029642354E+01 -0.1197619668005E+01  0.9806794603728E+00
-0.4991122568132E+00 -0.1844757397814E+01 -0.1101618734881E+01  0.9328666854163E+00
-0.5181917940366E+00 -0.1587658803555E+01 -0.9897497783578E+00  0.8662289985989E+00
-0.5178166205938E+00 -0.1309973427697E+01 -0.8590613205176E+00  0.7767484495921E+00
-0.4901545831036E+00 -0.1011740100444E+01 -0.7058904994769E+00  0.6593156040420E+00
-0.4230682337871E+00 -0.6944253425556E+00 -0.5252219795489E+00  0.5075004509512E+00
-0.2991111905902E+00 -0.3651217125997E+00 -0.3121894637074E+00  0.3137401848116E+00
-0.9014639736437E-01 -0.4727131624888E-01 -0.6458632523441E-01  0.7336883086436E-01
 0.1535269303723E+00 -0.3649663834529E+01 -0.1643184340786E+01  0.8505625920742E+00
 0.1148836706978E+00 -0.3565409470521E+01 -0.1621747121804E+01  0.8820547296120E+00
 0.7792578841659E-01 -0.3452465191708E+01 -0.1586033515524E+01  0.9117224650817E+00
 0.2890158177087E-01 -0.3339517975272E+01 -0.1555989700999E+01  0.9417866205021E+00
-0.2327906841749E-01 -0.3218669421411E+01 -0.1523715786354E+01  0.9688193727622E+00
-0.7768985851386E-01 -0.3088116724603E+01 -0.1487929090291E+01  0.9913757566436E+00
-0.1330871872646E+00 -0.2946178542789E+01 -0.1447254889454E+01  0.1008374061227E+01
-0.1885309021387E+00 -0.2791841507191E+01 -0.1400775028832E+01  0.1018825563342E+01
-0.2429866462780E+00 -0.2624301544828E+01 -0.1347625446402E+01  0.1021658341143E+01
-0.2952713367457E+00 -0.2442889294317E+01 -0.1286935493335E+01  0.1015650856138E+01
-0.3439537509026E+00 -0.2247033421685E+01 -0.1217763968027E+01  0.9993864789411E+00
-0.3872454016939E+00 -0.2036289019132E+01 -0.1139061174899E+01  0.9712112120418E+00
-0.4228499894223E+00 -0.1810414827233E+01 -0.1049634461166E+01  0.9291865906265E+00
-0.4477574663873E+00 -0.1569519657757E+01 -0.9481202459431E+00  0.8710395769651E+00
-0.4579525604914E+00 -0.1314310011336E+01 -0.8329634066463E+00  0.7941205996355E+00
-0.4480563308612E+00 -0.1046560965655E+01 -0.7024701275806E+00  0.6954074552191E+00
-0.4107292026697E+00 -0.7698258533217E+00 -0.5548608749086E+00  0.5716346607351E+00
-0.3368541971461E+00 -0.4916384451395E+00 -0.3893915408866E+00  0.4198711818292E+00
-0.2130872851286E+00 -0.2246560201446E+00 -0.2057393529566E+00  0.2390077160047E+00
-0.4502223518217E-01 -0.7469174592019E-02 -0.2467096253129E-01  0.3573756472923E-01
 0.1105957999323E+00 -0.3567760230693E+01 -0.1624867278336E+01  0.8572253270740E+00
 0.1144535435952E+00 -0.3409637318898E+01 -0.1548736370464E+01  0.8885558119009E+00
 0.7181129504568E-01 -0.3294473252769E+01 -0.1514651116288E+01  0.9194453214781E+00
 0.2624866619595E-01 -0.3173821017787E+01 -0.1479359001495E+01  0.9466308362225E+00
-0.2300735179526E-01 -0.3044466716193E+01 -0.1441712808298E+01  0.9689671134245E+00
-0.7389931271601E-01 -0.2904148822942E+01 -0.1399682620209E+01  0.9858105509842E+00
-0.1254080256525E+00 -0.2752190956518E+01 -0.1352471518190E+01  0.9964147137639E+00
-0.1764722965302E+00 -0.2588168554994E+01 -0.1299381196921E+01  0.9998812063832E+00
-0.2260132222574E+00 -0.2411835423050E+01 -0.1239788860150E+01  0.9951535382897E+00
-0.2728141931402E+00 -0.2223077691478E+01 -0.1173069182795E+01  0.9810213515790E+00
-0.3154381535229E+00 -0.2021957120032E+01 -0.1098575775784E+01  0.9561207483171E+00
-0.3521233017318E+00 -0.1808791004704E+01 -0.1015629721449E+01  0.9189365336630E+00
-0.3806544638417E+00 -0.1584281393709E+01 -0.9235198507065E+00  0.8678155716272E+00
-0.3981982399668E+00 -0.1349711454305E+01 -0.8215175542242E+00  0.8010062337010E+00
-0.4011093997049E+00 -0.1107253299835E+01 -0.7089304669859E+00  0.7167513513832E+00
-0.3847019242184E+00 -0.8604177981104E+00 -0.5852062680102E+00  0.6134821109911E+00
-0.3432573466279E+00 -0.6149123374275E+00 -0.4503397503638E+00  0.4902309895550E+00
-0.2697510960535E+00 -0.3792393337764E+00 -0.3050255012464E+00  0.3473838364350E+00
-0.1608978296964E+00 -0.1695074995613E+00 -0.1552905043572E+00  0.1886494214573E+00
 0.4589963091478E-02  0.1491376467582E-01  0.9166752027381E-02  0.2045510983521E-01
</DataArray>
<DataArray type="Float64" Name="S_Mises" NumberOfComponents="1" ComponentName0="S_Mises" format="ascii">
 0.3884410182869E+01
 0.3408072611395E+01
 0.3070984389525E+01
 0.2958870437185E+01
 0.2891315643638E+01
 0.2860279214099E+01
 0.2849306803304E+01
 0.2852891308221E+01
 0.2867404783425E+01
 0.2891059195325E+01
 0.2923015227640E+01
 0.2963173627314E+01
 0.3012068548184E+01
 0.3070951284453E+01
 0.3142240481131E+01
 0.3230713758840E+01
 0.3338489301740E+01
 0.3457279490391E+01
 0.3577314500669E+01
 0.3697178279853E+01
 0.3820063658083E+01
 0.3949990853658E+01
 0.4090396233172E+01
 0.4243871875768E+01
 0.4412141666825E+01
 0.4595731720673E+01
 0.4793079374902E+01
 0.5002759012933E+01
 0.5226696249034E+01
 0.5467690476906E+01
 0.5727015926152E+01
 0.6004875369638E+01
 0.6300019342560E+01
 0.6608434897792E+01
 0.6924401138461E+01
 0.7250752956619E+01
 0.7668375984845E+01
 0.8234467356910E+01
 0.9406088197911E+01
 0.9838322255074E+01
 0.1665073294783E+02
 0.3342047891249E+01
 0.3414589227867E+01
 0.3159300918874E+01
 0.3017083598702E+01
 0.2946233388481E+01
 0.2906761901697E+01
 0.2890057547004E+01
 0.2888650402479E+01
 0.2899033654154E+01
 0.2919124110999E+01
 0.2947925874569E+01
 0.2985176127843E+01
 0.3031236079258E+01
 0.3087134780375E+01
 0.3154592617877E+01
 0.3235189967590E+01
 0.3328337830538E+01
 0.3430407728626E+01
 0.3537219033216E+01
 0.3646992369313E+01
 0.3760640317953E+01
 0.3880362960009E+01
 0.4008412412784E+01
 0.4146540373869E+01
 0.4295725144260E+01
 0.4455994207148E+01
 0.4626654834329E+01
 0.4807049507438E+01
 0.4997025579094E+01
 0.5196491091863E+01
 0.5404531167196E+01
 0.5618741559863E+01
 0.5834796844855E+01
 0.6046779220000E+01
 0.6249974106295E+01
 0.6451488093177E+01
 0.6655283121128E+01
 0.6887838526399E+01
 0.6977552163445E+01
 0.5961592834540E+01
 0.1145105302632E+02
 0.3052739162658E+01
 0.3270316768483E+01
 0.3184362803586E+01
 0.3057472093725E+01
 0.2986255292563E+01
 0.2945026290884E+01
 0.2924720147883E+01
 0.2919855276205E+01
 0.2926877083271E+01
 0.2943797964330E+01
 0.2969543895708E+01
 0.3003740034570E+01
 0.3046568368639E+01
 0.3098706967292E+01
 0.3160930348188E+01
 0.3233180890184E+01
 0.3314300165634E+01
 0.3402778094163E+01
 0.3497102762107E+01
 0.3596048110468E+01
 0.3699436304209E+01
 0.3808144840714E+01
 0.3923393854911E+01
 0.4046160061141E+01
 0.4176836899414E+01
 0.4315210398779E+01
 0.4460784503810E+01
 0.4612822224229E+01
 0.4770005429958E+01
 0.4930380184606E+01
 0.5091143962086E+01
 0.5247982013293E+01
 0.5394757760174E+01
 0.5524248076311E+01
 0.5631269161220E+01
 0.5710744292867E+01
 0.5741046764585E+01
 0.5666263681333E+01
 0.5176578263572E+01
 0.4544597109866E+01
 0.9899222458654E+01
 0.2877537160732E+01
 0.3126188278945E+01
 0.3152909679686E+01
 0.3075764774859E+01
 0.3013010249622E+01
 0.2974204376260E+01
 0.2953111393777E+01
 0.2946219693435E+01
 0.2950751538252E+01
 0.2964944964962E+01
 0.2987791186944E+01
 0.3018850207299E+01
 0.3058129752188E+01
 0.3105905673283E+01
 0.3162207275494E+01
 0.3226247548649E+01
 0.3296905195903E+01
 0.3373692178044E+01
 0.3456375336631E+01
 0.3544285287976E+01
 0.3636827305876E+01
 0.3734012458401E+01
 0.3836232277948E+01
 0.3943802805116E+01
 0.4056660583828E+01
 0.4174373213894E+01
 0.4296330115219E+01
 0.4421469560731E+01
 0.4547703872766E+01
 0.4671897538080E+01
 0.4789909723321E+01
 0.4896191621913E+01
 0.4983635943501E+01
 0.5044440094354E+01
 0.5071176377836E+01
 0.5051209645340E+01
 0.4951002929889E+01
 0.4682572092313E+01
 0.4126132382488E+01
 0.4248725225893E+01
 0.9177813852898E+01
 0.2762509558267E+01
 0.3006514300087E+01
 0.3097114427129E+01
 0.3071820727908E+01
 0.3027359179409E+01
 0.2994524162750E+01
 0.2975104620314E+01
 0.2967650246876E+01
 0.2970552319381E+01
 0.2982498274434E+01
 0.3002643656869E+01
 0.3030543703004E+01
 0.3066051017172E+01
 0.3109089009167E+01
 0.3159206087714E+01
 0.3215350508137E+01
 0.3276586211006E+01
 0.3342921469311E+01
 0.3414714398952E+01
 0.3491687150109E+01
 0.3573136142768E+01
 0.3658553609343E+01
 0.3747714284480E+01
 0.3840405167226E+01
 0.3936194392521E+01
 0.4034421388877E+01
 0.4134245086798E+01
 0.4234247855407E+01
 0.4331823933048E+01
 0.4423133623238E+01
 0.4503249591518E+01
 0.4566005178887E+01
 0.4604047847533E+01
 0.4609494802873E+01
 0.4573720229384E+01
 0.4482178449918E+01
 0.4301408527514E+01
 0.3976747997828E+01
 0.3608117089932E+01
 0.4372528127450E+01
 0.8719311237235E+01
 0.2682567206534E+01
 0.2911146059094E+01
 0.3035068834243E+01
 0.3052116567146E+01
 0.3030190838502E+01
 0.3006626363649E+01
 0.2990844144464E+01
 0.2984172245355E+01
 0.2986271401508E+01
 0.2996453981804E+01
 0.3014129862741E+01
 0.3038904910916E+01
 0.3070518998965E+01
 0.3108638625476E+01
 0.3152546826538E+01
 0.3201152164591E+01
 0.3253710660438E+01
 0.3310460373790E+01
 0.3372003418999E+01
 0.3438298680903E+01
 0.3508656669547E+01
 0.3582284497673E+01
 0.3658530379092E+01
 0.3736780276915E+01
 0.3816305623824E+01
 0.3896225113014E+01
 0.3975452905326E+01
 0.4052272230947E+01
 0.4123761640887E+01
 0.4185741384781E+01
 0.4232976613139E+01
 0.4259234565302E+01
 0.4257518703301E+01
 0.4220574738459E+01
 0.4140530251576E+01
 0.4005567327105E+01
 0.3795436797552E+01
 0.3515314441452E+01
 0.3420275268424E+01
 0.4601339441608E+01
 0.8374434733384E+01
 0.2624578854572E+01
 0.2835571837965E+01
 0.2975023630105E+01
 0.3023203805362E+01
 0.3023517498219E+01
 0.3011290833436E+01
 0.3000704602829E+01
 0.2995933517776E+01
 0.2997984726945E+01
 0.3006870021815E+01
 0.3022326264127E+01
 0.3044060248829E+01
 0.3071754557088E+01
 0.3104920778219E+01
 0.3142728652321E+01
 0.3184150350575E+01
 0.3228603033260E+01
 0.3276416706712E+01
 0.3328262413582E+01
 0.3384224758492E+01
 0.3443668450460E+01
 0.3505663199047E+01
 0.3569285170703E+01
 0.3633634718452E+01
 0.3697753968904E+01
 0.3760571429128E+01
 0.3820795120523E+01
 0.3876502782311E+01
 0.3924636249472E+01
 0.3960966898648E+01
 0.3980349636318E+01
 0.3976952006416E+01
 0.3944659222201E+01
 0.3877662139246E+01
 0.3770651865538E+01
 0.3618387554430E+01
 0.3421611873200E+01
 0.3243756548039E+01
 0.3418357099769E+01
 0.4823172944646E+01
 0.8094164714163E+01
 0.2581076840573E+01
 0.2775300922512E+01
 0.2920202418311E+01
 0.2989883170194E+01
 0.3009767356890E+01
 0.3009527259685E+01
 0.3005193864162E+01
 0.3003195196851E+01
 0.3005842411356E+01
 0.3013860248882E+01
 0.3027352432535E+01
 0.3046170158586E+01
 0.3069995692560E+01
 0.3098275178106E+01
 0.3130165363534E+01
 0.3164745343851E+01
 0.3201558930121E+01
 0.3240957990942E+01
 0.3283597543245E+01
 0.3329617431971E+01
 0.3378443830354E+01
 0.3429099946457E+01
 0.3480508023274E+01
 0.3531582463588E+01
 0.3581202772222E+01
 0.3628155409907E+01
 0.3671007268907E+01
 0.3707737107434E+01
 0.3735310661994E+01
 0.3749687387429E+01
 0.3746131388147E+01
 0.3719588661639E+01
 0.3665281117370E+01
 0.3579574905212E+01
 0.3461126934122E+01
 0.3313729993586E+01
 0.3160799062023E+01
 0.3109948269887E+01
 0.3509938479787E+01
 0.5007451218668E+01
 0.7857958675671E+01
 0.2547539045722E+01
 0.2726708701779E+01
 0.2871468448451E+01
 0.2955242195473E+01
 0.2991189764969E+01
 0.3002485169089E+01
 0.3004916393052E+01
 0.3006301829717E+01
 0.3010059057297E+01
 0.3017586814220E+01
 0.3029365076881E+01
 0.3045421045154E+01
 0.3065487216543E+01
 0.3089014826660E+01
 0.3115210917082E+01
 0.3143276232087E+01
 0.3172853342941E+01
 0.3204282953307E+01
 0.3238167302029E+01
 0.3274661267665E+01
 0.3313249525793E+01
 0.3352964655136E+01
 0.3392662577761E+01
 0.3431155563574E+01
 0.3467225866843E+01
 0.3499576320847E+01
 0.3526708809375E+01
 0.3546609792938E+01
 0.3556410687592E+01
 0.3552450648340E+01
 0.3530651639048E+01
 0.3487031939285E+01
 0.3418511148699E+01
 0.3324178284094E+01
 0.3207539771711E+01
 0.3082293466257E+01
 0.2992025839067E+01
 0.3070930433797E+01
 0.3641239145606E+01
 0.5151828422424E+01
 0.7655117893438E+01
 0.2521087013251E+01
 0.2687038469134E+01
 0.2828646750982E+01
 0.2921107591375E+01
 0.2969610528202E+01
 0.2991313047258E+01
 0.3000534378939E+01
 0.3005655420923E+01
 0.3010900031250E+01
 0.3018252124176E+01
 0.3028551346862E+01
 0.3042018279430E+01
 0.3058475048460E+01
 0.3077429438856E+01
 0.3098176935512E+01
 0.3120041704032E+01
 0.3142745460551E+01
 0.3166605391417E+01
 0.3192160211895E+01
 0.3219560394133E+01
 0.3248345301779E+01
 0.3277592067358E+01
 0.3306154605331E+01
 0.3332812485322E+01
 0.3356312941854E+01
 0.3375337517247E+01
 0.3388401106570E+01
 0.3393597572228E+01
 0.3388345547229E+01
 0.3369515128190E+01
 0.3333871800061E+01
 0.3278719582587E+01
 0.3202927762377E+01
 0.3108640938134E+01
 0.3004565545879E+01
 0.2913854344111E+01
 0.2895537098348E+01
 0.3093845371146E+01
 0.3783523257715E+01
 0.5262219902635E+01
 0.7478997829433E+01
 0.2499812316821E+01
 0.2654230580173E+01
 0.2791156602513E+01
 0.2888472974245E+01
 0.2946401110312E+01
 0.2977056161651E+01
 0.2992722349669E+01
 0.3001692318445E+01
 0.3008667103917E+01
 0.3016090067132E+01
 0.3025122137878E+01
 0.3036180429360E+01
 0.3049203216356E+01
 0.3063789458823E+01
 0.3079344516590E+01
 0.3095312361871E+01
 0.3111481422313E+01
 0.3128144547395E+01
 0.3145780078863E+01
 0.3164528184388E+01
 0.3183981521723E+01
 0.3203285099416E+01
 0.3221338250056E+01
 0.3236944883744E+01
 0.3248874587539E+01
 0.3255849059617E+01
 0.3256470447792E+01
 0.3249028670110E+01
 0.3231329996281E+01
 0.3200890099416E+01
 0.3155448077970E+01
 0.3093732364054E+01
 0.3016703833651E+01
 0.2929684344942E+01
 0.2846463512419E+01
 0.2798283071267E+01
 0.2854047441548E+01
 0.3154968765841E+01
 0.3922613426583E+01
 0.5345861886376E+01
 0.7324975714698E+01
 0.2482406167626E+01
 0.2626749463120E+01
 0.2758305545524E+01
 0.2857813067764E+01
 0.2922538847755E+01
 0.2960606992959E+01
 0.2982127581339E+01
 0.2994861610662E+01
 0.3003684900913E+01
 0.3011357113742E+01
 0.3019305673527E+01
 0.3028134570209E+01
 0.3037912250491E+01
 0.3048349573387E+01
 0.3058972125772E+01
 0.3069338178459E+01
 0.3079295859554E+01
 0.3089119113677E+01
 0.3099236183519E+01
 0.3109779471398E+01
 0.3120396567735E+01
 0.3130316996886E+01
 0.3138520969454E+01
 0.3143883360699E+01
 0.3145247433447E+01
 0.3141432282371E+01
 0.3131194332252E+01
 0.3113095040860E+01
 0.3085407650893E+01
 0.3046375083953E+01
 0.2994791809455E+01
 0.2930882591116E+01
 0.2857740687657E+01
 0.2783800551292E+01
 0.2727453289610E+01
 0.2726119008653E+01
 0.2853128516920E+01
 0.3237981259030E+01
 0.4052230347451E+01
 0.5409164416354E+01
 0.7189607609209E+01
 0.2467945324891E+01
 0.2603445131325E+01
 0.2729419492996E+01
 0.2829293698236E+01
 0.2898691628119E+01
 0.2942694454022E+01
 0.2969343102645E+01
 0.2985606338664E+01
 0.2996288611921E+01
 0.3004323884201E+01
 0.3011341554620E+01
 0.3018112423208E+01
 0.3024838215701E+01
 0.3031351419064E+01
 0.3037300820414E+01
 0.3042353067567E+01
 0.3046412721756E+01
 0.3049743376720E+01
 0.3052736720300E+01
 0.3055524878746E+01
 0.3057814606340E+01
 0.3058932798231E+01
 0.3057967532741E+01
 0.3053902574023E+01
 0.3045699492602E+01
 0.3032325733298E+01
 0.3012749880363E+01
 0.2985866441975E+01
 0.2950474803956E+01
 0.2905597698429E+01
 0.2851125639407E+01
 0.2788794640124E+01
 0.2723784285062E+01
 0.2667424091875E+01
 0.2641964620988E+01
 0.2688855466515E+01
 0.2881180175527E+01
 0.3332091017310E+01
 0.4170182642314E+01
 0.5457256235222E+01
 0.7070214463639E+01
 0.2455762992613E+01
 0.2583450113264E+01
 0.2703894304285E+01
 0.2802905579437E+01
 0.2875298068841E+01
 0.2923895231128E+01
 0.2954893583576E+01
 0.2974348978405E+01
 0.2986813356714E+01
 0.2995267540493E+01
 0.3001475410148E+01
 0.3006347113069E+01
 0.3010211986708E+01
 0.3013025496020E+01
 0.3014557659276E+01
 0.3014577689586E+01
 0.3013045685330E+01
 0.3010224681967E+01
 0.3006484408606E+01
 0.3001966816209E+01
 0.2996443880868E+01
 0.2989350466000E+01
 0.2979903394547E+01
 0.2967225933998E+01
 0.2950435700637E+01
 0.2928692029634E+01
 0.2901223547544E+01
 0.2867305481052E+01
 0.2826303985753E+01
 0.2778049136285E+01
 0.2723534240382E+01
 0.2665974683019E+01
 0.2612519101812E+01
 0.2577055774113E+01
 0.2584787612302E+01
 0.2679060198149E+01
 0.2929169064043E+01
 0.3430390752068E+01
 0.4276299928253E+01
 0.5494078469971E+01
 0.6964645449416E+01
 0.2445368050163E+01
 0.2566104709119E+01
 0.2681210544531E+01
 0.2778546951784E+01
 0.2852633467754E+01
 0.2904655004623E+01
 0.2939231297277E+01
 0.2961481671128E+01
 0.2975585562003E+01
 0.2984465213545E+01
 0.2989954223891E+01
 0.2993070408001E+01
 0.2994258583300E+01
 0.2993592414698E+01
 0.2990957879387E+01
 0.2986221158913E+01
 0.2979398326294E+01
 0.2970761753218E+01
 0.2960673581662E+01
 0.2949296750718E+01
 0.2936475561318E+01
 0.2921761918880E+01
 0.2904517687995E+01
 0.2884030038701E+01
 0.2859603589593E+01
 0.2830625270287E+01
 0.2796621534192E+01
 0.2757282939597E+01
 0.2712566601897E+01
 0.2663116595474E+01
 0.2611008590686E+01
 0.2560868197863E+01
 0.2521639227562E+01
 0.2509345397529E+01
 0.2551157257797E+01
 0.2690397980520E+01
 0.2990244432854E+01
 0.3528590764719E+01
 0.4371343235797E+01
 0.5522617402530E+01
 0.6871127420291E+01
 0.2436392859609E+01
 0.2550903170462E+01
 0.2660931776623E+01
 0.2756073309959E+01
 0.2830860320272E+01
 0.2885312163743E+01
 0.2922738735430E+01
 0.2947360790091E+01
 0.2962916501862E+01
 0.2972188580555E+01
 0.2977022364694E+01
 0.2978510363376E+01
 0.2977196501209E+01
 0.2973263626181E+01
 0.2966706239670E+01
 0.2957482061959E+01
 0.2945664168816E+01
 0.2931543588369E+01
 0.2915488299528E+01
 0.2897693442666E+01
 0.2878083112571E+01
 0.2856334101684E+01
 0.2831966006663E+01
 0.2804448939427E+01
 0.2773299019521E+01
 0.2738158715334E+01
 0.2698880425601E+01
 0.2655592822407E+01
 0.2608854102423E+01
 0.2560112131914E+01
 0.2512483319242E+01
 0.2471905245497E+01
 0.2448899248282E+01
 0.2461144210680E+01
 0.2536796662118E+01
 0.2717586972636E+01
 0.3059319459299E+01
 0.3624111753180E+01
 0.4456439901967E+01
 0.5545140237730E+01
 0.6788162439255E+01
 0.2428558555229E+01
 0.2537454874662E+01
 0.2642696232374E+01
 0.2735326463477E+01
 0.2810065396280E+01
 0.2866120169558E+01
 0.2905734973535E+01
 0.2932304968249E+01
 0.2949097917134E+01
 0.2958699622266E+01
 0.2962918318334E+01
 0.2962889325854E+01
 0.2959237035290E+01
 0.2952241778067E+01
 0.2941997807739E+01
 0.2928549043982E+01
 0.2912026679487E+01
 0.2892748759403E+01
 0.2871101184810E+01
 0.2847321909638E+01
 0.2821422114036E+01
 0.2793210163045E+01
 0.2762373082342E+01
 0.2728578284495E+01
 0.2691571888613E+01
 0.2651272501037E+01
 0.2607877702790E+01
 0.2561966709414E+01
 0.2514697277653E+01
 0.2468297644665E+01
 0.2426867145020E+01
 0.2397534613680E+01
 0.2392149049459E+01
 0.2429536944549E+01
 0.2537931977888E+01
 0.2756309483868E+01
 0.3132681014847E+01
 0.3715462319734E+01
 0.4532788465963E+01
 0.5563397136999E+01
 0.6714454087752E+01
 0.2421651357880E+01
 0.2525456137297E+01
 0.2626206525261E+01
 0.2716150840821E+01
 0.2790286172709E+01
 0.2847266911180E+01
 0.2888483695957E+01
 0.2916595607079E+01
 0.2934399453082E+01
 0.2944247510357E+01
 0.2947872095673E+01
 0.2946422273438E+01
 0.2940583618067E+01
 0.2930720816418E+01
 0.2917018382794E+01
 0.2899601131561E+01
 0.2878659251123E+01
 0.2854545006164E+01
 0.2827672777167E+01
 0.2798332937780E+01
 0.2766630456854E+01
 0.2732510766382E+01
 0.2695835417908E+01
 0.2656479359802E+01
 0.2614431746609E+01
 0.2569901206013E+01
 0.2523441851815E+01
 0.2476087101959E+01
 0.2429583424847E+01
 0.2386905938439E+01
 0.2353066887347E+01
 0.2336248618190E+01
 0.2349356839621E+01
 0.2411860062505E+01
 0.2551285746181E+01
 0.2803094894232E+01
 0.3207661922641E+01
 0.3801826506448E+01
 0.4601489559221E+01
 0.5578783805782E+01
 0.6648844882741E+01
 0.2415506034146E+01
 0.2514669568122E+01
 0.2611219509776E+01
 0.2698402040418E+01
 0.2771529259788E+01
 0.2828890618830E+01
 0.2871201536840E+01
 0.2900478986722E+01
 0.2919067566472E+01
 0.2929066512741E+01
 0.2932103271645E+01
 0.2929315473908E+01
 0.2921431204105E+01
 0.2908885930592E+01
 0.2891944689995E+01
 0.2870807900369E+01
 0.2845725203367E+01
 0.2817089050344E+01
 0.2785351265911E+01
 0.2750863005328E+01
 0.2713828847532E+01
 0.2674335532205E+01
 0.2632423900915E+01
 0.2588183024437E+01
 0.2541853243514E+01
 0.2493941124841E+01
 0.2445361872141E+01
 0.2397599558871E+01
 0.2352971272805E+01
 0.2315158024349E+01
 0.2290005843370E+01
 0.2286600560117E+01
 0.2318623949326E+01
 0.2405709788440E+01
 0.2574053207185E+01
 0.2855192207338E+01
 0.3282376937562E+01
 0.3882823914774E+01
 0.4663408201145E+01
 0.5592470209863E+01
 0.6590231798806E+01
 0.2409994101167E+01
 0.2504908800719E+01
 0.2597537142477E+01
 0.2681950751480E+01
 0.2753782993466E+01
 0.2811092505404E+01
 0.2854065960734E+01
 0.2884169279044E+01
 0.2903325538567E+01
 0.2913374766306E+01
 0.2915819593012E+01
 0.2911765443859E+01
 0.2901965728159E+01
 0.2886913415500E+01
 0.2866944441392E+01
 0.2842329561023E+01
 0.2813377816599E+01
 0.2780526578859E+01
 0.2744272501631E+01
 0.2705034515722E+01
 0.2663121553492E+01
 0.2618764593886E+01
 0.2572186401111E+01
 0.2523693527385E+01
 0.2473781354752E+01
 0.2423257140903E+01
 0.2373396047497E+01
 0.2326123509409E+01
 0.2284303677670E+01
 0.2252276989075E+01
 0.2236637479317E+01
 0.2247216711866E+01
 0.2298193740190E+01
 0.2408942062846E+01
 0.2603864885927E+01
 0.2910449328883E+01
 0.3355506631078E+01
 0.3958392457778E+01
 0.4719135662197E+01
 0.5605327626391E+01
 0.6537366346343E+01
 0.2405015254786E+01
 0.2496027078255E+01
 0.2584998602832E+01
 0.2666683975132E+01
 0.2737025867656E+01
 0.2793946564537E+01
 0.2837222295431E+01
 0.2867851955534E+01
 0.2887374262425E+01
 0.2897373751930E+01
 0.2899216081471E+01
 0.2893958186894E+01
 0.2882363658109E+01
 0.2864970506412E+01
 0.2842176329823E+01
 0.2814317011441E+01
 0.2781760408575E+01
 0.2744992360211E+01
 0.2704560215536E+01
 0.2660956262065E+01
 0.2614597333932E+01
 0.2565860240883E+01
 0.2515150341522E+01
 0.2462992185119E+01
 0.2410136334378E+01
 0.2357689121752E+01
 0.2307279896978E+01
 0.2261261708573E+01
 0.2223018205807E+01
 0.2197498866937E+01
 0.2191955399011E+01
 0.2216804298530E+01
 0.2286456132587E+01
 0.2419665222239E+01
 0.2638742287879E+01
 0.2967197535229E+01
 0.3426161040374E+01
 0.4028588621637E+01
 0.4769534010029E+01
 0.5616221859762E+01
 0.6496040619484E+01
 0.2400491032043E+01
 0.2487908630936E+01
 0.2573473660463E+01
 0.2652504728215E+01
 0.2721232047162E+01
 0.2777507021708E+01
 0.2820789775163E+01
 0.2851687247077E+01
 0.2871393527297E+01
 0.2881248310220E+01
 0.2882474553175E+01
 0.2876068684728E+01
 0.2862791655179E+01
 0.2843215224992E+01
 0.2817790001160E+01
 0.2786911887198E+01
 0.2751006457928E+01
 0.2710610466256E+01
 0.2666326393494E+01
 0.2618724061869E+01
 0.2568330506525E+01
 0.2515668619442E+01
 0.2461325224568E+01
 0.2406040896993E+01
 0.2350818357790E+01
 0.2297057786952E+01
 0.2246733269062E+01
 0.2202608363120E+01
 0.2168555791069E+01
 0.2150080994010E+01
 0.2155000442097E+01
 0.2194156551485E+01
 0.2281948441513E+01
 0.2436227119471E+01
 0.2677048908812E+01
 0.3024156950717E+01
 0.3493748434878E+01
 0.4093609999216E+01
 0.4815214519879E+01
 0.5625582998002E+01
 0.6463752307709E+01
 0.2396360051573E+01
 0.2480462094141E+01
 0.2562857164432E+01
 0.2639330946430E+01
 0.2706374859531E+01
 0.2761813911996E+01
 0.2804866596222E+01
 0.2835813441995E+01
 0.2855543583342E+01
 0.2865167052145E+01
 0.2865763476151E+01
 0.2858260611355E+01
 0.2843406346153E+01
 0.2821796262364E+01
 0.2793926035463E+01
 0.2760246630283E+01
 0.2721239775789E+01
 0.2677494578503E+01
 0.2629671765360E+01
 0.2578421515118E+01
 0.2524382108634E+01
 0.2468221461918E+01
 0.2410705093121E+01
 0.2352785478011E+01
 0.2295711828127E+01
 0.2241170024149E+01
 0.2191466580924E+01
 0.2149756006730E+01
 0.2120367699234E+01
 0.2109308313025E+01
 0.2124865614316E+01
 0.2178155497752E+01
 0.2283353117965E+01
 0.2457197712983E+01
 0.2717442349692E+01
 0.3080353183761E+01
 0.3557895373554E+01
 0.4153720577701E+01
 0.4856660488083E+01
 0.5634675282958E+01
 0.6435118092178E+01
 0.2392574387634E+01
 0.2473615433357E+01
 0.2553064496444E+01
 0.2627094014942E+01
 0.2692428905521E+01
 0.2746897197016E+01
 0.2789534063053E+01
 0.2820349902896E+01
 0.2839966826233E+01
 0.2849283040297E+01
 0.2849238091627E+01
 0.2840686238011E+01
 0.2824354205370E+01
 0.2800852914366E+01
 0.2770715956065E+01
 0.2734444588094E+01
 0.2692574723872E+01
 0.2645748361701E+01
 0.2594686378666E+01
 0.2540120847814E+01
 0.2482801117458E+01
 0.2423537816852E+01
 0.2363270905539E+01
 0.2303158790715E+01
 0.2244689330050E+01
 0.2189823648443E+01
 0.2141186234001E+01
 0.2102301234701E+01
 0.2077921047008E+01
 0.2074498051177E+01
 0.2100699368686E+01
 0.2167772926944E+01
 0.2289492777788E+01
 0.2481349014143E+01
 0.2758828739478E+01
 0.3135050153386E+01
 0.3618385042025E+01
 0.4209184163628E+01
 0.4894459896726E+01
 0.5643653336816E+01
 0.6410209436321E+01
 0.2389096771538E+01
 0.2467311993047E+01
 0.2544027831304E+01
 0.2615737176736E+01
 0.2679371238331E+01
 0.2732779762156E+01
 0.2774859936544E+01
 0.2805399747514E+01
 0.2824789489146E+01
 0.2833734639736E+01
 0.2833040732677E+01
 0.2823486496022E+01
 0.2805771538832E+01
 0.2780515075853E+01
 0.2748282277067E+01
 0.2709620148314E+01
 0.2665116475227E+01
 0.2615465889760E+01
 0.2561450231553E+01
 0.2503883810049E+01
 0.2443625698435E+01
 0.2381625754101E+01
 0.2318992804822E+01
 0.2257083661377E+01
 0.2197615223527E+01
 0.2142811615814E+01
 0.2095599257512E+01
 0.2059849426108E+01
 0.2040703116498E+01
 0.2045003122213E+01
 0.2081707608911E+01
 0.2162069805810E+01
 0.2299323068691E+01
 0.2507633729816E+01
 0.2800321417826E+01
 0.3187696892670E+01
 0.3675102753343E+01
 0.4260277184413E+01
 0.4929061409049E+01
 0.5652508475742E+01
 0.6388711362503E+01
 0.2385898406007E+01
 0.2461507392471E+01
 0.2535693064048E+01
 0.2605213960285E+01
 0.2667181925614E+01
 0.2719479567373E+01
 0.2760901105038E+01
 0.2791052180970E+01
 0.2810123268043E+01
 0.2818646459909E+01
 0.2817301282869E+01
 0.2806791165897E+01
 0.2787784559422E+01
 0.2760903295255E+01
 0.2726738593934E+01
 0.2685878911440E+01
 0.2638961313041E+01
 0.2586732111666E+01
 0.2530033945282E+01
 0.2469762604243E+01
 0.2406884457265E+01
 0.2342484023952E+01
 0.2277832266455E+01
 0.2214475572142E+01
 0.2154348880768E+01
 0.2099925716323E+01
 0.2054417248106E+01
 0.2022018590051E+01
 0.2008224687002E+01
 0.2020214533984E+01
 0.2067154669089E+01
 0.2160194369649E+01
 0.2311923942322E+01
 0.2535163805006E+01
 0.2841204961650E+01
 0.3237883503996E+01
 0.3728004451970E+01
 0.4307257945186E+01
 0.4960778923227E+01
 0.5661177043761E+01
 0.6370276799321E+01
 0.2382957239865E+01
 0.2456167066199E+01
 0.2528017283565E+01
 0.2595486702014E+01
 0.2655844211471E+01
 0.2707011165422E+01
 0.2747705693540E+01
 0.2777384492387E+01
 0.2796066835113E+01
 0.2804130328702E+01
 0.2802137726957E+01
 0.2790719163053E+01
 0.2770509539842E+01
 0.2742128885994E+01
 0.2706189717180E+01
 0.2663317899334E+01
 0.2614196961556E+01
 0.2559623345999E+01
 0.2500499459525E+01
 0.2437800823080E+01
 0.2372597674534E+01
 0.2306103651985E+01
 0.2239744112153E+01
 0.2175245124728E+01
 0.2114747575822E+01
 0.2060959781201E+01
 0.2017359680551E+01
 0.1988442468447E+01
 0.1980022575402E+01
 0.1999563014642E+01
 0.2056363448662E+01
 0.2161379115420E+01
 0.2326489892354E+01
 0.2563189910054E+01
 0.2880904062460E+01
 0.3285307478024E+01
 0.3777091288736E+01
 0.4350351362125E+01
 0.4989834461363E+01
 0.5669591559931E+01
 0.6354572287939E+01
 0.2380256593029E+01
 0.2451264300251E+01
 0.2520966692778E+01
 0.2586525199543E+01
 0.2645344427493E+01
 0.2695386752377E+01
 0.2735314714880E+01
 0.2764463742953E+01
 0.2782707216323E+01
 0.2790286256277E+01
 0.2787656754750E+01
 0.2775378893575E+01
 0.2754053028883E+01
 0.2724294088490E+01
 0.2686731845971E+01
 0.2642025795975E+01
 0.2590902942526E+01
 0.2534207793756E+01
 0.2472900736338E+01
 0.2408034380319E+01
 0.2340778505735E+01
 0.2272469455087E+01
 0.2204678380542E+01
 0.2139300276045E+01
 0.2078669042518E+01
 0.2025712444341E+01
 0.1984156667036E+01
 0.1958773018363E+01
 0.1955661544480E+01
 0.1982520016802E+01
 0.2048714842838E+01
 0.2164936926246E+01
 0.2342319721724E+01
 0.2591082396758E+01
 0.2918957371732E+01
 0.3329747480372E+01
 0.3822391014824E+01
 0.4389748494446E+01
 0.5016392626079E+01
 0.5677691547233E+01
 0.6341285637560E+01
 0.2377784051408E+01
 0.2446778653057E+01
 0.2514514893584E+01
 0.2578305508551E+01
 0.2635671754314E+01
 0.2684616875953E+01
 0.2723763352430E+01
 0.2752348179059E+01
 0.2770121023642E+01
 0.2777203359538E+01
 0.2773954387506E+01
 0.2760868656660E+01
 0.2738512116508E+01
 0.2707492274568E+01
 0.2668452776255E+01
 0.2622083215024E+01
 0.2569150950171E+01
 0.2510546059985E+01
 0.2447284460701E+01
 0.2380492420524E+01
 0.2311434132751E+01
 0.2241561467301E+01
 0.2172582049265E+01
 0.2106548350078E+01
 0.2045973720810E+01
 0.1993989502024E+01
 0.1954551240801E+01
 0.1932682383330E+01
 0.1934735707794E+01
 0.1968598220138E+01
 0.2043646589850E+01
 0.2170256573652E+01
 0.2358806290272E+01
 0.2618314102005E+01
 0.2954995810300E+01
 0.3371043030666E+01
 0.3863946002413E+01
 0.4425611368072E+01
 0.5040581099675E+01
 0.5685422507221E+01
 0.6330127156400E+01
 0.2375530572288E+01
 0.2442694678133E+01
 0.2508641470238E+01
 0.2570808883003E+01
 0.2626817902023E+01
 0.2674710896366E+01
 0.2713081949625E+01
 0.2741088405845E+01
 0.2758375542266E+01
 0.2764960728355E+01
 0.2761116603290E+01
 0.2747277073809E+01
 0.2723974733768E+01
 0.2691808185049E+01
 0.2651432136654E+01
 0.2603562987791E+01
 0.2549005237367E+01
 0.2488691675462E+01
 0.2423690727178E+01
 0.2355198196147E+01
 0.2284566855655E+01
 0.2213356267216E+01
 0.2143400606171E+01
 0.2076897833711E+01
 0.2016526714541E+01
 0.1965605915466E+01
 0.1928301234881E+01
 0.1909864447779E+01
 0.1916869533340E+01
 0.1957351626870E+01
 0.2040651652820E+01
 0.2176797836171E+01
 0.2375426604439E+01
 0.2644445147448E+01
 0.2988724744701E+01
 0.3409079036545E+01
 0.3901805908927E+01
 0.4458078159800E+01
 0.5062501885738E+01
 0.5692733320216E+01
 0.6320829790824E+01
 0.2373489755794E+01
 0.2439000885630E+01
 0.2503330817677E+01
 0.2564020851460E+01
 0.2618776754900E+01
 0.2665677270619E+01
 0.2703296768252E+01
 0.2730728355273E+01
 0.2747529679118E+01
 0.2753628222300E+01
 0.2749219943706E+01
 0.2734683528025E+01
 0.2710519974487E+01
 0.2677318190960E+01
 0.2635741644505E+01
 0.2586530464595E+01
 0.2530523005723E+01
 0.2468691610230E+01
 0.2402153703564E+01
 0.2332169902385E+01
 0.2260175116101E+01
 0.2187828201217E+01
 0.2117079469955E+01
 0.2050259966697E+01
 0.1990199485244E+01
 0.1940387499670E+01
 0.1905180819965E+01
 0.1890036053669E+01
 0.1901718527056E+01
 0.1948375329280E+01
 0.2039276253178E+01
 0.2184086454635E+01
 0.2391732510519E+01
 0.2669109722598E+01
 0.3019909479723E+01
 0.3443774152914E+01
 0.3936023142933E+01
 0.4487267302797E+01
 0.5082237601676E+01
 0.5699574563936E+01
 0.6313149203959E+01
 0.2371657248949E+01
 0.2435688894923E+01
 0.2498571171790E+01
 0.2557930418932E+01
 0.2611544010190E+01
 0.2657523712952E+01
 0.2694430565799E+01
 0.2721306080083E+01
 0.2737634782350E+01
 0.2743267192193E+01
 0.2738332089149E+01
 0.2723158599243E+01
 0.2698218426885E+01
 0.2664090568811E+01
 0.2621445374097E+01
 0.2571043822243E+01
 0.2513754792324E+01
 0.2450586771441E+01
 0.2382702263582E+01
 0.2311421461913E+01
 0.2238254445674E+01
 0.2164950499197E+01
 0.2093565262841E+01
 0.2026550137736E+01
 0.1966871306978E+01
 0.1918172339436E+01
 0.1884981757583E+01
 0.1872937944558E+01
 0.1888969661410E+01
 0.1941305019891E+01
 0.2039117670843E+01
 0.2191709115752E+01
 0.2407342159458E+01
 0.2692004749258E+01
 0.3048363542624E+01
 0.3475072029738E+01
 0.3966649943993E+01
 0.4513280467121E+01
 0.5099855321034E+01
 0.5705897992729E+01
 0.6306863757092E+01
 0.2370030256843E+01
 0.2432752741505E+01
 0.2494353807089E+01
 0.2552529382549E+01
 0.2605116829924E+01
 0.2650257270460E+01
 0.2686503032144E+01
 0.2712854401408E+01
 0.2728735343086E+01
 0.2733931124563E+01
 0.2728512393561E+01
 0.2712764484810E+01
 0.2687132504566E+01
 0.2652185780829E+01
 0.2608600029180E+01
 0.2557154370350E+01
 0.2498744846107E+01
 0.2434412478538E+01
 0.2365360581697E+01
 0.2292963253032E+01
 0.2218798334270E+01
 0.2144696281193E+01
 0.2072806939592E+01
 0.2005689099686E+01
 0.1946430506698E+01
 0.1898811969852E+01
 0.1867514416896E+01
 0.1858335490506E+01
 0.1878341602948E+01
 0.1935816310169E+01
 0.2039821921270E+01
 0.2199308620768E+01
 0.2421932336214E+01
 0.2712880274271E+01
 0.3073939273456E+01
 0.3502934698726E+01
 0.3993736413407E+01
 0.4536204709589E+01
 0.5115409237024E+01
 0.5711656813161E+01
 0.6301774476467E+01
 0.2368607141388E+01
 0.2430188309922E+01
 0.2490672374112E+01
 0.2547811749476E+01
 0.2599493517492E+01
 0.2643884342499E+01
 0.2679531117635E+01
 0.2705401434095E+01
 0.2720869591010E+01
 0.2725666209674E+01
 0.2719812372531E+01
 0.2703555396081E+01
 0.2677316767654E+01
 0.2641656751658E+01
 0.2597255212055E+01
 0.2544906849445E+01
 0.2485531487234E+01
 0.2420198909387E+01
 0.2350148683997E+01
 0.2276802776002E+01
 0.2201799015071E+01
 0.2127039454891E+01
 0.2054756778362E+01
 0.1987604017287E+01
 0.1928775513306E+01
 0.1882172354469E+01
 0.1852608595825E+01
 0.1846019237378E+01
 0.1869584784811E+01
 0.1931623920226E+01
 0.2041081410586E+01
 0.2206579360507E+01
 0.2435231690412E+01
 0.2731531413708E+01
 0.3096520297075E+01
 0.3527337543515E+01
 0.4017329140627E+01
 0.4556114079167E+01
 0.5128942729371E+01
 0.5716806406424E+01
 0.6297704971118E+01
 0.2367387092615E+01
 0.2427992870798E+01
 0.2487522354408E+01
 0.2543773246258E+01
 0.2594673225868E+01
 0.2638410664828E+01
 0.2673529277715E+01
 0.2698971010096E+01
 0.2714069994922E+01
 0.2718511835273E+01
 0.2712276140752E+01
 0.2695577924053E+01
 0.2668818226137E+01
 0.2632549133749E+01
 0.2587453682031E+01
 0.2534339714168E+01
 0.2474147443217E+01
 0.2407971511572E+01
 0.2337082949956E+01
 0.2262945253327E+01
 0.2187248163801E+01
 0.2111955505062E+01
 0.2039371239608E+01
 0.1972229360624E+01
 0.1913815736696E+01
 0.1868134690038E+01
 0.1840114180271E+01
 0.1835805316252E+01
 0.1862481364558E+01
 0.1928480798515E+01
 0.2042632658300E+01
 0.2213263185568E+01
 0.2447014865613E+01
 0.2747791668447E+01
 0.3116015523646E+01
 0.3548265455311E+01
 0.4037470230864E+01
 0.4573070873442E+01
 0.5140490085277E+01
 0.5721305236036E+01
 0.6294501312307E+01
 0.2366369860908E+01
 0.2426164704960E+01
 0.2484900615405E+01
 0.2540410909940E+01
 0.2590655701181E+01
 0.2633841273634E+01
 0.2668509653777E+01
 0.2693583016881E+01
 0.2708363678455E+01
 0.2712501009083E+01
 0.2705940796404E+01
 0.2688871368537E+01
 0.2661676618647E+01
 0.2624901554562E+01
 0.2579231596640E+01
 0.2525485395391E+01
 0.2464620156114E+01
 0.2397751373698E+01
 0.2326176560581E+01
 0.2251394160686E+01
 0.2175137510916E+01
 0.2099422176773E+01
 0.2026611699615E+01
 0.1959507656893E+01
 0.1901472295905E+01
 0.1856596062434E+01
 0.1829901669174E+01
 0.1827535742405E+01
 0.1856845103290E+01
 0.1926177226201E+01
 0.2044254163758E+01
 0.2219145732721E+01
 0.2457097499349E+01
 0.2761527442065E+01
 0.3132354393645E+01
 0.3565709890947E+01
 0.4054196618313E+01
 0.4587126660949E+01
 0.5150077971107E+01
 0.5725115779781E+01
 0.6292031890315E+01
 0.2365555541177E+01
 0.2424702801466E+01
 0.2482805051144E+01
 0.2537722752585E+01
 0.2587441063347E+01
 0.2630180460384E+01
 0.2664482205433E+01
 0.2689253664759E+01
 0.2703772759985E+01
 0.2707660713312E+01
 0.2700836751123E+01
 0.2683468026611E+01
 0.2655924661067E+01
 0.2618745839513E+01
 0.2572618729672E+01
 0.2518370535670E+01
 0.2456972055669E+01
 0.2389555552156E+01
 0.2317439889191E+01
 0.2242151685882E+01
 0.2165459366026E+01
 0.2089420054660E+01
 0.2016445065082E+01
 0.1949390112022E+01
 0.1891678613022E+01
 0.1847469974276E+01
 0.1821862587826E+01
 0.1821078628278E+01
 0.1852521198308E+01
 0.1924539955536E+01
 0.2045764478949E+01
 0.2224053246531E+01
 0.2465332052623E+01
 0.2772633611073E+01
 0.3145483144028E+01
 0.3579666630720E+01
 0.4067539588652E+01
 0.4598323128620E+01
 0.5157726687872E+01
 0.5728205390679E+01
 0.6290187281475E+01
 0.2364944402074E+01
 0.2423606619369E+01
 0.2481234297828E+01
 0.2535707492109E+01
 0.2585029624211E+01
 0.2627431725277E+01
 0.2661454805818E+01
 0.2685995694255E+01
 0.2700314624393E+01
 0.2704012194444E+01
 0.2696988004929E+01
 0.2679393437107E+01
 0.2651588260315E+01
 0.2614107205542E+01
 0.2567638660895E+01
 0.2513016193155E+01
 0.2451220793934E+01
 0.2383397349424E+01
 0.2310880831652E+01
 0.2235219113846E+01
 0.2158207054368E+01
 0.2081933040767E+01
 0.2008844274894E+01
 0.1941837112416E+01
 0.1884380887038E+01
 0.1840686761025E+01
 0.1815909807406E+01
 0.1816328330686E+01
 0.1849386097721E+01
 0.1923431425364E+01
 0.2047020537338E+01
 0.2227849918810E+01
 0.2471604422707E+01
 0.2781030020087E+01
 0.3155361922907E+01
 0.3590134089590E+01
 0.4077524455486E+01
 0.4606692781253E+01
 0.5163451217774E+01
 0.5730547042684E+01
 0.6288880117657E+01
 0.2364536755007E+01
 0.2422875905467E+01
 0.2480187515632E+01
 0.2534364343680E+01
 0.2583421743032E+01
 0.2625597734751E+01
 0.2659433308662E+01
 0.2683818532299E+01
 0.2698002133043E+01
 0.2701571191256E+01
 0.2694412365942E+01
 0.2676666578733E+01
 0.2648686689603E+01
 0.2611004421023E+01
 0.2564308933092E+01
 0.2509438009799E+01
 0.2447379437596E+01
 0.2379286540650E+01
 0.2306505073541E+01
 0.2230597136167E+01
 0.2153375265444E+01
 0.2076948733363E+01
 0.2003788694485E+01
 0.1936818615580E+01
 0.1879538459261E+01
 0.1836193908865E+01
 0.1811977784833E+01
 0.1813205548807E+01
 0.1847347321506E+01
 0.1922749090006E+01
 0.2047916276816E+01
 0.2230435757195E+01
 0.2475831294424E+01
 0.2786658797982E+01
 0.3161962621615E+01
 0.3597112075511E+01
 0.4084170348741E+01
 0.4612259502227E+01
 0.5167262062916E+01
 0.5732119935438E+01
 0.6288044975145E+01
 0.2364332859049E+01
 0.2422510562290E+01
 0.2479664230356E+01
 0.2533692867136E+01
 0.2582617718786E+01
 0.2624680286837E+01
 0.2658421593498E+01
 0.2682728403866E+01
 0.2696843776969E+01
 0.2700348103555E+01
 0.2693121614947E+01
 0.2675300020044E+01
 0.2647232722306E+01
 0.2609449928639E+01
 0.2562641172928E+01
 0.2507646340493E+01
 0.2445456614923E+01
 0.2377229545892E+01
 0.2304316292227E+01
 0.2228286084101E+01
 0.2150960314091E+01
 0.2074458708944E+01
 0.2001264407408E+01
 0.1934314436764E+01
 0.1877124079495E+01
 0.1833956284584E+01
 0.1810022733681E+01
 0.1811657386148E+01
 0.1846343309140E+01
 0.1922424890601E+01
 0.2048381584764E+01
 0.2231744987002E+01
 0.2477958190566E+01
 0.2789482413859E+01
 0.3165267327143E+01
 0.3600600918547E+01
 0.4087490082989E+01
 0.4615038976816E+01
 0.5169165874874E+01
 0.5732909949446E+01
 0.6287638287832E+01
 0.2364332859006E+01
 0.2422510562248E+01
 0.2479664230316E+01
 0.2533692867100E+01
 0.2582617718755E+01
 0.2624680286812E+01
 0.2658421593480E+01
 0.2682728403855E+01
 0.2696843776967E+01
 0.2700348103562E+01
 0.2693121614964E+01
 0.2675300020073E+01
 0.2647232722348E+01
 0.2609449928697E+01
 0.2562641173003E+01
 0.2507646340588E+01
 0.2445456615040E+01
 0.2377229546032E+01
 0.2304316292392E+01
 0.2228286084291E+01
 0.2150960314305E+01
 0.2074458709181E+01
 0.2001264407663E+01
 0.1934314437033E+01
 0.1877124079768E+01
 0.1833956284848E+01
 0.1810022733921E+01
 0.1811657386344E+01
 0.1846343309268E+01
 0.1922424890635E+01
 0.2048381584682E+01
 0.2231744986786E+01
 0.2477958190214E+01
 0.2789482413382E+01
 0.3165267326572E+01
 0.3600600917930E+01
 0.4087490082386E+01
 0.4615038976295E+01
 0.5169165874500E+01
 0.5732909949271E+01
 0.6287638287878E+01
 0.2364536754877E+01
 0.2422875905340E+01
 0.2480187515511E+01
 0.2534364343571E+01
 0.2583421742938E+01
 0.2625597734676E+01
 0.2659433308608E+01
 0.2683818532267E+01
 0.2698002133036E+01
 0.2701571191277E+01
 0.2694412365993E+01
 0.2676666578819E+01
 0.2648686689729E+01
 0.2611004421195E+01
 0.2564308933316E+01
 0.2509438010083E+01
 0.2447379437944E+01
 0.2379286541070E+01
 0.2306505074035E+01
 0.2230597136736E+01
 0.2153375266088E+01
 0.2076948734075E+01
 0.2003788695254E+01
 0.1936818616387E+01
 0.1879538460080E+01
 0.1836193909660E+01
 0.1811977785557E+01
 0.1813205549397E+01
 0.1847347321893E+01
 0.1922749090114E+01
 0.2047916276574E+01
 0.2230435756553E+01
 0.2475831293372E+01
 0.2786658796555E+01
 0.3161962619904E+01
 0.3597112073658E+01
 0.4084170346931E+01
 0.4612259500663E+01
 0.5167262061795E+01
 0.5732119934913E+01
 0.6288044975286E+01
 0.2364944401857E+01
 0.2423606619156E+01
 0.2481234297627E+01
 0.2535707491928E+01
 0.2585029624055E+01
 0.2627431725151E+01
 0.2661454805728E+01
 0.2685995694202E+01
 0.2700314624381E+01
 0.2704012194477E+01
 0.2696988005013E+01
 0.2679393437249E+01
 0.2651588260524E+01
 0.2614107205828E+01
 0.2567638661268E+01
 0.2513016193626E+01
 0.2451220794514E+01
 0.2383397350122E+01
 0.2310880832473E+01
 0.2235219114794E+01
 0.2158207055441E+01
 0.2081933041954E+01
 0.2008844276177E+01
 0.1941837113765E+01
 0.1884380888409E+01
 0.1840686762357E+01
 0.1815909808620E+01
 0.1816328331682E+01
 0.1849386098380E+01
 0.1923431425560E+01
 0.2047020536952E+01
 0.2227849917759E+01
 0.2471604420969E+01
 0.2781030017721E+01
 0.3155361920062E+01
 0.3590134086504E+01
 0.4077524452465E+01
 0.4606692778641E+01
 0.5163451215904E+01
 0.5730547041814E+01
 0.6288880117905E+01
 0.2365555540872E+01
 0.2424702801168E+01
 0.2482805050863E+01
 0.2537722752331E+01
 0.2587441063128E+01
 0.2630180460209E+01
 0.2664482205305E+01
 0.2689253664684E+01
 0.2703772759967E+01
 0.2707660713357E+01
 0.2700836751239E+01
 0.2683468026807E+01
 0.2655924661357E+01
 0.2618745839910E+01
 0.2572618730191E+01
 0.2518370536327E+01
 0.2456972056478E+01
 0.2389555553131E+01
 0.2317439890340E+01
 0.2242151687210E+01
 0.2165459367529E+01
 0.2089420056325E+01
 0.2016445066883E+01
 0.1949390113918E+01
 0.1891678614952E+01
 0.1847469976156E+01
 0.1821862589546E+01
 0.1821078629698E+01
 0.1852521199262E+01
 0.1924539955846E+01
 0.2045764478446E+01
 0.2224053245095E+01
 0.2465332050220E+01
 0.2772633607782E+01
 0.3145483140056E+01
 0.3579666626399E+01
 0.4067539584413E+01
 0.4598323124952E+01
 0.5157726685249E+01
 0.5728205389470E+01
 0.6290187281852E+01
 0.2366369860516E+01
 0.2426164704576E+01
 0.2484900615043E+01
 0.2540410909613E+01
 0.2590655700899E+01
 0.2633841273407E+01
 0.2668509653611E+01
 0.2693583016782E+01
 0.2708363678429E+01
 0.2712501009137E+01
 0.2705940796549E+01
 0.2688871368785E+01
 0.2661676619014E+01
 0.2624901555067E+01
 0.2579231597302E+01
 0.2525485396231E+01
 0.2464620157150E+01
 0.2397751374947E+01
 0.2326176562056E+01
 0.2251394162391E+01
 0.2175137512850E+01
 0.2099422178918E+01
 0.2026611701939E+01
 0.1959507659344E+01
 0.1901472298405E+01
 0.1856596064877E+01
 0.1829901671419E+01
 0.1827535744273E+01
 0.1856845104569E+01
 0.1926177226659E+01
 0.2044254163176E+01
 0.2219145730939E+01
 0.2457097496314E+01
 0.2761527437873E+01
 0.3132354388559E+01
 0.3565709885392E+01
 0.4054196612849E+01
 0.4587126656215E+01
 0.5150077967725E+01
 0.5725115778241E+01
 0.6292031890850E+01
 0.2367387092136E+01
 0.2427992870329E+01
 0.2487522353965E+01
 0.2543773245857E+01
 0.2594673225522E+01
 0.2638410664549E+01
 0.2673529277510E+01
 0.2698971009972E+01
 0.2714069994886E+01
 0.2718511835334E+01
 0.2712276140922E+01
 0.2695577924348E+01
 0.2668818226577E+01
 0.2632549134358E+01
 0.2587453682832E+01
 0.2534339715186E+01
 0.2474147444476E+01
 0.2407971513092E+01
 0.2337082951753E+01
 0.2262945255411E+01
 0.2187248166167E+01
 0.2111955507692E+01
 0.2039371242463E+01
 0.1972229363640E+01
 0.1913815739782E+01
 0.1868134693064E+01
 0.1840114183067E+01
 0.1835805318602E+01
 0.1862481366201E+01
 0.1928480799167E+01
 0.2042632657688E+01
 0.2213263183487E+01
 0.2447014861988E+01
 0.2747791663385E+01
 0.3116015517460E+01
 0.3548265448521E+01
 0.4037470224163E+01
 0.4573070867627E+01
 0.5140490081130E+01
 0.5721305234177E+01
 0.6294501313039E+01
 0.2368607140821E+01
 0.2430188309367E+01
 0.2490672373588E+01
 0.2547811749001E+01
 0.2599493517083E+01
 0.2643884342168E+01
 0.2679531117390E+01
 0.2705401433944E+01
 0.2720869590962E+01
 0.2725666209738E+01
 0.2719812372723E+01
 0.2703555396420E+01
 0.2677316768164E+01
 0.2641656752365E+01
 0.2597255212989E+01
 0.2544906850636E+01
 0.2485531488711E+01
 0.2420198911175E+01
 0.2350148686116E+01
 0.2276802778462E+01
 0.2201799017870E+01
 0.2127039458008E+01
 0.2054756781753E+01
 0.1987604020880E+01
 0.1928775516994E+01
 0.1882172358101E+01
 0.1852608599203E+01
 0.1846019240248E+01
 0.1869584786867E+01
 0.1931623921128E+01
 0.2041081410005E+01
 0.2206579358188E+01
 0.2435231686251E+01
 0.2731531407815E+01
 0.3096520289810E+01
 0.3527337535493E+01
 0.4017329132677E+01
 0.4556114072253E+01
 0.5128942724448E+01
 0.5716806404259E+01
 0.6297704972094E+01
 0.2370030256189E+01
 0.2432752740863E+01
 0.2494353806482E+01
 0.2552529382000E+01
 0.2605116829450E+01
 0.2650257270075E+01
 0.2686503031857E+01
 0.2712854401229E+01
 0.2728735343022E+01
 0.2733931124628E+01
 0.2728512393770E+01
 0.2712764485187E+01
 0.2687132505138E+01
 0.2652185781629E+01
 0.2608600030242E+01
 0.2557154371709E+01
 0.2498744847797E+01
 0.2434412480590E+01
 0.2365360584133E+01
 0.2292963255867E+01
 0.2218798337503E+01
 0.2144696284802E+01
 0.2072806943529E+01
 0.2005689103870E+01
 0.1946430511008E+01
 0.1898811974119E+01
 0.1867514420893E+01
 0.1858335493943E+01
 0.1878341605473E+01
 0.1935816311389E+01
 0.2039821920794E+01
 0.2199308618285E+01
 0.2421932331582E+01
 0.2712880267597E+01
 0.3073939265142E+01
 0.3502934689476E+01
 0.3993736404194E+01
 0.4536204701553E+01
 0.5115409231312E+01
 0.5711656810704E+01
 0.6301774477742E+01
 0.2371657248206E+01
 0.2435688894194E+01
 0.2498571171102E+01
 0.2557930418308E+01
 0.2611544009651E+01
 0.2657523712513E+01
 0.2694430565469E+01
 0.2721306079872E+01
 0.2737634782267E+01
 0.2743267192252E+01
 0.2738332089370E+01
 0.2723158599651E+01
 0.2698218427514E+01
 0.2664090569696E+01
 0.2621445375279E+01
 0.2571043823762E+01
 0.2513754794221E+01
 0.2450586773749E+01
 0.2382702266332E+01
 0.2311421465121E+01
 0.2238254449342E+01
 0.2164950503303E+01
 0.2093565267333E+01
 0.2026550142526E+01
 0.1966871311932E+01
 0.1918172344368E+01
 0.1884981762239E+01
 0.1872937948615E+01
 0.1888969664471E+01
 0.1941305021506E+01
 0.2039117670557E+01
 0.2191709113193E+01
 0.2407342154437E+01
 0.2692004741866E+01
 0.3048363533295E+01
 0.3475072019267E+01
 0.3966649933498E+01
 0.4513280457936E+01
 0.5099855314515E+01
 0.5705897989995E+01
 0.6306863758731E+01
 0.2373489754962E+01
 0.2439000884815E+01
 0.2503330816906E+01
 0.2564020850761E+01
 0.2618776754295E+01
 0.2665677270124E+01
 0.2703296767878E+01
 0.2730728355028E+01
 0.2747529679013E+01
 0.2753628222350E+01
 0.2749219943932E+01
 0.2734683528458E+01
 0.2710519975164E+01
 0.2677318191923E+01
 0.2635741645800E+01
 0.2586530466267E+01
 0.2530523007819E+01
 0.2468691612790E+01
 0.2402153706622E+01
 0.2332169905964E+01
 0.2260175120204E+01
 0.2187828205824E+01
 0.2117079475012E+01
 0.2050259972109E+01
 0.1990199490868E+01
 0.1940387505302E+01
 0.1905180825329E+01
 0.1890036058407E+01
 0.1901718530728E+01
 0.1948375331379E+01
 0.2039276253183E+01
 0.2184086452104E+01
 0.2391732505204E+01
 0.2669109714564E+01
 0.3019909469425E+01
 0.3443774141234E+01
 0.3936023131139E+01
 0.4487267292430E+01
 0.5082237594330E+01
 0.5699574560941E+01
 0.6313149206036E+01
 0.2375530571368E+01
 0.2442694677229E+01
 0.2508641469383E+01
 0.2570808882228E+01
 0.2626817901352E+01
 0.2674710895814E+01
 0.2713081949202E+01
 0.2741088405562E+01
 0.2758375542132E+01
 0.2764960728388E+01
 0.2761116603515E+01
 0.2747277074259E+01
 0.2723974734485E+01
 0.2691808186080E+01
 0.2651432138052E+01
 0.2603562989607E+01
 0.2549005239653E+01
 0.2488691678266E+01
 0.2423690730540E+01
 0.2355198200093E+01
 0.2284566860194E+01
 0.2213356272329E+01
 0.2143400611804E+01
 0.2076897839765E+01
 0.2016526720863E+01
 0.1965605921837E+01
 0.1928301241002E+01
 0.1909864453264E+01
 0.1916869537705E+01
 0.1957351629553E+01
 0.2040651653231E+01
 0.2176797833789E+01
 0.2375426598945E+01
 0.2644445138863E+01
 0.2988724733492E+01
 0.3409079023673E+01
 0.3901805895815E+01
 0.4458078148215E+01
 0.5062501877535E+01
 0.5692733316974E+01
 0.6320829793423E+01
 0.2377784050398E+01
 0.2446778652065E+01
 0.2514514892646E+01
 0.2578305507700E+01
 0.2635671753575E+01
 0.2684616875342E+01
 0.2723763351958E+01
 0.2752348178734E+01
 0.2770121023475E+01
 0.2777203359548E+01
 0.2773954387721E+01
 0.2760868657118E+01
 0.2738512117255E+01
 0.2707492275657E+01
 0.2668452777745E+01
 0.2622083216974E+01
 0.2569150952639E+01
 0.2510546063024E+01
 0.2447284464359E+01
 0.2380492424833E+01
 0.2311434137726E+01
 0.2241561472924E+01
 0.2172582055485E+01
 0.2106548356792E+01
 0.2045973727858E+01
 0.1993989509175E+01
 0.1954551247737E+01
 0.1932682389635E+01
 0.1934735712946E+01
 0.1968598223518E+01
 0.2043646590796E+01
 0.2170256571557E+01
 0.2358806284733E+01
 0.2618314092982E+01
 0.2954995798254E+01
 0.3371043016627E+01
 0.3863945987965E+01
 0.4425611355224E+01
 0.5040581090583E+01
 0.5685422503747E+01
 0.6330127159614E+01
 0.2380256591929E+01
 0.2451264299170E+01
 0.2520966691756E+01
 0.2586525198615E+01
 0.2645344426686E+01
 0.2695386751706E+01
 0.2735314714355E+01
 0.2764463742581E+01
 0.2782707216116E+01
 0.2790286256256E+01
 0.2787656754947E+01
 0.2775378894030E+01
 0.2754053029649E+01
 0.2724294089627E+01
 0.2686731847542E+01
 0.2642025798047E+01
 0.2590902945164E+01
 0.2534207797021E+01
 0.2472900740284E+01
 0.2408034384987E+01
 0.2340778511143E+01
 0.2272469461225E+01
 0.2204678387359E+01
 0.2139300283439E+01
 0.2078669050324E+01
 0.2025712452317E+01
 0.1984156674848E+01
 0.1958773025568E+01
 0.1955661550519E+01
 0.1982520021004E+01
 0.2048714844464E+01
 0.2164936924597E+01
 0.2342319716295E+01
 0.2591082387431E+01
 0.2918957358940E+01
 0.3329747465202E+01
 0.3822390999022E+01
 0.4389748480287E+01
 0.5016392616053E+01
 0.5677691543537E+01
 0.6341285641494E+01
 0.2382957238674E+01
 0.2456167065029E+01
 0.2528017282458E+01
 0.2595486701009E+01
 0.2655844210594E+01
 0.2707011164690E+01
 0.2747705692959E+01
 0.2777384491964E+01
 0.2796066834861E+01
 0.2804130328641E+01
 0.2802137727124E+01
 0.2790719163494E+01
 0.2770509540615E+01
 0.2742128887164E+01
 0.2706189718820E+01
 0.2663317901516E+01
 0.2614196964353E+01
 0.2559623349479E+01
 0.2500499463751E+01
 0.2437800828100E+01
 0.2372597680374E+01
 0.2306103658641E+01
 0.2239744119578E+01
 0.2175245132822E+01
 0.2114747584417E+01
 0.2060959790048E+01
 0.2017359689302E+01
 0.1988442476638E+01
 0.1980022582439E+01
 0.1999563019801E+01
 0.2056363451130E+01
 0.2161379114395E+01
 0.2326489887218E+01
 0.2563189900584E+01
 0.2880904049037E+01
 0.3285307461776E+01
 0.3777091271567E+01
 0.4350351346598E+01
 0.4989834450350E+01
 0.5669591556020E+01
 0.6354572292706E+01
 0.2385898404725E+01
 0.2461507391211E+01
 0.2535693062856E+01
 0.2605213959202E+01
 0.2667181924667E+01
 0.2719479566576E+01
 0.2760901104397E+01
 0.2791052180490E+01
 0.2810123267736E+01
 0.2818646459799E+01
 0.2817301282996E+01
 0.2806791166312E+01
 0.2787784560189E+01
 0.2760903296446E+01
 0.2726738595628E+01
 0.2685878913718E+01
 0.2638961315982E+01
 0.2586732115349E+01
 0.2530033949776E+01
 0.2469762609607E+01
 0.2406884463533E+01
 0.2342484031128E+01
 0.2277832274498E+01
 0.2214475580956E+01
 0.2154348890185E+01
 0.2099925726090E+01
 0.2054417257864E+01
 0.2022018599319E+01
 0.2008224695154E+01
 0.2020214540247E+01
 0.2067154672576E+01
 0.2160194369453E+01
 0.2311923937690E+01
 0.2535163795586E+01
 0.2841204947741E+01
 0.3237883486740E+01
 0.3728004433427E+01
 0.4307257928228E+01
 0.4960778911161E+01
 0.5661177039638E+01
 0.6370276805046E+01
 0.2389096770164E+01
 0.2467311991695E+01
 0.2544027830026E+01
 0.2615737175574E+01
 0.2679371237313E+01
 0.2732779761293E+01
 0.2774859935839E+01
 0.2805399746971E+01
 0.2824789488777E+01
 0.2833734639568E+01
 0.2833040732752E+01
 0.2823486496397E+01
 0.2805771539578E+01
 0.2780515077050E+01
 0.2748282278800E+01
 0.2709620150672E+01
 0.2665116478299E+01
 0.2615465893632E+01
 0.2561450236305E+01
 0.2503883815748E+01
 0.2443625705126E+01
 0.2381625761798E+01
 0.2318992813492E+01
 0.2257083670930E+01
 0.2197615233799E+01
 0.2142811626550E+01
 0.2095599268349E+01
 0.2059849436547E+01
 0.2040703125890E+01
 0.2045003129740E+01
 0.2081707613613E+01
 0.2162069806668E+01
 0.2299323064805E+01
 0.2507633720675E+01
 0.2800321403608E+01
 0.3187696874502E+01
 0.3675102733427E+01
 0.4260277165954E+01
 0.4929061395850E+01
 0.5652508471399E+01
 0.6388711369323E+01
 0.2392574386167E+01
 0.2473615431914E+01
 0.2553064495080E+01
 0.2627094013702E+01
 0.2692428904431E+01
 0.2746897196084E+01
 0.2789534062280E+01
 0.2820349902282E+01
 0.2839966825791E+01
 0.2849283040057E+01
 0.2849238091635E+01
 0.2840686238331E+01
 0.2824354206080E+01
 0.2800852915551E+01
 0.2770715957821E+01
 0.2734444590516E+01
 0.2692574727058E+01
 0.2645748365747E+01
 0.2594686383661E+01
 0.2540120853837E+01
 0.2482801124567E+01
 0.2423537825069E+01
 0.2363270914843E+01
 0.2303158801026E+01
 0.2244689341209E+01
 0.2189823660200E+01
 0.2141186245989E+01
 0.2102301246414E+01
 0.2077921057773E+01
 0.2074498060139E+01
 0.2100699374814E+01
 0.2167772929107E+01
 0.2289492774926E+01
 0.2481349005552E+01
 0.2758828725175E+01
 0.3135050134437E+01
 0.3618385020754E+01
 0.4209184143594E+01
 0.4894459882296E+01
 0.5643653332237E+01
 0.6410209444385E+01
 0.2396360050012E+01
 0.2480462092606E+01
 0.2562857162982E+01
 0.2639330945111E+01
 0.2706374858368E+01
 0.2761813910993E+01
 0.2804866595375E+01
 0.2835813441301E+01
 0.2855543582817E+01
 0.2865167051820E+01
 0.2865763476078E+01
 0.2858260611605E+01
 0.2843406346809E+01
 0.2821796263522E+01
 0.2793926037223E+01
 0.2760246632751E+01
 0.2721239779071E+01
 0.2677494582705E+01
 0.2629671770584E+01
 0.2578421521453E+01
 0.2524382116151E+01
 0.2468221470653E+01
 0.2410705103066E+01
 0.2352785489096E+01
 0.2295711840205E+01
 0.2241170036976E+01
 0.2191466594137E+01
 0.2149756019819E+01
 0.2120367711512E+01
 0.2109308323603E+01
 0.2124865622100E+01
 0.2178155501499E+01
 0.2283353116441E+01
 0.2457197705264E+01
 0.2717442335578E+01
 0.3080353164204E+01
 0.3557895350967E+01
 0.4153720556012E+01
 0.4856660472304E+01
 0.5634675278113E+01
 0.6435118101649E+01
 0.2400491030387E+01
 0.2487908629307E+01
 0.2573473658926E+01
 0.2652504726817E+01
 0.2721232045925E+01
 0.2777507020630E+01
 0.2820789774235E+01
 0.2851687246295E+01
 0.2871393526676E+01
 0.2881248309795E+01
 0.2882474553005E+01
 0.2876068684889E+01
 0.2862791655764E+01
 0.2843215226102E+01
 0.2817790002907E+01
 0.2786911889694E+01
 0.2751006461288E+01
 0.2710610470597E+01
 0.2666326398929E+01
 0.2618724068502E+01
 0.2568330514439E+01
 0.2515668628690E+01
 0.2461325235157E+01
 0.2406040908867E+01
 0.2350818370816E+01
 0.2297057800900E+01
 0.2246733283575E+01
 0.2202608377692E+01
 0.2168555805005E+01
 0.2150081006397E+01
 0.2155000451783E+01
 0.2194156557119E+01
 0.2281948441682E+01
 0.2436227112997E+01
 0.2677048895224E+01
 0.3024156930781E+01
 0.3493748411046E+01
 0.4093609975792E+01
 0.4815214502606E+01
 0.5625582992840E+01
 0.6463752318773E+01
 0.2405015253035E+01
 0.2496027076533E+01
 0.2584998601209E+01
 0.2666683973656E+01
 0.2737025866345E+01
 0.2793946563381E+01
 0.2837222294415E+01
 0.2867851954654E+01
 0.2887374261694E+01
 0.2897373751390E+01
 0.2899216081187E+01
 0.2893958186948E+01
 0.2882363658603E+01
 0.2864970507456E+01
 0.2842176331535E+01
 0.2814317013943E+01
 0.2781760411992E+01
 0.2744992364671E+01
 0.2704560221164E+01
 0.2660956268978E+01
 0.2614597342231E+01
 0.2565860250637E+01
 0.2515150352754E+01
 0.2462992197793E+01
 0.2410136348379E+01
 0.2357689136866E+01
 0.2307279912865E+01
 0.2261261724735E+01
 0.2223018221552E+01
 0.2197498881333E+01
 0.2191955410862E+01
 0.2216804306384E+01
 0.2286456134846E+01
 0.2419665217449E+01
 0.2638742275230E+01
 0.2967197515216E+01
 0.3426161015414E+01
 0.4028588596403E+01
 0.4769533991089E+01
 0.5616221854192E+01
 0.6496040632366E+01
 0.2409994099314E+01
 0.2504908798898E+01
 0.2597537140758E+01
 0.2681950749910E+01
 0.2753782992056E+01
 0.2811092504139E+01
 0.2854065959593E+01
 0.2884169278021E+01
 0.2903325537678E+01
 0.2913374765596E+01
 0.2915819592550E+01
 0.2911765443736E+01
 0.2901965728479E+01
 0.2886913416381E+01
 0.2866944442956E+01
 0.2842329563399E+01
 0.2813377819918E+01
 0.2780526583254E+01
 0.2744272507238E+01
 0.2705034522671E+01
 0.2663121561897E+01
 0.2618764603832E+01
 0.2572186412641E+01
 0.2523693540485E+01
 0.2473781369330E+01
 0.2423257156772E+01
 0.2373396064346E+01
 0.2326123526771E+01
 0.2284303694879E+01
 0.2252277005218E+01
 0.2236637493193E+01
 0.2247216721972E+01
 0.2298193744796E+01
 0.2408942060241E+01
 0.2603864874932E+01
 0.2910449309609E+01
 0.3355506605748E+01
 0.3958392431272E+01
 0.4719135641826E+01
 0.5605327620332E+01
 0.6537366360773E+01
 0.2415506032193E+01
 0.2514669566199E+01
 0.2611219507953E+01
 0.2698402038739E+01
 0.2771529258258E+01
 0.2828890617425E+01
 0.2871201535536E+01
 0.2900478985512E+01
 0.2919067565376E+01
 0.2929066511807E+01
 0.2932103270946E+01
 0.2929315473538E+01
 0.2921431204171E+01
 0.2908885931213E+01
 0.2891944691296E+01
 0.2870807902480E+01
 0.2845725206422E+01
 0.2817089054481E+01
 0.2785351271271E+01
 0.2750863012049E+01
 0.2713828855741E+01
 0.2674335542001E+01
 0.2632423912360E+01
 0.2588183037540E+01
 0.2541853258214E+01
 0.2493941140988E+01
 0.2445361889466E+01
 0.2397599576957E+01
 0.2352971291041E+01
 0.2315158041875E+01
 0.2290005859028E+01
 0.2286600572415E+01
 0.2318623956465E+01
 0.2405709788507E+01
 0.2574053198627E+01
 0.2855192189787E+01
 0.3282376912855E+01
 0.3882823887785E+01
 0.4663408179764E+01
 0.5592470203361E+01
 0.6590231814312E+01
 0.2421651355825E+01
 0.2525456135269E+01
 0.2626206523332E+01
 0.2716150839031E+01
 0.2790286171053E+01
 0.2847266909626E+01
 0.2888483694478E+01
 0.2916595605669E+01
 0.2934399451764E+01
 0.2944247509185E+01
 0.2947872094722E+01
 0.2946422272805E+01
 0.2940583617860E+01
 0.2930720816759E+01
 0.2917018383808E+01
 0.2899601133380E+01
 0.2878659253881E+01
 0.2854545010003E+01
 0.2827672782233E+01
 0.2798332944219E+01
 0.2766630464802E+01
 0.2732510775954E+01
 0.2695835429185E+01
 0.2656479372817E+01
 0.2614431761334E+01
 0.2569901222333E+01
 0.2523441869512E+01
 0.2476087120671E+01
 0.2429583444025E+01
 0.2386905957291E+01
 0.2353066904776E+01
 0.2336248632736E+01
 0.2349356849455E+01
 0.2411860065543E+01
 0.2551285740495E+01
 0.2803094878902E+01
 0.3207661898973E+01
 0.3801826479169E+01
 0.4601489536785E+01
 0.5578783798680E+01
 0.6648844899346E+01
 0.2428558553072E+01
 0.2537454872528E+01
 0.2642696230337E+01
 0.2735326461570E+01
 0.2810065394489E+01
 0.2866120167845E+01
 0.2905734971870E+01
 0.2932304966627E+01
 0.2949097915583E+01
 0.2958699620844E+01
 0.2962918317119E+01
 0.2962889324944E+01
 0.2959237034796E+01
 0.2952241778111E+01
 0.2941997808446E+01
 0.2928549045483E+01
 0.2912026681917E+01
 0.2892748762906E+01
 0.2871101189537E+01
 0.2847321915741E+01
 0.2821422121662E+01
 0.2793210172321E+01
 0.2762373093367E+01
 0.2728578297326E+01
 0.2691571903253E+01
 0.2651272517416E+01
 0.2607877720737E+01
 0.2561966728631E+01
 0.2514697297662E+01
 0.2468297664753E+01
 0.2426867164166E+01
 0.2397534630488E+01
 0.2392149062105E+01
 0.2429536950824E+01
 0.2537931975512E+01
 0.2756309471307E+01
 0.3132680992716E+01
 0.3715462292424E+01
 0.4532788442426E+01
 0.5563397129117E+01
 0.6714454105463E+01
 0.2436392857346E+01
 0.2550903168219E+01
 0.2660931774474E+01
 0.2756073307930E+01
 0.2830860318338E+01
 0.2885312161859E+01
 0.2922738733565E+01
 0.2947360788245E+01
 0.2962916500068E+01
 0.2972188578872E+01
 0.2977022363205E+01
 0.2978510362180E+01
 0.2977196500417E+01
 0.2973263625912E+01
 0.2966706240051E+01
 0.2957482063120E+01
 0.2945664170891E+01
 0.2931543591503E+01
 0.2915488303873E+01
 0.2897693448382E+01
 0.2878083119811E+01
 0.2856334110588E+01
 0.2831966017348E+01
 0.2804448951973E+01
 0.2773299033962E+01
 0.2738158731642E+01
 0.2698880443661E+01
 0.2655592841986E+01
 0.2608854123123E+01
 0.2560112153111E+01
 0.2512483340012E+01
 0.2471905264530E+01
 0.2448899263801E+01
 0.2461144220410E+01
 0.2536796663474E+01
 0.2717586963442E+01
 0.3059319439300E+01
 0.3624111726184E+01
 0.4456439877304E+01
 0.5545140228866E+01
 0.6788162458048E+01
 0.2445368047794E+01
 0.2566104706765E+01
 0.2681210542266E+01
 0.2778546949627E+01
 0.2852633465669E+01
 0.2904655002557E+01
 0.2939231295201E+01
 0.2961481669048E+01
 0.2975585559955E+01
 0.2984465211595E+01
 0.2989954222122E+01
 0.2993070406511E+01
 0.2994258582200E+01
 0.2993592414107E+01
 0.2990957879427E+01
 0.2986221159713E+01
 0.2979398327988E+01
 0.2970761755950E+01
 0.2960673585586E+01
 0.2949296755997E+01
 0.2936475568111E+01
 0.2921761927339E+01
 0.2904517698250E+01
 0.2884030050856E+01
 0.2859603603713E+01
 0.2830625286386E+01
 0.2796621552211E+01
 0.2757282959374E+01
 0.2712566623117E+01
 0.2663116617614E+01
 0.2611008612933E+01
 0.2560868219024E+01
 0.2521639245948E+01
 0.2509345410865E+01
 0.2551157263272E+01
 0.2690397975322E+01
 0.2990244415694E+01
 0.3528590738501E+01
 0.4371343210026E+01
 0.5522617392449E+01
 0.6871127440118E+01
 0.2455762990133E+01
 0.2583450110796E+01
 0.2703894301901E+01
 0.2802905577144E+01
 0.2875298066592E+01
 0.2923895228867E+01
 0.2954893581277E+01
 0.2974348976080E+01
 0.2986813354407E+01
 0.2995267538272E+01
 0.3001475408095E+01
 0.3006347111282E+01
 0.3010211985295E+01
 0.3013025495097E+01
 0.3014557658963E+01
 0.3014577690010E+01
 0.3013045686621E+01
 0.3010224684267E+01
 0.3006484412071E+01
 0.3001966821003E+01
 0.2996443887156E+01
 0.2989350473940E+01
 0.2979903404284E+01
 0.2967225945654E+01
 0.2950435714308E+01
 0.2928692045376E+01
 0.2901223565353E+01
 0.2867305500837E+01
 0.2826304007290E+01
 0.2778049159161E+01
 0.2723534263910E+01
 0.2665974706144E+01
 0.2612519122979E+01
 0.2577055791119E+01
 0.2584787622212E+01
 0.2679060197584E+01
 0.2929169050549E+01
 0.3430390727253E+01
 0.4276299901465E+01
 0.5494078458395E+01
 0.6964645470201E+01
 0.2467945322298E+01
 0.2603445128739E+01
 0.2729419490486E+01
 0.2829293695799E+01
 0.2898691625694E+01
 0.2942694451553E+01
 0.2969343100113E+01
 0.2985606336089E+01
 0.2996288609352E+01
 0.3004323881707E+01
 0.3011341552283E+01
 0.3018112421123E+01
 0.3024838213972E+01
 0.3031351417805E+01
 0.3037300819741E+01
 0.3042353067602E+01
 0.3046412722626E+01
 0.3049743378566E+01
 0.3052736723274E+01
 0.3055524883013E+01
 0.3057814612067E+01
 0.3058932805581E+01
 0.3057967541870E+01
 0.3053902585070E+01
 0.3045699505692E+01
 0.3032325748525E+01
 0.3012749897778E+01
 0.2985866461558E+01
 0.2950474825578E+01
 0.2905597721789E+01
 0.2851125663960E+01
 0.2788794664976E+01
 0.2723784308833E+01
 0.2667424112507E+01
 0.2641964635544E+01
 0.2688855471181E+01
 0.2881180166634E+01
 0.3332090994732E+01
 0.4170182614720E+01
 0.5457256221831E+01
 0.7070214485273E+01
 0.2482406164916E+01
 0.2626749460411E+01
 0.2758305542882E+01
 0.2857813065171E+01
 0.2922538845141E+01
 0.2960606990268E+01
 0.2982127578564E+01
 0.2994861607833E+01
 0.3003684898083E+01
 0.3011357110980E+01
 0.3019305670912E+01
 0.3028134567830E+01
 0.3037912248449E+01
 0.3048349571789E+01
 0.3058972124734E+01
 0.3069338178095E+01
 0.3079295859989E+01
 0.3089119115047E+01
 0.3099236185972E+01
 0.3109779475098E+01
 0.3120396572848E+01
 0.3130317003577E+01
 0.3138520977886E+01
 0.3143883371027E+01
 0.3145247445819E+01
 0.3141432296917E+01
 0.3131194349076E+01
 0.3113095060012E+01
 0.3085407672334E+01
 0.3046375107503E+01
 0.2994791834716E+01
 0.2930882617376E+01
 0.2857740713748E+01
 0.2783800575376E+01
 0.2727453308880E+01
 0.2726119019057E+01
 0.2853128513651E+01
 0.3237981239785E+01
 0.4052230319444E+01
 0.5409164400790E+01
 0.7189607631555E+01
 0.2499812313989E+01
 0.2654230577335E+01
 0.2791156599730E+01
 0.2888472971483E+01
 0.2946401107491E+01
 0.2977056158727E+01
 0.2992722346647E+01
 0.3001692315362E+01
 0.3008667100830E+01
 0.3016090064108E+01
 0.3025122134992E+01
 0.3036180426696E+01
 0.3049203214006E+01
 0.3063789456891E+01
 0.3079344515185E+01
 0.3095312361105E+01
 0.3111481422304E+01
 0.3128144548273E+01
 0.3145780080772E+01
 0.3164528187487E+01
 0.3183981526175E+01
 0.3203285105384E+01
 0.3221338257707E+01
 0.3236944893244E+01
 0.3248874599056E+01
 0.3255849073314E+01
 0.3256470463817E+01
 0.3249028688581E+01
 0.3231330017249E+01
 0.3200890122816E+01
 0.3155448103559E+01
 0.3093732391316E+01
 0.3016703861663E+01
 0.2929684372150E+01
 0.2846463536284E+01
 0.2798283087747E+01
 0.2854047444933E+01
 0.3154968751330E+01
 0.3922613398856E+01
 0.5345861868266E+01
 0.7324975737578E+01
 0.2521087010291E+01
 0.2687038466159E+01
 0.2828646748047E+01
 0.2921107588426E+01
 0.2969610525159E+01
 0.2991313044090E+01
 0.3000534375666E+01
 0.3005655417592E+01
 0.3010900027917E+01
 0.3018252120904E+01
 0.3028551343718E+01
 0.3042018276491E+01
 0.3058475045813E+01
 0.3077429436597E+01
 0.3098176933745E+01
 0.3120041702863E+01
 0.3142745460093E+01
 0.3166605391792E+01
 0.3192160213242E+01
 0.3219560396602E+01
 0.3248345305526E+01
 0.3277592072542E+01
 0.3306154612119E+01
 0.3332812493887E+01
 0.3356312952381E+01
 0.3375337529923E+01
 0.3388401121585E+01
 0.3393597589756E+01
 0.3388345567404E+01
 0.3369515151061E+01
 0.3333871825536E+01
 0.3278719610355E+01
 0.3202927791779E+01
 0.3108640967960E+01
 0.3004565573990E+01
 0.2913854366749E+01
 0.2895537109314E+01
 0.3093845363088E+01
 0.3783523231409E+01
 0.5262219881641E+01
 0.7478997852631E+01
 0.2547539042627E+01
 0.2726708698657E+01
 0.2871468445346E+01
 0.2955242192316E+01
 0.2991189761686E+01
 0.3002485165670E+01
 0.3004916389533E+01
 0.3006301826148E+01
 0.3010059053733E+01
 0.3017586810715E+01
 0.3029365073498E+01
 0.3045421041958E+01
 0.3065487213614E+01
 0.3089014824085E+01
 0.3115210914960E+01
 0.3143276230519E+01
 0.3172853342033E+01
 0.3204282953175E+01
 0.3238167302802E+01
 0.3274661269482E+01
 0.3313249528800E+01
 0.3352964659482E+01
 0.3392662583610E+01
 0.3431155571104E+01
 0.3467225876248E+01
 0.3499576332334E+01
 0.3526708823163E+01
 0.3546609809251E+01
 0.3556410706634E+01
 0.3552450670264E+01
 0.3530651663909E+01
 0.3487031966972E+01
 0.3418511178829E+01
 0.3324178315835E+01
 0.3207539803435E+01
 0.3082293494778E+01
 0.2992025858257E+01
 0.3070930434149E+01
 0.3641239122543E+01
 0.5151828398366E+01
 0.7655117916683E+01
 0.2581076837331E+01
 0.2775300919228E+01
 0.2920202415016E+01
 0.2989883166806E+01
 0.3009767353353E+01
 0.3009527256015E+01
 0.3005193860406E+01
 0.3003195193060E+01
 0.3005842407579E+01
 0.3013860245167E+01
 0.3027352428933E+01
 0.3046170155154E+01
 0.3069995689367E+01
 0.3098275175231E+01
 0.3130165361070E+01
 0.3164745341893E+01
 0.3201558928769E+01
 0.3240957990303E+01
 0.3283597543438E+01
 0.3329617433121E+01
 0.3378443832590E+01
 0.3429099949918E+01
 0.3480508028116E+01
 0.3531582469988E+01
 0.3581202780379E+01
 0.3628155420040E+01
 0.3671007281256E+01
 0.3707737122258E+01
 0.3735310679551E+01
 0.3749687407960E+01
 0.3746131411839E+01
 0.3719588688570E+01
 0.3665281147427E+01
 0.3579574937954E+01
 0.3461126968502E+01
 0.3313730027246E+01
 0.3160799089568E+01
 0.3109948280615E+01
 0.3509938462727E+01
 0.5007451191764E+01
 0.7857958698649E+01
 0.2624578851170E+01
 0.2835571834497E+01
 0.2975023626591E+01
 0.3023203801718E+01
 0.3023517494419E+01
 0.3011290829523E+01
 0.3000704598855E+01
 0.2995933513787E+01
 0.2997984722982E+01
 0.3006870017916E+01
 0.3022326260334E+01
 0.3044060245187E+01
 0.3071754553655E+01
 0.3104920775066E+01
 0.3142728649532E+01
 0.3184150348241E+01
 0.3228603031474E+01
 0.3276416705574E+01
 0.3328262413196E+01
 0.3384224758966E+01
 0.3443668451903E+01
 0.3505663201584E+01
 0.3569285174479E+01
 0.3633634723639E+01
 0.3697753975699E+01
 0.3760571437753E+01
 0.3820795131228E+01
 0.3876502795372E+01
 0.3924636265187E+01
 0.3960966917322E+01
 0.3980349658246E+01
 0.3976952031841E+01
 0.3944659251255E+01
 0.3877662171860E+01
 0.3770651901263E+01
 0.3618387591903E+01
 0.3421611908438E+01
 0.3243756570653E+01
 0.3418357092604E+01
 0.4823172916004E+01
 0.8094164736537E+01
 0.2682567202952E+01
 0.2911146055413E+01
 0.3035068830475E+01
 0.3052116563223E+01
 0.3030190834442E+01
 0.3006626359512E+01
 0.2990844140298E+01
 0.2984172241196E+01
 0.2986271397387E+01
 0.2996453977751E+01
 0.3014129858785E+01
 0.3038904907094E+01
 0.3070518995321E+01
 0.3108638622070E+01
 0.3152546823447E+01
 0.3201152161900E+01
 0.3253710658236E+01
 0.3310460372166E+01
 0.3372003418042E+01
 0.3438298680699E+01
 0.3508656670185E+01
 0.3582284499257E+01
 0.3658530381754E+01
 0.3736780280817E+01
 0.3816305629156E+01
 0.3896225119993E+01
 0.3975452914196E+01
 0.4052272241986E+01
 0.4123761654407E+01
 0.4185741401127E+01
 0.4232976632682E+01
 0.4259234588414E+01
 0.4257518730314E+01
 0.4220574769617E+01
 0.4140530286973E+01
 0.4005567366394E+01
 0.3795436838698E+01
 0.3515314476300E+01
 0.3420275275929E+01
 0.4601339414132E+01
 0.8374434754913E+01
 0.2762509554471E+01
 0.3006514296149E+01
 0.3097114423067E+01
 0.3071820723696E+01
 0.3027359175110E+01
 0.2994524158422E+01
 0.2975104615991E+01
 0.2967650242582E+01
 0.2970552315137E+01
 0.2982498270259E+01
 0.3002643652784E+01
 0.3030543699034E+01
 0.3066051013350E+01
 0.3109089005541E+01
 0.3159206084349E+01
 0.3215350505115E+01
 0.3276586208411E+01
 0.3342921467221E+01
 0.3414714397439E+01
 0.3491687149232E+01
 0.3573136142592E+01
 0.3658553609954E+01
 0.3747714285993E+01
 0.3840405169789E+01
 0.3936194396309E+01
 0.4034421394091E+01
 0.4134245093663E+01
 0.4234247864184E+01
 0.4331823944038E+01
 0.4423133636795E+01
 0.4503249608050E+01
 0.4566005198847E+01
 0.4604047871388E+01
 0.4609494831089E+01
 0.4573720262460E+01
 0.4482178488351E+01
 0.4301408571341E+01
 0.3976748043124E+01
 0.3608117116453E+01
 0.4372528107340E+01
 0.8719311258128E+01
 0.2877537156671E+01
 0.3126188274688E+01
 0.3152909675292E+01
 0.3075764770374E+01
 0.3013010245127E+01
 0.2974204371784E+01
 0.2953111389337E+01
 0.2946219689044E+01
 0.2950751533920E+01
 0.2964944960701E+01
 0.2987791182766E+01
 0.3018850203219E+01
 0.3058129748227E+01
 0.3105905669475E+01
 0.3162207271893E+01
 0.3226247545329E+01
 0.3296905192944E+01
 0.3373692175515E+01
 0.3456375334581E+01
 0.3544285286438E+01
 0.3636827304889E+01
 0.3734012458032E+01
 0.3836232278295E+01
 0.3943802806304E+01
 0.4056660586012E+01
 0.4174373217249E+01
 0.4296330119938E+01
 0.4421469567035E+01
 0.4547703880922E+01
 0.4671897548415E+01
 0.4789909736235E+01
 0.4896191637880E+01
 0.4983635963046E+01
 0.5044440118046E+01
 0.5071176406369E+01
 0.5051209679720E+01
 0.4951002971639E+01
 0.4682572142870E+01
 0.4126132429085E+01
 0.4248725224138E+01
 0.9177813874823E+01
 0.3052739158239E+01
 0.3270316763824E+01
 0.3184362798859E+01
 0.3057472089033E+01
 0.2986255287933E+01
 0.2945026286313E+01
 0.2924720143373E+01
 0.2919855271758E+01
 0.2926877078890E+01
 0.2943797960019E+01
 0.2969543891473E+01
 0.3003740030419E+01
 0.3046568364583E+01
 0.3098706963350E+01
 0.3160930344396E+01
 0.3233180886608E+01
 0.3314300162349E+01
 0.3402778091228E+01
 0.3497102759543E+01
 0.3596048108282E+01
 0.3699436302423E+01
 0.3808144839374E+01
 0.3923393854092E+01
 0.4046160060944E+01
 0.4176836899962E+01
 0.4315210400212E+01
 0.4460784506274E+01
 0.4612822227890E+01
 0.4770005435020E+01
 0.4930380191337E+01
 0.5091143970827E+01
 0.5247982024467E+01
 0.5394757774273E+01
 0.5524248093885E+01
 0.5631269182905E+01
 0.5710744319744E+01
 0.5741046798587E+01
 0.5666263727522E+01
 0.5176578323569E+01
 0.4544597139082E+01
 0.9899222487325E+01
 0.3342047886286E+01
 0.3414589222733E+01
 0.3159300913922E+01
 0.3017083593904E+01
 0.2946233383787E+01
 0.2906761897087E+01
 0.2890057542470E+01
 0.2888650398016E+01
 0.2899033649761E+01
 0.2919124106674E+01
 0.2947925870315E+01
 0.2985176123661E+01
 0.3031236075152E+01
 0.3087134776353E+01
 0.3154592613955E+01
 0.3235189963813E+01
 0.3328337826974E+01
 0.3430407725314E+01
 0.3537219030156E+01
 0.3646992366495E+01
 0.3760640315385E+01
 0.3880362957722E+01
 0.4008412410825E+01
 0.4146540372305E+01
 0.4295725143171E+01
 0.4455994206629E+01
 0.4626654834470E+01
 0.4807049508333E+01
 0.4997025580864E+01
 0.5196491094683E+01
 0.5404531171294E+01
 0.5618741565529E+01
 0.5834796852446E+01
 0.6046779229926E+01
 0.6249974118948E+01
 0.6451488109184E+01
 0.6655283142033E+01
 0.6887838556172E+01
 0.6977552215781E+01
 0.5961592890852E+01
 0.1145105307434E+02
 0.3884410176924E+01
 0.3408072606038E+01
 0.3070984384557E+01
 0.2958870432386E+01
 0.2891315638957E+01
 0.2860279209509E+01
 0.2849306798793E+01
 0.2852891303781E+01
 0.2867404779054E+01
 0.2891059191021E+01
 0.2923015223402E+01
 0.2963173623143E+01
 0.3012068544079E+01
 0.3070951280414E+01
 0.3142240477158E+01
 0.3230713754947E+01
 0.3338489297955E+01
 0.3457279486728E+01
 0.3577314497122E+01
 0.3697178276417E+01
 0.3820063654764E+01
 0.3949990850468E+01
 0.4090396230127E+01
 0.4243871872890E+01
 0.4412141664138E+01
 0.4595731718209E+01
 0.4793079372690E+01
 0.5002759010995E+01
 0.5226696247395E+01
 0.5467690475611E+01
 0.5727015925261E+01
 0.6004875369226E+01
 0.6300019342731E+01
 0.6608434898665E+01
 0.6924401140147E+01
 0.7250752959073E+01
 0.7668375988622E+01
 0.8234467361979E+01
 0.9406088212103E+01
 0.9838322281606E+01
 0.1665073297650E+02
 0.4887297977446E+00
 0.7962752911073E+00
 0.1101278109950E+01
 0.1387333275189E+01
 0.1647019715296E+01
 0.1878351171144E+01
 0.2082693898541E+01
 0.2263251849025E+01
 0.2423838369747E+01
 0.2567898805006E+01
 0.2697796385902E+01
 0.2814228458886E+01
 0.2916981840411E+01
 0.3006129439853E+01
 0.3081748841932E+01
 0.3143639005831E+01
 0.3191235337527E+01
 0.3223285347749E+01
 0.3239141263844E+01
 0.3235853502760E+01
 0.4914229497681E+00
 0.8011013063205E+00
 0.1107375079880E+01
 0.1395743097939E+01
 0.1659240963060E+01
 0.1895744457634E+01
 0.2106203139355E+01
 0.2293324439288E+01
 0.2460495953389E+01
 0.2610903291302E+01
 0.2746813058404E+01
 0.2869019532743E+01
 0.2977663007637E+01
 0.3072924260614E+01
 0.3154821038641E+01
 0.3223312622316E+01
 0.3278026288996E+01
 0.3318338982912E+01
 0.3340237336743E+01
 0.3334092755588E+01
 0.4945113174591E+00
 0.8069990681608E+00
 0.1114916005659E+01
 0.1405590354488E+01
 0.1672653413450E+01
 0.1913927882661E+01
 0.2130034883083E+01
 0.2323269280778E+01
 0.2496652273979E+01
 0.2653118559707E+01
 0.2794826035766E+01
 0.2922715882689E+01
 0.3037124618694E+01
 0.3138319145921E+01
 0.3226393302172E+01
 0.3301373604282E+01
 0.3363009401548E+01
 0.3409836627608E+01
 0.3436267764829E+01
 0.3436302622444E+01
 0.4978880313015E+00
 0.8136402187350E+00
 0.1123547633042E+01
 0.1416562095753E+01
 0.1686975941021E+01
 0.1932659687247E+01
 0.2153989639342E+01
 0.2352918120706E+01
 0.2532144204765E+01
 0.2694369792919E+01
 0.2841662889378E+01
 0.2975070616308E+01
 0.3095077238094E+01
 0.3202034085904E+01
 0.3296109370729E+01
 0.3377354834498E+01
 0.3445277650674E+01
 0.3497703512413E+01
 0.3529672297924E+01
 0.3537173234345E+01
 0.5014514312282E+00
 0.8207886911665E+00
 0.1132957990486E+01
 0.1428352390642E+01
 0.1701934804995E+01
 0.1951701994479E+01
 0.2177863468362E+01
 0.2382089702940E+01
 0.2566797626026E+01
 0.2734480264852E+01
 0.2887120852536E+01
 0.3025843525469E+01
 0.3151249703112E+01
 0.3263764031459E+01
 0.3363604925510E+01
 0.3450750928681E+01
 0.3524419128845E+01
 0.3582280292226E+01
 0.3620138552170E+01
 0.3635064019456E+01
 0.5051168818377E+00
 0.8282449976361E+00
 0.1142876603904E+01
 0.1440676595290E+01
 0.1717265930019E+01
 0.1970821078232E+01
 0.2201450315191E+01
 0.2410596611904E+01
 0.2600432407052E+01
 0.2773263110049E+01
 0.2930991605141E+01
 0.3074797021198E+01
 0.3205373615163E+01
 0.3323202509658E+01
 0.3428513887262E+01
 0.3521177497735E+01
 0.3600241621061E+01
 0.3663428091377E+01
 0.3707157754799E+01
 0.3729027039016E+01
 0.5088117341805E+00
 0.8358388003142E+00
 0.1153064809863E+01
 0.1453274172709E+01
 0.1732718652365E+01
 0.1989789158657E+01
 0.2224544968594E+01
 0.2438249125712E+01
 0.2632863974005E+01
 0.2810527153309E+01
 0.2973065594775E+01
 0.3121696262645E+01
 0.3257184911967E+01
 0.3380049601723E+01
 0.3490508038091E+01
 0.3588340664245E+01
 0.3672515593559E+01
 0.3740863057888E+01
 0.3790230785506E+01
 0.3818422374724E+01
 0.5124727941004E+00
 0.8434222841110E+00
 0.1163311226868E+01
 0.1465907533541E+01
 0.1748057671185E+01
 0.2008386862656E+01
 0.2246945775823E+01
 0.2464857986764E+01
 0.2663906789750E+01
 0.2846080650261E+01
 0.3013135127075E+01
 0.3166311268799E+01
 0.3306427638342E+01
 0.3434023892479E+01
 0.3549299251526E+01
 0.3651972598886E+01
 0.3740981564536E+01
 0.3814258977404E+01
 0.3868917892250E+01
 0.3902770590292E+01
 0.5160445210144E+00
 0.8508660156758E+00
 0.1173427990759E+01
 0.1478360717483E+01
 0.1763063839191E+01
 0.2026405247209E+01
 0.2268457090451E+01
 0.2490237202922E+01
 0.2693377454793E+01
 0.2879734479839E+01
 0.3050997195345E+01
 0.3208419823463E+01
 0.3352858764538E+01
 0.3484866394165E+01
 0.3604625694497E+01
 0.3711816341659E+01
 0.3805367840438E+01
 0.3883290678956E+01
 0.3942843971362E+01
 0.3981715535874E+01
 0.5194778367201E+00
 0.8580560166021E+00
 0.1183247916163E+01
 0.1490438042302E+01
 0.1777534525481E+01
 0.2043647329304E+01
 0.2288891452495E+01
 0.2514206574057E+01
 0.2721097439053E+01
 0.2911304899179E+01
 0.3086456143929E+01
 0.3247810390393E+01
 0.3396250985048E+01
 0.3532338676518E+01
 0.3656244701595E+01
 0.3767624082738E+01
 0.3865405417255E+01
 0.3947650151981E+01
 0.4011686332080E+01
 0.4054999780340E+01
 0.5227292729826E+00
 0.8648916758943E+00
 0.1192622303518E+01
 0.1501962923515E+01
 0.1791283757060E+01
 0.2059929303582E+01
 0.2308071484390E+01
 0.2536593965866E+01
 0.2746895537681E+01
 0.2940616054516E+01
 0.3119326153480E+01
 0.3284284425127E+01
 0.3436393651402E+01
 0.3576221079935E+01
 0.3703930237829E+01
 0.3819159847127E+01
 0.3920837582537E+01
 0.4007052988639E+01
 0.4075154988093E+01
 0.4122392293877E+01
 0.5257603733335E+00
 0.8712842417157E+00
 0.1201419265632E+01
 0.1512776894695E+01
 0.1804142270873E+01
 0.2075081518908E+01
 0.2325831509009E+01
 0.2557237296640E+01
 0.2770610032677E+01
 0.2967502183227E+01
 0.3149433304078E+01
 0.3317657881107E+01
 0.3473093059419E+01
 0.3616311787714E+01
 0.3747472716859E+01
 0.3866202605181E+01
 0.3971425340787E+01
 0.4061240261655E+01
 0.4132981783308E+01
 0.4183654295228E+01
 0.5285372574154E+00
 0.8771557226278E+00
 0.1209522454798E+01
 0.1522738828349E+01
 0.1815957545405E+01
 0.2088949293707E+01
 0.2342018947044E+01
 0.2575986288456E+01
 0.2792090611487E+01
 0.2991809536352E+01
 0.3176617253954E+01
 0.3347762309246E+01
 0.3506172755105E+01
 0.3652426780165E+01
 0.3786679875285E+01
 0.3908548885663E+01
 0.4016950361856E+01
 0.4109978487296E+01
 0.4184926715582E+01
 0.4238566484116E+01
 0.5310303051453E+00
 0.8824380843903E+00
 0.1216830097484E+01
 0.1531724325830E+01
 0.1826593826739E+01
 0.2101393592089E+01
 0.2356495499865E+01
 0.2592703967007E+01
 0.2811200005063E+01
 0.3013397973156E+01
 0.3200732560356E+01
 0.3374445706744E+01
 0.3535473937785E+01
 0.3684400238063E+01
 0.3821377859919E+01
 0.3946014646880E+01
 0.4057216489873E+01
 0.4153060958828E+01
 0.4230784169953E+01
 0.4286945583264E+01
 0.5332139289109E+00
 0.8870726637679E+00
 0.1223254268783E+01
 0.1539625252105E+01
 0.1835932163610E+01
 0.2112291592948E+01
 0.2369138150028E+01
 0.2607267935908E+01
 0.2827815369853E+01
 0.3032142278518E+01
 0.3221649752964E+01
 0.3397573255585E+01
 0.3560855974328E+01
 0.3712085160452E+01
 0.3851412272891E+01
 0.3978436618182E+01
 0.4092050978033E+01
 0.4190309058404E+01
 0.4270382732534E+01
 0.4328644639416E+01
 0.5350664116236E+00
 0.8910097445324E+00
 0.1228720354186E+01
 0.1546349390869E+01
 0.1843870455722E+01
 0.2121537172439E+01
 0.2379840003507E+01
 0.2619571448436E+01
 0.2841829442799E+01
 0.3047933254232E+01
 0.3239256234624E+01
 0.3417028003765E+01
 0.3582196977872E+01
 0.3735354052319E+01
 0.3876649104462E+01
 0.4005673379189E+01
 0.4121305472971E+01
 0.4221572281598E+01
 0.4303582192042E+01
 0.4363548282609E+01
 0.5365697888789E+00
 0.8942082517858E+00
 0.1233166652429E+01
 0.1551820191416E+01
 0.1850323507154E+01
 0.2129041304645E+01
 0.2388510983074E+01
 0.2629524287752E+01
 0.2853151485980E+01
 0.3060678610895E+01
 0.3253457034734E+01
 0.3432711479877E+01
 0.3599394379069E+01
 0.3754099580184E+01
 0.3896975532004E+01
 0.4027606206158E+01
 0.4144856510996E+01
 0.4246727389621E+01
 0.4330270312934E+01
 0.4391567746681E+01
 0.5377097672849E+00
 0.8966355354074E+00
 0.1236544088225E+01
 0.1555976587612E+01
 0.1855223080284E+01
 0.2134732386905E+01
 0.2395078385011E+01
 0.2637053471225E+01
 0.2861708040793E+01
 0.3070303682764E+01
 0.3264175427856E+01
 0.3444544225100E+01
 0.3612365441204E+01
 0.3768235146505E+01
 0.3912300569158E+01
 0.4044139653212E+01
 0.4162605603000E+01
 0.4265677309053E+01
 0.4350360148594E+01
 0.4412636664868E+01
 0.5384756683311E+00
 0.8982672199921E+00
 0.1238816009702E+01
 0.1558772872779E+01
 0.1858517946382E+01
 0.2138556496357E+01
 0.2399487312827E+01
 0.2642103797714E+01
 0.2867443514541E+01
 0.3076751988588E+01
 0.3271353431448E+01
 0.3452466239111E+01
 0.3621047702648E+01
 0.3777695371819E+01
 0.3922555569725E+01
 0.4055201918214E+01
 0.4174479115566E+01
 0.4278350139480E+01
 0.4363788047275E+01
 0.4426707693250E+01
 0.5388603913815E+00
 0.8990871051821E+00
 0.1239958051682E+01
 0.1560178616934E+01
 0.1860173927710E+01
 0.2140477579908E+01
 0.2401700995311E+01
 0.2644638248151E+01
 0.2870320610529E+01
 0.3079985646113E+01
 0.3274952180903E+01
 0.3456437325110E+01
 0.3625399323528E+01
 0.3782436463566E+01
 0.3927694584249E+01
 0.4060745049300E+01
 0.4180428090118E+01
 0.4284698372925E+01
 0.4370512303066E+01
 0.4433750465764E+01
 0.5388603913235E+00
 0.8990871050750E+00
 0.1239958051551E+01
 0.1560178616793E+01
 0.1860173927565E+01
 0.2140477579762E+01
 0.2401700995169E+01
 0.2644638248017E+01
 0.2870320610409E+01
 0.3079985646008E+01
 0.3274952180816E+01
 0.3456437325042E+01
 0.3625399323477E+01
 0.3782436463529E+01
 0.3927694584223E+01
 0.4060745049283E+01
 0.4180428090107E+01
 0.4284698372917E+01
 0.4370512303056E+01
 0.4433750465742E+01
 0.5384756681576E+00
 0.8982672196718E+00
 0.1238816009310E+01
 0.1558772872355E+01
 0.1858517945947E+01
 0.2138556495922E+01
 0.2399487312404E+01
 0.2642103797315E+01
 0.2867443514179E+01
 0.3076751988274E+01
 0.3271353431190E+01
 0.3452466238907E+01
 0.3621047702494E+01
 0.3777695371707E+01
 0.3922555569647E+01
 0.4055201918162E+01
 0.4174479115533E+01
 0.4278350139457E+01
 0.4363788047245E+01
 0.4426707693185E+01
 0.5377097669978E+00
 0.8966355348778E+00
 0.1236544087578E+01
 0.1555976586912E+01
 0.1855223079565E+01
 0.2134732386185E+01
 0.2395078384310E+01
 0.2637053470563E+01
 0.2861708040193E+01
 0.3070303682244E+01
 0.3264175427427E+01
 0.3444544224762E+01
 0.3612365440948E+01
 0.3768235146319E+01
 0.3912300569028E+01
 0.4044139653125E+01
 0.4162605602944E+01
 0.4265677309014E+01
 0.4350360148545E+01
 0.4412636664761E+01
 0.5365697884812E+00
 0.8942082510530E+00
 0.1233166651534E+01
 0.1551820190449E+01
 0.1850323506160E+01
 0.2129041303648E+01
 0.2388510982102E+01
 0.2629524286833E+01
 0.2853151485146E+01
 0.3060678610172E+01
 0.3253457034137E+01
 0.3432711479406E+01
 0.3599394378713E+01
 0.3754099579924E+01
 0.3896975531821E+01
 0.4027606206035E+01
 0.4144856510917E+01
 0.4246727389565E+01
 0.4330270312865E+01
 0.4391567746532E+01
 0.5350664111196E+00
 0.8910097436052E+00
 0.1228720353056E+01
 0.1546349389648E+01
 0.1843870454464E+01
 0.2121537171177E+01
 0.2379840002272E+01
 0.2619571447267E+01
 0.2841829441737E+01
 0.3047933253311E+01
 0.3239256233862E+01
 0.3417028003165E+01
 0.3582196977417E+01
 0.3735354051986E+01
 0.3876649104227E+01
 0.4005673379029E+01
 0.4121305472867E+01
 0.4221572281524E+01
 0.4303582191953E+01
 0.4363548282421E+01
 0.5332139283062E+00
 0.8870726626576E+00
 0.1223254267431E+01
 0.1539625250645E+01
 0.1835932162104E+01
 0.2112291591434E+01
 0.2369138148543E+01
 0.2607267934500E+01
 0.2827815368571E+01
 0.3032142277404E+01
 0.3221649752043E+01
 0.3397573254857E+01
 0.3560855973776E+01
 0.3712085160047E+01
 0.3851412272602E+01
 0.3978436617984E+01
 0.4092050977902E+01
 0.4190309058311E+01
 0.4270382732425E+01
 0.4328644639191E+01
 0.5310303044466E+00
 0.8824380831109E+00
 0.1216830095930E+01
 0.1531724324152E+01
 0.1826593825005E+01
 0.2101393590339E+01
 0.2356495498144E+01
 0.2592703965371E+01
 0.2811200003571E+01
 0.3013397971858E+01
 0.3200732559280E+01
 0.3374445705894E+01
 0.3535473937139E+01
 0.3684400237587E+01
 0.3821377859578E+01
 0.3946014646642E+01
 0.4057216489713E+01
 0.4153060958714E+01
 0.4230784169823E+01
 0.4286945583006E+01
 0.5285372566309E+00
 0.8771557211958E+00
 0.1209522453063E+01
 0.1522738826476E+01
 0.1815957543465E+01
 0.2088949291743E+01
 0.2342018945105E+01
 0.2575986286606E+01
 0.2792090609795E+01
 0.2991809534877E+01
 0.3176617252731E+01
 0.3347762308278E+01
 0.3506172754368E+01
 0.3652426779620E+01
 0.3786679874890E+01
 0.3908548885385E+01
 0.4016950361665E+01
 0.4109978487157E+01
 0.4184926715433E+01
 0.4238566483828E+01
 0.5257603724727E+00
 0.8712842401508E+00
 0.1201419263743E+01
 0.1512776892654E+01
 0.1804142268753E+01
 0.2075081516752E+01
 0.2325831506871E+01
 0.2557237294592E+01
 0.2770610030798E+01
 0.2967502181586E+01
 0.3149433302715E+01
 0.3317657880028E+01
 0.3473093058596E+01
 0.3616311787102E+01
 0.3747472716411E+01
 0.3866202604860E+01
 0.3971425340561E+01
 0.4061240261490E+01
 0.4132981783139E+01
 0.4183654294916E+01
 0.5227292720566E+00
 0.8648916742190E+00
 0.1192622301503E+01
 0.1501962921339E+01
 0.1791283754790E+01
 0.2059929301260E+01
 0.2308071482074E+01
 0.2536593963638E+01
 0.2746895535629E+01
 0.2940616052719E+01
 0.3119326151986E+01
 0.3284284423943E+01
 0.3436393650498E+01
 0.3576221079260E+01
 0.3703930237330E+01
 0.3819159846761E+01
 0.3920837582273E+01
 0.4007052988445E+01
 0.4075154987905E+01
 0.4122392293546E+01
 0.5194778357415E+00
 0.8580560148420E+00
 0.1183247914056E+01
 0.1490438040026E+01
 0.1777534523095E+01
 0.2043647326846E+01
 0.2288891450026E+01
 0.2514206571667E+01
 0.2721097436844E+01
 0.2911304897239E+01
 0.3086456142313E+01
 0.3247810389111E+01
 0.3396250984067E+01
 0.3532338675783E+01
 0.3656244701046E+01
 0.3767624082326E+01
 0.3865405416948E+01
 0.3947650151752E+01
 0.4011686331871E+01
 0.4054999779996E+01
 0.5160445199975E+00
 0.8508660138601E+00
 0.1173427988598E+01
 0.1478360715147E+01
 0.1763063836726E+01
 0.2026405244647E+01
 0.2268457087855E+01
 0.2490237200392E+01
 0.2693377452443E+01
 0.2879734477769E+01
 0.3050997193617E+01
 0.3208419822091E+01
 0.3352858763488E+01
 0.3484866393375E+01
 0.3604625693899E+01
 0.3711816341201E+01
 0.3805367840086E+01
 0.3883290678686E+01
 0.3942843971128E+01
 0.3981715535516E+01
 0.5124727930612E+00
 0.8434222822728E+00
 0.1163311224697E+01
 0.1465907531189E+01
 0.1748057668682E+01
 0.2008386860024E+01
 0.2246945773128E+01
 0.2464857984117E+01
 0.2663906787277E+01
 0.2846080648074E+01
 0.3013135125246E+01
 0.3166311267347E+01
 0.3306427637230E+01
 0.3434023891639E+01
 0.3549299250884E+01
 0.3651972598381E+01
 0.3740981564134E+01
 0.3814258977087E+01
 0.3868917891981E+01
 0.3902770589910E+01
 0.5088117331374E+00
 0.8358387984910E+00
 0.1153064807729E+01
 0.1453274170391E+01
 0.1732718649868E+01
 0.1989789155994E+01
 0.2224544965832E+01
 0.2438249122972E+01
 0.2632863971428E+01
 0.2810527151021E+01
 0.2973065592857E+01
 0.3121696261120E+01
 0.3257184910799E+01
 0.3380049600840E+01
 0.3490508037409E+01
 0.3588340663698E+01
 0.3672515593106E+01
 0.3740863057517E+01
 0.3790230785191E+01
 0.3818422374308E+01
 0.5051168808115E+00
 0.8282449958702E+00
 0.1142876601860E+01
 0.1440676593059E+01
 0.1717265927576E+01
 0.1970821075577E+01
 0.2201450312393E+01
 0.2410596609095E+01
 0.2600432404390E+01
 0.2773263107673E+01
 0.2930991603143E+01
 0.3074797019611E+01
 0.3205373613949E+01
 0.3323202508739E+01
 0.3428513886548E+01
 0.3521177497149E+01
 0.3600241620556E+01
 0.3663428090944E+01
 0.3707157754428E+01
 0.3729027038565E+01
 0.5014514302424E+00
 0.8207886895062E+00
 0.1132957988593E+01
 0.1428352388559E+01
 0.1701934802660E+01
 0.1951701991875E+01
 0.2177863465561E+01
 0.2382089700090E+01
 0.2566797623299E+01
 0.2734480262405E+01
 0.2887120850473E+01
 0.3025843523829E+01
 0.3151249701860E+01
 0.3263764030511E+01
 0.3363604924771E+01
 0.3450750928063E+01
 0.3524419128293E+01
 0.3582280291728E+01
 0.3620138551734E+01
 0.3635064018972E+01
 0.4978880303836E+00
 0.8136402172356E+00
 0.1123547631367E+01
 0.1416562093884E+01
 0.1686975938851E+01
 0.1932659684740E+01
 0.2153989636575E+01
 0.2352918117840E+01
 0.2532144201994E+01
 0.2694369790415E+01
 0.2841662887259E+01
 0.2975070614625E+01
 0.3095077236812E+01
 0.3202034084935E+01
 0.3296109369973E+01
 0.3377354833858E+01
 0.3445277650082E+01
 0.3497703511849E+01
 0.3529672297415E+01
 0.3537173233832E+01
 0.4945113166414E+00
 0.8069990668866E+00
 0.1114916004279E+01
 0.1405590352905E+01
 0.1672653411505E+01
 0.1913927880298E+01
 0.2130034880384E+01
 0.2323269277924E+01
 0.2496652271186E+01
 0.2653118557164E+01
 0.2794826033605E+01
 0.2922715880973E+01
 0.3037124617389E+01
 0.3138319144938E+01
 0.3226393301407E+01
 0.3301373603632E+01
 0.3363009400934E+01
 0.3409836626988E+01
 0.3436267764240E+01
 0.3436302621900E+01
 0.4914229490899E+00
 0.8011013053470E+00
 0.1107375078878E+01
 0.1395743096720E+01
 0.1659240961406E+01
 0.1895744455467E+01
 0.2106203136763E+01
 0.2293324436473E+01
 0.2460495950593E+01
 0.2610903288736E+01
 0.2746813056212E+01
 0.2869019531002E+01
 0.2977663006317E+01
 0.3072924259622E+01
 0.3154821037872E+01
 0.3223312621667E+01
 0.3278026288382E+01
 0.3318338982266E+01
 0.3340237336073E+01
 0.3334092754995E+01
 0.4887297972608E+00
 0.7962752905165E+00
 0.1101278109416E+01
 0.1387333274420E+01
 0.1647019714003E+01
 0.1878351169225E+01
 0.2082693896092E+01
 0.2263251846275E+01
 0.2423838366968E+01
 0.2567898802433E+01
 0.2697796383692E+01
 0.2814228457125E+01
 0.2916981839083E+01
 0.3006129438858E+01
 0.3081748841161E+01
 0.3143639005188E+01
 0.3191235336934E+01
 0.3223285347135E+01
 0.3239141263141E+01
 0.3235853502058E+01
 0.2246371996049E+01
 0.2532933410654E+01
 0.1705907075100E+01
 0.1322828243723E+01
 0.1102728537322E+01
 0.9595100949426E+00
 0.8500013687609E+00
 0.7546722080044E+00
 0.6628143783697E+00
 0.5690394129998E+00
 0.4698885963383E+00
 0.3623797138976E+00
 0.2618621360783E+00
 0.1807875925794E+00
 0.1192890564630E+00
 0.7688506958648E-01
 0.4643864133437E-01
 0.2212160063427E-01
 0.2638434750838E-02
 0.3387624513991E-02
 0.1740385877754E+01
 0.2588733775445E+01
 0.2031730795135E+01
 0.1569315699006E+01
 0.1298481038981E+01
 0.1123718813874E+01
 0.9964515994243E+00
 0.8910983489799E+00
 0.7943235199790E+00
 0.6986715314148E+00
 0.5994296365700E+00
 0.4945579429664E+00
 0.3961031556445E+00
 0.3115983332419E+00
 0.2407014729768E+00
 0.1842571055538E+00
 0.1372989426952E+00
 0.9456101984799E-01
 0.5537451507275E-01
 0.2514228598751E-01
 0.1410336913394E+01
 0.2300524803372E+01
 0.2142893899888E+01
 0.1771624647078E+01
 0.1481230813579E+01
 0.1285301386934E+01
 0.1143604042469E+01
 0.1030134352370E+01
 0.9295244975348E+00
 0.8329187137256E+00
 0.7348901479644E+00
 0.6326731632259E+00
 0.5345554056829E+00
 0.4473195744700E+00
 0.3707262917124E+00
 0.3048515551816E+00
 0.2464716366585E+00
 0.1917027470285E+00
 0.1403352463467E+00
 0.1013490235262E+00
 0.1182366398830E+01
 0.2026596144911E+01
 0.2100798605902E+01
 0.1887497834401E+01
 0.1635666923429E+01
 0.1436794337960E+01
 0.1287796939494E+01
 0.1169315030694E+01
 0.1066689683864E+01
 0.9704693758219E+00
 0.8746351461127E+00
 0.7754628574815E+00
 0.6783042824173E+00
 0.5896547888910E+00
 0.5099094336893E+00
 0.4386422242704E+00
 0.3738042181298E+00
 0.3128524740779E+00
 0.2575037710711E+00
 0.2200729353570E+00
 0.1016984839942E+01
 0.1792070559963E+01
 0.2004259856422E+01
 0.1927167581730E+01
 0.1747360613118E+01
 0.1570057733231E+01
 0.1424363876495E+01
 0.1305828370494E+01
 0.1203829171023E+01
 0.1109702672418E+01
 0.1017249357265E+01
 0.9220419443795E+00
 0.8271417188182E+00
 0.7388733995532E+00
 0.6584102837949E+00
 0.5852188879196E+00
 0.5182728144554E+00
 0.4563830867385E+00
 0.4029919725714E+00
 0.3729349543554E+00
 0.8936727141491E+00
 0.1597995495093E+01
 0.1890676870526E+01
 0.1919751803440E+01
 0.1816982121402E+01
 0.1678735290146E+01
 0.1548612577372E+01
 0.1436523692117E+01
 0.1338721673191E+01
 0.1248870562275E+01
 0.1161317203553E+01
 0.1071360403270E+01
 0.9803583124615E+00
 0.8944680172207E+00
 0.8156627269827E+00
 0.7435859158289E+00
 0.6781612378405E+00
 0.6193175883842E+00
 0.5716460802929E+00
 0.5510981814050E+00
 0.8000113641366E+00
 0.1438905174793E+01
 0.1777065214685E+01
 0.1885341386151E+01
 0.1853512046262E+01
 0.1761773077200E+01
 0.1657055073903E+01
 0.1558398706279E+01
 0.1469049831143E+01
 0.1386140880354E+01
 0.1305338264422E+01
 0.1222188620781E+01
 0.1136886644797E+01
 0.1055421548212E+01
 0.9805197419320E+00
 0.9121656388510E+00
 0.8510915726534E+00
 0.7980024662028E+00
 0.7579251469386E+00
 0.7466948775793E+00
 0.7279781128544E+00
 0.1308960218019E+01
 0.1670849685367E+01
 0.1836979676803E+01
 0.1866176018237E+01
 0.1821914831206E+01
 0.1748451612742E+01
 0.1669184508398E+01
 0.1592672228144E+01
 0.1519681634735E+01
 0.1447745333326E+01
 0.1373143334611E+01
 0.1295400120997E+01
 0.1220352508763E+01
 0.1151398142005E+01
 0.1088920034872E+01
 0.1034264062161E+01
 0.9885344669787E+00
 0.9565638553585E+00
 0.9531525241030E+00
 0.6721138517098E+00
 0.1202999752276E+01
 0.1575044981053E+01
 0.1782776421019E+01
 0.1862637642561E+01
 0.1863214834257E+01
 0.1823451299958E+01
 0.1767728140204E+01
 0.1707906292186E+01
 0.1647808627915E+01
 0.1586972920962E+01
 0.1522746212232E+01
 0.1454395281947E+01
 0.1387628872749E+01
 0.1326412780912E+01
 0.1271516155300E+01
 0.1224683461080E+01
 0.1187080055908E+01
 0.1162863905029E+01
 0.1165183172272E+01
 0.6285640696063E+00
 0.1116718777363E+01
 0.1490509825596E+01
 0.1727684276099E+01
 0.1848722759811E+01
 0.1889799039419E+01
 0.1883754732200E+01
 0.1853907122752E+01
 0.1813695201015E+01
 0.1769131935219E+01
 0.1721555362744E+01
 0.1669501416487E+01
 0.1612275209894E+01
 0.1555469707452E+01
 0.1503502122108E+01
 0.1457477667821E+01
 0.1419341812018E+01
 0.1390060003100E+01
 0.1372788268803E+01
 0.1378626529600E+01
 0.5945273464186E+00
 0.1046584892300E+01
 0.1417039871827E+01
 0.1674645084372E+01
 0.1828674775318E+01
 0.1905322835380E+01
 0.1931481089098E+01
 0.1928318899258E+01
 0.1909592503145E+01
 0.1882643200543E+01
 0.1850219261060E+01
 0.1811980164129E+01
 0.1767434546117E+01
 0.1722041000344E+01
 0.1680539689047E+01
 0.1644309204004E+01
 0.1615342220302E+01
 0.1594237128520E+01
 0.1582950057425E+01
 0.1590265814981E+01
 0.5679197276102E+00
 0.9897096303982E+00
 0.1353915656731E+01
 0.1625318351638E+01
 0.1805494918592E+01
 0.1912806006725E+01
 0.1968776523590E+01
 0.1991971343621E+01
 0.1995636550842E+01
 0.1987721667419E+01
 0.1971942736292E+01
 0.1948895358268E+01
 0.1918340704400E+01
 0.1885544882173E+01
 0.1855430935010E+01
 0.1829591301903E+01
 0.1809972450495E+01
 0.1796738208833E+01
 0.1790550999379E+01
 0.1797655261223E+01
 0.5471607717976E+00
 0.9437263599416E+00
 0.1300187877313E+01
 0.1580541695257E+01
 0.1781247838034E+01
 0.1914636666044E+01
 0.1997607428088E+01
 0.2046044314651E+01
 0.2072196748431E+01
 0.2084082079910E+01
 0.2085971749643E+01
 0.2079152990673E+01
 0.2063602979745E+01
 0.2044299921385E+01
 0.2026197343442E+01
 0.2011052326075E+01
 0.2000741669815E+01
 0.1995032995906E+01
 0.1993295454455E+01
 0.1998973868354E+01
 0.5310319352909E+00
 0.9066877222906E+00
 0.1254828708697E+01
 0.1540625254538E+01
 0.1757305262800E+01
 0.1912642373647E+01
 0.2019669898325E+01
 0.2091730338166E+01
 0.2139834635503E+01
 0.2171696703695E+01
 0.2191801024404E+01
 0.2201874591336E+01
 0.2202022298449E+01
 0.2196809711540E+01
 0.2191052220228E+01
 0.2186628294692E+01
 0.2185395276409E+01
 0.2186884101252E+01
 0.2189288049263E+01
 0.2192906881959E+01
 0.5185796623360E+00
 0.8769827546712E+00
 0.1216812524595E+01
 0.1505542713272E+01
 0.1734531895780E+01
 0.1908180260989E+01
 0.2036366050425E+01
 0.2130139384731E+01
 0.2199195860632E+01
 0.2250714545049E+01
 0.2289133145528E+01
 0.2316391818566E+01
 0.2332615687131E+01
 0.2341815949825E+01
 0.2348473863792E+01
 0.2354527696726E+01
 0.2361926450084E+01
 0.2370276655161E+01
 0.2376907951136E+01
 0.2378549038831E+01
 0.5090468216938E+00
 0.8532706255140E+00
 0.1185158502234E+01
 0.1475057554695E+01
 0.1713424890596E+01
 0.1902225316808E+01
 0.2048815772706E+01
 0.2162249422541E+01
 0.2250934459371E+01
 0.2321390681489E+01
 0.2377828671338E+01
 0.2422218741386E+01
 0.2454609307218E+01
 0.2478324597571E+01
 0.2497279080785E+01
 0.2513325689623E+01
 0.2528621340570E+01
 0.2543338070763E+01
 0.2554637224994E+01
 0.2555309626412E+01
 0.5018221696714E+00
 0.8344272007825E+00
 0.1158953157558E+01
 0.1448808485855E+01
 0.1694218260064E+01
 0.1895448672380E+01
 0.2057885356150E+01
 0.2188887330606E+01
 0.2295664855962E+01
 0.2384031222772E+01
 0.2457857743610E+01
 0.2519010995195E+01
 0.2567399850534E+01
 0.2605576152581E+01
 0.2636667341837E+01
 0.2662126542920E+01
 0.2684208012142E+01
 0.2704306581902E+01
 0.2720784016206E+01
 0.2722770142171E+01
 0.4963993550376E+00
 0.8195029031426E+00
 0.1137363179165E+01
 0.1426370866226E+01
 0.1676959963806E+01
 0.1888283709394E+01
 0.2064222668005E+01
 0.2210728664390E+01
 0.2333935676527E+01
 0.2438954601806E+01
 0.2529260442298E+01
 0.2606525302748E+01
 0.2670497029640E+01
 0.2722952276552E+01
 0.2766108578562E+01
 0.2800715757546E+01
 0.2828363702087E+01
 0.2851677449156E+01
 0.2873089713623E+01
 0.2880299017616E+01
 0.4923395847014E+00
 0.8076802092156E+00
 0.1119663153062E+01
 0.1407297098013E+01
 0.1661566871519E+01
 0.1880980972436E+01
 0.2068293572058E+01
 0.2228308279677E+01
 0.2366218735446E+01
 0.2486469711076E+01
 0.2592116935563E+01
 0.2684590314722E+01
 0.2763481939746E+01
 0.2829859069886E+01
 0.2885075091608E+01
 0.2929108457385E+01
 0.2962379833350E+01
 0.2986027098109E+01
 0.3007838559663E+01
 0.3025901177749E+01
 0.4891480911243E+00
 0.7983767026367E+00
 0.1105258106555E+01
 0.1391128928785E+01
 0.1647866830071E+01
 0.1873652429994E+01
 0.2070417208257E+01
 0.2242038625385E+01
 0.2392905225315E+01
 0.2526864892327E+01
 0.2646544197626E+01
 0.2753070579829E+01
 0.2845998147705E+01
 0.2925725761511E+01
 0.2992796271647E+01
 0.3046768781181E+01
 0.3087079676531E+01
 0.3112890034728E+01
 0.3126637950574E+01
 0.3149970857303E+01
 0.4891480909676E+00
 0.7983767025745E+00
 0.1105258106611E+01
 0.1391128928531E+01
 0.1647866829140E+01
 0.1873652428266E+01
 0.2070417205849E+01
 0.2242038622561E+01
 0.2392905222385E+01
 0.2526864889561E+01
 0.2646544195203E+01
 0.2753070577838E+01
 0.2845998146167E+01
 0.2925725760275E+01
 0.2992796270583E+01
 0.3046768780193E+01
 0.3087079675525E+01
 0.3112890033629E+01
 0.3126637949210E+01
 0.3149970855542E+01
 0.4923395847739E+00
 0.8076802095640E+00
 0.1119663153565E+01
 0.1407297098107E+01
 0.1661566870768E+01
 0.1880980970716E+01
 0.2068293569518E+01
 0.2228308276632E+01
 0.2366218732255E+01
 0.2486469708043E+01
 0.2592116932881E+01
 0.2684590312476E+01
 0.2763481937951E+01
 0.2829859068323E+01
 0.2885075090105E+01
 0.2929108455817E+01
 0.2962379831580E+01
 0.2986027096006E+01
 0.3007838556975E+01
 0.3025901174580E+01
 0.4963993554004E+00
 0.8195029040100E+00
 0.1137363180211E+01
 0.1426370866739E+01
 0.1676959963290E+01
 0.1888283707731E+01
 0.2064222665390E+01
 0.2210728661196E+01
 0.2333935673161E+01
 0.2438954598605E+01
 0.2529260439465E+01
 0.2606525300369E+01
 0.2670497027712E+01
 0.2722952274790E+01
 0.2766108576741E+01
 0.2800715755496E+01
 0.2828363699611E+01
 0.2851677446069E+01
 0.2873089709731E+01
 0.2880299013025E+01
 0.5018221703767E+00
 0.8344272022677E+00
 0.1158953159235E+01
 0.1448808486853E+01
 0.1694218259828E+01
 0.1895448670815E+01
 0.2057885353511E+01
 0.2188887327329E+01
 0.2295664852506E+01
 0.2384031219501E+01
 0.2457857740738E+01
 0.2519010992806E+01
 0.2567399848603E+01
 0.2605576150745E+01
 0.2636667339815E+01
 0.2662126540486E+01
 0.2684208009047E+01
 0.2704306577951E+01
 0.2720784011232E+01
 0.2722770136126E+01
 0.5090468227946E+00
 0.8532706277128E+00
 0.1185158504625E+01
 0.1475057556229E+01
 0.1713424890674E+01
 0.1902225315374E+01
 0.2048815770087E+01
 0.2162249419244E+01
 0.2250934455907E+01
 0.2321390678248E+01
 0.2377828668540E+01
 0.2422218739108E+01
 0.2454609305407E+01
 0.2478324595787E+01
 0.2497279078685E+01
 0.2513325686932E+01
 0.2528621336998E+01
 0.2543338066108E+01
 0.2554637219049E+01
 0.2555309618916E+01
 0.5185796638871E+00
 0.8769827576776E+00
 0.1216812527770E+01
 0.1505542715380E+01
 0.1734531896189E+01
 0.1908180259703E+01
 0.2036366047861E+01
 0.2130139381472E+01
 0.2199195857240E+01
 0.2250714541935E+01
 0.2289133142912E+01
 0.2316391816519E+01
 0.2332615685563E+01
 0.2341815948217E+01
 0.2348473861748E+01
 0.2354527693929E+01
 0.2361926446210E+01
 0.2370276649977E+01
 0.2376907944348E+01
 0.2378549029944E+01
 0.5310319373504E+00
 0.9066877261975E+00
 0.1254828712714E+01
 0.1540625257237E+01
 0.1757305263539E+01
 0.1912642372513E+01
 0.2019669895840E+01
 0.2091730334999E+01
 0.2139834632260E+01
 0.2171696700802E+01
 0.2191801022078E+01
 0.2201874589634E+01
 0.2202022297242E+01
 0.2196809710233E+01
 0.2191052218382E+01
 0.2186628291956E+01
 0.2185395272421E+01
 0.2186884095729E+01
 0.2189288041789E+01
 0.2192906871799E+01
 0.5471607744273E+00
 0.9437263648394E+00
 0.1300187882213E+01
 0.1580541698543E+01
 0.1781247839079E+01
 0.1914636665050E+01
 0.1997607425700E+01
 0.2046044311624E+01
 0.2072196745412E+01
 0.2084082077329E+01
 0.2085971747705E+01
 0.2079152989422E+01
 0.2063602979006E+01
 0.2044299920497E+01
 0.2026197341935E+01
 0.2011052323570E+01
 0.2000741665912E+01
 0.1995032990256E+01
 0.1993295446496E+01
 0.1998973857104E+01
 0.5679197308762E+00
 0.9897096363733E+00
 0.1353915662535E+01
 0.1625318355477E+01
 0.1805494919895E+01
 0.1912806005843E+01
 0.1968776521310E+01
 0.1991971340783E+01
 0.1995636548121E+01
 0.1987721665237E+01
 0.1971942734835E+01
 0.1948895357562E+01
 0.1918340704223E+01
 0.1885544881810E+01
 0.1855430933973E+01
 0.1829591299795E+01
 0.1809972446881E+01
 0.1796738203289E+01
 0.1790550991186E+01
 0.1797655249137E+01
 0.5945273503919E+00
 0.1046584899431E+01
 0.1417039878529E+01
 0.1674645088696E+01
 0.1828674776803E+01
 0.1905322834567E+01
 0.1931481086932E+01
 0.1928318896655E+01
 0.1909592500792E+01
 0.1882643198837E+01
 0.1850219260161E+01
 0.1811980164045E+01
 0.1767434546576E+01
 0.1722041000591E+01
 0.1680539688593E+01
 0.1644309202448E+01
 0.1615342217182E+01
 0.1594237123336E+01
 0.1582950049295E+01
 0.1590265802389E+01
 0.6285640743628E+00
 0.1116718785717E+01
 0.1490509833152E+01
 0.1727684280798E+01
 0.1848722761371E+01
 0.1889799038623E+01
 0.1883754730155E+01
 0.1853907120436E+01
 0.1813695199100E+01
 0.1769131934059E+01
 0.1721555362467E+01
 0.1669501417081E+01
 0.1612275211037E+01
 0.1555469708367E+01
 0.1503502122326E+01
 0.1457477666949E+01
 0.1419341809585E+01
 0.1390059998541E+01
 0.1372788261081E+01
 0.1378626516916E+01
 0.6721138573302E+00
 0.1202999761899E+01
 0.1575044989371E+01
 0.1782776425934E+01
 0.1862637644062E+01
 0.1863214833418E+01
 0.1823451298051E+01
 0.1767728138234E+01
 0.1707906290776E+01
 0.1647808627359E+01
 0.1586972921351E+01
 0.1522746213536E+01
 0.1454395283793E+01
 0.1387628874361E+01
 0.1326412781857E+01
 0.1271516155214E+01
 0.1224683459506E+01
 0.1187080052237E+01
 0.1162863898092E+01
 0.1165183159990E+01
 0.7279781194221E+00
 0.1308960228926E+01
 0.1670849694290E+01
 0.1836979681714E+01
 0.1866176019522E+01
 0.1821914830277E+01
 0.1748451611009E+01
 0.1669184506841E+01
 0.1592672227300E+01
 0.1519681634822E+01
 0.1447745334400E+01
 0.1373143336630E+01
 0.1295400123535E+01
 0.1220352511064E+01
 0.1151398143693E+01
 0.1088920035630E+01
 0.1034264061575E+01
 0.9885344644314E+00
 0.9565638495954E+00
 0.9531525127918E+00
 0.8000113717346E+00
 0.1438905186944E+01
 0.1777065223962E+01
 0.1885341390774E+01
 0.1853512047164E+01
 0.1761773076165E+01
 0.1657055072412E+01
 0.1558398705212E+01
 0.1469049830913E+01
 0.1386140881101E+01
 0.1305338266178E+01
 0.1222188623493E+01
 0.1136886647983E+01
 0.1055421551160E+01
 0.9805197443336E+00
 0.9121656404513E+00
 0.8510915731152E+00
 0.7980024649519E+00
 0.7579251427089E+00
 0.7466948678538E+00
 0.8936727228511E+00
 0.1597995508361E+01
 0.1890676879782E+01
 0.1919751807424E+01
 0.1816982121786E+01
 0.1678735289053E+01
 0.1548612576229E+01
 0.1436523691616E+01
 0.1338721673604E+01
 0.1248870563676E+01
 0.1161317205964E+01
 0.1071360406631E+01
 0.9803583162249E+00
 0.8944680207366E+00
 0.8156627300179E+00
 0.7435859181991E+00
 0.6781612393161E+00
 0.6193175884937E+00
 0.5716460778661E+00
 0.5510981738712E+00
 0.1016984849796E+01
 0.1792070574075E+01
 0.2004259865106E+01
 0.1927167584691E+01
 0.1747360612943E+01
 0.1570057732231E+01
 0.1424363875838E+01
 0.1305828370618E+01
 0.1203829172077E+01
 0.1109702674443E+01
 0.1017249360289E+01
 0.9220419483296E+00
 0.8271417230634E+00
 0.7388734035255E+00
 0.6584102873330E+00
 0.5852188909063E+00
 0.5182728167905E+00
 0.4563830881089E+00
 0.4029919720372E+00
 0.3729349495041E+00
 0.1182366409823E+01
 0.2026596159327E+01
 0.2100798613241E+01
 0.1887497836023E+01
 0.1635666922881E+01
 0.1436794337311E+01
 0.1287796939449E+01
 0.1169315031462E+01
 0.1066689685527E+01
 0.9704693784211E+00
 0.8746351496958E+00
 0.7754628619526E+00
 0.6783042870332E+00
 0.5896547931825E+00
 0.5099094375509E+00
 0.4386422276364E+00
 0.3738042210342E+00
 0.3128524763971E+00
 0.2575037722216E+00
 0.2200729333762E+00
 0.1410336925381E+01
 0.2300524817070E+01
 0.2142893904849E+01
 0.1771624647478E+01
 0.1481230813167E+01
 0.1285301386915E+01
 0.1143604043102E+01
 0.1030134353755E+01
 0.9295244997489E+00
 0.8329187168381E+00
 0.7348901520525E+00
 0.6326731681547E+00
 0.5345554105560E+00
 0.4473195789269E+00
 0.3707262956737E+00
 0.3048515586077E+00
 0.2464716397114E+00
 0.1917027497568E+00
 0.1403352485683E+00
 0.1013490239947E+00
 0.1740385890220E+01
 0.2588733785947E+01
 0.2031730797364E+01
 0.1569315699244E+01
 0.1298481039316E+01
 0.1123718814639E+01
 0.9964516007176E+00
 0.8910983509177E+00
 0.7943235226733E+00
 0.6986715349710E+00
 0.5994296411102E+00
 0.4945579483165E+00
 0.3961031606796E+00
 0.3115983377087E+00
 0.2407014767612E+00
 0.1842571086395E+00
 0.1372989453739E+00
 0.9456102226936E-01
 0.5537451731538E-01
 0.2514228749013E-01
 0.2246372006910E+01
 0.2532933416677E+01
 0.1705907077126E+01
 0.1322828245168E+01
 0.1102728538704E+01
 0.9595100964879E+00
 0.8500013706364E+00
 0.7546722104120E+00
 0.6628143814779E+00
 0.5690394169217E+00
 0.4698886012555E+00
 0.3623797196827E+00
 0.2618621413156E+00
 0.1807875968599E+00
 0.1192890596867E+00
 0.7688507186877E-01
 0.4643864306999E-01
 0.2212160193912E-01
 0.2638435633761E-02
 0.3387624114491E-02
 0.3187237692972E+01
 0.3053552805847E+01
 0.2916890599277E+01
 0.2772949876385E+01
 0.2618278255504E+01
 0.2452695693648E+01
 0.2276498188430E+01
 0.2090236376417E+01
 0.1894630967541E+01
 0.1690636676906E+01
 0.1479551407518E+01
 0.1263175855291E+01
 0.1044036998657E+01
 0.8257013663352E+00
 0.6132104589125E+00
 0.4136719658314E+00
 0.2370097242643E+00
 0.9679786113759E-01
 0.1240345607835E-01
 0.8959801147648E-02
 0.3295329373339E+01
 0.3188907922709E+01
 0.3059083874699E+01
 0.2918827151816E+01
 0.2768997813897E+01
 0.2608835487206E+01
 0.2437959390893E+01
 0.2256305390131E+01
 0.2064072375323E+01
 0.1861704868811E+01
 0.1649947315386E+01
 0.1429963242777E+01
 0.1203532683065E+01
 0.9733577582279E+00
 0.7435307131585E+00
 0.5202560555941E+00
 0.3129970499438E+00
 0.1363318950477E+00
 0.1651769081624E-01
 0.3256000853559E-01
 0.3399591856426E+01
 0.3306572807172E+01
 0.3193217591144E+01
 0.3063789916182E+01
 0.2922611783932E+01
 0.2770559019850E+01
 0.2607586649187E+01
 0.2433535830893E+01
 0.2248342358908E+01
 0.2052100338220E+01
 0.1845104945994E+01
 0.1627924293535E+01
 0.1401524777972E+01
 0.1167482361318E+01
 0.9283377471119E+00
 0.6882158721190E+00
 0.4539479447422E+00
 0.2373814140487E+00
 0.6054030635660E-01
 0.3735905902912E-01
 0.3503717771736E+01
 0.3420356870599E+01
 0.3320242935768E+01
 0.3204142154358E+01
 0.3074584362919E+01
 0.2933210272404E+01
 0.2780549782488E+01
 0.2616690458938E+01
 0.2441611136001E+01
 0.2255328817192E+01
 0.2057969460848E+01
 0.1849822453366E+01
 0.1631412198824E+01
 0.1403614870471E+01
 0.1167864195049E+01
 0.9265300306537E+00
 0.6836755199972E+00
 0.4466055107129E+00
 0.2297245800048E+00
 0.6699489673392E-01
 0.3605848310176E+01
 0.3531245732219E+01
 0.3442665258683E+01
 0.3339278590013E+01
 0.3222310838914E+01
 0.3093013650273E+01
 0.2952145414939E+01
 0.2800040072733E+01
 0.2636839930274E+01
 0.2462647885580E+01
 0.2277614931898E+01
 0.2081993910212E+01
 0.1876183239480E+01
 0.1660776806072E+01
 0.1436633582227E+01
 0.1204987321515E+01
 0.9676122397311E+00
 0.7270929366788E+00
 0.4870551311539E+00
 0.2494917525911E+00
 0.3704815503087E+01
 0.3638712910623E+01
 0.3560535413565E+01
 0.3468922073029E+01
 0.3364195431314E+01
 0.3247127652237E+01
 0.3118360815417E+01
 0.2978298088955E+01
 0.2827165618492E+01
 0.2665105915354E+01
 0.2492239384807E+01
 0.2308689351114E+01
 0.2114571653806E+01
 0.1909941614421E+01
 0.1694673406286E+01
 0.1468208205768E+01
 0.1229025681112E+01
 0.9734331181718E+00
 0.6924778018041E+00
 0.3617337646064E+00
 0.3799659485631E+01
 0.3741877738683E+01
 0.3673264147188E+01
 0.3592361507798E+01
 0.3498963617234E+01
 0.3393397043963E+01
 0.3276061773697E+01
 0.3147249421698E+01
 0.3007114035091E+01
 0.2855688381617E+01
 0.2692890952684E+01
 0.2518494364291E+01
 0.2332035619452E+01
 0.2132639163761E+01
 0.1918697391479E+01
 0.1687301211539E+01
 0.1433203004517E+01
 0.1146877420511E+01
 0.8108133521545E+00
 0.3966425161787E+00
 0.3889638487073E+01
 0.3839894090588E+01
 0.3780062252738E+01
 0.3708759021233E+01
 0.3625464940035E+01
 0.3530138806608E+01
 0.3422882307306E+01
 0.3303756323403E+01
 0.3172699097633E+01
 0.3029484264017E+01
 0.2873671286416E+01
 0.2704515866051E+01
 0.2520811078451E+01
 0.2320622188923E+01
 0.2100857355703E+01
 0.1856580164167E+01
 0.1579919486201E+01
 0.1258417166740E+01
 0.8731964360965E+00
 0.4039758674469E+00
 0.3974183013433E+01
 0.3932072246733E+01
 0.3880234223348E+01
 0.3817397730496E+01
 0.3742840326564E+01
 0.3656207125102E+01
 0.3557279444644E+01
 0.3445809457346E+01
 0.3321414699977E+01
 0.3183496816688E+01
 0.3031150426302E+01
 0.2863033363583E+01
 0.2677171895528E+01
 0.2470671653921E+01
 0.2239299021118E+01
 0.1976895276839E+01
 0.1674616064598E+01
 0.1320158127108E+01
 0.8980945077840E+00
 0.4007959873666E+00
 0.4052891601268E+01
 0.4017958460276E+01
 0.3973381844359E+01
 0.3917975456281E+01
 0.3850854718736E+01
 0.3771379815180E+01
 0.3679000465760E+01
 0.3573115482475E+01
 0.3452960730429E+01
 0.3317508541660E+01
 0.3165356336878E+01
 0.2994584461001E+01
 0.2802566513525E+01
 0.2585719580910E+01
 0.2339190687215E+01
 0.2056502437728E+01
 0.1729256957413E+01
 0.1347255757761E+01
 0.9003453814688E+00
 0.3970606599777E+00
 0.4125396983801E+01
 0.4097076276029E+01
 0.4059059038553E+01
 0.4010157996685E+01
 0.3949328811498E+01
 0.3875661580201E+01
 0.3788276372308E+01
 0.3686207624444E+01
 0.3568297897393E+01
 0.3433095577717E+01
 0.3278744738868E+01
 0.3102856773318E+01
 0.2902358522027E+01
 0.2673320819722E+01
 0.2410789505817E+01
 0.2108679175489E+01
 0.1759882633769E+01
 0.1356994314526E+01
 0.8954020799221E+00
 0.3982186267826E+00
 0.4191398739732E+01
 0.4169033421697E+01
 0.4136857816331E+01
 0.4093599991891E+01
 0.4038041711053E+01
 0.3969014047245E+01
 0.3885322670476E+01
 0.3785654950865E+01
 0.3668487673393E+01
 0.3531996533205E+01
 0.3373963502303E+01
 0.3191679889954E+01
 0.2981849053758E+01
 0.2740503958429E+01
 0.2462974729969E+01
 0.2143979893384E+01
 0.1777997726338E+01
 0.1360349957522E+01
 0.8910151566473E+00
 0.4041062840306E+00
 0.4250643416959E+01
 0.4233536835636E+01
 0.4206465805688E+01
 0.4168026658150E+01
 0.4116815553177E+01
 0.4051417716475E+01
 0.3970350225056E+01
 0.3871989315079E+01
 0.3754496725256E+01
 0.3615749333418E+01
 0.3453273337642E+01
 0.3264186339155E+01
 0.3045156740277E+01
 0.2792400335071E+01
 0.2501751484449E+01
 0.2168877998097E+01
 0.1789785790409E+01
 0.1362047298290E+01
 0.8889831008450E+00
 0.4127255162207E+00
 0.4302911233640E+01
 0.4290358721527E+01
 0.4267656401225E+01
 0.4233251983330E+01
 0.4185556061629E+01
 0.4122926890539E+01
 0.4043626072090E+01
 0.3945764260009E+01
 0.3827248020606E+01
 0.3685733257287E+01
 0.3518589203446E+01
 0.3322879101077E+01
 0.3095368729188E+01
 0.2832582202801E+01
 0.2530937731110E+01
 0.2187021796610E+01
 0.1798132547015E+01
 0.1363531464548E+01
 0.8888800728667E+00
 0.4222738274969E+00
 0.4348016741399E+01
 0.4339320361217E+01
 0.4320270554039E+01
 0.4289167774352E+01
 0.4244248408448E+01
 0.4183668858965E+01
 0.4105472661394E+01
 0.4007553243715E+01
 0.3887621143864E+01
 0.3743181270183E+01
 0.3571525170910E+01
 0.3369744960871E+01
 0.3134779169592E+01
 0.2863506506189E+01
 0.2552913222120E+01
 0.2200381807131E+01
 0.1804222374754E+01
 0.1364910260286E+01
 0.8897630753505E+00
 0.4314755254762E+00
 0.4385808843168E+01
 0.4380284081880E+01
 0.4364200668069E+01
 0.4335723753446E+01
 0.4292935112826E+01
 0.4233819084859E+01
 0.4156240184169E+01
 0.4057921299093E+01
 0.3936429582004E+01
 0.3789175207986E+01
 0.3613427761817E+01
 0.3406356016194E+01
 0.3165099058996E+01
 0.2886880434930E+01
 0.2569184473592E+01
 0.2210035307512E+01
 0.1808499383352E+01
 0.1365911801858E+01
 0.8907999381617E+00
 0.4395247125358E+00
 0.4416169212220E+01
 0.4413148432808E+01
 0.4399379484991E+01
 0.4372910828615E+01
 0.4331694743596E+01
 0.4273576050461E+01
 0.4196278885195E+01
 0.4097398109189E+01
 0.3974401083197E+01
 0.3824644230518E+01
 0.3645408312905E+01
 0.3433956651582E+01
 0.3187621593409E+01
 0.2903926955369E+01
 0.2580760926899E+01
 0.2216636739718E+01
 0.1811167273146E+01
 0.1366293472506E+01
 0.8914498758749E+00
 0.4459653047892E+00
 0.4439009227112E+01
 0.4437842810392E+01
 0.4425770294866E+01
 0.4400746754769E+01
 0.4360623780247E+01
 0.4303140590475E+01
 0.4225918039084E+01
 0.4126460420554E+01
 0.4002169619458E+01
 0.3850375171159E+01
 0.3668383138278E+01
 0.3453546459692E+01
 0.3203359749589E+01
 0.2915583349519E+01
 0.2588408363915E+01
 0.2220699541362E+01
 0.1812449666815E+01
 0.1366019613220E+01
 0.8915160887993E+00
 0.4506145257492E+00
 0.4454266592188E+01
 0.4454322460804E+01
 0.4443358816700E+01
 0.4419264614462E+01
 0.4379822301985E+01
 0.4322700098636E+01
 0.4245450899984E+01
 0.4145521246492E+01
 0.4020273924697E+01
 0.3867027044710E+01
 0.3683111638873E+01
 0.3465949218310E+01
 0.3213150635912E+01
 0.2922639249964E+01
 0.2592808824459E+01
 0.2222753816659E+01
 0.1812712177616E+01
 0.1365319899397E+01
 0.8911440561128E+00
 0.4535227300819E+00
 0.4461903218857E+01
 0.4462564892618E+01
 0.4452147562661E+01
 0.4428505341986E+01
 0.4389385342091E+01
 0.4332419956341E+01
 0.4255128241307E+01
 0.4154928541980E+01
 0.4029165387748E+01
 0.3875153091046E+01
 0.3690237616512E+01
 0.3471877511289E+01
 0.3217744435528E+01
 0.2925845473310E+01
 0.2594677243167E+01
 0.2223450234340E+01
 0.1812527294241E+01
 0.1364688240716E+01
 0.8907475281827E+00
 0.4549011507909E+00
 0.4461903218781E+01
 0.4462564892469E+01
 0.4452147562441E+01
 0.4428505341700E+01
 0.4389385341748E+01
 0.4332419955953E+01
 0.4255128240890E+01
 0.4154928541554E+01
 0.4029165387338E+01
 0.3875153090677E+01
 0.3690237616209E+01
 0.3471877511076E+01
 0.3217744435425E+01
 0.2925845473326E+01
 0.2594677243303E+01
 0.2223450234580E+01
 0.1812527294554E+01
 0.1364688241049E+01
 0.8907475284467E+00
 0.4549011507630E+00
 0.4454266591960E+01
 0.4454322460358E+01
 0.4443358816040E+01
 0.4419264613604E+01
 0.4379822300950E+01
 0.4322700097462E+01
 0.4245450898718E+01
 0.4145521245193E+01
 0.4020273923436E+01
 0.3867027043562E+01
 0.3683111637916E+01
 0.3465949217616E+01
 0.3213150635537E+01
 0.2922639249942E+01
 0.2592808824789E+01
 0.2222753817301E+01
 0.1812712178478E+01
 0.1365319900326E+01
 0.8911440568516E+00
 0.4535227299812E+00
 0.4439009226734E+01
 0.4437842809650E+01
 0.4425770293766E+01
 0.4400746753331E+01
 0.4360623778509E+01
 0.4303140588492E+01
 0.4225918036932E+01
 0.4126460418329E+01
 0.4002169617273E+01
 0.3850375169140E+01
 0.3668383136555E+01
 0.3453546458384E+01
 0.3203359748796E+01
 0.2915583349303E+01
 0.2588408364282E+01
 0.2220699542251E+01
 0.1812449668082E+01
 0.1366019614621E+01
 0.8915160899193E+00
 0.4506145255476E+00
 0.4416169211699E+01
 0.4413148431775E+01
 0.4399379483452E+01
 0.4372910826595E+01
 0.4331694741142E+01
 0.4273576047645E+01
 0.4196278882116E+01
 0.4097398105976E+01
 0.3974401080004E+01
 0.3824644227519E+01
 0.3645408310282E+01
 0.3433956649508E+01
 0.3187621592035E+01
 0.2903926954792E+01
 0.2580760927145E+01
 0.2216636740715E+01
 0.1811167274702E+01
 0.1366293474288E+01
 0.8914498773101E+00
 0.4459653044668E+00
 0.4385808842511E+01
 0.4380284080564E+01
 0.4364200666097E+01
 0.4335723750843E+01
 0.4292935109644E+01
 0.4233819081182E+01
 0.4156240180116E+01
 0.4057921294819E+01
 0.3936429577702E+01
 0.3789175203874E+01
 0.3613427758132E+01
 0.3406356013170E+01
 0.3165099056840E+01
 0.2886880433793E+01
 0.2569184473534E+01
 0.2210035308465E+01
 0.1808499385091E+01
 0.1365911803958E+01
 0.8907999398896E+00
 0.4395247121090E+00
 0.4348016740615E+01
 0.4339320359627E+01
 0.4320270551639E+01
 0.4289167771165E+01
 0.4244248404527E+01
 0.4183668854398E+01
 0.4105472656313E+01
 0.4007553238296E+01
 0.3887621138330E+01
 0.3743181264798E+01
 0.3571525165964E+01
 0.3369744956663E+01
 0.3134779166403E+01
 0.2863506504240E+01
 0.2552913221530E+01
 0.2200381807863E+01
 0.1804222376566E+01
 0.1364910262669E+01
 0.8897630773960E+00
 0.4314755249982E+00
 0.4302911232742E+01
 0.4290358719675E+01
 0.4267656398409E+01
 0.4233251979566E+01
 0.4185556056964E+01
 0.4122926885060E+01
 0.4043626065933E+01
 0.3945764253362E+01
 0.3827248013717E+01
 0.3685733250454E+01
 0.3518589197015E+01
 0.3322879095417E+01
 0.3095368724663E+01
 0.2832582199728E+01
 0.2530937729700E+01
 0.2187021796896E+01
 0.1798132548772E+01
 0.1363531467204E+01
 0.8888800753236E+00
 0.4222738270903E+00
 0.4250643415961E+01
 0.4233536833541E+01
 0.4206465802475E+01
 0.4168026653824E+01
 0.4116815547773E+01
 0.4051417710070E+01
 0.3970350217778E+01
 0.3871989307119E+01
 0.3754496716871E+01
 0.3615749324936E+01
 0.3453273329452E+01
 0.3264186331695E+01
 0.3045156734006E+01
 0.2792400330424E+01
 0.2501751481769E+01
 0.2168877997544E+01
 0.1789785791841E+01
 0.1362047301116E+01
 0.8889831037791E+00
 0.4127255160465E+00
 0.4191398738648E+01
 0.4169033419373E+01
 0.4136857812736E+01
 0.4093599987016E+01
 0.4038041704913E+01
 0.3969014039897E+01
 0.3885322662029E+01
 0.3785654941497E+01
 0.3668487663359E+01
 0.3531996522841E+01
 0.3373963492031E+01
 0.3191679880270E+01
 0.2981849045217E+01
 0.2740503951601E+01
 0.2462974725373E+01
 0.2143979891379E+01
 0.1777997726962E+01
 0.1360349960270E+01
 0.8910151601037E+00
 0.4041062843600E+00
 0.4125396982643E+01
 0.4097076273492E+01
 0.4059059034599E+01
 0.4010157991283E+01
 0.3949328804636E+01
 0.3875661571904E+01
 0.3788276362654E+01
 0.3686207613580E+01
 0.3568297885551E+01
 0.3433095565219E+01
 0.3278744726141E+01
 0.3102856760893E+01
 0.2902358510536E+01
 0.2673320809874E+01
 0.2410789498337E+01
 0.2108679171009E+01
 0.1759882632643E+01
 0.1356994316527E+01
 0.8954020836981E+00
 0.3982186279505E+00
 0.4052891600048E+01
 0.4017958457551E+01
 0.3973381840079E+01
 0.3917975450385E+01
 0.3850854711174E+01
 0.3771379805934E+01
 0.3679000454864E+01
 0.3573115470030E+01
 0.3452960716614E+01
 0.3317508526755E+01
 0.3165356321273E+01
 0.2994584445218E+01
 0.2802566498229E+01
 0.2585719566910E+01
 0.2339190675436E+01
 0.2056502429132E+01
 0.1729256952813E+01
 0.1347255757472E+01
 0.9003453846437E+00
 0.3970606622308E+00
 0.3974183012169E+01
 0.3932072243857E+01
 0.3880234218784E+01
 0.3817397724141E+01
 0.3742840318321E+01
 0.3656207114900E+01
 0.3557279432462E+01
 0.3445809443217E+01
 0.3321414684008E+01
 0.3183496799075E+01
 0.3031150407352E+01
 0.2863033343741E+01
 0.2677171875414E+01
 0.2470671634359E+01
 0.2239299003159E+01
 0.1976895261745E+01
 0.1674616053739E+01
 0.1320158121636E+01
 0.8980945079192E+00
 0.4007959901393E+00
 0.3889638485777E+01
 0.3839894087586E+01
 0.3780062247911E+01
 0.3708759014429E+01
 0.3625464931106E+01
 0.3530138795432E+01
 0.3422882293802E+01
 0.3303756307534E+01
 0.3172699079417E+01
 0.3029484243545E+01
 0.2873671263872E+01
 0.2704515841744E+01
 0.2520811052866E+01
 0.2320622162780E+01
 0.2100857330037E+01
 0.1856580140410E+01
 0.1579919466235E+01
 0.1258417152804E+01
 0.8731964301468E+00
 0.4039758691985E+00
 0.3799659484319E+01
 0.3741877735580E+01
 0.3673264142128E+01
 0.3592361500582E+01
 0.3498963607671E+01
 0.3393397031893E+01
 0.3276061758991E+01
 0.3147249404259E+01
 0.3007114014856E+01
 0.2855688358570E+01
 0.2692890926871E+01
 0.2518494335855E+01
 0.2332035588680E+01
 0.2132639131166E+01
 0.1918697357912E+01
 0.1687301178368E+01
 0.1433202973868E+01
 0.1146877395565E+01
 0.8108133372385E+00
 0.3966425145879E+00
 0.3704815501785E+01
 0.3638712907467E+01
 0.3560535408340E+01
 0.3468922065496E+01
 0.3364195421260E+01
 0.3247127639483E+01
 0.3118360799809E+01
 0.2978298070353E+01
 0.2827165596769E+01
 0.2665105890399E+01
 0.2492239356537E+01
 0.2308689319494E+01
 0.2114571618891E+01
 0.1909941576422E+01
 0.1694673365687E+01
 0.1468208163537E+01
 0.1229025639066E+01
 0.9734330796198E+00
 0.6924777727242E+00
 0.3617337545663E+00
 0.3605848308919E+01
 0.3531245729064E+01
 0.3442665253365E+01
 0.3339278582273E+01
 0.3222310828544E+01
 0.3093013637107E+01
 0.2952145398823E+01
 0.2800040053511E+01
 0.2636839907786E+01
 0.2462647859655E+01
 0.2277614902360E+01
 0.2081993876885E+01
 0.1876183202198E+01
 0.1660776764710E+01
 0.1436633536758E+01
 0.1204987272140E+01
 0.9676121871602E+00
 0.7270928827536E+00
 0.4870550803164E+00
 0.2494917169522E+00
 0.3503717770554E+01
 0.3420356867490E+01
 0.3320242930418E+01
 0.3204142146522E+01
 0.3074584352441E+01
 0.2933210259163E+01
 0.2780549766364E+01
 0.2616690439801E+01
 0.2441611113716E+01
 0.2255328791624E+01
 0.2057969431868E+01
 0.1849822420861E+01
 0.1631412162714E+01
 0.1403614830736E+01
 0.1167864151789E+01
 0.9265299842023E+00
 0.6836754711575E+00
 0.4466054612542E+00
 0.2297245337934E+00
 0.6699486286866E-01
 0.3399591855351E+01
 0.3306572804142E+01
 0.3193217585803E+01
 0.3063789908375E+01
 0.2922611773605E+01
 0.2770559006943E+01
 0.2607586633634E+01
 0.2433535812629E+01
 0.2248342337891E+01
 0.2052100314449E+01
 0.1845104919532E+01
 0.1627924264537E+01
 0.1401524746733E+01
 0.1167482328337E+01
 0.9283377131839E+00
 0.6882158384787E+00
 0.4539479132699E+00
 0.2373813875445E+00
 0.6054028913243E-01
 0.3735906452334E-01
 0.3295329372380E+01
 0.3188907919695E+01
 0.3059083869362E+01
 0.2918827144214E+01
 0.2768997804037E+01
 0.2608835475065E+01
 0.2437959376459E+01
 0.2256305373425E+01
 0.2064072356422E+01
 0.1861704847868E+01
 0.1649947292663E+01
 0.1429963218674E+01
 0.1203532658165E+01
 0.9733577333526E+00
 0.7435306894130E+00
 0.5202560344084E+00
 0.3129970330499E+00
 0.1363318842815E+00
 0.1651768801279E-01
 0.3256000742096E-01
 0.3187237691826E+01
 0.3053552802656E+01
 0.2916890594189E+01
 0.2772949869364E+01
 0.2618278246510E+01
 0.2452695682686E+01
 0.2276498175558E+01
 0.2090236361753E+01
 0.1894630951276E+01
 0.1690636659317E+01
 0.1479551388996E+01
 0.1263175836363E+01
 0.1044036980013E+01
 0.8257013488444E+00
 0.6132104436174E+00
 0.4136719538791E+00
 0.2370097167091E+00
 0.9679785844781E-01
 0.1240345647941E-01
 0.8959799955861E-02
</DataArray>
<DataArray type="Float64" Name="S_Hyd" NumberOfComponents="1" ComponentName0="S_Hyd" format="ascii">
 0.2107436972468E+01
 0.1427497503859E+01
 0.1352028927030E+01
 0.1289547076503E+01
 0.1262555265448E+01
 0.1248356253469E+01
 0.1243661938039E+01
 0.1245174709376E+01
 0.1251506524895E+01
 0.1261825343751E+01
 0.1275774893825E+01
 0.1293308774617E+01
 0.1314662345703E+01
 0.1340383524073E+01
 0.1371547407983E+01
 0.1410704715407E+01
 0.1459323949208E+01
 0.1513162370042E+01
 0.1567291437764E+01
 0.1621362670061E+01
 0.1677098987889E+01
 0.1736453216483E+01
 0.1801064402812E+01
 0.1872219729360E+01
 0.1950893402003E+01
 0.2037643452044E+01
 0.2131914189446E+01
 0.2232969447604E+01
 0.2341937303722E+01
 0.2460713326153E+01
 0.2590643833678E+01
 0.2732912219037E+01
 0.2888380529140E+01
 0.3056912786935E+01
 0.3235141133285E+01
 0.3420735920372E+01
 0.3628246245516E+01
 0.3959242579937E+01
 0.4307526630835E+01
 0.5902026153536E+01
 0.1588632601565E+01
 0.1895050105191E+01
 0.1557738869907E+01
 0.1382055245891E+01
 0.1325566933252E+01
 0.1288875826517E+01
 0.1270997866567E+01
 0.1262890770694E+01
 0.1261940780907E+01
 0.1266271038065E+01
 0.1274956741991E+01
 0.1287523516765E+01
 0.1303849678416E+01
 0.1324104394902E+01
 0.1348762697311E+01
 0.1378856629634E+01
 0.1415988357286E+01
 0.1460442482061E+01
 0.1509534366830E+01
 0.1560086084566E+01
 0.1611297152639E+01
 0.1664209882786E+01
 0.1720303539576E+01
 0.1780915637837E+01
 0.1847098598408E+01
 0.1919594519202E+01
 0.1998664297860E+01
 0.2083920053370E+01
 0.2174950432790E+01
 0.2272169217895E+01
 0.2376469712798E+01
 0.2488435729428E+01
 0.2608117336563E+01
 0.2734822972868E+01
 0.2866247930758E+01
 0.2998092637325E+01
 0.3125492687418E+01
 0.3262672057023E+01
 0.3397226829202E+01
 0.3631231811911E+01
 0.3452129622929E+01
-0.5847811917824E+00
 0.1794148806647E+01
 0.1584897268987E+01
 0.1426378738022E+01
 0.1353032159016E+01
 0.1314284516732E+01
 0.1292057554118E+01
 0.1281251724367E+01
 0.1277983024832E+01
 0.1280451027945E+01
 0.1287558995031E+01
 0.1298758888298E+01
 0.1313854616638E+01
 0.1332945251483E+01
 0.1356438069067E+01
 0.1385148883698E+01
 0.1420012603271E+01
 0.1460892005758E+01
 0.1505920308594E+01
 0.1552920962417E+01
 0.1601087571255E+01
 0.1650975707953E+01
 0.1703657021541E+01
 0.1760176128770E+01
 0.1821355848267E+01
 0.1887712343406E+01
 0.1959333368829E+01
 0.2035875433966E+01
 0.2116942687337E+01
 0.2202480186967E+01
 0.2292609391092E+01
 0.2387115737718E+01
 0.2485066258153E+01
 0.2584397287339E+01
 0.2681311358145E+01
 0.2769604915361E+01
 0.2843810361999E+01
 0.2895275836521E+01
 0.2910155356983E+01
 0.2810662953743E+01
 0.1943750957653E+01
-0.1427600692017E+01
 0.1733981677715E+01
 0.1587656906012E+01
 0.1456527723161E+01
 0.1379313252199E+01
 0.1336697186338E+01
 0.1311887203058E+01
 0.1298554894624E+01
 0.1293272172716E+01
 0.1293999689714E+01
 0.1299604959443E+01
 0.1309461734456E+01
 0.1323312596957E+01
 0.1341188757978E+01
 0.1363403425607E+01
 0.1390532327743E+01
 0.1423081954852E+01
 0.1460747653401E+01
 0.1502149230774E+01
 0.1545719175295E+01
 0.1590738759610E+01
 0.1637459749759E+01
 0.1686613553459E+01
 0.1738974751431E+01
 0.1795144682981E+01
 0.1855441352530E+01
 0.1919815476539E+01
 0.1987886635382E+01
 0.2059163020266E+01
 0.2133213754223E+01
 0.2209544269682E+01
 0.2287219267206E+01
 0.2364430172247E+01
 0.2438022314913E+01
 0.2502830831722E+01
 0.2551397338262E+01
 0.2573646952621E+01
 0.2551943327973E+01
 0.2446077079967E+01
 0.2101929058614E+01
 0.1000440616239E+01
-0.1690247576169E+01
 0.1693714372726E+01
 0.1583682071290E+01
 0.1475769368438E+01
 0.1401778740700E+01
 0.1356980772664E+01
 0.1330128824467E+01
 0.1314821262098E+01
 0.1307744762256E+01
 0.1306890057385E+01
 0.1311070736485E+01
 0.1319618132673E+01
 0.1332218944890E+01
 0.1348838704685E+01
 0.1369683504674E+01
 0.1395118483352E+01
 0.1425373474824E+01
 0.1460074578852E+01
 0.1498150636618E+01
 0.1538420456477E+01
 0.1580256026286E+01
 0.1623717136641E+01
 0.1669264390635E+01
 0.1717430057122E+01
 0.1768609978708E+01
 0.1822946495058E+01
 0.1880262975663E+01
 0.1940096887041E+01
 0.2001816158847E+01
 0.2064667437589E+01
 0.2127652427423E+01
 0.2189214287040E+01
 0.2246805372859E+01
 0.2296364668567E+01
 0.2331690865975E+01
 0.2343778068878E+01
 0.2319125032545E+01
 0.2232773829147E+01
 0.2025711404736E+01
 0.1536280649615E+01
 0.4067851610656E+00
-0.1756367839931E+01
 0.1664995268894E+01
 0.1578026817890E+01
 0.1488209307291E+01
 0.1420035390942E+01
 0.1375061459325E+01
 0.1346827049135E+01
 0.1329984829626E+01
 0.1321381074690E+01
 0.1319095607181E+01
 0.1321940639422E+01
 0.1329218843646E+01
 0.1340573269111E+01
 0.1355905561720E+01
 0.1375316942449E+01
 0.1399001618828E+01
 0.1427006218005E+01
 0.1458928166494E+01
 0.1493899733285E+01
 0.1530991339571E+01
 0.1569646882746E+01
 0.1609798132255E+01
 0.1651692851647E+01
 0.1695651785344E+01
 0.1741884327732E+01
 0.1790374338637E+01
 0.1840821368132E+01
 0.1892658104392E+01
 0.1945097489485E+01
 0.1997105562232E+01
 0.2047268198022E+01
 0.2093511322991E+01
 0.2132678346350E+01
 0.2160000009620E+01
 0.2168430761333E+01
 0.2147672973115E+01
 0.2081762897584E+01
 0.1940690770789E+01
 0.1659143353632E+01
 0.1097443731825E+01
 0.2156649040426E-01
-0.1746008512737E+01
 0.1643688083185E+01
 0.1572354617074E+01
 0.1496484780786E+01
 0.1434661866442E+01
 0.1390898603004E+01
 0.1362012687589E+01
 0.1344033614905E+01
 0.1334162258062E+01
 0.1330602438308E+01
 0.1332203956309E+01
 0.1338259848583E+01
 0.1348379449117E+01
 0.1362406033927E+01
 0.1380346229735E+01
 0.1402259652066E+01
 0.1428068000763E+01
 0.1457356942543E+01
 0.1489395219426E+01
 0.1523419438351E+01
 0.1558924191218E+01
 0.1595749795408E+01
 0.1633975663545E+01
 0.1673741055909E+01
 0.1715088643627E+01
 0.1757858148827E+01
 0.1801629008863E+01
 0.1845720360011E+01
 0.1889190813880E+01
 0.1930763599771E+01
 0.1968683641520E+01
 0.2000458091190E+01
 0.2022451004779E+01
 0.2029358508191E+01
 0.2013506167706E+01
 0.1963700044977E+01
 0.1862450669211E+01
 0.1677645587910E+01
 0.1346636905817E+01
 0.7586216748995E+00
-0.2354359344640E+00
-0.1706209093920E+01
 0.1627443853297E+01
 0.1567221736721E+01
 0.1502173595884E+01
 0.1446399773527E+01
 0.1404624749529E+01
 0.1375720558617E+01
 0.1356980335151E+01
 0.1346083269754E+01
 0.1341404129279E+01
 0.1341856383013E+01
 0.1346741647940E+01
 0.1355645641607E+01
 0.1368361021051E+01
 0.1384813441222E+01
 0.1404957758509E+01
 0.1428628007204E+01
 0.1455404733537E+01
 0.1484648903481E+01
 0.1515707216263E+01
 0.1548106631049E+01
 0.1581617437250E+01
 0.1616183935588E+01
 0.1651790904357E+01
 0.1688333419988E+01
 0.1725520216290E+01
 0.1762816185992E+01
 0.1799426946854E+01
 0.1834266096523E+01
 0.1865850208713E+01
 0.1892149433454E+01
 0.1910343796117E+01
 0.1916439545085E+01
 0.1904759506837E+01
 0.1867231253509E+01
 0.1792182260280E+01
 0.1661557816393E+01
 0.1443730216275E+01
 0.1083228820921E+01
 0.4960124984446E+00
-0.4109010401839E+00
-0.1655639345464E+01
 0.1614804047137E+01
 0.1562776808001E+01
 0.1506222672125E+01
 0.1455900453529E+01
 0.1416468708245E+01
 0.1388018393631E+01
 0.1368852163033E+01
 0.1357152192059E+01
 0.1351501982434E+01
 0.1350899319058E+01
 0.1354669164486E+01
 0.1362383701791E+01
 0.1373793954509E+01
 0.1388758681183E+01
 0.1407151581865E+01
 0.1428743515323E+01
 0.1453112046170E+01
 0.1479680295946E+01
 0.1507867286257E+01
 0.1537217892913E+01
 0.1567445451471E+01
 0.1598383969485E+01
 0.1629886985568E+01
 0.1661719856178E+01
 0.1693473019370E+01
 0.1724504385110E+01
 0.1753911743204E+01
 0.1780478031549E+01
 0.1802548119842E+01
 0.1817877091455E+01
 0.1823401767695E+01
 0.1814882351135E+01
 0.1786419652979E+01
 0.1729768829196E+01
 0.1633180136520E+01
 0.1478896904438E+01
 0.1237522226640E+01
 0.8622573107403E+00
 0.2910499945923E+00
-0.5327184656277E+00
-0.1601993156880E+01
 0.1604806428833E+01
 0.1559010963418E+01
 0.1509209998049E+01
 0.1463677835303E+01
 0.1426684525132E+01
 0.1399004387264E+01
 0.1379690277864E+01
 0.1367387501182E+01
 0.1360904746898E+01
 0.1359339410902E+01
 0.1362051366357E+01
 0.1368608559169E+01
 0.1378729671914E+01
 0.1392219709841E+01
 0.1408889664782E+01
 0.1428463792284E+01
 0.1450516929766E+01
 0.1474513544110E+01
 0.1499919100146E+01
 0.1526285515984E+01
 0.1553277620966E+01
 0.1580637901324E+01
 0.1608108281097E+01
 0.1635340750923E+01
 0.1661819894410E+01
 0.1686805819451E+01
 0.1709297784605E+01
 0.1727965249897E+01
 0.1741014988757E+01
 0.1746041184814E+01
 0.1739813350931E+01
 0.1717947008730E+01
 0.1674459425676E+01
 0.1601139859756E+01
 0.1486515731456E+01
 0.1313790362953E+01
 0.1056734723199E+01
 0.6770777203673E+00
 0.1298617633349E+00
-0.6181122694057E+00
-0.1548477211732E+01
 0.1596788156297E+01
 0.1555856860559E+01
 0.1511494581569E+01
 0.1470121936114E+01
 0.1435513442097E+01
 0.1408793839800E+01
 0.1389548297114E+01
 0.1376816253377E+01
 0.1369627703689E+01
 0.1367188096503E+01
 0.1368900806492E+01
 0.1374337622252E+01
 0.1383193730794E+01
 0.1395232035289E+01
 0.1410215216680E+01
 0.1427832479979E+01
 0.1447655516202E+01
 0.1469175574409E+01
 0.1491886637871E+01
 0.1515339753043E+01
 0.1539157112062E+01
 0.1563004169882E+01
 0.1586527727434E+01
 0.1609281207226E+01
 0.1630655497526E+01
 0.1649823202706E+01
 0.1665696545450E+01
 0.1676850066452E+01
 0.1681384376224E+01
 0.1676781746579E+01
 0.1659712217551E+01
 0.1625736895804E+01
 0.1568911987125E+01
 0.1481239173125E+01
 0.1351806755469E+01
 0.1165211494936E+01
 0.8987333430175E+00
 0.5217435658539E+00
 0.2199441843236E-02
-0.6780786975986E+00
-0.1496431394139E+01
 0.1590277689516E+01
 0.1553230138960E+01
 0.1513302773683E+01
 0.1475524771732E+01
 0.1443168491682E+01
 0.1417506734251E+01
 0.1398488699406E+01
 0.1385472516496E+01
 0.1377691638153E+01
 0.1374461026511E+01
 0.1375233141851E+01
 0.1379590261386E+01
 0.1387212001882E+01
 0.1397829162974E+01
 0.1411167384630E+01
 0.1426889115363E+01
 0.1444562358667E+01
 0.1463694904564E+01
 0.1483796781503E+01
 0.1504412592451E+01
 0.1525126316587E+01
 0.1545537837208E+01
 0.1565212739964E+01
 0.1583619202045E+01
 0.1600066184561E+01
 0.1613649720533E+01
 0.1623207688159E+01
 0.1627238641379E+01
 0.1623766933615E+01
 0.1610206871231E+01
 0.1583188814634E+01
 0.1538297994321E+01
 0.1469733772199E+01
 0.1369854585590E+01
 0.1228513126733E+01
 0.1031930828289E+01
 0.7608607279797E+00
 0.3911886631538E+00
-0.9952298475728E-01
-0.7198681120289E+00
-0.1446400467247E+01
 0.1584931150691E+01
 0.1551046956336E+01
 0.1514779039969E+01
 0.1480104516944E+01
 0.1449830952497E+01
 0.1425259355301E+01
 0.1406578726586E+01
 0.1393395648975E+01
 0.1385121819930E+01
 0.1381177416063E+01
 0.1381066644052E+01
 0.1384387375265E+01
 0.1390810425542E+01
 0.1400042869800E+01
 0.1411782164760E+01
 0.1425670127148E+01
 0.1441270643388E+01
 0.1458100850193E+01
 0.1475678156252E+01
 0.1493536960472E+01
 0.1511226638534E+01
 0.1528290799898E+01
 0.1544225638442E+01
 0.1558426062151E+01
 0.1570130366364E+01
 0.1578369161787E+01
 0.1581919138931E+01
 0.1579221458604E+01
 0.1568251791599E+01
 0.1546395444336E+01
 0.1510294903759E+01
 0.1455625998814E+01
 0.1376816032255E+01
 0.1266688424494E+01
 0.1115987080080E+01
 0.9126345253399E+00
 0.6406117631002E+00
 0.2811972251719E+00
-0.1809668678708E+00
-0.7484066870502E+00
-0.1398582036856E+01
 0.1580492809662E+01
 0.1549231022243E+01
 0.1516016522325E+01
 0.1484024770995E+01
 0.1455652158213E+01
 0.1432159628834E+01
 0.1413886829561E+01
 0.1400628506043E+01
 0.1391946987883E+01
 0.1387359380543E+01
 0.1386421716524E+01
 0.1388751025103E+01
 0.1394014858192E+01
 0.1401903449139E+01
 0.1412093055315E+01
 0.1424209502136E+01
 0.1437812319961E+01
 0.1452422975781E+01
 0.1467560293499E+01
 0.1482746088920E+01
 0.1497498277360E+01
 0.1511311927533E+01
 0.1523623992350E+01
 0.1533766875909E+01
 0.1540918864895E+01
 0.1544056176699E+01
 0.1541907399392E+01
 0.1532874044960E+01
 0.1514908115580E+01
 0.1485399960061E+01
 0.1441048151229E+01
 0.1377673564660E+01
 0.1289996766598E+01
 0.1171379625134E+01
 0.1013518860635E+01
 0.8060078368018E+00
 0.5357132444278E+00
 0.1882979934425E+00
-0.2464040903396E+00
-0.7671335613648E+00
-0.1353015691214E+01
 0.1576769505946E+01
 0.1547715897317E+01
 0.1517075824608E+01
 0.1487409065889E+01
 0.1460757296464E+01
 0.1438305073933E+01
 0.1420480039228E+01
 0.1407215771316E+01
 0.1398198359511E+01
 0.1393031283872E+01
 0.1391320432035E+01
 0.1392704119207E+01
 0.1396850964742E+01
 0.1403439909075E+01
 0.1412131523467E+01
 0.1422539236236E+01
 0.1434218178935E+01
 0.1446690703716E+01
 0.1459473019464E+01
 0.1472073022297E+01
 0.1483980033325E+01
 0.1494647157326E+01
 0.1503460906982E+01
 0.1509700862160E+01
 0.1512495280678E+01
 0.1510776634654E+01
 0.1503238030822E+01
 0.1488257867429E+01
 0.1463786782700E+01
 0.1427249383374E+01
 0.1375436700216E+01
 0.1304357497964E+01
 0.1209072480137E+01
 0.1083524507850E+01
 0.9203739780348E+00
 0.7107882097177E+00
 0.4441483289536E+00
 0.1096425203938E+00
-0.2990983162690E+00
-0.7785084893466E+00
-0.1309662892191E+01
 0.1573613525139E+01
 0.1546445169044E+01
 0.1517996765390E+01
 0.1490351538461E+01
 0.1465249606525E+01
 0.1443782361998E+01
 0.1426422244012E+01
 0.1413202552261E+01
 0.1403908707583E+01
 0.1398219118112E+01
 0.1395786099250E+01
 0.1396270135296E+01
 0.1399344132093E+01
 0.1404680122040E+01
 0.1411927337100E+01
 0.1420689641511E+01
 0.1430517895013E+01
 0.1440933029475E+01
 0.1451446004683E+01
 0.1461550238371E+01
 0.1470709145415E+01
 0.1478339565910E+01
 0.1483785268764E+01
 0.1486281711305E+01
 0.1484916374780E+01
 0.1478588058683E+01
 0.1465966263732E+01
 0.1445421356616E+01
 0.1414922135641E+01
 0.1371952009749E+01
 0.1313423642750E+01
 0.1235565688120E+01
 0.1133809233471E+01
 0.1002694932304E+01
 0.8358211527087E+00
 0.6257956802619E+00
 0.3641518228018E+00
 0.4289184507754E-01
-0.3415764724355E+00
-0.7843301687758E+00
-0.1268439058846E+01
 0.1570910809131E+01
 0.1545371723477E+01
 0.1518805836241E+01
 0.1492924708377E+01
 0.1469214292591E+01
 0.1448667767516E+01
 0.1431773199230E+01
 0.1418633290216E+01
 0.1409111544063E+01
 0.1402949930397E+01
 0.1399842863250E+01
 0.1399472872347E+01
 0.1401519390570E+01
 0.1405650930563E+01
 0.1411508798174E+01
 0.1418689555055E+01
 0.1426740047889E+01
 0.1435178310509E+01
 0.1443508430065E+01
 0.1451209359540E+01
 0.1457721164616E+01
 0.1462429432381E+01
 0.1464641964455E+01
 0.1463557909057E+01
 0.1458232464890E+01
 0.1447540117310E+01
 0.1430137695894E+01
 0.1404401013344E+01
 0.1368333771177E+01
 0.1319498274414E+01
 0.1254951308127E+01
 0.1171163607157E+01
 0.1063952563884E+01
 0.9284532536297E+00
 0.7591518279620E+00
 0.5499475344587E+00
 0.2941918652928E+00
-0.1387990226403E-01
-0.3758241799987E+00
-0.7859449914527E+00
-0.1229223723565E+01
 0.1568572641671E+01
 0.1544456689033E+01
 0.1519520986570E+01
 0.1495185132380E+01
 0.1472721909569E+01
 0.1453028053700E+01
 0.1436588067349E+01
 0.1423550973354E+01
 0.1413840434667E+01
 0.1407251310110E+01
 0.1403515343195E+01
 0.1402336227027E+01
 0.1403401337312E+01
 0.1406378216112E+01
 0.1410902904132E+01
 0.1416566479949E+01
 0.1422912128709E+01
 0.1429454107815E+01
 0.1435688738803E+01
 0.1441080936359E+01
 0.1445049861359E+01
 0.1446954301512E+01
 0.1446072084959E+01
 0.1441573049862E+01
 0.1432487833185E+01
 0.1417675157306E+01
 0.1395789049164E+01
 0.1365222562310E+01
 0.1324028325693E+01
 0.1269863464996E+01
 0.1199945296401E+01
 0.1111000226045E+01
 0.9992360662599E+00
 0.8603639419814E+00
 0.6896930660303E+00
 0.4822622428102E+00
 0.2329467217846E+00
-0.6226268445008E-01
-0.4034274662585E+00
-0.7843977494684E+00
-0.1191855735405E+01
 0.1566529660810E+01
 0.1543668321325E+01
 0.1520154716463E+01
 0.1497177517480E+01
 0.1475831180296E+01
 0.1456921520927E+01
 0.1440917315044E+01
 0.1427996609247E+01
 0.1418128449444E+01
 0.1411150944317E+01
 0.1406828309199E+01
 0.1404883992008E+01
 0.1405014059624E+01
 0.1406886938365E+01
 0.1410135456626E+01
 0.1414346678791E+01
 0.1419060537540E+01
 0.1423787066159E+01
 0.1428014452489E+01
 0.1431194288352E+01
 0.1432727164139E+01
 0.1431949052300E+01
 0.1428113121031E+01
 0.1420366144275E+01
 0.1407721142721E+01
 0.1389028763279E+01
 0.1362948960915E+01
 0.1327902122813E+01
 0.1282001224428E+01
 0.1223010298479E+01
 0.1148318195306E+01
 0.1054913268215E+01
 0.9393885093802E+00
 0.7980023416603E+00
 0.6268147588026E+00
 0.4218589369946E+00
 0.1792748804944E+00
-0.1035599704900E+00
-0.4256825816870E+00
-0.7805463168313E+00
-0.1156151932365E+01
 0.1564727466210E+01
 0.1542980948613E+01
 0.1520716083659E+01
 0.1498937719698E+01
 0.1478591288046E+01
 0.1460399065776E+01
 0.1444806833693E+01
 0.1432008903653E+01
 0.1422007741471E+01
 0.1414676244011E+01
 0.1409806399358E+01
 0.1407139674791E+01
 0.1406381058450E+01
 0.1407201151719E+01
 0.1409231131809E+01
 0.1412055233978E+01
 0.1415210575547E+01
 0.1418202823343E+01
 0.1420512035851E+01
 0.1421577390339E+01
 0.1420783125614E+01
 0.1417445974471E+01
 0.1410799155485E+01
 0.1399971922594E+01
 0.1383965858641E+01
 0.1361630332081E+01
 0.1331638790238E+01
 0.1292447371646E+01
 0.1242238366963E+01
 0.1178891329626E+01
 0.1099972943963E+01
 0.1002733745785E+01
 0.8841395951557E+00
 0.7409607574845E+00
 0.5699336607936E+00
 0.3679506436759E+00
 0.1321979013560E+00
-0.1388709536551E+00
-0.4435395988899E+00
-0.7754124856807E+00
-0.1121550507196E+01
 0.1563123342332E+01
 0.1542374024551E+01
 0.1521212005530E+01
 0.1500494936467E+01
 0.1481043717466E+01
 0.1463505172067E+01
 0.1448298188246E+01
 0.1435624094150E+01
 0.1425509238023E+01
 0.1417854038995E+01
 0.1412473876569E+01
 0.1409126336350E+01
 0.1407525173079E+01
 0.1407344004950E+01
 0.1408213522796E+01
 0.1409716084698E+01
 0.1411386434403E+01
 0.1412725941738E+01
 0.1413206798803E+01
 0.1412256794990E+01
 0.1409245912366E+01
 0.1403474853804E+01
 0.1394161054467E+01
 0.1380421135584E+01
 0.1361250670377E+01
 0.1335503651854E+01
 0.1301873422712E+01
 0.1258858678147E+01
 0.1204717726787E+01
 0.1137451168887E+01
 0.1054805818715E+01
 0.9542897995450E+00
 0.8332244181737E+00
 0.6888526378537E+00
 0.5185141277229E+00
 0.3198386840972E+00
 0.9087133247930E-01
-0.1690943021205E+00
-0.4578533923655E+00
-0.7691864158838E+00
-0.1091034696437E+01
 0.1561683776848E+01
 0.1541831299861E+01
 0.1521648099056E+01
 0.1501873314086E+01
 0.1483223720980E+01
 0.1466278798704E+01
 0.1451428930052E+01
 0.1438875894637E+01
 0.1428662425594E+01
 0.1420710335876E+01
 0.1414854423523E+01
 0.1410866449060E+01
 0.1408468508551E+01
 0.1407337729024E+01
 0.1407105162209E+01
 0.1407352047762E+01
 0.1407611184654E+01
 0.1407379857153E+01
 0.1406122827308E+01
 0.1403257584140E+01
 0.1398141814497E+01
 0.1390063065892E+01
 0.1378226658706E+01
 0.1361740851863E+01
 0.1339599910759E+01
 0.1310667476705E+01
 0.1273662060201E+01
 0.1227130194947E+01
 0.1169410848198E+01
 0.1098628494198E+01
 0.1012709041455E+01
 0.9094098632957E+00
 0.7863868588155E+00
 0.6413150095623E+00
 0.4720677132851E+00
 0.2769035794357E+00
 0.5457115248733E-01
-0.1949896252106E+00
-0.4692662964017E+00
-0.7622508884515E+00
-0.1064443180449E+01
 0.1560382555290E+01
 0.1541340108505E+01
 0.1522029215900E+01
 0.1503093129327E+01
 0.1485161481088E+01
 0.1468754153685E+01
 0.1454232931898E+01
 0.1441795515485E+01
 0.1431495210013E+01
 0.1423270131665E+01
 0.1416970973175E+01
 0.1412381773245E+01
 0.1409232367116E+01
 0.1407203617073E+01
 0.1405927530792E+01
 0.1404984827395E+01
 0.1403906764243E+01
 0.1402186841472E+01
 0.1399282936809E+01
 0.1394603343061E+01
 0.1387495271765E+01
 0.1377235677526E+01
 0.1363020974996E+01
 0.1343954751284E+01
 0.1319033968705E+01
 0.1287136090160E+01
 0.1247008985632E+01
 0.1197250892929E+01
 0.1136284229902E+01
 0.1062357852916E+01
 0.9735730189046E+00
 0.8679252296535E+00
 0.7433820193066E+00
 0.5980098363199E+00
 0.4301510960696E+00
 0.2385981493614E+00
 0.2267325152873E-01
-0.2171908273267E+00
-0.4782856808716E+00
-0.7550528539718E+00
-0.1039467165862E+01
 0.1559199279613E+01
 0.1540890757264E+01
 0.1522359775297E+01
 0.1504171659773E+01
 0.1486883028830E+01
 0.1470961356768E+01
 0.1456740719445E+01
 0.1444411732523E+01
 0.1434033834637E+01
 0.1425557274731E+01
 0.1418845571257E+01
 0.1413693251403E+01
 0.1409837184866E+01
 0.1406961999762E+01
 0.1404701056586E+01
 0.1402635017727E+01
 0.1400293968014E+01
 0.1397167976336E+01
 0.1392708643352E+01
 0.1386316152954E+01
 0.1377328913124E+01
 0.1365015554329E+01
 0.1348566367284E+01
 0.1327083412961E+01
 0.1299569692132E+01
 0.1264919851395E+01
 0.1221914294614E+01
 0.1169205531645E+01
 0.1105300589207E+01
 0.1028571254755E+01
 0.9372882387402E+00
 0.8296720741071E+00
 0.7039779299683E+00
 0.5586243908277E+00
 0.3923637246706E+00
 0.2044395481587E+00
-0.5360265681061E-02
-0.2362253193305E+00
-0.4853609551326E+00
-0.7476310114323E+00
-0.1015952374693E+01
 0.1558118203082E+01
 0.1540476005717E+01
 0.1522643962629E+01
 0.1505123825726E+01
 0.1488410968275E+01
 0.1472926999841E+01
 0.1458979784113E+01
 0.1446750985119E+01
 0.1436302842044E+01
 0.1427594364938E+01
 0.1420499267046E+01
 0.1414820918948E+01
 0.1410302474311E+01
 0.1406632218489E+01
 0.1403445107981E+01
 0.1400322100650E+01
 0.1396792438633E+01
 0.1392343135668E+01
 0.1386420148526E+01
 0.1378416597635E+01
 0.1367663606675E+01
 0.1353423472837E+01
 0.1334882746063E+01
 0.1311144596095E+01
 0.1281220777718E+01
 0.1244025718989E+01
 0.1198374587297E+01
 0.1142975559028E+01
 0.1076420003986E+01
 0.9971995632922E+00
 0.9037468487789E+00
 0.7944930212376E+00
 0.6679566395103E+00
 0.5228710432371E+00
 0.3583449804873E+00
 0.1740021000627E+00
-0.2999204688671E-01
-0.2525429439502E+00
-0.4908318234023E+00
-0.7400807668013E+00
-0.9938879301327E+00
 0.1557127304305E+01
 0.1540090623845E+01
 0.1522885838920E+01
 0.1505962663836E+01
 0.1489765047363E+01
 0.1474674616579E+01
 0.1460974869573E+01
 0.1448837489288E+01
 0.1438325067181E+01
 0.1429402685354E+01
 0.1421952028435E+01
 0.1415783830011E+01
 0.1410646773310E+01
 0.1406232598250E+01
 0.1402177983159E+01
 0.1398064440994E+01
 0.1393420659253E+01
 0.1387730975402E+01
 0.1380436335278E+01
 0.1370923781334E+01
 0.1358518517642E+01
 0.1342478235497E+01
 0.1321987754987E+01
 0.1296153512181E+01
 0.1263998145164E+01
 0.1224457748779E+01
 0.1176383616641E+01
 0.1118539937793E+01
 0.1049600934523E+01
 0.9681736982926E+00
 0.8728439548033E+00
 0.7622383219531E+00
 0.6351148395629E+00
 0.4904866231644E+00
 0.3277711531896E+00
 0.1469112893644E+00
-0.5162209411138E-01
-0.2665217803827E+00
-0.4949789831532E+00
-0.7325200346445E+00
-0.9732914188670E+00
 0.1556217544344E+01
 0.1539731015669E+01
 0.1523089391591E+01
 0.1506699676340E+01
 0.1490962607375E+01
 0.1476225073567E+01
 0.1462748228571E+01
 0.1450693356070E+01
 0.1440121652448E+01
 0.1431002158806E+01
 0.1423222677504E+01
 0.1416599996744E+01
 0.1410887600470E+01
 0.1405780421462E+01
 0.1400916897728E+01
 0.1395879280412E+01
 0.1390195948035E+01
 0.1383348929027E+01
 0.1374774772171E+01
 0.1363855354914E+01
 0.1349911172056E+01
 0.1332196786877E+01
 0.1309896953276E+01
 0.1282123086969E+01
 0.1247910293671E+01
 0.1206217562895E+01
 0.1155932890262E+01
 0.1095875897580E+01
 0.1024801129284E+01
 0.9414256636694E+00
 0.8444786713763E+00
 0.7327667096173E+00
 0.6052641389163E+00
 0.4612314770007E+00
 0.3003525835746E+00
 0.1228377339918E+00
-0.7059590852618E-01
-0.2784821041502E+00
-0.4980418701029E+00
-0.7250666610579E+00
-0.9541705854825E+00
 0.1555382265639E+01
 0.1539394898819E+01
 0.1523258546994E+01
 0.1507345088077E+01
 0.1492018936655E+01
 0.1477596894412E+01
 0.1464319849644E+01
 0.1452338708703E+01
 0.1441712077262E+01
 0.1432411323525E+01
 0.1424328843035E+01
 0.1417286340499E+01
 0.1411041416849E+01
 0.1405291903620E+01
 0.1399677971813E+01
 0.1393782730919E+01
 0.1387134454531E+01
 0.1379213207792E+01
 0.1369451724087E+01
 0.1357227548267E+01
 0.1341857524188E+01
 0.1322594329488E+01
 0.1298623992546E+01
 0.1269064210674E+01
 0.1232963638833E+01
 0.1189304787981E+01
 0.1137012224460E+01
 0.1074959613747E+01
 0.1001978420823E+01
 0.9168894176801E+00
 0.8185549595039E+00
 0.7059459981169E+00
 0.5782310692077E+00
 0.4348883886443E+00
 0.2758308291309E+00
 0.1014921339429E+00
-0.8721211859893E-01
-0.2886972255512E+00
-0.5002263455042E+00
-0.7178266758305E+00
-0.9365218755577E+00
 0.1554616702080E+01
 0.1539081031482E+01
 0.1523397158639E+01
 0.1507908035002E+01
 0.1492947548829E+01
 0.1478806527317E+01
 0.1465707654915E+01
 0.1453791794417E+01
 0.1443114196510E+01
 0.1433647323059E+01
 0.1425286926785E+01
 0.1417858653256E+01
 0.1411123593624E+01
 0.1404782171302E+01
 0.1398476217518E+01
 0.1391789768737E+01
 0.1384251157837E+01
 0.1375338804599E+01
 0.1364482167736E+01
 0.1351055207013E+01
 0.1334372025929E+01
 0.1313684437706E+01
 0.1288180786736E+01
 0.1256985975141E+01
 0.1219162828507E+01
 0.1173717461333E+01
 0.1119610250130E+01
 0.1055766815057E+01
 0.9810914194789E+00
 0.8945016023891E+00
 0.7949822840820E+00
 0.6816534728617E+00
 0.5538569066871E+00
 0.4112614126332E+00
 0.2539760343475E+00
 0.8262080784584E-01
-0.1017290468432E+00
-0.2974013372974E+00
-0.5017090155461E+00
-0.7108911217877E+00
-0.9203332598882E+00
 0.1553917577142E+01
 0.1538788979512E+01
 0.1523508980578E+01
 0.1508396701748E+01
 0.1493760401494E+01
 0.1479868565272E+01
 0.1466927671053E+01
 0.1455069088364E+01
 0.1444344283658E+01
 0.1434725906549E+01
 0.1426112080694E+01
 0.1418331567755E+01
 0.1411148385252E+01
 0.1404265242792E+01
 0.1397325527300E+01
 0.1389914228829E+01
 0.1381559866353E+01
 0.1371739500727E+01
 0.1359879810600E+01
 0.1345351831875E+01
 0.1327467696583E+01
 0.1305479168453E+01
 0.1278577673938E+01
 0.1245895896813E+01
 0.1206511036625E+01
 0.1159452404290E+01
 0.1103714871083E+01
 0.1038273323551E+01
 0.9621001131984E+00
 0.8742021494963E+00
 0.7736761205241E+00
 0.6597761217179E+00
 0.5319973659985E+00
 0.3901746922881E+00
 0.2345845188531E+00
 0.6600177274976E-01
-0.1143701363290E+00
-0.3047953224519E+00
-0.5026407571476E+00
-0.7043363093677E+00
-0.9055874710464E+00
 0.1553282772611E+01
 0.1538518917755E+01
 0.1523597632431E+01
 0.1508818421290E+01
 0.1494468067957E+01
 0.1480795926720E+01
 0.1467994175898E+01
 0.1456185388343E+01
 0.1445417075505E+01
 0.1435661436187E+01
 0.1426818192619E+01
 0.1418718534887E+01
 0.1411128907553E+01
 0.1403754011390E+01
 0.1396238663595E+01
 0.1388168800341E+01
 0.1379073218946E+01
 0.1368427874664E+01
 0.1355657112106E+01
 0.1340129619359E+01
 0.1321156191700E+01
 0.1297989167374E+01
 0.1269823569038E+01
 0.1235800124550E+01
 0.1195010234217E+01
 0.1146505562736E+01
 0.1089313675996E+01
 0.1022455530509E+01
 0.9449663822819E+00
 0.8559347787857E+00
 0.7545583374339E+00
 0.6402107441425E+00
 0.5125222137562E+00
 0.3714713073511E+00
 0.2174765911273E+00
 0.5144135078360E-01
-0.1253283839446E+00
-0.3110513000645E+00
-0.5031498932435E+00
-0.6982253451592E+00
-0.8922645779373E+00
 0.1552711054502E+01
 0.1538271460648E+01
 0.1523666560449E+01
 0.1509179746465E+01
 0.1495079871916E+01
 0.1481600003383E+01
 0.1468919823328E+01
 0.1457153899760E+01
 0.1446345816376E+01
 0.1436466899393E+01
 0.1427417878554E+01
 0.1419031807026E+01
 0.1411077120122E+01
 0.1403260231319E+01
 0.1395227249866E+01
 0.1386565023035E+01
 0.1376802687269E+01
 0.1365415312369E+01
 0.1351825306061E+01
 0.1335399502546E+01
 0.1315447869748E+01
 0.1291223769439E+01
 0.1261926106219E+01
 0.1226703631538E+01
 0.1184661437188E+01
 0.1134872314949E+01
 0.1076394305659E+01
 0.1008290812853E+01
 0.9296544377257E+00
 0.8396474044033E+00
 0.7375574788884E+00
 0.6228639706194E+00
 0.4953148390244E+00
 0.3550121804486E+00
 0.2024945927950E+00
 0.3877126426534E-01
-0.1347699817738E+00
-0.3163163199363E+00
-0.5033450534719E+00
-0.6926099870474E+00
-0.8803437797297E+00
 0.1552201845886E+01
 0.1538047518040E+01
 0.1523718997644E+01
 0.1509486500649E+01
 0.1495603992871E+01
 0.1482290780809E+01
 0.1469715748873E+01
 0.1457986310785E+01
 0.1447142300260E+01
 0.1437153923747E+01
 0.1427922479619E+01
 0.1419282426153E+01
 0.1411003812470E+01
 0.1402794506071E+01
 0.1394301763076E+01
 0.1385113284684E+01
 0.1374758578980E+01
 0.1362712018399E+01
 0.1348394423457E+01
 0.1331171190987E+01
 0.1310351855601E+01
 0.1285191093009E+01
 0.1254891770522E+01
 0.1218610390687E+01
 0.1175464930647E+01
 0.1124547747352E+01
 0.1064944777518E+01
 0.9957578944532E+00
 0.9161311915797E+00
 0.8252924628522E+00
 0.7226089667798E+00
 0.6076522188851E+00
 0.4802718089375E+00
 0.3406750623968E+00
 0.1895011716002E+00
 0.2784616440267E-01
-0.1428373308162E+00
-0.3207154235837E+00
-0.5033176988947E+00
-0.6875324166030E+00
-0.8698046445558E+00
 0.1551755038609E+01
 0.1537848172909E+01
 0.1523757925010E+01
 0.1509743813102E+01
 0.1496047548410E+01
 0.1482876936287E+01
 0.1470391658418E+01
 0.1458692857952E+01
 0.1447816909872E+01
 0.1437732793186E+01
 0.1428342062418E+01
 0.1419480215725E+01
 0.1410918593309E+01
 0.1402366278940E+01
 0.1393471527547E+01
 0.1383822819351E+01
 0.1372950041588E+01
 0.1360327027360E+01
 0.1345373314920E+01
 0.1327453208819E+01
 0.1305876099931E+01
 0.1279898126530E+01
 0.1248726017762E+01
 0.1211523533073E+01
 0.1167420469771E+01
 0.1115526898937E+01
 0.1054953769677E+01
 0.9848371568170E+00
 0.9043665672047E+00
 0.8128271751422E+00
 0.7096552407455E+00
 0.5945016084912E+00
 0.4673024308550E+00
 0.3283536094491E+00
 0.1783777743254E+00
 0.1854153839448E-01
-0.1496515461519E+00
-0.3243541968708E+00
-0.5031442986813E+00
-0.6830267961194E+00
-0.8606279305088E+00
 0.1551370837721E+01
 0.1537674578275E+01
 0.1523786035229E+01
 0.1509956143114E+01
 0.1496416658166E+01
 0.1483365917944E+01
 0.1470955902054E+01
 0.1459282382670E+01
 0.1448378651980E+01
 0.1438212464332E+01
 0.1428685421633E+01
 0.1419633775429E+01
 0.1410829882440E+01
 0.1401983825498E+01
 0.1392744710071E+01
 0.1382701706413E+01
 0.1371385066665E+01
 0.1358268215244E+01
 0.1342769672148E+01
 0.1324252930353E+01
 0.1302027433749E+01
 0.1275350807154E+01
 0.1243433382253E+01
 0.1205445489107E+01
 0.1160527457315E+01
 0.1107804975257E+01
 0.1046410866565E+01
 0.9755109034403E+00
 0.8943337566697E+00
 0.8022137540524E+00
 0.6986458504993E+00
 0.5833478510481E+00
 0.4563283371138E+00
 0.3179565601921E+00
 0.1690233472503E+00
 0.1075194698516E-01
-0.1553145387677E+00
-0.3273208946214E+00
-0.5028881713198E+00
-0.6791205734114E+00
-0.8527961323233E+00
 0.1551049633735E+01
 0.1537527871077E+01
 0.1523805699788E+01
 0.1510127296077E+01
 0.1496716493230E+01
 0.1483764008150E+01
 0.1471415534918E+01
 0.1459762379143E+01
 0.1448835188592E+01
 0.1438600582086E+01
 0.1428960083925E+01
 0.1419750478057E+01
 0.1410744904745E+01
 0.1401654247725E+01
 0.1392128316130E+01
 0.1381756870185E+01
 0.1370070494155E+01
 0.1356542310227E+01
 0.1340590047810E+01
 0.1321576612506E+01
 0.1298811617426E+01
 0.1271554090696E+01
 0.1239017571868E+01
 0.1200378112216E+01
 0.1154785097996E+01
 0.1101377532939E+01
 0.1039306768458E+01
 0.9677635818123E+00
 0.8860094317847E+00
 0.7934195659993E+00
 0.6895375129313E+00
 0.5741361299786E+00
 0.4472831042632E+00
 0.3094070159322E+00
 0.1613532308452E+00
 0.4389553171972E-02
-0.1599107357997E+00
-0.3296881955626E+00
-0.5026010136018E+00
-0.6758355475791E+00
-0.8462938392021E+00
 0.1550791898978E+01
 0.1537409101264E+01
 0.1523818940107E+01
 0.1510260433846E+01
 0.1496951313973E+01
 0.1484076373747E+01
 0.1471776366589E+01
 0.1460139034266E+01
 0.1449192863788E+01
 0.1438903493868E+01
 0.1429172312419E+01
 0.1419836467897E+01
 0.1410669685851E+01
 0.1401383469532E+01
 0.1391628187048E+01
 0.1380994079972E+01
 0.1369012016556E+01
 0.1355154902579E+01
 0.1338839873415E+01
 0.1319429423532E+01
 0.1296233383668E+01
 0.1268512012425E+01
 0.1235481550080E+01
 0.1196322784913E+01
 0.1150192530043E+01
 0.1096240635708E+01
 0.1033633466881E+01
 0.9615819666999E+00
 0.8793739144716E+00
 0.7864172555916E+00
 0.6822941441462E+00
 0.5668209806721E+00
 0.4401119154043E+00
 0.3026418259200E+00
 0.1552982361348E+00
-0.6170892002338E-03
-0.1635084852471E+00
-0.3315146324271E+00
-0.5023241465952E+00
-0.6731887195787E+00
-0.8411079733302E+00
 0.1550598105078E+01
 0.1537319174660E+01
 0.1523827403097E+01
 0.1510358081148E+01
 0.1497124498548E+01
 0.1484307105133E+01
 0.1472043000329E+01
 0.1460417260002E+01
 0.1449456726084E+01
 0.1439126262025E+01
 0.1429327111196E+01
 0.1419896660111E+01
 0.1410609049090E+01
 0.1401176233440E+01
 0.1391248997921E+01
 0.1380417950398E+01
 0.1368214182754E+01
 0.1354110453385E+01
 0.1337523474790E+01
 0.1317815467611E+01
 0.1294296473973E+01
 0.1266227738297E+01
 0.1232827604700E+01
 0.1193280507194E+01
 0.1146748934192E+01
 0.1092390982819E+01
 0.1029384387752E+01
 0.9569553078891E+00
 0.8744113113493E+00
 0.7811848395985E+00
 0.6768868746658E+00
 0.5613661795087E+00
 0.4347712717988E+00
 0.2976110772909E+00
 0.1508038917113E+00
-0.4324011537958E-02
-0.1661611800627E+00
-0.3328457330575E+00
-0.5020895066191E+00
-0.6711929571466E+00
-0.8372279408371E+00
 0.1550468659378E+01
 0.1537258808490E+01
 0.1523832341393E+01
 0.1510422129345E+01
 0.1497238563820E+01
 0.1484459245774E+01
 0.1472218863253E+01
 0.1460600718694E+01
 0.1449630546288E+01
 0.1439272674086E+01
 0.1429428229363E+01
 0.1419934740703E+01
 0.1410566613438E+01
 0.1401036098187E+01
 0.1390994256157E+01
 0.1380031941860E+01
 0.1367680401317E+01
 0.1353412301824E+01
 0.1336644084826E+01
 0.1316737804939E+01
 0.1293003668217E+01
 0.1264703606294E+01
 0.1231057403085E+01
 0.1191251967233E+01
 0.1144453620473E+01
 0.1089826010720E+01
 0.1026554503877E+01
 0.9538754450845E+00
 0.8711096165843E+00
 0.7777057757998E+00
 0.6732940543028E+00
 0.5577446481915E+00
 0.4312287580581E+00
 0.2942776888882E+00
 0.1478298521995E+00
-0.6772590337837E-02
-0.1679081282579E+00
-0.3337149008024E+00
-0.5019204069372E+00
-0.6698574968334E+00
-0.8346457298459E+00
 0.1550403858596E+01
 0.1537228498740E+01
 0.1523834598418E+01
 0.1510453838516E+01
 0.1497295180010E+01
 0.1484534813333E+01
 0.1472306228241E+01
 0.1460691841705E+01
 0.1449716830868E+01
 0.1439345250629E+01
 0.1429478164372E+01
 0.1419953166760E+01
 0.1410544792188E+01
 0.1400965437100E+01
 0.1390866300511E+01
 0.1379838360981E+01
 0.1367412943114E+01
 0.1353062670808E+01
 0.1336203853256E+01
 0.1316198467038E+01
 0.1292356807084E+01
 0.1263941157638E+01
 0.1230172033681E+01
 0.1190237594379E+01
 0.1143306093017E+01
 0.1088543968669E+01
 0.1025140418125E+01
 0.9523368921504E+00
 0.8694607862290E+00
 0.7759690109832E+00
 0.6715012516730E+00
 0.5559383781606E+00
 0.4294628638607E+00
 0.2926171078790E+00
 0.1463494608901E+00
-0.7990105138156E-02
-0.1687751889693E+00
-0.3341440562233E+00
-0.5018320906609E+00
-0.6691883038407E+00
-0.8333559707744E+00
 0.1550403858568E+01
 0.1537228498712E+01
 0.1523834598390E+01
 0.1510453838488E+01
 0.1497295179982E+01
 0.1484534813304E+01
 0.1472306228212E+01
 0.1460691841676E+01
 0.1449716830840E+01
 0.1439345250601E+01
 0.1429478164345E+01
 0.1419953166735E+01
 0.1410544792166E+01
 0.1400965437082E+01
 0.1390866300498E+01
 0.1379838360974E+01
 0.1367412943115E+01
 0.1353062670818E+01
 0.1336203853277E+01
 0.1316198467071E+01
 0.1292356807132E+01
 0.1263941157703E+01
 0.1230172033764E+01
 0.1190237594482E+01
 0.1143306093142E+01
 0.1088543968818E+01
 0.1025140418298E+01
 0.9523368923487E+00
 0.8694607864515E+00
 0.7759690112274E+00
 0.6715012519351E+00
 0.5559383784344E+00
 0.4294628641375E+00
 0.2926171081480E+00
 0.1463494611376E+00
-0.7990104928069E-02
-0.1687751888143E+00
-0.3341440561408E+00
-0.5018320906686E+00
-0.6691883039548E+00
-0.8333559710055E+00
 0.1550468659291E+01
 0.1537258808405E+01
 0.1523832341308E+01
 0.1510422129261E+01
 0.1497238563734E+01
 0.1484459245688E+01
 0.1472218863166E+01
 0.1460600718607E+01
 0.1449630546202E+01
 0.1439272674002E+01
 0.1429428229283E+01
 0.1419934740629E+01
 0.1410566613373E+01
 0.1401036098134E+01
 0.1390994256119E+01
 0.1380031941840E+01
 0.1367680401321E+01
 0.1353412301855E+01
 0.1336644084889E+01
 0.1316737805039E+01
 0.1293003668361E+01
 0.1264703606486E+01
 0.1231057403333E+01
 0.1191251967542E+01
 0.1144453620848E+01
 0.1089826011167E+01
 0.1026554504398E+01
 0.9538754456800E+00
 0.8711096172524E+00
 0.7777057765334E+00
 0.6732940550901E+00
 0.5577446490138E+00
 0.4312287588897E+00
 0.2942776896963E+00
 0.1478298529435E+00
-0.6772589705464E-02
-0.1679081277898E+00
-0.3337149005529E+00
-0.5019204069593E+00
-0.6698574971734E+00
-0.8346457305388E+00
 0.1550598104934E+01
 0.1537319174518E+01
 0.1523827402956E+01
 0.1510358081006E+01
 0.1497124498406E+01
 0.1484307104989E+01
 0.1472043000184E+01
 0.1460417259857E+01
 0.1449456725940E+01
 0.1439126261884E+01
 0.1429327111062E+01
 0.1419896659988E+01
 0.1410609048981E+01
 0.1401176233351E+01
 0.1391248997857E+01
 0.1380417950365E+01
 0.1368214182759E+01
 0.1354110453435E+01
 0.1337523474894E+01
 0.1317815467778E+01
 0.1294296474212E+01
 0.1266227738618E+01
 0.1232827605113E+01
 0.1193280507709E+01
 0.1146748934818E+01
 0.1092390983564E+01
 0.1029384388621E+01
 0.9569553088832E+00
 0.8744113124647E+00
 0.7811848408239E+00
 0.6768868759811E+00
 0.5613661808835E+00
 0.4347712731904E+00
 0.2976110786443E+00
 0.1508038929582E+00
-0.4324010476947E-02
-0.1661611792749E+00
-0.3328457326353E+00
-0.5020895066514E+00
-0.6711929577114E+00
-0.8372279419936E+00
 0.1550791898776E+01
 0.1537409101066E+01
 0.1523818939910E+01
 0.1510260433648E+01
 0.1496951313773E+01
 0.1484076373545E+01
 0.1471776366385E+01
 0.1460139034062E+01
 0.1449192863587E+01
 0.1438903493671E+01
 0.1429172312232E+01
 0.1419836467724E+01
 0.1410669685698E+01
 0.1401383469407E+01
 0.1391628186958E+01
 0.1380994079925E+01
 0.1369012016563E+01
 0.1355154902650E+01
 0.1338839873560E+01
 0.1319429423765E+01
 0.1296233384002E+01
 0.1268512012874E+01
 0.1235481550658E+01
 0.1196322785634E+01
 0.1150192530919E+01
 0.1096240636752E+01
 0.1033633468099E+01
 0.9615819680939E+00
 0.8793739160368E+00
 0.7864172573127E+00
 0.6822941459953E+00
 0.5668209826066E+00
 0.4401119173644E+00
 0.3026418278283E+00
 0.1552982378956E+00
-0.6170876981808E-03
-0.1635084841281E+00
-0.3315146318217E+00
-0.5023241466301E+00
-0.6731887203658E+00
-0.8411079749531E+00
 0.1551049633476E+01
 0.1537527870822E+01
 0.1523805699534E+01
 0.1510127295823E+01
 0.1496716492973E+01
 0.1483764007890E+01
 0.1471415534656E+01
 0.1459762378880E+01
 0.1448835188332E+01
 0.1438600581832E+01
 0.1428960083684E+01
 0.1419750477833E+01
 0.1410744904548E+01
 0.1401654247563E+01
 0.1392128316013E+01
 0.1381756870124E+01
 0.1370070494163E+01
 0.1356542310317E+01
 0.1340590047995E+01
 0.1321576612804E+01
 0.1298811617854E+01
 0.1271554091271E+01
 0.1239017572609E+01
 0.1200378113142E+01
 0.1154785099124E+01
 0.1101377534282E+01
 0.1039306770026E+01
 0.9677635836091E+00
 0.8860094338036E+00
 0.7934195682214E+00
 0.6895375153214E+00
 0.5741361324822E+00
 0.4472831068040E+00
 0.3094070184098E+00
 0.1613532331359E+00
 0.4389555131015E-02
-0.1599107343336E+00
-0.3296881947603E+00
-0.5026010136300E+00
-0.6758355485841E+00
-0.8462938412943E+00
 0.1551370837404E+01
 0.1537674577963E+01
 0.1523786034919E+01
 0.1509956142803E+01
 0.1496416657851E+01
 0.1483365917627E+01
 0.1470955901733E+01
 0.1459282382348E+01
 0.1448378651661E+01
 0.1438212464021E+01
 0.1428685421337E+01
 0.1419633775155E+01
 0.1410829882198E+01
 0.1401983825299E+01
 0.1392744709926E+01
 0.1382701706337E+01
 0.1371385066673E+01
 0.1358268215351E+01
 0.1342769672373E+01
 0.1324252930715E+01
 0.1302027434270E+01
 0.1275350807856E+01
 0.1243433383158E+01
 0.1205445490238E+01
 0.1160527458692E+01
 0.1107804976900E+01
 0.1046410868485E+01
 0.9755109056426E+00
 0.8943337591470E+00
 0.8022137567824E+00
 0.6986458534400E+00
 0.5833478541335E+00
 0.4563283402506E+00
 0.3179565632575E+00
 0.1690233500921E+00
 0.1075194942390E-01
-0.1553145369330E+00
-0.3273208936038E+00
-0.5028881713280E+00
-0.6791205746296E+00
-0.8527961348909E+00
 0.1551755038235E+01
 0.1537848172540E+01
 0.1523757924642E+01
 0.1509743812733E+01
 0.1496047548038E+01
 0.1482876935911E+01
 0.1470391658038E+01
 0.1458692857571E+01
 0.1447816909494E+01
 0.1437732792817E+01
 0.1428342062066E+01
 0.1419480215400E+01
 0.1410918593021E+01
 0.1402366278702E+01
 0.1393471527374E+01
 0.1383822819259E+01
 0.1372950041594E+01
 0.1360327027484E+01
 0.1345373315183E+01
 0.1327453209244E+01
 0.1305876100544E+01
 0.1279898127357E+01
 0.1248726018830E+01
 0.1211523534409E+01
 0.1167420471400E+01
 0.1115526900881E+01
 0.1054953771951E+01
 0.9848371594288E+00
 0.9043665701467E+00
 0.8128271783890E+00
 0.7096552442485E+00
 0.5945016121735E+00
 0.4673024346069E+00
 0.3283536131253E+00
 0.1783777777440E+00
 0.1854154134005E-01
-0.1496515439217E+00
-0.3243541956143E+00
-0.5031442986524E+00
-0.6830267975437E+00
-0.8606279335572E+00
 0.1552201845453E+01
 0.1538047517613E+01
 0.1523718997219E+01
 0.1509486500223E+01
 0.1495603992441E+01
 0.1482290780374E+01
 0.1469715748433E+01
 0.1457986310343E+01
 0.1447142299822E+01
 0.1437153923319E+01
 0.1427922479211E+01
 0.1419282425775E+01
 0.1411003812135E+01
 0.1402794505794E+01
 0.1394301762874E+01
 0.1385113284575E+01
 0.1374758578984E+01
 0.1362712018538E+01
 0.1348394423757E+01
 0.1331171191474E+01
 0.1310351856304E+01
 0.1285191093960E+01
 0.1254891771751E+01
 0.1218610392226E+01
 0.1175464932526E+01
 0.1124547749597E+01
 0.1064944780149E+01
 0.9957578974784E+00
 0.9161311949928E+00
 0.8252924666255E+00
 0.7226089708590E+00
 0.6076522231827E+00
 0.4802718133276E+00
 0.3406750667108E+00
 0.1895011756261E+00
 0.2784616788797E-01
-0.1428373281579E+00
-0.3207154220592E+00
-0.5033176988080E+00
-0.6875324182246E+00
-0.8698046480918E+00
 0.1552711054011E+01
 0.1538271460164E+01
 0.1523666559967E+01
 0.1509179745981E+01
 0.1495079871427E+01
 0.1481600002888E+01
 0.1468919822827E+01
 0.1457153899258E+01
 0.1446345815877E+01
 0.1436466898905E+01
 0.1427417878088E+01
 0.1419031806594E+01
 0.1411077119739E+01
 0.1403260231002E+01
 0.1395227249633E+01
 0.1386565022907E+01
 0.1376802687269E+01
 0.1365415312523E+01
 0.1351825306396E+01
 0.1335399503093E+01
 0.1315447870541E+01
 0.1291223770512E+01
 0.1261926107608E+01
 0.1226703633280E+01
 0.1184661439318E+01
 0.1134872317497E+01
 0.1076394308649E+01
 0.1008290816297E+01
 0.9296544416175E+00
 0.8396474087145E+00
 0.7375574835595E+00
 0.6228639755532E+00
 0.4953148440790E+00
 0.3550121854324E+00
 0.2024945974652E+00
 0.3877126833037E-01
-0.1347699786476E+00
-0.3163163181092E+00
-0.5033450533015E+00
-0.6926099888552E+00
-0.8803437837608E+00
 0.1553282772061E+01
 0.1538518917214E+01
 0.1523597631892E+01
 0.1508818420749E+01
 0.1494468067410E+01
 0.1480795926165E+01
 0.1467994175337E+01
 0.1456185387779E+01
 0.1445417074944E+01
 0.1435661435638E+01
 0.1426818192094E+01
 0.1418718534400E+01
 0.1411128907121E+01
 0.1403754011030E+01
 0.1396238663330E+01
 0.1388168800192E+01
 0.1379073218941E+01
 0.1368427874830E+01
 0.1355657112474E+01
 0.1340129619965E+01
 0.1321156192580E+01
 0.1297989168567E+01
 0.1269823570586E+01
 0.1235800126495E+01
 0.1195010236598E+01
 0.1146505565588E+01
 0.1089313679348E+01
 0.1022455534377E+01
 0.9449663866610E+00
 0.8559347836476E+00
 0.7545583427151E+00
 0.6402107497366E+00
 0.5125222195058E+00
 0.3714713130418E+00
 0.2174765964845E+00
 0.5144135547403E-01
-0.1253283803048E+00
-0.3110512978930E+00
-0.5031498929592E+00
-0.6982253471399E+00
-0.8922645824729E+00
 0.1553917576535E+01
 0.1538788978913E+01
 0.1523508979982E+01
 0.1508396701149E+01
 0.1493760400887E+01
 0.1479868564656E+01
 0.1466927670430E+01
 0.1455069087737E+01
 0.1444344283034E+01
 0.1434725905939E+01
 0.1426112080110E+01
 0.1418331567213E+01
 0.1411148384769E+01
 0.1404265242389E+01
 0.1397325527000E+01
 0.1389914228658E+01
 0.1381559866340E+01
 0.1371739500903E+01
 0.1359879811000E+01
 0.1345351832537E+01
 0.1327467697548E+01
 0.1305479169765E+01
 0.1278577675643E+01
 0.1245895898958E+01
 0.1206511039255E+01
 0.1159452407447E+01
 0.1103714874800E+01
 0.1038273327847E+01
 0.9621001180741E+00
 0.8742021549229E+00
 0.7736761264352E+00
 0.6597761279991E+00
 0.5319973724778E+00
 0.3901746987284E+00
 0.2345845249464E+00
 0.6600177811983E-01
-0.1143701321205E+00
-0.3047953198872E+00
-0.5026407567129E+00
-0.7043363115047E+00
-0.9055874760969E+00
 0.1554616701414E+01
 0.1539081030825E+01
 0.1523397157985E+01
 0.1507908034344E+01
 0.1492947548163E+01
 0.1478806526641E+01
 0.1465707654229E+01
 0.1453791793726E+01
 0.1443114195822E+01
 0.1433647322386E+01
 0.1425286926140E+01
 0.1417858652656E+01
 0.1411123593088E+01
 0.1404782170854E+01
 0.1398476217183E+01
 0.1391789768543E+01
 0.1384251157815E+01
 0.1375338804783E+01
 0.1364482168165E+01
 0.1351055207728E+01
 0.1334372026976E+01
 0.1313684439134E+01
 0.1288180788596E+01
 0.1256985977484E+01
 0.1219162831385E+01
 0.1173717464795E+01
 0.1119610254214E+01
 0.1055766819788E+01
 0.9810914248608E+00
 0.8945016083955E+00
 0.7949822906450E+00
 0.6816534798600E+00
 0.5538569139352E+00
 0.4112614198709E+00
 0.2539760412338E+00
 0.8262081395791E-01
-0.1017290420026E+00
-0.2974013342806E+00
-0.5017090149170E+00
-0.7108911240613E+00
-0.9203332654645E+00
 0.1555382264914E+01
 0.1539394898104E+01
 0.1523258546282E+01
 0.1507345087361E+01
 0.1492018935929E+01
 0.1477596893673E+01
 0.1464319848895E+01
 0.1452338707948E+01
 0.1441712076510E+01
 0.1432411322787E+01
 0.1424328842328E+01
 0.1417286339840E+01
 0.1411041416260E+01
 0.1405291903126E+01
 0.1399677971440E+01
 0.1393782730699E+01
 0.1387134454497E+01
 0.1379213207982E+01
 0.1369451724542E+01
 0.1357227549033E+01
 0.1341857525315E+01
 0.1322594331029E+01
 0.1298623994558E+01
 0.1269064213214E+01
 0.1232963641960E+01
 0.1189304791749E+01
 0.1137012228914E+01
 0.1074959618919E+01
 0.1001978426722E+01
 0.9168894242829E+00
 0.8185549667424E+00
 0.7059460058651E+00
 0.5782310772676E+00
 0.4348883967336E+00
 0.2758308368740E+00
 0.1014921408684E+00
-0.8721211305289E-01
-0.2886972220156E+00
-0.5002263446288E+00
-0.7178266782151E+00
-0.9365218816720E+00
 0.1556217543559E+01
 0.1539731014895E+01
 0.1523089390820E+01
 0.1506699675565E+01
 0.1490962606588E+01
 0.1476225072766E+01
 0.1462748227757E+01
 0.1450693355249E+01
 0.1440121651629E+01
 0.1431002158002E+01
 0.1423222676732E+01
 0.1416599996024E+01
 0.1410887599826E+01
 0.1405780420919E+01
 0.1400916897315E+01
 0.1395879280163E+01
 0.1390195947987E+01
 0.1383348929220E+01
 0.1374774772650E+01
 0.1363855355728E+01
 0.1349911173260E+01
 0.1332196788528E+01
 0.1309896955437E+01
 0.1282123089704E+01
 0.1247910297045E+01
 0.1206217566968E+01
 0.1155932895089E+01
 0.1095875903199E+01
 0.1024801135710E+01
 0.9414256708858E+00
 0.8444786793163E+00
 0.7327667181513E+00
 0.6052641478356E+00
 0.4612314860016E+00
 0.3003525922470E+00
 0.1228377418126E+00
-0.7059590218910E-01
-0.2784821000155E+00
-0.4980418689196E+00
-0.7250666635232E+00
-0.9541705921471E+00
 0.1557127303460E+01
 0.1540090623013E+01
 0.1522885838091E+01
 0.1505962663001E+01
 0.1489765046514E+01
 0.1474674615714E+01
 0.1460974868693E+01
 0.1448837488400E+01
 0.1438325066294E+01
 0.1429402684483E+01
 0.1421952027597E+01
 0.1415783829229E+01
 0.1410646772607E+01
 0.1406232597655E+01
 0.1402177982705E+01
 0.1398064440715E+01
 0.1393420659188E+01
 0.1387730975595E+01
 0.1380436335778E+01
 0.1370923782193E+01
 0.1358518518919E+01
 0.1342478237255E+01
 0.1321987757294E+01
 0.1296153515108E+01
 0.1263998148782E+01
 0.1224457753158E+01
 0.1176383621843E+01
 0.1118539943864E+01
 0.1049600941489E+01
 0.9681737061407E+00
 0.8728439634716E+00
 0.7622383313113E+00
 0.6351148493935E+00
 0.4904866331440E+00
 0.3277711628722E+00
 0.1469112981735E+00
-0.5162208688417E-01
-0.2665217755549E+00
-0.4949789815876E+00
-0.7325200371534E+00
-0.9732914260952E+00
 0.1558118202177E+01
 0.1540476004826E+01
 0.1522643961741E+01
 0.1505123824830E+01
 0.1488410967364E+01
 0.1472926998911E+01
 0.1458979783166E+01
 0.1446750984162E+01
 0.1436302841087E+01
 0.1427594363998E+01
 0.1420499266141E+01
 0.1414820918101E+01
 0.1410302473548E+01
 0.1406632217842E+01
 0.1403445107481E+01
 0.1400322100337E+01
 0.1396792438549E+01
 0.1392343135858E+01
 0.1386420149043E+01
 0.1378416598535E+01
 0.1367663608022E+01
 0.1353423474699E+01
 0.1334882748513E+01
 0.1311144599210E+01
 0.1281220781579E+01
 0.1244025723673E+01
 0.1198374592875E+01
 0.1142975565558E+01
 0.1076420011502E+01
 0.9971995717906E+00
 0.9037468582042E+00
 0.7944930314612E+00
 0.6679566503087E+00
 0.5228710542686E+00
 0.3583449912719E+00
 0.1740021099664E+00
-0.2999203865560E-01
-0.2525429383198E+00
-0.4908318213672E+00
-0.7400807693078E+00
-0.9938879379372E+00
 0.1559199278647E+01
 0.1540890756314E+01
 0.1522359774350E+01
 0.1504171658817E+01
 0.1486883027856E+01
 0.1470961355772E+01
 0.1456740718429E+01
 0.1444411731495E+01
 0.1434033833609E+01
 0.1425557273720E+01
 0.1418845570282E+01
 0.1413693250489E+01
 0.1409837184042E+01
 0.1406961999059E+01
 0.1404701056040E+01
 0.1402635017378E+01
 0.1400293967907E+01
 0.1397167976520E+01
 0.1392708643883E+01
 0.1386316153892E+01
 0.1377328914536E+01
 0.1365015556290E+01
 0.1348566369873E+01
 0.1327083416262E+01
 0.1299569696232E+01
 0.1264919856382E+01
 0.1221914300570E+01
 0.1169205538639E+01
 0.1105300597284E+01
 0.1028571263922E+01
 0.9372882489524E+00
 0.8296720852401E+00
 0.7039779417956E+00
 0.5586244029926E+00
 0.3923637366586E+00
 0.2044395592772E+00
-0.5360256314213E-02
-0.2362253127693E+00
-0.4853609525233E+00
-0.7476310138796E+00
-0.1015952383086E+01
 0.1560382554263E+01
 0.1541340107496E+01
 0.1522029214893E+01
 0.1503093128310E+01
 0.1485161480050E+01
 0.1468754152622E+01
 0.1454232930812E+01
 0.1441795514385E+01
 0.1431495208911E+01
 0.1423270130581E+01
 0.1416970972128E+01
 0.1412381772262E+01
 0.1409232366228E+01
 0.1407203616312E+01
 0.1405927530197E+01
 0.1404984827007E+01
 0.1403906764110E+01
 0.1402186841647E+01
 0.1399282937350E+01
 0.1394603344033E+01
 0.1387495273239E+01
 0.1377235679581E+01
 0.1363020977719E+01
 0.1343954754765E+01
 0.1319033973041E+01
 0.1287136095450E+01
 0.1247008991967E+01
 0.1197250900390E+01
 0.1136284238549E+01
 0.1062357862772E+01
 0.9735730299342E+00
 0.8679252417419E+00
 0.7433820322287E+00
 0.5980098497066E+00
 0.4301511093746E+00
 0.2385981618317E+00
 0.2267326218356E-01
-0.2171908196827E+00
-0.4782856775629E+00
-0.7550528562912E+00
-0.1039467174855E+01
 0.1561683775760E+01
 0.1541831298791E+01
 0.1521648097989E+01
 0.1501873313006E+01
 0.1483223719877E+01
 0.1466278797573E+01
 0.1451428928894E+01
 0.1438875893463E+01
 0.1428662424418E+01
 0.1420710334716E+01
 0.1414854422403E+01
 0.1410866448007E+01
 0.1408468507595E+01
 0.1407337728202E+01
 0.1407105161560E+01
 0.1407352047332E+01
 0.1407611184492E+01
 0.1407379857315E+01
 0.1406122827855E+01
 0.1403257585141E+01
 0.1398141816028E+01
 0.1390063068037E+01
 0.1378226661557E+01
 0.1361740855521E+01
 0.1339599915328E+01
 0.1310667482293E+01
 0.1273662066913E+01
 0.1227130202880E+01
 0.1169410857426E+01
 0.1098628504761E+01
 0.1012709053334E+01
 0.9094098763881E+00
 0.7863868729023E+00
 0.6413150242675E+00
 0.4720677280333E+00
 0.2769035934125E+00
 0.5457116460584E-01
-0.1949896163057E+00
-0.4692662922423E+00
-0.7622508905597E+00
-0.1064443190051E+01
 0.1563123341182E+01
 0.1542374023422E+01
 0.1521212004403E+01
 0.1500494935324E+01
 0.1481043716296E+01
 0.1463505170865E+01
 0.1448298187015E+01
 0.1435624092900E+01
 0.1425509236769E+01
 0.1417854037758E+01
 0.1412473875372E+01
 0.1409126335223E+01
 0.1407525172054E+01
 0.1407344004065E+01
 0.1408213522092E+01
 0.1409716084222E+01
 0.1411386434209E+01
 0.1412725941883E+01
 0.1413206799352E+01
 0.1412256796016E+01
 0.1409245913949E+01
 0.1403474856033E+01
 0.1394161057441E+01
 0.1380421139411E+01
 0.1361250675173E+01
 0.1335503657737E+01
 0.1301873429801E+01
 0.1258858686554E+01
 0.1204717736605E+01
 0.1137451180174E+01
 0.1054805831474E+01
 0.9542898136908E+00
 0.8332244334995E+00
 0.6888526539822E+00
 0.5185141440547E+00
 0.3198386997566E+00
 0.9087134626496E-01
-0.1690942917441E+00
-0.4578533871722E+00
-0.7691864176752E+00
-0.1091034706678E+01
 0.1564727465002E+01
 0.1542980947426E+01
 0.1520716082474E+01
 0.1498937718495E+01
 0.1478591286813E+01
 0.1460399064508E+01
 0.1444806832393E+01
 0.1432008902332E+01
 0.1422007740146E+01
 0.1414676242703E+01
 0.1409806398091E+01
 0.1407139673595E+01
 0.1406381057357E+01
 0.1407201150767E+01
 0.1409231131042E+01
 0.1412055233443E+01
 0.1415210575299E+01
 0.1418202823441E+01
 0.1420512036362E+01
 0.1421577391336E+01
 0.1420783127180E+01
 0.1417445976699E+01
 0.1410799158477E+01
 0.1399971926464E+01
 0.1383965863510E+01
 0.1361630338078E+01
 0.1331638797493E+01
 0.1292447380285E+01
 0.1242238377097E+01
 0.1178891341334E+01
 0.1099972957270E+01
 0.1002733760632E+01
 0.8841396113615E+00
 0.7409607746883E+00
 0.5699336783946E+00
 0.3679506607659E+00
 0.1321979166482E+00
-0.1388709418539E+00
-0.4435395925878E+00
-0.7754124869489E+00
-0.1121550517826E+01
 0.1566529659538E+01
 0.1543668320077E+01
 0.1520154715217E+01
 0.1497177516217E+01
 0.1475831179001E+01
 0.1456921519595E+01
 0.1440917313680E+01
 0.1427996607863E+01
 0.1418128448056E+01
 0.1411150942945E+01
 0.1406828307869E+01
 0.1404883990748E+01
 0.1405014058467E+01
 0.1406886937348E+01
 0.1410135455791E+01
 0.1414346678187E+01
 0.1419060537219E+01
 0.1423787066182E+01
 0.1428014452921E+01
 0.1431194289267E+01
 0.1432727165618E+01
 0.1431949054437E+01
 0.1428113123930E+01
 0.1420366148051E+01
 0.1407721147499E+01
 0.1389028769192E+01
 0.1362948968104E+01
 0.1327902131414E+01
 0.1282001234566E+01
 0.1223010310255E+01
 0.1148318208772E+01
 0.1054913283344E+01
 0.9393885260242E+00
 0.7980023594940E+00
 0.6268147772509E+00
 0.4218589551484E+00
 0.1792748970175E+00
-0.1035599574134E+00
-0.4256825742700E+00
-0.7805463174208E+00
-0.1156151942962E+01
 0.1568572640335E+01
 0.1544456687724E+01
 0.1519520985264E+01
 0.1495185131056E+01
 0.1472721908211E+01
 0.1453028052305E+01
 0.1436588065921E+01
 0.1423550971907E+01
 0.1413840433215E+01
 0.1407251308677E+01
 0.1403515341803E+01
 0.1402336225705E+01
 0.1403401336091E+01
 0.1406378215028E+01
 0.1410902903228E+01
 0.1416566479272E+01
 0.1422912128313E+01
 0.1429454107757E+01
 0.1435688739148E+01
 0.1441080937181E+01
 0.1445049862738E+01
 0.1446954303541E+01
 0.1446072087742E+01
 0.1441573053516E+01
 0.1432487837839E+01
 0.1417675163097E+01
 0.1395789056240E+01
 0.1365222570819E+01
 0.1324028335775E+01
 0.1269863476773E+01
 0.1199945309952E+01
 0.1111000241380E+01
 0.9992360832714E+00
 0.8603639603875E+00
 0.6896930852934E+00
 0.4822622620345E+00
 0.2329467395967E+00
-0.6226266998704E-01
-0.4034274575860E+00
-0.7843977492393E+00
-0.1191855745936E+01
 0.1570910807731E+01
 0.1545371722105E+01
 0.1518805834874E+01
 0.1492924706990E+01
 0.1469214291170E+01
 0.1448667766058E+01
 0.1431773197739E+01
 0.1418633288707E+01
 0.1409111542551E+01
 0.1402949928904E+01
 0.1399842861798E+01
 0.1399472870963E+01
 0.1401519389286E+01
 0.1405650929414E+01
 0.1411508797201E+01
 0.1418689554305E+01
 0.1426740047414E+01
 0.1435178310366E+01
 0.1443508430316E+01
 0.1451209360259E+01
 0.1457721165882E+01
 0.1462429434286E+01
 0.1464641967102E+01
 0.1463557912564E+01
 0.1458232469387E+01
 0.1447540122941E+01
 0.1430137702811E+01
 0.1404401021705E+01
 0.1368333781139E+01
 0.1319498286120E+01
 0.1254951321684E+01
 0.1171163622613E+01
 0.1063952581179E+01
 0.9284532725347E+00
 0.7591518479910E+00
 0.5499475547472E+00
 0.2941918844458E+00
-0.1387988630044E-01
-0.3758241699132E+00
-0.7859449902644E+00
-0.1229223733968E+01
 0.1573613523673E+01
 0.1546445167610E+01
 0.1517996763962E+01
 0.1490351537013E+01
 0.1465249605042E+01
 0.1443782360477E+01
 0.1426422242460E+01
 0.1413202550691E+01
 0.1403908706012E+01
 0.1398219116561E+01
 0.1395786097740E+01
 0.1396270133853E+01
 0.1399344130747E+01
 0.1404680120825E+01
 0.1411927336057E+01
 0.1420689640685E+01
 0.1430517894455E+01
 0.1440933029241E+01
 0.1451446004835E+01
 0.1461550238978E+01
 0.1470709146555E+01
 0.1478339567673E+01
 0.1483785271254E+01
 0.1486281714638E+01
 0.1484916379089E+01
 0.1478588064114E+01
 0.1465966270442E+01
 0.1445421364774E+01
 0.1414922145417E+01
 0.1371952021306E+01
 0.1313423656226E+01
 0.1235565703602E+01
 0.1133809250952E+01
 0.1002694951617E+01
 0.8358211734353E+00
 0.6257957015894E+00
 0.3641518433369E+00
 0.4289186265882E-01
-0.3415764607660E+00
-0.7843301664668E+00
-0.1268439069053E+01
 0.1576769504413E+01
 0.1547715895821E+01
 0.1517075823118E+01
 0.1487409064379E+01
 0.1460757294919E+01
 0.1438305072350E+01
 0.1420480037616E+01
 0.1407215769688E+01
 0.1398198357883E+01
 0.1393031282265E+01
 0.1391320430470E+01
 0.1392704117707E+01
 0.1396850963336E+01
 0.1403439907796E+01
 0.1412131522354E+01
 0.1422539235333E+01
 0.1434218178292E+01
 0.1446690703387E+01
 0.1459473019509E+01
 0.1472073022783E+01
 0.1483980034328E+01
 0.1494647158933E+01
 0.1503460909295E+01
 0.1509700865295E+01
 0.1512495284767E+01
 0.1510776639845E+01
 0.1503238037278E+01
 0.1488257875326E+01
 0.1463786792220E+01
 0.1427249394700E+01
 0.1375436713517E+01
 0.1304357513367E+01
 0.1209072497690E+01
 0.1083524527461E+01
 0.9203739993660E+00
 0.7107882320347E+00
 0.4441483508943E+00
 0.1096425397080E+00
-0.2990983028266E+00
-0.7785084857289E+00
-0.1309662902119E+01
 0.1580492808062E+01
 0.1549231020683E+01
 0.1516016520773E+01
 0.1484024769422E+01
 0.1455652156605E+01
 0.1432159627190E+01
 0.1413886827890E+01
 0.1400628504359E+01
 0.1391946986202E+01
 0.1387359378883E+01
 0.1386421714906E+01
 0.1388751023549E+01
 0.1394014856728E+01
 0.1401903447798E+01
 0.1412093054133E+01
 0.1424209501156E+01
 0.1437812319232E+01
 0.1452422975355E+01
 0.1467560293433E+01
 0.1482746089279E+01
 0.1497498278215E+01
 0.1511311928969E+01
 0.1523623994466E+01
 0.1533766878820E+01
 0.1540918868733E+01
 0.1544056181612E+01
 0.1541907405547E+01
 0.1532874052537E+01
 0.1514908124774E+01
 0.1485399971072E+01
 0.1441048164253E+01
 0.1377673579867E+01
 0.1289996784095E+01
 0.1171379644908E+01
 0.1013518882448E+01
 0.8060078600270E+00
 0.5357132677729E+00
 0.1882980145995E+00
-0.2464040749142E+00
-0.7671335562157E+00
-0.1353015700770E+01
 0.1584931149021E+01
 0.1551046954712E+01
 0.1514779038354E+01
 0.1480104515309E+01
 0.1449830950827E+01
 0.1425259353597E+01
 0.1406578724859E+01
 0.1393395647238E+01
 0.1385121818199E+01
 0.1381177414355E+01
 0.1381066642385E+01
 0.1384387373660E+01
 0.1390810424023E+01
 0.1400042868397E+01
 0.1411782163510E+01
 0.1425670126091E+01
 0.1441270642571E+01
 0.1458100849667E+01
 0.1475678156071E+01
 0.1493536960696E+01
 0.1511226639232E+01
 0.1528290801150E+01
 0.1544225640345E+01
 0.1558426064816E+01
 0.1570130369921E+01
 0.1578369166386E+01
 0.1581919144737E+01
 0.1579221465803E+01
 0.1568251800393E+01
 0.1546395454942E+01
 0.1510294916399E+01
 0.1455626013697E+01
 0.1376816049549E+01
 0.1266688444271E+01
 0.1115987102219E+01
 0.9126345493530E+00
 0.6406117878128E+00
 0.2811972482676E+00
-0.1809668502316E+00
-0.7484066801054E+00
-0.1398582045931E+01
 0.1590277687776E+01
 0.1553230137270E+01
 0.1513302772005E+01
 0.1475524770034E+01
 0.1443168489951E+01
 0.1417506732489E+01
 0.1398488697625E+01
 0.1385472514709E+01
 0.1377691636376E+01
 0.1374461024758E+01
 0.1375233140139E+01
 0.1379590259733E+01
 0.1387212000311E+01
 0.1397829161513E+01
 0.1411167383313E+01
 0.1426889114230E+01
 0.1444562357762E+01
 0.1463694903936E+01
 0.1483796781203E+01
 0.1504412592535E+01
 0.1525126317119E+01
 0.1545537838264E+01
 0.1565212741636E+01
 0.1583619204441E+01
 0.1600066187810E+01
 0.1613649724780E+01
 0.1623207693570E+01
 0.1627238648141E+01
 0.1623766941936E+01
 0.1610206881341E+01
 0.1583188826777E+01
 0.1538298008743E+01
 0.1469733789127E+01
 0.1369854605185E+01
 0.1228513149003E+01
 0.1031930852916E+01
 0.7608607539704E+00
 0.3911886882575E+00
-0.9952296465153E-01
-0.7198681029683E+00
-0.1446400475716E+01
 0.1596788154484E+01
 0.1555856858803E+01
 0.1511494579827E+01
 0.1470121934353E+01
 0.1435513440305E+01
 0.1408793837983E+01
 0.1389548295283E+01
 0.1376816251546E+01
 0.1369627701870E+01
 0.1367188094710E+01
 0.1368900804739E+01
 0.1374337620556E+01
 0.1383193729175E+01
 0.1395232033772E+01
 0.1410215215298E+01
 0.1427832478770E+01
 0.1447655515210E+01
 0.1469175573679E+01
 0.1491886637449E+01
 0.1515339752982E+01
 0.1539157112420E+01
 0.1563004170730E+01
 0.1586527728860E+01
 0.1609281209334E+01
 0.1630655500439E+01
 0.1649823206566E+01
 0.1665696550421E+01
 0.1676850072719E+01
 0.1681384383999E+01
 0.1676781756099E+01
 0.1659712229078E+01
 0.1625736909618E+01
 0.1568912003508E+01
 0.1481239192323E+01
 0.1351806777628E+01
 0.1165211519942E+01
 0.8987333701269E+00
 0.5217435929890E+00
 0.2199464684522E-02
-0.6780786860310E+00
-0.1496431401847E+01
 0.1604806426945E+01
 0.1559010961595E+01
 0.1509209996243E+01
 0.1463677833479E+01
 0.1426684523282E+01
 0.1399004385395E+01
 0.1379690275987E+01
 0.1367387499310E+01
 0.1360904745042E+01
 0.1359339409073E+01
 0.1362051364568E+01
 0.1368608557434E+01
 0.1378729670250E+01
 0.1392219708272E+01
 0.1408889663339E+01
 0.1428463791002E+01
 0.1450516928687E+01
 0.1474513543276E+01
 0.1499919099601E+01
 0.1526285515774E+01
 0.1553277621144E+01
 0.1580637901955E+01
 0.1608108282264E+01
 0.1635340752723E+01
 0.1661819896963E+01
 0.1686805822892E+01
 0.1709297789093E+01
 0.1727965255614E+01
 0.1741014995913E+01
 0.1746041193649E+01
 0.1739813361722E+01
 0.1717947021782E+01
 0.1674459441318E+01
 0.1601139878315E+01
 0.1486515753214E+01
 0.1313790388023E+01
 0.1056734751171E+01
 0.6770777494784E+00
 0.1298617891859E+00
-0.6181122548447E+00
-0.1548477218480E+01
 0.1614804045171E+01
 0.1562776806109E+01
 0.1506222670254E+01
 0.1455900451643E+01
 0.1416468706339E+01
 0.1388018391714E+01
 0.1368852161116E+01
 0.1357152190152E+01
 0.1351501980547E+01
 0.1350899317200E+01
 0.1354669162666E+01
 0.1362383700022E+01
 0.1373793952806E+01
 0.1388758679567E+01
 0.1407151580363E+01
 0.1428743513971E+01
 0.1453112045006E+01
 0.1479680295010E+01
 0.1507867285588E+01
 0.1537217892551E+01
 0.1567445451463E+01
 0.1598383969890E+01
 0.1629886986462E+01
 0.1661719857654E+01
 0.1693473021538E+01
 0.1724504388101E+01
 0.1753911747169E+01
 0.1780478036662E+01
 0.1802548126307E+01
 0.1817877099511E+01
 0.1823401777625E+01
 0.1814882363263E+01
 0.1786419667670E+01
 0.1729768846846E+01
 0.1633180157538E+01
 0.1478896929173E+01
 0.1237522255087E+01
 0.8622573416469E+00
 0.2910500237036E+00
-0.5327184474620E+00
-0.1601993162391E+01
 0.1627443851248E+01
 0.1567221734759E+01
 0.1502173593947E+01
 0.1446399771581E+01
 0.1404624747571E+01
 0.1375720556658E+01
 0.1356980333200E+01
 0.1346083267818E+01
 0.1341404127366E+01
 0.1341856381131E+01
 0.1346741646095E+01
 0.1355645639809E+01
 0.1368361019314E+01
 0.1384813439563E+01
 0.1404957756953E+01
 0.1428628005784E+01
 0.1455404732291E+01
 0.1484648902445E+01
 0.1515707215469E+01
 0.1548106630533E+01
 0.1581617437052E+01
 0.1616183935761E+01
 0.1651790904969E+01
 0.1688333421125E+01
 0.1725520218054E+01
 0.1762816188506E+01
 0.1799426950258E+01
 0.1834266100981E+01
 0.1865850214418E+01
 0.1892149440640E+01
 0.1910343805064E+01
 0.1916439556125E+01
 0.1904759520358E+01
 0.1867231269960E+01
 0.1792182280174E+01
 0.1661557840297E+01
 0.1443730244643E+01
 0.1083228853243E+01
 0.4960125309865E+00
-0.4109010176437E+00
-0.1655639349320E+01
 0.1643688081050E+01
 0.1572354615039E+01
 0.1496484778782E+01
 0.1434661864438E+01
 0.1390898601001E+01
 0.1362012685595E+01
 0.1344033612927E+01
 0.1334162256105E+01
 0.1330602436376E+01
 0.1332203954408E+01
 0.1338259846718E+01
 0.1348379447297E+01
 0.1362406032161E+01
 0.1380346228038E+01
 0.1402259650461E+01
 0.1428067999279E+01
 0.1457356941217E+01
 0.1489395218291E+01
 0.1523419437435E+01
 0.1558924190548E+01
 0.1595749795018E+01
 0.1633975663481E+01
 0.1673741056231E+01
 0.1715088644413E+01
 0.1757858150172E+01
 0.1801629010876E+01
 0.1845720362821E+01
 0.1889190817635E+01
 0.1930763604653E+01
 0.1968683647747E+01
 0.2000458099033E+01
 0.2022451014566E+01
 0.2029358520318E+01
 0.2013506182651E+01
 0.1963700063321E+01
 0.1862450691697E+01
 0.1677645615446E+01
 0.1346636938868E+01
 0.7586217108428E+00
-0.2354359065947E+00
-0.1706209095450E+01
 0.1664995266666E+01
 0.1578026815780E+01
 0.1488209305222E+01
 0.1420035388885E+01
 0.1375061457284E+01
 0.1346827047114E+01
 0.1329984827629E+01
 0.1321381072717E+01
 0.1319095605237E+01
 0.1321940637509E+01
 0.1329218841768E+01
 0.1340573267274E+01
 0.1355905559931E+01
 0.1375316940720E+01
 0.1399001617179E+01
 0.1427006216463E+01
 0.1458928165094E+01
 0.1493899732055E+01
 0.1530991338535E+01
 0.1569646881923E+01
 0.1609798131671E+01
 0.1651692851342E+01
 0.1695651785370E+01
 0.1741884328159E+01
 0.1790374339547E+01
 0.1840821369623E+01
 0.1892658106578E+01
 0.1945097492497E+01
 0.1997105566231E+01
 0.2047268203208E+01
 0.2093511329613E+01
 0.2132678354722E+01
 0.2160000020129E+01
 0.2168430774457E+01
 0.2147672989463E+01
 0.2081762917993E+01
 0.1940690796526E+01
 0.1659143386280E+01
 0.1097443770715E+01
 0.2156652471661E-01
-0.1746008510809E+01
 0.1693714370395E+01
 0.1583682069103E+01
 0.1475769366307E+01
 0.1401778738599E+01
 0.1356980770596E+01
 0.1330128822429E+01
 0.1314821260089E+01
 0.1307744760276E+01
 0.1306890055435E+01
 0.1311070734566E+01
 0.1319618130788E+01
 0.1332218943042E+01
 0.1348838702880E+01
 0.1369683502920E+01
 0.1395118481665E+01
 0.1425373473229E+01
 0.1460074577382E+01
 0.1498150635298E+01
 0.1538420455323E+01
 0.1580256025311E+01
 0.1623717135864E+01
 0.1669264390088E+01
 0.1717430056850E+01
 0.1768609978769E+01
 0.1822946495523E+01
 0.1880262976618E+01
 0.1940096888580E+01
 0.2001816161081E+01
 0.2064667440654E+01
 0.2127652431492E+01
 0.2189214292336E+01
 0.2246805379664E+01
 0.2296364677240E+01
 0.2331690876965E+01
 0.2343778082770E+01
 0.2319125050184E+01
 0.2232773851947E+01
 0.2025711435264E+01
 0.1536280690142E+01
 0.4067852028965E+00
-0.1756367832623E+01
 0.1733981675267E+01
 0.1587656903747E+01
 0.1456527720976E+01
 0.1379313250069E+01
 0.1336697184256E+01
 0.1311887201012E+01
 0.1298554892612E+01
 0.1293272170736E+01
 0.1293999687765E+01
 0.1299604957525E+01
 0.1309461732571E+01
 0.1323312595106E+01
 0.1341188756164E+01
 0.1363403423836E+01
 0.1390532326026E+01
 0.1423081953212E+01
 0.1460747651866E+01
 0.1502149229368E+01
 0.1545719174025E+01
 0.1590738758484E+01
 0.1637459748790E+01
 0.1686613552671E+01
 0.1738974750860E+01
 0.1795144682675E+01
 0.1855441352546E+01
 0.1919815476946E+01
 0.1987886636255E+01
 0.2059163021692E+01
 0.2133213756310E+01
 0.2209544272570E+01
 0.2287219271080E+01
 0.2364430177344E+01
 0.2438022321543E+01
 0.2502830840279E+01
 0.2551397349250E+01
 0.2573646966802E+01
 0.2551943346662E+01
 0.2446077106057E+01
 0.2101929097875E+01
 0.1000440665934E+01
-0.1690247560343E+01
 0.1794148804059E+01
 0.1584897266646E+01
 0.1426378735799E+01
 0.1353032156878E+01
 0.1314284514648E+01
 0.1292057552076E+01
 0.1281251722360E+01
 0.1277983022858E+01
 0.1280451026003E+01
 0.1287558993120E+01
 0.1298758886418E+01
 0.1313854614789E+01
 0.1332945249668E+01
 0.1356438067287E+01
 0.1385148881960E+01
 0.1420012601593E+01
 0.1460892004167E+01
 0.1505920307106E+01
 0.1552920961036E+01
 0.1601087569981E+01
 0.1650975706794E+01
 0.1703657020515E+01
 0.1760176127904E+01
 0.1821355847595E+01
 0.1887712342971E+01
 0.1959333368682E+01
 0.2035875434161E+01
 0.2116942687934E+01
 0.2202480188042E+01
 0.2292609392748E+01
 0.2387115740089E+01
 0.2485066261420E+01
 0.2584397291738E+01
 0.2681311363987E+01
 0.2769604923032E+01
 0.2843810372047E+01
 0.2895275850084E+01
 0.2910155376135E+01
 0.2810662986371E+01
 0.1943751012537E+01
-0.1427600662898E+01
 0.1895050102417E+01
 0.1557738867507E+01
 0.1382055243678E+01
 0.1325566931125E+01
 0.1288875824444E+01
 0.1270997864538E+01
 0.1262890768702E+01
 0.1261940778947E+01
 0.1266271036136E+01
 0.1274956740092E+01
 0.1287523514896E+01
 0.1303849676577E+01
 0.1324104393093E+01
 0.1348762695532E+01
 0.1378856627888E+01
 0.1415988355582E+01
 0.1460442480421E+01
 0.1509534365267E+01
 0.1560086083075E+01
 0.1611297151218E+01
 0.1664209881442E+01
 0.1720303538319E+01
 0.1780915636684E+01
 0.1847098597377E+01
 0.1919594518320E+01
 0.1998664297159E+01
 0.2083920052882E+01
 0.2174950432547E+01
 0.2272169217936E+01
 0.2376469713184E+01
 0.2488435730237E+01
 0.2608117337899E+01
 0.2734822974876E+01
 0.2866247933633E+01
 0.2998092641316E+01
 0.3125492692774E+01
 0.3262672064475E+01
 0.3397226840042E+01
 0.3631231830169E+01
 0.3452129672227E+01
-0.5847811477581E+00
 0.2107436969344E+01
 0.1427497501556E+01
 0.1352028924849E+01
 0.1289547074403E+01
 0.1262555263401E+01
 0.1248356251463E+01
 0.1243661936067E+01
 0.1245174707436E+01
 0.1251506522986E+01
 0.1261825341870E+01
 0.1275774891973E+01
 0.1293308772794E+01
 0.1314662343907E+01
 0.1340383522306E+01
 0.1371547406241E+01
 0.1410704713694E+01
 0.1459323947530E+01
 0.1513162368404E+01
 0.1567291436164E+01
 0.1621362668497E+01
 0.1677098986365E+01
 0.1736453215004E+01
 0.1801064401381E+01
 0.1872219727983E+01
 0.1950893400686E+01
 0.2037643450795E+01
 0.2131914188274E+01
 0.2232969446516E+01
 0.2341937302721E+01
 0.2460713325250E+01
 0.2590643832886E+01
 0.2732912218374E+01
 0.2888380528635E+01
 0.3056912786637E+01
 0.3235141133249E+01
 0.3420735920676E+01
 0.3628246246067E+01
 0.3959242581752E+01
 0.4307526631349E+01
 0.5902026172271E+01
 0.1588632628505E+01
 0.2128057147957E+01
 0.2038024450454E+01
 0.1947427915334E+01
 0.1860111337789E+01
 0.1778421220886E+01
 0.1703918112565E+01
 0.1637711245617E+01
 0.1580574287485E+01
 0.1532910764285E+01
 0.1494721335791E+01
 0.1465633440917E+01
 0.1445690110805E+01
 0.1434051497150E+01
 0.1430591777574E+01
 0.1435845859894E+01
 0.1449886957488E+01
 0.1472964449049E+01
 0.1506896880036E+01
 0.1547667003898E+01
 0.1635806257606E+01
 0.2143561538114E+01
 0.2053098285241E+01
 0.1963440098906E+01
 0.1877220559511E+01
 0.1796584435953E+01
 0.1723021286851E+01
 0.1657607287399E+01
 0.1601090393313E+01
 0.1553893412979E+01
 0.1516093123795E+01
 0.1487587739276E+01
 0.1468143375093E+01
 0.1457490786466E+01
 0.1455568984453E+01
 0.1462676712138E+01
 0.1479179052663E+01
 0.1505915734317E+01
 0.1543170584146E+01
 0.1601103300008E+01
 0.1675908258096E+01
 0.2159253168298E+01
 0.2068410157732E+01
 0.1979170430003E+01
 0.1893782682554E+01
 0.1814026083347E+01
 0.1741284589325E+01
 0.1676582686365E+01
 0.1620649897166E+01
 0.1573927531874E+01
 0.1536589693185E+01
 0.1508589297279E+01
 0.1489828019643E+01
 0.1480181729142E+01
 0.1479706980996E+01
 0.1488739758899E+01
 0.1507882403380E+01
 0.1537927278610E+01
 0.1581954758301E+01
 0.1642584091302E+01
 0.1719555452671E+01
 0.2175053664592E+01
 0.2083630689265E+01
 0.1994583836689E+01
 0.1909768727470E+01
 0.1830727524314E+01
 0.1758695143781E+01
 0.1694634239824E+01
 0.1639252249965E+01
 0.1593012846530E+01
 0.1556142849031E+01
 0.1528688403623E+01
 0.1510649409322E+01
 0.1502030221649E+01
 0.1502994042277E+01
 0.1513996802046E+01
 0.1535751129111E+01
 0.1569713428309E+01
 0.1617901253939E+01
 0.1682207366498E+01
 0.1763476678649E+01
 0.2190753747051E+01
 0.2098617712719E+01
 0.2009570170771E+01
 0.1925143936618E+01
 0.1846666020540E+01
 0.1775239498874E+01
 0.1711753800016E+01
 0.1656891479579E+01
 0.1611127701199E+01
 0.1574738552346E+01
 0.1547850660492E+01
 0.1530556927587E+01
 0.1522973152840E+01
 0.1525381360570E+01
 0.1538345617136E+01
 0.1562806040652E+01
 0.1600163839287E+01
 0.1652117343201E+01
 0.1720402712522E+01
 0.1806506514035E+01
 0.2206180518391E+01
 0.2113235319898E+01
 0.2024042050265E+01
 0.1939856042292E+01
 0.1861815811248E+01
 0.1790901214568E+01
 0.1727929935691E+01
 0.1673554171241E+01
 0.1628255736827E+01
 0.1592352120363E+01
 0.1566041640189E+01
 0.1549502147794E+01
 0.1542955964721E+01
 0.1546797554735E+01
 0.1561717999479E+01
 0.1588741998171E+01
 0.1629231570238E+01
 0.1684772477592E+01
 0.1757146432745E+01
 0.1848165634742E+01
 0.2221180902217E+01
 0.2127364687776E+01
 0.2037916499226E+01
 0.1953853329400E+01
 0.1876145917871E+01
 0.1805661274538E+01
 0.1743147679578E+01
 0.1689225201266E+01
 0.1644377619923E+01
 0.1608957259325E+01
 0.1583225483655E+01
 0.1567439497376E+01
 0.1561921001690E+01
 0.1567173865231E+01
 0.1583983601246E+01
 0.1613428543267E+01
 0.1656862992129E+01
 0.1715870338127E+01
 0.1792295771651E+01
 0.1888111543247E+01
 0.2235619431119E+01
 0.2140898902191E+01
 0.2051116825401E+01
 0.1967084592513E+01
 0.1889623650502E+01
 0.1819497852617E+01
 0.1757389901811E+01
 0.1703887279791E+01
 0.1659472361980E+01
 0.1624526385937E+01
 0.1599366480624E+01
 0.1584323282481E+01
 0.1579811083591E+01
 0.1586429664159E+01
 0.1605041005239E+01
 0.1636769849769E+01
 0.1682993598699E+01
 0.1745334037126E+01
 0.1825693012850E+01
 0.1926104454790E+01
 0.2249375441843E+01
 0.2153741708070E+01
 0.2063572174655E+01
 0.1979500636360E+01
 0.1902215782401E+01
 0.1832387679311E+01
 0.1770637833002E+01
 0.1717521742502E+01
 0.1673517928900E+01
 0.1639031586223E+01
 0.1614429063193E+01
 0.1600108437248E+01
 0.1596567628714E+01
 0.1604490296917E+01
 0.1624804694209E+01
 0.1658683364442E+01
 0.1707543203053E+01
 0.1773057171805E+01
 0.1857179572577E+01
 0.1961966981674E+01
 0.2262341092327E+01
 0.2165806286904E+01
 0.2075217376037E+01
 0.1991054786430E+01
 0.1913889502719E+01
 0.1844306805825E+01
 0.1782871720272E+01
 0.1730109047384E+01
 0.1686491813976E+01
 0.1652444993472E+01
 0.1628378228079E+01
 0.1614750542503E+01
 0.1612134537566E+01
 0.1621287901246E+01
 0.1643199299132E+01
 0.1679090442050E+01
 0.1730424333304E+01
 0.1798925489931E+01
 0.1886596531339E+01
 0.1995540568629E+01
 0.2274420118025E+01
 0.2177014534169E+01
 0.2085992877889E+01
 0.2001703375316E+01
 0.1924613151304E+01
 0.1855231377114E+01
 0.1794071493537E+01
 0.1741629383782E+01
 0.1698371573839E+01
 0.1664739295835E+01
 0.1641179980334E+01
 0.1628207064518E+01
 0.1626459485621E+01
 0.1636760905736E+01
 0.1660155958047E+01
 0.1697915122754E+01
 0.1751548197177E+01
 0.1822827744733E+01
 0.1913799688712E+01
 0.2026663589539E+01
 0.2285526804080E+01
 0.2187296472412E+01
 0.2095844633493E+01
 0.2011406015000E+01
 0.1934356719150E+01
 0.1865138194233E+01
 0.1804217304396E+01
 0.1752063156486E+01
 0.1709135272482E+01
 0.1675888149268E+01
 0.1652801920087E+01
 0.1640438107140E+01
 0.1639494331499E+01
 0.1650853187204E+01
 0.1675610975419E+01
 0.1715084743693E+01
 0.1770828946251E+01
 0.1844659749869E+01
 0.1938668657019E+01
 0.2055147137108E+01
 0.2295585294479E+01
 0.2196589850690E+01
 0.2104724056032E+01
 0.2020125838792E+01
 0.1943092272367E+01
 0.1874005214444E+01
 0.1813290027669E+01
 0.1761391459531E+01
 0.1718761925500E+01
 0.1685866643579E+01
 0.1663213779136E+01
 0.1651406911550E+01
 0.1651195224888E+01
 0.1663513675177E+01
 0.1689505600322E+01
 0.1730531175826E+01
 0.1788186012394E+01
 0.1864326794862E+01
 0.1961087244240E+01
 0.2080826064977E+01
 0.2304529066480E+01
 0.2204839846421E+01
 0.2112587983547E+01
 0.2027829686645E+01
 0.1950794285348E+01
 0.1881811958493E+01
 0.1821271686789E+01
 0.1769596490320E+01
 0.1727231903960E+01
 0.1694651714329E+01
 0.1672387834995E+01
 0.1661080160204E+01
 0.1661522667251E+01
 0.1674696264259E+01
 0.1701786295914E+01
 0.1744191814064E+01
 0.1803545657749E+01
 0.1881740931790E+01
 0.1980946488110E+01
 0.2103567401147E+01
 0.2312300538260E+01
 0.2211998840910E+01
 0.2119398657763E+01
 0.2034488253676E+01
 0.1957439909348E+01
 0.1888539847010E+01
 0.1828145815747E+01
 0.1776661912877E+01
 0.1734527292125E+01
 0.1702222492830E+01
 0.1680299228059E+01
 0.1669428197190E+01
 0.1670441610142E+01
 0.1684359932219E+01
 0.1712405128672E+01
 0.1756010386468E+01
 0.1816841242038E+01
 0.1896822025169E+01
 0.1998149598912E+01
 0.2123261507071E+01
 0.2318850761019E+01
 0.2218026245639E+01
 0.2125123705525E+01
 0.2040076205180E+01
 0.1963009184869E+01
 0.1894172473049E+01
 0.1833897760119E+01
 0.1782573166156E+01
 0.1740632190789E+01
 0.1708560592351E+01
 0.1686926209554E+01
 0.1676425211250E+01
 0.1677921595862E+01
 0.1692468944142E+01
 0.1721320173482E+01
 0.1765937454969E+01
 0.1828013938044E+01
 0.1909499628541E+01
 0.2012613375744E+01
 0.2139816228780E+01
 0.2324139215386E+01
 0.2222888386729E+01
 0.2129736143304E+01
 0.2044572283832E+01
 0.1967485226055E+01
 0.1898695836652E+01
 0.1838514937924E+01
 0.1787317732702E+01
 0.1745532979458E+01
 0.1713650350371E+01
 0.1692250351180E+01
 0.1682049408632E+01
 0.1683936925174E+01
 0.1698993089431E+01
 0.1728495865138E+01
 0.1773930920807E+01
 0.1837013614010E+01
 0.1919714156832E+01
 0.2024268320898E+01
 0.2153154538906E+01
 0.2328133647307E+01
 0.2226558414385E+01
 0.2133214376235E+01
 0.2047959388657E+01
 0.1970854360696E+01
 0.1902098526304E+01
 0.1841987044190E+01
 0.1790885350476E+01
 0.1749218521801E+01
 0.1717479016359E+01
 0.1696256709560E+01
 0.1686283159489E+01
 0.1688466815115E+01
 0.1703907895892E+01
 0.1733903313058E+01
 0.1779956510807E+01
 0.1843799519509E+01
 0.1927417499428E+01
 0.2033058620328E+01
 0.2163213986225E+01
 0.2330809954631E+01
 0.2229016239633E+01
 0.2135542202288E+01
 0.2050224638824E+01
 0.1973106240649E+01
 0.1904371861768E+01
 0.1844306212441E+01
 0.1793268180179E+01
 0.1751680327517E+01
 0.1720036900045E+01
 0.1698933959488E+01
 0.1689113124275E+01
 0.1691495541202E+01
 0.1707194821744E+01
 0.1737520583762E+01
 0.1783988183090E+01
 0.1848340755321E+01
 0.1932573340225E+01
 0.2038942290068E+01
 0.2169947039146E+01
 0.2332152109258E+01
 0.2230248491639E+01
 0.2136708816842E+01
 0.2051359421001E+01
 0.1974233922859E+01
 0.1905509998942E+01
 0.1845467133442E+01
 0.1794460928333E+01
 0.1752912671319E+01
 0.1721317480953E+01
 0.1700274494494E+01
 0.1690530352853E+01
 0.1693012552435E+01
 0.1708841412582E+01
 0.1739332926273E+01
 0.1786008420973E+01
 0.1850616579188E+01
 0.1935157351545E+01
 0.2041891236089E+01
 0.2173321639736E+01
 0.2332152109016E+01
 0.2230248491435E+01
 0.2136708816668E+01
 0.2051359420852E+01
 0.1974233922731E+01
 0.1905509998834E+01
 0.1845467133353E+01
 0.1794460928261E+01
 0.1752912671262E+01
 0.1721317480910E+01
 0.1700274494462E+01
 0.1690530352829E+01
 0.1693012552416E+01
 0.1708841412567E+01
 0.1739332926261E+01
 0.1786008420963E+01
 0.1850616579180E+01
 0.1935157351541E+01
 0.2041891236091E+01
 0.2173321639745E+01
 0.2330809953904E+01
 0.2229016239021E+01
 0.2135542201766E+01
 0.2050224638376E+01
 0.1973106240267E+01
 0.1904371861446E+01
 0.1844306212175E+01
 0.1793268179965E+01
 0.1751680327348E+01
 0.1720036899916E+01
 0.1698933959391E+01
 0.1689113124202E+01
 0.1691495541146E+01
 0.1707194821701E+01
 0.1737520583727E+01
 0.1783988183062E+01
 0.1848340755299E+01
 0.1932573340213E+01
 0.2038942290072E+01
 0.2169947039173E+01
 0.2328133646100E+01
 0.2226558413368E+01
 0.2133214375366E+01
 0.2047959387912E+01
 0.1970854360060E+01
 0.1902098525767E+01
 0.1841987043747E+01
 0.1790885350119E+01
 0.1749218521521E+01
 0.1717479016145E+01
 0.1696256709399E+01
 0.1686283159368E+01
 0.1688466815022E+01
 0.1703907895819E+01
 0.1733903312998E+01
 0.1779956510758E+01
 0.1843799519472E+01
 0.1927417499407E+01
 0.2033058620332E+01
 0.2163213986269E+01
 0.2324139213707E+01
 0.2222888385313E+01
 0.2129736142094E+01
 0.2044572282793E+01
 0.1967485225167E+01
 0.1898695835902E+01
 0.1838514937304E+01
 0.1787317732203E+01
 0.1745532979067E+01
 0.1713650350072E+01
 0.1692250350955E+01
 0.1682049408463E+01
 0.1683936925046E+01
 0.1698993089329E+01
 0.1728495865054E+01
 0.1773930920738E+01
 0.1837013613956E+01
 0.1919714156800E+01
 0.2024268320900E+01
 0.2153154538964E+01
 0.2318850758879E+01
 0.2218026243831E+01
 0.2125123703978E+01
 0.2040076203851E+01
 0.1963009183732E+01
 0.1894172472089E+01
 0.1833897759325E+01
 0.1782573165516E+01
 0.1740632190287E+01
 0.1708560591967E+01
 0.1686926209266E+01
 0.1676425211034E+01
 0.1677921595696E+01
 0.1692468944011E+01
 0.1721320173374E+01
 0.1765937454880E+01
 0.1828013937974E+01
 0.1909499628498E+01
 0.2012613375743E+01
 0.2139816228849E+01
 0.2312300535670E+01
 0.2211998838721E+01
 0.2119398655887E+01
 0.2034488252062E+01
 0.1957439907965E+01
 0.1888539845842E+01
 0.1828145814780E+01
 0.1776661912097E+01
 0.1734527291513E+01
 0.1702222492363E+01
 0.1680299227708E+01
 0.1669428196926E+01
 0.1670441609940E+01
 0.1684359932058E+01
 0.1712405128540E+01
 0.1756010386358E+01
 0.1816841241950E+01
 0.1896822025112E+01
 0.1998149598905E+01
 0.2123261507145E+01
 0.2304529063458E+01
 0.2204839843863E+01
 0.2112587981351E+01
 0.2027829684752E+01
 0.1950794283724E+01
 0.1881811957119E+01
 0.1821271685650E+01
 0.1769596489402E+01
 0.1727231903240E+01
 0.1694651713779E+01
 0.1672387834582E+01
 0.1661080159894E+01
 0.1661522667014E+01
 0.1674696264070E+01
 0.1701786295757E+01
 0.1744191813932E+01
 0.1803545657642E+01
 0.1881740931718E+01
 0.1980946488093E+01
 0.2103567401220E+01
 0.2295585291044E+01
 0.2196589847777E+01
 0.2104724053526E+01
 0.2020125836627E+01
 0.1943092270506E+01
 0.1874005212867E+01
 0.1813290026361E+01
 0.1761391458476E+01
 0.1718761924672E+01
 0.1685866642948E+01
 0.1663213778662E+01
 0.1651406911194E+01
 0.1651195224617E+01
 0.1663513674961E+01
 0.1689505600142E+01
 0.1730531175673E+01
 0.1788186012267E+01
 0.1864326794772E+01
 0.1961087244209E+01
 0.2080826065044E+01
 0.2285526800254E+01
 0.2187296469160E+01
 0.2095844630688E+01
 0.2011406012570E+01
 0.1934356717058E+01
 0.1865138192458E+01
 0.1804217302923E+01
 0.1752063155296E+01
 0.1709135271549E+01
 0.1675888148556E+01
 0.1652801919553E+01
 0.1640438106740E+01
 0.1639494331194E+01
 0.1650853186962E+01
 0.1675610975216E+01
 0.1715084743518E+01
 0.1770828946102E+01
 0.1844659749758E+01
 0.1938668656970E+01
 0.2055147137161E+01
 0.2274420113833E+01
 0.2177014530598E+01
 0.2085992874799E+01
 0.2001703372632E+01
 0.1924613148988E+01
 0.1855231375144E+01
 0.1794071491900E+01
 0.1741629382459E+01
 0.1698371572802E+01
 0.1664739295044E+01
 0.1641179979742E+01
 0.1628207064075E+01
 0.1626459485283E+01
 0.1636760905466E+01
 0.1660155957821E+01
 0.1697915122557E+01
 0.1751548197006E+01
 0.1822827744597E+01
 0.1913799688639E+01
 0.2026663589574E+01
 0.2262341087799E+01
 0.2165806283035E+01
 0.2075217372678E+01
 0.1991054783502E+01
 0.1913889500184E+01
 0.1844306803665E+01
 0.1782871718475E+01
 0.1730109045930E+01
 0.1686491812836E+01
 0.1652444992604E+01
 0.1628378227429E+01
 0.1614750542018E+01
 0.1612134537196E+01
 0.1621287900952E+01
 0.1643199298885E+01
 0.1679090441832E+01
 0.1730424333109E+01
 0.1798925489768E+01
 0.1886596531234E+01
 0.1995540568640E+01
 0.2249375437011E+01
 0.2153741703926E+01
 0.2063572171042E+01
 0.1979500633199E+01
 0.1902215779655E+01
 0.1832387676965E+01
 0.1770637831047E+01
 0.1717521740920E+01
 0.1673517927659E+01
 0.1639031585278E+01
 0.1614429062487E+01
 0.1600108436722E+01
 0.1596567628314E+01
 0.1604490296599E+01
 0.1624804693940E+01
 0.1658683364202E+01
 0.1707543202834E+01
 0.1773057171611E+01
 0.1857179572436E+01
 0.1961966981657E+01
 0.2235619426018E+01
 0.2140898897799E+01
 0.2051116821552E+01
 0.1967084589130E+01
 0.1889623647553E+01
 0.1819497850090E+01
 0.1757389899701E+01
 0.1703887278081E+01
 0.1659472360640E+01
 0.1624526384917E+01
 0.1599366479864E+01
 0.1584323281915E+01
 0.1579811083161E+01
 0.1586429663819E+01
 0.1605041004952E+01
 0.1636769849512E+01
 0.1682993598457E+01
 0.1745334036899E+01
 0.1825693012665E+01
 0.1926104454726E+01
 0.2221180896888E+01
 0.2127364683165E+01
 0.2037916495161E+01
 0.1953853325808E+01
 0.1876145914726E+01
 0.1805661271836E+01
 0.1743147677317E+01
 0.1689225199432E+01
 0.1644377618485E+01
 0.1608957258232E+01
 0.1583225482842E+01
 0.1567439496771E+01
 0.1561921001233E+01
 0.1567173864870E+01
 0.1583983600942E+01
 0.1613428542993E+01
 0.1656862991865E+01
 0.1715870337868E+01
 0.1792295771418E+01
 0.1888111543116E+01
 0.2206180512879E+01
 0.2113235315098E+01
 0.2024042046006E+01
 0.1939856038505E+01
 0.1861815807915E+01
 0.1790901211694E+01
 0.1727929933280E+01
 0.1673554169285E+01
 0.1628255735294E+01
 0.1592352119199E+01
 0.1566041639323E+01
 0.1549502147152E+01
 0.1542955964236E+01
 0.1546797554353E+01
 0.1561717999160E+01
 0.1588741997882E+01
 0.1629231569956E+01
 0.1684772477301E+01
 0.1757146432456E+01
 0.1848165634521E+01
 0.2190753741405E+01
 0.2098617707766E+01
 0.2009570166339E+01
 0.1925143932648E+01
 0.1846666017027E+01
 0.1775239495833E+01
 0.1711753797460E+01
 0.1656891477502E+01
 0.1611127699571E+01
 0.1574738551112E+01
 0.1547850659577E+01
 0.1530556926908E+01
 0.1522973152328E+01
 0.1525381360169E+01
 0.1538345616803E+01
 0.1562806040354E+01
 0.1600163838991E+01
 0.1652117342880E+01
 0.1720402712172E+01
 0.1806506513705E+01
 0.2175053658868E+01
 0.2083630684197E+01
 0.1994583832108E+01
 0.1909768723331E+01
 0.1830727520628E+01
 0.1758695140577E+01
 0.1694634237123E+01
 0.1639252247768E+01
 0.1593012844810E+01
 0.1556142847729E+01
 0.1528688402659E+01
 0.1510649408609E+01
 0.1502030221112E+01
 0.1502994041857E+01
 0.1513996801700E+01
 0.1535751128807E+01
 0.1569713428008E+01
 0.1617901253595E+01
 0.1682207366082E+01
 0.1763476678192E+01
 0.2159253162560E+01
 0.2068410152591E+01
 0.1979170425298E+01
 0.1893782678259E+01
 0.1814026079495E+01
 0.1741284585961E+01
 0.1676582683521E+01
 0.1620649894851E+01
 0.1573927530062E+01
 0.1536589691816E+01
 0.1508589296268E+01
 0.1489828018895E+01
 0.1480181728579E+01
 0.1479706980557E+01
 0.1488739758539E+01
 0.1507882403069E+01
 0.1537927278314E+01
 0.1581954757950E+01
 0.1642584090821E+01
 0.1719555452063E+01
 0.2143561532436E+01
 0.2053098280075E+01
 0.1963440094097E+01
 0.1877220555075E+01
 0.1796584431943E+01
 0.1723021283330E+01
 0.1657607284413E+01
 0.1601090390879E+01
 0.1553893411076E+01
 0.1516093122364E+01
 0.1487587738219E+01
 0.1468143374312E+01
 0.1457490785878E+01
 0.1455568983995E+01
 0.1462676711763E+01
 0.1479179052344E+01
 0.1505915734030E+01
 0.1543170583829E+01
 0.1601103299480E+01
 0.1675908257296E+01
 0.2128057142473E+01
 0.2038024445287E+01
 0.1947427910446E+01
 0.1860111333223E+01
 0.1778421216724E+01
 0.1703918108888E+01
 0.1637711242488E+01
 0.1580574284931E+01
 0.1532910762291E+01
 0.1494721334298E+01
 0.1465633439825E+01
 0.1445690109977E+01
 0.1434051496547E+01
 0.1430591777097E+01
 0.1435845859498E+01
 0.1449886957162E+01
 0.1472964448760E+01
 0.1506896879759E+01
 0.1547667003481E+01
 0.1635806256498E+01
 0.5704226857531E+01
 0.1129073068982E+01
 0.8374821132171E+00
 0.6823391490165E+00
 0.5970992038355E+00
 0.5298557483314E+00
 0.4743814678268E+00
 0.4243105433131E+00
 0.3747564136912E+00
 0.3235416327183E+00
 0.2706183651136E+00
 0.2094079757774E+00
 0.1390065687082E+00
 0.8813086490573E-01
 0.6069915162355E-01
 0.4576712526887E-01
 0.3976294786015E-01
 0.3433200065912E-01
 0.2245288359651E-01
 0.1639465234449E-01
 0.3431266735835E+01
 0.2176058094190E+01
 0.1032789787092E+01
 0.8099724871992E+00
 0.6866859023730E+00
 0.6078771511684E+00
 0.5445268563315E+00
 0.4898560333046E+00
 0.4386223003145E+00
 0.3880650797623E+00
 0.3357728865700E+00
 0.2783544265834E+00
 0.2197736395267E+00
 0.1724519869441E+00
 0.1436649748018E+00
 0.1303445384987E+00
 0.1270034140260E+00
 0.1276612517300E+00
 0.1302688497773E+00
 0.1372130621447E+00
 0.2849109466271E+01
 0.2083370013355E+01
 0.1390250059389E+01
 0.9508315047113E+00
 0.7880572819133E+00
 0.6882610641510E+00
 0.6165330241594E+00
 0.5569860887060E+00
 0.5037458036355E+00
 0.4530965964246E+00
 0.4024117039568E+00
 0.3493033533557E+00
 0.2969365164691E+00
 0.2546514627986E+00
 0.2278516236597E+00
 0.2161596418721E+00
 0.2163527713293E+00
 0.2241796738211E+00
 0.2377012980559E+00
 0.2675969271599E+00
 0.2543137896347E+01
 0.2020706117119E+01
 0.1514119901746E+01
 0.1123173695641E+01
 0.8954194482610E+00
 0.7736417045698E+00
 0.6903408402970E+00
 0.6255165216949E+00
 0.5698639635470E+00
 0.5189714027502E+00
 0.4699576894711E+00
 0.4203473585820E+00
 0.3730453806789E+00
 0.3353692389151E+00
 0.3117838914856E+00
 0.3028775132101E+00
 0.3071570178915E+00
 0.3218134523049E+00
 0.3474429263081E+00
 0.3964840934071E+00
 0.2366795954107E+01
 0.1970577765728E+01
 0.1580085991511E+01
 0.1242607338233E+01
 0.1008202953281E+01
 0.8617245152822E+00
 0.7663959980516E+00
 0.6952389972822E+00
 0.6368670515770E+00
 0.5855269019076E+00
 0.5379184389313E+00
 0.4913229790001E+00
 0.4483586050425E+00
 0.4150588950069E+00
 0.3951329366096E+00
 0.3897453631593E+00
 0.3984582673726E+00
 0.4200639178216E+00
 0.4567586617686E+00
 0.5218102355270E+00
 0.2254196742208E+01
 0.1937419131482E+01
 0.1619826074433E+01
 0.1330407506170E+01
 0.1106360588162E+01
 0.9503061156306E+00
 0.8435758755213E+00
 0.7659975992189E+00
 0.7045449034499E+00
 0.6525260324784E+00
 0.6060364864229E+00
 0.5620614408334E+00
 0.5229539270792E+00
 0.4937853920359E+00
 0.4776841530986E+00
 0.4761346351343E+00
 0.4894684502580E+00
 0.5176449207147E+00
 0.5639677418212E+00
 0.6411986624688E+00
 0.2179130278128E+01
 0.1916391619071E+01
 0.1648841260074E+01
 0.1397689792267E+01
 0.1190087885027E+01
 0.1033569146373E+01
 0.9203611407482E+00
 0.8371058072676E+00
 0.7726044141625E+00
 0.7197139092221E+00
 0.6740864398315E+00
 0.6324117122266E+00
 0.5967742817810E+00
 0.5714812249671E+00
 0.5591723634500E+00
 0.5615147181621E+00
 0.5793394355711E+00
 0.6134093931360E+00
 0.6675552443914E+00
 0.7534448464592E+00
 0.2128079228684E+01
 0.1904291138034E+01
 0.1673066374559E+01
 0.1452208309658E+01
 0.1261735810190E+01
 0.1109921588608E+01
 0.9945586202168E+00
 0.9076270804600E+00
 0.8405506030294E+00
 0.7867895767322E+00
 0.7418372942833E+00
 0.7022016038620E+00
 0.6696975482833E+00
 0.6479937583391E+00
 0.6393056219465E+00
 0.6453682085683E+00
 0.6673025957754E+00
 0.7063445198364E+00
 0.7664531211693E+00
 0.8579600230844E+00
 0.2093470295416E+01
 0.1898811341279E+01
 0.1695192562758E+01
 0.1498525090814E+01
 0.1324049063492E+01
 0.1179368795085E+01
 0.1064998344646E+01
 0.9764940741318E+00
 0.9077725293176E+00
 0.8533720580078E+00
 0.8090269420099E+00
 0.7712307800255E+00
 0.7415552724462E+00
 0.7231236069456E+00
 0.7177718115833E+00
 0.7272111986575E+00
 0.7526840709115E+00
 0.7956524739422E+00
 0.8599530926211E+00
 0.9545701134744E+00
 0.2070672162098E+01
 0.1898373633829E+01
 0.1716454633223E+01
 0.1539410110696E+01
 0.1379255111163E+01
 0.1242617842992E+01
 0.1131240712219E+01
 0.1042944414930E+01
 0.9736361148986E+00
 0.9190306887901E+00
 0.8753526366793E+00
 0.8392673295416E+00
 0.8121453509834E+00
 0.7966440181880E+00
 0.7942587769318E+00
 0.8066063916854E+00
 0.8349274063095E+00
 0.8807416805250E+00
 0.9476323057231E+00
 0.1043344754731E+01
 0.2056675112785E+01
 0.1901868433985E+01
 0.1737439289717E+01
 0.1576566581930E+01
 0.1429030987332E+01
 0.1300533552950E+01
 0.1193301165415E+01
 0.1106537918151E+01
 0.1037622376393E+01
 0.9833332111431E+00
 0.9404863549535E+00
 0.9060514883654E+00
 0.8812413283943E+00
 0.8683164652958E+00
 0.8684701971577E+00
 0.8831769317689E+00
 0.9135954117811E+00
 0.9612014166358E+00
 0.1029275105030E+01
 0.1124496052068E+01
 0.2049420020468E+01
 0.1908493821259E+01
 0.1758422339871E+01
 0.1611068295015E+01
 0.1474599235830E+01
 0.1353931877168E+01
 0.1251418051511E+01
 0.1167088315451E+01
 0.1099363401389E+01
 0.1045899474834E+01
 0.1004100274436E+01
 0.9713080023919E+00
 0.9486027047739E+00
 0.9379033943408E+00
 0.9401388827666E+00
 0.9566141430524E+00
 0.9883636939338E+00
 0.1036768950537E+01
 0.1104810893180E+01
 0.1198311189960E+01
 0.2047435533418E+01
 0.1917649521708E+01
 0.1779524566900E+01
 0.1643607421638E+01
 0.1516844129319E+01
 0.1403509937473E+01
 0.1305915728684E+01
 0.1224575527335E+01
 0.1158631039142E+01
 0.1106425525350E+01
 0.1065892172648E+01
 0.1034761936742E+01
 0.1013986326494E+01
 0.1005179552180E+01
 0.1009037360541E+01
 0.1026682378860E+01
 0.1059010684458E+01
 0.1107298927498E+01
 0.1174265017023E+01
 0.1265105080837E+01
 0.2049629003636E+01
 0.1928869221384E+01
 0.1800785453618E+01
 0.1674638941482E+01
 0.1556405905999E+01
 0.1449836943387E+01
 0.1357130684449E+01
 0.1279075923993E+01
 0.1215306120939E+01
 0.1164686246131E+01
 0.1125600417715E+01
 0.1096152286831E+01
 0.1077156270346E+01
 0.1069940201512E+01
 0.1074987539724E+01
 0.1093224195494E+01
 0.1125411077816E+01
 0.1172737475502E+01
 0.1237719461239E+01
 0.1325179562302E+01
 0.2055160047541E+01
 0.1941776712939E+01
 0.1822199607925E+01
 0.1704466166831E+01
 0.1593750479958E+01
 0.1493367152169E+01
 0.1405376283633E+01
 0.1330714377920E+01
 0.1269346578326E+01
 0.1220526395502E+01
 0.1183009388564E+01
 0.1155240873283E+01
 0.1137886729520E+01
 0.1132004362372E+01
 0.1137864940803E+01
 0.1156174763187E+01
 0.1187537621344E+01
 0.1233107470414E+01
 0.1295274860922E+01
 0.1378777638418E+01
 0.2063360164918E+01
 0.1956057266953E+01
 0.1843735422756E+01
 0.1733293086889E+01
 0.1629218787818E+01
 0.1534458837342E+01
 0.1450928630273E+01
 0.1379634338171E+01
 0.1320761221176E+01
 0.1273847834682E+01
 0.1237949707920E+01
 0.1211816925813E+01
 0.1195963252173E+01
 0.1191193563305E+01
 0.1197602627684E+01
 0.1215570413677E+01
 0.1245509200135E+01
 0.1288499633328E+01
 0.1347017313171E+01
 0.1425999275141E+01
 0.2073679109479E+01
 0.1971437132636E+01
 0.1865347419522E+01
 0.1761256529527E+01
 0.1663062047992E+01
 0.1573391965717E+01
 0.1494023470621E+01
 0.1425980692386E+01
 0.1369590214042E+01
 0.1324597460527E+01
 0.1290295454838E+01
 0.1265703594747E+01
 0.1251182069036E+01
 0.1247321844295E+01
 0.1254084854914E+01
 0.1271629652592E+01
 0.1299622656648E+01
 0.1339217339451E+01
 0.1392906215736E+01
 0.1466661369089E+01
 0.2085635318911E+01
 0.1987677408273E+01
 0.1886979257529E+01
 0.1788455069243E+01
 0.1695460305303E+01
 0.1610384974226E+01
 0.1534858458887E+01
 0.1469889648878E+01
 0.1415893231113E+01
 0.1372755391529E+01
 0.1339961574344E+01
 0.1316761316574E+01
 0.1303370081249E+01
 0.1300179696068E+01
 0.1307140618159E+01
 0.1324244732050E+01
 0.1351042934352E+01
 0.1385732461688E+01
 0.1433026918021E+01
 0.1499620886094E+01
 0.2098801535551E+01
 0.2004512950838E+01
 0.1908640216528E+01
 0.1814927144674E+01
 0.1726546042730E+01
 0.1645606016050E+01
 0.1573597348924E+01
 0.1511487349358E+01
 0.1459733568071E+01
 0.1418336846426E+01
 0.1386891293879E+01
 0.1364891265055E+01
 0.1352396031131E+01
 0.1349609469007E+01
 0.1356476248080E+01
 0.1373177835178E+01
 0.1399072046737E+01
 0.1433488515457E+01
 0.1465772310587E+01
 0.1522116902418E+01
 0.2112099276271E+01
 0.2022203611596E+01
 0.1930181821896E+01
 0.1840703010590E+01
 0.1756407686328E+01
 0.1679183682018E+01
 0.1610376044733E+01
 0.1550886327648E+01
 0.1501188288822E+01
 0.1461338638239E+01
 0.1431124179797E+01
 0.1409982559034E+01
 0.1398150945389E+01
 0.1395571768783E+01
 0.1401973444220E+01
 0.1417755470373E+01
 0.1443218711765E+01
 0.1477045423500E+01
 0.1519709103537E+01
 0.1506591295730E+01
 0.2112099271051E+01
 0.2022203606664E+01
 0.1930181817093E+01
 0.1840703005960E+01
 0.1756407681985E+01
 0.1679183678086E+01
 0.1610376041318E+01
 0.1550886324808E+01
 0.1501188286557E+01
 0.1461338636491E+01
 0.1431124178477E+01
 0.1409982558052E+01
 0.1398150944593E+01
 0.1395571768112E+01
 0.1401973443613E+01
 0.1417755469765E+01
 0.1443218711126E+01
 0.1477045422793E+01
 0.1519709102786E+01
 0.1506591295809E+01
 0.2098801530858E+01
 0.2004512946295E+01
 0.1908640212014E+01
 0.1814927140250E+01
 0.1726546038534E+01
 0.1645606012231E+01
 0.1573597345604E+01
 0.1511487346610E+01
 0.1459733565900E+01
 0.1418336844777E+01
 0.1386891292662E+01
 0.1364891264153E+01
 0.1352396030379E+01
 0.1349609468292E+01
 0.1356476247321E+01
 0.1373177834305E+01
 0.1399072045715E+01
 0.1433488514274E+01
 0.1465772309396E+01
 0.1522116901066E+01
 0.2085635314824E+01
 0.1987677404175E+01
 0.1886979253333E+01
 0.1788455065045E+01
 0.1695460301268E+01
 0.1610384970531E+01
 0.1534858455676E+01
 0.1469889646236E+01
 0.1415893229053E+01
 0.1372755389996E+01
 0.1339961573240E+01
 0.1316761315777E+01
 0.1303370080548E+01
 0.1300179695321E+01
 0.1307140617265E+01
 0.1324244730925E+01
 0.1351042932958E+01
 0.1385732460001E+01
 0.1433026915976E+01
 0.1499620883506E+01
 0.2073679106063E+01
 0.1971437129029E+01
 0.1865347415673E+01
 0.1761256525571E+01
 0.1663062044130E+01
 0.1573391962156E+01
 0.1494023467530E+01
 0.1425980689864E+01
 0.1369590212109E+01
 0.1324597459125E+01
 0.1290295453866E+01
 0.1265703594071E+01
 0.1251182068403E+01
 0.1247321843533E+01
 0.1254084853900E+01
 0.1271629651224E+01
 0.1299622654862E+01
 0.1339217337153E+01
 0.1392906212797E+01
 0.1466661365282E+01
 0.2063360162239E+01
 0.1956057263876E+01
 0.1843735419279E+01
 0.1733293083187E+01
 0.1629218784136E+01
 0.1534458833923E+01
 0.1450928627313E+01
 0.1379634335786E+01
 0.1320761219388E+01
 0.1273847833430E+01
 0.1237949707099E+01
 0.1211816925278E+01
 0.1195963251628E+01
 0.1191193562548E+01
 0.1197602626567E+01
 0.1215570412072E+01
 0.1245509197937E+01
 0.1288499630398E+01
 0.1347017309324E+01
 0.1425999270101E+01
 0.2055160045660E+01
 0.1941776710428E+01
 0.1822199604839E+01
 0.1704466163392E+01
 0.1593750476459E+01
 0.1493367148897E+01
 0.1405376280815E+01
 0.1330714375686E+01
 0.1269346576702E+01
 0.1220526394420E+01
 0.1183009387913E+01
 0.1155240872908E+01
 0.1137886729084E+01
 0.1132004361641E+01
 0.1137864939603E+01
 0.1156174761357E+01
 0.1187537618745E+01
 0.1233107466863E+01
 0.1295274856172E+01
 0.1378777632135E+01
 0.2049629002613E+01
 0.1928869219472E+01
 0.1800785450937E+01
 0.1674638938307E+01
 0.1556405902681E+01
 0.1449836940265E+01
 0.1357130681783E+01
 0.1279075921929E+01
 0.1215306119500E+01
 0.1164686245239E+01
 0.1125600417253E+01
 0.1096152286637E+01
 0.1077156270040E+01
 0.1069940200832E+01
 0.1074987538466E+01
 0.1093224193469E+01
 0.1125411074849E+01
 0.1172737471363E+01
 0.1237719455614E+01
 0.1325179554780E+01
 0.2047435533313E+01
 0.1917649520423E+01
 0.1779524564632E+01
 0.1643607418722E+01
 0.1516844126175E+01
 0.1403509934502E+01
 0.1305915726184E+01
 0.1224575525461E+01
 0.1158631037908E+01
 0.1106425524667E+01
 0.1065892172393E+01
 0.1034761936746E+01
 0.1013986326340E+01
 0.1005179551578E+01
 0.1009037359262E+01
 0.1026682376683E+01
 0.1059010681173E+01
 0.1107298922828E+01
 0.1174265010577E+01
 0.1265105072099E+01
 0.2049420021343E+01
 0.1908493820628E+01
 0.1758422338017E+01
 0.1611068292345E+01
 0.1474599232850E+01
 0.1353931874351E+01
 0.1251418049192E+01
 0.1167088313789E+01
 0.1099363400384E+01
 0.1045899474380E+01
 0.1004100274403E+01
 0.9713080026088E+00
 0.9486027047933E+00
 0.9379033938472E+00
 0.9401388815060E+00
 0.9566141407783E+00
 0.9883636904016E+00
 0.1036768945417E+01
 0.1104810885994E+01
 0.1198311180061E+01
 0.2056675114709E+01
 0.1901868434032E+01
 0.1737439288270E+01
 0.1576566579482E+01
 0.1429030984499E+01
 0.1300533550290E+01
 0.1193301163297E+01
 0.1106537916727E+01
 0.1037622375639E+01
 0.9833332109338E+00
 0.9404863551545E+00
 0.9060514888081E+00
 0.8812413286092E+00
 0.8683164649436E+00
 0.8684701959639E+00
 0.8831769294649E+00
 0.9135954080887E+00
 0.9612014111748E+00
 0.1029275097222E+01
 0.1124496041102E+01
 0.2070672165151E+01
 0.1898373634576E+01
 0.1716454632165E+01
 0.1539410108434E+01
 0.1379255108456E+01
 0.1242617840497E+01
 0.1131240710330E+01
 0.1042944413775E+01
 0.9736361144183E+00
 0.9190306888381E+00
 0.8753526371226E+00
 0.8392673302203E+00
 0.8121453514150E+00
 0.7966440180116E+00
 0.7942587758560E+00
 0.8066063894251E+00
 0.8349274025610E+00
 0.8807416748578E+00
 0.9476322974495E+00
 0.1043344742840E+01
 0.2093470299695E+01
 0.1898811342749E+01
 0.1695192562053E+01
 0.1498525088688E+01
 0.1324049060889E+01
 0.1179368792773E+01
 0.1064998343024E+01
 0.9764940732782E+00
 0.9077725291279E+00
 0.8533720583194E+00
 0.8090269426986E+00
 0.7712307809478E+00
 0.7415552731155E+00
 0.7231236069789E+00
 0.7177718106778E+00
 0.7272111965205E+00
 0.7526840672232E+00
 0.7956524682312E+00
 0.8599530840856E+00
 0.9545701008664E+00
 0.2128079234314E+01
 0.1904291140245E+01
 0.1673066374149E+01
 0.1452208307599E+01
 0.1261735807677E+01
 0.1109921586517E+01
 0.9945586189107E+00
 0.9076270799387E+00
 0.8405506031401E+00
 0.7867895773065E+00
 0.7418372952167E+00
 0.7022016050344E+00
 0.6696975492108E+00
 0.6479937586163E+00
 0.6393056212625E+00
 0.6453682066346E+00
 0.6673025922723E+00
 0.7063445142681E+00
 0.7664531126254E+00
 0.8579600100464E+00
 0.2179130285285E+01
 0.1916391622041E+01
 0.1648841259861E+01
 0.1397689790185E+01
 0.1190087882605E+01
 0.1033569144568E+01
 0.9203611398181E+00
 0.8371058071014E+00
 0.7726044145703E+00
 0.7197139100508E+00
 0.6740864410065E+00
 0.6324117136559E+00
 0.5967742829883E+00
 0.5714812255196E+00
 0.5591723630340E+00
 0.5615147165053E+00
 0.5793394323771E+00
 0.6134093879140E+00
 0.6675552361459E+00
 0.7534448333760E+00
 0.2254196751150E+01
 0.1937419135215E+01
 0.1619826074257E+01
 0.1330407503962E+01
 0.1106360585884E+01
 0.9503061142191E+00
 0.8435758750264E+00
 0.7659975994096E+00
 0.7045449041379E+00
 0.6525260335487E+00
 0.6060364878377E+00
 0.5620614425291E+00
 0.5229539285889E+00
 0.4937853928916E+00
 0.4776841529879E+00
 0.4761346338168E+00
 0.4894684474870E+00
 0.5176449160472E+00
 0.5639677342254E+00
 0.6411986498418E+00
 0.2366795965238E+01
 0.1970577770193E+01
 0.1580085991094E+01
 0.1242607335816E+01
 0.1008202951292E+01
 0.8617245144145E+00
 0.7663959980173E+00
 0.6952389978020E+00
 0.6368670525174E+00
 0.5855269032060E+00
 0.5379184405870E+00
 0.4913229809774E+00
 0.4483586068822E+00
 0.4150588961905E+00
 0.3951329368302E+00
 0.3897453622249E+00
 0.3984582651158E+00
 0.4200639138982E+00
 0.4567586551991E+00
 0.5218102239870E+00
 0.2543137910397E+01
 0.2020706122117E+01
 0.1514119900662E+01
 0.1123173693024E+01
 0.8954194469276E+00
 0.7736417043486E+00
 0.6903408406824E+00
 0.6255165224956E+00
 0.5698639647101E+00
 0.5189714042658E+00
 0.4699576913741E+00
 0.4203473608644E+00
 0.3730453828816E+00
 0.3353692404468E+00
 0.3117838920456E+00
 0.3028775126802E+00
 0.3071570162124E+00
 0.3218134492789E+00
 0.3474429211161E+00
 0.3964840837007E+00
 0.2849109484416E+01
 0.2083370018495E+01
 0.1390250056662E+01
 0.9508315026954E+00
 0.7880572815908E+00
 0.6882610645068E+00
 0.6165330248801E+00
 0.5569860897377E+00
 0.5037458049974E+00
 0.4530965981478E+00
 0.4024117061195E+00
 0.3493033559778E+00
 0.2969365190839E+00
 0.2546514646864E+00
 0.2278516245438E+00
 0.2161596417375E+00
 0.2163527702696E+00
 0.2241796717874E+00
 0.2377012945022E+00
 0.2675969200301E+00
 0.3431266762270E+01
 0.2176058095316E+01
 0.1032789783991E+01
 0.8099724869969E+00
 0.6866859028986E+00
 0.6078771519431E+00
 0.5445268573043E+00
 0.4898560345311E+00
 0.4386223018598E+00
 0.3880650816840E+00
 0.3357728889898E+00
 0.2783544296229E+00
 0.2197736426175E+00
 0.1724519891971E+00
 0.1436649759199E+00
 0.1303445387415E+00
 0.1270034136100E+00
 0.1276612507595E+00
 0.1302688479387E+00
 0.1372130581930E+00
 0.5704226888998E+01
 0.1129073065010E+01
 0.8374821138028E+00
 0.6823391500695E+00
 0.5970992048794E+00
 0.5298557494006E+00
 0.4743814689968E+00
 0.4243105446933E+00
 0.3747564154402E+00
 0.3235416348297E+00
 0.2706183677344E+00
 0.2094079792995E+00
 0.1390065726439E+00
 0.8813086722545E-01
 0.6069915289371E-01
 0.4576712588493E-01
 0.3976294809826E-01
 0.3433200078361E-01
 0.2245288358640E-01
 0.1639465144203E-01
 0.1694010569924E+01
 0.1614640050861E+01
 0.1579104361531E+01
 0.1542310455861E+01
 0.1503062298315E+01
 0.1459243592980E+01
 0.1410023509342E+01
 0.1354674026930E+01
 0.1292545847490E+01
 0.1222987036318E+01
 0.1145323698374E+01
 0.1058848025807E+01
 0.9628185869308E+00
 0.8564757676362E+00
 0.7390977403938E+00
 0.6101086809556E+00
 0.4695031604815E+00
 0.3180053226016E+00
 0.1618986185100E+00
-0.9556825995699E-02
 0.1713107082297E+01
 0.1690757642440E+01
 0.1653524309762E+01
 0.1622202036499E+01
 0.1588554765311E+01
 0.1551245232731E+01
 0.1508840216539E+01
 0.1460382491282E+01
 0.1404971226317E+01
 0.1341698723898E+01
 0.1269583731243E+01
 0.1187531884814E+01
 0.1094299780557E+01
 0.9884658127378E+00
 0.8684086831479E+00
 0.7323624985247E+00
 0.5784719996876E+00
 0.4059614139651E+00
 0.2144942322868E+00
 0.2572079467591E-01
 0.1759898131699E+01
 0.1745599854435E+01
 0.1725644299884E+01
 0.1701495238757E+01
 0.1675740428562E+01
 0.1646414778942E+01
 0.1612445948240E+01
 0.1572729882591E+01
 0.1526236787991E+01
 0.1471880090139E+01
 0.1408455045079E+01
 0.1334571299558E+01
 0.1248582234492E+01
 0.1148496157623E+01
 0.1031866822060E+01
 0.8956171548200E+00
 0.7359284271135E+00
 0.5475718838371E+00
 0.3254741496116E+00
 0.6733469247213E-01
 0.1807964691245E+01
 0.1803028718070E+01
 0.1792961199270E+01
 0.1779631680063E+01
 0.1763143062727E+01
 0.1743404769814E+01
 0.1719430588125E+01
 0.1690262633344E+01
 0.1654856966105E+01
 0.1612082574700E+01
 0.1560653678781E+01
 0.1499060027224E+01
 0.1425475615552E+01
 0.1337635457864E+01
 0.1232647198019E+01
 0.1106710881215E+01
 0.9545252771524E+00
 0.7684612332078E+00
 0.5352519410649E+00
 0.2233906147516E+00
 0.1856298774391E+01
 0.1859567426844E+01
 0.1859276157545E+01
 0.1856000038085E+01
 0.1850000826121E+01
 0.1840958760651E+01
 0.1828320305045E+01
 0.1811263835150E+01
 0.1788866805595E+01
 0.1760082064497E+01
 0.1723708383545E+01
 0.1678331311888E+01
 0.1622243554484E+01
 0.1553329794521E+01
 0.1468895788307E+01
 0.1365373865367E+01
 0.1237850484336E+01
 0.1078927539020E+01
 0.8764634207021E+00
 0.6041816420964E+00
 0.1903631770708E+01
 0.1915006873634E+01
 0.1923986645900E+01
 0.1930839818241E+01
 0.1935586610701E+01
 0.1938015812166E+01
 0.1937667257122E+01
 0.1933926481108E+01
 0.1926041387461E+01
 0.1913150386326E+01
 0.1894265790853E+01
 0.1868243972653E+01
 0.1833738771818E+01
 0.1789137565905E+01
 0.1732468680996E+01
 0.1661274097636E+01
 0.1572402819768E+01
 0.1461808499693E+01
 0.1324463053399E+01
 0.1162968022378E+01
 0.1949444975991E+01
 0.1968753120779E+01
 0.1986806179687E+01
 0.2003676848904E+01
 0.2019341027267E+01
 0.2033612136037E+01
 0.2046163295503E+01
 0.2056542659803E+01
 0.2064205099211E+01
 0.2068524220527E+01
 0.2068799482242E+01
 0.2064252712137E+01
 0.2054022699983E+01
 0.2037162319254E+01
 0.2012649335066E+01
 0.1979432099555E+01
 0.1936582359804E+01
 0.1883774215287E+01
 0.1822970529489E+01
 0.1762593817606E+01
 0.1993342388313E+01
 0.2020416820328E+01
 0.2047338018046E+01
 0.2074108466176E+01
 0.2100692231326E+01
 0.2126967768682E+01
 0.2152724327018E+01
 0.2177678625991E+01
 0.2201491956793E+01
 0.2223790050553E+01
 0.2244180284051E+01
 0.2262271746129E+01
 0.2277702996053E+01
 0.2290188682053E+01
 0.2299603793173E+01
 0.2306142340476E+01
 0.2310638000049E+01
 0.2315160482146E+01
 0.2324258698594E+01
 0.2341886753841E+01
 0.2035067061813E+01
 0.2069743223541E+01
 0.2105348240321E+01
 0.2141867796853E+01
 0.2179295949360E+01
 0.2217588096246E+01
 0.2256655683646E+01
 0.2296376378464E+01
 0.2336612043974E+01
 0.2377230254984E+01
 0.2418130819621E+01
 0.2459279593070E+01
 0.2500756185056E+01
 0.2542825800475E+01
 0.2586051766574E+01
 0.2631478554674E+01
 0.2680907872915E+01
 0.2737351095781E+01
 0.2804940937809E+01
 0.2891482501896E+01
 0.2074486064342E+01
 0.2116635767788E+01
 0.2160751861305E+01
 0.2206850275127E+01
 0.2254984155427E+01
 0.2305199004064E+01
 0.2357528467313E+01
 0.2412003970903E+01
 0.2468672067603E+01
 0.2527617892302E+01
 0.2588995034121E+01
 0.2653064542358E+01
 0.2720247496029E+01
 0.2791197751150E+01
 0.2866904042353E+01
 0.2948825792725E+01
 0.3039073067031E+01
 0.3140501925170E+01
 0.3257105753292E+01
 0.3393691342532E+01
 0.2111214218112E+01
 0.2160632575721E+01
 0.2212977344627E+01
 0.2268350334692E+01
 0.2326881548499E+01
 0.2388712543475E+01
 0.2453994777254E+01
 0.2522899478672E+01
 0.2595634334150E+01
 0.2672465981692E+01
 0.2753748691089E+01
 0.2839960549418E+01
 0.2931749170475E+01
 0.3029988970632E+01
 0.3135849253950E+01
 0.3250869282237E+01
 0.3377005558682E+01
 0.3516671870507E+01
 0.3672554686312E+01
 0.3846972962566E+01
 0.2144947458398E+01
 0.2201255212212E+01
 0.2261400016303E+01
 0.2325572343667E+01
 0.2393988042717E+01
 0.2466882842322E+01
 0.2544515720014E+01
 0.2627178523912E+01
 0.2715210844926E+01
 0.2809019380485E+01
 0.2909101713066E+01
 0.3016074580575E+01
 0.3130706337624E+01
 0.3253951684894E+01
 0.3386983910162E+01
 0.3531210726453E+01
 0.3688261003759E+01
 0.3859885984289E+01
 0.4047720917062E+01
 0.4252928977294E+01
 0.2175463500993E+01
 0.2238144912039E+01
 0.2305521799655E+01
 0.2377863752167E+01
 0.2455467774137E+01
 0.2538656158649E+01
 0.2627781046292E+01
 0.2723233134271E+01
 0.2825453614852E+01
 0.2934948889138E+01
 0.3052307501813E+01
 0.3178218410323E+01
 0.3313488772367E+01
 0.3459057785883E+01
 0.3615999775606E+01
 0.3785507321217E+01
 0.3968836359051E+01
 0.4167197052155E+01
 0.4381592503865E+01
 0.4612651922841E+01
 0.2202575920406E+01
 0.2271018898655E+01
 0.2344946586210E+01
 0.2424697935112E+01
 0.2510641531973E+01
 0.2603174454921E+01
 0.2702725948937E+01
 0.2809763946253E+01
 0.2924803376565E+01
 0.3048415589841E+01
 0.3181238049697E+01
 0.3323982923397E+01
 0.3477442329945E+01
 0.3642486636831E+01
 0.3820050859227E+01
 0.4011102283445E+01
 0.4216583645965E+01
 0.4437332533748E+01
 0.4673993033223E+01
 0.4926957517233E+01
 0.2226123733598E+01
 0.2299643018160E+01
 0.2379350643574E+01
 0.2465645332650E+01
 0.2558956469149E+01
 0.2659742944232E+01
 0.2768495161671E+01
 0.2885738777282E+01
 0.3012039109207E+01
 0.3148005400193E+01
 0.3294293966436E+01
 0.3451608861095E+01
 0.3620698087313E+01
 0.3802342815220E+01
 0.3997336633668E+01
 0.4206452610142E+01
 0.4430398830956E+01
 0.4669769227546E+01
 0.4925004567391E+01
 0.5196379161060E+01
 0.2245968149887E+01
 0.2323819398804E+01
 0.2408463818407E+01
 0.2500350235336E+01
 0.2599957955038E+01
 0.2707795079718E+01
 0.2824398684307E+01
 0.2950335751974E+01
 0.3086203920189E+01
 0.3232631227383E+01
 0.3390273988675E+01
 0.3559811726302E+01
 0.3741937871115E+01
 0.3937344893213E+01
 0.4146702956399E+01
 0.4370632539570E+01
 0.4609673971313E+01
 0.4864261004646E+01
 0.5134708287429E+01
 0.5421221500619E+01
 0.2261991959993E+01
 0.2343381613416E+01
 0.2432060202837E+01
 0.2528517029364E+01
 0.2633270754341E+01
 0.2746867101683E+01
 0.2869877346583E+01
 0.3002896793600E+01
 0.3146542433833E+01
 0.3301449097387E+01
 0.3468263459649E+01
 0.3647635261850E+01
 0.3840205178705E+01
 0.4046589052415E+01
 0.4267358876813E+01
 0.4503022023034E+01
 0.4754001864845E+01
 0.5020623333143E+01
 0.5303110906370E+01
 0.5601607573896E+01
 0.2274099486176E+01
 0.2358192129883E+01
 0.2449952716563E+01
 0.2549901303018E+01
 0.2658585826007E+01
 0.2776579175100E+01
 0.2904476363265E+01
 0.3042891105582E+01
 0.3192451130530E+01
 0.3353791730448E+01
 0.3527547177638E+01
 0.3714339785684E+01
 0.3914766642245E+01
 0.4129384443322E+01
 0.4358693433781E+01
 0.4603122181460E+01
 0.4863015208497E+01
 0.5138626183353E+01
 0.5430110925164E+01
 0.5737533956697E+01
 0.2282216422164E+01
 0.2368140692605E+01
 0.2461989073279E+01
 0.2564302795312E+01
 0.2675649380112E+01
 0.2796619351284E+01
 0.2927822650020E+01
 0.3069883937194E+01
 0.3223436355793E+01
 0.3389113423724E+01
 0.3567538910765E+01
 0.3759314795200E+01
 0.3965007723241E+01
 0.4185134798884E+01
 0.4420149961275E+01
 0.4670432477610E+01
 0.4936279192881E+01
 0.5217900633747E+01
 0.5515424075927E+01
 0.5828848438767E+01
 0.2286289897699E+01
 0.2373142799042E+01
 0.2468048583244E+01
 0.2571560106534E+01
 0.2684254707437E+01
 0.2806731616637E+01
 0.2939607988405E+01
 0.3083513579533E+01
 0.3239083746599E+01
 0.3406950541817E+01
 0.3587731887322E+01
 0.3782019091408E+01
 0.3990363325535E+01
 0.4213262066823E+01
 0.4451146828031E+01
 0.4704373620736E+01
 0.4973217326118E+01
 0.5257871072222E+01
 0.5558450257361E+01
 0.5875034104359E+01
 0.2286289897665E+01
 0.2373142798938E+01
 0.2468048583052E+01
 0.2571560106240E+01
 0.2684254707021E+01
 0.2806731616081E+01
 0.2939607987686E+01
 0.3083513578630E+01
 0.3239083745488E+01
 0.3406950540474E+01
 0.3587731885723E+01
 0.3782019089529E+01
 0.3990363323354E+01
 0.4213262064320E+01
 0.4451146825188E+01
 0.4704373617537E+01
 0.4973217322553E+01
 0.5257871068282E+01
 0.5558450253040E+01
 0.5875034099649E+01
 0.2282216422065E+01
 0.2368140692295E+01
 0.2461989072714E+01
 0.2564302794442E+01
 0.2675649378881E+01
 0.2796619349635E+01
 0.2927822647889E+01
 0.3069883934515E+01
 0.3223436352496E+01
 0.3389113419735E+01
 0.3567538906013E+01
 0.3759314789615E+01
 0.3965007716756E+01
 0.4185134791436E+01
 0.4420149952812E+01
 0.4670432468086E+01
 0.4936279182262E+01
 0.5217900622008E+01
 0.5515424063052E+01
 0.5828848424743E+01
 0.2274099486016E+01
 0.2358192129376E+01
 0.2449952715637E+01
 0.2549901301591E+01
 0.2658585823990E+01
 0.2776579172396E+01
 0.2904476359771E+01
 0.3042891101186E+01
 0.3192451125116E+01
 0.3353791723895E+01
 0.3527547169827E+01
 0.3714339776497E+01
 0.3914766631568E+01
 0.4129384431050E+01
 0.4358693419823E+01
 0.4603122165740E+01
 0.4863015190955E+01
 0.5138626163949E+01
 0.5430110903873E+01
 0.5737533933522E+01
 0.2261991959772E+01
 0.2343381612720E+01
 0.2432060201565E+01
 0.2528517027405E+01
 0.2633270751572E+01
 0.2746867097970E+01
 0.2869877341782E+01
 0.3002896787558E+01
 0.3146542426387E+01
 0.3301449088371E+01
 0.3468263448892E+01
 0.3647635249181E+01
 0.3840205163964E+01
 0.4046589035450E+01
 0.4267358857491E+01
 0.4503022001243E+01
 0.4754001840497E+01
 0.5020623306178E+01
 0.5303110876755E+01
 0.5601607541624E+01
 0.2245968149608E+01
 0.2323819397927E+01
 0.2408463816806E+01
 0.2500350232871E+01
 0.2599957951555E+01
 0.2707795075049E+01
 0.2824398678269E+01
 0.2950335744372E+01
 0.3086203910815E+01
 0.3232631216021E+01
 0.3390273975103E+01
 0.3559811710297E+01
 0.3741937852460E+01
 0.3937344871705E+01
 0.4146702931855E+01
 0.4370632511835E+01
 0.4609673940268E+01
 0.4864260970207E+01
 0.5134708249545E+01
 0.5421221459272E+01
 0.2226123733263E+01
 0.2299643017111E+01
 0.2379350641662E+01
 0.2465645329709E+01
 0.2558956464996E+01
 0.2659742938665E+01
 0.2768495154473E+01
 0.2885738768214E+01
 0.3012039098019E+01
 0.3148005386619E+01
 0.3294293950200E+01
 0.3451608841916E+01
 0.3620698064912E+01
 0.3802342789332E+01
 0.3997336604051E+01
 0.4206452576588E+01
 0.4430398793302E+01
 0.4669769185678E+01
 0.4925004521246E+01
 0.5196379110596E+01
 0.2202575920017E+01
 0.2271018897445E+01
 0.2344946584010E+01
 0.2424697931732E+01
 0.2510641527204E+01
 0.2603174448532E+01
 0.2702725940677E+01
 0.2809763935848E+01
 0.2924803363719E+01
 0.3048415574240E+01
 0.3181238031008E+01
 0.3323982901278E+01
 0.3477442304049E+01
 0.3642486606819E+01
 0.3820050824779E+01
 0.4011102244283E+01
 0.4216583601868E+01
 0.4437332484565E+01
 0.4673992978867E+01
 0.4926957457699E+01
 0.2175463500555E+01
 0.2238144910682E+01
 0.2305521797194E+01
 0.2377863748394E+01
 0.2455467768819E+01
 0.2538656151531E+01
 0.2627781037092E+01
 0.2723233122683E+01
 0.2825453600541E+01
 0.2934948871741E+01
 0.3052307480944E+01
 0.3178218385573E+01
 0.3313488743311E+01
 0.3459057752095E+01
 0.3615999736672E+01
 0.3785507276761E+01
 0.3968836308763E+01
 0.4167196995817E+01
 0.4381592441377E+01
 0.4612651854189E+01
 0.2144947457912E+01
 0.2201255210722E+01
 0.2261400013611E+01
 0.2325572339550E+01
 0.2393988036924E+01
 0.2466882834577E+01
 0.2544515710012E+01
 0.2627178511318E+01
 0.2715210829370E+01
 0.2809019361563E+01
 0.2909101690337E+01
 0.3016074553563E+01
 0.3130706305822E+01
 0.3253951647775E+01
 0.3386983867191E+01
 0.3531210677118E+01
 0.3688260947609E+01
 0.3859885920995E+01
 0.4047720846461E+01
 0.4252928899413E+01
 0.2111214217582E+01
 0.2160632574119E+01
 0.2212977341745E+01
 0.2268350330295E+01
 0.2326881542323E+01
 0.2388712535230E+01
 0.2453994766620E+01
 0.2522899465292E+01
 0.2595634317629E+01
 0.2672465961591E+01
 0.2753748666921E+01
 0.2839960520644E+01
 0.2931749136506E+01
 0.3029988930828E+01
 0.3135849207634E+01
 0.3250869228719E+01
 0.3377005497301E+01
 0.3516671800703E+01
 0.3672554607781E+01
 0.3846972875329E+01
 0.2074486063775E+01
 0.2116635766107E+01
 0.2160751858291E+01
 0.2206850270536E+01
 0.2254984148987E+01
 0.2305198995479E+01
 0.2357528456255E+01
 0.2412003957006E+01
 0.2468672050456E+01
 0.2527617871443E+01
 0.2588995009031E+01
 0.2653064512449E+01
 0.2720247460638E+01
 0.2791197709531E+01
 0.2866903993674E+01
 0.2948825736076E+01
 0.3039073001469E+01
 0.3140501849783E+01
 0.3257105667289E+01
 0.3393691245838E+01
 0.2035067061237E+01
 0.2069743221834E+01
 0.2105348237250E+01
 0.2141867792167E+01
 0.2179295942789E+01
 0.2217588087495E+01
 0.2256655672386E+01
 0.2296376364330E+01
 0.2336612026555E+01
 0.2377230233811E+01
 0.2418130794159E+01
 0.2459279562703E+01
 0.2500756149070E+01
 0.2542825758038E+01
 0.2586051716711E+01
 0.2631478496252E+01
 0.2680907804633E+01
 0.2737351016256E+01
 0.2804940845638E+01
 0.2891482395475E+01
 0.1993342387731E+01
 0.2020416818593E+01
 0.2047338014921E+01
 0.2074108461412E+01
 0.2100692224653E+01
 0.2126967759814E+01
 0.2152724315635E+01
 0.2177678611738E+01
 0.2201491939267E+01
 0.2223790029294E+01
 0.2244180258527E+01
 0.2262271715721E+01
 0.2277702960027E+01
 0.2290188639529E+01
 0.2299603743082E+01
 0.2306142281491E+01
 0.2310637930520E+01
 0.2315160400017E+01
 0.2324258601772E+01
 0.2341886639827E+01
 0.1949444975379E+01
 0.1968753118981E+01
 0.1986806176468E+01
 0.2003676844019E+01
 0.2019341020458E+01
 0.2033612127029E+01
 0.2046163283994E+01
 0.2056542645456E+01
 0.2064205081645E+01
 0.2068524199307E+01
 0.2068799456863E+01
 0.2064252682006E+01
 0.2054022664389E+01
 0.2037162277330E+01
 0.2012649285727E+01
 0.1979432041397E+01
 0.1936582290943E+01
 0.1883774133122E+01
 0.1822970430186E+01
 0.1762593698848E+01
 0.1903631770061E+01
 0.1915006871772E+01
 0.1923986642588E+01
 0.1930839813244E+01
 0.1935586603780E+01
 0.1938015803067E+01
 0.1937667245568E+01
 0.1933926466796E+01
 0.1926041370048E+01
 0.1913150365422E+01
 0.1894265766008E+01
 0.1868243943343E+01
 0.1833738737420E+01
 0.1789137525654E+01
 0.1732468633930E+01
 0.1661274042487E+01
 0.1572402754778E+01
 0.1461808422211E+01
 0.1324462958938E+01
 0.1162967901277E+01
 0.1856298773712E+01
 0.1859567424928E+01
 0.1859276154159E+01
 0.1856000033010E+01
 0.1850000819145E+01
 0.1840958751553E+01
 0.1828320293587E+01
 0.1811263821071E+01
 0.1788866788607E+01
 0.1760082044280E+01
 0.1723708359741E+01
 0.1678331284092E+01
 0.1622243522230E+01
 0.1553329757263E+01
 0.1468895745385E+01
 0.1365373815953E+01
 0.1237850427329E+01
 0.1078927472815E+01
 0.8764633426339E+00
 0.6041815435137E+00
 0.1807964690541E+01
 0.1803028716121E+01
 0.1792961195839E+01
 0.1779631674963E+01
 0.1763143055780E+01
 0.1743404760846E+01
 0.1719430576945E+01
 0.1690262619748E+01
 0.1654856949875E+01
 0.1612082555609E+01
 0.1560653656592E+01
 0.1499060001697E+01
 0.1425475586445E+01
 0.1337635424948E+01
 0.1232647161091E+01
 0.1106710840138E+01
 0.9545252319206E+00
 0.7684611841134E+00
 0.5352518891052E+00
 0.2233905657895E+00
 0.1759898130994E+01
 0.1745599852479E+01
 0.1725644296449E+01
 0.1701495233681E+01
 0.1675740421745E+01
 0.1646414770254E+01
 0.1612445937540E+01
 0.1572729869738E+01
 0.1526236772847E+01
 0.1471880072578E+01
 0.1408455024998E+01
 0.1334571276888E+01
 0.1248582209224E+01
 0.1148496129836E+01
 0.1031866791983E+01
 0.8956171229360E+00
 0.7359283943414E+00
 0.5475718519639E+00
 0.3254741222991E+00
 0.6733467961589E-01
 0.1713107081647E+01
 0.1690757640542E+01
 0.1653524306272E+01
 0.1622202031500E+01
 0.1588554758727E+01
 0.1551245224469E+01
 0.1508840206503E+01
 0.1460382479387E+01
 0.1404971212503E+01
 0.1341698708133E+01
 0.1269583713538E+01
 0.1187531865242E+01
 0.1094299759274E+01
 0.9884657900292E+00
 0.8684086594913E+00
 0.7323624746988E+00
 0.5784719769667E+00
 0.4059613943907E+00
 0.2144942194099E+00
 0.2572079076849E-01
 0.1694010569699E+01
 0.1614640048589E+01
 0.1579104358004E+01
 0.1542310451029E+01
 0.1503062292095E+01
 0.1459243585289E+01
 0.1410023500120E+01
 0.1354674016148E+01
 0.1292545835152E+01
 0.1222987022471E+01
 0.1145323683113E+01
 0.1058848009295E+01
 0.9628185694191E+00
 0.8564757494987E+00
 0.7390977221754E+00
 0.6101086634464E+00
 0.4695031448064E+00
 0.3180053103587E+00
 0.1618986112050E+00
-0.9556826598228E-02
</DataArray>
<DataArray type="Float64" Name="S_Oct" NumberOfComponents="1" ComponentName0="S_Oct" format="ascii">
 0.1831128520811E+01
 0.1606580836196E+01
 0.1447675924501E+01
 0.1394824900524E+01
 0.1362979265445E+01
 0.1348348552251E+01
 0.1343176108198E+01
 0.1344865860021E+01
 0.1351707577844E+01
 0.1362858374551E+01
 0.1377922592650E+01
 0.1396853443805E+01
 0.1419902730546E+01
 0.1447660318620E+01
 0.1481266368218E+01
 0.1522973071299E+01
 0.1573778949453E+01
 0.1629777181408E+01
 0.1686362227907E+01
 0.1742866555293E+01
 0.1800795278130E+01
 0.1862043545498E+01
 0.1928231276144E+01
 0.2000580387895E+01
 0.2079903528112E+01
 0.2166448709468E+01
 0.2259479285839E+01
 0.2358323215125E+01
 0.2463888240596E+01
 0.2577494009099E+01
 0.2699741198230E+01
 0.2830725396034E+01
 0.2969857599154E+01
 0.3115246086172E+01
 0.3264194000441E+01
 0.3418037722889E+01
 0.3614907106381E+01
 0.3881765138354E+01
 0.4434072499455E+01
 0.4637829588041E+01
 0.7849230786093E+01
 0.1575456484635E+01
 0.1609652798661E+01
 0.1489308735697E+01
 0.1422266848032E+01
 0.1388867738635E+01
 0.1370260701323E+01
 0.1362386193004E+01
 0.1361722858713E+01
 0.1366617570494E+01
 0.1376088302675E+01
 0.1389665584229E+01
 0.1407225522023E+01
 0.1428938391347E+01
 0.1455289291760E+01
 0.1487089221321E+01
 0.1525083176339E+01
 0.1568993500035E+01
 0.1617109711431E+01
 0.1667461043286E+01
 0.1719208690184E+01
 0.1772782846952E+01
 0.1829220641658E+01
 0.1889583732581E+01
 0.1954697877884E+01
 0.2025024253080E+01
 0.2100575813868E+01
 0.2181026005042E+01
 0.2266064869473E+01
 0.2355620448494E+01
 0.2449649392954E+01
 0.2547720424972E+01
 0.2648700172476E+01
 0.2750549610562E+01
 0.2850479060533E+01
 0.2946266048534E+01
 0.3041260652953E+01
 0.3137330550444E+01
 0.3246958219823E+01
 0.3289249633903E+01
 0.2810321813318E+01
 0.5398078164426E+01
 0.1439075042073E+01
 0.1541642109082E+01
 0.1501123021449E+01
 0.1441306167174E+01
 0.1407734245150E+01
 0.1388298707371E+01
 0.1378726299761E+01
 0.1376432977259E+01
 0.1379743088854E+01
 0.1387719668681E+01
 0.1399856417124E+01
 0.1415976631578E+01
 0.1436166101876E+01
 0.1460744472988E+01
 0.1490076856041E+01
 0.1524136088168E+01
 0.1562376081338E+01
 0.1604084976837E+01
 0.1648550051728E+01
 0.1695193336257E+01
 0.1743930998183E+01
 0.1795176693740E+01
 0.1849505600049E+01
 0.1907378144666E+01
 0.1968979796990E+01
 0.2034209690149E+01
 0.2102833981370E+01
 0.2174505250107E+01
 0.2248602123880E+01
 0.2324203508242E+01
 0.2399988279725E+01
 0.2473922446096E+01
 0.2543113196718E+01
 0.2604155517144E+01
 0.2654605740390E+01
 0.2692070676739E+01
 0.2706355398898E+01
 0.2671102315374E+01
 0.2440262395676E+01
 0.2142343622765E+01
 0.4666538219326E+01
 0.1356484026313E+01
 0.1473699287538E+01
 0.1486295876650E+01
 0.1449929419758E+01
 0.1420346652862E+01
 0.1402053388725E+01
 0.1392110061426E+01
 0.1388861282729E+01
 0.1390997614863E+01
 0.1397688460380E+01
 0.1408458272705E+01
 0.1423099635312E+01
 0.1441616190347E+01
 0.1464137975536E+01
 0.1490678805346E+01
 0.1520867679624E+01
 0.1554176013968E+01
 0.1590373744487E+01
 0.1629350959239E+01
 0.1670792107725E+01
 0.1714416833326E+01
 0.1760230353580E+01
 0.1808417238629E+01
 0.1859126471440E+01
 0.1912328138531E+01
 0.1967818404499E+01
 0.2025309439125E+01
 0.2084300739469E+01
 0.2143808164841E+01
 0.2202353620124E+01
 0.2257985097754E+01
 0.2308086865229E+01
 0.2349308513743E+01
 0.2377971865338E+01
 0.2390575470240E+01
 0.2381163062277E+01
 0.2333925163599E+01
 0.2207385653246E+01
 0.1945077458487E+01
 0.2002868279085E+01
 0.4326462941235E+01
 0.1302259494495E+01
 0.1417284432884E+01
 0.1459993742356E+01
 0.1448070178195E+01
 0.1427110803232E+01
 0.1411632227938E+01
 0.1402477767842E+01
 0.1398963742504E+01
 0.1400331792602E+01
 0.1405963169820E+01
 0.1415459794173E+01
 0.1428612002051E+01
 0.1445350310471E+01
 0.1465638614463E+01
 0.1489264031859E+01
 0.1515730765463E+01
 0.1544597552630E+01
 0.1575868293283E+01
 0.1609711804876E+01
 0.1645997107750E+01
 0.1684392531103E+01
 0.1724658711001E+01
 0.1766689456337E+01
 0.1810384357500E+01
 0.1855539831347E+01
 0.1901844481493E+01
 0.1948901823975E+01
 0.1996043581189E+01
 0.2042041385310E+01
 0.2085085186057E+01
 0.2122852215692E+01
 0.2152435483283E+01
 0.2170368969265E+01
 0.2172936688637E+01
 0.2156072392965E+01
 0.2112919184283E+01
 0.2027703425639E+01
 0.1874656984223E+01
 0.1700882707737E+01
 0.2061229526566E+01
 0.4110322735417E+01
 0.1264574308486E+01
 0.1372327412940E+01
 0.1430745169374E+01
 0.1438781547734E+01
 0.1428445660129E+01
 0.1417337260153E+01
 0.1409897450682E+01
 0.1406752287280E+01
 0.1407741838980E+01
 0.1412541953365E+01
 0.1420874443547E+01
 0.1432553513260E+01
 0.1447456537287E+01
 0.1465426301555E+01
 0.1486124826035E+01
 0.1509037602128E+01
 0.1533813914676E+01
 0.1560565986104E+01
 0.1589577655839E+01
 0.1620829542008E+01
 0.1653996615928E+01
 0.1688705106963E+01
 0.1724647760155E+01
 0.1761535115740E+01
 0.1799023723791E+01
 0.1836698132295E+01
 0.1874046471762E+01
 0.1910259449144E+01
 0.1943959880179E+01
 0.1973177411648E+01
 0.1995444311836E+01
 0.2007822429193E+01
 0.2007013564088E+01
 0.1989598012046E+01
 0.1951864679065E+01
 0.1888242546330E+01
 0.1789186064743E+01
 0.1657135119702E+01
 0.1612333223885E+01
 0.2169092214468E+01
 0.3947746392387E+01
 0.1237238337218E+01
 0.1336701383444E+01
 0.1402439588692E+01
 0.1425151941120E+01
 0.1425299817351E+01
 0.1419536112298E+01
 0.1414545715332E+01
 0.1412296604269E+01
 0.1413263553544E+01
 0.1417452121715E+01
 0.1424738264215E+01
 0.1434983762858E+01
 0.1448038984972E+01
 0.1463673691551E+01
 0.1481496494323E+01
 0.1501022870140E+01
 0.1521978065718E+01
 0.1544517647539E+01
 0.1568957948141E+01
 0.1595338850526E+01
 0.1623360875652E+01
 0.1652585480401E+01
 0.1682577165462E+01
 0.1712911833181E+01
 0.1743137937714E+01
 0.1772750372449E+01
 0.1801140092831E+01
 0.1827400936440E+01
 0.1850091270461E+01
 0.1867217702726E+01
 0.1876354812889E+01
 0.1874753154793E+01
 0.1859530190326E+01
 0.1827947462541E+01
 0.1777502335744E+01
 0.1705724251132E+01
 0.1612963305419E+01
 0.1529121501091E+01
 0.1611428990509E+01
 0.2273665530663E+01
 0.3815625838284E+01
 0.1216731291155E+01
 0.1308289401428E+01
 0.1376596621617E+01
 0.1409444443066E+01
 0.1418817938567E+01
 0.1418704755659E+01
 0.1416661973419E+01
 0.1415719792614E+01
 0.1416967701499E+01
 0.1420747346355E+01
 0.1427107622725E+01
 0.1435978383856E+01
 0.1447209848282E+01
 0.1460540925614E+01
 0.1475574103194E+01
 0.1491875262244E+01
 0.1509229353238E+01
 0.1527802248624E+01
 0.1547902726344E+01
 0.1569596709936E+01
 0.1592613694867E+01
 0.1616493217004E+01
 0.1640727216821E+01
 0.1664803938882E+01
 0.1688195176695E+01
 0.1710328862363E+01
 0.1730529422419E+01
 0.1747844034349E+01
 0.1760842332623E+01
 0.1767619585987E+01
 0.1765943271850E+01
 0.1753430910580E+01
 0.1727830088698E+01
 0.1687427792827E+01
 0.1631590883777E+01
 0.1562107299657E+01
 0.1490014967149E+01
 0.1466043673851E+01
 0.1654600867070E+01
 0.2360535142120E+01
 0.3704277243900E+01
 0.1200921423045E+01
 0.1285382808899E+01
 0.1353623207909E+01
 0.1393114530978E+01
 0.1410060377750E+01
 0.1415385082317E+01
 0.1416531172284E+01
 0.1417184273391E+01
 0.1418955447458E+01
 0.1422504066103E+01
 0.1428056392368E+01
 0.1435625248398E+01
 0.1445084532306E+01
 0.1456175554078E+01
 0.1468524509530E+01
 0.1481754625901E+01
 0.1495697409669E+01
 0.1510513470083E+01
 0.1526486705254E+01
 0.1543690125636E+01
 0.1561880804968E+01
 0.1580602696484E+01
 0.1599316476675E+01
 0.1617462244206E+01
 0.1634465948234E+01
 0.1649716098501E+01
 0.1662506476253E+01
 0.1671887889873E+01
 0.1676508075920E+01
 0.1674641295515E+01
 0.1664365143986E+01
 0.1643802620322E+01
 0.1611501609871E+01
 0.1567032671037E+01
 0.1512048749002E+01
 0.1453007074398E+01
 0.1410454506860E+01
 0.1447650489527E+01
 0.1716496594520E+01
 0.2428595208671E+01
 0.3608657182155E+01
 0.1188451815354E+01
 0.1266682081889E+01
 0.1333436866134E+01
 0.1377023324291E+01
 0.1399887827983E+01
 0.1410118493578E+01
 0.1414465471021E+01
 0.1416879553363E+01
 0.1419351886381E+01
 0.1422817696224E+01
 0.1427672796358E+01
 0.1434021169252E+01
 0.1441778964570E+01
 0.1450714149892E+01
 0.1460494613611E+01
 0.1470801764337E+01
 0.1481504417799E+01
 0.1492752097075E+01
 0.1504798754976E+01
 0.1517715324754E+01
 0.1531284660349E+01
 0.1545071717861E+01
 0.1558536227387E+01
 0.1571102872529E+01
 0.1582181093980E+01
 0.1591149364826E+01
 0.1597307599890E+01
 0.1599757237294E+01
 0.1597281408966E+01
 0.1588404664303E+01
 0.1571602238286E+01
 0.1545603233637E+01
 0.1509874626951E+01
 0.1465427391752E+01
 0.1416365781340E+01
 0.1373604110740E+01
 0.1364969278279E+01
 0.1458452694587E+01
 0.1783569968205E+01
 0.2480634251499E+01
 0.3525633387781E+01
 0.1178422827279E+01
 0.1251216294715E+01
 0.1315763840660E+01
 0.1361639218242E+01
 0.1388946803465E+01
 0.1403397733251E+01
 0.1410782845106E+01
 0.1415011328938E+01
 0.1418299274342E+01
 0.1421798492759E+01
 0.1426056251741E+01
 0.1431269180338E+01
 0.1437408181001E+01
 0.1444284201641E+01
 0.1451616926194E+01
 0.1459144240646E+01
 0.1466766408836E+01
 0.1474621481330E+01
 0.1482934950590E+01
 0.1491772892291E+01
 0.1500943283455E+01
 0.1510043077247E+01
 0.1518553414074E+01
 0.1525910451748E+01
 0.1531534168049E+01
 0.1534821965717E+01
 0.1535114890911E+01
 0.1531606803270E+01
 0.1523263568415E+01
 0.1508914063420E+01
 0.1487492489076E+01
 0.1458399422532E+01
 0.1422087825071E+01
 0.1381066444696E+01
 0.1341835768021E+01
 0.1319123290248E+01
 0.1345410866498E+01
 0.1487266539172E+01
 0.1849137702607E+01
 0.2520063460762E+01
 0.3453026666593E+01
 0.1170217489859E+01
 0.1238261571900E+01
 0.1300277703883E+01
 0.1347185999720E+01
 0.1377698025019E+01
 0.1395643520766E+01
 0.1405788423419E+01
 0.1411791302409E+01
 0.1415950641322E+01
 0.1419567357134E+01
 0.1423314344151E+01
 0.1427476325960E+01
 0.1432085568648E+01
 0.1437005769846E+01
 0.1442013289063E+01
 0.1446899893162E+01
 0.1451593989047E+01
 0.1456224715450E+01
 0.1460993947910E+01
 0.1465964101480E+01
 0.1470969048691E+01
 0.1475645583841E+01
 0.1479512973598E+01
 0.1482040829073E+01
 0.1482683859133E+01
 0.1480885379668E+01
 0.1476059163699E+01
 0.1467527075914E+01
 0.1454475115114E+01
 0.1436074986601E+01
 0.1411758397805E+01
 0.1381631303360E+01
 0.1347151879410E+01
 0.1312296164859E+01
 0.1285733810969E+01
 0.1285104824893E+01
 0.1344977681274E+01
 0.1526399003743E+01
 0.1910239705075E+01
 0.2549904559571E+01
 0.3389213529695E+01
 0.1163400583219E+01
 0.1227275804538E+01
 0.1286660688133E+01
 0.1333741839994E+01
 0.1366456337874E+01
 0.1387199468933E+01
 0.1399761762367E+01
 0.1407428325348E+01
 0.1412463997254E+01
 0.1416251860933E+01
 0.1419560022494E+01
 0.1422751840556E+01
 0.1425922409543E+01
 0.1428992763053E+01
 0.1431797337746E+01
 0.1434178989894E+01
 0.1436092729231E+01
 0.1437662815039E+01
 0.1439073890734E+01
 0.1440388241231E+01
 0.1441467629169E+01
 0.1441994749882E+01
 0.1441539719366E+01
 0.1439623479450E+01
 0.1435756509784E+01
 0.1429452059188E+01
 0.1420223913616E+01
 0.1407550939225E+01
 0.1390867161065E+01
 0.1369711890639E+01
 0.1344033515760E+01
 0.1314650400912E+01
 0.1284004225638E+01
 0.1257435775777E+01
 0.1245434066104E+01
 0.1267538622669E+01
 0.1358201359957E+01
 0.1570762769247E+01
 0.1965842950111E+01
 0.2572575260399E+01
 0.3332931061121E+01
 0.1157657776709E+01
 0.1217850062631E+01
 0.1274627998781E+01
 0.1321302361497E+01
 0.1355428508274E+01
 0.1378337430273E+01
 0.1392950193754E+01
 0.1402121554830E+01
 0.1407997319114E+01
 0.1411982659567E+01
 0.1414909077387E+01
 0.1417205620168E+01
 0.1419027539073E+01
 0.1420353840083E+01
 0.1421076108768E+01
 0.1421085551147E+01
 0.1420363357414E+01
 0.1419033523676E+01
 0.1417270341904E+01
 0.1415140728426E+01
 0.1412537191738E+01
 0.1409193323901E+01
 0.1404739931710E+01
 0.1398763719495E+01
 0.1390848727583E+01
 0.1380598662774E+01
 0.1367649896138E+01
 0.1351660766257E+01
 0.1332332476013E+01
 0.1309584921824E+01
 0.1283886353445E+01
 0.1256752517889E+01
 0.1231553315247E+01
 0.1214835742248E+01
 0.1218480565724E+01
 0.1262921088879E+01
 0.1380823538951E+01
 0.1617101708605E+01
 0.2015867118437E+01
 0.2589933428325E+01
 0.3283165350561E+01
 0.1152757553845E+01
 0.1209673360702E+01
 0.1263934771885E+01
 0.1309819594301E+01
 0.1344744312859E+01
 0.1369267500518E+01
 0.1385566921187E+01
 0.1396055848010E+01
 0.1402704485929E+01
 0.1406890393809E+01
 0.1409477938100E+01
 0.1410946921378E+01
 0.1411507032585E+01
 0.1411192997695E+01
 0.1409951065839E+01
 0.1407718154393E+01
 0.1404501840252E+01
 0.1400430520660E+01
 0.1395674910982E+01
 0.1390311821443E+01
 0.1384267854797E+01
 0.1377331777235E+01
 0.1369202768838E+01
 0.1359544798341E+01
 0.1348030059804E+01
 0.1334369549079E+01
 0.1318340034159E+01
 0.1299795642826E+01
 0.1278716159081E+01
 0.1255405202500E+01
 0.1230841253473E+01
 0.1207204845623E+01
 0.1188712131677E+01
 0.1182916764622E+01
 0.1202627064574E+01
 0.1268265770744E+01
 0.1409614743918E+01
 0.1663393638510E+01
 0.2060670963284E+01
 0.2603386810152E+01
 0.3239080528856E+01
 0.1148526608443E+01
 0.1202507286656E+01
 0.1254375269017E+01
 0.1299225417946E+01
 0.1334480352704E+01
 0.1360149197882E+01
 0.1377792252973E+01
 0.1389399200851E+01
 0.1396732233704E+01
 0.1401103133517E+01
 0.1403381801213E+01
 0.1404083250518E+01
 0.1403463889953E+01
 0.1401609914885E+01
 0.1398518733240E+01
 0.1394170414166E+01
 0.1388599405912E+01
 0.1381942900453E+01
 0.1374374364711E+01
 0.1365985788740E+01
 0.1356741390478E+01
 0.1346488808423E+01
 0.1335001578268E+01
 0.1322029908374E+01
 0.1307345695308E+01
 0.1290780397052E+01
 0.1272264433703E+01
 0.1251858461863E+01
 0.1229825617967E+01
 0.1206848432716E+01
 0.1184395995103E+01
 0.1165267307694E+01
 0.1154422176602E+01
 0.1160194507233E+01
 0.1195857414850E+01
 0.1281082784544E+01
 0.1442177023658E+01
 0.1708422664301E+01
 0.2100785916421E+01
 0.2614004176486E+01
 0.3199970461729E+01
 0.1144833481941E+01
 0.1196167699219E+01
 0.1245778951019E+01
 0.1289445260723E+01
 0.1324677531525E+01
 0.1351102005060E+01
 0.1369776602745E+01
 0.1382301818370E+01
 0.1390218090392E+01
 0.1394744377599E+01
 0.1396733089997E+01
 0.1396719422811E+01
 0.1394997716528E+01
 0.1391700120649E+01
 0.1386871066725E+01
 0.1380531258691E+01
 0.1372742541374E+01
 0.1363654842695E+01
 0.1353450078168E+01
 0.1342240420351E+01
 0.1330031139616E+01
 0.1316731898379E+01
 0.1302195159128E+01
 0.1286264138643E+01
 0.1268819156326E+01
 0.1249821842838E+01
 0.1229365338765E+01
 0.1207722688934E+01
 0.1185439665106E+01
 0.1163566668353E+01
 0.1144036143521E+01
 0.1130208655642E+01
 0.1127669876321E+01
 0.1145294699089E+01
 0.1196392607837E+01
 0.1299336751394E+01
 0.1476759992595E+01
 0.1751485734351E+01
 0.2136776974644E+01
 0.2622610561337E+01
 0.3165224011610E+01
 0.1141577397884E+01
 0.1190511440181E+01
 0.1238005628539E+01
 0.1280405785514E+01
 0.1315353516116E+01
 0.1342214493829E+01
 0.1361644272505E+01
 0.1374896354496E+01
 0.1383289167989E+01
 0.1387931586710E+01
 0.1389640232614E+01
 0.1388956779858E+01
 0.1386204411321E+01
 0.1381555042036E+01
 0.1375095652879E+01
 0.1366885081909E+01
 0.1357012984796E+01
 0.1345645420707E+01
 0.1332977730474E+01
 0.1319146797548E+01
 0.1304202104719E+01
 0.1288117928383E+01
 0.1270829003310E+01
 0.1252276379599E+01
 0.1232454944651E+01
 0.1211463046501E+01
 0.1189561896899E+01
 0.1167238653736E+01
 0.1145316610112E+01
 0.1125198250083E+01
 0.1109246368419E+01
 0.1101318160306E+01
 0.1107497435149E+01
 0.1136961736980E+01
 0.1202687634580E+01
 0.1321391605347E+01
 0.1512106331502E+01
 0.1792198202403E+01
 0.2169162980590E+01
 0.2629863906562E+01
 0.3134295535763E+01
 0.1138680464494E+01
 0.1185426602709E+01
 0.1230940681686E+01
 0.1272038920765E+01
 0.1306511422569E+01
 0.1333551826540E+01
 0.1353497384568E+01
 0.1367298906800E+01
 0.1376061647330E+01
 0.1380775195804E+01
 0.1382206737680E+01
 0.1380892557224E+01
 0.1377175876795E+01
 0.1371261978147E+01
 0.1363275800741E+01
 0.1353311822557E+01
 0.1341487725796E+01
 0.1327988513803E+01
 0.1313027178741E+01
 0.1296769256788E+01
 0.1279311187380E+01
 0.1260693859994E+01
 0.1240936527530E+01
 0.1220081178354E+01
 0.1198241110180E+01
 0.1175655120837E+01
 0.1152754641497E+01
 0.1130239271098E+01
 0.1109201295292E+01
 0.1091375959024E+01
 0.1079519107202E+01
 0.1077913841282E+01
 0.1093009811727E+01
 0.1134062469982E+01
 0.1213420318624E+01
 0.1345950514266E+01
 0.1547327327307E+01
 0.1830380746860E+01
 0.2198351708314E+01
 0.2636315739319E+01
 0.3106665063018E+01
 0.1136082114370E+01
 0.1180825332828E+01
 0.1224490751886E+01
 0.1264283708787E+01
 0.1298145752397E+01
 0.1325161715409E+01
 0.1345419596526E+01
 0.1359610436868E+01
 0.1368640784209E+01
 0.1373378035595E+01
 0.1374530537957E+01
 0.1372619393718E+01
 0.1367999763435E+01
 0.1360904035199E+01
 0.1351490570529E+01
 0.1339887004644E+01
 0.1326239021438E+01
 0.1310752799454E+01
 0.1293662463551E+01
 0.1275165499607E+01
 0.1255407539732E+01
 0.1234497468445E+01
 0.1212540297801E+01
 0.1189680537900E+01
 0.1166151714079E+01
 0.1142334371261E+01
 0.1118829626418E+01
 0.1096545138254E+01
 0.1076831080513E+01
 0.1061733554724E+01
 0.1054361019121E+01
 0.1059348117171E+01
 0.1083378918779E+01
 0.1135586178749E+01
 0.1227473678755E+01
 0.1371998971169E+01
 0.1581800995434E+01
 0.1866004099661E+01
 0.2224621885386E+01
 0.2642376783596E+01
 0.3081744049733E+01
 0.1133735063678E+01
 0.1176638448706E+01
 0.1218580027613E+01
 0.1257086881398E+01
 0.1290246367535E+01
 0.1317079041371E+01
 0.1337479416555E+01
 0.1351918376798E+01
 0.1361121280523E+01
 0.1365835085081E+01
 0.1366703567556E+01
 0.1364224972282E+01
 0.1358759258997E+01
 0.1350560048656E+01
 0.1339814770764E+01
 0.1326681762132E+01
 0.1311334432360E+01
 0.1294001808140E+01
 0.1274941912355E+01
 0.1254386811565E+01
 0.1232533003264E+01
 0.1209558117270E+01
 0.1185653241462E+01
 0.1161065650738E+01
 0.1136149163748E+01
 0.1111425310614E+01
 0.1087662174166E+01
 0.1065968992113E+01
 0.1047940832018E+01
 0.1035910900307E+01
 0.1033297684466E+01
 0.1045011568036E+01
 0.1077845757492E+01
 0.1140641124564E+01
 0.1243915043709E+01
 0.1398750332187E+01
 0.1615107803390E+01
 0.1899094888647E+01
 0.2248379894394E+01
 0.2647512374457E+01
 0.3062262915267E+01
 0.1131602324623E+01
 0.1172811375938E+01
 0.1213147117679E+01
 0.1250402720300E+01
 0.1282801089153E+01
 0.1309329366562E+01
 0.1329733052213E+01
 0.1344298260154E+01
 0.1353587889738E+01
 0.1358233478959E+01
 0.1358811535432E+01
 0.1355791780086E+01
 0.1349532928334E+01
 0.1340304510643E+01
 0.1328318945187E+01
 0.1313762862672E+01
 0.1296836880992E+01
 0.1277794027896E+01
 0.1256918315797E+01
 0.1234478361470E+01
 0.1210722611661E+01
 0.1185897560017E+01
 0.1160279837999E+01
 0.1134218556051E+01
 0.1108186401421E+01
 0.1082843425288E+01
 0.1059120220048E+01
 0.1038319539907E+01
 0.1022267003497E+01
 0.1013557900643E+01
 0.1015876950711E+01
 0.1034335317693E+01
 0.1075720811541E+01
 0.1148448477792E+01
 0.1261972957993E+01
 0.1425601258149E+01
 0.1646968806708E+01
 0.1929746259986E+01
 0.2269913893250E+01
 0.2651925257343E+01
 0.3047042059128E+01
 0.1129654961755E+01
 0.1169301044829E+01
 0.1208142453455E+01
 0.1244192540011E+01
 0.1275797343738E+01
 0.1301931563699E+01
 0.1322226793675E+01
 0.1336815276676E+01
 0.1346116154503E+01
 0.1350652701203E+01
 0.1350933858175E+01
 0.1347396973792E+01
 0.1340394606023E+01
 0.1330207514830E+01
 0.1317069363873E+01
 0.1301192740013E+01
 0.1282804732463E+01
 0.1262183048700E+01
 0.1239639158387E+01
 0.1215479558731E+01
 0.1190005138214E+01
 0.1163530755461E+01
 0.1136417279191E+01
 0.1109113710786E+01
 0.1082208934212E+01
 0.1056497681245E+01
 0.1033067253410E+01
 0.1013404700170E+01
 0.9995509191580E+00
 0.9943374745021E+00
 0.1001671256662E+01
 0.1026792348626E+01
 0.1076382982371E+01
 0.1158334110378E+01
 0.1281014608634E+01
 0.1452092416458E+01
 0.1677207963595E+01
 0.1958082658431E+01
 0.2289451710029E+01
 0.2656211401576E+01
 0.3033543760477E+01
 0.1127870382659E+01
 0.1166073497983E+01
 0.1203526145495E+01
 0.1238423995187E+01
 0.1269223157971E+01
 0.1294899756822E+01
 0.1314998968224E+01
 0.1329525694438E+01
 0.1338773200783E+01
 0.1343164906209E+01
 0.1343143717203E+01
 0.1339112334747E+01
 0.1331413340727E+01
 0.1320334725903E+01
 0.1306128027517E+01
 0.1289029540680E+01
 0.1269291897401E+01
 0.1247217738581E+01
 0.1223146888938E+01
 0.1197424451015E+01
 0.1170403670995E+01
 0.1142466683172E+01
 0.1114056588725E+01
 0.1085719466043E+01
 0.1058156697957E+01
 0.1032292767611E+01
 0.1009364870564E+01
 0.9910343061027E+00
 0.9795413754064E+00
 0.9779277596969E+00
 0.9902791792214E+00
 0.1021897957810E+01
 0.1079277245768E+01
 0.1169719142927E+01
 0.1300524339878E+01
 0.1477876815213E+01
 0.1705723066773E+01
 0.1984228443576E+01
 0.2307270522147E+01
 0.2660443696753E+01
 0.3021801707499E+01
 0.1126231018710E+01
 0.1163102027724E+01
 0.1199266220695E+01
 0.1233070330314E+01
 0.1263067714627E+01
 0.1288244734207E+01
 0.1308081518649E+01
 0.1322478123604E+01
 0.1331618535466E+01
 0.1335835319894E+01
 0.1335508208969E+01
 0.1331004298617E+01
 0.1322653387712E+01
 0.1310747376885E+01
 0.1295552689819E+01
 0.1277327187542E+01
 0.1256347954857E+01
 0.1232942444408E+01
 0.1207479218935E+01
 0.1180342147593E+01
 0.1151936201363E+01
 0.1122709147316E+01
 0.1093183691875E+01
 0.1063999441777E+01
 0.1035965751330E+01
 0.1010131082898E+01
 0.9878749637575E+00
 0.9710223316160E+00
 0.9619966747094E+00
 0.9640237168431E+00
 0.9813263778058E+00
 0.1019209480725E+01
 0.1083911289340E+01
 0.1182109876723E+01
 0.1320084176031E+01
 0.1502694726116E+01
 0.1732460052298E+01
 0.2008313924555E+01
 0.2323581831482E+01
 0.2664618049274E+01
 0.3011667418313E+01
 0.1124723294740E+01
 0.1160365712771E+01
 0.1195337173731E+01
 0.1228109638506E+01
 0.1257321617506E+01
 0.1281974962258E+01
 0.1301501262372E+01
 0.1315714615873E+01
 0.1324704812535E+01
 0.1328722683713E+01
 0.1328088561175E+01
 0.1323134044520E+01
 0.1314174244303E+01
 0.1301502294850E+01
 0.1285396900196E+01
 0.1266135461150E+01
 0.1244018293160E+01
 0.1219397211515E+01
 0.1192669439561E+01
 0.1164257256921E+01
 0.1134616214176E+01
 0.1104257558772E+01
 0.1073780428010E+01
 0.1043913795889E+01
 0.1015569801755E+01
 0.9899144760002E+00
 0.9684615783482E+00
 0.9531887044736E+00
 0.9466861962171E+00
 0.9523382642878E+00
 0.9744660561829E+00
 0.1018325391640E+01
 0.1089851398135E+01
 0.1195087678626E+01
 0.1339356863416E+01
 0.1526352921579E+01
 0.1757398152188E+01
 0.2030460867574E+01
 0.2338533611054E+01
 0.2668704451428E+01
 0.3002977281890E+01
 0.1123336815724E+01
 0.1157848258824E+01
 0.1191718776110E+01
 0.1223524164983E+01
 0.1251976967804E+01
 0.1276097301212E+01
 0.1295280885738E+01
 0.1309271605686E+01
 0.1318078546506E+01
 0.1321879713837E+01
 0.1320940392366E+01
 0.1315557629721E+01
 0.1306030721976E+01
 0.1292651953449E+01
 0.1275710066797E+01
 0.1255500098050E+01
 0.1232344265916E+01
 0.1206618016826E+01
 0.1178746749456E+01
 0.1149190328788E+01
 0.1118453269794E+01
 0.1087107686958E+01
 0.1055825499884E+01
 0.1025420385625E+01
 0.9969015675744E+00
 0.9715457580267E+00
 0.9509924734731E+00
 0.9373607689586E+00
 0.9333915933130E+00
 0.9426030447090E+00
 0.9693790260888E+00
 0.1018883886152E+01
 0.1096717852830E+01
 0.1208299311245E+01
 0.1358071199009E+01
 0.1548708797329E+01
 0.1780537908951E+01
 0.2050775299135E+01
 0.2352230523086E+01
 0.2672671092390E+01
 0.2995574104228E+01
 0.1122063718596E+01
 0.1155537072792E+01
 0.1188395095739E+01
 0.1219299672204E+01
 0.1247027322170E+01
 0.1270617500351E+01
 0.1289439722381E+01
 0.1303180705991E+01
 0.1311780761812E+01
 0.1315353555510E+01
 0.1314113996603E+01
 0.1308326157339E+01
 0.1298273048314E+01
 0.1284244549279E+01
 0.1266537538344E+01
 0.1245462904269E+01
 0.1221363360038E+01
 0.1194637010600E+01
 0.1165736586577E+01
 0.1135158293103E+01
 0.1103453569774E+01
 0.1071252374487E+01
 0.1039295355478E+01
 0.1008475821457E+01
 0.9798939838715E+00
 0.9549300040852E+00
 0.9353404227987E+00
 0.9233744560596E+00
 0.9219076932050E+00
 0.9345688984794E+00
 0.9657734387253E+00
 0.1020561054260E+01
 0.1104180105958E+01
 0.1221447955574E+01
 0.1376009701031E+01
 0.1569658015340E+01
 0.1801892404619E+01
 0.2069347285417E+01
 0.2364750161996E+01
 0.2676489463023E+01
 0.2989310717173E+01
 0.1120898151299E+01
 0.1153422518426E+01
 0.1185353688432E+01
 0.1215424872711E+01
 0.1242467580305E+01
 0.1265540531916E+01
 0.1283994357901E+01
 0.1297469374400E+01
 0.1305847573683E+01
 0.1309186218842E+01
 0.1307654638738E+01
 0.1301485966060E+01
 0.1290946991963E+01
 0.1276324098238E+01
 0.1257920702244E+01
 0.1236061881453E+01
 0.1211109372505E+01
 0.1183482762331E+01
 0.1153660958436E+01
 0.1122174888744E+01
 0.1089620499690E+01
 0.1056682209317E+01
 0.1024164999813E+01
 0.9930364154917E+00
 0.9644812614094E+00
 0.9399756656640E+00
 0.9213842910314E+00
 0.9110752127548E+00
 0.9120431591899E+00
 0.9280061005941E+00
 0.9633842413546E+00
 0.1023068760096E+01
 0.1111951948905E+01
 0.1234285104536E+01
 0.1392998383894E+01
 0.1589124924437E+01
 0.1821481613630E+01
 0.2086253206173E+01
 0.2376152717801E+01
 0.2680133872511E+01
 0.2984050558709E+01
 0.1119835851054E+01
 0.1151497314184E+01
 0.1182584930114E+01
 0.1211890929537E+01
 0.1238293834309E+01
 0.1260870808356E+01
 0.1278959096330E+01
 0.1292161466403E+01
 0.1300310700664E+01
 0.1303414987156E+01
 0.1301602849222E+01
 0.1295078832459E+01
 0.1284094004019E+01
 0.1268930547534E+01
 0.1249897095790E+01
 0.1227331362609E+01
 0.1201612592415E+01
 0.1173180506668E+01
 0.1142538765791E+01
 0.1110251077023E+01
 0.1076955143805E+01
 0.1043386150487E+01
 0.1010408735615E+01
 0.9790590280325E+00
 0.9505998095307E+00
 0.9265955146444E+00
 0.9090099195697E+00
 0.9003187347812E+00
 0.9036209637829E+00
 0.9227044056841E+00
 0.9619724144992E+00
 0.1026152340819E+01
 0.1119786840140E+01
 0.1246603397491E+01
 0.1408898356052E+01
 0.1607055269561E+01
 0.1839328944717E+01
 0.2101558198570E+01
 0.2386486275450E+01
 0.2683580222807E+01
 0.2979667738545E+01
 0.1118873800932E+01
 0.1149756043700E+01
 0.1180081464488E+01
 0.1208691020781E+01
 0.1234503201202E+01
 0.1256612316340E+01
 0.1274346317594E+01
 0.1287277691728E+01
 0.1295197911744E+01
 0.1298072792570E+01
 0.1295994710112E+01
 0.1289142178044E+01
 0.1277751369668E+01
 0.1262099898815E+01
 0.1242500526857E+01
 0.1219302154174E+01
 0.1192899984864E+01
 0.1163752385501E+01
 0.1132386115495E+01
 0.1099395435237E+01
 0.1065456767509E+01
 0.1031352104768E+01
 0.9980008330107E+00
 0.9665018170977E+00
 0.9381890346200E+00
 0.9147074394310E+00
 0.8981108514561E+00
 0.8909715401577E+00
 0.8964787109264E+00
 0.9184729384205E+00
 0.9613240448897E+00
 0.1029588228513E+01
 0.1127473517981E+01
 0.1258230389720E+01
 0.1423598981121E+01
 0.1623410704267E+01
 0.1855459103517E+01
 0.2115318092536E+01
 0.2395789781164E+01
 0.2686805216025E+01
 0.2976047075175E+01
 0.1118009948921E+01
 0.1148194756307E+01
 0.1177837745900E+01
 0.1205819963353E+01
 0.1231093652648E+01
 0.1252768692395E+01
 0.1270166749675E+01
 0.1282835988607E+01
 0.1290533412675E+01
 0.1293188556138E+01
 0.1290862126252E+01
 0.1283709274514E+01
 0.1271952364515E+01
 0.1255864337934E+01
 0.1235761200356E+01
 0.1212001680957E+01
 0.1184995373262E+01
 0.1155217682648E+01
 0.1123216618752E+01
 0.1089614526599E+01
 0.1055123264371E+01
 0.1020567452610E+01
 0.9869161294742E+00
 0.9553248965384E+00
 0.9271920259235E+00
 0.9042351124666E+00
 0.8885889221331E+00
 0.8829114142256E+00
 0.8904688380257E+00
 0.9151399626112E+00
 0.9612492884601E+00
 0.1033181585425E+01
 0.1134831977059E+01
 0.1269023208791E+01
 0.1437012355007E+01
 0.1638164664893E+01
 0.1869896715994E+01
 0.2127580815799E+01
 0.2404094853716E+01
 0.2689786108945E+01
 0.2973084087106E+01
 0.1117242977487E+01
 0.1146810640312E+01
 0.1175849661114E+01
 0.1203273890385E+01
 0.1228063850815E+01
 0.1249343258554E+01
 0.1266429674471E+01
 0.1278851829072E+01
 0.1286338176773E+01
 0.1288787491651E+01
 0.1286233077359E+01
 0.1278809441981E+01
 0.1266726410617E+01
 0.1250252367061E+01
 0.1229705846691E+01
 0.1205454130543E+01
 0.1177919616758E+01
 0.1147593047853E+01
 0.1115041671513E+01
 0.1080913243487E+01
 0.1045951565499E+01
 0.1011019522678E+01
 0.9771305620505E+00
 0.9454909088932E+00
 0.9175561402632E+00
 0.8951085467205E+00
 0.8803547387674E+00
 0.8760277513710E+00
 0.8854587232194E+00
 0.9125525600348E+00
 0.9615812752954E+00
 0.1036764026445E+01
 0.1141709852341E+01
 0.1278864025656E+01
 0.1449068870144E+01
 0.1651299253015E+01
 0.1882665400128E+01
 0.2138387407334E+01
 0.2411427040029E+01
 0.2692500842931E+01
 0.2970684977212E+01
 0.1116572114428E+01
 0.1145601755671E+01
 0.1174114216966E+01
 0.1201049976828E+01
 0.1225412995913E+01
 0.1246339031503E+01
 0.1263143082453E+01
 0.1275338466587E+01
 0.1282630225685E+01
 0.1284891373408E+01
 0.1282131848115E+01
 0.1274468235922E+01
 0.1262099227862E+01
 0.1245288935110E+01
 0.1224357848611E+01
 0.1199680593820E+01
 0.1171690779650E+01
 0.1140892707099E+01
 0.1107870714167E+01
 0.1073295121557E+01
 0.1037938009578E+01
 0.1002696014937E+01
 0.9686216344456E+00
 0.9369655192915E+00
 0.9092334965636E+00
 0.8872645568045E+00
 0.8733280673280E+00
 0.8702218139670E+00
 0.8813307195622E+00
 0.9105762484625E+00
 0.9621750042530E+00
 0.1040191486027E+01
 0.1147979228034E+01
 0.1287656257105E+01
 0.1459713666762E+01
 0.1662802864369E+01
 0.1893787118397E+01
 0.2147772774159E+01
 0.2417806789504E+01
 0.2694928384475E+01
 0.2968766593993E+01
 0.1115996977921E+01
 0.1144566815743E+01
 0.1172629283437E+01
 0.1199146208153E+01
 0.1223140688649E+01
 0.1243758715103E+01
 0.1260313787982E+01
 0.1272307135643E+01
 0.1279424865349E+01
 0.1281518768972E+01
 0.1278579234384E+01
 0.1270707619543E+01
 0.1258092976970E+01
 0.1240995562854E+01
 0.1219737363047E+01
 0.1194699198479E+01
 0.1166324289836E+01
 0.1135128656491E+01
 0.1101711468073E+01
 0.1066762622721E+01
 0.1031078672508E+01
 0.9955853727959E+00
 0.9613688219226E+00
 0.9297178366350E+00
 0.9021813902396E+00
 0.8806471383304E+00
 0.8674381433513E+00
 0.8654069253735E+00
 0.8779821351415E+00
 0.9090945666787E+00
 0.9629062694380E+00
 0.1043342271377E+01
 0.1153533870093E+01
 0.1295321414698E+01
 0.1468903804702E+01
 0.1672668376600E+01
 0.1903281719388E+01
 0.2155766283638E+01
 0.2423250265281E+01
 0.2697049153093E+01
 0.2967256374747E+01
 0.1115517450295E+01
 0.1143705010102E+01
 0.1171393383818E+01
 0.1197561187613E+01
 0.1221246809350E+01
 0.1241604683437E+01
 0.1257947514565E+01
 0.1269767211284E+01
 0.1276734881970E+01
 0.1278685238332E+01
 0.1275592724418E+01
 0.1267546118954E+01
 0.1254726390914E+01
 0.1237390459452E+01
 0.1215861434823E+01
 0.1190525232579E+01
 0.1161833083625E+01
 0.1130310837294E+01
 0.1096570146816E+01
 0.1061317385430E+01
 0.1025369655988E+01
 0.9896771051795E+00
 0.9553539170863E+00
 0.9237207679840E+00
 0.8963626364483E+00
 0.8752077771141E+00
 0.8626239194516E+00
 0.8615086108768E+00
 0.8753251760996E+00
 0.9080086522760E+00
 0.9636706544415E+00
 0.1046115330699E+01
 0.1158286869217E+01
 0.1301796520478E+01
 0.1476606021884E+01
 0.1680891762422E+01
 0.1911166614048E+01
 0.2162392245412E+01
 0.2427770038006E+01
 0.2698845460641E+01
 0.2966092278056E+01
 0.1115133576293E+01
 0.1143015862186E+01
 0.1170405525352E+01
 0.1196293978083E+01
 0.1219731414542E+01
 0.1239878959521E+01
 0.1256048957208E+01
 0.1267726335121E+01
 0.1274570702249E+01
 0.1276403501023E+01
 0.1273186654398E+01
 0.1264998959143E+01
 0.1252014892108E+01
 0.1234488627549E+01
 0.1212744099439E+01
 0.1187171255542E+01
 0.1158227734499E+01
 0.1126447289968E+01
 0.1092451640426E+01
 0.1056960441024E+01
 0.1020807334734E+01
 0.9849620595982E+00
 0.9505613196063E+00
 0.9189513115926E+00
 0.8917458500622E+00
 0.8709056978994E+00
 0.8588342601612E+00
 0.8584646980864E+00
 0.8732868677434E+00
 0.9072368354828E+00
 0.9643826238502E+00
 0.1048428754895E+01
 0.1162168674857E+01
 0.1307032018757E+01
 0.1482794974167E+01
 0.1687471032646E+01
 0.1917456550587E+01
 0.2167670310889E+01
 0.2431375677667E+01
 0.2700301917186E+01
 0.2965222721110E+01
 0.1114845482557E+01
 0.1142499116990E+01
 0.1169665065138E+01
 0.1195343975184E+01
 0.1218594651232E+01
 0.1238583193365E+01
 0.1254621827344E+01
 0.1266190513097E+01
 0.1272940521497E+01
 0.1274683572735E+01
 0.1271372338043E+01
 0.1263078179230E+01
 0.1249970693189E+01
 0.1232301954525E+01
 0.1210396472504E+01
 0.1184647194274E+01
 0.1155516563718E+01
 0.1123544285360E+01
 0.1089359671050E+01
 0.1053692395226E+01
 0.1017388562232E+01
 0.9814326474018E+00
 0.9469782727500E+00
 0.9153907934327E+00
 0.8883056690419E+00
 0.8677080605076E+00
 0.8560280925600E+00
 0.8562253863261E+00
 0.8718089671536E+00
 0.9067142693481E+00
 0.9649747354530E+00
 0.1050218523371E+01
 0.1165125498471E+01
 0.1310990123925E+01
 0.1487451875190E+01
 0.1692405440079E+01
 0.1922163461952E+01
 0.2171615802978E+01
 0.2434074246943E+01
 0.2701405782527E+01
 0.2964606518176E+01
 0.1114653315887E+01
 0.1142154655153E+01
 0.1169171607278E+01
 0.1194710808942E+01
 0.1217836688775E+01
 0.1237718641940E+01
 0.1253668884446E+01
 0.1265164189108E+01
 0.1271850402620E+01
 0.1273532872797E+01
 0.1270158170180E+01
 0.1261792725865E+01
 0.1248602879638E+01
 0.1230839287875E+01
 0.1208826823764E+01
 0.1182960422464E+01
 0.1153705730974E+01
 0.1121606431520E+01
 0.1087296918895E+01
 0.1051513574053E+01
 0.1015110835090E+01
 0.9790830223587E+00
 0.9445950492902E+00
 0.9130250513365E+00
 0.8860229266963E+00
 0.8655901096881E+00
 0.8541745193434E+00
 0.8547532928309E+00
 0.8708478788292E+00
 0.9063926133757E+00
 0.9653969910927E+00
 0.1051437499275E+01
 0.1167118064907E+01
 0.1313643555271E+01
 0.1490563474401E+01
 0.1695694894188E+01
 0.1925296366077E+01
 0.2174239980411E+01
 0.2435870696571E+01
 0.2702147251282E+01
 0.2964212828221E+01
 0.1114557198410E+01
 0.1141982430728E+01
 0.1168924928234E+01
 0.1194394271864E+01
 0.1217457668111E+01
 0.1237286152846E+01
 0.1253191957344E+01
 0.1264650297637E+01
 0.1271304348330E+01
 0.1272956303725E+01
 0.1269549704326E+01
 0.1261148523921E+01
 0.1247917472881E+01
 0.1230106493138E+01
 0.1208040634083E+01
 0.1182115821453E+01
 0.1152799303673E+01
 0.1120636754891E+01
 0.1086265117488E+01
 0.1050424133661E+01
 0.1013972416104E+01
 0.9779092135906E+00
 0.9434050889501E+00
 0.9118445701219E+00
 0.8848847771598E+00
 0.8645352834860E+00
 0.8532528993917E+00
 0.8540234819548E+00
 0.8703745828609E+00
 0.9062397843104E+00
 0.9656163393631E+00
 0.1052054676125E+01
 0.1168120693364E+01
 0.1314974620560E+01
 0.1492121327527E+01
 0.1697339550568E+01
 0.1926861303809E+01
 0.2175550237298E+01
 0.2436768162134E+01
 0.2702519667457E+01
 0.2964021113983E+01
 0.1114557198390E+01
 0.1141982430708E+01
 0.1168924928215E+01
 0.1194394271847E+01
 0.1217457668096E+01
 0.1237286152834E+01
 0.1253191957335E+01
 0.1264650297632E+01
 0.1271304348329E+01
 0.1272956303729E+01
 0.1269549704334E+01
 0.1261148523935E+01
 0.1247917472901E+01
 0.1230106493165E+01
 0.1208040634119E+01
 0.1182115821498E+01
 0.1152799303728E+01
 0.1120636754957E+01
 0.1086265117566E+01
 0.1050424133751E+01
 0.1013972416205E+01
 0.9779092137023E+00
 0.9434050890707E+00
 0.9118445702487E+00
 0.8848847772883E+00
 0.8645352836105E+00
 0.8532528995050E+00
 0.8540234820471E+00
 0.8703745829210E+00
 0.9062397843266E+00
 0.9656163393241E+00
 0.1052054676024E+01
 0.1168120693198E+01
 0.1314974620335E+01
 0.1492121327258E+01
 0.1697339550276E+01
 0.1926861303525E+01
 0.2175550237053E+01
 0.2436768161958E+01
 0.2702519667374E+01
 0.2964021114005E+01
 0.1114653315826E+01
 0.1142154655093E+01
 0.1169171607222E+01
 0.1194710808891E+01
 0.1217836688731E+01
 0.1237718641905E+01
 0.1253668884420E+01
 0.1265164189093E+01
 0.1271850402617E+01
 0.1273532872807E+01
 0.1270158170205E+01
 0.1261792725905E+01
 0.1248602879697E+01
 0.1230839287957E+01
 0.1208826823870E+01
 0.1182960422598E+01
 0.1153705731138E+01
 0.1121606431718E+01
 0.1087296919127E+01
 0.1051513574321E+01
 0.1015110835393E+01
 0.9790830226940E+00
 0.9445950496525E+00
 0.9130250517171E+00
 0.8860229270824E+00
 0.8655901100627E+00
 0.8541745196843E+00
 0.8547532931093E+00
 0.8708478790117E+00
 0.9063926134265E+00
 0.9653969909785E+00
 0.1051437498973E+01
 0.1167118064411E+01
 0.1313643554598E+01
 0.1490563473595E+01
 0.1695694893315E+01
 0.1925296365224E+01
 0.2174239979674E+01
 0.2435870696042E+01
 0.2702147251034E+01
 0.2964212828287E+01
 0.1114845482455E+01
 0.1142499116889E+01
 0.1169665065043E+01
 0.1195343975098E+01
 0.1218594651158E+01
 0.1238583193306E+01
 0.1254621827301E+01
 0.1266190513072E+01
 0.1272940521491E+01
 0.1274683572750E+01
 0.1271372338082E+01
 0.1263078179297E+01
 0.1249970693288E+01
 0.1232301954660E+01
 0.1210396472680E+01
 0.1184647194497E+01
 0.1155516563991E+01
 0.1123544285689E+01
 0.1089359671437E+01
 0.1053692395673E+01
 0.1017388562738E+01
 0.9814326479615E+00
 0.9469782733549E+00
 0.9153907940686E+00
 0.8883056696880E+00
 0.8677080611355E+00
 0.8560280931323E+00
 0.8562253867957E+00
 0.8718089674646E+00
 0.9067142694405E+00
 0.9649747352712E+00
 0.1050218522876E+01
 0.1165125497652E+01
 0.1310990122809E+01
 0.1487451873849E+01
 0.1692405438624E+01
 0.1922163460528E+01
 0.2171615801747E+01
 0.2434074246061E+01
 0.2701405782117E+01
 0.2964606518293E+01
 0.1115133576149E+01
 0.1143015862045E+01
 0.1170405525219E+01
 0.1196293977963E+01
 0.1219731414439E+01
 0.1239878959439E+01
 0.1256048957148E+01
 0.1267726335086E+01
 0.1274570702240E+01
 0.1276403501045E+01
 0.1273186654453E+01
 0.1264998959235E+01
 0.1252014892244E+01
 0.1234488627736E+01
 0.1212744099684E+01
 0.1187171255851E+01
 0.1158227734881E+01
 0.1126447290427E+01
 0.1092451640968E+01
 0.1056960441650E+01
 0.1020807335442E+01
 0.9849620603832E+00
 0.9505613204555E+00
 0.9189513124864E+00
 0.8917458509721E+00
 0.8709056987857E+00
 0.8588342609718E+00
 0.8584646987558E+00
 0.8732868681933E+00
 0.9072368356286E+00
 0.9643826236130E+00
 0.1048428754218E+01
 0.1162168673725E+01
 0.1307032017206E+01
 0.1482794972295E+01
 0.1687471030609E+01
 0.1917456548589E+01
 0.2167670309160E+01
 0.2431375676431E+01
 0.2700301916616E+01
 0.2965222721287E+01
 0.1115517450111E+01
 0.1143705009921E+01
 0.1171393383647E+01
 0.1197561187458E+01
 0.1221246809217E+01
 0.1241604683330E+01
 0.1257947514487E+01
 0.1269767211237E+01
 0.1276734881958E+01
 0.1278685238358E+01
 0.1275592724486E+01
 0.1267546119071E+01
 0.1254726391087E+01
 0.1237390459690E+01
 0.1215861435135E+01
 0.1190525232975E+01
 0.1161833084113E+01
 0.1130310837883E+01
 0.1096570147511E+01
 0.1061317386234E+01
 0.1025369656900E+01
 0.9896771061910E+00
 0.9553539181822E+00
 0.9237207691395E+00
 0.8963626376271E+00
 0.8752077782659E+00
 0.8626239205100E+00
 0.8615086117577E+00
 0.8753251767027E+00
 0.9080086524919E+00
 0.9636706541670E+00
 0.1046115329859E+01
 0.1158286867787E+01
 0.1301796518502E+01
 0.1476606019486E+01
 0.1680891759803E+01
 0.1911166611473E+01
 0.2162392243181E+01
 0.2427770036412E+01
 0.2698845459915E+01
 0.2966092278308E+01
 0.1115996977695E+01
 0.1144566815521E+01
 0.1172629283228E+01
 0.1199146207964E+01
 0.1223140688487E+01
 0.1243758714972E+01
 0.1260313787886E+01
 0.1272307135585E+01
 0.1279424865332E+01
 0.1281518769000E+01
 0.1278579234464E+01
 0.1270707619682E+01
 0.1258092977178E+01
 0.1240995563141E+01
 0.1219737363424E+01
 0.1194699198959E+01
 0.1166324290429E+01
 0.1135128657207E+01
 0.1101711468920E+01
 0.1066762623703E+01
 0.1031078673623E+01
 0.9955853740353E+00
 0.9613688232682E+00
 0.9297178380569E+00
 0.9021813916941E+00
 0.8806471397570E+00
 0.8674381446693E+00
 0.8654069264811E+00
 0.8779821359164E+00
 0.9090945669861E+00
 0.9629062691494E+00
 0.1043342270396E+01
 0.1153533868384E+01
 0.1295321412311E+01
 0.1468903801786E+01
 0.1672668373399E+01
 0.1903281716230E+01
 0.2155766280897E+01
 0.2423250263326E+01
 0.2697049152216E+01
 0.2967256375092E+01
 0.1116572114161E+01
 0.1145601755409E+01
 0.1174114216719E+01
 0.1201049976604E+01
 0.1225412995720E+01
 0.1246339031347E+01
 0.1263143082338E+01
 0.1275338466516E+01
 0.1282630225662E+01
 0.1284891373438E+01
 0.1282131848205E+01
 0.1274468236081E+01
 0.1262099228102E+01
 0.1245288935443E+01
 0.1224357849051E+01
 0.1199680594382E+01
 0.1171690780347E+01
 0.1140892707942E+01
 0.1107870715166E+01
 0.1073295122717E+01
 0.1037938010897E+01
 0.1002696016406E+01
 0.9686216360443E+00
 0.9369655209853E+00
 0.9092334983019E+00
 0.8872645585168E+00
 0.8733280689204E+00
 0.8702218153199E+00
 0.8813307205314E+00
 0.9105762488879E+00
 0.9621750039790E+00
 0.1040191484934E+01
 0.1147979226072E+01
 0.1287656254327E+01
 0.1459713663338E+01
 0.1662802860587E+01
 0.1893787114650E+01
 0.2147772770900E+01
 0.2417806787183E+01
 0.2694928383455E+01
 0.2968766594453E+01
 0.1117242977179E+01
 0.1146810640010E+01
 0.1175849660828E+01
 0.1203273890127E+01
 0.1228063850592E+01
 0.1249343258373E+01
 0.1266429674336E+01
 0.1278851828987E+01
 0.1286338176743E+01
 0.1288787491681E+01
 0.1286233077458E+01
 0.1278809442159E+01
 0.1266726410887E+01
 0.1250252367438E+01
 0.1229705847192E+01
 0.1205454131184E+01
 0.1177919617555E+01
 0.1147593048820E+01
 0.1115041672661E+01
 0.1080913244824E+01
 0.1045951567023E+01
 0.1011019524380E+01
 0.9771305639064E+00
 0.9454909108656E+00
 0.9175561422949E+00
 0.8951085487316E+00
 0.8803547406513E+00
 0.8760277529912E+00
 0.8854587244099E+00
 0.9125525606096E+00
 0.9615812750708E+00
 0.1036764025274E+01
 0.1141709850158E+01
 0.1278864022510E+01
 0.1449068866225E+01
 0.1651299248655E+01
 0.1882665395785E+01
 0.2138387403546E+01
 0.2411427037337E+01
 0.2692500841773E+01
 0.2970684977813E+01
 0.1118009948571E+01
 0.1148194755964E+01
 0.1177837745575E+01
 0.1205819963059E+01
 0.1231093652394E+01
 0.1252768692188E+01
 0.1270166749520E+01
 0.1282835988508E+01
 0.1290533412635E+01
 0.1293188556165E+01
 0.1290862126356E+01
 0.1283709274707E+01
 0.1271952364812E+01
 0.1255864338352E+01
 0.1235761200913E+01
 0.1212001681673E+01
 0.1184995374156E+01
 0.1155217683736E+01
 0.1123216620048E+01
 0.1089614528111E+01
 0.1055123266100E+01
 0.1020567454546E+01
 0.9869161315917E+00
 0.9553248987963E+00
 0.9271920282591E+00
 0.9042351147912E+00
 0.8885889243282E+00
 0.8829114161383E+00
 0.8904688394687E+00
 0.9151399633722E+00
 0.9612492883255E+00
 0.1033181584218E+01
 0.1134831974692E+01
 0.1269023205307E+01
 0.1437012350610E+01
 0.1638164659957E+01
 0.1869896711047E+01
 0.2127580811469E+01
 0.2404094850643E+01
 0.2689786107656E+01
 0.2973084087879E+01
 0.1118873800540E+01
 0.1149756043315E+01
 0.1180081464125E+01
 0.1208691020451E+01
 0.1234503200917E+01
 0.1256612316106E+01
 0.1274346317417E+01
 0.1287277691612E+01
 0.1295197911694E+01
 0.1298072792593E+01
 0.1295994710219E+01
 0.1289142178248E+01
 0.1277751369987E+01
 0.1262099899269E+01
 0.1242500527467E+01
 0.1219302154962E+01
 0.1192899985852E+01
 0.1163752386708E+01
 0.1132386116937E+01
 0.1099395436924E+01
 0.1065456769444E+01
 0.1031352106939E+01
 0.9980008353946E+00
 0.9665018196492E+00
 0.9381890372714E+00
 0.9147074420858E+00
 0.8981108539842E+00
 0.8909715423909E+00
 0.8964787126570E+00
 0.9184729394097E+00
 0.9613240448923E+00
 0.1029588227320E+01
 0.1127473515476E+01
 0.1258230385933E+01
 0.1423598976267E+01
 0.1623410698761E+01
 0.1855459097957E+01
 0.2115318087649E+01
 0.2395789777701E+01
 0.2686805214613E+01
 0.2976047076154E+01
 0.1119835850620E+01
 0.1151497313758E+01
 0.1182584929711E+01
 0.1211890929172E+01
 0.1238293833992E+01
 0.1260870808096E+01
 0.1278959096131E+01
 0.1292161466270E+01
 0.1300310700601E+01
 0.1303414987172E+01
 0.1301602849328E+01
 0.1295078832671E+01
 0.1284094004357E+01
 0.1268930548021E+01
 0.1249897096448E+01
 0.1227331363465E+01
 0.1201612593492E+01
 0.1173180507990E+01
 0.1142538767376E+01
 0.1110251078883E+01
 0.1076955145945E+01
 0.1043386152897E+01
 0.1010408738270E+01
 0.9790590308863E+00
 0.9505998125109E+00
 0.9265955176475E+00
 0.9090099224554E+00
 0.9003187373668E+00
 0.9036209658407E+00
 0.9227044069491E+00
 0.9619724146929E+00
 0.1026152339696E+01
 0.1119786837550E+01
 0.1246603393444E+01
 0.1408898350768E+01
 0.1607055263493E+01
 0.1839328938536E+01
 0.2101558193108E+01
 0.2386486271583E+01
 0.2683580221279E+01
 0.2979667739770E+01
 0.1120898150823E+01
 0.1153422517958E+01
 0.1185353687990E+01
 0.1215424872310E+01
 0.1242467579956E+01
 0.1265540531628E+01
 0.1283994357678E+01
 0.1297469374246E+01
 0.1305847573604E+01
 0.1309186218847E+01
 0.1307654638840E+01
 0.1301485966276E+01
 0.1290946992315E+01
 0.1276324098752E+01
 0.1257920702946E+01
 0.1236061882372E+01
 0.1211109373668E+01
 0.1183482763764E+01
 0.1153660960161E+01
 0.1122174890775E+01
 0.1089620502035E+01
 0.1056682211968E+01
 0.1024165002745E+01
 0.9930364186568E+00
 0.9644812647321E+00
 0.9399756690349E+00
 0.9213842943010E+00
 0.9110752157272E+00
 0.9120431616185E+00
 0.9280061021877E+00
 0.9633842418006E+00
 0.1023068759108E+01
 0.1111951946293E+01
 0.1234285100282E+01
 0.1392998378216E+01
 0.1589124917819E+01
 0.1821481606819E+01
 0.2086253200117E+01
 0.2376152713515E+01
 0.2680133870874E+01
 0.2984050560224E+01
 0.1122063718078E+01
 0.1155537072282E+01
 0.1188395095257E+01
 0.1219299671767E+01
 0.1247027321789E+01
 0.1270617500034E+01
 0.1289439722133E+01
 0.1303180705816E+01
 0.1311780761715E+01
 0.1315353555500E+01
 0.1314113996695E+01
 0.1308326157554E+01
 0.1298273048675E+01
 0.1284244549814E+01
 0.1266537539085E+01
 0.1245462905246E+01
 0.1221363361281E+01
 0.1194637012139E+01
 0.1165736588437E+01
 0.1135158295303E+01
 0.1103453572323E+01
 0.1071252377381E+01
 0.1039295358692E+01
 0.1008475824943E+01
 0.9798939875511E+00
 0.9549300078449E+00
 0.9353404264810E+00
 0.9233744594563E+00
 0.9219076960520E+00
 0.9345689004600E+00
 0.9657734394920E+00
 0.1020561053482E+01
 0.1104180103399E+01
 0.1221447951177E+01
 0.1376009695000E+01
 0.1569658008189E+01
 0.1801892397170E+01
 0.2069347278743E+01
 0.2364750157270E+01
 0.2676489461280E+01
 0.2989310719028E+01
 0.1123336815163E+01
 0.1157848258273E+01
 0.1191718775589E+01
 0.1223524164509E+01
 0.1251976967391E+01
 0.1276097300866E+01
 0.1295280885464E+01
 0.1309271605487E+01
 0.1318078546387E+01
 0.1321879713809E+01
 0.1320940392445E+01
 0.1315557629929E+01
 0.1306030722341E+01
 0.1292651954001E+01
 0.1275710067570E+01
 0.1255500099078E+01
 0.1232344267234E+01
 0.1206618018467E+01
 0.1178746751448E+01
 0.1149190331154E+01
 0.1118453272547E+01
 0.1087107690096E+01
 0.1055825503384E+01
 0.1025420389441E+01
 0.9969015716260E+00
 0.9715457621971E+00
 0.9509924775984E+00
 0.9373607728199E+00
 0.9333915966301E+00
 0.9426030471407E+00
 0.9693790272521E+00
 0.1018883885669E+01
 0.1096717850409E+01
 0.1208299306781E+01
 0.1358071192681E+01
 0.1548708789670E+01
 0.1780537900857E+01
 0.2050775291816E+01
 0.2352230517894E+01
 0.2672671090546E+01
 0.2995574106475E+01
 0.1124723294136E+01
 0.1160365712177E+01
 0.1195337173169E+01
 0.1228109637996E+01
 0.1257321617060E+01
 0.1281974961883E+01
 0.1301501262069E+01
 0.1315714615647E+01
 0.1324704812391E+01
 0.1328722683661E+01
 0.1328088561235E+01
 0.1323134044716E+01
 0.1314174244664E+01
 0.1301502295412E+01
 0.1285396900994E+01
 0.1266135462224E+01
 0.1244018294547E+01
 0.1219397213251E+01
 0.1192669441679E+01
 0.1164257259449E+01
 0.1134616217131E+01
 0.1104257562154E+01
 0.1073780431802E+01
 0.1043913800044E+01
 0.1015569806194E+01
 0.9899144806042E+00
 0.9684615829484E+00
 0.9531887088423E+00
 0.9466862000597E+00
 0.9523382672402E+00
 0.9744660578268E+00
 0.1018325391547E+01
 0.1089851395952E+01
 0.1195087674185E+01
 0.1339356856859E+01
 0.1526352913444E+01
 0.1757398143446E+01
 0.2030460859580E+01
 0.2338533605366E+01
 0.2668704449484E+01
 0.3002977284589E+01
 0.1126231018063E+01
 0.1163102027087E+01
 0.1199266220093E+01
 0.1233070329767E+01
 0.1263067714147E+01
 0.1288244733800E+01
 0.1308081518316E+01
 0.1322478123348E+01
 0.1331618535292E+01
 0.1335835319814E+01
 0.1335508209004E+01
 0.1331004298794E+01
 0.1322653388064E+01
 0.1310747377449E+01
 0.1295552690636E+01
 0.1277327188653E+01
 0.1256347956305E+01
 0.1232942446233E+01
 0.1207479221175E+01
 0.1180342150279E+01
 0.1151936204518E+01
 0.1122709150944E+01
 0.1093183695962E+01
 0.1063999446280E+01
 0.1035965756172E+01
 0.1010131087959E+01
 0.9878749688659E+00
 0.9710223365373E+00
 0.9619966791367E+00
 0.9640237203914E+00
 0.9813263800222E+00
 0.1019209481129E+01
 0.1083911287508E+01
 0.1182109872414E+01
 0.1320084169329E+01
 0.1502694717552E+01
 0.1732460042909E+01
 0.2008313915853E+01
 0.2323581825260E+01
 0.2664618047227E+01
 0.3011667421528E+01
 0.1127870381968E+01
 0.1166073497303E+01
 0.1203526144852E+01
 0.1238423994602E+01
 0.1269223157457E+01
 0.1294899756382E+01
 0.1314998967859E+01
 0.1329525694148E+01
 0.1338773200575E+01
 0.1343164906096E+01
 0.1343143717207E+01
 0.1339112334898E+01
 0.1331413341061E+01
 0.1320334726462E+01
 0.1306128028345E+01
 0.1289029541822E+01
 0.1269291898903E+01
 0.1247217740488E+01
 0.1223146891293E+01
 0.1197424453854E+01
 0.1170403674346E+01
 0.1142466687046E+01
 0.1114056593111E+01
 0.1085719470903E+01
 0.1058156703217E+01
 0.1032292773153E+01
 0.1009364876215E+01
 0.9910343116240E+00
 0.9795413804812E+00
 0.9779277639216E+00
 0.9902791821103E+00
 0.1021897958830E+01
 0.1079277244419E+01
 0.1169719138878E+01
 0.1300524333136E+01
 0.1477876806280E+01
 0.1705723056746E+01
 0.1984228434132E+01
 0.2307270515345E+01
 0.2660443694594E+01
 0.3021801711300E+01
 0.1129654961019E+01
 0.1169301044105E+01
 0.1208142452771E+01
 0.1244192539389E+01
 0.1275797343190E+01
 0.1301931563226E+01
 0.1322226793275E+01
 0.1336815276349E+01
 0.1346116154256E+01
 0.1350652701050E+01
 0.1350933858141E+01
 0.1347396973910E+01
 0.1340394606332E+01
 0.1330207515375E+01
 0.1317069364703E+01
 0.1301192741177E+01
 0.1282804734011E+01
 0.1262183050681E+01
 0.1239639160850E+01
 0.1215479561718E+01
 0.1190005141757E+01
 0.1163530759579E+01
 0.1136417283879E+01
 0.1109113716011E+01
 0.1082208939906E+01
 0.1056497687292E+01
 0.1033067259639E+01
 0.1013404706340E+01
 0.9995509249460E+00
 0.9943374794887E+00
 0.1001671260332E+01
 0.1026792350393E+01
 0.1076382981652E+01
 0.1158334106739E+01
 0.1281014601980E+01
 0.1452092407239E+01
 0.1677207952947E+01
 0.1958082648207E+01
 0.2289451702591E+01
 0.2656211399292E+01
 0.3033543764942E+01
 0.1131602323843E+01
 0.1172811375170E+01
 0.1213147116954E+01
 0.1250402719641E+01
 0.1282801088570E+01
 0.1309329366054E+01
 0.1329733051776E+01
 0.1344298259786E+01
 0.1353587889445E+01
 0.1358233478759E+01
 0.1358811535351E+01
 0.1355791780162E+01
 0.1349532928610E+01
 0.1340304511167E+01
 0.1328318946010E+01
 0.1313762863848E+01
 0.1296836882577E+01
 0.1277794029943E+01
 0.1256918318360E+01
 0.1234478364596E+01
 0.1210722615392E+01
 0.1185897564377E+01
 0.1160279842990E+01
 0.1134218561648E+01
 0.1108186407561E+01
 0.1082843431862E+01
 0.1059120226889E+01
 0.1038319546776E+01
 0.1022267010067E+01
 0.1013557906482E+01
 0.1015876955277E+01
 0.1034335320349E+01
 0.1075720811621E+01
 0.1148448474740E+01
 0.1261972951587E+01
 0.1425601248752E+01
 0.1646968795474E+01
 0.1929746248944E+01
 0.2269913885107E+01
 0.2651925254910E+01
 0.3047042064343E+01
 0.1133735062852E+01
 0.1176638447895E+01
 0.1218580026848E+01
 0.1257086880702E+01
 0.1290246366917E+01
 0.1317079040826E+01
 0.1337479416076E+01
 0.1351918376383E+01
 0.1361121280178E+01
 0.1365835084827E+01
 0.1366703567421E+01
 0.1364224972308E+01
 0.1358759259229E+01
 0.1350560049148E+01
 0.1339814771571E+01
 0.1326681763312E+01
 0.1311334433971E+01
 0.1294001810243E+01
 0.1274941915008E+01
 0.1254386814824E+01
 0.1232533007176E+01
 0.1209558121868E+01
 0.1185653246757E+01
 0.1161065656713E+01
 0.1136149170349E+01
 0.1111425317739E+01
 0.1087662181655E+01
 0.1065968999732E+01
 0.1047940839441E+01
 0.1035910907094E+01
 0.1033297690053E+01
 0.1045011571738E+01
 0.1077845758557E+01
 0.1140641122306E+01
 0.1243915037746E+01
 0.1398750322753E+01
 0.1615107791624E+01
 0.1899094876751E+01
 0.2248379885466E+01
 0.2647512371831E+01
 0.3062262921339E+01
 0.1136082113497E+01
 0.1180825331970E+01
 0.1224490751076E+01
 0.1264283708046E+01
 0.1298145751733E+01
 0.1325161714813E+01
 0.1345419595988E+01
 0.1359610436385E+01
 0.1368640783789E+01
 0.1373378035260E+01
 0.1374530537739E+01
 0.1372619393660E+01
 0.1367999763586E+01
 0.1360904035614E+01
 0.1351490571266E+01
 0.1339887005764E+01
 0.1326239023002E+01
 0.1310752801526E+01
 0.1293662466194E+01
 0.1275165502883E+01
 0.1255407543694E+01
 0.1234497473134E+01
 0.1212540303236E+01
 0.1189680544076E+01
 0.1166151720951E+01
 0.1142334378742E+01
 0.1118829634361E+01
 0.1096545146438E+01
 0.1076831088625E+01
 0.1061733562333E+01
 0.1054361025662E+01
 0.1059348121935E+01
 0.1083378920951E+01
 0.1135586177521E+01
 0.1227473673572E+01
 0.1371998962083E+01
 0.1581800983494E+01
 0.1866004087167E+01
 0.2224621875783E+01
 0.2642376780739E+01
 0.3081744056535E+01
 0.1138680463574E+01
 0.1185426601802E+01
 0.1230940680827E+01
 0.1272038919973E+01
 0.1306511421847E+01
 0.1333551825878E+01
 0.1353497383954E+01
 0.1367298906230E+01
 0.1376061646813E+01
 0.1380775195363E+01
 0.1382206737350E+01
 0.1380892557049E+01
 0.1377175876826E+01
 0.1371261978439E+01
 0.1363275801355E+01
 0.1353311823552E+01
 0.1341487727236E+01
 0.1327988515753E+01
 0.1313027181268E+01
 0.1296769259957E+01
 0.1279311191250E+01
 0.1260693864611E+01
 0.1240936532925E+01
 0.1220081184531E+01
 0.1198241117110E+01
 0.1175655128448E+01
 0.1152754649665E+01
 0.1130239279624E+01
 0.1109201303888E+01
 0.1091375967285E+01
 0.1079519114584E+01
 0.1077913847080E+01
 0.1093009815092E+01
 0.1134062470014E+01
 0.1213420314589E+01
 0.1345950505993E+01
 0.1547327315660E+01
 0.1830380734137E+01
 0.2198351698235E+01
 0.2636315736254E+01
 0.3106665070328E+01
 0.1141577396916E+01
 0.1190511439225E+01
 0.1238005627630E+01
 0.1280405784669E+01
 0.1315353515335E+01
 0.1342214493097E+01
 0.1361644271808E+01
 0.1374896353832E+01
 0.1383289167369E+01
 0.1387931586157E+01
 0.1389640232166E+01
 0.1388956779560E+01
 0.1386204411223E+01
 0.1381555042197E+01
 0.1375095653358E+01
 0.1366885082766E+01
 0.1357012986097E+01
 0.1345645422517E+01
 0.1332977732862E+01
 0.1319146800583E+01
 0.1304202108466E+01
 0.1288117932895E+01
 0.1270829008626E+01
 0.1252276385734E+01
 0.1232454951592E+01
 0.1211463054194E+01
 0.1189561905241E+01
 0.1167238662557E+01
 0.1145316619153E+01
 0.1125198258970E+01
 0.1109246376635E+01
 0.1101318167164E+01
 0.1107497439785E+01
 0.1136961738412E+01
 0.1202687631899E+01
 0.1321391598120E+01
 0.1512106320345E+01
 0.1792198189543E+01
 0.2169162970013E+01
 0.2629863903214E+01
 0.3134295543590E+01
 0.1144833480924E+01
 0.1196167698213E+01
 0.1245778950058E+01
 0.1289445259823E+01
 0.1324677530680E+01
 0.1351102004253E+01
 0.1369776601960E+01
 0.1382301817606E+01
 0.1390218089661E+01
 0.1394744376928E+01
 0.1396733089424E+01
 0.1396719422382E+01
 0.1394997716295E+01
 0.1391700120669E+01
 0.1386871067059E+01
 0.1380531259399E+01
 0.1372742542520E+01
 0.1363654844347E+01
 0.1353450080396E+01
 0.1342240423228E+01
 0.1330031143211E+01
 0.1316731902751E+01
 0.1302195164325E+01
 0.1286264144692E+01
 0.1268819163228E+01
 0.1249821850559E+01
 0.1229365347226E+01
 0.1207722697993E+01
 0.1185439674539E+01
 0.1163566677822E+01
 0.1144036152547E+01
 0.1130208663565E+01
 0.1127669882282E+01
 0.1145294702047E+01
 0.1196392606716E+01
 0.1299336745473E+01
 0.1476759982162E+01
 0.1751485721477E+01
 0.2136776963549E+01
 0.2622610557622E+01
 0.3165224019959E+01
 0.1148526607376E+01
 0.1202507285599E+01
 0.1254375268003E+01
 0.1299225416990E+01
 0.1334480351792E+01
 0.1360149196994E+01
 0.1377792252094E+01
 0.1389399199981E+01
 0.1396732232858E+01
 0.1401103132724E+01
 0.1403381800511E+01
 0.1404083249955E+01
 0.1403463889580E+01
 0.1401609914759E+01
 0.1398518733419E+01
 0.1394170414713E+01
 0.1388599406890E+01
 0.1381942901930E+01
 0.1374374366759E+01
 0.1365985791434E+01
 0.1356741393891E+01
 0.1346488812621E+01
 0.1335001583304E+01
 0.1322029914288E+01
 0.1307345702115E+01
 0.1290780404740E+01
 0.1272264442216E+01
 0.1251858471092E+01
 0.1229825627724E+01
 0.1206848442709E+01
 0.1184396004894E+01
 0.1165267316667E+01
 0.1154422183918E+01
 0.1160194511820E+01
 0.1195857415489E+01
 0.1281082780209E+01
 0.1442177014230E+01
 0.1708422651575E+01
 0.2100785904794E+01
 0.2614004172308E+01
 0.3199970470588E+01
 0.1152757552728E+01
 0.1209673359592E+01
 0.1263934770817E+01
 0.1309819593284E+01
 0.1344744311876E+01
 0.1369267499544E+01
 0.1385566920208E+01
 0.1396055847029E+01
 0.1402704484963E+01
 0.1406890392890E+01
 0.1409477937266E+01
 0.1410946920675E+01
 0.1411507032066E+01
 0.1411192997416E+01
 0.1409951065858E+01
 0.1407718154771E+01
 0.1404501841051E+01
 0.1400430521948E+01
 0.1395674912832E+01
 0.1390311823931E+01
 0.1384267858000E+01
 0.1377331781223E+01
 0.1369202773673E+01
 0.1359544804071E+01
 0.1348030066461E+01
 0.1334369556668E+01
 0.1318340042654E+01
 0.1299795652149E+01
 0.1278716169084E+01
 0.1255405212937E+01
 0.1230841263961E+01
 0.1207204855598E+01
 0.1188712140344E+01
 0.1182916770908E+01
 0.1202627067155E+01
 0.1268265768294E+01
 0.1409614735828E+01
 0.1663393626151E+01
 0.2060670951136E+01
 0.2603386805399E+01
 0.3239080538203E+01
 0.1157657775540E+01
 0.1217850061467E+01
 0.1274627997657E+01
 0.1321302360416E+01
 0.1355428507213E+01
 0.1378337429207E+01
 0.1392950192670E+01
 0.1402121553734E+01
 0.1407997318027E+01
 0.1411982658520E+01
 0.1414909076419E+01
 0.1417205619325E+01
 0.1419027538407E+01
 0.1420353839647E+01
 0.1421076108620E+01
 0.1421085551346E+01
 0.1420363358023E+01
 0.1419033524760E+01
 0.1417270343538E+01
 0.1415140730686E+01
 0.1412537194702E+01
 0.1409193327644E+01
 0.1404739936300E+01
 0.1398763724990E+01
 0.1390848734028E+01
 0.1380598670195E+01
 0.1367649904533E+01
 0.1351660775584E+01
 0.1332332486166E+01
 0.1309584932608E+01
 0.1283886364537E+01
 0.1256752528791E+01
 0.1231553325225E+01
 0.1214835750264E+01
 0.1218480570396E+01
 0.1262921088612E+01
 0.1380823532590E+01
 0.1617101696907E+01
 0.2015867105809E+01
 0.2589933422868E+01
 0.3283165360359E+01
 0.1163400581996E+01
 0.1227275803319E+01
 0.1286660686950E+01
 0.1333741838845E+01
 0.1366456336731E+01
 0.1387199467769E+01
 0.1399761761173E+01
 0.1407428324135E+01
 0.1412463996043E+01
 0.1416251859757E+01
 0.1419560021392E+01
 0.1422751839573E+01
 0.1425922408728E+01
 0.1428992762459E+01
 0.1431797337428E+01
 0.1434178989910E+01
 0.1436092729641E+01
 0.1437662815908E+01
 0.1439073892136E+01
 0.1440388243242E+01
 0.1441467631869E+01
 0.1441994753347E+01
 0.1441539723670E+01
 0.1439623484658E+01
 0.1435756515954E+01
 0.1429452066366E+01
 0.1420223921825E+01
 0.1407550948457E+01
 0.1390867171258E+01
 0.1369711901651E+01
 0.1344033527334E+01
 0.1314650412627E+01
 0.1284004236843E+01
 0.1257435785503E+01
 0.1245434072966E+01
 0.1267538624869E+01
 0.1358201355765E+01
 0.1570762758604E+01
 0.1965842937103E+01
 0.2572575254086E+01
 0.3332931071320E+01
 0.1170217488581E+01
 0.1238261570623E+01
 0.1300277702638E+01
 0.1347185998497E+01
 0.1377698023787E+01
 0.1395643519498E+01
 0.1405788422111E+01
 0.1411791301076E+01
 0.1415950639988E+01
 0.1419567355832E+01
 0.1423314342918E+01
 0.1427476324839E+01
 0.1432085567685E+01
 0.1437005769093E+01
 0.1442013288573E+01
 0.1446899892991E+01
 0.1451593989252E+01
 0.1456224716095E+01
 0.1460993949066E+01
 0.1465964103224E+01
 0.1470969051101E+01
 0.1475645586995E+01
 0.1479512977573E+01
 0.1482040833942E+01
 0.1482683864966E+01
 0.1480885386526E+01
 0.1476059171630E+01
 0.1467527084942E+01
 0.1454475125222E+01
 0.1436074997702E+01
 0.1411758409713E+01
 0.1381631315739E+01
 0.1347151891710E+01
 0.1312296176213E+01
 0.1285733820053E+01
 0.1285104829798E+01
 0.1344977679733E+01
 0.1526398994671E+01
 0.1910239691873E+01
 0.2549904552234E+01
 0.3389213540229E+01
 0.1178422825943E+01
 0.1251216293378E+01
 0.1315763839348E+01
 0.1361639216940E+01
 0.1388946802135E+01
 0.1403397731873E+01
 0.1410782843682E+01
 0.1415011327485E+01
 0.1418299272887E+01
 0.1421798491334E+01
 0.1426056250380E+01
 0.1431269179082E+01
 0.1437408179893E+01
 0.1444284200731E+01
 0.1451616925531E+01
 0.1459144240285E+01
 0.1466766408831E+01
 0.1474621481744E+01
 0.1482934951490E+01
 0.1491772893752E+01
 0.1500943285554E+01
 0.1510043080061E+01
 0.1518553417680E+01
 0.1525910456227E+01
 0.1531534173478E+01
 0.1534821972174E+01
 0.1535114898466E+01
 0.1531606811977E+01
 0.1523263578299E+01
 0.1508914074451E+01
 0.1487492501139E+01
 0.1458399435384E+01
 0.1422087838276E+01
 0.1381066457522E+01
 0.1341835779271E+01
 0.1319123298017E+01
 0.1345410868094E+01
 0.1487266532331E+01
 0.1849137689536E+01
 0.2520063452225E+01
 0.3453026677379E+01
 0.1188451813959E+01
 0.1266682080487E+01
 0.1333436864750E+01
 0.1377023322901E+01
 0.1399887826548E+01
 0.1410118492085E+01
 0.1414465469478E+01
 0.1416879551793E+01
 0.1419351884810E+01
 0.1422817694681E+01
 0.1427672794877E+01
 0.1434021167867E+01
 0.1441778963323E+01
 0.1450714148827E+01
 0.1460494612778E+01
 0.1470801763786E+01
 0.1481504417583E+01
 0.1492752097252E+01
 0.1504798755612E+01
 0.1517715325918E+01
 0.1531284662115E+01
 0.1545071720305E+01
 0.1558536230587E+01
 0.1571102876567E+01
 0.1582181098942E+01
 0.1591149370802E+01
 0.1597307606969E+01
 0.1599757245557E+01
 0.1597281418476E+01
 0.1588404675084E+01
 0.1571602250296E+01
 0.1545603246728E+01
 0.1509874640812E+01
 0.1465427405813E+01
 0.1416365794592E+01
 0.1373604121412E+01
 0.1364969283449E+01
 0.1458452690788E+01
 0.1783569955804E+01
 0.2480634241602E+01
 0.3525633398717E+01
 0.1200921421586E+01
 0.1285382807427E+01
 0.1353623206445E+01
 0.1393114529490E+01
 0.1410060376203E+01
 0.1415385080705E+01
 0.1416531170625E+01
 0.1417184271708E+01
 0.1418955445778E+01
 0.1422504064451E+01
 0.1428056390773E+01
 0.1435625246891E+01
 0.1445084530925E+01
 0.1456175552864E+01
 0.1468524508530E+01
 0.1481754625162E+01
 0.1495697409241E+01
 0.1510513470020E+01
 0.1526486705619E+01
 0.1543690126493E+01
 0.1561880806385E+01
 0.1580602698532E+01
 0.1599316479432E+01
 0.1617462247756E+01
 0.1634465952667E+01
 0.1649716103915E+01
 0.1662506482753E+01
 0.1671887897563E+01
 0.1676508084897E+01
 0.1674641305849E+01
 0.1664365155705E+01
 0.1643802633374E+01
 0.1611501624075E+01
 0.1567032686000E+01
 0.1512048763957E+01
 0.1453007087843E+01
 0.1410454515906E+01
 0.1447650489693E+01
 0.1716496583648E+01
 0.2428595197329E+01
 0.3608657193113E+01
 0.1216731289627E+01
 0.1308289399880E+01
 0.1376596620063E+01
 0.1409444441469E+01
 0.1418817936900E+01
 0.1418704753929E+01
 0.1416661971649E+01
 0.1415719790827E+01
 0.1416967699718E+01
 0.1420747344604E+01
 0.1427107621027E+01
 0.1435978382239E+01
 0.1447209846777E+01
 0.1460540924259E+01
 0.1475574102032E+01
 0.1491875261321E+01
 0.1509229352601E+01
 0.1527802248323E+01
 0.1547902726435E+01
 0.1569596710478E+01
 0.1592613695921E+01
 0.1616493218636E+01
 0.1640727219104E+01
 0.1664803941899E+01
 0.1688195180540E+01
 0.1710328867139E+01
 0.1730529428241E+01
 0.1747844041337E+01
 0.1760842340899E+01
 0.1767619595666E+01
 0.1765943283018E+01
 0.1753430923275E+01
 0.1727830102867E+01
 0.1687427808262E+01
 0.1631590899984E+01
 0.1562107315525E+01
 0.1490014980134E+01
 0.1466043678908E+01
 0.1654600859028E+01
 0.2360535129438E+01
 0.3704277254732E+01
 0.1237238335614E+01
 0.1336701381810E+01
 0.1402439587035E+01
 0.1425151939402E+01
 0.1425299815560E+01
 0.1419536110454E+01
 0.1414545713459E+01
 0.1412296602388E+01
 0.1413263551676E+01
 0.1417452119877E+01
 0.1424738262427E+01
 0.1434983761141E+01
 0.1448038983353E+01
 0.1463673690064E+01
 0.1481496493009E+01
 0.1501022869039E+01
 0.1521978064877E+01
 0.1544517647003E+01
 0.1568957947959E+01
 0.1595338850749E+01
 0.1623360876333E+01
 0.1652585481598E+01
 0.1682577167242E+01
 0.1712911835627E+01
 0.1743137940917E+01
 0.1772750376515E+01
 0.1801140097877E+01
 0.1827400942597E+01
 0.1850091277869E+01
 0.1867217711530E+01
 0.1876354823226E+01
 0.1874753166779E+01
 0.1859530204022E+01
 0.1827947477915E+01
 0.1777502352585E+01
 0.1705724268797E+01
 0.1612963322030E+01
 0.1529121511751E+01
 0.1611428987131E+01
 0.2273665517161E+01
 0.3815625848831E+01
 0.1264574306797E+01
 0.1372327411205E+01
 0.1430745167598E+01
 0.1438781545885E+01
 0.1428445658216E+01
 0.1417337258203E+01
 0.1409897448718E+01
 0.1406752285319E+01
 0.1407741837037E+01
 0.1412541951454E+01
 0.1420874441683E+01
 0.1432553511458E+01
 0.1447456535569E+01
 0.1465426299949E+01
 0.1486124824578E+01
 0.1509037600860E+01
 0.1533813913638E+01
 0.1560565985338E+01
 0.1589577655388E+01
 0.1620829541911E+01
 0.1653996616229E+01
 0.1688705107709E+01
 0.1724647761410E+01
 0.1761535117580E+01
 0.1799023726305E+01
 0.1836698135584E+01
 0.1874046475944E+01
 0.1910259454348E+01
 0.1943959886552E+01
 0.1973177419353E+01
 0.1995444321049E+01
 0.2007822440088E+01
 0.2007013576823E+01
 0.1989598026734E+01
 0.1951864695751E+01
 0.1888242564851E+01
 0.1789186084139E+01
 0.1657135136130E+01
 0.1612333227423E+01
 0.2169092201516E+01
 0.3947746402536E+01
 0.1302259492706E+01
 0.1417284431028E+01
 0.1459993740441E+01
 0.1448070176210E+01
 0.1427110801205E+01
 0.1411632225898E+01
 0.1402477765804E+01
 0.1398963740480E+01
 0.1400331790602E+01
 0.1405963167852E+01
 0.1415459792247E+01
 0.1428612000180E+01
 0.1445350308669E+01
 0.1465638612754E+01
 0.1489264030273E+01
 0.1515730764039E+01
 0.1544597551406E+01
 0.1575868292298E+01
 0.1609711804163E+01
 0.1645997107336E+01
 0.1684392531020E+01
 0.1724658711289E+01
 0.1766689457050E+01
 0.1810384358708E+01
 0.1855539833133E+01
 0.1901844483950E+01
 0.1948901827211E+01
 0.1996043585326E+01
 0.2042041390490E+01
 0.2085085192448E+01
 0.2122852223485E+01
 0.2152435492692E+01
 0.2170368980511E+01
 0.2172936701938E+01
 0.2156072408557E+01
 0.2112919202401E+01
 0.2027703446300E+01
 0.1874657005576E+01
 0.1700882720239E+01
 0.2061229517086E+01
 0.4110322745266E+01
 0.1356484024399E+01
 0.1473699285532E+01
 0.1486295874578E+01
 0.1449929417644E+01
 0.1420346650743E+01
 0.1402053386616E+01
 0.1392110059333E+01
 0.1388861280659E+01
 0.1390997612821E+01
 0.1397688458371E+01
 0.1408458270735E+01
 0.1423099633388E+01
 0.1441616188480E+01
 0.1464137973741E+01
 0.1490678803648E+01
 0.1520867678059E+01
 0.1554176012573E+01
 0.1590373743295E+01
 0.1629350958272E+01
 0.1670792107000E+01
 0.1714416832861E+01
 0.1760230353406E+01
 0.1808417238793E+01
 0.1859126472000E+01
 0.1912328139561E+01
 0.1967818406080E+01
 0.2025309441349E+01
 0.2084300742440E+01
 0.2143808168685E+01
 0.2202353624995E+01
 0.2257985103842E+01
 0.2308086872756E+01
 0.2349308522957E+01
 0.2377971876506E+01
 0.2390575483691E+01
 0.2381163078484E+01
 0.2333925183280E+01
 0.2207385677079E+01
 0.1945077480453E+01
 0.2002868278258E+01
 0.4326462951570E+01
 0.1439075039990E+01
 0.1541642106885E+01
 0.1501123019221E+01
 0.1441306164962E+01
 0.1407734242968E+01
 0.1388298705217E+01
 0.1378726297634E+01
 0.1376432975162E+01
 0.1379743086788E+01
 0.1387719666648E+01
 0.1399856415128E+01
 0.1415976629621E+01
 0.1436166099963E+01
 0.1460744471130E+01
 0.1490076854254E+01
 0.1524136086482E+01
 0.1562376079790E+01
 0.1604084975453E+01
 0.1648550050519E+01
 0.1695193335226E+01
 0.1743930997340E+01
 0.1795176693108E+01
 0.1849505599663E+01
 0.1907378144573E+01
 0.1968979797249E+01
 0.2034209690824E+01
 0.2102833982532E+01
 0.2174505251833E+01
 0.2248602126266E+01
 0.2324203511415E+01
 0.2399988283846E+01
 0.2473922451364E+01
 0.2543113203365E+01
 0.2604155525429E+01
 0.2654605750613E+01
 0.2692070689409E+01
 0.2706355414927E+01
 0.2671102337148E+01
 0.2440262423959E+01
 0.2142343636537E+01
 0.4666538232841E+01
 0.1575456482295E+01
 0.1609652796241E+01
 0.1489308733362E+01
 0.1422266845771E+01
 0.1388867736423E+01
 0.1370260699150E+01
 0.1362386190867E+01
 0.1361722856610E+01
 0.1366617568423E+01
 0.1376088300636E+01
 0.1389665582223E+01
 0.1407225520051E+01
 0.1428938389412E+01
 0.1455289289864E+01
 0.1487089219473E+01
 0.1525083174559E+01
 0.1568993498355E+01
 0.1617109709870E+01
 0.1667461041844E+01
 0.1719208688856E+01
 0.1772782845741E+01
 0.1829220640580E+01
 0.1889583731658E+01
 0.1954697877147E+01
 0.2025024252567E+01
 0.2100575813623E+01
 0.2181026005109E+01
 0.2266064869894E+01
 0.2355620449328E+01
 0.2449649394284E+01
 0.2547720426904E+01
 0.2648700175147E+01
 0.2750549614140E+01
 0.2850479065212E+01
 0.2946266054499E+01
 0.3041260660499E+01
 0.3137330560299E+01
 0.3246958233858E+01
 0.3289249658575E+01
 0.2810321839863E+01
 0.5398078187063E+01
 0.1831128518009E+01
 0.1606580833670E+01
 0.1447675922159E+01
 0.1394824898262E+01
 0.1362979263238E+01
 0.1348348550087E+01
 0.1343176106072E+01
 0.1344865857928E+01
 0.1351707575784E+01
 0.1362858372522E+01
 0.1377922590653E+01
 0.1396853441838E+01
 0.1419902728611E+01
 0.1447660316716E+01
 0.1481266366345E+01
 0.1522973069464E+01
 0.1573778947669E+01
 0.1629777179682E+01
 0.1686362226235E+01
 0.1742866553673E+01
 0.1800795276565E+01
 0.1862043543994E+01
 0.1928231274709E+01
 0.2000580386538E+01
 0.2079903526845E+01
 0.2166448708306E+01
 0.2259479284796E+01
 0.2358323214211E+01
 0.2463888239824E+01
 0.2577494008489E+01
 0.2699741197810E+01
 0.2830725395840E+01
 0.2969857599234E+01
 0.3115246086584E+01
 0.3264194001236E+01
 0.3418037724046E+01
 0.3614907108162E+01
 0.3881765140743E+01
 0.4434072506145E+01
 0.4637829600548E+01
 0.7849230799608E+01
 0.2303894361021E+00
 0.3753677720222E+00
 0.5191474796785E+00
 0.6539951777678E+00
 0.7764125396224E+00
 0.8854632337105E+00
 0.9817913191963E+00
 0.1066907153319E+01
 0.1142608365165E+01
 0.1210519105614E+01
 0.1271753412488E+01
 0.1326640018058E+01
 0.1375078426635E+01
 0.1417103008030E+01
 0.1452750336029E+01
 0.1481925639084E+01
 0.1504362765018E+01
 0.1519471284728E+01
 0.1526945835257E+01
 0.1525395969819E+01
 0.2316590001411E+00
 0.3776427774111E+00
 0.5220216188669E+00
 0.6579596062314E+00
 0.7821736910684E+00
 0.8936625075930E+00
 0.9928736815963E+00
 0.1081083508321E+01
 0.1159888915816E+01
 0.1230791614868E+01
 0.1294860093500E+01
 0.1352468777973E+01
 0.1403683803193E+01
 0.1448590388502E+01
 0.1487196899902E+01
 0.1519484142083E+01
 0.1545276411905E+01
 0.1564279998062E+01
 0.1574602981056E+01
 0.1571706397721E+01
 0.2331148706326E+00
 0.3804230090052E+00
 0.5255764453699E+00
 0.6626016474858E+00
 0.7884963808169E+00
 0.9022342563542E+00
 0.1004108073328E+01
 0.1095199641974E+01
 0.1176933168797E+01
 0.1250692083241E+01
 0.1317493628085E+01
 0.1377781480087E+01
 0.1431714275458E+01
 0.1479417833072E+01
 0.1520936388494E+01
 0.1556282441879E+01
 0.1585337835353E+01
 0.1607412401413E+01
 0.1619872158989E+01
 0.1619888591026E+01
 0.2347066688033E+00
 0.3835536774091E+00
 0.5296454335399E+00
 0.6677737759191E+00
 0.7952480850631E+00
 0.9110645137186E+00
 0.1015400453723E+01
 0.1109176239152E+01
 0.1193664225421E+01
 0.1270138101065E+01
 0.1339572732617E+01
 0.1402461738200E+01
 0.1459033402235E+01
 0.1509453343822E+01
 0.1553800858383E+01
 0.1592100337298E+01
 0.1624119459908E+01
 0.1648833248138E+01
 0.1663903478152E+01
 0.1667439453491E+01
 0.2363864716381E+00
 0.3869234996300E+00
 0.5340815185813E+00
 0.6733317742312E+00
 0.8022997611661E+00
 0.9200411434342E+00
 0.1026654684651E+01
 0.1122927854896E+01
 0.1210000004864E+01
 0.1289046358865E+01
 0.1361001821956E+01
 0.1426396317112E+01
 0.1485513356188E+01
 0.1538553119225E+01
 0.1585618568040E+01
 0.1626699587904E+01
 0.1661427110500E+01
 0.1688703124496E+01
 0.1706549679383E+01
 0.1713585612136E+01
 0.2381143816262E+00
 0.3904384362082E+00
 0.5387571977867E+00
 0.6791414600173E+00
 0.8095269228112E+00
 0.9290539659489E+00
 0.1037773630878E+01
 0.1136366140655E+01
 0.1225855592696E+01
 0.1307328767420E+01
 0.1381682693064E+01
 0.1449473216307E+01
 0.1511027613012E+01
 0.1566572686557E+01
 0.1616216946050E+01
 0.1659898990940E+01
 0.1697170176108E+01
 0.1726956563868E+01
 0.1747570924898E+01
 0.1757880204344E+01
 0.2398561517242E+00
 0.3940181891207E+00
 0.5435599641344E+00
 0.6850800149641E+00
 0.8168114059838E+00
 0.9379956048120E+00
 0.1048660554898E+01
 0.1149401660676E+01
 0.1241143979974E+01
 0.1324895205876E+01
 0.1401516561985E+01
 0.1471581730747E+01
 0.1535451692553E+01
 0.1593370662750E+01
 0.1645441269013E+01
 0.1691560011264E+01
 0.1731240453479E+01
 0.1763459757149E+01
 0.1786731927129E+01
 0.1800021569734E+01
 0.2415819919213E+00
 0.3975930776658E+00
 0.5483901714327E+00
 0.6910354383729E+00
 0.8240422888002E+00
 0.9467626465534E+00
 0.1059220396695E+01
 0.1161945198068E+01
 0.1255777703654E+01
 0.1341655285069E+01
 0.1420405520657E+01
 0.1492613446344E+01
 0.1558664936383E+01
 0.1618814387419E+01
 0.1673155712809E+01
 0.1721556392920E+01
 0.1763515621718E+01
 0.1798058925416E+01
 0.1823825384976E+01
 0.1839783699874E+01
 0.2432657201356E+00
 0.4011020863770E+00
 0.5531592596664E+00
 0.6969059255814E+00
 0.8311162642379E+00
 0.9552565944888E+00
 0.1069360927659E+01
 0.1173909075299E+01
 0.1269670308386E+01
 0.1357519852474E+01
 0.1438253870806E+01
 0.1512463609376E+01
 0.1580552779177E+01
 0.1642781772562E+01
 0.1699236848145E+01
 0.1749767003804E+01
 0.1793867603255E+01
 0.1830600781605E+01
 0.1858674472874E+01
 0.1876998704115E+01
 0.2448842006806E+00
 0.4044914853182E+00
 0.5577884168959E+00
 0.7025992311003E+00
 0.8379378111738E+00
 0.9633845899362E+00
 0.1078993778306E+01
 0.1185208345213E+01
 0.1282737634283E+01
 0.1372402290874E+01
 0.1454969379472E+01
 0.1531032500703E+01
 0.1601008068093E+01
 0.1665160421076E+01
 0.1723570281450E+01
 0.1776075025244E+01
 0.1822169588384E+01
 0.1860940128145E+01
 0.1891127072938E+01
 0.1911545228259E+01
 0.2464169424338E+00
 0.4077138460111E+00
 0.5622075454745E+00
 0.7080321122054E+00
 0.8444192610974E+00
 0.9710599862183E+00
 0.1088035332050E+01
 0.1195761862921E+01
 0.1294898974603E+01
 0.1386219702009E+01
 0.1470464450572E+01
 0.1548226525569E+01
 0.1619931502489E+01
 0.1685846784430E+01
 0.1746049458807E+01
 0.1800369217559E+01
 0.1848300561695E+01
 0.1888942893894E+01
 0.1921046484311E+01
 0.1943314363808E+01
 0.2478458168422E+00
 0.4107273304388E+00
 0.5663544731845E+00
 0.7131298671073E+00
 0.8504808226396E+00
 0.9782028090231E+00
 0.1096407487945E+01
 0.1205493222372E+01
 0.1306078094753E+01
 0.1398893944630E+01
 0.1484657097472E+01
 0.1563958923592E+01
 0.1637231769338E+01
 0.1704745725318E+01
 0.1766575580268E+01
 0.1822545386376E+01
 0.1872147859631E+01
 0.1914487019363E+01
 0.1948306296998E+01
 0.1972193548197E+01
 0.2491548525521E+00
 0.4134951730845E+00
 0.5701743531900E+00
 0.7178259676676E+00
 0.8560505964684E+00
 0.9847401407569E+00
 0.1104038319415E+01
 0.1214331581874E+01
 0.1316204136713E+01
 0.1410352540782E+01
 0.1497471734337E+01
 0.1578150287112E+01
 0.1652825687431E+01
 0.1721770496028E+01
 0.1785058011998E+01
 0.1842507614434E+01
 0.1893608560372E+01
 0.1937462439265E+01
 0.1972793372905E+01
 0.1998079402286E+01
 0.2503300865225E+00
 0.4159853022998E+00
 0.5736192089886E+00
 0.7220617718019E+00
 0.8610645875738E+00
 0.9906064392719E+00
 0.1110862631860E+01
 0.1222212371120E+01
 0.1325212391235E+01
 0.1420529427488E+01
 0.1508839798795E+01
 0.1590728961323E+01
 0.1666638397411E+01
 0.1736842928627E+01
 0.1801414798817E+01
 0.1860169143647E+01
 0.1912590195154E+01
 0.1957771711112E+01
 0.1994410784207E+01
 0.2020885528336E+01
 0.2513594566374E+00
 0.4181700639703E+00
 0.5766475923813E+00
 0.7257863041664E+00
 0.8654667217912E+00
 0.9957438061446E+00
 0.1116822434302E+01
 0.1229077891900E+01
 0.1333044949311E+01
 0.1429365577775E+01
 0.1518700257953E+01
 0.1601631392401E+01
 0.1678603604184E+01
 0.1749893726198E+01
 0.1815573156871E+01
 0.1875453007491E+01
 0.1929011330352E+01
 0.1975330633643E+01
 0.2013077725625E+01
 0.2040542651919E+01
 0.2522327253628E+00
 0.4200260216414E+00
 0.5792243297514E+00
 0.7289560935780E+00
 0.8692088685803E+00
 0.1000102214114E+01
 0.1121867336413E+01
 0.1234877823328E+01
 0.1339651246653E+01
 0.1436809515115E+01
 0.1527000033002E+01
 0.1610802448645E+01
 0.1688663849733E+01
 0.1760862787018E+01
 0.1827469913364E+01
 0.1888292539762E+01
 0.1942802031520E+01
 0.1990068258391E+01
 0.2028728100924E+01
 0.2056996387112E+01
 0.2529414241974E+00
 0.4215338124205E+00
 0.5813203348438E+00
 0.7315350536882E+00
 0.8722508661985E+00
 0.1003639695960E+01
 0.1125954875380E+01
 0.1239569636776E+01
 0.1344988508993E+01
 0.1442817733864E+01
 0.1533694354373E+01
 0.1618195710185E+01
 0.1696770782403E+01
 0.1769699513598E+01
 0.1837051883199E+01
 0.1898631773549E+01
 0.1953904097314E+01
 0.2001926490034E+01
 0.2041309001764E+01
 0.2070204889145E+01
 0.2534788151716E+00
 0.4226780448929E+00
 0.5829124733467E+00
 0.7334943976451E+00
 0.8745605471216E+00
 0.1006322497866E+01
 0.1129050778343E+01
 0.1243118927903E+01
 0.1349022107614E+01
 0.1447355036256E+01
 0.1538747053346E+01
 0.1623773719777E+01
 0.1702885399733E+01
 0.1776363083466E+01
 0.1844276174995E+01
 0.1906425715235E+01
 0.1962271099524E+01
 0.2010859567723E+01
 0.2050779441116E+01
 0.2080136872427E+01
 0.2538398643872E+00
 0.4234472283827E+00
 0.5839834674019E+00
 0.7348125791142E+00
 0.8761137618956E+00
 0.1008125200350E+01
 0.1131129166848E+01
 0.1245499674642E+01
 0.1351725835868E+01
 0.1450394796773E+01
 0.1542130796690E+01
 0.1627508192995E+01
 0.1706978257028E+01
 0.1780822676447E+01
 0.1849110428623E+01
 0.1911640516967E+01
 0.1967868327025E+01
 0.2016833597278E+01
 0.2057109413259E+01
 0.2086770018818E+01
 0.2540212245725E+00
 0.4238337259678E+00
 0.5845218311541E+00
 0.7354752532643E+00
 0.8768943989802E+00
 0.1009030807820E+01
 0.1132172706778E+01
 0.1246694426035E+01
 0.1353082111923E+01
 0.1451919157549E+01
 0.1543827263452E+01
 0.1629380180888E+01
 0.1709029630784E+01
 0.1783057648530E+01
 0.1851532983302E+01
 0.1914253574020E+01
 0.1970672700523E+01
 0.2019826183223E+01
 0.2060279257838E+01
 0.2090090013620E+01
 0.2540212245451E+00
 0.4238337259173E+00
 0.5845218310923E+00
 0.7354752531975E+00
 0.8768943989116E+00
 0.1009030807752E+01
 0.1132172706711E+01
 0.1246694425972E+01
 0.1353082111866E+01
 0.1451919157500E+01
 0.1543827263411E+01
 0.1629380180856E+01
 0.1709029630760E+01
 0.1783057648512E+01
 0.1851532983289E+01
 0.1914253574012E+01
 0.1970672700518E+01
 0.2019826183219E+01
 0.2060279257833E+01
 0.2090090013610E+01
 0.2538398643055E+00
 0.4234472282317E+00
 0.5839834672172E+00
 0.7348125789147E+00
 0.8761137616905E+00
 0.1008125200145E+01
 0.1131129166648E+01
 0.1245499674453E+01
 0.1351725835697E+01
 0.1450394796625E+01
 0.1542130796568E+01
 0.1627508192899E+01
 0.1706978256956E+01
 0.1780822676394E+01
 0.1849110428586E+01
 0.1911640516942E+01
 0.1967868327010E+01
 0.2016833597267E+01
 0.2057109413245E+01
 0.2086770018788E+01
 0.2534788150363E+00
 0.4226780446433E+00
 0.5829124730415E+00
 0.7334943973154E+00
 0.8745605467826E+00
 0.1006322497527E+01
 0.1129050778013E+01
 0.1243118927591E+01
 0.1349022107331E+01
 0.1447355036011E+01
 0.1538747053144E+01
 0.1623773719618E+01
 0.1702885399612E+01
 0.1776363083378E+01
 0.1844276174933E+01
 0.1906425715193E+01
 0.1962271099498E+01
 0.2010859567705E+01
 0.2050779441093E+01
 0.2080136872376E+01
 0.2529414240099E+00
 0.4215338120750E+00
 0.5813203344220E+00
 0.7315350532325E+00
 0.8722508657296E+00
 0.1003639695491E+01
 0.1125954874922E+01
 0.1239569636343E+01
 0.1344988508600E+01
 0.1442817733523E+01
 0.1533694354092E+01
 0.1618195709963E+01
 0.1696770782235E+01
 0.1769699513476E+01
 0.1837051883112E+01
 0.1898631773491E+01
 0.1953904097276E+01
 0.2001926490008E+01
 0.2041309001732E+01
 0.2070204889075E+01
 0.2522327251252E+00
 0.4200260212044E+00
 0.5792243292183E+00
 0.7289560930023E+00
 0.8692088679873E+00
 0.1000102213519E+01
 0.1121867335831E+01
 0.1234877822777E+01
 0.1339651246152E+01
 0.1436809514680E+01
 0.1527000032643E+01
 0.1610802448361E+01
 0.1688663849518E+01
 0.1760862786861E+01
 0.1827469913253E+01
 0.1888292539687E+01
 0.1942802031470E+01
 0.1990068258357E+01
 0.2028728100882E+01
 0.2056996387023E+01
 0.2513594563523E+00
 0.4181700634469E+00
 0.5766475917441E+00
 0.7257863034783E+00
 0.8654667210814E+00
 0.9957438054308E+00
 0.1116822433602E+01
 0.1229077891237E+01
 0.1333044948707E+01
 0.1429365577250E+01
 0.1518700257518E+01
 0.1601631392058E+01
 0.1678603603924E+01
 0.1749893726007E+01
 0.1815573156735E+01
 0.1875453007398E+01
 0.1929011330291E+01
 0.1975330633599E+01
 0.2013077725573E+01
 0.2040542651813E+01
 0.2503300861932E+00
 0.4159853016967E+00
 0.5736192082559E+00
 0.7220617710108E+00
 0.8610645867562E+00
 0.9906064384473E+00
 0.1110862631049E+01
 0.1222212370349E+01
 0.1325212390531E+01
 0.1420529426876E+01
 0.1508839798288E+01
 0.1590728960923E+01
 0.1666638397106E+01
 0.1736842928402E+01
 0.1801414798656E+01
 0.1860169143535E+01
 0.1912590195079E+01
 0.1957771711058E+01
 0.1994410784146E+01
 0.2020885528214E+01
 0.2491548521823E+00
 0.4134951724094E+00
 0.5701743523722E+00
 0.7178259667846E+00
 0.8560505955538E+00
 0.9847401398311E+00
 0.1104038318501E+01
 0.1214331581002E+01
 0.1316204135916E+01
 0.1410352540087E+01
 0.1497471733760E+01
 0.1578150286656E+01
 0.1652825687083E+01
 0.1721770495771E+01
 0.1785058011812E+01
 0.1842507614303E+01
 0.1893608560282E+01
 0.1937462439200E+01
 0.1972793372834E+01
 0.1998079402150E+01
 0.2478458164364E+00
 0.4107273297011E+00
 0.5663544722938E+00
 0.7131298661455E+00
 0.8504808216404E+00
 0.9782028080069E+00
 0.1096407486937E+01
 0.1205493221406E+01
 0.1306078093867E+01
 0.1398893943857E+01
 0.1484657096830E+01
 0.1563958923083E+01
 0.1637231768950E+01
 0.1704745725030E+01
 0.1766575580057E+01
 0.1822545386225E+01
 0.1872147859525E+01
 0.1914487019285E+01
 0.1948306296919E+01
 0.1972193548050E+01
 0.2464169419973E+00
 0.4077138452214E+00
 0.5622075445246E+00
 0.7080321111796E+00
 0.8444192600276E+00
 0.9710599851240E+00
 0.1088035330959E+01
 0.1195761861870E+01
 0.1294898973636E+01
 0.1386219701163E+01
 0.1470464449868E+01
 0.1548226525010E+01
 0.1619931502062E+01
 0.1685846784111E+01
 0.1746049458572E+01
 0.1800369217387E+01
 0.1848300561571E+01
 0.1888942893802E+01
 0.1921046484222E+01
 0.1943314363652E+01
 0.2448842002193E+00
 0.4044914844884E+00
 0.5577884159028E+00
 0.7025992300273E+00
 0.8379378100491E+00
 0.9633845887777E+00
 0.1078993777142E+01
 0.1185208344086E+01
 0.1282737633241E+01
 0.1372402289960E+01
 0.1454969378710E+01
 0.1531032500099E+01
 0.1601008067630E+01
 0.1665160420729E+01
 0.1723570281191E+01
 0.1776075025050E+01
 0.1822169588240E+01
 0.1860940128037E+01
 0.1891127072840E+01
 0.1911545228097E+01
 0.2432657196562E+00
 0.4011020855211E+00
 0.5531592586480E+00
 0.6969059244801E+00
 0.8311162630758E+00
 0.9552565932810E+00
 0.1069360926435E+01
 0.1173909074107E+01
 0.1269670307278E+01
 0.1357519851498E+01
 0.1438253869992E+01
 0.1512463608729E+01
 0.1580552778682E+01
 0.1642781772190E+01
 0.1699236847864E+01
 0.1749767003588E+01
 0.1793867603089E+01
 0.1830600781478E+01
 0.1858674472763E+01
 0.1876998703946E+01
 0.2415819914314E+00
 0.3975930767993E+00
 0.5483901704092E+00
 0.6910354372641E+00
 0.8240422876201E+00
 0.9467626453128E+00
 0.1059220395425E+01
 0.1161945196821E+01
 0.1255777702488E+01
 0.1341655284038E+01
 0.1420405519795E+01
 0.1492613445659E+01
 0.1558664935859E+01
 0.1618814387023E+01
 0.1673155712507E+01
 0.1721556392682E+01
 0.1763515621529E+01
 0.1798058925267E+01
 0.1823825384849E+01
 0.1839783699694E+01
 0.2398561512325E+00
 0.3940181882612E+00
 0.5435599631283E+00
 0.6850800138712E+00
 0.8168114048066E+00
 0.9379956035564E+00
 0.1048660553596E+01
 0.1149401659384E+01
 0.1241143978759E+01
 0.1324895204797E+01
 0.1401516561081E+01
 0.1471581730029E+01
 0.1535451692003E+01
 0.1593370662334E+01
 0.1645441268692E+01
 0.1691560011005E+01
 0.1731240453266E+01
 0.1763459756974E+01
 0.1786731926981E+01
 0.1800021569538E+01
 0.2381143811424E+00
 0.3904384353758E+00
 0.5387571968233E+00
 0.6791414589659E+00
 0.8095269216599E+00
 0.9290539646972E+00
 0.1037773629559E+01
 0.1136366139331E+01
 0.1225855591441E+01
 0.1307328766300E+01
 0.1381682692122E+01
 0.1449473215559E+01
 0.1511027612440E+01
 0.1566572686124E+01
 0.1616216945714E+01
 0.1659898990664E+01
 0.1697170175870E+01
 0.1726956563664E+01
 0.1747570924723E+01
 0.1757880204131E+01
 0.2363864711734E+00
 0.3869234988474E+00
 0.5340815176889E+00
 0.6733317732495E+00
 0.8022997600656E+00
 0.9200411422067E+00
 0.1026654683331E+01
 0.1122927853552E+01
 0.1210000003579E+01
 0.1289046357711E+01
 0.1361001820983E+01
 0.1426396316339E+01
 0.1485513355598E+01
 0.1538553118778E+01
 0.1585618567692E+01
 0.1626699587613E+01
 0.1661427110240E+01
 0.1688703124261E+01
 0.1706549679177E+01
 0.1713585611908E+01
 0.2347066683706E+00
 0.3835536767023E+00
 0.5296454327505E+00
 0.6677737750383E+00
 0.7952480840400E+00
 0.9110645125368E+00
 0.1015400452419E+01
 0.1109176237801E+01
 0.1193664224115E+01
 0.1270138099885E+01
 0.1339572731618E+01
 0.1402461737407E+01
 0.1459033401631E+01
 0.1509453343365E+01
 0.1553800858027E+01
 0.1592100336996E+01
 0.1624119459629E+01
 0.1648833247872E+01
 0.1663903477912E+01
 0.1667439453249E+01
 0.2331148702471E+00
 0.3804230084045E+00
 0.5255764447192E+00
 0.6626016467396E+00
 0.7884963799000E+00
 0.9022342552407E+00
 0.1004108072056E+01
 0.1095199640629E+01
 0.1176933167480E+01
 0.1250692082042E+01
 0.1317493627066E+01
 0.1377781479278E+01
 0.1431714274843E+01
 0.1479417832609E+01
 0.1520936388133E+01
 0.1556282441572E+01
 0.1585337835063E+01
 0.1607412401121E+01
 0.1619872158711E+01
 0.1619888590770E+01
 0.2316589998214E+00
 0.3776427769522E+00
 0.5220216183944E+00
 0.6579596056568E+00
 0.7821736902885E+00
 0.8936625065715E+00
 0.9928736803743E+00
 0.1081083506994E+01
 0.1159888914498E+01
 0.1230791613658E+01
 0.1294860092466E+01
 0.1352468777152E+01
 0.1403683802570E+01
 0.1448590388034E+01
 0.1487196899540E+01
 0.1519484141777E+01
 0.1545276411615E+01
 0.1564279997757E+01
 0.1574602980740E+01
 0.1571706397441E+01
 0.2303894358740E+00
 0.3753677717437E+00
 0.5191474794268E+00
 0.6539951774054E+00
 0.7764125390129E+00
 0.8854632328058E+00
 0.9817913180419E+00
 0.1066907152023E+01
 0.1142608363856E+01
 0.1210519104401E+01
 0.1271753411446E+01
 0.1326640017228E+01
 0.1375078426009E+01
 0.1417103007561E+01
 0.1452750335666E+01
 0.1481925638781E+01
 0.1504362764739E+01
 0.1519471284439E+01
 0.1526945834926E+01
 0.1525395969487E+01
 0.1058949914316E+01
 0.1194036260645E+01
 0.8041723072515E+00
 0.6235872143212E+00
 0.5198312176989E+00
 0.4523173965006E+00
 0.4006944879124E+00
 0.3557558905686E+00
 0.3124536944088E+00
 0.2682477517964E+00
 0.2215076085820E+00
 0.1708274353743E+00
 0.1234429947713E+00
 0.8522408844484E-01
 0.5623340049755E-01
 0.3624396938440E-01
 0.2189138546442E-01
 0.1042822254613E-01
 0.1243770069357E-02
 0.1596941510638E-02
 0.8204257706943E+00
 0.1220340804869E+01
 0.9577670818572E+00
 0.7397825150599E+00
 0.6121098319368E+00
 0.5297261289584E+00
 0.4697317887181E+00
 0.4200677901785E+00
 0.3744476982888E+00
 0.3293569184569E+00
 0.2825738405752E+00
 0.2331368501075E+00
 0.1867248182704E+00
 0.1468888629612E+00
 0.1134677625223E+00
 0.8685963254593E-01
 0.6472334228634E-01
 0.4457649224695E-01
 0.2610379674190E-01
 0.1185218727753E-01
 0.6648391968123E+00
 0.1084477792501E+01
 0.1010169871983E+01
 0.8351518677772E+00
 0.6982589018562E+00
 0.6058968843796E+00
 0.5391001156147E+00
 0.4856099907293E+00
 0.4381820503239E+00
 0.3926416471017E+00
 0.3464305380352E+00
 0.2982449893278E+00
 0.2519918348522E+00
 0.2108684696435E+00
 0.1747620498893E+00
 0.1437084012828E+00
 0.1161878437676E+00
 0.9036954159730E-01
 0.6615466955417E-01
 0.4777638786801E-01
 0.5573728656397E+00
 0.9553465845288E+00
 0.9903259600937E+00
 0.8897750121199E+00
 0.7710607822127E+00
 0.6773113463614E+00
 0.6070732991383E+00
 0.5512203916979E+00
 0.5028423392548E+00
 0.4574836510517E+00
 0.4123069619203E+00
 0.3655566967223E+00
 0.3197557052034E+00
 0.2779659331893E+00
 0.2403736122351E+00
 0.2067779275309E+00
 0.1762129983171E+00
 0.1474800706210E+00
 0.1213884418036E+00
 0.1037433766310E+00
 0.4794112511244E+00
 0.8447901635429E+00
 0.9448171571573E+00
 0.9084755103495E+00
 0.8237136924758E+00
 0.7401323133480E+00
 0.6714515706312E+00
 0.6155733972279E+00
 0.5674905134805E+00
 0.5231188565119E+00
 0.4795359457866E+00
 0.4346547409395E+00
 0.3899183455858E+00
 0.3483082608416E+00
 0.3103775843162E+00
 0.2758748294176E+00
 0.2443161477374E+00
 0.2151410503011E+00
 0.1899722377126E+00
 0.1758032234442E+00
 0.4212813575575E+00
 0.7533023005907E+00
 0.8912736241210E+00
 0.9049796789383E+00
 0.8565335862254E+00
 0.7913634049861E+00
 0.7300229699268E+00
 0.6771837626874E+00
 0.6310794488234E+00
 0.5887232289391E+00
 0.5474501798272E+00
 0.5050441374979E+00
 0.4621453404894E+00
 0.4216562670208E+00
 0.3845070969404E+00
 0.3505297623183E+00
 0.3196882733432E+00
 0.2919491109697E+00
 0.2694765465425E+00
 0.2597901741140E+00
 0.3771289737382E+00
 0.6783064043872E+00
 0.8377165759428E+00
 0.8887584526661E+00
 0.8737539579485E+00
 0.8305077931999E+00
 0.7811432530377E+00
 0.7346361953348E+00
 0.6925167316681E+00
 0.6534330774520E+00
 0.6153423590100E+00
 0.5761452410955E+00
 0.5359335039841E+00
 0.4975304891673E+00
 0.4622214390716E+00
 0.4299990058646E+00
 0.4012084149560E+00
 0.3761819701704E+00
 0.3572893406880E+00
 0.3519953409424E+00
 0.3431721734365E+00
 0.6170497643098E+00
 0.7876460952443E+00
 0.8659605242463E+00
 0.8797238115889E+00
 0.8588588879266E+00
 0.8242279946308E+00
 0.7868611232932E+00
 0.7507928884854E+00
 0.7163847927773E+00
 0.6824736950841E+00
 0.6473059756299E+00
 0.6106574732712E+00
 0.5752796895896E+00
 0.5427742893717E+00
 0.5133218272187E+00
 0.4875567545946E+00
 0.4659996166915E+00
 0.4509285258413E+00
 0.4493204088656E+00
 0.3168375081823E+00
 0.5670995217333E+00
 0.7424833245176E+00
 0.8404088644280E+00
 0.8780558052988E+00
 0.8783278960736E+00
 0.8595831862424E+00
 0.8333150368219E+00
 0.8051147472239E+00
 0.7767844365977E+00
 0.7481062093145E+00
 0.7178294484638E+00
 0.6856085109270E+00
 0.6541345237941E+00
 0.6252769813568E+00
 0.5993984638672E+00
 0.5773213200910E+00
 0.5595949048958E+00
 0.5481793018953E+00
 0.5492726149587E+00
 0.2963079440192E+00
 0.5264262801009E+00
 0.7026330700693E+00
 0.8144381782524E+00
 0.8714962666644E+00
 0.8908598105688E+00
 0.8880104968204E+00
 0.8739401987918E+00
 0.8549841170955E+00
 0.8339767921379E+00
 0.8115489807893E+00
 0.7870105151990E+00
 0.7600338227034E+00
 0.7332554520462E+00
 0.7087576973806E+00
 0.6870615615627E+00
 0.6690841467328E+00
 0.6552805696322E+00
 0.6471385960026E+00
 0.6498907785359E+00
 0.2802628788356E+00
 0.4933648496218E+00
 0.6679990017204E+00
 0.7894352634936E+00
 0.8620455561416E+00
 0.8981777981644E+00
 0.9105089172231E+00
 0.9090182466369E+00
 0.9001905388513E+00
 0.8874865157725E+00
 0.8722017241182E+00
 0.8541756409540E+00
 0.8331766352417E+00
 0.8117779125498E+00
 0.7922140067855E+00
 0.7751347923460E+00
 0.7614796252751E+00
 0.7515305895974E+00
 0.7462098132566E+00
 0.7496584944415E+00
 0.2677199270419E+00
 0.4665535940401E+00
 0.6382419613527E+00
 0.7661824186869E+00
 0.8511184668897E+00
 0.9017053989663E+00
 0.9280901536477E+00
 0.9390242966692E+00
 0.9407520919227E+00
 0.9370209800957E+00
 0.9295827206292E+00
 0.9187180824362E+00
 0.9043144804717E+00
 0.8888543816109E+00
 0.8746585307791E+00
 0.8624776109170E+00
 0.8532291956704E+00
 0.8469905143217E+00
 0.8440738358143E+00
 0.8474228169645E+00
 0.2579340614249E+00
 0.4448768724661E+00
 0.6129144432429E+00
 0.7450745004431E+00
 0.8396882834983E+00
 0.9025683800453E+00
 0.9416811723664E+00
 0.9645145396651E+00
 0.9768429151788E+00
 0.9824457141690E+00
 0.9833365130240E+00
 0.9801221192196E+00
 0.9727917737694E+00
 0.9636922247934E+00
 0.9551585877133E+00
 0.9480191580590E+00
 0.9431586680857E+00
 0.9404675733975E+00
 0.9396484885022E+00
 0.9423253184852E+00
 0.2503308549805E+00
 0.4274166912335E+00
 0.5915319260983E+00
 0.7262577098339E+00
 0.8284016452938E+00
 0.9016282615936E+00
 0.9520815205760E+00
 0.9860511376873E+00
 0.1008727720921E+01
 0.1023747643909E+01
 0.1033224911579E+01
 0.1037973636571E+01
 0.1038043266372E+01
 0.1035586029338E+01
 0.1032871921905E+01
 0.1030786463407E+01
 0.1030205213015E+01
 0.1030907051776E+01
 0.1032040283736E+01
 0.1033746217829E+01
 0.2444607972155E+00
 0.4134136352078E+00
 0.5736109250492E+00
 0.7097196412805E+00
 0.8176661771270E+00
 0.8995248015144E+00
 0.9599521621559E+00
 0.1004157335877E+01
 0.1036710870807E+01
 0.1060997011546E+01
 0.1079107713494E+01
 0.1091957575195E+01
 0.1099605580182E+01
 0.1103942625608E+01
 0.1107081196351E+01
 0.1109935000565E+01
 0.1113422806346E+01
 0.1117359130768E+01
 0.1120485153670E+01
 0.1121258769828E+01
 0.2399669730408E+00
 0.4022356303255E+00
 0.5586890758073E+00
 0.6953487997101E+00
 0.8077162394628E+00
 0.8967176139066E+00
 0.9658210175217E+00
 0.1019294152863E+01
 0.1061100680152E+01
 0.1094314061776E+01
 0.1120919185335E+01
 0.1141844865034E+01
 0.1157113924198E+01
 0.1168293419283E+01
 0.1177228648359E+01
 0.1184793092309E+01
 0.1192003531313E+01
 0.1198941064457E+01
 0.1204267536843E+01
 0.1204584509911E+01
 0.2365612394163E+00
 0.3933527547199E+00
 0.5463357578578E+00
 0.6829748699925E+00
 0.7986621470008E+00
 0.8935230730871E+00
 0.9700964601586E+00
 0.1031851383150E+01
 0.1082186791322E+01
 0.1123843096122E+01
 0.1158645251799E+01
 0.1187473171057E+01
 0.1210283896220E+01
 0.1228280377592E+01
 0.1242936904764E+01
 0.1254938487250E+01
 0.1265347791667E+01
 0.1274822348314E+01
 0.1282589885335E+01
 0.1283526154094E+01
 0.2340049000825E+00
 0.3863173733428E+00
 0.5361581444397E+00
 0.6723976746634E+00
 0.7905265081235E+00
 0.8901454771446E+00
 0.9730838976170E+00
 0.1042147486636E+01
 0.1100227829150E+01
 0.1149734225296E+01
 0.1192304806757E+01
 0.1228727811272E+01
 0.1258884372531E+01
 0.1283612013065E+01
 0.1303956088933E+01
 0.1320270069558E+01
 0.1333303435605E+01
 0.1344293641370E+01
 0.1354387479640E+01
 0.1357785978134E+01
 0.2320911059926E+00
 0.3807441019777E+00
 0.5278142721164E+00
 0.6634062140995E+00
 0.7832701348305E+00
 0.8867029339282E+00
 0.9750029401911E+00
 0.1050434596756E+01
 0.1115446209070E+01
 0.1172133062611E+01
 0.1221935641843E+01
 0.1265528010832E+01
 0.1302717879521E+01
 0.1334008358746E+01
 0.1360037441005E+01
 0.1380794968699E+01
 0.1396479245741E+01
 0.1407626673253E+01
 0.1417908694835E+01
 0.1426423494658E+01
 0.2305866214923E+00
 0.3763583869172E+00
 0.5210236680709E+00
 0.6557844660325E+00
 0.7768118733572E+00
 0.8832482258901E+00
 0.9760040318959E+00
 0.1056907143795E+01
 0.1128026341038E+01
 0.1191175533671E+01
 0.1247592899234E+01
 0.1297809917388E+01
 0.1341616392991E+01
 0.1379200350571E+01
 0.1410817692261E+01
 0.1436260577254E+01
 0.1455263315559E+01
 0.1467430435096E+01
 0.1473911264777E+01
 0.1484910502493E+01
 0.2305866214185E+00
 0.3763583868878E+00
 0.5210236680975E+00
 0.6557844659125E+00
 0.7768118729183E+00
 0.8832482250758E+00
 0.9760040307608E+00
 0.1056907142464E+01
 0.1128026339657E+01
 0.1191175532367E+01
 0.1247592898092E+01
 0.1297809916450E+01
 0.1341616392266E+01
 0.1379200349988E+01
 0.1410817691759E+01
 0.1436260576788E+01
 0.1455263315085E+01
 0.1467430434578E+01
 0.1473911264134E+01
 0.1484910501663E+01
 0.2320911060268E+00
 0.3807441021419E+00
 0.5278142723539E+00
 0.6634062141439E+00
 0.7832701344766E+00
 0.8867029331172E+00
 0.9750029389937E+00
 0.1050434595320E+01
 0.1115446207565E+01
 0.1172133061182E+01
 0.1221935640579E+01
 0.1265528009773E+01
 0.1302717878674E+01
 0.1334008358009E+01
 0.1360037440297E+01
 0.1380794967959E+01
 0.1396479244907E+01
 0.1407626672262E+01
 0.1417908693568E+01
 0.1426423493164E+01
 0.2340049002535E+00
 0.3863173737517E+00
 0.5361581449325E+00
 0.6723976749056E+00
 0.7905265078802E+00
 0.8901454763604E+00
 0.9730838963844E+00
 0.1042147485130E+01
 0.1100227827564E+01
 0.1149734223786E+01
 0.1192304805422E+01
 0.1228727810150E+01
 0.1258884371623E+01
 0.1283612012234E+01
 0.1303956088075E+01
 0.1320270068591E+01
 0.1333303434438E+01
 0.1344293639915E+01
 0.1354387477806E+01
 0.1357785975970E+01
 0.2365612397488E+00
 0.3933527554200E+00
 0.5463357586485E+00
 0.6829748704628E+00
 0.7986621468898E+00
 0.8935230723495E+00
 0.9700964589147E+00
 0.1031851381605E+01
 0.1082186789692E+01
 0.1123843094580E+01
 0.1158645250445E+01
 0.1187473169931E+01
 0.1210283895309E+01
 0.1228280376726E+01
 0.1242936903811E+01
 0.1254938486103E+01
 0.1265347790208E+01
 0.1274822346451E+01
 0.1282589882991E+01
 0.1283526151244E+01
 0.2399669735597E+00
 0.4022356313620E+00
 0.5586890769342E+00
 0.6953488004332E+00
 0.8077162394996E+00
 0.8967176132303E+00
 0.9658210162870E+00
 0.1019294151309E+01
 0.1061100678519E+01
 0.1094314060248E+01
 0.1120919184016E+01
 0.1141844863960E+01
 0.1157113923345E+01
 0.1168293418441E+01
 0.1177228647369E+01
 0.1184793091040E+01
 0.1192003529630E+01
 0.1198941062263E+01
 0.1204267534041E+01
 0.1204584506378E+01
 0.2444607979467E+00
 0.4134136366250E+00
 0.5736109265457E+00
 0.7097196422740E+00
 0.8176661773199E+00
 0.8995248009080E+00
 0.9599521609468E+00
 0.1004157334341E+01
 0.1036710869208E+01
 0.1060997010078E+01
 0.1079107712261E+01
 0.1091957574231E+01
 0.1099605579443E+01
 0.1103942624850E+01
 0.1107081195388E+01
 0.1109934999246E+01
 0.1113422804519E+01
 0.1117359128325E+01
 0.1120485150470E+01
 0.1121258765639E+01
 0.2503308559514E+00
 0.4274166930752E+00
 0.5915319279917E+00
 0.7262577111064E+00
 0.8284016456421E+00
 0.9016282610589E+00
 0.9520815194047E+00
 0.9860511361942E+00
 0.1008727719393E+01
 0.1023747642545E+01
 0.1033224910482E+01
 0.1037973635769E+01
 0.1038043265803E+01
 0.1035586028722E+01
 0.1032871921035E+01
 0.1030786462118E+01
 0.1030205211135E+01
 0.1030907049173E+01
 0.1032040280213E+01
 0.1033746213040E+01
 0.2579340626646E+00
 0.4448768747750E+00
 0.6129144455527E+00
 0.7450745019920E+00
 0.8396882839910E+00
 0.9025683795767E+00
 0.9416811712409E+00
 0.9645145382384E+00
 0.9768429137558E+00
 0.9824457129524E+00
 0.9833365121106E+00
 0.9801221186299E+00
 0.9727917734211E+00
 0.9636922243750E+00
 0.9551585870031E+00
 0.9480191568780E+00
 0.9431586662458E+00
 0.9404675707341E+00
 0.9396484847506E+00
 0.9423253131820E+00
 0.2677199285815E+00
 0.4665535968568E+00
 0.6382419640889E+00
 0.7661824204964E+00
 0.8511184675039E+00
 0.9017053985505E+00
 0.9280901525729E+00
 0.9390242953312E+00
 0.9407520906399E+00
 0.9370209790668E+00
 0.9295827199421E+00
 0.9187180821034E+00
 0.9043144803883E+00
 0.8888543814397E+00
 0.8746585302903E+00
 0.8624776099231E+00
 0.8532291939668E+00
 0.8469905117084E+00
 0.8440738319519E+00
 0.8474228112670E+00
 0.2802628807086E+00
 0.4933648529836E+00
 0.6679990048796E+00
 0.7894352655318E+00
 0.8620455568413E+00
 0.8981777977814E+00
 0.9105089162019E+00
 0.9090182454101E+00
 0.9001905377421E+00
 0.8874865149684E+00
 0.8722017236946E+00
 0.8541756409144E+00
 0.8331766354579E+00
 0.8117779126659E+00
 0.7922140065715E+00
 0.7751347916121E+00
 0.7614796238042E+00
 0.7515305871537E+00
 0.7462098094241E+00
 0.7496584885057E+00
 0.2963079462615E+00
 0.5264262840392E+00
 0.7026330736312E+00
 0.8144381804677E+00
 0.8714962673997E+00
 0.8908598101932E+00
 0.8880104958564E+00
 0.8739401977002E+00
 0.8549841161929E+00
 0.8339767915914E+00
 0.8115489806590E+00
 0.7870105154791E+00
 0.7600338232421E+00
 0.7332554524775E+00
 0.7087576974832E+00
 0.6870615611517E+00
 0.6690841455862E+00
 0.6552805674832E+00
 0.6471385923624E+00
 0.6498907725564E+00
 0.3168375108317E+00
 0.5670995262699E+00
 0.7424833284389E+00
 0.8404088667449E+00
 0.8780558060064E+00
 0.8783278956782E+00
 0.8595831853434E+00
 0.8333150358930E+00
 0.8051147465591E+00
 0.7767844363356E+00
 0.7481062094977E+00
 0.7178294490785E+00
 0.6856085117973E+00
 0.6541345245538E+00
 0.6252769818023E+00
 0.5993984638269E+00
 0.5773213193494E+00
 0.5595949031653E+00
 0.5481792986253E+00
 0.5492726091690E+00
 0.3431721765325E+00
 0.6170497694512E+00
 0.7876460994504E+00
 0.8659605265614E+00
 0.8797238121943E+00
 0.8588588874888E+00
 0.8242279938139E+00
 0.7868611225591E+00
 0.7507928880873E+00
 0.7163847928182E+00
 0.6824736955903E+00
 0.6473059765814E+00
 0.6106574744675E+00
 0.5752796906745E+00
 0.5427742901675E+00
 0.5133218275760E+00
 0.4875567543182E+00
 0.4659996154907E+00
 0.4509285231245E+00
 0.4493204035334E+00
 0.3771289773199E+00
 0.6783064101149E+00
 0.8377165803162E+00
 0.8887584548452E+00
 0.8737539583739E+00
 0.8305077927122E+00
 0.7811432523349E+00
 0.7346361948317E+00
 0.6925167315597E+00
 0.6534330778044E+00
 0.6153423598376E+00
 0.5761452423738E+00
 0.5359335054862E+00
 0.4975304905570E+00
 0.4622214402037E+00
 0.4299990066190E+00
 0.4012084151736E+00
 0.3761819695807E+00
 0.3572893386942E+00
 0.3519953363578E+00
 0.4212813616596E+00
 0.7533023068453E+00
 0.8912736284845E+00
 0.9049796808162E+00
 0.8565335864063E+00
 0.7913634044712E+00
 0.7300229693882E+00
 0.6771837624514E+00
 0.6310794490177E+00
 0.5887232295997E+00
 0.5474501809639E+00
 0.5050441390824E+00
 0.4621453422635E+00
 0.4216562686782E+00
 0.3845070983712E+00
 0.3505297634356E+00
 0.3196882740389E+00
 0.2919491110213E+00
 0.2694765453985E+00
 0.2597901705626E+00
 0.4794112557696E+00
 0.8447901701957E+00
 0.9448171612511E+00
 0.9084755117454E+00
 0.8237136923936E+00
 0.7401323128765E+00
 0.6714515703213E+00
 0.6155733972866E+00
 0.5674905139771E+00
 0.5231188574664E+00
 0.4795359472120E+00
 0.4346547428015E+00
 0.3899183475870E+00
 0.3483082627142E+00
 0.3103775859841E+00
 0.2758748308256E+00
 0.2443161488382E+00
 0.2151410509471E+00
 0.1899722374608E+00
 0.1758032211572E+00
 0.5573728708218E+00
 0.9553465913246E+00
 0.9903259635534E+00
 0.8897750128845E+00
 0.7710607819545E+00
 0.6773113460555E+00
 0.6070732991173E+00
 0.5512203920602E+00
 0.5028423400385E+00
 0.4574836522770E+00
 0.4123069636094E+00
 0.3655566988300E+00
 0.3197557073794E+00
 0.2779659352123E+00
 0.2403736140555E+00
 0.2067779291177E+00
 0.1762129996863E+00
 0.1474800717143E+00
 0.1213884423460E+00
 0.1037433756973E+00
 0.6648392024632E+00
 0.1084477798959E+01
 0.1010169874322E+01
 0.8351518679659E+00
 0.6982589016619E+00
 0.6058968843707E+00
 0.5391001159132E+00
 0.4856099913821E+00
 0.4381820513676E+00
 0.3926416485690E+00
 0.3464305399623E+00
 0.2982449916513E+00
 0.2519918371494E+00
 0.2108684717445E+00
 0.1747620517567E+00
 0.1437084028979E+00
 0.1161878452067E+00
 0.9036954288344E-01
 0.6615467060144E-01
 0.4777638808885E-01
 0.8204257765706E+00
 0.1220340809820E+01
 0.9577670829078E+00
 0.7397825151720E+00
 0.6121098320949E+00
 0.5297261293189E+00
 0.4697317893277E+00
 0.4200677910920E+00
 0.3744476995589E+00
 0.3293569201334E+00
 0.2825738427155E+00
 0.2331368526295E+00
 0.1867248206440E+00
 0.1468888650669E+00
 0.1134677643063E+00
 0.8685963400055E-01
 0.6472334354908E-01
 0.4457649338840E-01
 0.2610379779909E-01
 0.1185218798587E-01
 0.1058949919436E+01
 0.1194036263484E+01
 0.8041723082067E+00
 0.6235872150024E+00
 0.5198312183502E+00
 0.4523173972290E+00
 0.4006944887966E+00
 0.3557558917036E+00
 0.3124536958740E+00
 0.2682477536452E+00
 0.2215076109000E+00
 0.1708274381014E+00
 0.1234429972402E+00
 0.8522409046272E-01
 0.5623340201724E-01
 0.3624397046028E-01
 0.2189138628259E-01
 0.1042822316124E-01
 0.1243770485571E-02
 0.1596941322312E-02
 0.1502478257302E+01
 0.1439458597151E+01
 0.1375035415152E+01
 0.1307181107655E+01
 0.1234268206334E+01
 0.1156211838110E+01
 0.1073151537599E+01
 0.9853468773648E+00
 0.8931376033297E+00
 0.7969737725086E+00
 0.6974672222467E+00
 0.5954668087383E+00
 0.4921637610402E+00
 0.3892393569137E+00
 0.2890701825277E+00
 0.1950068348175E+00
 0.1117274554896E+00
 0.4563094934316E-01
 0.5847045268766E-02
 0.4223690766390E-02
 0.1553433164088E+01
 0.1503265611151E+01
 0.1442065968012E+01
 0.1375948314774E+01
 0.1305318087532E+01
 0.1229816842669E+01
 0.1149265078372E+01
 0.1063632561193E+01
 0.9730130489673E+00
 0.8776160915360E+00
 0.7777926235400E+00
 0.6740911372102E+00
 0.5673507477164E+00
 0.4588452475757E+00
 0.3505037395299E+00
 0.2452510565760E+00
 0.1475482243378E+00
 0.6426747165348E-01
 0.7786514123802E-02
 0.1534893522067E-01
 0.1602582969963E+01
 0.1558733369625E+01
 0.1505297208335E+01
 0.1444284417242E+01
 0.1377732407463E+01
 0.1306054047076E+01
 0.1229228134781E+01
 0.1147179792190E+01
 0.1059878752275E+01
 0.9673693765535E+00
 0.8697908128753E+00
 0.7674108714779E+00
 0.6606851163364E+00
 0.5503564630691E+00
 0.4376226108095E+00
 0.3244280733970E+00
 0.2139931133553E+00
 0.1119026717343E+00
 0.2853897410657E-01
 0.1761122931883E-01
 0.1651668397172E+01
 0.1612371691519E+01
 0.1565177530045E+01
 0.1510447096822E+01
 0.1449372968233E+01
 0.1382728582842E+01
 0.1310763737749E+01
 0.1233519711854E+01
 0.1150986527524E+01
 0.1063172200295E+01
 0.9701361074937E+00
 0.8720146671773E+00
 0.7690550857992E+00
 0.6616703953896E+00
 0.5505364612160E+00
 0.4367704450988E+00
 0.3222877308808E+00
 0.2105318567602E+00
 0.1082932055511E+00
 0.3158169719030E-01
 0.1699813194704E+01
 0.1664645202192E+01
 0.1622887966513E+01
 0.1574151023513E+01
 0.1519011896858E+01
 0.1458060617607E+01
 0.1391654694635E+01
 0.1319951548682E+01
 0.1243018263734E+01
 0.1160903346379E+01
 0.1073677975518E+01
 0.9814613415333E+00
 0.8844412609232E+00
 0.7828976944074E+00
 0.6772355653821E+00
 0.5680364708580E+00
 0.4561367841820E+00
 0.3427548973856E+00
 0.2295999907004E+00
 0.1176115400715E+00
 0.1746466776852E+01
 0.1715305715928E+01
 0.1678452490391E+01
 0.1635265547498E+01
 0.1585896935146E+01
 0.1530710654850E+01
 0.1470009385845E+01
 0.1403983183397E+01
 0.1332738653582E+01
 0.1256342976885E+01
 0.1174852912892E+01
 0.1088326597217E+01
 0.9968186371405E+00
 0.9003551114852E+00
 0.7988767049874E+00
 0.6921199856615E+00
 0.5793682622443E+00
 0.4588807725939E+00
 0.3264371663179E+00
 0.1705229319582E+00
 0.1791176658993E+01
 0.1763938082262E+01
 0.1731593325044E+01
 0.1693455455092E+01
 0.1649427267248E+01
 0.1599662707363E+01
 0.1544350330512E+01
 0.1483627605445E+01
 0.1417567150676E+01
 0.1346184413065E+01
 0.1269440969092E+01
 0.1187229628914E+01
 0.1099332133655E+01
 0.1005335743013E+01
 0.9044826243732E+00
 0.7954014190558E+00
 0.6756183755407E+00
 0.5406432008221E+00
 0.3822210797234E+00
 0.1869790752645E+00
 0.1833593167049E+01
 0.1810143433662E+01
 0.1781938434812E+01
 0.1748325769134E+01
 0.1709060562702E+01
 0.1664123392455E+01
 0.1613562193800E+01
 0.1557405666444E+01
 0.1495624697734E+01
 0.1428112577723E+01
 0.1354661635684E+01
 0.1274921005808E+01
 0.1188321738442E+01
 0.1093951790906E+01
 0.9903536550156E+00
 0.8752002825991E+00
 0.7447811882808E+00
 0.5932235414425E+00
 0.4116287475145E+00
 0.1904360502049E+00
 0.1873447838983E+01
 0.1853596633187E+01
 0.1829159954614E+01
 0.1799538547813E+01
 0.1764391850541E+01
 0.1723552567721E+01
 0.1676917611922E+01
 0.1624370155977E+01
 0.1565729904991E+01
 0.1500714791310E+01
 0.1428898014157E+01
 0.1349646870768E+01
 0.1262030934486E+01
 0.1164685787048E+01
 0.1055615681958E+01
 0.9319173706322E+00
 0.7894215834406E+00
 0.6223285092776E+00
 0.4233658110670E+00
 0.1889370403595E+00
 0.1910551423114E+01
 0.1894083782525E+01
 0.1873070164260E+01
 0.1846951342439E+01
 0.1815310323322E+01
 0.1777845494496E+01
 0.1734297451551E+01
 0.1684382791747E+01
 0.1627741298438E+01
 0.1563888524302E+01
 0.1492163287119E+01
 0.1411660652806E+01
 0.1321142524293E+01
 0.1218919899939E+01
 0.1102705064945E+01
 0.9694445461626E+00
 0.8151795473339E+00
 0.6351024548703E+00
 0.4244268830977E+00
 0.1871761901417E+00
 0.1944730788222E+01
 0.1931380278546E+01
 0.1913458780931E+01
 0.1890406608723E+01
 0.1861731455831E+01
 0.1827004389963E+01
 0.1785810607912E+01
 0.1737694938737E+01
 0.1682111760360E+01
 0.1618376775643E+01
 0.1545615092422E+01
 0.1462700710309E+01
 0.1368184928240E+01
 0.1260215519942E+01
 0.1136457071718E+01
 0.9940408962236E+00
 0.8296166296204E+00
 0.6396932545554E+00
 0.4220965884010E+00
 0.1877220609285E+00
 0.1975844314348E+01
 0.1965301202317E+01
 0.1950133476488E+01
 0.1929741542488E+01
 0.1903551117733E+01
 0.1871011164955E+01
 0.1831558671594E+01
 0.1784574857993E+01
 0.1729341673704E+01
 0.1664999133171E+01
 0.1590501647970E+01
 0.1504572329042E+01
 0.1405657124258E+01
 0.1291885955249E+01
 0.1161057422301E+01
 0.1010681814226E+01
 0.8381561661517E+00
 0.6412751198335E+00
 0.4200285729369E+00
 0.1904975291721E+00
 0.2003772523025E+01
 0.1995708403254E+01
 0.1982946997354E+01
 0.1964826609430E+01
 0.1940685463030E+01
 0.1909856627159E+01
 0.1871641045215E+01
 0.1825273267583E+01
 0.1769886729581E+01
 0.1704480581820E+01
 0.1627888662892E+01
 0.1538752196982E+01
 0.1435500653884E+01
 0.1316350141811E+01
 0.1179336959665E+01
 0.1022418893347E+01
 0.8437131128463E+00
 0.6420752539452E+00
 0.4190706526452E+00
 0.1945606741922E+00
 0.2028411808100E+01
 0.2022494497143E+01
 0.2011792520720E+01
 0.1995574122589E+01
 0.1973090049476E+01
 0.1943566375091E+01
 0.1906183610772E+01
 0.1860051110144E+01
 0.1804182019102E+01
 0.1737471319915E+01
 0.1658678857311E+01
 0.1566420230290E+01
 0.1459170812454E+01
 0.1335292055912E+01
 0.1193095488286E+01
 0.1030971961990E+01
 0.8476478116441E+00
 0.6427748966288E+00
 0.4190220847904E+00
 0.1990617912938E+00
 0.2049674748371E+01
 0.2045575235438E+01
 0.2036595070214E+01
 0.2021933079261E+01
 0.2000757887102E+01
 0.1972200413609E+01
 0.1935338372565E+01
 0.1889178716398E+01
 0.1832642182340E+01
 0.1764552572905E+01
 0.1683633111686E+01
 0.1588513008467E+01
 0.1477749072227E+01
 0.1349869912332E+01
 0.1203454834094E+01
 0.1037269931348E+01
 0.8505185839715E+00
 0.6434248671728E+00
 0.4194383361532E+00
 0.2033995133202E+00
 0.2067490115995E+01
 0.2064885718547E+01
 0.2057303924567E+01
 0.2043879778276E+01
 0.2023709019649E+01
 0.1995841456814E+01
 0.1959270412311E+01
 0.1912922445406E+01
 0.1855650700732E+01
 0.1786234323114E+01
 0.1703386182472E+01
 0.1605771625458E+01
 0.1492042005162E+01
 0.1360888488009E+01
 0.1211125175597E+01
 0.1041820635069E+01
 0.8525347851600E+00
 0.6438969983977E+00
 0.4199271179698E+00
 0.2071939364888E+00
 0.2081802131219E+01
 0.2080378122148E+01
 0.2073887377900E+01
 0.2061409933625E+01
 0.2041980484818E+01
 0.2014583070132E+01
 0.1978144836981E+01
 0.1931531992152E+01
 0.1873550638056E+01
 0.1802954580683E+01
 0.1718461958833E+01
 0.1618782689756E+01
 0.1502659229704E+01
 0.1368924294808E+01
 0.1216582368021E+01
 0.1044932580055E+01
 0.8537924404696E+00
 0.6440769196668E+00
 0.4202335015460E+00
 0.2102300607936E+00
 0.2092569017494E+01
 0.2092019163379E+01
 0.2086328124982E+01
 0.2074531915054E+01
 0.2055617763477E+01
 0.2028519927949E+01
 0.1992116868117E+01
 0.1945232097114E+01
 0.1886640851585E+01
 0.1815084262426E+01
 0.1729292395378E+01
 0.1628017413861E+01
 0.1510078267676E+01
 0.1374419171706E+01
 0.1220187404403E+01
 0.1046847803117E+01
 0.8543969666426E+00
 0.6439478211610E+00
 0.4202647146179E+00
 0.2124217245723E+00
 0.2099761408366E+01
 0.2099787745084E+01
 0.2094619433689E+01
 0.2083261317829E+01
 0.2064668033417E+01
 0.2037740368521E+01
 0.2001324747049E+01
 0.1954217456631E+01
 0.1895175302921E+01
 0.1822934030898E+01
 0.1736235477143E+01
 0.1633864130344E+01
 0.1514693735751E+01
 0.1377745355074E+01
 0.1222261801397E+01
 0.1047816197779E+01
 0.8545207154211E+00
 0.6436179729015E+00
 0.4200893367277E+00
 0.2137926652421E+00
 0.2103361348701E+01
 0.2103673264704E+01
 0.2098762488267E+01
 0.2087617438559E+01
 0.2069176093755E+01
 0.2042322353384E+01
 0.2005886689498E+01
 0.1958652098253E+01
 0.1899366778799E+01
 0.1826764685877E+01
 0.1739594695217E+01
 0.1636658754454E+01
 0.1516859273658E+01
 0.1379256783254E+01
 0.1223142582423E+01
 0.1048144492222E+01
 0.8544335605623E+00
 0.6433202061439E+00
 0.4199024116688E+00
 0.2144424589958E+00
 0.2103361348665E+01
 0.2103673264633E+01
 0.2098762488164E+01
 0.2087617438425E+01
 0.2069176093594E+01
 0.2042322353201E+01
 0.2005886689301E+01
 0.1958652098052E+01
 0.1899366778606E+01
 0.1826764685702E+01
 0.1739594695074E+01
 0.1636658754354E+01
 0.1516859273609E+01
 0.1379256783262E+01
 0.1223142582487E+01
 0.1048144492335E+01
 0.8544335607097E+00
 0.6433202063008E+00
 0.4199024117932E+00
 0.2144424589827E+00
 0.2099761408259E+01
 0.2099787744874E+01
 0.2094619433378E+01
 0.2083261317425E+01
 0.2064668032929E+01
 0.2037740367967E+01
 0.2001324746452E+01
 0.1954217456019E+01
 0.1895175302326E+01
 0.1822934030356E+01
 0.1736235476692E+01
 0.1633864130016E+01
 0.1514693735575E+01
 0.1377745355064E+01
 0.1222261801553E+01
 0.1047816198081E+01
 0.8545207158275E+00
 0.6436179733398E+00
 0.4200893370759E+00
 0.2137926651946E+00
 0.2092569017316E+01
 0.2092019163029E+01
 0.2086328124464E+01
 0.2074531914377E+01
 0.2055617762658E+01
 0.2028519927015E+01
 0.1992116867102E+01
 0.1945232096066E+01
 0.1886640850555E+01
 0.1815084261474E+01
 0.1729292394565E+01
 0.1628017413244E+01
 0.1510078267302E+01
 0.1374419171605E+01
 0.1220187404576E+01
 0.1046847803536E+01
 0.8543969672402E+00
 0.6439478218217E+00
 0.4202647151459E+00
 0.2124217244772E+00
 0.2081802130973E+01
 0.2080378121661E+01
 0.2073887377175E+01
 0.2061409932673E+01
 0.2041980483661E+01
 0.2014583068804E+01
 0.1978144835530E+01
 0.1931531990638E+01
 0.1873550636551E+01
 0.1802954579270E+01
 0.1718461957596E+01
 0.1618782688779E+01
 0.1502659229056E+01
 0.1368924294536E+01
 0.1216582368137E+01
 0.1044932580524E+01
 0.8537924412032E+00
 0.6440769205065E+00
 0.4202335022226E+00
 0.2102300606416E+00
 0.2067490115685E+01
 0.2064885717927E+01
 0.2057303923637E+01
 0.2043879777048E+01
 0.2023709018149E+01
 0.1995841455080E+01
 0.1959270410400E+01
 0.1912922443392E+01
 0.1855650698704E+01
 0.1786234321176E+01
 0.1703386180735E+01
 0.1605771624032E+01
 0.1492042004146E+01
 0.1360888487473E+01
 0.1211125175570E+01
 0.1041820635518E+01
 0.8525347859797E+00
 0.6438969993875E+00
 0.4199271187843E+00
 0.2071939362875E+00
 0.2049674748001E+01
 0.2045575234689E+01
 0.2036595069083E+01
 0.2021933077759E+01
 0.2000757885254E+01
 0.1972200411456E+01
 0.1935338370170E+01
 0.1889178713844E+01
 0.1832642179732E+01
 0.1764552570366E+01
 0.1683633109354E+01
 0.1588513006484E+01
 0.1477749070724E+01
 0.1349869911413E+01
 0.1203454833816E+01
 0.1037269931693E+01
 0.8505185848256E+00
 0.6434248682960E+00
 0.4194383371174E+00
 0.2033995130948E+00
 0.2028411807677E+01
 0.2022494496270E+01
 0.2011792519393E+01
 0.1995574120815E+01
 0.1973090047277E+01
 0.1943566372508E+01
 0.1906183607869E+01
 0.1860051107011E+01
 0.1804182015855E+01
 0.1737471316694E+01
 0.1658678854279E+01
 0.1566420227622E+01
 0.1459170810321E+01
 0.1335292054464E+01
 0.1193095487621E+01
 0.1030971962125E+01
 0.8476478124729E+00
 0.6427748978809E+00
 0.4190220859486E+00
 0.1990617911021E+00
 0.2003772522555E+01
 0.1995708402266E+01
 0.1982946995840E+01
 0.1964826607390E+01
 0.1940685460483E+01
 0.1909856624140E+01
 0.1871641041784E+01
 0.1825273263830E+01
 0.1769886725628E+01
 0.1704480577822E+01
 0.1627888659031E+01
 0.1538752193465E+01
 0.1435500650928E+01
 0.1316350139620E+01
 0.1179336958401E+01
 0.1022418893086E+01
 0.8437131135213E+00
 0.6420752552772E+00
 0.4190706540283E+00
 0.1945606741101E+00
 0.1975844313837E+01
 0.1965301201221E+01
 0.1950133474793E+01
 0.1929741540189E+01
 0.1903551114839E+01
 0.1871011161490E+01
 0.1831558667612E+01
 0.1784574853577E+01
 0.1729341668973E+01
 0.1664999128286E+01
 0.1590501643127E+01
 0.1504572324477E+01
 0.1405657120232E+01
 0.1291885952030E+01
 0.1161057420135E+01
 0.1010681813281E+01
 0.8381561664460E+00
 0.6412751211293E+00
 0.4200285745662E+00
 0.1904975293274E+00
 0.1944730787676E+01
 0.1931380277350E+01
 0.1913458779068E+01
 0.1890406606177E+01
 0.1861731452596E+01
 0.1827004386051E+01
 0.1785810603361E+01
 0.1737694933616E+01
 0.1682111754778E+01
 0.1618376769752E+01
 0.1545615086423E+01
 0.1462700704452E+01
 0.1368184922823E+01
 0.1260215515300E+01
 0.1136457068192E+01
 0.9940408941117E+00
 0.8296166290897E+00
 0.6396932554985E+00
 0.4220965901810E+00
 0.1877220614791E+00
 0.1910551422539E+01
 0.1894083781240E+01
 0.1873070162242E+01
 0.1846951339660E+01
 0.1815310319757E+01
 0.1777845490137E+01
 0.1734297446415E+01
 0.1684382785880E+01
 0.1627741291926E+01
 0.1563888517275E+01
 0.1492163279762E+01
 0.1411660645366E+01
 0.1321142517083E+01
 0.1218919893339E+01
 0.1102705059393E+01
 0.9694445421105E+00
 0.8151795451656E+00
 0.6351024547341E+00
 0.4244268845944E+00
 0.1871761912039E+00
 0.1873447838387E+01
 0.1853596631831E+01
 0.1829159952463E+01
 0.1799538544817E+01
 0.1764391846655E+01
 0.1723552562912E+01
 0.1676917606180E+01
 0.1624370149317E+01
 0.1565729897463E+01
 0.1500714783008E+01
 0.1428898005223E+01
 0.1349646861415E+01
 0.1262030925005E+01
 0.1164685777827E+01
 0.1055615673492E+01
 0.9319173635170E+00
 0.7894215783218E+00
 0.6223285066983E+00
 0.4233658111307E+00
 0.1889370416666E+00
 0.1833593166438E+01
 0.1810143432247E+01
 0.1781938432537E+01
 0.1748325765926E+01
 0.1709060558493E+01
 0.1664123387186E+01
 0.1613562187434E+01
 0.1557405658963E+01
 0.1495624689147E+01
 0.1428112568072E+01
 0.1354661625057E+01
 0.1274920994349E+01
 0.1188321726381E+01
 0.1093951778582E+01
 0.9903536429164E+00
 0.8752002714001E+00
 0.7447811788691E+00
 0.5932235348730E+00
 0.4116287447098E+00
 0.1904360510307E+00
 0.1791176658374E+01
 0.1763938080800E+01
 0.1731593322659E+01
 0.1693455451690E+01
 0.1649427262740E+01
 0.1599662701673E+01
 0.1544350323579E+01
 0.1483627597225E+01
 0.1417567141137E+01
 0.1346184402200E+01
 0.1269440956924E+01
 0.1187229615509E+01
 0.1099332119149E+01
 0.1005335727648E+01
 0.9044826085496E+00
 0.7954014034185E+00
 0.6756183610926E+00
 0.5406431890624E+00
 0.3822210726919E+00
 0.1869790745147E+00
 0.1746466776238E+01
 0.1715305714441E+01
 0.1678452487928E+01
 0.1635265543947E+01
 0.1585896930406E+01
 0.1530710648838E+01
 0.1470009378487E+01
 0.1403983174628E+01
 0.1332738643342E+01
 0.1256342965121E+01
 0.1174852899565E+01
 0.1088326582311E+01
 0.9968186206814E+00
 0.9003550935720E+00
 0.7988766858489E+00
 0.6921199657539E+00
 0.5793682424236E+00
 0.4588807544203E+00
 0.3264371526095E+00
 0.1705229272253E+00
 0.1699813194111E+01
 0.1664645200705E+01
 0.1622887964007E+01
 0.1574151019864E+01
 0.1519011891970E+01
 0.1458060611401E+01
 0.1391654687038E+01
 0.1319951539621E+01
 0.1243018253133E+01
 0.1160903334158E+01
 0.1073677961594E+01
 0.9814613258227E+00
 0.8844412433485E+00
 0.7828976749091E+00
 0.6772355439475E+00
 0.5680364475823E+00
 0.4561367593998E+00
 0.3427548719650E+00
 0.2295999667354E+00
 0.1176115232712E+00
 0.1651668396615E+01
 0.1612371690053E+01
 0.1565177527523E+01
 0.1510447093127E+01
 0.1449372963294E+01
 0.1382728576600E+01
 0.1310763730148E+01
 0.1233519702833E+01
 0.1150986517019E+01
 0.1063172188242E+01
 0.9701360938325E+00
 0.8720146518546E+00
 0.7690550687769E+00
 0.6616703766585E+00
 0.5505364408230E+00
 0.4367704232014E+00
 0.3222877078576E+00
 0.2105318334452E+00
 0.1082931837668E+00
 0.3158168122606E-01
 0.1602582969457E+01
 0.1558733368197E+01
 0.1505297205817E+01
 0.1444284413562E+01
 0.1377732402594E+01
 0.1306054040991E+01
 0.1229228127449E+01
 0.1147179783580E+01
 0.1059878742368E+01
 0.9673693653481E+00
 0.8697908004011E+00
 0.7674108578083E+00
 0.6606851016106E+00
 0.5503564475216E+00
 0.4376225948157E+00
 0.3244280575389E+00
 0.2139930985191E+00
 0.1119026592401E+00
 0.2853896598702E-01
 0.1761123190883E-01
 0.1553433163636E+01
 0.1503265609731E+01
 0.1442065965496E+01
 0.1375948311190E+01
 0.1305318082884E+01
 0.1229816836946E+01
 0.1149265071568E+01
 0.1063632553318E+01
 0.9730130400569E+00
 0.8776160816635E+00
 0.7777926128281E+00
 0.6740911258476E+00
 0.5673507359788E+00
 0.4588452358493E+00
 0.3505037283362E+00
 0.2452510465889E+00
 0.1475482163739E+00
 0.6426746657828E-01
 0.7786512802245E-02
 0.1534893469523E-01
 0.1502478256762E+01
 0.1439458595646E+01
 0.1375035412754E+01
 0.1307181104345E+01
 0.1234268202094E+01
 0.1156211832943E+01
 0.1073151531531E+01
 0.9853468704524E+00
 0.8931375956621E+00
 0.7969737642171E+00
 0.6974672135154E+00
 0.5954667998155E+00
 0.4921637522512E+00
 0.3892393486685E+00
 0.2890701753175E+00
 0.1950068291831E+00
 0.1117274519281E+00
 0.4563094807519E-01
 0.5847045457828E-02
 0.4223690204576E-02
</DataArray>
<DataArray type="Float64" Name="OI" NumberOfComponents="1" ComponentName0="OI" format="ascii">
 0.1831128520811E+01
 0.1606580836196E+01
 0.1447675924501E+01
 0.1394824900524E+01
 0.1362979265445E+01
 0.1348348552251E+01
 0.1343176108198E+01
 0.1344865860021E+01
 0.1351707577844E+01
 0.1362858374551E+01
 0.1377922592650E+01
 0.1396853443805E+01
 0.1419902730546E+01
 0.1447660318620E+01
 0.1481266368218E+01
 0.1522973071299E+01
 0.1573778949453E+01
 0.1629777181408E+01
 0.1686362227907E+01
 0.1742866555293E+01
 0.1800795278130E+01
 0.1862043545498E+01
 0.1928231276144E+01
 0.2000580387895E+01
 0.2079903528112E+01
 0.2166448709468E+01
 0.2259479285839E+01
 0.2358323215125E+01
 0.2463888240596E+01
 0.2577494009099E+01
 0.2699741198230E+01
 0.2830725396034E+01
 0.2969857599154E+01
 0.3115246086172E+01
 0.3264194000441E+01
 0.3418037722889E+01
 0.3614907106381E+01
 0.3881765138354E+01
 0.4434072499455E+01
 0.4637829588041E+01
 0.7849230786093E+01
 0.1575456484635E+01
 0.1609652798661E+01
 0.1489308735697E+01
 0.1422266848032E+01
 0.1388867738635E+01
 0.1370260701323E+01
 0.1362386193004E+01
 0.1361722858713E+01
 0.1366617570494E+01
 0.1376088302675E+01
 0.1389665584229E+01
 0.1407225522023E+01
 0.1428938391347E+01
 0.1455289291760E+01
 0.1487089221321E+01
 0.1525083176339E+01
 0.1568993500035E+01
 0.1617109711431E+01
 0.1667461043286E+01
 0.1719208690184E+01
 0.1772782846952E+01
 0.1829220641658E+01
 0.1889583732581E+01
 0.1954697877884E+01
 0.2025024253080E+01
 0.2100575813868E+01
 0.2181026005042E+01
 0.2266064869473E+01
 0.2355620448494E+01
 0.2449649392954E+01
 0.2547720424972E+01
 0.2648700172476E+01
 0.2750549610562E+01
 0.2850479060533E+01
 0.2946266048534E+01
 0.3041260652953E+01
 0.3137330550444E+01
 0.3246958219823E+01
 0.3289249633903E+01
 0.2810321813318E+01
 0.5398078164426E+01
 0.1439075042073E+01
 0.1541642109082E+01
 0.1501123021449E+01
 0.1441306167174E+01
 0.1407734245150E+01
 0.1388298707371E+01
 0.1378726299761E+01
 0.1376432977259E+01
 0.1379743088854E+01
 0.1387719668681E+01
 0.1399856417124E+01
 0.1415976631578E+01
 0.1436166101876E+01
 0.1460744472988E+01
 0.1490076856041E+01
 0.1524136088168E+01
 0.1562376081338E+01
 0.1604084976837E+01
 0.1648550051728E+01
 0.1695193336257E+01
 0.1743930998183E+01
 0.1795176693740E+01
 0.1849505600049E+01
 0.1907378144666E+01
 0.1968979796990E+01
 0.2034209690149E+01
 0.2102833981370E+01
 0.2174505250107E+01
 0.2248602123880E+01
 0.2324203508242E+01
 0.2399988279725E+01
 0.2473922446096E+01
 0.2543113196718E+01
 0.2604155517144E+01
 0.2654605740390E+01
 0.2692070676739E+01
 0.2706355398898E+01
 0.2671102315374E+01
 0.2440262395676E+01
 0.2142343622765E+01
 0.4666538219326E+01
 0.1356484026313E+01
 0.1473699287538E+01
 0.1486295876650E+01
 0.1449929419758E+01
 0.1420346652862E+01
 0.1402053388725E+01
 0.1392110061426E+01
 0.1388861282729E+01
 0.1390997614863E+01
 0.1397688460380E+01
 0.1408458272705E+01
 0.1423099635312E+01
 0.1441616190347E+01
 0.1464137975536E+01
 0.1490678805346E+01
 0.1520867679624E+01
 0.1554176013968E+01
 0.1590373744487E+01
 0.1629350959239E+01
 0.1670792107725E+01
 0.1714416833326E+01
 0.1760230353580E+01
 0.1808417238629E+01
 0.1859126471440E+01
 0.1912328138531E+01
 0.1967818404499E+01
 0.2025309439125E+01
 0.2084300739469E+01
 0.2143808164841E+01
 0.2202353620124E+01
 0.2257985097754E+01
 0.2308086865229E+01
 0.2349308513743E+01
 0.2377971865338E+01
 0.2390575470240E+01
 0.2381163062277E+01
 0.2333925163599E+01
 0.2207385653246E+01
 0.1945077458487E+01
 0.2002868279085E+01
 0.4326462941235E+01
 0.1302259494495E+01
 0.1417284432884E+01
 0.1459993742356E+01
 0.1448070178195E+01
 0.1427110803232E+01
 0.1411632227938E+01
 0.1402477767842E+01
 0.1398963742504E+01
 0.1400331792602E+01
 0.1405963169820E+01
 0.1415459794173E+01
 0.1428612002051E+01
 0.1445350310471E+01
 0.1465638614463E+01
 0.1489264031859E+01
 0.1515730765463E+01
 0.1544597552630E+01
 0.1575868293283E+01
 0.1609711804876E+01
 0.1645997107750E+01
 0.1684392531103E+01
 0.1724658711001E+01
 0.1766689456337E+01
 0.1810384357500E+01
 0.1855539831347E+01
 0.1901844481493E+01
 0.1948901823975E+01
 0.1996043581189E+01
 0.2042041385310E+01
 0.2085085186057E+01
 0.2122852215692E+01
 0.2152435483283E+01
 0.2170368969265E+01
 0.2172936688637E+01
 0.2156072392965E+01
 0.2112919184283E+01
 0.2027703425639E+01
 0.1874656984223E+01
 0.1700882707737E+01
 0.2061229526566E+01
 0.4110322735417E+01
 0.1264574308486E+01
 0.1372327412940E+01
 0.1430745169374E+01
 0.1438781547734E+01
 0.1428445660129E+01
 0.1417337260153E+01
 0.1409897450682E+01
 0.1406752287280E+01
 0.1407741838980E+01
 0.1412541953365E+01
 0.1420874443547E+01
 0.1432553513260E+01
 0.1447456537287E+01
 0.1465426301555E+01
 0.1486124826035E+01
 0.1509037602128E+01
 0.1533813914676E+01
 0.1560565986104E+01
 0.1589577655839E+01
 0.1620829542008E+01
 0.1653996615928E+01
 0.1688705106963E+01
 0.1724647760155E+01
 0.1761535115740E+01
 0.1799023723791E+01
 0.1836698132295E+01
 0.1874046471762E+01
 0.1910259449144E+01
 0.1943959880179E+01
 0.1973177411648E+01
 0.1995444311836E+01
 0.2007822429193E+01
 0.2007013564088E+01
 0.1989598012046E+01
 0.1951864679065E+01
 0.1888242546330E+01
 0.1789186064743E+01
 0.1657135119702E+01
 0.1612333223885E+01
 0.2169092214468E+01
 0.3947746392387E+01
 0.1237238337218E+01
 0.1336701383444E+01
 0.1402439588692E+01
 0.1425151941120E+01
 0.1425299817351E+01
 0.1419536112298E+01
 0.1414545715332E+01
 0.1412296604269E+01
 0.1413263553544E+01
 0.1417452121715E+01
 0.1424738264215E+01
 0.1434983762858E+01
 0.1448038984972E+01
 0.1463673691551E+01
 0.1481496494323E+01
 0.1501022870140E+01
 0.1521978065718E+01
 0.1544517647539E+01
 0.1568957948141E+01
 0.1595338850526E+01
 0.1623360875652E+01
 0.1652585480401E+01
 0.1682577165462E+01
 0.1712911833181E+01
 0.1743137937714E+01
 0.1772750372449E+01
 0.1801140092831E+01
 0.1827400936440E+01
 0.1850091270461E+01
 0.1867217702726E+01
 0.1876354812889E+01
 0.1874753154793E+01
 0.1859530190326E+01
 0.1827947462541E+01
 0.1777502335744E+01
 0.1705724251132E+01
 0.1612963305419E+01
 0.1529121501091E+01
 0.1611428990509E+01
 0.2273665530663E+01
 0.3815625838284E+01
 0.1216731291155E+01
 0.1308289401428E+01
 0.1376596621617E+01
 0.1409444443066E+01
 0.1418817938567E+01
 0.1418704755659E+01
 0.1416661973419E+01
 0.1415719792614E+01
 0.1416967701499E+01
 0.1420747346355E+01
 0.1427107622725E+01
 0.1435978383856E+01
 0.1447209848282E+01
 0.1460540925614E+01
 0.1475574103194E+01
 0.1491875262244E+01
 0.1509229353238E+01
 0.1527802248624E+01
 0.1547902726344E+01
 0.1569596709936E+01
 0.1592613694867E+01
 0.1616493217004E+01
 0.1640727216821E+01
 0.1664803938882E+01
 0.1688195176695E+01
 0.1710328862363E+01
 0.1730529422419E+01
 0.1747844034349E+01
 0.1760842332623E+01
 0.1767619585987E+01
 0.1765943271850E+01
 0.1753430910580E+01
 0.1727830088698E+01
 0.1687427792827E+01
 0.1631590883777E+01
 0.1562107299657E+01
 0.1490014967149E+01
 0.1466043673851E+01
 0.1654600867070E+01
 0.2360535142120E+01
 0.3704277243900E+01
 0.1200921423045E+01
 0.1285382808899E+01
 0.1353623207909E+01
 0.1393114530978E+01
 0.1410060377750E+01
 0.1415385082317E+01
 0.1416531172284E+01
 0.1417184273391E+01
 0.1418955447458E+01
 0.1422504066103E+01
 0.1428056392368E+01
 0.1435625248398E+01
 0.1445084532306E+01
 0.1456175554078E+01
 0.1468524509530E+01
 0.1481754625901E+01
 0.1495697409669E+01
 0.1510513470083E+01
 0.1526486705254E+01
 0.1543690125636E+01
 0.1561880804968E+01
 0.1580602696484E+01
 0.1599316476675E+01
 0.1617462244206E+01
 0.1634465948234E+01
 0.1649716098501E+01
 0.1662506476253E+01
 0.1671887889873E+01
 0.1676508075920E+01
 0.1674641295515E+01
 0.1664365143986E+01
 0.1643802620322E+01
 0.1611501609871E+01
 0.1567032671037E+01
 0.1512048749002E+01
 0.1453007074398E+01
 0.1410454506860E+01
 0.1447650489527E+01
 0.1716496594520E+01
 0.2428595208671E+01
 0.3608657182155E+01
 0.1188451815354E+01
 0.1266682081889E+01
 0.1333436866134E+01
 0.1377023324291E+01
 0.1399887827983E+01
 0.1410118493578E+01
 0.1414465471021E+01
 0.1416879553363E+01
 0.1419351886381E+01
 0.1422817696224E+01
 0.1427672796358E+01
 0.1434021169252E+01
 0.1441778964570E+01
 0.1450714149892E+01
 0.1460494613611E+01
 0.1470801764337E+01
 0.1481504417799E+01
 0.1492752097075E+01
 0.1504798754976E+01
 0.1517715324754E+01
 0.1531284660349E+01
 0.1545071717861E+01
 0.1558536227387E+01
 0.1571102872529E+01
 0.1582181093980E+01
 0.1591149364826E+01
 0.1597307599890E+01
 0.1599757237294E+01
 0.1597281408966E+01
 0.1588404664303E+01
 0.1571602238286E+01
 0.1545603233637E+01
 0.1509874626951E+01
 0.1465427391752E+01
 0.1416365781340E+01
 0.1373604110740E+01
 0.1364969278279E+01
 0.1458452694587E+01
 0.1783569968205E+01
 0.2480634251499E+01
 0.3525633387781E+01
 0.1178422827279E+01
 0.1251216294715E+01
 0.1315763840660E+01
 0.1361639218242E+01
 0.1388946803465E+01
 0.1403397733251E+01
 0.1410782845106E+01
 0.1415011328938E+01
 0.1418299274342E+01
 0.1421798492759E+01
 0.1426056251741E+01
 0.1431269180338E+01
 0.1437408181001E+01
 0.1444284201641E+01
 0.1451616926194E+01
 0.1459144240646E+01
 0.1466766408836E+01
 0.1474621481330E+01
 0.1482934950590E+01
 0.1491772892291E+01
 0.1500943283455E+01
 0.1510043077247E+01
 0.1518553414074E+01
 0.1525910451748E+01
 0.1531534168049E+01
 0.1534821965717E+01
 0.1535114890911E+01
 0.1531606803270E+01
 0.1523263568415E+01
 0.1508914063420E+01
 0.1487492489076E+01
 0.1458399422532E+01
 0.1422087825071E+01
 0.1381066444696E+01
 0.1341835768021E+01
 0.1319123290248E+01
 0.1345410866498E+01
 0.1487266539172E+01
 0.1849137702607E+01
 0.2520063460762E+01
 0.3453026666593E+01
 0.1170217489859E+01
 0.1238261571900E+01
 0.1300277703883E+01
 0.1347185999720E+01
 0.1377698025019E+01
 0.1395643520766E+01
 0.1405788423419E+01
 0.1411791302409E+01
 0.1415950641322E+01
 0.1419567357134E+01
 0.1423314344151E+01
 0.1427476325960E+01
 0.1432085568648E+01
 0.1437005769846E+01
 0.1442013289063E+01
 0.1446899893162E+01
 0.1451593989047E+01
 0.1456224715450E+01
 0.1460993947910E+01
 0.1465964101480E+01
 0.1470969048691E+01
 0.1475645583841E+01
 0.1479512973598E+01
 0.1482040829073E+01
 0.1482683859133E+01
 0.1480885379668E+01
 0.1476059163699E+01
 0.1467527075914E+01
 0.1454475115114E+01
 0.1436074986601E+01
 0.1411758397805E+01
 0.1381631303360E+01
 0.1347151879410E+01
 0.1312296164859E+01
 0.1285733810969E+01
 0.1285104824893E+01
 0.1344977681274E+01
 0.1526399003743E+01
 0.1910239705075E+01
 0.2549904559571E+01
 0.3389213529695E+01
 0.1163400583219E+01
 0.1227275804538E+01
 0.1286660688133E+01
 0.1333741839994E+01
 0.1366456337874E+01
 0.1387199468933E+01
 0.1399761762367E+01
 0.1407428325348E+01
 0.1412463997254E+01
 0.1416251860933E+01
 0.1419560022494E+01
 0.1422751840556E+01
 0.1425922409543E+01
 0.1428992763053E+01
 0.1431797337746E+01
 0.1434178989894E+01
 0.1436092729231E+01
 0.1437662815039E+01
 0.1439073890734E+01
 0.1440388241231E+01
 0.1441467629169E+01
 0.1441994749882E+01
 0.1441539719366E+01
 0.1439623479450E+01
 0.1435756509784E+01
 0.1429452059188E+01
 0.1420223913616E+01
 0.1407550939225E+01
 0.1390867161065E+01
 0.1369711890639E+01
 0.1344033515760E+01
 0.1314650400912E+01
 0.1284004225638E+01
 0.1257435775777E+01
 0.1245434066104E+01
 0.1267538622669E+01
 0.1358201359957E+01
 0.1570762769247E+01
 0.1965842950111E+01
 0.2572575260399E+01
 0.3332931061121E+01
 0.1157657776709E+01
 0.1217850062631E+01
 0.1274627998781E+01
 0.1321302361497E+01
 0.1355428508274E+01
 0.1378337430273E+01
 0.1392950193754E+01
 0.1402121554830E+01
 0.1407997319114E+01
 0.1411982659567E+01
 0.1414909077387E+01
 0.1417205620168E+01
 0.1419027539073E+01
 0.1420353840083E+01
 0.1421076108768E+01
 0.1421085551147E+01
 0.1420363357414E+01
 0.1419033523676E+01
 0.1417270341904E+01
 0.1415140728426E+01
 0.1412537191738E+01
 0.1409193323901E+01
 0.1404739931710E+01
 0.1398763719495E+01
 0.1390848727583E+01
 0.1380598662774E+01
 0.1367649896138E+01
 0.1351660766257E+01
 0.1332332476013E+01
 0.1309584921824E+01
 0.1283886353445E+01
 0.1256752517889E+01
 0.1231553315247E+01
 0.1214835742248E+01
 0.1218480565724E+01
 0.1262921088879E+01
 0.1380823538951E+01
 0.1617101708605E+01
 0.2015867118437E+01
 0.2589933428325E+01
 0.3283165350561E+01
 0.1152757553845E+01
 0.1209673360702E+01
 0.1263934771885E+01
 0.1309819594301E+01
 0.1344744312859E+01
 0.1369267500518E+01
 0.1385566921187E+01
 0.1396055848010E+01
 0.1402704485929E+01
 0.1406890393809E+01
 0.1409477938100E+01
 0.1410946921378E+01
 0.1411507032585E+01
 0.1411192997695E+01
 0.1409951065839E+01
 0.1407718154393E+01
 0.1404501840252E+01
 0.1400430520660E+01
 0.1395674910982E+01
 0.1390311821443E+01
 0.1384267854797E+01
 0.1377331777235E+01
 0.1369202768838E+01
 0.1359544798341E+01
 0.1348030059804E+01
 0.1334369549079E+01
 0.1318340034159E+01
 0.1299795642826E+01
 0.1278716159081E+01
 0.1255405202500E+01
 0.1230841253473E+01
 0.1207204845623E+01
 0.1188712131677E+01
 0.1182916764622E+01
 0.1202627064574E+01
 0.1268265770744E+01
 0.1409614743918E+01
 0.1663393638510E+01
 0.2060670963284E+01
 0.2603386810152E+01
 0.3239080528856E+01
 0.1148526608443E+01
 0.1202507286656E+01
 0.1254375269017E+01
 0.1299225417946E+01
 0.1334480352704E+01
 0.1360149197882E+01
 0.1377792252973E+01
 0.1389399200851E+01
 0.1396732233704E+01
 0.1401103133517E+01
 0.1403381801213E+01
 0.1404083250518E+01
 0.1403463889953E+01
 0.1401609914885E+01
 0.1398518733240E+01
 0.1394170414166E+01
 0.1388599405912E+01
 0.1381942900453E+01
 0.1374374364711E+01
 0.1365985788740E+01
 0.1356741390478E+01
 0.1346488808423E+01
 0.1335001578268E+01
 0.1322029908374E+01
 0.1307345695308E+01
 0.1290780397052E+01
 0.1272264433703E+01
 0.1251858461863E+01
 0.1229825617967E+01
 0.1206848432716E+01
 0.1184395995103E+01
 0.1165267307694E+01
 0.1154422176602E+01
 0.1160194507233E+01
 0.1195857414850E+01
 0.1281082784544E+01
 0.1442177023658E+01
 0.1708422664301E+01
 0.2100785916421E+01
 0.2614004176486E+01
 0.3199970461729E+01
 0.1144833481941E+01
 0.1196167699219E+01
 0.1245778951019E+01
 0.1289445260723E+01
 0.1324677531525E+01
 0.1351102005060E+01
 0.1369776602745E+01
 0.1382301818370E+01
 0.1390218090392E+01
 0.1394744377599E+01
 0.1396733089997E+01
 0.1396719422811E+01
 0.1394997716528E+01
 0.1391700120649E+01
 0.1386871066725E+01
 0.1380531258691E+01
 0.1372742541374E+01
 0.1363654842695E+01
 0.1353450078168E+01
 0.1342240420351E+01
 0.1330031139616E+01
 0.1316731898379E+01
 0.1302195159128E+01
 0.1286264138643E+01
 0.1268819156326E+01
 0.1249821842838E+01
 0.1229365338765E+01
 0.1207722688934E+01
 0.1185439665106E+01
 0.1163566668353E+01
 0.1144036143521E+01
 0.1130208655642E+01
 0.1127669876321E+01
 0.1145294699089E+01
 0.1196392607837E+01
 0.1299336751394E+01
 0.1476759992595E+01
 0.1751485734351E+01
 0.2136776974644E+01
 0.2622610561337E+01
 0.3165224011610E+01
 0.1141577397884E+01
 0.1190511440181E+01
 0.1238005628539E+01
 0.1280405785514E+01
 0.1315353516116E+01
 0.1342214493829E+01
 0.1361644272505E+01
 0.1374896354496E+01
 0.1383289167989E+01
 0.1387931586710E+01
 0.1389640232614E+01
 0.1388956779858E+01
 0.1386204411321E+01
 0.1381555042036E+01
 0.1375095652879E+01
 0.1366885081909E+01
 0.1357012984796E+01
 0.1345645420707E+01
 0.1332977730474E+01
 0.1319146797548E+01
 0.1304202104719E+01
 0.1288117928383E+01
 0.1270829003310E+01
 0.1252276379599E+01
 0.1232454944651E+01
 0.1211463046501E+01
 0.1189561896899E+01
 0.1167238653736E+01
 0.1145316610112E+01
 0.1125198250083E+01
 0.1109246368419E+01
 0.1101318160306E+01
 0.1107497435149E+01
 0.1136961736980E+01
 0.1202687634580E+01
 0.1321391605347E+01
 0.1512106331502E+01
 0.1792198202403E+01
 0.2169162980590E+01
 0.2629863906562E+01
 0.3134295535763E+01
 0.1138680464494E+01
 0.1185426602709E+01
 0.1230940681686E+01
 0.1272038920765E+01
 0.1306511422569E+01
 0.1333551826540E+01
 0.1353497384568E+01
 0.1367298906800E+01
 0.1376061647330E+01
 0.1380775195804E+01
 0.1382206737680E+01
 0.1380892557224E+01
 0.1377175876795E+01
 0.1371261978147E+01
 0.1363275800741E+01
 0.1353311822557E+01
 0.1341487725796E+01
 0.1327988513803E+01
 0.1313027178741E+01
 0.1296769256788E+01
 0.1279311187380E+01
 0.1260693859994E+01
 0.1240936527530E+01
 0.1220081178354E+01
 0.1198241110180E+01
 0.1175655120837E+01
 0.1152754641497E+01
 0.1130239271098E+01
 0.1109201295292E+01
 0.1091375959024E+01
 0.1079519107202E+01
 0.1077913841282E+01
 0.1093009811727E+01
 0.1134062469982E+01
 0.1213420318624E+01
 0.1345950514266E+01
 0.1547327327307E+01
 0.1830380746860E+01
 0.2198351708314E+01
 0.2636315739319E+01
 0.3106665063018E+01
 0.1136082114370E+01
 0.1180825332828E+01
 0.1224490751886E+01
 0.1264283708787E+01
 0.1298145752397E+01
 0.1325161715409E+01
 0.1345419596526E+01
 0.1359610436868E+01
 0.1368640784209E+01
 0.1373378035595E+01
 0.1374530537957E+01
 0.1372619393718E+01
 0.1367999763435E+01
 0.1360904035199E+01
 0.1351490570529E+01
 0.1339887004644E+01
 0.1326239021438E+01
 0.1310752799454E+01
 0.1293662463551E+01
 0.1275165499607E+01
 0.1255407539732E+01
 0.1234497468445E+01
 0.1212540297801E+01
 0.1189680537900E+01
 0.1166151714079E+01
 0.1142334371261E+01
 0.1118829626418E+01
 0.1096545138254E+01
 0.1076831080513E+01
 0.1061733554724E+01
 0.1054361019121E+01
 0.1059348117171E+01
 0.1083378918779E+01
 0.1135586178749E+01
 0.1227473678755E+01
 0.1371998971169E+01
 0.1581800995434E+01
 0.1866004099661E+01
 0.2224621885386E+01
 0.2642376783596E+01
 0.3081744049733E+01
 0.1133735063678E+01
 0.1176638448706E+01
 0.1218580027613E+01
 0.1257086881398E+01
 0.1290246367535E+01
 0.1317079041371E+01
 0.1337479416555E+01
 0.1351918376798E+01
 0.1361121280523E+01
 0.1365835085081E+01
 0.1366703567556E+01
 0.1364224972282E+01
 0.1358759258997E+01
 0.1350560048656E+01
 0.1339814770764E+01
 0.1326681762132E+01
 0.1311334432360E+01
 0.1294001808140E+01
 0.1274941912355E+01
 0.1254386811565E+01
 0.1232533003264E+01
 0.1209558117270E+01
 0.1185653241462E+01
 0.1161065650738E+01
 0.1136149163748E+01
 0.1111425310614E+01
 0.1087662174166E+01
 0.1065968992113E+01
 0.1047940832018E+01
 0.1035910900307E+01
 0.1033297684466E+01
 0.1045011568036E+01
 0.1077845757492E+01
 0.1140641124564E+01
 0.1243915043709E+01
 0.1398750332187E+01
 0.1615107803390E+01
 0.1899094888647E+01
 0.2248379894394E+01
 0.2647512374457E+01
 0.3062262915267E+01
 0.1131602324623E+01
 0.1172811375938E+01
 0.1213147117679E+01
 0.1250402720300E+01
 0.1282801089153E+01
 0.1309329366562E+01
 0.1329733052213E+01
 0.1344298260154E+01
 0.1353587889738E+01
 0.1358233478959E+01
 0.1358811535432E+01
 0.1355791780086E+01
 0.1349532928334E+01
 0.1340304510643E+01
 0.1328318945187E+01
 0.1313762862672E+01
 0.1296836880992E+01
 0.1277794027896E+01
 0.1256918315797E+01
 0.1234478361470E+01
 0.1210722611661E+01
 0.1185897560017E+01
 0.1160279837999E+01
 0.1134218556051E+01
 0.1108186401421E+01
 0.1082843425288E+01
 0.1059120220048E+01
 0.1038319539907E+01
 0.1022267003497E+01
 0.1013557900643E+01
 0.1015876950711E+01
 0.1034335317693E+01
 0.1075720811541E+01
 0.1148448477792E+01
 0.1261972957993E+01
 0.1425601258149E+01
 0.1646968806708E+01
 0.1929746259986E+01
 0.2269913893250E+01
 0.2651925257343E+01
 0.3047042059128E+01
 0.1129654961755E+01
 0.1169301044829E+01
 0.1208142453455E+01
 0.1244192540011E+01
 0.1275797343738E+01
 0.1301931563699E+01
 0.1322226793675E+01
 0.1336815276676E+01
 0.1346116154503E+01
 0.1350652701203E+01
 0.1350933858175E+01
 0.1347396973792E+01
 0.1340394606023E+01
 0.1330207514830E+01
 0.1317069363873E+01
 0.1301192740013E+01
 0.1282804732463E+01
 0.1262183048700E+01
 0.1239639158387E+01
 0.1215479558731E+01
 0.1190005138214E+01
 0.1163530755461E+01
 0.1136417279191E+01
 0.1109113710786E+01
 0.1082208934212E+01
 0.1056497681245E+01
 0.1033067253410E+01
 0.1013404700170E+01
 0.9995509191580E+00
 0.9943374745021E+00
 0.1001671256662E+01
 0.1026792348626E+01
 0.1076382982371E+01
 0.1158334110378E+01
 0.1281014608634E+01
 0.1452092416458E+01
 0.1677207963595E+01
 0.1958082658431E+01
 0.2289451710029E+01
 0.2656211401576E+01
 0.3033543760477E+01
 0.1127870382659E+01
 0.1166073497983E+01
 0.1203526145495E+01
 0.1238423995187E+01
 0.1269223157971E+01
 0.1294899756822E+01
 0.1314998968224E+01
 0.1329525694438E+01
 0.1338773200783E+01
 0.1343164906209E+01
 0.1343143717203E+01
 0.1339112334747E+01
 0.1331413340727E+01
 0.1320334725903E+01
 0.1306128027517E+01
 0.1289029540680E+01
 0.1269291897401E+01
 0.1247217738581E+01
 0.1223146888938E+01
 0.1197424451015E+01
 0.1170403670995E+01
 0.1142466683172E+01
 0.1114056588725E+01
 0.1085719466043E+01
 0.1058156697957E+01
 0.1032292767611E+01
 0.1009364870564E+01
 0.9910343061027E+00
 0.9795413754064E+00
 0.9779277596969E+00
 0.9902791792214E+00
 0.1021897957810E+01
 0.1079277245768E+01
 0.1169719142927E+01
 0.1300524339878E+01
 0.1477876815213E+01
 0.1705723066773E+01
 0.1984228443576E+01
 0.2307270522147E+01
 0.2660443696753E+01
 0.3021801707499E+01
 0.1126231018710E+01
 0.1163102027724E+01
 0.1199266220695E+01
 0.1233070330314E+01
 0.1263067714627E+01
 0.1288244734207E+01
 0.1308081518649E+01
 0.1322478123604E+01
 0.1331618535466E+01
 0.1335835319894E+01
 0.1335508208969E+01
 0.1331004298617E+01
 0.1322653387712E+01
 0.1310747376885E+01
 0.1295552689819E+01
 0.1277327187542E+01
 0.1256347954857E+01
 0.1232942444408E+01
 0.1207479218935E+01
 0.1180342147593E+01
 0.1151936201363E+01
 0.1122709147316E+01
 0.1093183691875E+01
 0.1063999441777E+01
 0.1035965751330E+01
 0.1010131082898E+01
 0.9878749637575E+00
 0.9710223316160E+00
 0.9619966747094E+00
 0.9640237168431E+00
 0.9813263778058E+00
 0.1019209480725E+01
 0.1083911289340E+01
 0.1182109876723E+01
 0.1320084176031E+01
 0.1502694726116E+01
 0.1732460052298E+01
 0.2008313924555E+01
 0.2323581831482E+01
 0.2664618049274E+01
 0.3011667418313E+01
 0.1124723294740E+01
 0.1160365712771E+01
 0.1195337173731E+01
 0.1228109638506E+01
 0.1257321617506E+01
 0.1281974962258E+01
 0.1301501262372E+01
 0.1315714615873E+01
 0.1324704812535E+01
 0.1328722683713E+01
 0.1328088561175E+01
 0.1323134044520E+01
 0.1314174244303E+01
 0.1301502294850E+01
 0.1285396900196E+01
 0.1266135461150E+01
 0.1244018293160E+01
 0.1219397211515E+01
 0.1192669439561E+01
 0.1164257256921E+01
 0.1134616214176E+01
 0.1104257558772E+01
 0.1073780428010E+01
 0.1043913795889E+01
 0.1015569801755E+01
 0.9899144760002E+00
 0.9684615783482E+00
 0.9531887044736E+00
 0.9466861962171E+00
 0.9523382642878E+00
 0.9744660561829E+00
 0.1018325391640E+01
 0.1089851398135E+01
 0.1195087678626E+01
 0.1339356863416E+01
 0.1526352921579E+01
 0.1757398152188E+01
 0.2030460867574E+01
 0.2338533611054E+01
 0.2668704451428E+01
 0.3002977281890E+01
 0.1123336815724E+01
 0.1157848258824E+01
 0.1191718776110E+01
 0.1223524164983E+01
 0.1251976967804E+01
 0.1276097301212E+01
 0.1295280885738E+01
 0.1309271605686E+01
 0.1318078546506E+01
 0.1321879713837E+01
 0.1320940392366E+01
 0.1315557629721E+01
 0.1306030721976E+01
 0.1292651953449E+01
 0.1275710066797E+01
 0.1255500098050E+01
 0.1232344265916E+01
 0.1206618016826E+01
 0.1178746749456E+01
 0.1149190328788E+01
 0.1118453269794E+01
 0.1087107686958E+01
 0.1055825499884E+01
 0.1025420385625E+01
 0.9969015675744E+00
 0.9715457580267E+00
 0.9509924734731E+00
 0.9373607689586E+00
 0.9333915933130E+00
 0.9426030447090E+00
 0.9693790260888E+00
 0.1018883886152E+01
 0.1096717852830E+01
 0.1208299311245E+01
 0.1358071199009E+01
 0.1548708797329E+01
 0.1780537908951E+01
 0.2050775299135E+01
 0.2352230523086E+01
 0.2672671092390E+01
 0.2995574104228E+01
 0.1122063718596E+01
 0.1155537072792E+01
 0.1188395095739E+01
 0.1219299672204E+01
 0.1247027322170E+01
 0.1270617500351E+01
 0.1289439722381E+01
 0.1303180705991E+01
 0.1311780761812E+01
 0.1315353555510E+01
 0.1314113996603E+01
 0.1308326157339E+01
 0.1298273048314E+01
 0.1284244549279E+01
 0.1266537538344E+01
 0.1245462904269E+01
 0.1221363360038E+01
 0.1194637010600E+01
 0.1165736586577E+01
 0.1135158293103E+01
 0.1103453569774E+01
 0.1071252374487E+01
 0.1039295355478E+01
 0.1008475821457E+01
 0.9798939838715E+00
 0.9549300040852E+00
 0.9353404227987E+00
 0.9233744560596E+00
 0.9219076932050E+00
 0.9345688984794E+00
 0.9657734387253E+00
 0.1020561054260E+01
 0.1104180105958E+01
 0.1221447955574E+01
 0.1376009701031E+01
 0.1569658015340E+01
 0.1801892404619E+01
 0.2069347285417E+01
 0.2364750161996E+01
 0.2676489463023E+01
 0.2989310717173E+01
 0.1120898151299E+01
 0.1153422518426E+01
 0.1185353688432E+01
 0.1215424872711E+01
 0.1242467580305E+01
 0.1265540531916E+01
 0.1283994357901E+01
 0.1297469374400E+01
 0.1305847573683E+01
 0.1309186218842E+01
 0.1307654638738E+01
 0.1301485966060E+01
 0.1290946991963E+01
 0.1276324098238E+01
 0.1257920702244E+01
 0.1236061881453E+01
 0.1211109372505E+01
 0.1183482762331E+01
 0.1153660958436E+01
 0.1122174888744E+01
 0.1089620499690E+01
 0.1056682209317E+01
 0.1024164999813E+01
 0.9930364154917E+00
 0.9644812614094E+00
 0.9399756656640E+00
 0.9213842910314E+00
 0.9110752127548E+00
 0.9120431591899E+00
 0.9280061005941E+00
 0.9633842413546E+00
 0.1023068760096E+01
 0.1111951948905E+01
 0.1234285104536E+01
 0.1392998383894E+01
 0.1589124924437E+01
 0.1821481613630E+01
 0.2086253206173E+01
 0.2376152717801E+01
 0.2680133872511E+01
 0.2984050558709E+01
 0.1119835851054E+01
 0.1151497314184E+01
 0.1182584930114E+01
 0.1211890929537E+01
 0.1238293834309E+01
 0.1260870808356E+01
 0.1278959096330E+01
 0.1292161466403E+01
 0.1300310700664E+01
 0.1303414987156E+01
 0.1301602849222E+01
 0.1295078832459E+01
 0.1284094004019E+01
 0.1268930547534E+01
 0.1249897095790E+01
 0.1227331362609E+01
 0.1201612592415E+01
 0.1173180506668E+01
 0.1142538765791E+01
 0.1110251077023E+01
 0.1076955143805E+01
 0.1043386150487E+01
 0.1010408735615E+01
 0.9790590280325E+00
 0.9505998095307E+00
 0.9265955146444E+00
 0.9090099195697E+00
 0.9003187347812E+00
 0.9036209637829E+00
 0.9227044056841E+00
 0.9619724144992E+00
 0.1026152340819E+01
 0.1119786840140E+01
 0.1246603397491E+01
 0.1408898356052E+01
 0.1607055269561E+01
 0.1839328944717E+01
 0.2101558198570E+01
 0.2386486275450E+01
 0.2683580222807E+01
 0.2979667738545E+01
 0.1118873800932E+01
 0.1149756043700E+01
 0.1180081464488E+01
 0.1208691020781E+01
 0.1234503201202E+01
 0.1256612316340E+01
 0.1274346317594E+01
 0.1287277691728E+01
 0.1295197911744E+01
 0.1298072792570E+01
 0.1295994710112E+01
 0.1289142178044E+01
 0.1277751369668E+01
 0.1262099898815E+01
 0.1242500526857E+01
 0.1219302154174E+01
 0.1192899984864E+01
 0.1163752385501E+01
 0.1132386115495E+01
 0.1099395435237E+01
 0.1065456767509E+01
 0.1031352104768E+01
 0.9980008330107E+00
 0.9665018170977E+00
 0.9381890346200E+00
 0.9147074394310E+00
 0.8981108514561E+00
 0.8909715401577E+00
 0.8964787109264E+00
 0.9184729384205E+00
 0.9613240448897E+00
 0.1029588228513E+01
 0.1127473517981E+01
 0.1258230389720E+01
 0.1423598981121E+01
 0.1623410704267E+01
 0.1855459103517E+01
 0.2115318092536E+01
 0.2395789781164E+01
 0.2686805216025E+01
 0.2976047075175E+01
 0.1118009948921E+01
 0.1148194756307E+01
 0.1177837745900E+01
 0.1205819963353E+01
 0.1231093652648E+01
 0.1252768692395E+01
 0.1270166749675E+01
 0.1282835988607E+01
 0.1290533412675E+01
 0.1293188556138E+01
 0.1290862126252E+01
 0.1283709274514E+01
 0.1271952364515E+01
 0.1255864337934E+01
 0.1235761200356E+01
 0.1212001680957E+01
 0.1184995373262E+01
 0.1155217682648E+01
 0.1123216618752E+01
 0.1089614526599E+01
 0.1055123264371E+01
 0.1020567452610E+01
 0.9869161294742E+00
 0.9553248965384E+00
 0.9271920259235E+00
 0.9042351124666E+00
 0.8885889221331E+00
 0.8829114142256E+00
 0.8904688380257E+00
 0.9151399626112E+00
 0.9612492884601E+00
 0.1033181585425E+01
 0.1134831977059E+01
 0.1269023208791E+01
 0.1437012355007E+01
 0.1638164664893E+01
 0.1869896715994E+01
 0.2127580815799E+01
 0.2404094853716E+01
 0.2689786108945E+01
 0.2973084087106E+01
 0.1117242977487E+01
 0.1146810640312E+01
 0.1175849661114E+01
 0.1203273890385E+01
 0.1228063850815E+01
 0.1249343258554E+01
 0.1266429674471E+01
 0.1278851829072E+01
 0.1286338176773E+01
 0.1288787491651E+01
 0.1286233077359E+01
 0.1278809441981E+01
 0.1266726410617E+01
 0.1250252367061E+01
 0.1229705846691E+01
 0.1205454130543E+01
 0.1177919616758E+01
 0.1147593047853E+01
 0.1115041671513E+01
 0.1080913243487E+01
 0.1045951565499E+01
 0.1011019522678E+01
 0.9771305620505E+00
 0.9454909088932E+00
 0.9175561402632E+00
 0.8951085467205E+00
 0.8803547387674E+00
 0.8760277513710E+00
 0.8854587232194E+00
 0.9125525600348E+00
 0.9615812752954E+00
 0.1036764026445E+01
 0.1141709852341E+01
 0.1278864025656E+01
 0.1449068870144E+01
 0.1651299253015E+01
 0.1882665400128E+01
 0.2138387407334E+01
 0.2411427040029E+01
 0.2692500842931E+01
 0.2970684977212E+01
 0.1116572114428E+01
 0.1145601755671E+01
 0.1174114216966E+01
 0.1201049976828E+01
 0.1225412995913E+01
 0.1246339031503E+01
 0.1263143082453E+01
 0.1275338466587E+01
 0.1282630225685E+01
 0.1284891373408E+01
 0.1282131848115E+01
 0.1274468235922E+01
 0.1262099227862E+01
 0.1245288935110E+01
 0.1224357848611E+01
 0.1199680593820E+01
 0.1171690779650E+01
 0.1140892707099E+01
 0.1107870714167E+01
 0.1073295121557E+01
 0.1037938009578E+01
 0.1002696014937E+01
 0.9686216344456E+00
 0.9369655192915E+00
 0.9092334965636E+00
 0.8872645568045E+00
 0.8733280673280E+00
 0.8702218139670E+00
 0.8813307195622E+00
 0.9105762484625E+00
 0.9621750042530E+00
 0.1040191486027E+01
 0.1147979228034E+01
 0.1287656257105E+01
 0.1459713666762E+01
 0.1662802864369E+01
 0.1893787118397E+01
 0.2147772774159E+01
 0.2417806789504E+01
 0.2694928384475E+01
 0.2968766593993E+01
 0.1115996977921E+01
 0.1144566815743E+01
 0.1172629283437E+01
 0.1199146208153E+01
 0.1223140688649E+01
 0.1243758715103E+01
 0.1260313787982E+01
 0.1272307135643E+01
 0.1279424865349E+01
 0.1281518768972E+01
 0.1278579234384E+01
 0.1270707619543E+01
 0.1258092976970E+01
 0.1240995562854E+01
 0.1219737363047E+01
 0.1194699198479E+01
 0.1166324289836E+01
 0.1135128656491E+01
 0.1101711468073E+01
 0.1066762622721E+01
 0.1031078672508E+01
 0.9955853727959E+00
 0.9613688219226E+00
 0.9297178366350E+00
 0.9021813902396E+00
 0.8806471383304E+00
 0.8674381433513E+00
 0.8654069253735E+00
 0.8779821351415E+00
 0.9090945666787E+00
 0.9629062694380E+00
 0.1043342271377E+01
 0.1153533870093E+01
 0.1295321414698E+01
 0.1468903804702E+01
 0.1672668376600E+01
 0.1903281719388E+01
 0.2155766283638E+01
 0.2423250265281E+01
 0.2697049153093E+01
 0.2967256374747E+01
 0.1115517450295E+01
 0.1143705010102E+01
 0.1171393383818E+01
 0.1197561187613E+01
 0.1221246809350E+01
 0.1241604683437E+01
 0.1257947514565E+01
 0.1269767211284E+01
 0.1276734881970E+01
 0.1278685238332E+01
 0.1275592724418E+01
 0.1267546118954E+01
 0.1254726390914E+01
 0.1237390459452E+01
 0.1215861434823E+01
 0.1190525232579E+01
 0.1161833083625E+01
 0.1130310837294E+01
 0.1096570146816E+01
 0.1061317385430E+01
 0.1025369655988E+01
 0.9896771051795E+00
 0.9553539170863E+00
 0.9237207679840E+00
 0.8963626364483E+00
 0.8752077771141E+00
 0.8626239194516E+00
 0.8615086108768E+00
 0.8753251760996E+00
 0.9080086522760E+00
 0.9636706544415E+00
 0.1046115330699E+01
 0.1158286869217E+01
 0.1301796520478E+01
 0.1476606021884E+01
 0.1680891762422E+01
 0.1911166614048E+01
 0.2162392245412E+01
 0.2427770038006E+01
 0.2698845460641E+01
 0.2966092278056E+01
 0.1115133576293E+01
 0.1143015862186E+01
 0.1170405525352E+01
 0.1196293978083E+01
 0.1219731414542E+01
 0.1239878959521E+01
 0.1256048957208E+01
 0.1267726335121E+01
 0.1274570702249E+01
 0.1276403501023E+01
 0.1273186654398E+01
 0.1264998959143E+01
 0.1252014892108E+01
 0.1234488627549E+01
 0.1212744099439E+01
 0.1187171255542E+01
 0.1158227734499E+01
 0.1126447289968E+01
 0.1092451640426E+01
 0.1056960441024E+01
 0.1020807334734E+01
 0.9849620595982E+00
 0.9505613196063E+00
 0.9189513115926E+00
 0.8917458500622E+00
 0.8709056978994E+00
 0.8588342601612E+00
 0.8584646980864E+00
 0.8732868677434E+00
 0.9072368354828E+00
 0.9643826238502E+00
 0.1048428754895E+01
 0.1162168674857E+01
 0.1307032018757E+01
 0.1482794974167E+01
 0.1687471032646E+01
 0.1917456550587E+01
 0.2167670310889E+01
 0.2431375677667E+01
 0.2700301917186E+01
 0.2965222721110E+01
 0.1114845482557E+01
 0.1142499116990E+01
 0.1169665065138E+01
 0.1195343975184E+01
 0.1218594651232E+01
 0.1238583193365E+01
 0.1254621827344E+01
 0.1266190513097E+01
 0.1272940521497E+01
 0.1274683572735E+01
 0.1271372338043E+01
 0.1263078179230E+01
 0.1249970693189E+01
 0.1232301954525E+01
 0.1210396472504E+01
 0.1184647194274E+01
 0.1155516563718E+01
 0.1123544285360E+01
 0.1089359671050E+01
 0.1053692395226E+01
 0.1017388562232E+01
 0.9814326474018E+00
 0.9469782727500E+00
 0.9153907934327E+00
 0.8883056690419E+00
 0.8677080605076E+00
 0.8560280925600E+00
 0.8562253863261E+00
 0.8718089671536E+00
 0.9067142693481E+00
 0.9649747354530E+00
 0.1050218523371E+01
 0.1165125498471E+01
 0.1310990123925E+01
 0.1487451875190E+01
 0.1692405440079E+01
 0.1922163461952E+01
 0.2171615802978E+01
 0.2434074246943E+01
 0.2701405782527E+01
 0.2964606518176E+01
 0.1114653315887E+01
 0.1142154655153E+01
 0.1169171607278E+01
 0.1194710808942E+01
 0.1217836688775E+01
 0.1237718641940E+01
 0.1253668884446E+01
 0.1265164189108E+01
 0.1271850402620E+01
 0.1273532872797E+01
 0.1270158170180E+01
 0.1261792725865E+01
 0.1248602879638E+01
 0.1230839287875E+01
 0.1208826823764E+01
 0.1182960422464E+01
 0.1153705730974E+01
 0.1121606431520E+01
 0.1087296918895E+01
 0.1051513574053E+01
 0.1015110835090E+01
 0.9790830223587E+00
 0.9445950492902E+00
 0.9130250513365E+00
 0.8860229266963E+00
 0.8655901096881E+00
 0.8541745193434E+00
 0.8547532928309E+00
 0.8708478788292E+00
 0.9063926133757E+00
 0.9653969910927E+00
 0.1051437499275E+01
 0.1167118064907E+01
 0.1313643555271E+01
 0.1490563474401E+01
 0.1695694894188E+01
 0.1925296366077E+01
 0.2174239980411E+01
 0.2435870696571E+01
 0.2702147251282E+01
 0.2964212828221E+01
 0.1114557198410E+01
 0.1141982430728E+01
 0.1168924928234E+01
 0.1194394271864E+01
 0.1217457668111E+01
 0.1237286152846E+01
 0.1253191957344E+01
 0.1264650297637E+01
 0.1271304348330E+01
 0.1272956303725E+01
 0.1269549704326E+01
 0.1261148523921E+01
 0.1247917472881E+01
 0.1230106493138E+01
 0.1208040634083E+01
 0.1182115821453E+01
 0.1152799303673E+01
 0.1120636754891E+01
 0.1086265117488E+01
 0.1050424133661E+01
 0.1013972416104E+01
 0.9779092135906E+00
 0.9434050889501E+00
 0.9118445701219E+00
 0.8848847771598E+00
 0.8645352834860E+00
 0.8532528993917E+00
 0.8540234819548E+00
 0.8703745828609E+00
 0.9062397843104E+00
 0.9656163393631E+00
 0.1052054676125E+01
 0.1168120693364E+01
 0.1314974620560E+01
 0.1492121327527E+01
 0.1697339550568E+01
 0.1926861303809E+01
 0.2175550237298E+01
 0.2436768162134E+01
 0.2702519667457E+01
 0.2964021113983E+01
 0.1114557198390E+01
 0.1141982430708E+01
 0.1168924928215E+01
 0.1194394271847E+01
 0.1217457668096E+01
 0.1237286152834E+01
 0.1253191957335E+01
 0.1264650297632E+01
 0.1271304348329E+01
 0.1272956303729E+01
 0.1269549704334E+01
 0.1261148523935E+01
 0.1247917472901E+01
 0.1230106493165E+01
 0.1208040634119E+01
 0.1182115821498E+01
 0.1152799303728E+01
 0.1120636754957E+01
 0.1086265117566E+01
 0.1050424133751E+01
 0.1013972416205E+01
 0.9779092137023E+00
 0.9434050890707E+00
 0.9118445702487E+00
 0.8848847772883E+00
 0.8645352836105E+00
 0.8532528995050E+00
 0.8540234820471E+00
 0.8703745829210E+00
 0.9062397843266E+00
 0.9656163393241E+00
 0.1052054676024E+01
 0.1168120693198E+01
 0.1314974620335E+01
 0.1492121327258E+01
 0.1697339550276E+01
 0.1926861303525E+01
 0.2175550237053E+01
 0.2436768161958E+01
 0.2702519667374E+01
 0.2964021114005E+01
 0.1114653315826E+01
 0.1142154655093E+01
 0.1169171607222E+01
 0.1194710808891E+01
 0.1217836688731E+01
 0.1237718641905E+01
 0.1253668884420E+01
 0.1265164189093E+01
 0.1271850402617E+01
 0.1273532872807E+01
 0.1270158170205E+01
 0.1261792725905E+01
 0.1248602879697E+01
 0.1230839287957E+01
 0.1208826823870E+01
 0.1182960422598E+01
 0.1153705731138E+01
 0.1121606431718E+01
 0.1087296919127E+01
 0.1051513574321E+01
 0.1015110835393E+01
 0.9790830226940E+00
 0.9445950496525E+00
 0.9130250517171E+00
 0.8860229270824E+00
 0.8655901100627E+00
 0.8541745196843E+00
 0.8547532931093E+00
 0.8708478790117E+00
 0.9063926134265E+00
 0.9653969909785E+00
 0.1051437498973E+01
 0.1167118064411E+01
 0.1313643554598E+01
 0.1490563473595E+01
 0.1695694893315E+01
 0.1925296365224E+01
 0.2174239979674E+01
 0.2435870696042E+01
 0.2702147251034E+01
 0.2964212828287E+01
 0.1114845482455E+01
 0.1142499116889E+01
 0.1169665065043E+01
 0.1195343975098E+01
 0.1218594651158E+01
 0.1238583193306E+01
 0.1254621827301E+01
 0.1266190513072E+01
 0.1272940521491E+01
 0.1274683572750E+01
 0.1271372338082E+01
 0.1263078179297E+01
 0.1249970693288E+01
 0.1232301954660E+01
 0.1210396472680E+01
 0.1184647194497E+01
 0.1155516563991E+01
 0.1123544285689E+01
 0.1089359671437E+01
 0.1053692395673E+01
 0.1017388562738E+01
 0.9814326479615E+00
 0.9469782733549E+00
 0.9153907940686E+00
 0.8883056696880E+00
 0.8677080611355E+00
 0.8560280931323E+00
 0.8562253867957E+00
 0.8718089674646E+00
 0.9067142694405E+00
 0.9649747352712E+00
 0.1050218522876E+01
 0.1165125497652E+01
 0.1310990122809E+01
 0.1487451873849E+01
 0.1692405438624E+01
 0.1922163460528E+01
 0.2171615801747E+01
 0.2434074246061E+01
 0.2701405782117E+01
 0.2964606518293E+01
 0.1115133576149E+01
 0.1143015862045E+01
 0.1170405525219E+01
 0.1196293977963E+01
 0.1219731414439E+01
 0.1239878959439E+01
 0.1256048957148E+01
 0.1267726335086E+01
 0.1274570702240E+01
 0.1276403501045E+01
 0.1273186654453E+01
 0.1264998959235E+01
 0.1252014892244E+01
 0.1234488627736E+01
 0.1212744099684E+01
 0.1187171255851E+01
 0.1158227734881E+01
 0.1126447290427E+01
 0.1092451640968E+01
 0.1056960441650E+01
 0.1020807335442E+01
 0.9849620603832E+00
 0.9505613204555E+00
 0.9189513124864E+00
 0.8917458509721E+00
 0.8709056987857E+00
 0.8588342609718E+00
 0.8584646987558E+00
 0.8732868681933E+00
 0.9072368356286E+00
 0.9643826236130E+00
 0.1048428754218E+01
 0.1162168673725E+01
 0.1307032017206E+01
 0.1482794972295E+01
 0.1687471030609E+01
 0.1917456548589E+01
 0.2167670309160E+01
 0.2431375676431E+01
 0.2700301916616E+01
 0.2965222721287E+01
 0.1115517450111E+01
 0.1143705009921E+01
 0.1171393383647E+01
 0.1197561187458E+01
 0.1221246809217E+01
 0.1241604683330E+01
 0.1257947514487E+01
 0.1269767211237E+01
 0.1276734881958E+01
 0.1278685238358E+01
 0.1275592724486E+01
 0.1267546119071E+01
 0.1254726391087E+01
 0.1237390459690E+01
 0.1215861435135E+01
 0.1190525232975E+01
 0.1161833084113E+01
 0.1130310837883E+01
 0.1096570147511E+01
 0.1061317386234E+01
 0.1025369656900E+01
 0.9896771061910E+00
 0.9553539181822E+00
 0.9237207691395E+00
 0.8963626376271E+00
 0.8752077782659E+00
 0.8626239205100E+00
 0.8615086117577E+00
 0.8753251767027E+00
 0.9080086524919E+00
 0.9636706541670E+00
 0.1046115329859E+01
 0.1158286867787E+01
 0.1301796518502E+01
 0.1476606019486E+01
 0.1680891759803E+01
 0.1911166611473E+01
 0.2162392243181E+01
 0.2427770036412E+01
 0.2698845459915E+01
 0.2966092278308E+01
 0.1115996977695E+01
 0.1144566815521E+01
 0.1172629283228E+01
 0.1199146207964E+01
 0.1223140688487E+01
 0.1243758714972E+01
 0.1260313787886E+01
 0.1272307135585E+01
 0.1279424865332E+01
 0.1281518769000E+01
 0.1278579234464E+01
 0.1270707619682E+01
 0.1258092977178E+01
 0.1240995563141E+01
 0.1219737363424E+01
 0.1194699198959E+01
 0.1166324290429E+01
 0.1135128657207E+01
 0.1101711468920E+01
 0.1066762623703E+01
 0.1031078673623E+01
 0.9955853740353E+00
 0.9613688232682E+00
 0.9297178380569E+00
 0.9021813916941E+00
 0.8806471397570E+00
 0.8674381446693E+00
 0.8654069264811E+00
 0.8779821359164E+00
 0.9090945669861E+00
 0.9629062691494E+00
 0.1043342270396E+01
 0.1153533868384E+01
 0.1295321412311E+01
 0.1468903801786E+01
 0.1672668373399E+01
 0.1903281716230E+01
 0.2155766280897E+01
 0.2423250263326E+01
 0.2697049152216E+01
 0.2967256375092E+01
 0.1116572114161E+01
 0.1145601755409E+01
 0.1174114216719E+01
 0.1201049976604E+01
 0.1225412995720E+01
 0.1246339031347E+01
 0.1263143082338E+01
 0.1275338466516E+01
 0.1282630225662E+01
 0.1284891373438E+01
 0.1282131848205E+01
 0.1274468236081E+01
 0.1262099228102E+01
 0.1245288935443E+01
 0.1224357849051E+01
 0.1199680594382E+01
 0.1171690780347E+01
 0.1140892707942E+01
 0.1107870715166E+01
 0.1073295122717E+01
 0.1037938010897E+01
 0.1002696016406E+01
 0.9686216360443E+00
 0.9369655209853E+00
 0.9092334983019E+00
 0.8872645585168E+00
 0.8733280689204E+00
 0.8702218153199E+00
 0.8813307205314E+00
 0.9105762488879E+00
 0.9621750039790E+00
 0.1040191484934E+01
 0.1147979226072E+01
 0.1287656254327E+01
 0.1459713663338E+01
 0.1662802860587E+01
 0.1893787114650E+01
 0.2147772770900E+01
 0.2417806787183E+01
 0.2694928383455E+01
 0.2968766594453E+01
 0.1117242977179E+01
 0.1146810640010E+01
 0.1175849660828E+01
 0.1203273890127E+01
 0.1228063850592E+01
 0.1249343258373E+01
 0.1266429674336E+01
 0.1278851828987E+01
 0.1286338176743E+01
 0.1288787491681E+01
 0.1286233077458E+01
 0.1278809442159E+01
 0.1266726410887E+01
 0.1250252367438E+01
 0.1229705847192E+01
 0.1205454131184E+01
 0.1177919617555E+01
 0.1147593048820E+01
 0.1115041672661E+01
 0.1080913244824E+01
 0.1045951567023E+01
 0.1011019524380E+01
 0.9771305639064E+00
 0.9454909108656E+00
 0.9175561422949E+00
 0.8951085487316E+00
 0.8803547406513E+00
 0.8760277529912E+00
 0.8854587244099E+00
 0.9125525606096E+00
 0.9615812750708E+00
 0.1036764025274E+01
 0.1141709850158E+01
 0.1278864022510E+01
 0.1449068866225E+01
 0.1651299248655E+01
 0.1882665395785E+01
 0.2138387403546E+01
 0.2411427037337E+01
 0.2692500841773E+01
 0.2970684977813E+01
 0.1118009948571E+01
 0.1148194755964E+01
 0.1177837745575E+01
 0.1205819963059E+01
 0.1231093652394E+01
 0.1252768692188E+01
 0.1270166749520E+01
 0.1282835988508E+01
 0.1290533412635E+01
 0.1293188556165E+01
 0.1290862126356E+01
 0.1283709274707E+01
 0.1271952364812E+01
 0.1255864338352E+01
 0.1235761200913E+01
 0.1212001681673E+01
 0.1184995374156E+01
 0.1155217683736E+01
 0.1123216620048E+01
 0.1089614528111E+01
 0.1055123266100E+01
 0.1020567454546E+01
 0.9869161315917E+00
 0.9553248987963E+00
 0.9271920282591E+00
 0.9042351147912E+00
 0.8885889243282E+00
 0.8829114161383E+00
 0.8904688394687E+00
 0.9151399633722E+00
 0.9612492883255E+00
 0.1033181584218E+01
 0.1134831974692E+01
 0.1269023205307E+01
 0.1437012350610E+01
 0.1638164659957E+01
 0.1869896711047E+01
 0.2127580811469E+01
 0.2404094850643E+01
 0.2689786107656E+01
 0.2973084087879E+01
 0.1118873800540E+01
 0.1149756043315E+01
 0.1180081464125E+01
 0.1208691020451E+01
 0.1234503200917E+01
 0.1256612316106E+01
 0.1274346317417E+01
 0.1287277691612E+01
 0.1295197911694E+01
 0.1298072792593E+01
 0.1295994710219E+01
 0.1289142178248E+01
 0.1277751369987E+01
 0.1262099899269E+01
 0.1242500527467E+01
 0.1219302154962E+01
 0.1192899985852E+01
 0.1163752386708E+01
 0.1132386116937E+01
 0.1099395436924E+01
 0.1065456769444E+01
 0.1031352106939E+01
 0.9980008353946E+00
 0.9665018196492E+00
 0.9381890372714E+00
 0.9147074420858E+00
 0.8981108539842E+00
 0.8909715423909E+00
 0.8964787126570E+00
 0.9184729394097E+00
 0.9613240448923E+00
 0.1029588227320E+01
 0.1127473515476E+01
 0.1258230385933E+01
 0.1423598976267E+01
 0.1623410698761E+01
 0.1855459097957E+01
 0.2115318087649E+01
 0.2395789777701E+01
 0.2686805214613E+01
 0.2976047076154E+01
 0.1119835850620E+01
 0.1151497313758E+01
 0.1182584929711E+01
 0.1211890929172E+01
 0.1238293833992E+01
 0.1260870808096E+01
 0.1278959096131E+01
 0.1292161466270E+01
 0.1300310700601E+01
 0.1303414987172E+01
 0.1301602849328E+01
 0.1295078832671E+01
 0.1284094004357E+01
 0.1268930548021E+01
 0.1249897096448E+01
 0.1227331363465E+01
 0.1201612593492E+01
 0.1173180507990E+01
 0.1142538767376E+01
 0.1110251078883E+01
 0.1076955145945E+01
 0.1043386152897E+01
 0.1010408738270E+01
 0.9790590308863E+00
 0.9505998125109E+00
 0.9265955176475E+00
 0.9090099224554E+00
 0.9003187373668E+00
 0.9036209658407E+00
 0.9227044069491E+00
 0.9619724146929E+00
 0.1026152339696E+01
 0.1119786837550E+01
 0.1246603393444E+01
 0.1408898350768E+01
 0.1607055263493E+01
 0.1839328938536E+01
 0.2101558193108E+01
 0.2386486271583E+01
 0.2683580221279E+01
 0.2979667739770E+01
 0.1120898150823E+01
 0.1153422517958E+01
 0.1185353687990E+01
 0.1215424872310E+01
 0.1242467579956E+01
 0.1265540531628E+01
 0.1283994357678E+01
 0.1297469374246E+01
 0.1305847573604E+01
 0.1309186218847E+01
 0.1307654638840E+01
 0.1301485966276E+01
 0.1290946992315E+01
 0.1276324098752E+01
 0.1257920702946E+01
 0.1236061882372E+01
 0.1211109373668E+01
 0.1183482763764E+01
 0.1153660960161E+01
 0.1122174890775E+01
 0.1089620502035E+01
 0.1056682211968E+01
 0.1024165002745E+01
 0.9930364186568E+00
 0.9644812647321E+00
 0.9399756690349E+00
 0.9213842943010E+00
 0.9110752157272E+00
 0.9120431616185E+00
 0.9280061021877E+00
 0.9633842418006E+00
 0.1023068759108E+01
 0.1111951946293E+01
 0.1234285100282E+01
 0.1392998378216E+01
 0.1589124917819E+01
 0.1821481606819E+01
 0.2086253200117E+01
 0.2376152713515E+01
 0.2680133870874E+01
 0.2984050560224E+01
 0.1122063718078E+01
 0.1155537072282E+01
 0.1188395095257E+01
 0.1219299671767E+01
 0.1247027321789E+01
 0.1270617500034E+01
 0.1289439722133E+01
 0.1303180705816E+01
 0.1311780761715E+01
 0.1315353555500E+01
 0.1314113996695E+01
 0.1308326157554E+01
 0.1298273048675E+01
 0.1284244549814E+01
 0.1266537539085E+01
 0.1245462905246E+01
 0.1221363361281E+01
 0.1194637012139E+01
 0.1165736588437E+01
 0.1135158295303E+01
 0.1103453572323E+01
 0.1071252377381E+01
 0.1039295358692E+01
 0.1008475824943E+01
 0.9798939875511E+00
 0.9549300078449E+00
 0.9353404264810E+00
 0.9233744594563E+00
 0.9219076960520E+00
 0.9345689004600E+00
 0.9657734394920E+00
 0.1020561053482E+01
 0.1104180103399E+01
 0.1221447951177E+01
 0.1376009695000E+01
 0.1569658008189E+01
 0.1801892397170E+01
 0.2069347278743E+01
 0.2364750157270E+01
 0.2676489461280E+01
 0.2989310719028E+01
 0.1123336815163E+01
 0.1157848258273E+01
 0.1191718775589E+01
 0.1223524164509E+01
 0.1251976967391E+01
 0.1276097300866E+01
 0.1295280885464E+01
 0.1309271605487E+01
 0.1318078546387E+01
 0.1321879713809E+01
 0.1320940392445E+01
 0.1315557629929E+01
 0.1306030722341E+01
 0.1292651954001E+01
 0.1275710067570E+01
 0.1255500099078E+01
 0.1232344267234E+01
 0.1206618018467E+01
 0.1178746751448E+01
 0.1149190331154E+01
 0.1118453272547E+01
 0.1087107690096E+01
 0.1055825503384E+01
 0.1025420389441E+01
 0.9969015716260E+00
 0.9715457621971E+00
 0.9509924775984E+00
 0.9373607728199E+00
 0.9333915966301E+00
 0.9426030471407E+00
 0.9693790272521E+00
 0.1018883885669E+01
 0.1096717850409E+01
 0.1208299306781E+01
 0.1358071192681E+01
 0.1548708789670E+01
 0.1780537900857E+01
 0.2050775291816E+01
 0.2352230517894E+01
 0.2672671090546E+01
 0.2995574106475E+01
 0.1124723294136E+01
 0.1160365712177E+01
 0.1195337173169E+01
 0.1228109637996E+01
 0.1257321617060E+01
 0.1281974961883E+01
 0.1301501262069E+01
 0.1315714615647E+01
 0.1324704812391E+01
 0.1328722683661E+01
 0.1328088561235E+01
 0.1323134044716E+01
 0.1314174244664E+01
 0.1301502295412E+01
 0.1285396900994E+01
 0.1266135462224E+01
 0.1244018294547E+01
 0.1219397213251E+01
 0.1192669441679E+01
 0.1164257259449E+01
 0.1134616217131E+01
 0.1104257562154E+01
 0.1073780431802E+01
 0.1043913800044E+01
 0.1015569806194E+01
 0.9899144806042E+00
 0.9684615829484E+00
 0.9531887088423E+00
 0.9466862000597E+00
 0.9523382672402E+00
 0.9744660578268E+00
 0.1018325391547E+01
 0.1089851395952E+01
 0.1195087674185E+01
 0.1339356856859E+01
 0.1526352913444E+01
 0.1757398143446E+01
 0.2030460859580E+01
 0.2338533605366E+01
 0.2668704449484E+01
 0.3002977284589E+01
 0.1126231018063E+01
 0.1163102027087E+01
 0.1199266220093E+01
 0.1233070329767E+01
 0.1263067714147E+01
 0.1288244733800E+01
 0.1308081518316E+01
 0.1322478123348E+01
 0.1331618535292E+01
 0.1335835319814E+01
 0.1335508209004E+01
 0.1331004298794E+01
 0.1322653388064E+01
 0.1310747377449E+01
 0.1295552690636E+01
 0.1277327188653E+01
 0.1256347956305E+01
 0.1232942446233E+01
 0.1207479221175E+01
 0.1180342150279E+01
 0.1151936204518E+01
 0.1122709150944E+01
 0.1093183695962E+01
 0.1063999446280E+01
 0.1035965756172E+01
 0.1010131087959E+01
 0.9878749688659E+00
 0.9710223365373E+00
 0.9619966791367E+00
 0.9640237203914E+00
 0.9813263800222E+00
 0.1019209481129E+01
 0.1083911287508E+01
 0.1182109872414E+01
 0.1320084169329E+01
 0.1502694717552E+01
 0.1732460042909E+01
 0.2008313915853E+01
 0.2323581825260E+01
 0.2664618047227E+01
 0.3011667421528E+01
 0.1127870381968E+01
 0.1166073497303E+01
 0.1203526144852E+01
 0.1238423994602E+01
 0.1269223157457E+01
 0.1294899756382E+01
 0.1314998967859E+01
 0.1329525694148E+01
 0.1338773200575E+01
 0.1343164906096E+01
 0.1343143717207E+01
 0.1339112334898E+01
 0.1331413341061E+01
 0.1320334726462E+01
 0.1306128028345E+01
 0.1289029541822E+01
 0.1269291898903E+01
 0.1247217740488E+01
 0.1223146891293E+01
 0.1197424453854E+01
 0.1170403674346E+01
 0.1142466687046E+01
 0.1114056593111E+01
 0.1085719470903E+01
 0.1058156703217E+01
 0.1032292773153E+01
 0.1009364876215E+01
 0.9910343116240E+00
 0.9795413804812E+00
 0.9779277639216E+00
 0.9902791821103E+00
 0.1021897958830E+01
 0.1079277244419E+01
 0.1169719138878E+01
 0.1300524333136E+01
 0.1477876806280E+01
 0.1705723056746E+01
 0.1984228434132E+01
 0.2307270515345E+01
 0.2660443694594E+01
 0.3021801711300E+01
 0.1129654961019E+01
 0.1169301044105E+01
 0.1208142452771E+01
 0.1244192539389E+01
 0.1275797343190E+01
 0.1301931563226E+01
 0.1322226793275E+01
 0.1336815276349E+01
 0.1346116154256E+01
 0.1350652701050E+01
 0.1350933858141E+01
 0.1347396973910E+01
 0.1340394606332E+01
 0.1330207515375E+01
 0.1317069364703E+01
 0.1301192741177E+01
 0.1282804734011E+01
 0.1262183050681E+01
 0.1239639160850E+01
 0.1215479561718E+01
 0.1190005141757E+01
 0.1163530759579E+01
 0.1136417283879E+01
 0.1109113716011E+01
 0.1082208939906E+01
 0.1056497687292E+01
 0.1033067259639E+01
 0.1013404706340E+01
 0.9995509249460E+00
 0.9943374794887E+00
 0.1001671260332E+01
 0.1026792350393E+01
 0.1076382981652E+01
 0.1158334106739E+01
 0.1281014601980E+01
 0.1452092407239E+01
 0.1677207952947E+01
 0.1958082648207E+01
 0.2289451702591E+01
 0.2656211399292E+01
 0.3033543764942E+01
 0.1131602323843E+01
 0.1172811375170E+01
 0.1213147116954E+01
 0.1250402719641E+01
 0.1282801088570E+01
 0.1309329366054E+01
 0.1329733051776E+01
 0.1344298259786E+01
 0.1353587889445E+01
 0.1358233478759E+01
 0.1358811535351E+01
 0.1355791780162E+01
 0.1349532928610E+01
 0.1340304511167E+01
 0.1328318946010E+01
 0.1313762863848E+01
 0.1296836882577E+01
 0.1277794029943E+01
 0.1256918318360E+01
 0.1234478364596E+01
 0.1210722615392E+01
 0.1185897564377E+01
 0.1160279842990E+01
 0.1134218561648E+01
 0.1108186407561E+01
 0.1082843431862E+01
 0.1059120226889E+01
 0.1038319546776E+01
 0.1022267010067E+01
 0.1013557906482E+01
 0.1015876955277E+01
 0.1034335320349E+01
 0.1075720811621E+01
 0.1148448474740E+01
 0.1261972951587E+01
 0.1425601248752E+01
 0.1646968795474E+01
 0.1929746248944E+01
 0.2269913885107E+01
 0.2651925254910E+01
 0.3047042064343E+01
 0.1133735062852E+01
 0.1176638447895E+01
 0.1218580026848E+01
 0.1257086880702E+01
 0.1290246366917E+01
 0.1317079040826E+01
 0.1337479416076E+01
 0.1351918376383E+01
 0.1361121280178E+01
 0.1365835084827E+01
 0.1366703567421E+01
 0.1364224972308E+01
 0.1358759259229E+01
 0.1350560049148E+01
 0.1339814771571E+01
 0.1326681763312E+01
 0.1311334433971E+01
 0.1294001810243E+01
 0.1274941915008E+01
 0.1254386814824E+01
 0.1232533007176E+01
 0.1209558121868E+01
 0.1185653246757E+01
 0.1161065656713E+01
 0.1136149170349E+01
 0.1111425317739E+01
 0.1087662181655E+01
 0.1065968999732E+01
 0.1047940839441E+01
 0.1035910907094E+01
 0.1033297690053E+01
 0.1045011571738E+01
 0.1077845758557E+01
 0.1140641122306E+01
 0.1243915037746E+01
 0.1398750322753E+01
 0.1615107791624E+01
 0.1899094876751E+01
 0.2248379885466E+01
 0.2647512371831E+01
 0.3062262921339E+01
 0.1136082113497E+01
 0.1180825331970E+01
 0.1224490751076E+01
 0.1264283708046E+01
 0.1298145751733E+01
 0.1325161714813E+01
 0.1345419595988E+01
 0.1359610436385E+01
 0.1368640783789E+01
 0.1373378035260E+01
 0.1374530537739E+01
 0.1372619393660E+01
 0.1367999763586E+01
 0.1360904035614E+01
 0.1351490571266E+01
 0.1339887005764E+01
 0.1326239023002E+01
 0.1310752801526E+01
 0.1293662466194E+01
 0.1275165502883E+01
 0.1255407543694E+01
 0.1234497473134E+01
 0.1212540303236E+01
 0.1189680544076E+01
 0.1166151720951E+01
 0.1142334378742E+01
 0.1118829634361E+01
 0.1096545146438E+01
 0.1076831088625E+01
 0.1061733562333E+01
 0.1054361025662E+01
 0.1059348121935E+01
 0.1083378920951E+01
 0.1135586177521E+01
 0.1227473673572E+01
 0.1371998962083E+01
 0.1581800983494E+01
 0.1866004087167E+01
 0.2224621875783E+01
 0.2642376780739E+01
 0.3081744056535E+01
 0.1138680463574E+01
 0.1185426601802E+01
 0.1230940680827E+01
 0.1272038919973E+01
 0.1306511421847E+01
 0.1333551825878E+01
 0.1353497383954E+01
 0.1367298906230E+01
 0.1376061646813E+01
 0.1380775195363E+01
 0.1382206737350E+01
 0.1380892557049E+01
 0.1377175876826E+01
 0.1371261978439E+01
 0.1363275801355E+01
 0.1353311823552E+01
 0.1341487727236E+01
 0.1327988515753E+01
 0.1313027181268E+01
 0.1296769259957E+01
 0.1279311191250E+01
 0.1260693864611E+01
 0.1240936532925E+01
 0.1220081184531E+01
 0.1198241117110E+01
 0.1175655128448E+01
 0.1152754649665E+01
 0.1130239279624E+01
 0.1109201303888E+01
 0.1091375967285E+01
 0.1079519114584E+01
 0.1077913847080E+01
 0.1093009815092E+01
 0.1134062470014E+01
 0.1213420314589E+01
 0.1345950505993E+01
 0.1547327315660E+01
 0.1830380734137E+01
 0.2198351698235E+01
 0.2636315736254E+01
 0.3106665070328E+01
 0.1141577396916E+01
 0.1190511439225E+01
 0.1238005627630E+01
 0.1280405784669E+01
 0.1315353515335E+01
 0.1342214493097E+01
 0.1361644271808E+01
 0.1374896353832E+01
 0.1383289167369E+01
 0.1387931586157E+01
 0.1389640232166E+01
 0.1388956779560E+01
 0.1386204411223E+01
 0.1381555042197E+01
 0.1375095653358E+01
 0.1366885082766E+01
 0.1357012986097E+01
 0.1345645422517E+01
 0.1332977732862E+01
 0.1319146800583E+01
 0.1304202108466E+01
 0.1288117932895E+01
 0.1270829008626E+01
 0.1252276385734E+01
 0.1232454951592E+01
 0.1211463054194E+01
 0.1189561905241E+01
 0.1167238662557E+01
 0.1145316619153E+01
 0.1125198258970E+01
 0.1109246376635E+01
 0.1101318167164E+01
 0.1107497439785E+01
 0.1136961738412E+01
 0.1202687631899E+01
 0.1321391598120E+01
 0.1512106320345E+01
 0.1792198189543E+01
 0.2169162970013E+01
 0.2629863903214E+01
 0.3134295543590E+01
 0.1144833480924E+01
 0.1196167698213E+01
 0.1245778950058E+01
 0.1289445259823E+01
 0.1324677530680E+01
 0.1351102004253E+01
 0.1369776601960E+01
 0.1382301817606E+01
 0.1390218089661E+01
 0.1394744376928E+01
 0.1396733089424E+01
 0.1396719422382E+01
 0.1394997716295E+01
 0.1391700120669E+01
 0.1386871067059E+01
 0.1380531259399E+01
 0.1372742542520E+01
 0.1363654844347E+01
 0.1353450080396E+01
 0.1342240423228E+01
 0.1330031143211E+01
 0.1316731902751E+01
 0.1302195164325E+01
 0.1286264144692E+01
 0.1268819163228E+01
 0.1249821850559E+01
 0.1229365347226E+01
 0.1207722697993E+01
 0.1185439674539E+01
 0.1163566677822E+01
 0.1144036152547E+01
 0.1130208663565E+01
 0.1127669882282E+01
 0.1145294702047E+01
 0.1196392606716E+01
 0.1299336745473E+01
 0.1476759982162E+01
 0.1751485721477E+01
 0.2136776963549E+01
 0.2622610557622E+01
 0.3165224019959E+01
 0.1148526607376E+01
 0.1202507285599E+01
 0.1254375268003E+01
 0.1299225416990E+01
 0.1334480351792E+01
 0.1360149196994E+01
 0.1377792252094E+01
 0.1389399199981E+01
 0.1396732232858E+01
 0.1401103132724E+01
 0.1403381800511E+01
 0.1404083249955E+01
 0.1403463889580E+01
 0.1401609914759E+01
 0.1398518733419E+01
 0.1394170414713E+01
 0.1388599406890E+01
 0.1381942901930E+01
 0.1374374366759E+01
 0.1365985791434E+01
 0.1356741393891E+01
 0.1346488812621E+01
 0.1335001583304E+01
 0.1322029914288E+01
 0.1307345702115E+01
 0.1290780404740E+01
 0.1272264442216E+01
 0.1251858471092E+01
 0.1229825627724E+01
 0.1206848442709E+01
 0.1184396004894E+01
 0.1165267316667E+01
 0.1154422183918E+01
 0.1160194511820E+01
 0.1195857415489E+01
 0.1281082780209E+01
 0.1442177014230E+01
 0.1708422651575E+01
 0.2100785904794E+01
 0.2614004172308E+01
 0.3199970470588E+01
 0.1152757552728E+01
 0.1209673359592E+01
 0.1263934770817E+01
 0.1309819593284E+01
 0.1344744311876E+01
 0.1369267499544E+01
 0.1385566920208E+01
 0.1396055847029E+01
 0.1402704484963E+01
 0.1406890392890E+01
 0.1409477937266E+01
 0.1410946920675E+01
 0.1411507032066E+01
 0.1411192997416E+01
 0.1409951065858E+01
 0.1407718154771E+01
 0.1404501841051E+01
 0.1400430521948E+01
 0.1395674912832E+01
 0.1390311823931E+01
 0.1384267858000E+01
 0.1377331781223E+01
 0.1369202773673E+01
 0.1359544804071E+01
 0.1348030066461E+01
 0.1334369556668E+01
 0.1318340042654E+01
 0.1299795652149E+01
 0.1278716169084E+01
 0.1255405212937E+01
 0.1230841263961E+01
 0.1207204855598E+01
 0.1188712140344E+01
 0.1182916770908E+01
 0.1202627067155E+01
 0.1268265768294E+01
 0.1409614735828E+01
 0.1663393626151E+01
 0.2060670951136E+01
 0.2603386805399E+01
 0.3239080538203E+01
 0.1157657775540E+01
 0.1217850061467E+01
 0.1274627997657E+01
 0.1321302360416E+01
 0.1355428507213E+01
 0.1378337429207E+01
 0.1392950192670E+01
 0.1402121553734E+01
 0.1407997318027E+01
 0.1411982658520E+01
 0.1414909076419E+01
 0.1417205619325E+01
 0.1419027538407E+01
 0.1420353839647E+01
 0.1421076108620E+01
 0.1421085551346E+01
 0.1420363358023E+01
 0.1419033524760E+01
 0.1417270343538E+01
 0.1415140730686E+01
 0.1412537194702E+01
 0.1409193327644E+01
 0.1404739936300E+01
 0.1398763724990E+01
 0.1390848734028E+01
 0.1380598670195E+01
 0.1367649904533E+01
 0.1351660775584E+01
 0.1332332486166E+01
 0.1309584932608E+01
 0.1283886364537E+01
 0.1256752528791E+01
 0.1231553325225E+01
 0.1214835750264E+01
 0.1218480570396E+01
 0.1262921088612E+01
 0.1380823532590E+01
 0.1617101696907E+01
 0.2015867105809E+01
 0.2589933422868E+01
 0.3283165360359E+01
 0.1163400581996E+01
 0.1227275803319E+01
 0.1286660686950E+01
 0.1333741838845E+01
 0.1366456336731E+01
 0.1387199467769E+01
 0.1399761761173E+01
 0.1407428324135E+01
 0.1412463996043E+01
 0.1416251859757E+01
 0.1419560021392E+01
 0.1422751839573E+01
 0.1425922408728E+01
 0.1428992762459E+01
 0.1431797337428E+01
 0.1434178989910E+01
 0.1436092729641E+01
 0.1437662815908E+01
 0.1439073892136E+01
 0.1440388243242E+01
 0.1441467631869E+01
 0.1441994753347E+01
 0.1441539723670E+01
 0.1439623484658E+01
 0.1435756515954E+01
 0.1429452066366E+01
 0.1420223921825E+01
 0.1407550948457E+01
 0.1390867171258E+01
 0.1369711901651E+01
 0.1344033527334E+01
 0.1314650412627E+01
 0.1284004236843E+01
 0.1257435785503E+01
 0.1245434072966E+01
 0.1267538624869E+01
 0.1358201355765E+01
 0.1570762758604E+01
 0.1965842937103E+01
 0.2572575254086E+01
 0.3332931071320E+01
 0.1170217488581E+01
 0.1238261570623E+01
 0.1300277702638E+01
 0.1347185998497E+01
 0.1377698023787E+01
 0.1395643519498E+01
 0.1405788422111E+01
 0.1411791301076E+01
 0.1415950639988E+01
 0.1419567355832E+01
 0.1423314342918E+01
 0.1427476324839E+01
 0.1432085567685E+01
 0.1437005769093E+01
 0.1442013288573E+01
 0.1446899892991E+01
 0.1451593989252E+01
 0.1456224716095E+01
 0.1460993949066E+01
 0.1465964103224E+01
 0.1470969051101E+01
 0.1475645586995E+01
 0.1479512977573E+01
 0.1482040833942E+01
 0.1482683864966E+01
 0.1480885386526E+01
 0.1476059171630E+01
 0.1467527084942E+01
 0.1454475125222E+01
 0.1436074997702E+01
 0.1411758409713E+01
 0.1381631315739E+01
 0.1347151891710E+01
 0.1312296176213E+01
 0.1285733820053E+01
 0.1285104829798E+01
 0.1344977679733E+01
 0.1526398994671E+01
 0.1910239691873E+01
 0.2549904552234E+01
 0.3389213540229E+01
 0.1178422825943E+01
 0.1251216293378E+01
 0.1315763839348E+01
 0.1361639216940E+01
 0.1388946802135E+01
 0.1403397731873E+01
 0.1410782843682E+01
 0.1415011327485E+01
 0.1418299272887E+01
 0.1421798491334E+01
 0.1426056250380E+01
 0.1431269179082E+01
 0.1437408179893E+01
 0.1444284200731E+01
 0.1451616925531E+01
 0.1459144240285E+01
 0.1466766408831E+01
 0.1474621481744E+01
 0.1482934951490E+01
 0.1491772893752E+01
 0.1500943285554E+01
 0.1510043080061E+01
 0.1518553417680E+01
 0.1525910456227E+01
 0.1531534173478E+01
 0.1534821972174E+01
 0.1535114898466E+01
 0.1531606811977E+01
 0.1523263578299E+01
 0.1508914074451E+01
 0.1487492501139E+01
 0.1458399435384E+01
 0.1422087838276E+01
 0.1381066457522E+01
 0.1341835779271E+01
 0.1319123298017E+01
 0.1345410868094E+01
 0.1487266532331E+01
 0.1849137689536E+01
 0.2520063452225E+01
 0.3453026677379E+01
 0.1188451813959E+01
 0.1266682080487E+01
 0.1333436864750E+01
 0.1377023322901E+01
 0.1399887826548E+01
 0.1410118492085E+01
 0.1414465469478E+01
 0.1416879551793E+01
 0.1419351884810E+01
 0.1422817694681E+01
 0.1427672794877E+01
 0.1434021167867E+01
 0.1441778963323E+01
 0.1450714148827E+01
 0.1460494612778E+01
 0.1470801763786E+01
 0.1481504417583E+01
 0.1492752097252E+01
 0.1504798755612E+01
 0.1517715325918E+01
 0.1531284662115E+01
 0.1545071720305E+01
 0.1558536230587E+01
 0.1571102876567E+01
 0.1582181098942E+01
 0.1591149370802E+01
 0.1597307606969E+01
 0.1599757245557E+01
 0.1597281418476E+01
 0.1588404675084E+01
 0.1571602250296E+01
 0.1545603246728E+01
 0.1509874640812E+01
 0.1465427405813E+01
 0.1416365794592E+01
 0.1373604121412E+01
 0.1364969283449E+01
 0.1458452690788E+01
 0.1783569955804E+01
 0.2480634241602E+01
 0.3525633398717E+01
 0.1200921421586E+01
 0.1285382807427E+01
 0.1353623206445E+01
 0.1393114529490E+01
 0.1410060376203E+01
 0.1415385080705E+01
 0.1416531170625E+01
 0.1417184271708E+01
 0.1418955445778E+01
 0.1422504064451E+01
 0.1428056390773E+01
 0.1435625246891E+01
 0.1445084530925E+01
 0.1456175552864E+01
 0.1468524508530E+01
 0.1481754625162E+01
 0.1495697409241E+01
 0.1510513470020E+01
 0.1526486705619E+01
 0.1543690126493E+01
 0.1561880806385E+01
 0.1580602698532E+01
 0.1599316479432E+01
 0.1617462247756E+01
 0.1634465952667E+01
 0.1649716103915E+01
 0.1662506482753E+01
 0.1671887897563E+01
 0.1676508084897E+01
 0.1674641305849E+01
 0.1664365155705E+01
 0.1643802633374E+01
 0.1611501624075E+01
 0.1567032686000E+01
 0.1512048763957E+01
 0.1453007087843E+01
 0.1410454515906E+01
 0.1447650489693E+01
 0.1716496583648E+01
 0.2428595197329E+01
 0.3608657193113E+01
 0.1216731289627E+01
 0.1308289399880E+01
 0.1376596620063E+01
 0.1409444441469E+01
 0.1418817936900E+01
 0.1418704753929E+01
 0.1416661971649E+01
 0.1415719790827E+01
 0.1416967699718E+01
 0.1420747344604E+01
 0.1427107621027E+01
 0.1435978382239E+01
 0.1447209846777E+01
 0.1460540924259E+01
 0.1475574102032E+01
 0.1491875261321E+01
 0.1509229352601E+01
 0.1527802248323E+01
 0.1547902726435E+01
 0.1569596710478E+01
 0.1592613695921E+01
 0.1616493218636E+01
 0.1640727219104E+01
 0.1664803941899E+01
 0.1688195180540E+01
 0.1710328867139E+01
 0.1730529428241E+01
 0.1747844041337E+01
 0.1760842340899E+01
 0.1767619595666E+01
 0.1765943283018E+01
 0.1753430923275E+01
 0.1727830102867E+01
 0.1687427808262E+01
 0.1631590899984E+01
 0.1562107315525E+01
 0.1490014980134E+01
 0.1466043678908E+01
 0.1654600859028E+01
 0.2360535129438E+01
 0.3704277254732E+01
 0.1237238335614E+01
 0.1336701381810E+01
 0.1402439587035E+01
 0.1425151939402E+01
 0.1425299815560E+01
 0.1419536110454E+01
 0.1414545713459E+01
 0.1412296602388E+01
 0.1413263551676E+01
 0.1417452119877E+01
 0.1424738262427E+01
 0.1434983761141E+01
 0.1448038983353E+01
 0.1463673690064E+01
 0.1481496493009E+01
 0.1501022869039E+01
 0.1521978064877E+01
 0.1544517647003E+01
 0.1568957947959E+01
 0.1595338850749E+01
 0.1623360876333E+01
 0.1652585481598E+01
 0.1682577167242E+01
 0.1712911835627E+01
 0.1743137940917E+01
 0.1772750376515E+01
 0.1801140097877E+01
 0.1827400942597E+01
 0.1850091277869E+01
 0.1867217711530E+01
 0.1876354823226E+01
 0.1874753166779E+01
 0.1859530204022E+01
 0.1827947477915E+01
 0.1777502352585E+01
 0.1705724268797E+01
 0.1612963322030E+01
 0.1529121511751E+01
 0.1611428987131E+01
 0.2273665517161E+01
 0.3815625848831E+01
 0.1264574306797E+01
 0.1372327411205E+01
 0.1430745167598E+01
 0.1438781545885E+01
 0.1428445658216E+01
 0.1417337258203E+01
 0.1409897448718E+01
 0.1406752285319E+01
 0.1407741837037E+01
 0.1412541951454E+01
 0.1420874441683E+01
 0.1432553511458E+01
 0.1447456535569E+01
 0.1465426299949E+01
 0.1486124824578E+01
 0.1509037600860E+01
 0.1533813913638E+01
 0.1560565985338E+01
 0.1589577655388E+01
 0.1620829541911E+01
 0.1653996616229E+01
 0.1688705107709E+01
 0.1724647761410E+01
 0.1761535117580E+01
 0.1799023726305E+01
 0.1836698135584E+01
 0.1874046475944E+01
 0.1910259454348E+01
 0.1943959886552E+01
 0.1973177419353E+01
 0.1995444321049E+01
 0.2007822440088E+01
 0.2007013576823E+01
 0.1989598026734E+01
 0.1951864695751E+01
 0.1888242564851E+01
 0.1789186084139E+01
 0.1657135136130E+01
 0.1612333227423E+01
 0.2169092201516E+01
 0.3947746402536E+01
 0.1302259492706E+01
 0.1417284431028E+01
 0.1459993740441E+01
 0.1448070176210E+01
 0.1427110801205E+01
 0.1411632225898E+01
 0.1402477765804E+01
 0.1398963740480E+01
 0.1400331790602E+01
 0.1405963167852E+01
 0.1415459792247E+01
 0.1428612000180E+01
 0.1445350308669E+01
 0.1465638612754E+01
 0.1489264030273E+01
 0.1515730764039E+01
 0.1544597551406E+01
 0.1575868292298E+01
 0.1609711804163E+01
 0.1645997107336E+01
 0.1684392531020E+01
 0.1724658711289E+01
 0.1766689457050E+01
 0.1810384358708E+01
 0.1855539833133E+01
 0.1901844483950E+01
 0.1948901827211E+01
 0.1996043585326E+01
 0.2042041390490E+01
 0.2085085192448E+01
 0.2122852223485E+01
 0.2152435492692E+01
 0.2170368980511E+01
 0.2172936701938E+01
 0.2156072408557E+01
 0.2112919202401E+01
 0.2027703446300E+01
 0.1874657005576E+01
 0.1700882720239E+01
 0.2061229517086E+01
 0.4110322745266E+01
 0.1356484024399E+01
 0.1473699285532E+01
 0.1486295874578E+01
 0.1449929417644E+01
 0.1420346650743E+01
 0.1402053386616E+01
 0.1392110059333E+01
 0.1388861280659E+01
 0.1390997612821E+01
 0.1397688458371E+01
 0.1408458270735E+01
 0.1423099633388E+01
 0.1441616188480E+01
 0.1464137973741E+01
 0.1490678803648E+01
 0.1520867678059E+01
 0.1554176012573E+01
 0.1590373743295E+01
 0.1629350958272E+01
 0.1670792107000E+01
 0.1714416832861E+01
 0.1760230353406E+01
 0.1808417238793E+01
 0.1859126472000E+01
 0.1912328139561E+01
 0.1967818406080E+01
 0.2025309441349E+01
 0.2084300742440E+01
 0.2143808168685E+01
 0.2202353624995E+01
 0.2257985103842E+01
 0.2308086872756E+01
 0.2349308522957E+01
 0.2377971876506E+01
 0.2390575483691E+01
 0.2381163078484E+01
 0.2333925183280E+01
 0.2207385677079E+01
 0.1945077480453E+01
 0.2002868278258E+01
 0.4326462951570E+01
 0.1439075039990E+01
 0.1541642106885E+01
 0.1501123019221E+01
 0.1441306164962E+01
 0.1407734242968E+01
 0.1388298705217E+01
 0.1378726297634E+01
 0.1376432975162E+01
 0.1379743086788E+01
 0.1387719666648E+01
 0.1399856415128E+01
 0.1415976629621E+01
 0.1436166099963E+01
 0.1460744471130E+01
 0.1490076854254E+01
 0.1524136086482E+01
 0.1562376079790E+01
 0.1604084975453E+01
 0.1648550050519E+01
 0.1695193335226E+01
 0.1743930997340E+01
 0.1795176693108E+01
 0.1849505599663E+01
 0.1907378144573E+01
 0.1968979797249E+01
 0.2034209690824E+01
 0.2102833982532E+01
 0.2174505251833E+01
 0.2248602126266E+01
 0.2324203511415E+01
 0.2399988283846E+01
 0.2473922451364E+01
 0.2543113203365E+01
 0.2604155525429E+01
 0.2654605750613E+01
 0.2692070689409E+01
 0.2706355414927E+01
 0.2671102337148E+01
 0.2440262423959E+01
 0.2142343636537E+01
 0.4666538232841E+01
 0.1575456482295E+01
 0.1609652796241E+01
 0.1489308733362E+01
 0.1422266845771E+01
 0.1388867736423E+01
 0.1370260699150E+01
 0.1362386190867E+01
 0.1361722856610E+01
 0.1366617568423E+01
 0.1376088300636E+01
 0.1389665582223E+01
 0.1407225520051E+01
 0.1428938389412E+01
 0.1455289289864E+01
 0.1487089219473E+01
 0.1525083174559E+01
 0.1568993498355E+01
 0.1617109709870E+01
 0.1667461041844E+01
 0.1719208688856E+01
 0.1772782845741E+01
 0.1829220640580E+01
 0.1889583731658E+01
 0.1954697877147E+01
 0.2025024252567E+01
 0.2100575813623E+01
 0.2181026005109E+01
 0.2266064869894E+01
 0.2355620449328E+01
 0.2449649394284E+01
 0.2547720426904E+01
 0.2648700175147E+01
 0.2750549614140E+01
 0.2850479065212E+01
 0.2946266054499E+01
 0.3041260660499E+01
 0.3137330560299E+01
 0.3246958233858E+01
 0.3289249658575E+01
 0.2810321839863E+01
 0.5398078187063E+01
 0.1831128518009E+01
 0.1606580833670E+01
 0.1447675922159E+01
 0.1394824898262E+01
 0.1362979263238E+01
 0.1348348550087E+01
 0.1343176106072E+01
 0.1344865857928E+01
 0.1351707575784E+01
 0.1362858372522E+01
 0.1377922590653E+01
 0.1396853441838E+01
 0.1419902728611E+01
 0.1447660316716E+01
 0.1481266366345E+01
 0.1522973069464E+01
 0.1573778947669E+01
 0.1629777179682E+01
 0.1686362226235E+01
 0.1742866553673E+01
 0.1800795276565E+01
 0.1862043543994E+01
 0.1928231274709E+01
 0.2000580386538E+01
 0.2079903526845E+01
 0.2166448708306E+01
 0.2259479284796E+01
 0.2358323214211E+01
 0.2463888239824E+01
 0.2577494008489E+01
 0.2699741197810E+01
 0.2830725395840E+01
 0.2969857599234E+01
 0.3115246086584E+01
 0.3264194001236E+01
 0.3418037724046E+01
 0.3614907108162E+01
 0.3881765140743E+01
 0.4434072506145E+01
 0.4637829600548E+01
 0.7849230799608E+01
 0.2303894361021E+00
 0.3753677720222E+00
 0.5191474796785E+00
 0.6539951777678E+00
 0.7764125396224E+00
 0.8854632337105E+00
 0.9817913191963E+00
 0.1066907153319E+01
 0.1142608365165E+01
 0.1210519105614E+01
 0.1271753412488E+01
 0.1326640018058E+01
 0.1375078426635E+01
 0.1417103008030E+01
 0.1452750336029E+01
 0.1481925639084E+01
 0.1504362765018E+01
 0.1519471284728E+01
 0.1526945835257E+01
 0.1525395969819E+01
 0.2316590001411E+00
 0.3776427774111E+00
 0.5220216188669E+00
 0.6579596062314E+00
 0.7821736910684E+00
 0.8936625075930E+00
 0.9928736815963E+00
 0.1081083508321E+01
 0.1159888915816E+01
 0.1230791614868E+01
 0.1294860093500E+01
 0.1352468777973E+01
 0.1403683803193E+01
 0.1448590388502E+01
 0.1487196899902E+01
 0.1519484142083E+01
 0.1545276411905E+01
 0.1564279998062E+01
 0.1574602981056E+01
 0.1571706397721E+01
 0.2331148706326E+00
 0.3804230090052E+00
 0.5255764453699E+00
 0.6626016474858E+00
 0.7884963808169E+00
 0.9022342563542E+00
 0.1004108073328E+01
 0.1095199641974E+01
 0.1176933168797E+01
 0.1250692083241E+01
 0.1317493628085E+01
 0.1377781480087E+01
 0.1431714275458E+01
 0.1479417833072E+01
 0.1520936388494E+01
 0.1556282441879E+01
 0.1585337835353E+01
 0.1607412401413E+01
 0.1619872158989E+01
 0.1619888591026E+01
 0.2347066688033E+00
 0.3835536774091E+00
 0.5296454335399E+00
 0.6677737759191E+00
 0.7952480850631E+00
 0.9110645137186E+00
 0.1015400453723E+01
 0.1109176239152E+01
 0.1193664225421E+01
 0.1270138101065E+01
 0.1339572732617E+01
 0.1402461738200E+01
 0.1459033402235E+01
 0.1509453343822E+01
 0.1553800858383E+01
 0.1592100337298E+01
 0.1624119459908E+01
 0.1648833248138E+01
 0.1663903478152E+01
 0.1667439453491E+01
 0.2363864716381E+00
 0.3869234996300E+00
 0.5340815185813E+00
 0.6733317742312E+00
 0.8022997611661E+00
 0.9200411434342E+00
 0.1026654684651E+01
 0.1122927854896E+01
 0.1210000004864E+01
 0.1289046358865E+01
 0.1361001821956E+01
 0.1426396317112E+01
 0.1485513356188E+01
 0.1538553119225E+01
 0.1585618568040E+01
 0.1626699587904E+01
 0.1661427110500E+01
 0.1688703124496E+01
 0.1706549679383E+01
 0.1713585612136E+01
 0.2381143816262E+00
 0.3904384362082E+00
 0.5387571977867E+00
 0.6791414600173E+00
 0.8095269228112E+00
 0.9290539659489E+00
 0.1037773630878E+01
 0.1136366140655E+01
 0.1225855592696E+01
 0.1307328767420E+01
 0.1381682693064E+01
 0.1449473216307E+01
 0.1511027613012E+01
 0.1566572686557E+01
 0.1616216946050E+01
 0.1659898990940E+01
 0.1697170176108E+01
 0.1726956563868E+01
 0.1747570924898E+01
 0.1757880204344E+01
 0.2398561517242E+00
 0.3940181891207E+00
 0.5435599641344E+00
 0.6850800149641E+00
 0.8168114059838E+00
 0.9379956048120E+00
 0.1048660554898E+01
 0.1149401660676E+01
 0.1241143979974E+01
 0.1324895205876E+01
 0.1401516561985E+01
 0.1471581730747E+01
 0.1535451692553E+01
 0.1593370662750E+01
 0.1645441269013E+01
 0.1691560011264E+01
 0.1731240453479E+01
 0.1763459757149E+01
 0.1786731927129E+01
 0.1800021569734E+01
 0.2415819919213E+00
 0.3975930776658E+00
 0.5483901714327E+00
 0.6910354383729E+00
 0.8240422888002E+00
 0.9467626465534E+00
 0.1059220396695E+01
 0.1161945198068E+01
 0.1255777703654E+01
 0.1341655285069E+01
 0.1420405520657E+01
 0.1492613446344E+01
 0.1558664936383E+01
 0.1618814387419E+01
 0.1673155712809E+01
 0.1721556392920E+01
 0.1763515621718E+01
 0.1798058925416E+01
 0.1823825384976E+01
 0.1839783699874E+01
 0.2432657201356E+00
 0.4011020863770E+00
 0.5531592596664E+00
 0.6969059255814E+00
 0.8311162642379E+00
 0.9552565944888E+00
 0.1069360927659E+01
 0.1173909075299E+01
 0.1269670308386E+01
 0.1357519852474E+01
 0.1438253870806E+01
 0.1512463609376E+01
 0.1580552779177E+01
 0.1642781772562E+01
 0.1699236848145E+01
 0.1749767003804E+01
 0.1793867603255E+01
 0.1830600781605E+01
 0.1858674472874E+01
 0.1876998704115E+01
 0.2448842006806E+00
 0.4044914853182E+00
 0.5577884168959E+00
 0.7025992311003E+00
 0.8379378111738E+00
 0.9633845899362E+00
 0.1078993778306E+01
 0.1185208345213E+01
 0.1282737634283E+01
 0.1372402290874E+01
 0.1454969379472E+01
 0.1531032500703E+01
 0.1601008068093E+01
 0.1665160421076E+01
 0.1723570281450E+01
 0.1776075025244E+01
 0.1822169588384E+01
 0.1860940128145E+01
 0.1891127072938E+01
 0.1911545228259E+01
 0.2464169424338E+00
 0.4077138460111E+00
 0.5622075454745E+00
 0.7080321122054E+00
 0.8444192610974E+00
 0.9710599862183E+00
 0.1088035332050E+01
 0.1195761862921E+01
 0.1294898974603E+01
 0.1386219702009E+01
 0.1470464450572E+01
 0.1548226525569E+01
 0.1619931502489E+01
 0.1685846784430E+01
 0.1746049458807E+01
 0.1800369217559E+01
 0.1848300561695E+01
 0.1888942893894E+01
 0.1921046484311E+01
 0.1943314363808E+01
 0.2478458168422E+00
 0.4107273304388E+00
 0.5663544731845E+00
 0.7131298671073E+00
 0.8504808226396E+00
 0.9782028090231E+00
 0.1096407487945E+01
 0.1205493222372E+01
 0.1306078094753E+01
 0.1398893944630E+01
 0.1484657097472E+01
 0.1563958923592E+01
 0.1637231769338E+01
 0.1704745725318E+01
 0.1766575580268E+01
 0.1822545386376E+01
 0.1872147859631E+01
 0.1914487019363E+01
 0.1948306296998E+01
 0.1972193548197E+01
 0.2491548525521E+00
 0.4134951730845E+00
 0.5701743531900E+00
 0.7178259676676E+00
 0.8560505964684E+00
 0.9847401407569E+00
 0.1104038319415E+01
 0.1214331581874E+01
 0.1316204136713E+01
 0.1410352540782E+01
 0.1497471734337E+01
 0.1578150287112E+01
 0.1652825687431E+01
 0.1721770496028E+01
 0.1785058011998E+01
 0.1842507614434E+01
 0.1893608560372E+01
 0.1937462439265E+01
 0.1972793372905E+01
 0.1998079402286E+01
 0.2503300865225E+00
 0.4159853022998E+00
 0.5736192089886E+00
 0.7220617718019E+00
 0.8610645875738E+00
 0.9906064392719E+00
 0.1110862631860E+01
 0.1222212371120E+01
 0.1325212391235E+01
 0.1420529427488E+01
 0.1508839798795E+01
 0.1590728961323E+01
 0.1666638397411E+01
 0.1736842928627E+01
 0.1801414798817E+01
 0.1860169143647E+01
 0.1912590195154E+01
 0.1957771711112E+01
 0.1994410784207E+01
 0.2020885528336E+01
 0.2513594566374E+00
 0.4181700639703E+00
 0.5766475923813E+00
 0.7257863041664E+00
 0.8654667217912E+00
 0.9957438061446E+00
 0.1116822434302E+01
 0.1229077891900E+01
 0.1333044949311E+01
 0.1429365577775E+01
 0.1518700257953E+01
 0.1601631392401E+01
 0.1678603604184E+01
 0.1749893726198E+01
 0.1815573156871E+01
 0.1875453007491E+01
 0.1929011330352E+01
 0.1975330633643E+01
 0.2013077725625E+01
 0.2040542651919E+01
 0.2522327253628E+00
 0.4200260216414E+00
 0.5792243297514E+00
 0.7289560935780E+00
 0.8692088685803E+00
 0.1000102214114E+01
 0.1121867336413E+01
 0.1234877823328E+01
 0.1339651246653E+01
 0.1436809515115E+01
 0.1527000033002E+01
 0.1610802448645E+01
 0.1688663849733E+01
 0.1760862787018E+01
 0.1827469913364E+01
 0.1888292539762E+01
 0.1942802031520E+01
 0.1990068258391E+01
 0.2028728100924E+01
 0.2056996387112E+01
 0.2529414241974E+00
 0.4215338124205E+00
 0.5813203348438E+00
 0.7315350536882E+00
 0.8722508661985E+00
 0.1003639695960E+01
 0.1125954875380E+01
 0.1239569636776E+01
 0.1344988508993E+01
 0.1442817733864E+01
 0.1533694354373E+01
 0.1618195710185E+01
 0.1696770782403E+01
 0.1769699513598E+01
 0.1837051883199E+01
 0.1898631773549E+01
 0.1953904097314E+01
 0.2001926490034E+01
 0.2041309001764E+01
 0.2070204889145E+01
 0.2534788151716E+00
 0.4226780448929E+00
 0.5829124733467E+00
 0.7334943976451E+00
 0.8745605471216E+00
 0.1006322497866E+01
 0.1129050778343E+01
 0.1243118927903E+01
 0.1349022107614E+01
 0.1447355036256E+01
 0.1538747053346E+01
 0.1623773719777E+01
 0.1702885399733E+01
 0.1776363083466E+01
 0.1844276174995E+01
 0.1906425715235E+01
 0.1962271099524E+01
 0.2010859567723E+01
 0.2050779441116E+01
 0.2080136872427E+01
 0.2538398643872E+00
 0.4234472283827E+00
 0.5839834674019E+00
 0.7348125791142E+00
 0.8761137618956E+00
 0.1008125200350E+01
 0.1131129166848E+01
 0.1245499674642E+01
 0.1351725835868E+01
 0.1450394796773E+01
 0.1542130796690E+01
 0.1627508192995E+01
 0.1706978257028E+01
 0.1780822676447E+01
 0.1849110428623E+01
 0.1911640516967E+01
 0.1967868327025E+01
 0.2016833597278E+01
 0.2057109413259E+01
 0.2086770018818E+01
 0.2540212245725E+00
 0.4238337259678E+00
 0.5845218311541E+00
 0.7354752532643E+00
 0.8768943989802E+00
 0.1009030807820E+01
 0.1132172706778E+01
 0.1246694426035E+01
 0.1353082111923E+01
 0.1451919157549E+01
 0.1543827263452E+01
 0.1629380180888E+01
 0.1709029630784E+01
 0.1783057648530E+01
 0.1851532983302E+01
 0.1914253574020E+01
 0.1970672700523E+01
 0.2019826183223E+01
 0.2060279257838E+01
 0.2090090013620E+01
 0.2540212245451E+00
 0.4238337259173E+00
 0.5845218310923E+00
 0.7354752531975E+00
 0.8768943989116E+00
 0.1009030807752E+01
 0.1132172706711E+01
 0.1246694425972E+01
 0.1353082111866E+01
 0.1451919157500E+01
 0.1543827263411E+01
 0.1629380180856E+01
 0.1709029630760E+01
 0.1783057648512E+01
 0.1851532983289E+01
 0.1914253574012E+01
 0.1970672700518E+01
 0.2019826183219E+01
 0.2060279257833E+01
 0.2090090013610E+01
 0.2538398643055E+00
 0.4234472282317E+00
 0.5839834672172E+00
 0.7348125789147E+00
 0.8761137616905E+00
 0.1008125200145E+01
 0.1131129166648E+01
 0.1245499674453E+01
 0.1351725835697E+01
 0.1450394796625E+01
 0.1542130796568E+01
 0.1627508192899E+01
 0.1706978256956E+01
 0.1780822676394E+01
 0.1849110428586E+01
 0.1911640516942E+01
 0.1967868327010E+01
 0.2016833597267E+01
 0.2057109413245E+01
 0.2086770018788E+01
 0.2534788150363E+00
 0.4226780446433E+00
 0.5829124730415E+00
 0.7334943973154E+00
 0.8745605467826E+00
 0.1006322497527E+01
 0.1129050778013E+01
 0.1243118927591E+01
 0.1349022107331E+01
 0.1447355036011E+01
 0.1538747053144E+01
 0.1623773719618E+01
 0.1702885399612E+01
 0.1776363083378E+01
 0.1844276174933E+01
 0.1906425715193E+01
 0.1962271099498E+01
 0.2010859567705E+01
 0.2050779441093E+01
 0.2080136872376E+01
 0.2529414240099E+00
 0.4215338120750E+00
 0.5813203344220E+00
 0.7315350532325E+00
 0.8722508657296E+00
 0.1003639695491E+01
 0.1125954874922E+01
 0.1239569636343E+01
 0.1344988508600E+01
 0.1442817733523E+01
 0.1533694354092E+01
 0.1618195709963E+01
 0.1696770782235E+01
 0.1769699513476E+01
 0.1837051883112E+01
 0.1898631773491E+01
 0.1953904097276E+01
 0.2001926490008E+01
 0.2041309001732E+01
 0.2070204889075E+01
 0.2522327251252E+00
 0.4200260212044E+00
 0.5792243292183E+00
 0.7289560930023E+00
 0.8692088679873E+00
 0.1000102213519E+01
 0.1121867335831E+01
 0.1234877822777E+01
 0.1339651246152E+01
 0.1436809514680E+01
 0.1527000032643E+01
 0.1610802448361E+01
 0.1688663849518E+01
 0.1760862786861E+01
 0.1827469913253E+01
 0.1888292539687E+01
 0.1942802031470E+01
 0.1990068258357E+01
 0.2028728100882E+01
 0.2056996387023E+01
 0.2513594563523E+00
 0.4181700634469E+00
 0.5766475917441E+00
 0.7257863034783E+00
 0.8654667210814E+00
 0.9957438054308E+00
 0.1116822433602E+01
 0.1229077891237E+01
 0.1333044948707E+01
 0.1429365577250E+01
 0.1518700257518E+01
 0.1601631392058E+01
 0.1678603603924E+01
 0.1749893726007E+01
 0.1815573156735E+01
 0.1875453007398E+01
 0.1929011330291E+01
 0.1975330633599E+01
 0.2013077725573E+01
 0.2040542651813E+01
 0.2503300861932E+00
 0.4159853016967E+00
 0.5736192082559E+00
 0.7220617710108E+00
 0.8610645867562E+00
 0.9906064384473E+00
 0.1110862631049E+01
 0.1222212370349E+01
 0.1325212390531E+01
 0.1420529426876E+01
 0.1508839798288E+01
 0.1590728960923E+01
 0.1666638397106E+01
 0.1736842928402E+01
 0.1801414798656E+01
 0.1860169143535E+01
 0.1912590195079E+01
 0.1957771711058E+01
 0.1994410784146E+01
 0.2020885528214E+01
 0.2491548521823E+00
 0.4134951724094E+00
 0.5701743523722E+00
 0.7178259667846E+00
 0.8560505955538E+00
 0.9847401398311E+00
 0.1104038318501E+01
 0.1214331581002E+01
 0.1316204135916E+01
 0.1410352540087E+01
 0.1497471733760E+01
 0.1578150286656E+01
 0.1652825687083E+01
 0.1721770495771E+01
 0.1785058011812E+01
 0.1842507614303E+01
 0.1893608560282E+01
 0.1937462439200E+01
 0.1972793372834E+01
 0.1998079402150E+01
 0.2478458164364E+00
 0.4107273297011E+00
 0.5663544722938E+00
 0.7131298661455E+00
 0.8504808216404E+00
 0.9782028080069E+00
 0.1096407486937E+01
 0.1205493221406E+01
 0.1306078093867E+01
 0.1398893943857E+01
 0.1484657096830E+01
 0.1563958923083E+01
 0.1637231768950E+01
 0.1704745725030E+01
 0.1766575580057E+01
 0.1822545386225E+01
 0.1872147859525E+01
 0.1914487019285E+01
 0.1948306296919E+01
 0.1972193548050E+01
 0.2464169419973E+00
 0.4077138452214E+00
 0.5622075445246E+00
 0.7080321111796E+00
 0.8444192600276E+00
 0.9710599851240E+00
 0.1088035330959E+01
 0.1195761861870E+01
 0.1294898973636E+01
 0.1386219701163E+01
 0.1470464449868E+01
 0.1548226525010E+01
 0.1619931502062E+01
 0.1685846784111E+01
 0.1746049458572E+01
 0.1800369217387E+01
 0.1848300561571E+01
 0.1888942893802E+01
 0.1921046484222E+01
 0.1943314363652E+01
 0.2448842002193E+00
 0.4044914844884E+00
 0.5577884159028E+00
 0.7025992300273E+00
 0.8379378100491E+00
 0.9633845887777E+00
 0.1078993777142E+01
 0.1185208344086E+01
 0.1282737633241E+01
 0.1372402289960E+01
 0.1454969378710E+01
 0.1531032500099E+01
 0.1601008067630E+01
 0.1665160420729E+01
 0.1723570281191E+01
 0.1776075025050E+01
 0.1822169588240E+01
 0.1860940128037E+01
 0.1891127072840E+01
 0.1911545228097E+01
 0.2432657196562E+00
 0.4011020855211E+00
 0.5531592586480E+00
 0.6969059244801E+00
 0.8311162630758E+00
 0.9552565932810E+00
 0.1069360926435E+01
 0.1173909074107E+01
 0.1269670307278E+01
 0.1357519851498E+01
 0.1438253869992E+01
 0.1512463608729E+01
 0.1580552778682E+01
 0.1642781772190E+01
 0.1699236847864E+01
 0.1749767003588E+01
 0.1793867603089E+01
 0.1830600781478E+01
 0.1858674472763E+01
 0.1876998703946E+01
 0.2415819914314E+00
 0.3975930767993E+00
 0.5483901704092E+00
 0.6910354372641E+00
 0.8240422876201E+00
 0.9467626453128E+00
 0.1059220395425E+01
 0.1161945196821E+01
 0.1255777702488E+01
 0.1341655284038E+01
 0.1420405519795E+01
 0.1492613445659E+01
 0.1558664935859E+01
 0.1618814387023E+01
 0.1673155712507E+01
 0.1721556392682E+01
 0.1763515621529E+01
 0.1798058925267E+01
 0.1823825384849E+01
 0.1839783699694E+01
 0.2398561512325E+00
 0.3940181882612E+00
 0.5435599631283E+00
 0.6850800138712E+00
 0.8168114048066E+00
 0.9379956035564E+00
 0.1048660553596E+01
 0.1149401659384E+01
 0.1241143978759E+01
 0.1324895204797E+01
 0.1401516561081E+01
 0.1471581730029E+01
 0.1535451692003E+01
 0.1593370662334E+01
 0.1645441268692E+01
 0.1691560011005E+01
 0.1731240453266E+01
 0.1763459756974E+01
 0.1786731926981E+01
 0.1800021569538E+01
 0.2381143811424E+00
 0.3904384353758E+00
 0.5387571968233E+00
 0.6791414589659E+00
 0.8095269216599E+00
 0.9290539646972E+00
 0.1037773629559E+01
 0.1136366139331E+01
 0.1225855591441E+01
 0.1307328766300E+01
 0.1381682692122E+01
 0.1449473215559E+01
 0.1511027612440E+01
 0.1566572686124E+01
 0.1616216945714E+01
 0.1659898990664E+01
 0.1697170175870E+01
 0.1726956563664E+01
 0.1747570924723E+01
 0.1757880204131E+01
 0.2363864711734E+00
 0.3869234988474E+00
 0.5340815176889E+00
 0.6733317732495E+00
 0.8022997600656E+00
 0.9200411422067E+00
 0.1026654683331E+01
 0.1122927853552E+01
 0.1210000003579E+01
 0.1289046357711E+01
 0.1361001820983E+01
 0.1426396316339E+01
 0.1485513355598E+01
 0.1538553118778E+01
 0.1585618567692E+01
 0.1626699587613E+01
 0.1661427110240E+01
 0.1688703124261E+01
 0.1706549679177E+01
 0.1713585611908E+01
 0.2347066683706E+00
 0.3835536767023E+00
 0.5296454327505E+00
 0.6677737750383E+00
 0.7952480840400E+00
 0.9110645125368E+00
 0.1015400452419E+01
 0.1109176237801E+01
 0.1193664224115E+01
 0.1270138099885E+01
 0.1339572731618E+01
 0.1402461737407E+01
 0.1459033401631E+01
 0.1509453343365E+01
 0.1553800858027E+01
 0.1592100336996E+01
 0.1624119459629E+01
 0.1648833247872E+01
 0.1663903477912E+01
 0.1667439453249E+01
 0.2331148702471E+00
 0.3804230084045E+00
 0.5255764447192E+00
 0.6626016467396E+00
 0.7884963799000E+00
 0.9022342552407E+00
 0.1004108072056E+01
 0.1095199640629E+01
 0.1176933167480E+01
 0.1250692082042E+01
 0.1317493627066E+01
 0.1377781479278E+01
 0.1431714274843E+01
 0.1479417832609E+01
 0.1520936388133E+01
 0.1556282441572E+01
 0.1585337835063E+01
 0.1607412401121E+01
 0.1619872158711E+01
 0.1619888590770E+01
 0.2316589998214E+00
 0.3776427769522E+00
 0.5220216183944E+00
 0.6579596056568E+00
 0.7821736902885E+00
 0.8936625065715E+00
 0.9928736803743E+00
 0.1081083506994E+01
 0.1159888914498E+01
 0.1230791613658E+01
 0.1294860092466E+01
 0.1352468777152E+01
 0.1403683802570E+01
 0.1448590388034E+01
 0.1487196899540E+01
 0.1519484141777E+01
 0.1545276411615E+01
 0.1564279997757E+01
 0.1574602980740E+01
 0.1571706397441E+01
 0.2303894358740E+00
 0.3753677717437E+00
 0.5191474794268E+00
 0.6539951774054E+00
 0.7764125390129E+00
 0.8854632328058E+00
 0.9817913180419E+00
 0.1066907152023E+01
 0.1142608363856E+01
 0.1210519104401E+01
 0.1271753411446E+01
 0.1326640017228E+01
 0.1375078426009E+01
 0.1417103007561E+01
 0.1452750335666E+01
 0.1481925638781E+01
 0.1504362764739E+01
 0.1519471284439E+01
 0.1526945834926E+01
 0.1525395969487E+01
 0.1058949914316E+01
 0.1194036260645E+01
 0.8041723072515E+00
 0.6235872143212E+00
 0.5198312176989E+00
 0.4523173965006E+00
 0.4006944879124E+00
 0.3557558905686E+00
 0.3124536944088E+00
 0.2682477517964E+00
 0.2215076085820E+00
 0.1708274353743E+00
 0.1234429947713E+00
 0.8522408844484E-01
 0.5623340049755E-01
 0.3624396938440E-01
 0.2189138546442E-01
 0.1042822254613E-01
 0.1243770069357E-02
 0.1596941510638E-02
 0.8204257706943E+00
 0.1220340804869E+01
 0.9577670818572E+00
 0.7397825150599E+00
 0.6121098319368E+00
 0.5297261289584E+00
 0.4697317887181E+00
 0.4200677901785E+00
 0.3744476982888E+00
 0.3293569184569E+00
 0.2825738405752E+00
 0.2331368501075E+00
 0.1867248182704E+00
 0.1468888629612E+00
 0.1134677625223E+00
 0.8685963254593E-01
 0.6472334228634E-01
 0.4457649224695E-01
 0.2610379674190E-01
 0.1185218727753E-01
 0.6648391968123E+00
 0.1084477792501E+01
 0.1010169871983E+01
 0.8351518677772E+00
 0.6982589018562E+00
 0.6058968843796E+00
 0.5391001156147E+00
 0.4856099907293E+00
 0.4381820503239E+00
 0.3926416471017E+00
 0.3464305380352E+00
 0.2982449893278E+00
 0.2519918348522E+00
 0.2108684696435E+00
 0.1747620498893E+00
 0.1437084012828E+00
 0.1161878437676E+00
 0.9036954159730E-01
 0.6615466955417E-01
 0.4777638786801E-01
 0.5573728656397E+00
 0.9553465845288E+00
 0.9903259600937E+00
 0.8897750121199E+00
 0.7710607822127E+00
 0.6773113463614E+00
 0.6070732991383E+00
 0.5512203916979E+00
 0.5028423392548E+00
 0.4574836510517E+00
 0.4123069619203E+00
 0.3655566967223E+00
 0.3197557052034E+00
 0.2779659331893E+00
 0.2403736122351E+00
 0.2067779275309E+00
 0.1762129983171E+00
 0.1474800706210E+00
 0.1213884418036E+00
 0.1037433766310E+00
 0.4794112511244E+00
 0.8447901635429E+00
 0.9448171571573E+00
 0.9084755103495E+00
 0.8237136924758E+00
 0.7401323133480E+00
 0.6714515706312E+00
 0.6155733972279E+00
 0.5674905134805E+00
 0.5231188565119E+00
 0.4795359457866E+00
 0.4346547409395E+00
 0.3899183455858E+00
 0.3483082608416E+00
 0.3103775843162E+00
 0.2758748294176E+00
 0.2443161477374E+00
 0.2151410503011E+00
 0.1899722377126E+00
 0.1758032234442E+00
 0.4212813575575E+00
 0.7533023005907E+00
 0.8912736241210E+00
 0.9049796789383E+00
 0.8565335862254E+00
 0.7913634049861E+00
 0.7300229699268E+00
 0.6771837626874E+00
 0.6310794488234E+00
 0.5887232289391E+00
 0.5474501798272E+00
 0.5050441374979E+00
 0.4621453404894E+00
 0.4216562670208E+00
 0.3845070969404E+00
 0.3505297623183E+00
 0.3196882733432E+00
 0.2919491109697E+00
 0.2694765465425E+00
 0.2597901741140E+00
 0.3771289737382E+00
 0.6783064043872E+00
 0.8377165759428E+00
 0.8887584526661E+00
 0.8737539579485E+00
 0.8305077931999E+00
 0.7811432530377E+00
 0.7346361953348E+00
 0.6925167316681E+00
 0.6534330774520E+00
 0.6153423590100E+00
 0.5761452410955E+00
 0.5359335039841E+00
 0.4975304891673E+00
 0.4622214390716E+00
 0.4299990058646E+00
 0.4012084149560E+00
 0.3761819701704E+00
 0.3572893406880E+00
 0.3519953409424E+00
 0.3431721734365E+00
 0.6170497643098E+00
 0.7876460952443E+00
 0.8659605242463E+00
 0.8797238115889E+00
 0.8588588879266E+00
 0.8242279946308E+00
 0.7868611232932E+00
 0.7507928884854E+00
 0.7163847927773E+00
 0.6824736950841E+00
 0.6473059756299E+00
 0.6106574732712E+00
 0.5752796895896E+00
 0.5427742893717E+00
 0.5133218272187E+00
 0.4875567545946E+00
 0.4659996166915E+00
 0.4509285258413E+00
 0.4493204088656E+00
 0.3168375081823E+00
 0.5670995217333E+00
 0.7424833245176E+00
 0.8404088644280E+00
 0.8780558052988E+00
 0.8783278960736E+00
 0.8595831862424E+00
 0.8333150368219E+00
 0.8051147472239E+00
 0.7767844365977E+00
 0.7481062093145E+00
 0.7178294484638E+00
 0.6856085109270E+00
 0.6541345237941E+00
 0.6252769813568E+00
 0.5993984638672E+00
 0.5773213200910E+00
 0.5595949048958E+00
 0.5481793018953E+00
 0.5492726149587E+00
 0.2963079440192E+00
 0.5264262801009E+00
 0.7026330700693E+00
 0.8144381782524E+00
 0.8714962666644E+00
 0.8908598105688E+00
 0.8880104968204E+00
 0.8739401987918E+00
 0.8549841170955E+00
 0.8339767921379E+00
 0.8115489807893E+00
 0.7870105151990E+00
 0.7600338227034E+00
 0.7332554520462E+00
 0.7087576973806E+00
 0.6870615615627E+00
 0.6690841467328E+00
 0.6552805696322E+00
 0.6471385960026E+00
 0.6498907785359E+00
 0.2802628788356E+00
 0.4933648496218E+00
 0.6679990017204E+00
 0.7894352634936E+00
 0.8620455561416E+00
 0.8981777981644E+00
 0.9105089172231E+00
 0.9090182466369E+00
 0.9001905388513E+00
 0.8874865157725E+00
 0.8722017241182E+00
 0.8541756409540E+00
 0.8331766352417E+00
 0.8117779125498E+00
 0.7922140067855E+00
 0.7751347923460E+00
 0.7614796252751E+00
 0.7515305895974E+00
 0.7462098132566E+00
 0.7496584944415E+00
 0.2677199270419E+00
 0.4665535940401E+00
 0.6382419613527E+00
 0.7661824186869E+00
 0.8511184668897E+00
 0.9017053989663E+00
 0.9280901536477E+00
 0.9390242966692E+00
 0.9407520919227E+00
 0.9370209800957E+00
 0.9295827206292E+00
 0.9187180824362E+00
 0.9043144804717E+00
 0.8888543816109E+00
 0.8746585307791E+00
 0.8624776109170E+00
 0.8532291956704E+00
 0.8469905143217E+00
 0.8440738358143E+00
 0.8474228169645E+00
 0.2579340614249E+00
 0.4448768724661E+00
 0.6129144432429E+00
 0.7450745004431E+00
 0.8396882834983E+00
 0.9025683800453E+00
 0.9416811723664E+00
 0.9645145396651E+00
 0.9768429151788E+00
 0.9824457141690E+00
 0.9833365130240E+00
 0.9801221192196E+00
 0.9727917737694E+00
 0.9636922247934E+00
 0.9551585877133E+00
 0.9480191580590E+00
 0.9431586680857E+00
 0.9404675733975E+00
 0.9396484885022E+00
 0.9423253184852E+00
 0.2503308549805E+00
 0.4274166912335E+00
 0.5915319260983E+00
 0.7262577098339E+00
 0.8284016452938E+00
 0.9016282615936E+00
 0.9520815205760E+00
 0.9860511376873E+00
 0.1008727720921E+01
 0.1023747643909E+01
 0.1033224911579E+01
 0.1037973636571E+01
 0.1038043266372E+01
 0.1035586029338E+01
 0.1032871921905E+01
 0.1030786463407E+01
 0.1030205213015E+01
 0.1030907051776E+01
 0.1032040283736E+01
 0.1033746217829E+01
 0.2444607972155E+00
 0.4134136352078E+00
 0.5736109250492E+00
 0.7097196412805E+00
 0.8176661771270E+00
 0.8995248015144E+00
 0.9599521621559E+00
 0.1004157335877E+01
 0.1036710870807E+01
 0.1060997011546E+01
 0.1079107713494E+01
 0.1091957575195E+01
 0.1099605580182E+01
 0.1103942625608E+01
 0.1107081196351E+01
 0.1109935000565E+01
 0.1113422806346E+01
 0.1117359130768E+01
 0.1120485153670E+01
 0.1121258769828E+01
 0.2399669730408E+00
 0.4022356303255E+00
 0.5586890758073E+00
 0.6953487997101E+00
 0.8077162394628E+00
 0.8967176139066E+00
 0.9658210175217E+00
 0.1019294152863E+01
 0.1061100680152E+01
 0.1094314061776E+01
 0.1120919185335E+01
 0.1141844865034E+01
 0.1157113924198E+01
 0.1168293419283E+01
 0.1177228648359E+01
 0.1184793092309E+01
 0.1192003531313E+01
 0.1198941064457E+01
 0.1204267536843E+01
 0.1204584509911E+01
 0.2365612394163E+00
 0.3933527547199E+00
 0.5463357578578E+00
 0.6829748699925E+00
 0.7986621470008E+00
 0.8935230730871E+00
 0.9700964601586E+00
 0.1031851383150E+01
 0.1082186791322E+01
 0.1123843096122E+01
 0.1158645251799E+01
 0.1187473171057E+01
 0.1210283896220E+01
 0.1228280377592E+01
 0.1242936904764E+01
 0.1254938487250E+01
 0.1265347791667E+01
 0.1274822348314E+01
 0.1282589885335E+01
 0.1283526154094E+01
 0.2340049000825E+00
 0.3863173733428E+00
 0.5361581444397E+00
 0.6723976746634E+00
 0.7905265081235E+00
 0.8901454771446E+00
 0.9730838976170E+00
 0.1042147486636E+01
 0.1100227829150E+01
 0.1149734225296E+01
 0.1192304806757E+01
 0.1228727811272E+01
 0.1258884372531E+01
 0.1283612013065E+01
 0.1303956088933E+01
 0.1320270069558E+01
 0.1333303435605E+01
 0.1344293641370E+01
 0.1354387479640E+01
 0.1357785978134E+01
 0.2320911059926E+00
 0.3807441019777E+00
 0.5278142721164E+00
 0.6634062140995E+00
 0.7832701348305E+00
 0.8867029339282E+00
 0.9750029401911E+00
 0.1050434596756E+01
 0.1115446209070E+01
 0.1172133062611E+01
 0.1221935641843E+01
 0.1265528010832E+01
 0.1302717879521E+01
 0.1334008358746E+01
 0.1360037441005E+01
 0.1380794968699E+01
 0.1396479245741E+01
 0.1407626673253E+01
 0.1417908694835E+01
 0.1426423494658E+01
 0.2305866214923E+00
 0.3763583869172E+00
 0.5210236680709E+00
 0.6557844660325E+00
 0.7768118733572E+00
 0.8832482258901E+00
 0.9760040318959E+00
 0.1056907143795E+01
 0.1128026341038E+01
 0.1191175533671E+01
 0.1247592899234E+01
 0.1297809917388E+01
 0.1341616392991E+01
 0.1379200350571E+01
 0.1410817692261E+01
 0.1436260577254E+01
 0.1455263315559E+01
 0.1467430435096E+01
 0.1473911264777E+01
 0.1484910502493E+01
 0.2305866214185E+00
 0.3763583868878E+00
 0.5210236680975E+00
 0.6557844659125E+00
 0.7768118729183E+00
 0.8832482250758E+00
 0.9760040307608E+00
 0.1056907142464E+01
 0.1128026339657E+01
 0.1191175532367E+01
 0.1247592898092E+01
 0.1297809916450E+01
 0.1341616392266E+01
 0.1379200349988E+01
 0.1410817691759E+01
 0.1436260576788E+01
 0.1455263315085E+01
 0.1467430434578E+01
 0.1473911264134E+01
 0.1484910501663E+01
 0.2320911060268E+00
 0.3807441021419E+00
 0.5278142723539E+00
 0.6634062141439E+00
 0.7832701344766E+00
 0.8867029331172E+00
 0.9750029389937E+00
 0.1050434595320E+01
 0.1115446207565E+01
 0.1172133061182E+01
 0.1221935640579E+01
 0.1265528009773E+01
 0.1302717878674E+01
 0.1334008358009E+01
 0.1360037440297E+01
 0.1380794967959E+01
 0.1396479244907E+01
 0.1407626672262E+01
 0.1417908693568E+01
 0.1426423493164E+01
 0.2340049002535E+00
 0.3863173737517E+00
 0.5361581449325E+00
 0.6723976749056E+00
 0.7905265078802E+00
 0.8901454763604E+00
 0.9730838963844E+00
 0.1042147485130E+01
 0.1100227827564E+01
 0.1149734223786E+01
 0.1192304805422E+01
 0.1228727810150E+01
 0.1258884371623E+01
 0.1283612012234E+01
 0.1303956088075E+01
 0.1320270068591E+01
 0.1333303434438E+01
 0.1344293639915E+01
 0.1354387477806E+01
 0.1357785975970E+01
 0.2365612397488E+00
 0.3933527554200E+00
 0.5463357586485E+00
 0.6829748704628E+00
 0.7986621468898E+00
 0.8935230723495E+00
 0.9700964589147E+00
 0.1031851381605E+01
 0.1082186789692E+01
 0.1123843094580E+01
 0.1158645250445E+01
 0.1187473169931E+01
 0.1210283895309E+01
 0.1228280376726E+01
 0.1242936903811E+01
 0.1254938486103E+01
 0.1265347790208E+01
 0.1274822346451E+01
 0.1282589882991E+01
 0.1283526151244E+01
 0.2399669735597E+00
 0.4022356313620E+00
 0.5586890769342E+00
 0.6953488004332E+00
 0.8077162394996E+00
 0.8967176132303E+00
 0.9658210162870E+00
 0.1019294151309E+01
 0.1061100678519E+01
 0.1094314060248E+01
 0.1120919184016E+01
 0.1141844863960E+01
 0.1157113923345E+01
 0.1168293418441E+01
 0.1177228647369E+01
 0.1184793091040E+01
 0.1192003529630E+01
 0.1198941062263E+01
 0.1204267534041E+01
 0.1204584506378E+01
 0.2444607979467E+00
 0.4134136366250E+00
 0.5736109265457E+00
 0.7097196422740E+00
 0.8176661773199E+00
 0.8995248009080E+00
 0.9599521609468E+00
 0.1004157334341E+01
 0.1036710869208E+01
 0.1060997010078E+01
 0.1079107712261E+01
 0.1091957574231E+01
 0.1099605579443E+01
 0.1103942624850E+01
 0.1107081195388E+01
 0.1109934999246E+01
 0.1113422804519E+01
 0.1117359128325E+01
 0.1120485150470E+01
 0.1121258765639E+01
 0.2503308559514E+00
 0.4274166930752E+00
 0.5915319279917E+00
 0.7262577111064E+00
 0.8284016456421E+00
 0.9016282610589E+00
 0.9520815194047E+00
 0.9860511361942E+00
 0.1008727719393E+01
 0.1023747642545E+01
 0.1033224910482E+01
 0.1037973635769E+01
 0.1038043265803E+01
 0.1035586028722E+01
 0.1032871921035E+01
 0.1030786462118E+01
 0.1030205211135E+01
 0.1030907049173E+01
 0.1032040280213E+01
 0.1033746213040E+01
 0.2579340626646E+00
 0.4448768747750E+00
 0.6129144455527E+00
 0.7450745019920E+00
 0.8396882839910E+00
 0.9025683795767E+00
 0.9416811712409E+00
 0.9645145382384E+00
 0.9768429137558E+00
 0.9824457129524E+00
 0.9833365121106E+00
 0.9801221186299E+00
 0.9727917734211E+00
 0.9636922243750E+00
 0.9551585870031E+00
 0.9480191568780E+00
 0.9431586662458E+00
 0.9404675707341E+00
 0.9396484847506E+00
 0.9423253131820E+00
 0.2677199285815E+00
 0.4665535968568E+00
 0.6382419640889E+00
 0.7661824204964E+00
 0.8511184675039E+00
 0.9017053985505E+00
 0.9280901525729E+00
 0.9390242953312E+00
 0.9407520906399E+00
 0.9370209790668E+00
 0.9295827199421E+00
 0.9187180821034E+00
 0.9043144803883E+00
 0.8888543814397E+00
 0.8746585302903E+00
 0.8624776099231E+00
 0.8532291939668E+00
 0.8469905117084E+00
 0.8440738319519E+00
 0.8474228112670E+00
 0.2802628807086E+00
 0.4933648529836E+00
 0.6679990048796E+00
 0.7894352655318E+00
 0.8620455568413E+00
 0.8981777977814E+00
 0.9105089162019E+00
 0.9090182454101E+00
 0.9001905377421E+00
 0.8874865149684E+00
 0.8722017236946E+00
 0.8541756409144E+00
 0.8331766354579E+00
 0.8117779126659E+00
 0.7922140065715E+00
 0.7751347916121E+00
 0.7614796238042E+00
 0.7515305871537E+00
 0.7462098094241E+00
 0.7496584885057E+00
 0.2963079462615E+00
 0.5264262840392E+00
 0.7026330736312E+00
 0.8144381804677E+00
 0.8714962673997E+00
 0.8908598101932E+00
 0.8880104958564E+00
 0.8739401977002E+00
 0.8549841161929E+00
 0.8339767915914E+00
 0.8115489806590E+00
 0.7870105154791E+00
 0.7600338232421E+00
 0.7332554524775E+00
 0.7087576974832E+00
 0.6870615611517E+00
 0.6690841455862E+00
 0.6552805674832E+00
 0.6471385923624E+00
 0.6498907725564E+00
 0.3168375108317E+00
 0.5670995262699E+00
 0.7424833284389E+00
 0.8404088667449E+00
 0.8780558060064E+00
 0.8783278956782E+00
 0.8595831853434E+00
 0.8333150358930E+00
 0.8051147465591E+00
 0.7767844363356E+00
 0.7481062094977E+00
 0.7178294490785E+00
 0.6856085117973E+00
 0.6541345245538E+00
 0.6252769818023E+00
 0.5993984638269E+00
 0.5773213193494E+00
 0.5595949031653E+00
 0.5481792986253E+00
 0.5492726091690E+00
 0.3431721765325E+00
 0.6170497694512E+00
 0.7876460994504E+00
 0.8659605265614E+00
 0.8797238121943E+00
 0.8588588874888E+00
 0.8242279938139E+00
 0.7868611225591E+00
 0.7507928880873E+00
 0.7163847928182E+00
 0.6824736955903E+00
 0.6473059765814E+00
 0.6106574744675E+00
 0.5752796906745E+00
 0.5427742901675E+00
 0.5133218275760E+00
 0.4875567543182E+00
 0.4659996154907E+00
 0.4509285231245E+00
 0.4493204035334E+00
 0.3771289773199E+00
 0.6783064101149E+00
 0.8377165803162E+00
 0.8887584548452E+00
 0.8737539583739E+00
 0.8305077927122E+00
 0.7811432523349E+00
 0.7346361948317E+00
 0.6925167315597E+00
 0.6534330778044E+00
 0.6153423598376E+00
 0.5761452423738E+00
 0.5359335054862E+00
 0.4975304905570E+00
 0.4622214402037E+00
 0.4299990066190E+00
 0.4012084151736E+00
 0.3761819695807E+00
 0.3572893386942E+00
 0.3519953363578E+00
 0.4212813616596E+00
 0.7533023068453E+00
 0.8912736284845E+00
 0.9049796808162E+00
 0.8565335864063E+00
 0.7913634044712E+00
 0.7300229693882E+00
 0.6771837624514E+00
 0.6310794490177E+00
 0.5887232295997E+00
 0.5474501809639E+00
 0.5050441390824E+00
 0.4621453422635E+00
 0.4216562686782E+00
 0.3845070983712E+00
 0.3505297634356E+00
 0.3196882740389E+00
 0.2919491110213E+00
 0.2694765453985E+00
 0.2597901705626E+00
 0.4794112557696E+00
 0.8447901701957E+00
 0.9448171612511E+00
 0.9084755117454E+00
 0.8237136923936E+00
 0.7401323128765E+00
 0.6714515703213E+00
 0.6155733972866E+00
 0.5674905139771E+00
 0.5231188574664E+00
 0.4795359472120E+00
 0.4346547428015E+00
 0.3899183475870E+00
 0.3483082627142E+00
 0.3103775859841E+00
 0.2758748308256E+00
 0.2443161488382E+00
 0.2151410509471E+00
 0.1899722374608E+00
 0.1758032211572E+00
 0.5573728708218E+00
 0.9553465913246E+00
 0.9903259635534E+00
 0.8897750128845E+00
 0.7710607819545E+00
 0.6773113460555E+00
 0.6070732991173E+00
 0.5512203920602E+00
 0.5028423400385E+00
 0.4574836522770E+00
 0.4123069636094E+00
 0.3655566988300E+00
 0.3197557073794E+00
 0.2779659352123E+00
 0.2403736140555E+00
 0.2067779291177E+00
 0.1762129996863E+00
 0.1474800717143E+00
 0.1213884423460E+00
 0.1037433756973E+00
 0.6648392024632E+00
 0.1084477798959E+01
 0.1010169874322E+01
 0.8351518679659E+00
 0.6982589016619E+00
 0.6058968843707E+00
 0.5391001159132E+00
 0.4856099913821E+00
 0.4381820513676E+00
 0.3926416485690E+00
 0.3464305399623E+00
 0.2982449916513E+00
 0.2519918371494E+00
 0.2108684717445E+00
 0.1747620517567E+00
 0.1437084028979E+00
 0.1161878452067E+00
 0.9036954288344E-01
 0.6615467060144E-01
 0.4777638808885E-01
 0.8204257765706E+00
 0.1220340809820E+01
 0.9577670829078E+00
 0.7397825151720E+00
 0.6121098320949E+00
 0.5297261293189E+00
 0.4697317893277E+00
 0.4200677910920E+00
 0.3744476995589E+00
 0.3293569201334E+00
 0.2825738427155E+00
 0.2331368526295E+00
 0.1867248206440E+00
 0.1468888650669E+00
 0.1134677643063E+00
 0.8685963400055E-01
 0.6472334354908E-01
 0.4457649338840E-01
 0.2610379779909E-01
 0.1185218798587E-01
 0.1058949919436E+01
 0.1194036263484E+01
 0.8041723082067E+00
 0.6235872150024E+00
 0.5198312183502E+00
 0.4523173972290E+00
 0.4006944887966E+00
 0.3557558917036E+00
 0.3124536958740E+00
 0.2682477536452E+00
 0.2215076109000E+00
 0.1708274381014E+00
 0.1234429972402E+00
 0.8522409046272E-01
 0.5623340201724E-01
 0.3624397046028E-01
 0.2189138628259E-01
 0.1042822316124E-01
 0.1243770485571E-02
 0.1596941322312E-02
 0.1502478257302E+01
 0.1439458597151E+01
 0.1375035415152E+01
 0.1307181107655E+01
 0.1234268206334E+01
 0.1156211838110E+01
 0.1073151537599E+01
 0.9853468773648E+00
 0.8931376033297E+00
 0.7969737725086E+00
 0.6974672222467E+00
 0.5954668087383E+00
 0.4921637610402E+00
 0.3892393569137E+00
 0.2890701825277E+00
 0.1950068348175E+00
 0.1117274554896E+00
 0.4563094934316E-01
 0.5847045268766E-02
 0.4223690766390E-02
 0.1553433164088E+01
 0.1503265611151E+01
 0.1442065968012E+01
 0.1375948314774E+01
 0.1305318087532E+01
 0.1229816842669E+01
 0.1149265078372E+01
 0.1063632561193E+01
 0.9730130489673E+00
 0.8776160915360E+00
 0.7777926235400E+00
 0.6740911372102E+00
 0.5673507477164E+00
 0.4588452475757E+00
 0.3505037395299E+00
 0.2452510565760E+00
 0.1475482243378E+00
 0.6426747165348E-01
 0.7786514123802E-02
 0.1534893522067E-01
 0.1602582969963E+01
 0.1558733369625E+01
 0.1505297208335E+01
 0.1444284417242E+01
 0.1377732407463E+01
 0.1306054047076E+01
 0.1229228134781E+01
 0.1147179792190E+01
 0.1059878752275E+01
 0.9673693765535E+00
 0.8697908128753E+00
 0.7674108714779E+00
 0.6606851163364E+00
 0.5503564630691E+00
 0.4376226108095E+00
 0.3244280733970E+00
 0.2139931133553E+00
 0.1119026717343E+00
 0.2853897410657E-01
 0.1761122931883E-01
 0.1651668397172E+01
 0.1612371691519E+01
 0.1565177530045E+01
 0.1510447096822E+01
 0.1449372968233E+01
 0.1382728582842E+01
 0.1310763737749E+01
 0.1233519711854E+01
 0.1150986527524E+01
 0.1063172200295E+01
 0.9701361074937E+00
 0.8720146671773E+00
 0.7690550857992E+00
 0.6616703953896E+00
 0.5505364612160E+00
 0.4367704450988E+00
 0.3222877308808E+00
 0.2105318567602E+00
 0.1082932055511E+00
 0.3158169719030E-01
 0.1699813194704E+01
 0.1664645202192E+01
 0.1622887966513E+01
 0.1574151023513E+01
 0.1519011896858E+01
 0.1458060617607E+01
 0.1391654694635E+01
 0.1319951548682E+01
 0.1243018263734E+01
 0.1160903346379E+01
 0.1073677975518E+01
 0.9814613415333E+00
 0.8844412609232E+00
 0.7828976944074E+00
 0.6772355653821E+00
 0.5680364708580E+00
 0.4561367841820E+00
 0.3427548973856E+00
 0.2295999907004E+00
 0.1176115400715E+00
 0.1746466776852E+01
 0.1715305715928E+01
 0.1678452490391E+01
 0.1635265547498E+01
 0.1585896935146E+01
 0.1530710654850E+01
 0.1470009385845E+01
 0.1403983183397E+01
 0.1332738653582E+01
 0.1256342976885E+01
 0.1174852912892E+01
 0.1088326597217E+01
 0.9968186371405E+00
 0.9003551114852E+00
 0.7988767049874E+00
 0.6921199856615E+00
 0.5793682622443E+00
 0.4588807725939E+00
 0.3264371663179E+00
 0.1705229319582E+00
 0.1791176658993E+01
 0.1763938082262E+01
 0.1731593325044E+01
 0.1693455455092E+01
 0.1649427267248E+01
 0.1599662707363E+01
 0.1544350330512E+01
 0.1483627605445E+01
 0.1417567150676E+01
 0.1346184413065E+01
 0.1269440969092E+01
 0.1187229628914E+01
 0.1099332133655E+01
 0.1005335743013E+01
 0.9044826243732E+00
 0.7954014190558E+00
 0.6756183755407E+00
 0.5406432008221E+00
 0.3822210797234E+00
 0.1869790752645E+00
 0.1833593167049E+01
 0.1810143433662E+01
 0.1781938434812E+01
 0.1748325769134E+01
 0.1709060562702E+01
 0.1664123392455E+01
 0.1613562193800E+01
 0.1557405666444E+01
 0.1495624697734E+01
 0.1428112577723E+01
 0.1354661635684E+01
 0.1274921005808E+01
 0.1188321738442E+01
 0.1093951790906E+01
 0.9903536550156E+00
 0.8752002825991E+00
 0.7447811882808E+00
 0.5932235414425E+00
 0.4116287475145E+00
 0.1904360502049E+00
 0.1873447838983E+01
 0.1853596633187E+01
 0.1829159954614E+01
 0.1799538547813E+01
 0.1764391850541E+01
 0.1723552567721E+01
 0.1676917611922E+01
 0.1624370155977E+01
 0.1565729904991E+01
 0.1500714791310E+01
 0.1428898014157E+01
 0.1349646870768E+01
 0.1262030934486E+01
 0.1164685787048E+01
 0.1055615681958E+01
 0.9319173706322E+00
 0.7894215834406E+00
 0.6223285092776E+00
 0.4233658110670E+00
 0.1889370403595E+00
 0.1910551423114E+01
 0.1894083782525E+01
 0.1873070164260E+01
 0.1846951342439E+01
 0.1815310323322E+01
 0.1777845494496E+01
 0.1734297451551E+01
 0.1684382791747E+01
 0.1627741298438E+01
 0.1563888524302E+01
 0.1492163287119E+01
 0.1411660652806E+01
 0.1321142524293E+01
 0.1218919899939E+01
 0.1102705064945E+01
 0.9694445461626E+00
 0.8151795473339E+00
 0.6351024548703E+00
 0.4244268830977E+00
 0.1871761901417E+00
 0.1944730788222E+01
 0.1931380278546E+01
 0.1913458780931E+01
 0.1890406608723E+01
 0.1861731455831E+01
 0.1827004389963E+01
 0.1785810607912E+01
 0.1737694938737E+01
 0.1682111760360E+01
 0.1618376775643E+01
 0.1545615092422E+01
 0.1462700710309E+01
 0.1368184928240E+01
 0.1260215519942E+01
 0.1136457071718E+01
 0.9940408962236E+00
 0.8296166296204E+00
 0.6396932545554E+00
 0.4220965884010E+00
 0.1877220609285E+00
 0.1975844314348E+01
 0.1965301202317E+01
 0.1950133476488E+01
 0.1929741542488E+01
 0.1903551117733E+01
 0.1871011164955E+01
 0.1831558671594E+01
 0.1784574857993E+01
 0.1729341673704E+01
 0.1664999133171E+01
 0.1590501647970E+01
 0.1504572329042E+01
 0.1405657124258E+01
 0.1291885955249E+01
 0.1161057422301E+01
 0.1010681814226E+01
 0.8381561661517E+00
 0.6412751198335E+00
 0.4200285729369E+00
 0.1904975291721E+00
 0.2003772523025E+01
 0.1995708403254E+01
 0.1982946997354E+01
 0.1964826609430E+01
 0.1940685463030E+01
 0.1909856627159E+01
 0.1871641045215E+01
 0.1825273267583E+01
 0.1769886729581E+01
 0.1704480581820E+01
 0.1627888662892E+01
 0.1538752196982E+01
 0.1435500653884E+01
 0.1316350141811E+01
 0.1179336959665E+01
 0.1022418893347E+01
 0.8437131128463E+00
 0.6420752539452E+00
 0.4190706526452E+00
 0.1945606741922E+00
 0.2028411808100E+01
 0.2022494497143E+01
 0.2011792520720E+01
 0.1995574122589E+01
 0.1973090049476E+01
 0.1943566375091E+01
 0.1906183610772E+01
 0.1860051110144E+01
 0.1804182019102E+01
 0.1737471319915E+01
 0.1658678857311E+01
 0.1566420230290E+01
 0.1459170812454E+01
 0.1335292055912E+01
 0.1193095488286E+01
 0.1030971961990E+01
 0.8476478116441E+00
 0.6427748966288E+00
 0.4190220847904E+00
 0.1990617912938E+00
 0.2049674748371E+01
 0.2045575235438E+01
 0.2036595070214E+01
 0.2021933079261E+01
 0.2000757887102E+01
 0.1972200413609E+01
 0.1935338372565E+01
 0.1889178716398E+01
 0.1832642182340E+01
 0.1764552572905E+01
 0.1683633111686E+01
 0.1588513008467E+01
 0.1477749072227E+01
 0.1349869912332E+01
 0.1203454834094E+01
 0.1037269931348E+01
 0.8505185839715E+00
 0.6434248671728E+00
 0.4194383361532E+00
 0.2033995133202E+00
 0.2067490115995E+01
 0.2064885718547E+01
 0.2057303924567E+01
 0.2043879778276E+01
 0.2023709019649E+01
 0.1995841456814E+01
 0.1959270412311E+01
 0.1912922445406E+01
 0.1855650700732E+01
 0.1786234323114E+01
 0.1703386182472E+01
 0.1605771625458E+01
 0.1492042005162E+01
 0.1360888488009E+01
 0.1211125175597E+01
 0.1041820635069E+01
 0.8525347851600E+00
 0.6438969983977E+00
 0.4199271179698E+00
 0.2071939364888E+00
 0.2081802131219E+01
 0.2080378122148E+01
 0.2073887377900E+01
 0.2061409933625E+01
 0.2041980484818E+01
 0.2014583070132E+01
 0.1978144836981E+01
 0.1931531992152E+01
 0.1873550638056E+01
 0.1802954580683E+01
 0.1718461958833E+01
 0.1618782689756E+01
 0.1502659229704E+01
 0.1368924294808E+01
 0.1216582368021E+01
 0.1044932580055E+01
 0.8537924404696E+00
 0.6440769196668E+00
 0.4202335015460E+00
 0.2102300607936E+00
 0.2092569017494E+01
 0.2092019163379E+01
 0.2086328124982E+01
 0.2074531915054E+01
 0.2055617763477E+01
 0.2028519927949E+01
 0.1992116868117E+01
 0.1945232097114E+01
 0.1886640851585E+01
 0.1815084262426E+01
 0.1729292395378E+01
 0.1628017413861E+01
 0.1510078267676E+01
 0.1374419171706E+01
 0.1220187404403E+01
 0.1046847803117E+01
 0.8543969666426E+00
 0.6439478211610E+00
 0.4202647146179E+00
 0.2124217245723E+00
 0.2099761408366E+01
 0.2099787745084E+01
 0.2094619433689E+01
 0.2083261317829E+01
 0.2064668033417E+01
 0.2037740368521E+01
 0.2001324747049E+01
 0.1954217456631E+01
 0.1895175302921E+01
 0.1822934030898E+01
 0.1736235477143E+01
 0.1633864130344E+01
 0.1514693735751E+01
 0.1377745355074E+01
 0.1222261801397E+01
 0.1047816197779E+01
 0.8545207154211E+00
 0.6436179729015E+00
 0.4200893367277E+00
 0.2137926652421E+00
 0.2103361348701E+01
 0.2103673264704E+01
 0.2098762488267E+01
 0.2087617438559E+01
 0.2069176093755E+01
 0.2042322353384E+01
 0.2005886689498E+01
 0.1958652098253E+01
 0.1899366778799E+01
 0.1826764685877E+01
 0.1739594695217E+01
 0.1636658754454E+01
 0.1516859273658E+01
 0.1379256783254E+01
 0.1223142582423E+01
 0.1048144492222E+01
 0.8544335605623E+00
 0.6433202061439E+00
 0.4199024116688E+00
 0.2144424589958E+00
 0.2103361348665E+01
 0.2103673264633E+01
 0.2098762488164E+01
 0.2087617438425E+01
 0.2069176093594E+01
 0.2042322353201E+01
 0.2005886689301E+01
 0.1958652098052E+01
 0.1899366778606E+01
 0.1826764685702E+01
 0.1739594695074E+01
 0.1636658754354E+01
 0.1516859273609E+01
 0.1379256783262E+01
 0.1223142582487E+01
 0.1048144492335E+01
 0.8544335607097E+00
 0.6433202063008E+00
 0.4199024117932E+00
 0.2144424589827E+00
 0.2099761408259E+01
 0.2099787744874E+01
 0.2094619433378E+01
 0.2083261317425E+01
 0.2064668032929E+01
 0.2037740367967E+01
 0.2001324746452E+01
 0.1954217456019E+01
 0.1895175302326E+01
 0.1822934030356E+01
 0.1736235476692E+01
 0.1633864130016E+01
 0.1514693735575E+01
 0.1377745355064E+01
 0.1222261801553E+01
 0.1047816198081E+01
 0.8545207158275E+00
 0.6436179733398E+00
 0.4200893370759E+00
 0.2137926651946E+00
 0.2092569017316E+01
 0.2092019163029E+01
 0.2086328124464E+01
 0.2074531914377E+01
 0.2055617762658E+01
 0.2028519927015E+01
 0.1992116867102E+01
 0.1945232096066E+01
 0.1886640850555E+01
 0.1815084261474E+01
 0.1729292394565E+01
 0.1628017413244E+01
 0.1510078267302E+01
 0.1374419171605E+01
 0.1220187404576E+01
 0.1046847803536E+01
 0.8543969672402E+00
 0.6439478218217E+00
 0.4202647151459E+00
 0.2124217244772E+00
 0.2081802130973E+01
 0.2080378121661E+01
 0.2073887377175E+01
 0.2061409932673E+01
 0.2041980483661E+01
 0.2014583068804E+01
 0.1978144835530E+01
 0.1931531990638E+01
 0.1873550636551E+01
 0.1802954579270E+01
 0.1718461957596E+01
 0.1618782688779E+01
 0.1502659229056E+01
 0.1368924294536E+01
 0.1216582368137E+01
 0.1044932580524E+01
 0.8537924412032E+00
 0.6440769205065E+00
 0.4202335022226E+00
 0.2102300606416E+00
 0.2067490115685E+01
 0.2064885717927E+01
 0.2057303923637E+01
 0.2043879777048E+01
 0.2023709018149E+01
 0.1995841455080E+01
 0.1959270410400E+01
 0.1912922443392E+01
 0.1855650698704E+01
 0.1786234321176E+01
 0.1703386180735E+01
 0.1605771624032E+01
 0.1492042004146E+01
 0.1360888487473E+01
 0.1211125175570E+01
 0.1041820635518E+01
 0.8525347859797E+00
 0.6438969993875E+00
 0.4199271187843E+00
 0.2071939362875E+00
 0.2049674748001E+01
 0.2045575234689E+01
 0.2036595069083E+01
 0.2021933077759E+01
 0.2000757885254E+01
 0.1972200411456E+01
 0.1935338370170E+01
 0.1889178713844E+01
 0.1832642179732E+01
 0.1764552570366E+01
 0.1683633109354E+01
 0.1588513006484E+01
 0.1477749070724E+01
 0.1349869911413E+01
 0.1203454833816E+01
 0.1037269931693E+01
 0.8505185848256E+00
 0.6434248682960E+00
 0.4194383371174E+00
 0.2033995130948E+00
 0.2028411807677E+01
 0.2022494496270E+01
 0.2011792519393E+01
 0.1995574120815E+01
 0.1973090047277E+01
 0.1943566372508E+01
 0.1906183607869E+01
 0.1860051107011E+01
 0.1804182015855E+01
 0.1737471316694E+01
 0.1658678854279E+01
 0.1566420227622E+01
 0.1459170810321E+01
 0.1335292054464E+01
 0.1193095487621E+01
 0.1030971962125E+01
 0.8476478124729E+00
 0.6427748978809E+00
 0.4190220859486E+00
 0.1990617911021E+00
 0.2003772522555E+01
 0.1995708402266E+01
 0.1982946995840E+01
 0.1964826607390E+01
 0.1940685460483E+01
 0.1909856624140E+01
 0.1871641041784E+01
 0.1825273263830E+01
 0.1769886725628E+01
 0.1704480577822E+01
 0.1627888659031E+01
 0.1538752193465E+01
 0.1435500650928E+01
 0.1316350139620E+01
 0.1179336958401E+01
 0.1022418893086E+01
 0.8437131135213E+00
 0.6420752552772E+00
 0.4190706540283E+00
 0.1945606741101E+00
 0.1975844313837E+01
 0.1965301201221E+01
 0.1950133474793E+01
 0.1929741540189E+01
 0.1903551114839E+01
 0.1871011161490E+01
 0.1831558667612E+01
 0.1784574853577E+01
 0.1729341668973E+01
 0.1664999128286E+01
 0.1590501643127E+01
 0.1504572324477E+01
 0.1405657120232E+01
 0.1291885952030E+01
 0.1161057420135E+01
 0.1010681813281E+01
 0.8381561664460E+00
 0.6412751211293E+00
 0.4200285745662E+00
 0.1904975293274E+00
 0.1944730787676E+01
 0.1931380277350E+01
 0.1913458779068E+01
 0.1890406606177E+01
 0.1861731452596E+01
 0.1827004386051E+01
 0.1785810603361E+01
 0.1737694933616E+01
 0.1682111754778E+01
 0.1618376769752E+01
 0.1545615086423E+01
 0.1462700704452E+01
 0.1368184922823E+01
 0.1260215515300E+01
 0.1136457068192E+01
 0.9940408941117E+00
 0.8296166290897E+00
 0.6396932554985E+00
 0.4220965901810E+00
 0.1877220614791E+00
 0.1910551422539E+01
 0.1894083781240E+01
 0.1873070162242E+01
 0.1846951339660E+01
 0.1815310319757E+01
 0.1777845490137E+01
 0.1734297446415E+01
 0.1684382785880E+01
 0.1627741291926E+01
 0.1563888517275E+01
 0.1492163279762E+01
 0.1411660645366E+01
 0.1321142517083E+01
 0.1218919893339E+01
 0.1102705059393E+01
 0.9694445421105E+00
 0.8151795451656E+00
 0.6351024547341E+00
 0.4244268845944E+00
 0.1871761912039E+00
 0.1873447838387E+01
 0.1853596631831E+01
 0.1829159952463E+01
 0.1799538544817E+01
 0.1764391846655E+01
 0.1723552562912E+01
 0.1676917606180E+01
 0.1624370149317E+01
 0.1565729897463E+01
 0.1500714783008E+01
 0.1428898005223E+01
 0.1349646861415E+01
 0.1262030925005E+01
 0.1164685777827E+01
 0.1055615673492E+01
 0.9319173635170E+00
 0.7894215783218E+00
 0.6223285066983E+00
 0.4233658111307E+00
 0.1889370416666E+00
 0.1833593166438E+01
 0.1810143432247E+01
 0.1781938432537E+01
 0.1748325765926E+01
 0.1709060558493E+01
 0.1664123387186E+01
 0.1613562187434E+01
 0.1557405658963E+01
 0.1495624689147E+01
 0.1428112568072E+01
 0.1354661625057E+01
 0.1274920994349E+01
 0.1188321726381E+01
 0.1093951778582E+01
 0.9903536429164E+00
 0.8752002714001E+00
 0.7447811788691E+00
 0.5932235348730E+00
 0.4116287447098E+00
 0.1904360510307E+00
 0.1791176658374E+01
 0.1763938080800E+01
 0.1731593322659E+01
 0.1693455451690E+01
 0.1649427262740E+01
 0.1599662701673E+01
 0.1544350323579E+01
 0.1483627597225E+01
 0.1417567141137E+01
 0.1346184402200E+01
 0.1269440956924E+01
 0.1187229615509E+01
 0.1099332119149E+01
 0.1005335727648E+01
 0.9044826085496E+00
 0.7954014034185E+00
 0.6756183610926E+00
 0.5406431890624E+00
 0.3822210726919E+00
 0.1869790745147E+00
 0.1746466776238E+01
 0.1715305714441E+01
 0.1678452487928E+01
 0.1635265543947E+01
 0.1585896930406E+01
 0.1530710648838E+01
 0.1470009378487E+01
 0.1403983174628E+01
 0.1332738643342E+01
 0.1256342965121E+01
 0.1174852899565E+01
 0.1088326582311E+01
 0.9968186206814E+00
 0.9003550935720E+00
 0.7988766858489E+00
 0.6921199657539E+00
 0.5793682424236E+00
 0.4588807544203E+00
 0.3264371526095E+00
 0.1705229272253E+00
 0.1699813194111E+01
 0.1664645200705E+01
 0.1622887964007E+01
 0.1574151019864E+01
 0.1519011891970E+01
 0.1458060611401E+01
 0.1391654687038E+01
 0.1319951539621E+01
 0.1243018253133E+01
 0.1160903334158E+01
 0.1073677961594E+01
 0.9814613258227E+00
 0.8844412433485E+00
 0.7828976749091E+00
 0.6772355439475E+00
 0.5680364475823E+00
 0.4561367593998E+00
 0.3427548719650E+00
 0.2295999667354E+00
 0.1176115232712E+00
 0.1651668396615E+01
 0.1612371690053E+01
 0.1565177527523E+01
 0.1510447093127E+01
 0.1449372963294E+01
 0.1382728576600E+01
 0.1310763730148E+01
 0.1233519702833E+01
 0.1150986517019E+01
 0.1063172188242E+01
 0.9701360938325E+00
 0.8720146518546E+00
 0.7690550687769E+00
 0.6616703766585E+00
 0.5505364408230E+00
 0.4367704232014E+00
 0.3222877078576E+00
 0.2105318334452E+00
 0.1082931837668E+00
 0.3158168122606E-01
 0.1602582969457E+01
 0.1558733368197E+01
 0.1505297205817E+01
 0.1444284413562E+01
 0.1377732402594E+01
 0.1306054040991E+01
 0.1229228127449E+01
 0.1147179783580E+01
 0.1059878742368E+01
 0.9673693653481E+00
 0.8697908004011E+00
 0.7674108578083E+00
 0.6606851016106E+00
 0.5503564475216E+00
 0.4376225948157E+00
 0.3244280575389E+00
 0.2139930985191E+00
 0.1119026592401E+00
 0.2853896598702E-01
 0.1761123190883E-01
 0.1553433163636E+01
 0.1503265609731E+01
 0.1442065965496E+01
 0.1375948311190E+01
 0.1305318082884E+01
 0.1229816836946E+01
 0.1149265071568E+01
 0.1063632553318E+01
 0.9730130400569E+00
 0.8776160816635E+00
 0.7777926128281E+00
 0.6740911258476E+00
 0.5673507359788E+00
 0.4588452358493E+00
 0.3505037283362E+00
 0.2452510465889E+00
 0.1475482163739E+00
 0.6426746657828E-01
 0.7786512802245E-02
 0.1534893469523E-01
 0.1502478256762E+01
 0.1439458595646E+01
 0.1375035412754E+01
 0.1307181104345E+01
 0.1234268202094E+01
 0.1156211832943E+01
 0.1073151531531E+01
 0.9853468704524E+00
 0.8931375956621E+00
 0.7969737642171E+00
 0.6974672135154E+00
 0.5954667998155E+00
 0.4921637522512E+00
 0.3892393486685E+00
 0.2890701753175E+00
 0.1950068291831E+00
 0.1117274519281E+00
 0.4563094807519E-01
 0.5847045457828E-02
 0.4223690204576E-02
</DataArray>
<DataArray type="Float64" Name="CK" NumberOfComponents="1" ComponentName0="CK" format="ascii">
 0.0000000000000E+00
 0.0000000000000E+00
 0.0000000000000E+00
 0.0000000000000E+00
 0.0000000000000E+00
 0.0000000000000E+00
 0.0000000000000E+00
 0.0000000000000E+00
 0.0000000000000E+00
 0.0000000000000E+00
 0.0000000000000E+00
 0.0000000000000E+00
 0.0000000000000E+00
 0.0000000000000E+00
 0.0000000000000E+00
 0.0000000000000E+00
 0.0000000000000E+00
 0.0000000000000E+00
 0.0000000000000E+00
 0.0000000000000E+00
 0.0000000000000E+00
 0.0000000000000E+00
 0.0000000000000E+00
 0.0000000000000E+00
 0.0000000000000E+00
 0.0000000000000E+00
 0.0000000000000E+00
 0.0000000000000E+00
 0.0000000000000E+00
 0.0000000000000E+00
 0.0000000000000E+00
 0.0000000000000E+00
 0.0000000000000E+00
 0.0000000000000E+00
 0.0000000000000E+00
 0.0000000000000E+00
 0.0000000000000E+00
 0.0000000000000E+00
 0.0000000000000E+00
 0.0000000000000E+00
 0.0000000000000E+00
 0.0000000000000E+00
 0.0000000000000E+00
 0.0000000000000E+00
 0.0000000000000E+00
 0.0000000000000E+00
 0.0000000000000E+00
 0.0000000000000E+00
 0.0000000000000E+00
 0.0000000000000E+00
 0.0000000000000E+00
 0.0000000000000E+00
 0.0000000000000E+00
 0.0000000000000E+00
 0.0000000000000E+00
 0.0000000000000E+00
 0.0000000000000E+00
 0.0000000000000E+00
 0.0000000000000E+00
 0.0000000000000E+00
 0.0000000000000E+00
 0.0000000000000E+00
 0.0000000000000E+00
 0.0000000000000E+00
 0.0000000000000E+00
 0.0000000000000E+00
 0.0000000000000E+00
 0.0000000000000E+00
 0.0000000000000E+00
 0.0000000000000E+00
 0.0000000000000E+00
 0.0000000000000E+00
 0.0000000000000E+00
 0.0000000000000E+00
 0.0000000000000E+00
 0.0000000000000E+00
 0.0000000000000E+00
 0.0000000000000E+00
 0.0000000000000E+00
 0.0000000000000E+00
 0.0000000000000E+00
 0.0000000000000E+00
 0.0000000000000E+00
 0.0000000000000E+00
 0.0000000000000E+00
 0.0000000000000E+00
 0.0000000000000E+00
 0.0000000000000E+00
 0.0000000000000E+00
 0.0000000000000E+00
 0.0000000000000E+00
 0.0000000000000E+00
 0.0000000000000E+00
 0.0000000000000E+00
 0.0000000000000E+00
 0.0000000000000E+00
 0.0000000000000E+00
 0.0000000000000E+00
 0.0000000000000E+00
 0.0000000000000E+00
 0.0000000000000E+00
 0.0000000000000E+00
 0.0000000000000E+00
 0.0000000000000E+00
 0.0000000000000E+00
 0.0000000000000E+00
 0.0000000000000E+00
 0.0000000000000E+00
 0.0000000000000E+00
 0.0000000000000E+00
 0.0000000000000E+00
 0.0000000000000E+00
 0.0000000000000E+00
 0.0000000000000E+00
 0.0000000000000E+00
 0.0000000000000E+00
 0.0000000000000E+00
 0.0000000000000E+00
 0.0000000000000E+00
 0.0000000000000E+00
 0.0000000000000E+00
 0.0000000000000E+00
 0.0000000000000E+00
 0.0000000000000E+00
 0.0000000000000E+00
 0.0000000000000E+00
 0.0000000000000E+00
 0.0000000000000E+00
 0.0000000000000E+00
 0.0000000000000E+00
 0.0000000000000E+00
 0.0000000000000E+00
 0.0000000000000E+00
 0.0000000000000E+00
 0.0000000000000E+00
 0.0000000000000E+00
 0.0000000000000E+00
 0.0000000000000E+00
 0.0000000000000E+00
 0.0000000000000E+00
 0.0000000000000E+00
 0.0000000000000E+00
 0.0000000000000E+00
 0.0000000000000E+00
 0.0000000000000E+00
 0.0000000000000E+00
 0.0000000000000E+00
 0.0000000000000E+00
 0.0000000000000E+00
 0.0000000000000E+00
 0.0000000000000E+00
 0.0000000000000E+00
 0.0000000000000E+00
 0.0000000000000E+00
 0.0000000000000E+00
 0.0000000000000E+00
 0.0000000000000E+00
 0.0000000000000E+00
 0.0000000000000E+00
 0.0000000000000E+00
 0.0000000000000E+00
 0.0000000000000E+00
 0.0000000000000E+00
 0.0000000000000E+00
 0.0000000000000E+00
 0.0000000000000E+00
 0.0000000000000E+00
 0.0000000000000E+00
 0.0000000000000E+00
 0.0000000000000E+00
 0.0000000000000E+00
 0.0000000000000E+00
 0.0000000000000E+00
 0.0000000000000E+00
 0.0000000000000E+00
 0.0000000000000E+00
 0.0000000000000E+00
 0.0000000000000E+00
 0.0000000000000E+00
 0.0000000000000E+00
 0.0000000000000E+00
 0.0000000000000E+00
 0.0000000000000E+00
 0.0000000000000E+00
 0.0000000000000E+00
 0.0000000000000E+00
 0.0000000000000E+00
 0.0000000000000E+00
 0.0000000000000E+00
 0.0000000000000E+00
 0.0000000000000E+00
 0.0000000000000E+00
 0.0000000000000E+00
 0.0000000000000E+00
 0.0000000000000E+00
 0.0000000000000E+00
 0.0000000000000E+00
 0.0000000000000E+00
 0.0000000000000E+00
 0.0000000000000E+00
 0.0000000000000E+00
 0.0000000000000E+00
 0.0000000000000E+00
 0.0000000000000E+00
 0.0000000000000E+00
 0.0000000000000E+00
 0.0000000000000E+00
 0.0000000000000E+00
 0.0000000000000E+00
 0.0000000000000E+00
 0.0000000000000E+00
 0.0000000000000E+00
 0.0000000000000E+00
 0.0000000000000E+00
 0.0000000000000E+00
 0.0000000000000E+00
 0.0000000000000E+00
 0.0000000000000E+00
 0.0000000000000E+00
 0.0000000000000E+00
 0.0000000000000E+00
 0.0000000000000E+00
 0.0000000000000E+00
 0.0000000000000E+00
 0.0000000000000E+00
 0.0000000000000E+00
 0.0000000000000E+00
 0.0000000000000E+00
 0.0000000000000E+00
 0.0000000000000E+00
 0.0000000000000E+00
 0.0000000000000E+00
 0.0000000000000E+00
 0.0000000000000E+00
 0.0000000000000E+00
 0.0000000000000E+00
 0.0000000000000E+00
 0.0000000000000E+00
 0.0000000000000E+00
 0.0000000000000E+00
 0.0000000000000E+00
 0.0000000000000E+00
 0.0000000000000E+00
 0.0000000000000E+00
 0.0000000000000E+00
 0.0000000000000E+00
 0.0000000000000E+00
 0.0000000000000E+00
 0.0000000000000E+00
 0.0000000000000E+00
 0.0000000000000E+00
 0.0000000000000E+00
 0.0000000000000E+00
 0.0000000000000E+00
 0.0000000000000E+00
 0.0000000000000E+00
 0.0000000000000E+00
 0.0000000000000E+00
 0.0000000000000E+00
 0.0000000000000E+00
 0.0000000000000E+00
 0.0000000000000E+00
 0.0000000000000E+00
 0.0000000000000E+00
 0.0000000000000E+00
 0.0000000000000E+00
 0.0000000000000E+00
 0.0000000000000E+00
 0.0000000000000E+00
 0.0000000000000E+00
 0.0000000000000E+00
 0.0000000000000E+00
 0.0000000000000E+00
 0.0000000000000E+00
 0.0000000000000E+00
 0.0000000000000E+00
 0.0000000000000E+00
 0.0000000000000E+00
 0.0000000000000E+00
 0.0000000000000E+00
 0.0000000000000E+00
 0.0000000000000E+00
 0.0000000000000E+00
 0.0000000000000E+00
 0.0000000000000E+00
 0.0000000000000E+00
 0.0000000000000E+00
 0.0000000000000E+00
 0.0000000000000E+00
 0.0000000000000E+00
 0.0000000000000E+00
 0.0000000000000E+00
 0.0000000000000E+00
 0.0000000000000E+00
 0.0000000000000E+00
 0.0000000000000E+00
 0.0000000000000E+00
 0.0000000000000E+00
 0.0000000000000E+00
 0.0000000000000E+00
 0.0000000000000E+00
 0.0000000000000E+00
 0.0000000000000E+00
 0.0000000000000E+00
 0.0000000000000E+00
 0.0000000000000E+00
 0.0000000000000E+00
 0.0000000000000E+00
 0.0000000000000E+00
 0.0000000000000E+00
 0.0000000000000E+00
 0.0000000000000E+00
 0.0000000000000E+00
 0.0000000000000E+00
 0.0000000000000E+00
 0.0000000000000E+00
 0.0000000000000E+00
 0.0000000000000E+00
 0.0000000000000E+00
 0.0000000000000E+00
 0.0000000000000E+00
 0.0000000000000E+00
 0.0000000000000E+00
 0.0000000000000E+00
 0.0000000000000E+00
 0.0000000000000E+00
 0.0000000000000E+00
 0.0000000000000E+00
 0.0000000000000E+00
 0.0000000000000E+00
 0.0000000000000E+00
 0.0000000000000E+00
 0.0000000000000E+00
 0.0000000000000E+00
 0.0000000000000E+00
 0.0000000000000E+00
 0.0000000000000E+00
 0.0000000000000E+00
 0.0000000000000E+00
 0.0000000000000E+00
 0.0000000000000E+00
 0.0000000000000E+00
 0.0000000000000E+00
 0.0000000000000E+00
 0.0000000000000E+00
 0.0000000000000E+00
 0.0000000000000E+00
 0.0000000000000E+00
 0.0000000000000E+00
 0.0000000000000E+00
 0.0000000000000E+00
 0.0000000000000E+00
 0.0000000000000E+00
 0.0000000000000E+00
 0.0000000000000E+00
 0.0000000000000E+00
 0.0000000000000E+00
 0.0000000000000E+00
 0.0000000000000E+00
 0.0000000000000E+00
 0.0000000000000E+00
 0.0000000000000E+00
 0.0000000000000E+00
 0.0000000000000E+00
 0.0000000000000E+00
 0.0000000000000E+00
 0.0000000000000E+00
 0.0000000000000E+00
 0.0000000000000E+00
 0.0000000000000E+00
 0.0000000000000E+00
 0.0000000000000E+00
 0.0000000000000E+00
 0.0000000000000E+00
 0.0000000000000E+00
 0.0000000000000E+00
 0.0000000000000E+00
 0.0000000000000E+00
 0.0000000000000E+00
 0.0000000000000E+00
 0.0000000000000E+00
 0.0000000000000E+00
 0.0000000000000E+00
 0.0000000000000E+00
 0.0000000000000E+00
 0.0000000000000E+00
 0.0000000000000E+00
 0.0000000000000E+00
 0.0000000000000E+00
 0.0000000000000E+00
 0.0000000000000E+00
 0.0000000000000E+00
 0.0000000000000E+00
 0.0000000000000E+00
 0.0000000000000E+00
 0.0000000000000E+00
 0.0000000000000E+00
 0.0000000000000E+00
 0.0000000000000E+00
 0.0000000000000E+00
 0.0000000000000E+00
 0.0000000000000E+00
 0.0000000000000E+00
 0.0000000000000E+00
 0.0000000000000E+00
 0.0000000000000E+00
 0.0000000000000E+00
 0.0000000000000E+00
 0.0000000000000E+00
 0.0000000000000E+00
 0.0000000000000E+00
 0.0000000000000E+00
 0.0000000000000E+00
 0.0000000000000E+00
 0.0000000000000E+00
 0.0000000000000E+00
 0.0000000000000E+00
 0.0000000000000E+00
 0.0000000000000E+00
 0.0000000000000E+00
 0.0000000000000E+00
 0.0000000000000E+00
 0.0000000000000E+00
 0.0000000000000E+00
 0.0000000000000E+00
 0.0000000000000E+00
 0.0000000000000E+00
 0.0000000000000E+00
 0.0000000000000E+00
 0.0000000000000E+00
 0.0000000000000E+00
 0.0000000000000E+00
 0.0000000000000E+00
 0.0000000000000E+00
 0.0000000000000E+00
 0.0000000000000E+00
 0.0000000000000E+00
 0.0000000000000E+00
 0.0000000000000E+00
 0.0000000000000E+00
 0.0000000000000E+00
 0.0000000000000E+00
 0.0000000000000E+00
 0.0000000000000E+00
 0.0000000000000E+00
 0.0000000000000E+00
 0.0000000000000E+00
 0.0000000000000E+00
 0.0000000000000E+00
 0.0000000000000E+00
 0.0000000000000E+00
 0.0000000000000E+00
 0.0000000000000E+00
 0.0000000000000E+00
 0.0000000000000E+00
 0.0000000000000E+00
 0.0000000000000E+00
 0.0000000000000E+00
 0.0000000000000E+00
 0.0000000000000E+00
 0.0000000000000E+00
 0.0000000000000E+00
 0.0000000000000E+00
 0.0000000000000E+00
 0.0000000000000E+00
 0.0000000000000E+00
 0.0000000000000E+00
 0.0000000000000E+00
 0.0000000000000E+00
 0.0000000000000E+00
 0.0000000000000E+00
 0.0000000000000E+00
 0.0000000000000E+00
 0.0000000000000E+00
 0.0000000000000E+00
 0.0000000000000E+00
 0.0000000000000E+00
 0.0000000000000E+00
 0.0000000000000E+00
 0.0000000000000E+00
 0.0000000000000E+00
 0.0000000000000E+00
 0.0000000000000E+00
 0.0000000000000E+00
 0.0000000000000E+00
 0.0000000000000E+00
 0.0000000000000E+00
 0.0000000000000E+00
 0.0000000000000E+00
 0.0000000000000E+00
 0.0000000000000E+00
 0.0000000000000E+00
 0.0000000000000E+00
 0.0000000000000E+00
 0.0000000000000E+00
 0.0000000000000E+00
 0.0000000000000E+00
 0.0000000000000E+00
 0.0000000000000E+00
 0.0000000000000E+00
 0.0000000000000E+00
 0.0000000000000E+00
 0.0000000000000E+00
 0.0000000000000E+00
 0.0000000000000E+00
 0.0000000000000E+00
 0.0000000000000E+00
 0.0000000000000E+00
 0.0000000000000E+00
 0.0000000000000E+00
 0.0000000000000E+00
 0.0000000000000E+00
 0.0000000000000E+00
 0.0000000000000E+00
 0.0000000000000E+00
 0.0000000000000E+00
 0.0000000000000E+00
 0.0000000000000E+00
 0.0000000000000E+00
 0.0000000000000E+00
 0.0000000000000E+00
 0.0000000000000E+00
 0.0000000000000E+00
 0.0000000000000E+00
 0.0000000000000E+00
 0.0000000000000E+00
 0.0000000000000E+00
 0.0000000000000E+00
 0.0000000000000E+00
 0.0000000000000E+00
 0.0000000000000E+00
 0.0000000000000E+00
 0.0000000000000E+00
 0.0000000000000E+00
 0.0000000000000E+00
 0.0000000000000E+00
 0.0000000000000E+00
 0.0000000000000E+00
 0.0000000000000E+00
 0.0000000000000E+00
 0.0000000000000E+00
 0.0000000000000E+00
 0.0000000000000E+00
 0.0000000000000E+00
 0.0000000000000E+00
 0.0000000000000E+00
 0.0000000000000E+00
 0.0000000000000E+00
 0.0000000000000E+00
 0.0000000000000E+00
 0.0000000000000E+00
 0.0000000000000E+00
 0.0000000000000E+00
 0.0000000000000E+00
 0.0000000000000E+00
 0.0000000000000E+00
 0.0000000000000E+00
 0.0000000000000E+00
 0.0000000000000E+00
 0.0000000000000E+00
 0.0000000000000E+00
 0.0000000000000E+00
 0.0000000000000E+00
 0.0000000000000E+00
 0.0000000000000E+00
 0.0000000000000E+00
 0.0000000000000E+00
 0.0000000000000E+00
 0.0000000000000E+00
 0.0000000000000E+00
 0.0000000000000E+00
 0.0000000000000E+00
 0.0000000000000E+00
 0.0000000000000E+00
 0.0000000000000E+00
 0.0000000000000E+00
 0.0000000000000E+00
 0.0000000000000E+00
 0.0000000000000E+00
 0.0000000000000E+00
 0.0000000000000E+00
 0.0000000000000E+00
 0.0000000000000E+00
 0.0000000000000E+00
 0.0000000000000E+00
 0.0000000000000E+00
 0.0000000000000E+00
 0.0000000000000E+00
 0.0000000000000E+00
 0.0000000000000E+00
 0.0000000000000E+00
 0.0000000000000E+00
 0.0000000000000E+00
 0.0000000000000E+00
 0.0000000000000E+00
 0.0000000000000E+00
 0.0000000000000E+00
 0.0000000000000E+00
 0.0000000000000E+00
 0.0000000000000E+00
 0.0000000000000E+00
 0.0000000000000E+00
 0.0000000000000E+00
 0.0000000000000E+00
 0.0000000000000E+00
 0.0000000000000E+00
 0.0000000000000E+00
 0.0000000000000E+00
 0.0000000000000E+00
 0.0000000000000E+00
 0.0000000000000E+00
 0.0000000000000E+00
 0.0000000000000E+00
 0.0000000000000E+00
 0.0000000000000E+00
 0.0000000000000E+00
 0.0000000000000E+00
 0.0000000000000E+00
 0.0000000000000E+00
 0.0000000000000E+00
 0.0000000000000E+00
 0.0000000000000E+00
 0.0000000000000E+00
 0.0000000000000E+00
 0.0000000000000E+00
 0.0000000000000E+00
 0.0000000000000E+00
 0.0000000000000E+00
 0.0000000000000E+00
 0.0000000000000E+00
 0.0000000000000E+00
 0.0000000000000E+00
 0.0000000000000E+00
 0.0000000000000E+00
 0.0000000000000E+00
 0.0000000000000E+00
 0.0000000000000E+00
 0.0000000000000E+00
 0.0000000000000E+00
 0.0000000000000E+00
 0.0000000000000E+00
 0.0000000000000E+00
 0.0000000000000E+00
 0.0000000000000E+00
 0.0000000000000E+00
 0.0000000000000E+00
 0.0000000000000E+00
 0.0000000000000E+00
 0.0000000000000E+00
 0.0000000000000E+00
 0.0000000000000E+00
 0.0000000000000E+00
 0.0000000000000E+00
 0.0000000000000E+00
 0.0000000000000E+00
 0.0000000000000E+00
 0.0000000000000E+00
 0.0000000000000E+00
 0.0000000000000E+00
 0.0000000000000E+00
 0.0000000000000E+00
 0.0000000000000E+00
 0.0000000000000E+00
 0.0000000000000E+00
 0.0000000000000E+00
 0.0000000000000E+00
 0.0000000000000E+00
 0.0000000000000E+00
 0.0000000000000E+00
 0.0000000000000E+00
 0.0000000000000E+00
 0.0000000000000E+00
 0.0000000000000E+00
 0.0000000000000E+00
 0.0000000000000E+00
 0.0000000000000E+00
 0.0000000000000E+00
 0.0000000000000E+00
 0.0000000000000E+00
 0.0000000000000E+00
 0.0000000000000E+00
 0.0000000000000E+00
 0.0000000000000E+00
 0.0000000000000E+00
 0.0000000000000E+00
 0.0000000000000E+00
 0.0000000000000E+00
 0.0000000000000E+00
 0.0000000000000E+00
 0.0000000000000E+00
 0.0000000000000E+00
 0.0000000000000E+00
 0.0000000000000E+00
 0.0000000000000E+00
 0.0000000000000E+00
 0.0000000000000E+00
 0.0000000000000E+00
 0.0000000000000E+00
 0.0000000000000E+00
 0.0000000000000E+00
 0.0000000000000E+00
 0.0000000000000E+00
 0.0000000000000E+00
 0.0000000000000E+00
 0.0000000000000E+00
 0.0000000000000E+00
 0.0000000000000E+00
 0.0000000000000E+00
 0.0000000000000E+00
 0.0000000000000E+00
 0.0000000000000E+00
 0.0000000000000E+00
 0.0000000000000E+00
 0.0000000000000E+00
 0.0000000000000E+00
 0.0000000000000E+00
 0.0000000000000E+00
 0.0000000000000E+00
 0.0000000000000E+00
 0.0000000000000E+00
 0.0000000000000E+00
 0.0000000000000E+00
 0.0000000000000E+00
 0.0000000000000E+00
 0.0000000000000E+00
 0.0000000000000E+00
 0.0000000000000E+00
 0.0000000000000E+00
 0.0000000000000E+00
 0.0000000000000E+00
 0.0000000000000E+00
 0.0000000000000E+00
 0.0000000000000E+00
 0.0000000000000E+00
 0.0000000000000E+00
 0.0000000000000E+00
 0.0000000000000E+00
 0.0000000000000E+00
 0.0000000000000E+00
 0.0000000000000E+00
 0.0000000000000E+00
 0.0000000000000E+00
 0.0000000000000E+00
 0.0000000000000E+00
 0.0000000000000E+00
 0.0000000000000E+00
 0.0000000000000E+00
 0.0000000000000E+00
 0.0000000000000E+00
 0.0000000000000E+00
 0.0000000000000E+00
 0.0000000000000E+00
 0.0000000000000E+00
 0.0000000000000E+00
 0.0000000000000E+00
 0.0000000000000E+00
 0.0000000000000E+00
 0.0000000000000E+00
 0.0000000000000E+00
 0.0000000000000E+00
 0.0000000000000E+00
 0.0000000000000E+00
 0.0000000000000E+00
 0.0000000000000E+00
 0.0000000000000E+00
 0.0000000000000E+00
 0.0000000000000E+00
 0.0000000000000E+00
 0.0000000000000E+00
 0.0000000000000E+00
 0.0000000000000E+00
 0.0000000000000E+00
 0.0000000000000E+00
 0.0000000000000E+00
 0.0000000000000E+00
 0.0000000000000E+00
 0.0000000000000E+00
 0.0000000000000E+00
 0.0000000000000E+00
 0.0000000000000E+00
 0.0000000000000E+00
 0.0000000000000E+00
 0.0000000000000E+00
 0.0000000000000E+00
 0.0000000000000E+00
 0.0000000000000E+00
 0.0000000000000E+00
 0.0000000000000E+00
 0.0000000000000E+00
 0.0000000000000E+00
 0.0000000000000E+00
 0.0000000000000E+00
 0.0000000000000E+00
 0.0000000000000E+00
 0.0000000000000E+00
 0.0000000000000E+00
 0.0000000000000E+00
 0.0000000000000E+00
 0.0000000000000E+00
 0.0000000000000E+00
 0.0000000000000E+00
 0.0000000000000E+00
 0.0000000000000E+00
 0.0000000000000E+00
 0.0000000000000E+00
 0.0000000000000E+00
 0.0000000000000E+00
 0.0000000000000E+00
 0.0000000000000E+00
 0.0000000000000E+00
 0.0000000000000E+00
 0.0000000000000E+00
 0.0000000000000E+00
 0.0000000000000E+00
 0.0000000000000E+00
 0.0000000000000E+00
 0.0000000000000E+00
 0.0000000000000E+00
 0.0000000000000E+00
 0.0000000000000E+00
 0.0000000000000E+00
 0.0000000000000E+00
 0.0000000000000E+00
 0.0000000000000E+00
 0.0000000000000E+00
 0.0000000000000E+00
 0.0000000000000E+00
 0.0000000000000E+00
 0.0000000000000E+00
 0.0000000000000E+00
 0.0000000000000E+00
 0.0000000000000E+00
 0.0000000000000E+00
 0.0000000000000E+00
 0.0000000000000E+00
 0.0000000000000E+00
 0.0000000000000E+00
 0.0000000000000E+00
 0.0000000000000E+00
 0.0000000000000E+00
 0.0000000000000E+00
 0.0000000000000E+00
 0.0000000000000E+00
 0.0000000000000E+00
 0.0000000000000E+00
 0.0000000000000E+00
 0.0000000000000E+00
 0.0000000000000E+00
 0.0000000000000E+00
 0.0000000000000E+00
 0.0000000000000E+00
 0.0000000000000E+00
 0.0000000000000E+00
 0.0000000000000E+00
 0.0000000000000E+00
 0.0000000000000E+00
 0.0000000000000E+00
 0.0000000000000E+00
 0.0000000000000E+00
 0.0000000000000E+00
 0.0000000000000E+00
 0.0000000000000E+00
 0.0000000000000E+00
 0.0000000000000E+00
 0.0000000000000E+00
 0.0000000000000E+00
 0.0000000000000E+00
 0.0000000000000E+00
 0.0000000000000E+00
 0.0000000000000E+00
 0.0000000000000E+00
 0.0000000000000E+00
 0.0000000000000E+00
 0.0000000000000E+00
 0.0000000000000E+00
 0.0000000000000E+00
 0.0000000000000E+00
 0.0000000000000E+00
 0.0000000000000E+00
 0.0000000000000E+00
 0.0000000000000E+00
 0.0000000000000E+00
 0.0000000000000E+00
 0.0000000000000E+00
 0.0000000000000E+00
 0.0000000000000E+00
 0.0000000000000E+00
 0.0000000000000E+00
 0.0000000000000E+00
 0.0000000000000E+00
 0.0000000000000E+00
 0.0000000000000E+00
 0.0000000000000E+00
 0.0000000000000E+00
 0.0000000000000E+00
 0.0000000000000E+00
 0.0000000000000E+00
 0.0000000000000E+00
 0.0000000000000E+00
 0.0000000000000E+00
 0.0000000000000E+00
 0.0000000000000E+00
 0.0000000000000E+00
 0.0000000000000E+00
 0.0000000000000E+00
 0.0000000000000E+00
 0.0000000000000E+00
 0.0000000000000E+00
 0.0000000000000E+00
 0.0000000000000E+00
 0.0000000000000E+00
 0.0000000000000E+00
 0.0000000000000E+00
 0.0000000000000E+00
 0.0000000000000E+00
 0.0000000000000E+00
 0.0000000000000E+00
 0.0000000000000E+00
 0.0000000000000E+00
 0.0000000000000E+00
 0.0000000000000E+00
 0.0000000000000E+00
 0.0000000000000E+00
 0.0000000000000E+00
 0.0000000000000E+00
 0.0000000000000E+00
 0.0000000000000E+00
 0.0000000000000E+00
 0.0000000000000E+00
 0.0000000000000E+00
 0.0000000000000E+00
 0.0000000000000E+00
 0.0000000000000E+00
 0.0000000000000E+00
 0.0000000000000E+00
 0.0000000000000E+00
 0.0000000000000E+00
 0.0000000000000E+00
 0.0000000000000E+00
 0.0000000000000E+00
 0.0000000000000E+00
 0.0000000000000E+00
 0.0000000000000E+00
 0.0000000000000E+00
 0.0000000000000E+00
 0.0000000000000E+00
 0.0000000000000E+00
 0.0000000000000E+00
 0.0000000000000E+00
 0.0000000000000E+00
 0.0000000000000E+00
 0.0000000000000E+00
 0.0000000000000E+00
 0.0000000000000E+00
 0.0000000000000E+00
 0.0000000000000E+00
 0.0000000000000E+00
 0.0000000000000E+00
 0.0000000000000E+00
 0.0000000000000E+00
 0.0000000000000E+00
 0.0000000000000E+00
 0.0000000000000E+00
 0.0000000000000E+00
 0.0000000000000E+00
 0.0000000000000E+00
 0.0000000000000E+00
 0.0000000000000E+00
 0.0000000000000E+00
 0.0000000000000E+00
 0.0000000000000E+00
 0.0000000000000E+00
 0.0000000000000E+00
 0.0000000000000E+00
 0.0000000000000E+00
 0.0000000000000E+00
 0.0000000000000E+00
 0.0000000000000E+00
 0.0000000000000E+00
 0.0000000000000E+00
 0.0000000000000E+00
 0.0000000000000E+00
 0.0000000000000E+00
 0.0000000000000E+00
 0.0000000000000E+00
 0.0000000000000E+00
 0.0000000000000E+00
 0.0000000000000E+00
 0.0000000000000E+00
 0.0000000000000E+00
 0.0000000000000E+00
 0.0000000000000E+00
 0.0000000000000E+00
 0.0000000000000E+00
 0.0000000000000E+00
 0.0000000000000E+00
 0.0000000000000E+00
 0.0000000000000E+00
 0.0000000000000E+00
 0.0000000000000E+00
 0.0000000000000E+00
 0.0000000000000E+00
 0.0000000000000E+00
 0.0000000000000E+00
 0.0000000000000E+00
 0.0000000000000E+00
 0.0000000000000E+00
 0.0000000000000E+00
 0.0000000000000E+00
 0.0000000000000E+00
 0.0000000000000E+00
 0.0000000000000E+00
 0.0000000000000E+00
 0.0000000000000E+00
 0.0000000000000E+00
 0.0000000000000E+00
 0.0000000000000E+00
 0.0000000000000E+00
 0.0000000000000E+00
 0.0000000000000E+00
 0.0000000000000E+00
 0.0000000000000E+00
 0.0000000000000E+00
 0.0000000000000E+00
 0.0000000000000E+00
 0.0000000000000E+00
 0.0000000000000E+00
 0.0000000000000E+00
 0.0000000000000E+00
 0.0000000000000E+00
 0.0000000000000E+00
 0.0000000000000E+00
 0.0000000000000E+00
 0.0000000000000E+00
 0.0000000000000E+00
 0.0000000000000E+00
 0.0000000000000E+00
 0.0000000000000E+00
 0.0000000000000E+00
 0.0000000000000E+00
 0.0000000000000E+00
 0.0000000000000E+00
 0.0000000000000E+00
 0.0000000000000E+00
 0.0000000000000E+00
 0.0000000000000E+00
 0.0000000000000E+00
 0.0000000000000E+00
 0.0000000000000E+00
 0.0000000000000E+00
 0.0000000000000E+00
 0.0000000000000E+00
 0.0000000000000E+00
 0.0000000000000E+00
 0.0000000000000E+00
 0.0000000000000E+00
 0.0000000000000E+00
 0.0000000000000E+00
 0.0000000000000E+00
 0.0000000000000E+00
 0.0000000000000E+00
 0.0000000000000E+00
 0.0000000000000E+00
 0.0000000000000E+00
 0.0000000000000E+00
 0.0000000000000E+00
 0.0000000000000E+00
 0.0000000000000E+00
 0.0000000000000E+00
 0.0000000000000E+00
 0.0000000000000E+00
 0.0000000000000E+00
 0.0000000000000E+00
 0.0000000000000E+00
 0.0000000000000E+00
 0.0000000000000E+00
 0.0000000000000E+00
 0.0000000000000E+00
 0.0000000000000E+00
 0.0000000000000E+00
 0.0000000000000E+00
 0.0000000000000E+00
 0.0000000000000E+00
 0.0000000000000E+00
 0.0000000000000E+00
 0.0000000000000E+00
 0.0000000000000E+00
 0.0000000000000E+00
 0.0000000000000E+00
 0.0000000000000E+00
 0.0000000000000E+00
 0.0000000000000E+00
 0.0000000000000E+00
 0.0000000000000E+00
 0.0000000000000E+00
 0.0000000000000E+00
 0.0000000000000E+00
 0.0000000000000E+00
 0.0000000000000E+00
 0.0000000000000E+00
 0.0000000000000E+00
 0.0000000000000E+00
 0.0000000000000E+00
 0.0000000000000E+00
 0.0000000000000E+00
 0.0000000000000E+00
 0.0000000000000E+00
 0.0000000000000E+00
 0.0000000000000E+00
 0.0000000000000E+00
 0.0000000000000E+00
 0.0000000000000E+00
 0.0000000000000E+00
 0.0000000000000E+00
 0.0000000000000E+00
 0.0000000000000E+00
 0.0000000000000E+00
 0.0000000000000E+00
 0.0000000000000E+00
 0.0000000000000E+00
 0.0000000000000E+00
 0.0000000000000E+00
 0.0000000000000E+00
 0.0000000000000E+00
 0.0000000000000E+00
 0.0000000000000E+00
 0.0000000000000E+00
 0.0000000000000E+00
 0.0000000000000E+00
 0.0000000000000E+00
 0.0000000000000E+00
 0.0000000000000E+00
 0.0000000000000E+00
 0.0000000000000E+00
 0.0000000000000E+00
 0.0000000000000E+00
 0.0000000000000E+00
 0.0000000000000E+00
 0.0000000000000E+00
 0.0000000000000E+00
 0.0000000000000E+00
 0.0000000000000E+00
 0.0000000000000E+00
 0.0000000000000E+00
 0.0000000000000E+00
 0.0000000000000E+00
 0.0000000000000E+00
 0.0000000000000E+00
 0.0000000000000E+00
 0.0000000000000E+00
 0.0000000000000E+00
 0.0000000000000E+00
 0.0000000000000E+00
 0.0000000000000E+00
 0.0000000000000E+00
 0.0000000000000E+00
 0.0000000000000E+00
 0.0000000000000E+00
 0.0000000000000E+00
 0.0000000000000E+00
 0.0000000000000E+00
 0.0000000000000E+00
 0.0000000000000E+00
 0.0000000000000E+00
 0.0000000000000E+00
 0.0000000000000E+00
 0.0000000000000E+00
 0.0000000000000E+00
 0.0000000000000E+00
 0.0000000000000E+00
 0.0000000000000E+00
 0.0000000000000E+00
 0.0000000000000E+00
 0.0000000000000E+00
 0.0000000000000E+00
 0.0000000000000E+00
 0.0000000000000E+00
 0.0000000000000E+00
 0.0000000000000E+00
 0.0000000000000E+00
 0.0000000000000E+00
 0.0000000000000E+00
 0.0000000000000E+00
 0.0000000000000E+00
 0.0000000000000E+00
 0.0000000000000E+00
 0.0000000000000E+00
 0.0000000000000E+00
 0.0000000000000E+00
 0.0000000000000E+00
 0.0000000000000E+00
 0.0000000000000E+00
 0.0000000000000E+00
 0.0000000000000E+00
 0.0000000000000E+00
 0.0000000000000E+00
 0.0000000000000E+00
 0.0000000000000E+00
 0.0000000000000E+00
 0.0000000000000E+00
 0.0000000000000E+00
 0.0000000000000E+00
 0.0000000000000E+00
 0.0000000000000E+00
 0.0000000000000E+00
 0.0000000000000E+00
 0.0000000000000E+00
 0.0000000000000E+00
 0.0000000000000E+00
 0.0000000000000E+00
 0.0000000000000E+00
 0.0000000000000E+00
 0.0000000000000E+00
 0.0000000000000E+00
 0.0000000000000E+00
 0.0000000000000E+00
 0.0000000000000E+00
 0.0000000000000E+00
 0.0000000000000E+00
 0.0000000000000E+00
 0.0000000000000E+00
 0.0000000000000E+00
 0.0000000000000E+00
 0.0000000000000E+00
 0.0000000000000E+00
 0.0000000000000E+00
 0.0000000000000E+00
 0.0000000000000E+00
 0.0000000000000E+00
 0.0000000000000E+00
 0.0000000000000E+00
 0.0000000000000E+00
 0.0000000000000E+00
 0.0000000000000E+00
 0.0000000000000E+00
 0.0000000000000E+00
 0.0000000000000E+00
 0.0000000000000E+00
 0.0000000000000E+00
 0.0000000000000E+00
 0.0000000000000E+00
 0.0000000000000E+00
 0.0000000000000E+00
 0.0000000000000E+00
 0.0000000000000E+00
 0.0000000000000E+00
 0.0000000000000E+00
 0.0000000000000E+00
 0.0000000000000E+00
 0.0000000000000E+00
 0.0000000000000E+00
 0.0000000000000E+00
 0.0000000000000E+00
 0.0000000000000E+00
 0.0000000000000E+00
 0.0000000000000E+00
 0.0000000000000E+00
 0.0000000000000E+00
 0.0000000000000E+00
 0.0000000000000E+00
 0.0000000000000E+00
 0.0000000000000E+00
 0.0000000000000E+00
 0.0000000000000E+00
 0.0000000000000E+00
 0.0000000000000E+00
 0.0000000000000E+00
 0.0000000000000E+00
 0.0000000000000E+00
 0.0000000000000E+00
 0.0000000000000E+00
 0.0000000000000E+00
 0.0000000000000E+00
 0.0000000000000E+00
 0.0000000000000E+00
 0.0000000000000E+00
 0.0000000000000E+00
 0.0000000000000E+00
 0.0000000000000E+00
 0.0000000000000E+00
 0.0000000000000E+00
 0.0000000000000E+00
 0.0000000000000E+00
 0.0000000000000E+00
 0.0000000000000E+00
 0.0000000000000E+00
 0.0000000000000E+00
 0.0000000000000E+00
 0.0000000000000E+00
 0.0000000000000E+00
 0.0000000000000E+00
 0.0000000000000E+00
 0.0000000000000E+00
 0.0000000000000E+00
 0.0000000000000E+00
 0.0000000000000E+00
 0.0000000000000E+00
 0.0000000000000E+00
 0.0000000000000E+00
 0.0000000000000E+00
 0.0000000000000E+00
 0.0000000000000E+00
 0.0000000000000E+00
 0.0000000000000E+00
 0.0000000000000E+00
 0.0000000000000E+00
 0.0000000000000E+00
 0.0000000000000E+00
 0.0000000000000E+00
 0.0000000000000E+00
 0.0000000000000E+00
 0.0000000000000E+00
 0.0000000000000E+00
 0.0000000000000E+00
 0.0000000000000E+00
 0.0000000000000E+00
 0.0000000000000E+00
 0.0000000000000E+00
 0.0000000000000E+00
 0.0000000000000E+00
 0.0000000000000E+00
 0.0000000000000E+00
 0.0000000000000E+00
 0.0000000000000E+00
 0.0000000000000E+00
 0.0000000000000E+00
 0.0000000000000E+00
 0.0000000000000E+00
 0.0000000000000E+00
 0.0000000000000E+00
 0.0000000000000E+00
 0.0000000000000E+00
 0.0000000000000E+00
 0.0000000000000E+00
 0.0000000000000E+00
 0.0000000000000E+00
 0.0000000000000E+00
 0.0000000000000E+00
 0.0000000000000E+00
 0.0000000000000E+00
 0.0000000000000E+00
 0.0000000000000E+00
 0.0000000000000E+00
 0.0000000000000E+00
 0.0000000000000E+00
 0.0000000000000E+00
 0.0000000000000E+00
 0.0000000000000E+00
 0.0000000000000E+00
 0.0000000000000E+00
 0.0000000000000E+00
 0.0000000000000E+00
 0.0000000000000E+00
 0.0000000000000E+00
 0.0000000000000E+00
 0.0000000000000E+00
 0.0000000000000E+00
 0.0000000000000E+00
 0.0000000000000E+00
 0.0000000000000E+00
 0.0000000000000E+00
 0.0000000000000E+00
 0.0000000000000E+00
 0.0000000000000E+00
 0.0000000000000E+00
 0.0000000000000E+00
 0.0000000000000E+00
 0.0000000000000E+00
 0.0000000000000E+00
 0.0000000000000E+00
 0.0000000000000E+00
 0.0000000000000E+00
 0.0000000000000E+00
 0.0000000000000E+00
 0.0000000000000E+00
 0.0000000000000E+00
 0.0000000000000E+00
 0.0000000000000E+00
 0.0000000000000E+00
 0.0000000000000E+00
 0.0000000000000E+00
 0.0000000000000E+00
 0.0000000000000E+00
 0.0000000000000E+00
 0.0000000000000E+00
 0.0000000000000E+00
 0.0000000000000E+00
 0.0000000000000E+00
 0.0000000000000E+00
 0.0000000000000E+00
 0.0000000000000E+00
 0.0000000000000E+00
 0.0000000000000E+00
 0.0000000000000E+00
 0.0000000000000E+00
 0.0000000000000E+00
 0.0000000000000E+00
 0.0000000000000E+00
 0.0000000000000E+00
 0.0000000000000E+00
 0.0000000000000E+00
 0.0000000000000E+00
 0.0000000000000E+00
 0.0000000000000E+00
 0.0000000000000E+00
 0.0000000000000E+00
 0.0000000000000E+00
 0.0000000000000E+00
 0.0000000000000E+00
 0.0000000000000E+00
 0.0000000000000E+00
 0.0000000000000E+00
 0.0000000000000E+00
 0.0000000000000E+00
 0.0000000000000E+00
 0.0000000000000E+00
 0.0000000000000E+00
 0.0000000000000E+00
 0.0000000000000E+00
 0.0000000000000E+00
 0.0000000000000E+00
 0.0000000000000E+00
 0.0000000000000E+00
 0.0000000000000E+00
 0.0000000000000E+00
 0.0000000000000E+00
 0.0000000000000E+00
 0.0000000000000E+00
 0.0000000000000E+00
 0.0000000000000E+00
 0.0000000000000E+00
 0.0000000000000E+00
 0.0000000000000E+00
 0.0000000000000E+00
 0.0000000000000E+00
 0.0000000000000E+00
 0.0000000000000E+00
 0.0000000000000E+00
 0.0000000000000E+00
 0.0000000000000E+00
 0.0000000000000E+00
 0.0000000000000E+00
 0.0000000000000E+00
 0.0000000000000E+00
 0.0000000000000E+00
 0.0000000000000E+00
 0.0000000000000E+00
 0.0000000000000E+00
 0.0000000000000E+00
 0.0000000000000E+00
 0.0000000000000E+00
 0.0000000000000E+00
 0.0000000000000E+00
 0.0000000000000E+00
 0.0000000000000E+00
 0.0000000000000E+00
 0.0000000000000E+00
 0.0000000000000E+00
 0.0000000000000E+00
 0.0000000000000E+00
 0.0000000000000E+00
 0.0000000000000E+00
 0.0000000000000E+00
 0.0000000000000E+00
 0.0000000000000E+00
 0.0000000000000E+00
 0.0000000000000E+00
 0.0000000000000E+00
 0.0000000000000E+00
 0.0000000000000E+00
 0.0000000000000E+00
 0.0000000000000E+00
 0.0000000000000E+00
 0.0000000000000E+00
 0.0000000000000E+00
 0.0000000000000E+00
 0.0000000000000E+00
 0.0000000000000E+00
 0.0000000000000E+00
 0.0000000000000E+00
 0.0000000000000E+00
 0.0000000000000E+00
 0.0000000000000E+00
 0.0000000000000E+00
 0.0000000000000E+00
 0.0000000000000E+00
 0.0000000000000E+00
 0.0000000000000E+00
 0.0000000000000E+00
 0.0000000000000E+00
 0.0000000000000E+00
 0.0000000000000E+00
 0.0000000000000E+00
 0.0000000000000E+00
 0.0000000000000E+00
 0.0000000000000E+00
 0.0000000000000E+00
 0.0000000000000E+00
 0.0000000000000E+00
 0.0000000000000E+00
 0.0000000000000E+00
 0.0000000000000E+00
 0.0000000000000E+00
 0.0000000000000E+00
 0.0000000000000E+00
 0.0000000000000E+00
 0.0000000000000E+00
 0.0000000000000E+00
 0.0000000000000E+00
 0.0000000000000E+00
 0.0000000000000E+00
 0.0000000000000E+00
 0.0000000000000E+00
 0.0000000000000E+00
 0.0000000000000E+00
 0.0000000000000E+00
 0.0000000000000E+00
 0.0000000000000E+00
 0.0000000000000E+00
 0.0000000000000E+00
 0.0000000000000E+00
 0.0000000000000E+00
 0.0000000000000E+00
 0.0000000000000E+00
 0.0000000000000E+00
 0.0000000000000E+00
 0.0000000000000E+00
 0.0000000000000E+00
 0.0000000000000E+00
 0.0000000000000E+00
 0.0000000000000E+00
 0.0000000000000E+00
 0.0000000000000E+00
 0.0000000000000E+00
 0.0000000000000E+00
 0.0000000000000E+00
 0.0000000000000E+00
 0.0000000000000E+00
 0.0000000000000E+00
 0.0000000000000E+00
 0.0000000000000E+00
 0.0000000000000E+00
 0.0000000000000E+00
 0.0000000000000E+00
 0.0000000000000E+00
 0.0000000000000E+00
 0.0000000000000E+00
 0.0000000000000E+00
 0.0000000000000E+00
 0.0000000000000E+00
 0.0000000000000E+00
 0.0000000000000E+00
 0.0000000000000E+00
 0.0000000000000E+00
 0.0000000000000E+00
 0.0000000000000E+00
 0.0000000000000E+00
 0.0000000000000E+00
 0.0000000000000E+00
 0.0000000000000E+00
 0.0000000000000E+00
 0.0000000000000E+00
 0.0000000000000E+00
 0.0000000000000E+00
 0.0000000000000E+00
 0.0000000000000E+00
 0.0000000000000E+00
 0.0000000000000E+00
 0.0000000000000E+00
 0.0000000000000E+00
 0.0000000000000E+00
 0.0000000000000E+00
 0.0000000000000E+00
 0.0000000000000E+00
 0.0000000000000E+00
 0.0000000000000E+00
 0.0000000000000E+00
 0.0000000000000E+00
 0.0000000000000E+00
 0.0000000000000E+00
 0.0000000000000E+00
 0.0000000000000E+00
 0.0000000000000E+00
 0.0000000000000E+00
 0.0000000000000E+00
 0.0000000000000E+00
 0.0000000000000E+00
 0.0000000000000E+00
 0.0000000000000E+00
 0.0000000000000E+00
 0.0000000000000E+00
 0.0000000000000E+00
 0.0000000000000E+00
 0.0000000000000E+00
 0.0000000000000E+00
 0.0000000000000E+00
 0.0000000000000E+00
 0.0000000000000E+00
 0.0000000000000E+00
 0.0000000000000E+00
 0.0000000000000E+00
 0.0000000000000E+00
 0.0000000000000E+00
 0.0000000000000E+00
 0.0000000000000E+00
 0.0000000000000E+00
 0.0000000000000E+00
 0.0000000000000E+00
 0.0000000000000E+00
 0.0000000000000E+00
 0.0000000000000E+00
 0.0000000000000E+00
 0.0000000000000E+00
 0.0000000000000E+00
 0.0000000000000E+00
 0.0000000000000E+00
 0.0000000000000E+00
 0.0000000000000E+00
 0.0000000000000E+00
 0.0000000000000E+00
 0.0000000000000E+00
 0.0000000000000E+00
 0.0000000000000E+00
 0.0000000000000E+00
 0.0000000000000E+00
 0.0000000000000E+00
 0.0000000000000E+00
 0.0000000000000E+00
 0.0000000000000E+00
 0.0000000000000E+00
 0.0000000000000E+00
 0.0000000000000E+00
 0.0000000000000E+00
 0.0000000000000E+00
 0.0000000000000E+00
 0.0000000000000E+00
 0.0000000000000E+00
 0.0000000000000E+00
 0.0000000000000E+00
 0.0000000000000E+00
 0.0000000000000E+00
 0.0000000000000E+00
 0.0000000000000E+00
 0.0000000000000E+00
 0.0000000000000E+00
 0.0000000000000E+00
 0.0000000000000E+00
 0.0000000000000E+00
 0.0000000000000E+00
 0.0000000000000E+00
 0.0000000000000E+00
 0.0000000000000E+00
 0.0000000000000E+00
 0.0000000000000E+00
 0.0000000000000E+00
 0.0000000000000E+00
 0.0000000000000E+00
 0.0000000000000E+00
 0.0000000000000E+00
 0.0000000000000E+00
 0.0000000000000E+00
 0.0000000000000E+00
 0.0000000000000E+00
 0.0000000000000E+00
 0.0000000000000E+00
 0.0000000000000E+00
 0.0000000000000E+00
 0.0000000000000E+00
 0.0000000000000E+00
 0.0000000000000E+00
 0.0000000000000E+00
 0.0000000000000E+00
 0.0000000000000E+00
 0.0000000000000E+00
 0.0000000000000E+00
 0.0000000000000E+00
 0.0000000000000E+00
 0.0000000000000E+00
 0.0000000000000E+00
 0.0000000000000E+00
 0.0000000000000E+00
 0.0000000000000E+00
 0.0000000000000E+00
 0.0000000000000E+00
 0.0000000000000E+00
 0.0000000000000E+00
 0.0000000000000E+00
 0.0000000000000E+00
 0.0000000000000E+00
 0.0000000000000E+00
 0.0000000000000E+00
 0.0000000000000E+00
 0.0000000000000E+00
 0.0000000000000E+00
 0.0000000000000E+00
 0.0000000000000E+00
 0.0000000000000E+00
 0.0000000000000E+00
 0.0000000000000E+00
 0.0000000000000E+00
 0.0000000000000E+00
 0.0000000000000E+00
 0.0000000000000E+00
 0.0000000000000E+00
 0.0000000000000E+00
 0.0000000000000E+00
 0.0000000000000E+00
 0.0000000000000E+00
 0.0000000000000E+00
 0.0000000000000E+00
 0.0000000000000E+00
 0.0000000000000E+00
 0.0000000000000E+00
 0.0000000000000E+00
 0.0000000000000E+00
 0.0000000000000E+00
 0.0000000000000E+00
 0.0000000000000E+00
 0.0000000000000E+00
 0.0000000000000E+00
 0.0000000000000E+00
 0.0000000000000E+00
 0.0000000000000E+00
 0.0000000000000E+00
 0.0000000000000E+00
 0.0000000000000E+00
 0.0000000000000E+00
 0.0000000000000E+00
 0.0000000000000E+00
 0.0000000000000E+00
 0.0000000000000E+00
 0.0000000000000E+00
 0.0000000000000E+00
 0.0000000000000E+00
 0.0000000000000E+00
 0.0000000000000E+00
 0.0000000000000E+00
 0.0000000000000E+00
 0.0000000000000E+00
 0.0000000000000E+00
 0.0000000000000E+00
 0.0000000000000E+00
 0.0000000000000E+00
 0.0000000000000E+00
 0.0000000000000E+00
 0.0000000000000E+00
 0.0000000000000E+00
 0.0000000000000E+00
 0.0000000000000E+00
 0.0000000000000E+00
 0.0000000000000E+00
 0.0000000000000E+00
 0.0000000000000E+00
 0.0000000000000E+00
 0.0000000000000E+00
 0.0000000000000E+00
 0.0000000000000E+00
 0.0000000000000E+00
 0.0000000000000E+00
 0.0000000000000E+00
 0.0000000000000E+00
 0.0000000000000E+00
 0.0000000000000E+00
 0.0000000000000E+00
 0.0000000000000E+00
 0.0000000000000E+00
 0.0000000000000E+00
 0.0000000000000E+00
 0.0000000000000E+00
 0.0000000000000E+00
 0.0000000000000E+00
 0.0000000000000E+00
 0.0000000000000E+00
 0.0000000000000E+00
 0.0000000000000E+00
 0.0000000000000E+00
 0.0000000000000E+00
 0.0000000000000E+00
 0.0000000000000E+00
 0.0000000000000E+00
 0.0000000000000E+00
 0.0000000000000E+00
 0.0000000000000E+00
 0.0000000000000E+00
 0.0000000000000E+00
 0.0000000000000E+00
 0.0000000000000E+00
 0.0000000000000E+00
 0.0000000000000E+00
 0.0000000000000E+00
 0.0000000000000E+00
 0.0000000000000E+00
 0.0000000000000E+00
 0.0000000000000E+00
 0.0000000000000E+00
 0.0000000000000E+00
 0.0000000000000E+00
 0.0000000000000E+00
 0.0000000000000E+00
 0.0000000000000E+00
 0.0000000000000E+00
 0.0000000000000E+00
 0.0000000000000E+00
 0.0000000000000E+00
 0.0000000000000E+00
 0.0000000000000E+00
 0.0000000000000E+00
 0.0000000000000E+00
 0.0000000000000E+00
 0.0000000000000E+00
 0.0000000000000E+00
 0.0000000000000E+00
 0.0000000000000E+00
 0.0000000000000E+00
 0.0000000000000E+00
 0.0000000000000E+00
 0.0000000000000E+00
 0.0000000000000E+00
 0.0000000000000E+00
 0.0000000000000E+00
 0.0000000000000E+00
 0.0000000000000E+00
 0.0000000000000E+00
 0.0000000000000E+00
 0.0000000000000E+00
 0.0000000000000E+00
 0.0000000000000E+00
 0.0000000000000E+00
 0.0000000000000E+00
 0.0000000000000E+00
 0.0000000000000E+00
 0.0000000000000E+00
 0.0000000000000E+00
 0.0000000000000E+00
 0.0000000000000E+00
 0.0000000000000E+00
 0.0000000000000E+00
 0.0000000000000E+00
 0.0000000000000E+00
 0.0000000000000E+00
 0.0000000000000E+00
 0.0000000000000E+00
 0.0000000000000E+00
 0.0000000000000E+00
 0.0000000000000E+00
 0.0000000000000E+00
 0.0000000000000E+00
 0.0000000000000E+00
 0.0000000000000E+00
 0.0000000000000E+00
 0.0000000000000E+00
 0.0000000000000E+00
 0.0000000000000E+00
 0.0000000000000E+00
 0.0000000000000E+00
 0.0000000000000E+00
 0.0000000000000E+00
 0.0000000000000E+00
 0.0000000000000E+00
 0.0000000000000E+00
 0.0000000000000E+00
 0.0000000000000E+00
 0.0000000000000E+00
 0.0000000000000E+00
 0.0000000000000E+00
 0.0000000000000E+00
 0.0000000000000E+00
 0.0000000000000E+00
 0.0000000000000E+00
 0.0000000000000E+00
 0.0000000000000E+00
 0.0000000000000E+00
 0.0000000000000E+00
 0.0000000000000E+00
 0.0000000000000E+00
 0.0000000000000E+00
 0.0000000000000E+00
 0.0000000000000E+00
 0.0000000000000E+00
 0.0000000000000E+00
 0.0000000000000E+00
 0.0000000000000E+00
 0.0000000000000E+00
 0.0000000000000E+00
 0.0000000000000E+00
 0.0000000000000E+00
 0.0000000000000E+00
 0.0000000000000E+00
 0.0000000000000E+00
 0.0000000000000E+00
 0.0000000000000E+00
 0.0000000000000E+00
 0.0000000000000E+00
 0.0000000000000E+00
 0.0000000000000E+00
 0.0000000000000E+00
 0.0000000000000E+00
 0.0000000000000E+00
 0.0000000000000E+00
 0.0000000000000E+00
 0.0000000000000E+00
 0.0000000000000E+00
 0.0000000000000E+00
 0.0000000000000E+00
 0.0000000000000E+00
 0.0000000000000E+00
 0.0000000000000E+00
 0.0000000000000E+00
 0.0000000000000E+00
 0.0000000000000E+00
 0.0000000000000E+00
 0.0000000000000E+00
 0.0000000000000E+00
 0.0000000000000E+00
 0.0000000000000E+00
 0.0000000000000E+00
 0.0000000000000E+00
 0.0000000000000E+00
 0.0000000000000E+00
 0.0000000000000E+00
 0.0000000000000E+00
 0.0000000000000E+00
 0.0000000000000E+00
 0.0000000000000E+00
 0.0000000000000E+00
 0.0000000000000E+00
 0.0000000000000E+00
 0.0000000000000E+00
 0.0000000000000E+00
 0.0000000000000E+00
 0.0000000000000E+00
 0.0000000000000E+00
 0.0000000000000E+00
 0.0000000000000E+00
 0.0000000000000E+00
 0.0000000000000E+00
 0.0000000000000E+00
 0.0000000000000E+00
 0.0000000000000E+00
 0.0000000000000E+00
 0.0000000000000E+00
 0.0000000000000E+00
 0.0000000000000E+00
 0.0000000000000E+00
 0.0000000000000E+00
 0.0000000000000E+00
 0.0000000000000E+00
 0.0000000000000E+00
 0.0000000000000E+00
 0.0000000000000E+00
 0.0000000000000E+00
 0.0000000000000E+00
 0.0000000000000E+00
 0.0000000000000E+00
 0.0000000000000E+00
 0.0000000000000E+00
 0.0000000000000E+00
 0.0000000000000E+00
 0.0000000000000E+00
 0.0000000000000E+00
 0.0000000000000E+00
 0.0000000000000E+00
 0.0000000000000E+00
 0.0000000000000E+00
 0.0000000000000E+00
 0.0000000000000E+00
 0.0000000000000E+00
 0.0000000000000E+00
 0.0000000000000E+00
 0.0000000000000E+00
 0.0000000000000E+00
 0.0000000000000E+00
 0.0000000000000E+00
 0.0000000000000E+00
 0.0000000000000E+00
 0.0000000000000E+00
 0.0000000000000E+00
 0.0000000000000E+00
 0.0000000000000E+00
 0.0000000000000E+00
 0.0000000000000E+00
 0.0000000000000E+00
 0.0000000000000E+00
 0.0000000000000E+00
 0.0000000000000E+00
 0.0000000000000E+00
 0.0000000000000E+00
 0.0000000000000E+00
 0.0000000000000E+00
 0.0000000000000E+00
 0.0000000000000E+00
 0.0000000000000E+00
 0.0000000000000E+00
 0.0000000000000E+00
 0.0000000000000E+00
 0.0000000000000E+00
 0.0000000000000E+00
 0.0000000000000E+00
 0.0000000000000E+00
 0.0000000000000E+00
 0.0000000000000E+00
 0.0000000000000E+00
 0.0000000000000E+00
 0.0000000000000E+00
 0.0000000000000E+00
 0.0000000000000E+00
 0.0000000000000E+00
 0.0000000000000E+00
 0.0000000000000E+00
 0.0000000000000E+00
 0.0000000000000E+00
 0.0000000000000E+00
 0.0000000000000E+00
 0.0000000000000E+00
 0.0000000000000E+00
 0.0000000000000E+00
 0.0000000000000E+00
 0.0000000000000E+00
 0.0000000000000E+00
 0.0000000000000E+00
 0.0000000000000E+00
 0.0000000000000E+00
 0.0000000000000E+00
 0.0000000000000E+00
 0.0000000000000E+00
 0.0000000000000E+00
 0.0000000000000E+00
 0.0000000000000E+00
 0.0000000000000E+00
 0.0000000000000E+00
 0.0000000000000E+00
 0.0000000000000E+00
 0.0000000000000E+00
 0.0000000000000E+00
 0.0000000000000E+00
 0.0000000000000E+00
 0.0000000000000E+00
 0.0000000000000E+00
 0.0000000000000E+00
 0.0000000000000E+00
 0.0000000000000E+00
 0.0000000000000E+00
 0.0000000000000E+00
 0.0000000000000E+00
 0.0000000000000E+00
 0.0000000000000E+00
 0.0000000000000E+00
 0.0000000000000E+00
 0.0000000000000E+00
 0.0000000000000E+00
 0.0000000000000E+00
 0.0000000000000E+00
 0.0000000000000E+00
 0.0000000000000E+00
 0.0000000000000E+00
 0.0000000000000E+00
 0.0000000000000E+00
 0.0000000000000E+00
 0.0000000000000E+00
 0.0000000000000E+00
 0.0000000000000E+00
 0.0000000000000E+00
 0.0000000000000E+00
 0.0000000000000E+00
 0.0000000000000E+00
 0.0000000000000E+00
 0.0000000000000E+00
 0.0000000000000E+00
 0.0000000000000E+00
 0.0000000000000E+00
 0.0000000000000E+00
 0.0000000000000E+00
 0.0000000000000E+00
 0.0000000000000E+00
 0.0000000000000E+00
 0.0000000000000E+00
 0.0000000000000E+00
 0.0000000000000E+00
 0.0000000000000E+00
 0.0000000000000E+00
 0.0000000000000E+00
 0.0000000000000E+00
 0.0000000000000E+00
 0.0000000000000E+00
 0.0000000000000E+00
 0.0000000000000E+00
 0.0000000000000E+00
 0.0000000000000E+00
 0.0000000000000E+00
 0.0000000000000E+00
 0.0000000000000E+00
 0.0000000000000E+00
 0.0000000000000E+00
 0.0000000000000E+00
 0.0000000000000E+00
 0.0000000000000E+00
 0.0000000000000E+00
 0.0000000000000E+00
 0.0000000000000E+00
 0.0000000000000E+00
 0.0000000000000E+00
 0.0000000000000E+00
 0.0000000000000E+00
 0.0000000000000E+00
 0.0000000000000E+00
 0.0000000000000E+00
 0.0000000000000E+00
 0.0000000000000E+00
 0.0000000000000E+00
 0.0000000000000E+00
 0.0000000000000E+00
 0.0000000000000E+00
 0.0000000000000E+00
 0.0000000000000E+00
 0.0000000000000E+00
 0.0000000000000E+00
 0.0000000000000E+00
 0.0000000000000E+00
 0.0000000000000E+00
 0.0000000000000E+00
 0.0000000000000E+00
 0.0000000000000E+00
 0.0000000000000E+00
 0.0000000000000E+00
 0.0000000000000E+00
 0.0000000000000E+00
 0.0000000000000E+00
 0.0000000000000E+00
 0.0000000000000E+00
 0.0000000000000E+00
 0.0000000000000E+00
 0.0000000000000E+00
 0.0000000000000E+00
 0.0000000000000E+00
 0.0000000000000E+00
 0.0000000000000E+00
 0.0000000000000E+00
 0.0000000000000E+00
 0.0000000000000E+00
 0.0000000000000E+00
 0.0000000000000E+00
 0.0000000000000E+00
 0.0000000000000E+00
 0.0000000000000E+00
 0.0000000000000E+00
 0.0000000000000E+00
 0.0000000000000E+00
 0.0000000000000E+00
 0.0000000000000E+00
 0.0000000000000E+00
 0.0000000000000E+00
 0.0000000000000E+00
 0.0000000000000E+00
 0.0000000000000E+00
 0.0000000000000E+00
 0.0000000000000E+00
 0.0000000000000E+00
 0.0000000000000E+00
 0.0000000000000E+00
 0.0000000000000E+00
 0.0000000000000E+00
 0.0000000000000E+00
 0.0000000000000E+00
 0.0000000000000E+00
 0.0000000000000E+00
 0.0000000000000E+00
 0.0000000000000E+00
 0.0000000000000E+00
 0.0000000000000E+00
 0.0000000000000E+00
 0.0000000000000E+00
 0.0000000000000E+00
 0.0000000000000E+00
 0.0000000000000E+00
 0.0000000000000E+00
 0.0000000000000E+00
 0.0000000000000E+00
 0.0000000000000E+00
 0.0000000000000E+00
 0.0000000000000E+00
 0.0000000000000E+00
 0.0000000000000E+00
 0.0000000000000E+00
 0.0000000000000E+00
 0.0000000000000E+00
 0.0000000000000E+00
 0.0000000000000E+00
 0.0000000000000E+00
 0.0000000000000E+00
 0.0000000000000E+00
 0.0000000000000E+00
 0.0000000000000E+00
 0.0000000000000E+00
 0.0000000000000E+00
 0.0000000000000E+00
 0.0000000000000E+00
 0.0000000000000E+00
 0.0000000000000E+00
 0.0000000000000E+00
 0.0000000000000E+00
 0.0000000000000E+00
 0.0000000000000E+00
 0.0000000000000E+00
 0.0000000000000E+00
 0.0000000000000E+00
 0.0000000000000E+00
 0.0000000000000E+00
 0.0000000000000E+00
 0.0000000000000E+00
 0.0000000000000E+00
 0.0000000000000E+00
 0.0000000000000E+00
 0.0000000000000E+00
 0.0000000000000E+00
 0.0000000000000E+00
 0.0000000000000E+00
 0.0000000000000E+00
 0.0000000000000E+00
 0.0000000000000E+00
 0.0000000000000E+00
 0.0000000000000E+00
 0.0000000000000E+00
 0.0000000000000E+00
 0.0000000000000E+00
 0.0000000000000E+00
 0.0000000000000E+00
 0.0000000000000E+00
 0.0000000000000E+00
 0.0000000000000E+00
 0.0000000000000E+00
 0.0000000000000E+00
 0.0000000000000E+00
 0.0000000000000E+00
 0.0000000000000E+00
 0.0000000000000E+00
 0.0000000000000E+00
 0.0000000000000E+00
 0.0000000000000E+00
 0.0000000000000E+00
 0.0000000000000E+00
 0.0000000000000E+00
 0.0000000000000E+00
 0.0000000000000E+00
 0.0000000000000E+00
 0.0000000000000E+00
 0.0000000000000E+00
 0.0000000000000E+00
 0.0000000000000E+00
 0.0000000000000E+00
 0.0000000000000E+00
 0.0000000000000E+00
 0.0000000000000E+00
 0.0000000000000E+00
 0.0000000000000E+00
 0.0000000000000E+00
 0.0000000000000E+00
 0.0000000000000E+00
 0.0000000000000E+00
 0.0000000000000E+00
 0.0000000000000E+00
 0.0000000000000E+00
 0.0000000000000E+00
 0.0000000000000E+00
 0.0000000000000E+00
 0.0000000000000E+00
 0.0000000000000E+00
 0.0000000000000E+00
 0.0000000000000E+00
 0.0000000000000E+00
 0.0000000000000E+00
 0.0000000000000E+00
 0.0000000000000E+00
 0.0000000000000E+00
 0.0000000000000E+00
 0.0000000000000E+00
 0.0000000000000E+00
 0.0000000000000E+00
 0.0000000000000E+00
 0.0000000000000E+00
 0.0000000000000E+00
 0.0000000000000E+00
 0.0000000000000E+00
 0.0000000000000E+00
 0.0000000000000E+00
 0.0000000000000E+00
 0.0000000000000E+00
 0.0000000000000E+00
 0.0000000000000E+00
 0.0000000000000E+00
 0.0000000000000E+00
 0.0000000000000E+00
 0.0000000000000E+00
 0.0000000000000E+00
 0.0000000000000E+00
 0.0000000000000E+00
 0.0000000000000E+00
 0.0000000000000E+00
 0.0000000000000E+00
 0.0000000000000E+00
 0.0000000000000E+00
 0.0000000000000E+00
 0.0000000000000E+00
 0.0000000000000E+00
 0.0000000000000E+00
 0.0000000000000E+00
 0.0000000000000E+00
 0.0000000000000E+00
 0.0000000000000E+00
 0.0000000000000E+00
 0.0000000000000E+00
 0.0000000000000E+00
 0.0000000000000E+00
 0.0000000000000E+00
 0.0000000000000E+00
 0.0000000000000E+00
 0.0000000000000E+00
 0.0000000000000E+00
 0.0000000000000E+00
 0.0000000000000E+00
 0.0000000000000E+00
 0.0000000000000E+00
 0.0000000000000E+00
 0.0000000000000E+00
 0.0000000000000E+00
 0.0000000000000E+00
 0.0000000000000E+00
 0.0000000000000E+00
 0.0000000000000E+00
 0.0000000000000E+00
 0.0000000000000E+00
 0.0000000000000E+00
 0.0000000000000E+00
 0.0000000000000E+00
 0.0000000000000E+00
 0.0000000000000E+00
 0.0000000000000E+00
 0.0000000000000E+00
 0.0000000000000E+00
 0.0000000000000E+00
 0.0000000000000E+00
 0.0000000000000E+00
 0.0000000000000E+00
 0.0000000000000E+00
 0.0000000000000E+00
 0.0000000000000E+00
 0.0000000000000E+00
 0.0000000000000E+00
 0.0000000000000E+00
 0.0000000000000E+00
 0.0000000000000E+00
 0.0000000000000E+00
 0.0000000000000E+00
 0.0000000000000E+00
 0.0000000000000E+00
 0.0000000000000E+00
 0.0000000000000E+00
 0.0000000000000E+00
 0.0000000000000E+00
 0.0000000000000E+00
 0.0000000000000E+00
 0.0000000000000E+00
 0.0000000000000E+00
 0.0000000000000E+00
 0.0000000000000E+00
 0.0000000000000E+00
 0.0000000000000E+00
 0.0000000000000E+00
 0.0000000000000E+00
 0.0000000000000E+00
 0.0000000000000E+00
 0.0000000000000E+00
 0.0000000000000E+00
 0.0000000000000E+00
 0.0000000000000E+00
 0.0000000000000E+00
 0.0000000000000E+00
 0.0000000000000E+00
 0.0000000000000E+00
 0.0000000000000E+00
 0.0000000000000E+00
 0.0000000000000E+00
 0.0000000000000E+00
 0.0000000000000E+00
 0.0000000000000E+00
 0.0000000000000E+00
 0.0000000000000E+00
 0.0000000000000E+00
 0.0000000000000E+00
 0.0000000000000E+00
 0.0000000000000E+00
 0.0000000000000E+00
 0.0000000000000E+00
 0.0000000000000E+00
 0.0000000000000E+00
 0.0000000000000E+00
 0.0000000000000E+00
 0.0000000000000E+00
 0.0000000000000E+00
 0.0000000000000E+00
 0.0000000000000E+00
 0.0000000000000E+00
 0.0000000000000E+00
 0.0000000000000E+00
 0.0000000000000E+00
 0.0000000000000E+00
 0.0000000000000E+00
 0.0000000000000E+00
 0.0000000000000E+00
 0.0000000000000E+00
 0.0000000000000E+00
 0.0000000000000E+00
 0.0000000000000E+00
 0.0000000000000E+00
 0.0000000000000E+00
 0.0000000000000E+00
 0.0000000000000E+00
 0.0000000000000E+00
 0.0000000000000E+00
 0.0000000000000E+00
 0.0000000000000E+00
 0.0000000000000E+00
 0.0000000000000E+00
 0.0000000000000E+00
 0.0000000000000E+00
 0.0000000000000E+00
 0.0000000000000E+00
 0.0000000000000E+00
 0.0000000000000E+00
 0.0000000000000E+00
 0.0000000000000E+00
 0.0000000000000E+00
 0.0000000000000E+00
 0.0000000000000E+00
 0.0000000000000E+00
 0.0000000000000E+00
 0.0000000000000E+00
 0.0000000000000E+00
 0.0000000000000E+00
 0.0000000000000E+00
 0.0000000000000E+00
 0.0000000000000E+00
 0.0000000000000E+00
 0.0000000000000E+00
 0.0000000000000E+00
 0.0000000000000E+00
 0.0000000000000E+00
 0.0000000000000E+00
 0.0000000000000E+00
 0.0000000000000E+00
 0.0000000000000E+00
 0.0000000000000E+00
 0.0000000000000E+00
 0.0000000000000E+00
 0.0000000000000E+00
 0.0000000000000E+00
 0.0000000000000E+00
 0.0000000000000E+00
 0.0000000000000E+00
 0.0000000000000E+00
 0.0000000000000E+00
 0.0000000000000E+00
 0.0000000000000E+00
 0.0000000000000E+00
 0.0000000000000E+00
 0.0000000000000E+00
 0.0000000000000E+00
 0.0000000000000E+00
 0.0000000000000E+00
 0.0000000000000E+00
 0.0000000000000E+00
 0.0000000000000E+00
 0.0000000000000E+00
 0.0000000000000E+00
 0.0000000000000E+00
 0.0000000000000E+00
 0.0000000000000E+00
 0.0000000000000E+00
 0.0000000000000E+00
 0.0000000000000E+00
 0.0000000000000E+00
 0.0000000000000E+00
 0.0000000000000E+00
 0.0000000000000E+00
 0.0000000000000E+00
 0.0000000000000E+00
 0.0000000000000E+00
 0.0000000000000E+00
 0.0000000000000E+00
 0.0000000000000E+00
 0.0000000000000E+00
 0.0000000000000E+00
 0.0000000000000E+00
 0.0000000000000E+00
 0.0000000000000E+00
 0.0000000000000E+00
 0.0000000000000E+00
 0.0000000000000E+00
 0.0000000000000E+00
 0.0000000000000E+00
 0.0000000000000E+00
 0.0000000000000E+00
 0.0000000000000E+00
 0.0000000000000E+00
 0.0000000000000E+00
 0.0000000000000E+00
 0.0000000000000E+00
 0.0000000000000E+00
 0.0000000000000E+00
 0.0000000000000E+00
 0.0000000000000E+00
 0.0000000000000E+00
 0.0000000000000E+00
 0.0000000000000E+00
 0.0000000000000E+00
 0.0000000000000E+00
 0.0000000000000E+00
 0.0000000000000E+00
 0.0000000000000E+00
 0.0000000000000E+00
 0.0000000000000E+00
 0.0000000000000E+00
 0.0000000000000E+00
 0.0000000000000E+00
 0.0000000000000E+00
 0.0000000000000E+00
 0.0000000000000E+00
 0.0000000000000E+00
 0.0000000000000E+00
 0.0000000000000E+00
 0.0000000000000E+00
 0.0000000000000E+00
 0.0000000000000E+00
 0.0000000000000E+00
 0.0000000000000E+00
 0.0000000000000E+00
 0.0000000000000E+00
 0.0000000000000E+00
 0.0000000000000E+00
 0.0000000000000E+00
 0.0000000000000E+00
 0.0000000000000E+00
 0.0000000000000E+00
 0.0000000000000E+00
 0.0000000000000E+00
 0.0000000000000E+00
 0.0000000000000E+00
 0.0000000000000E+00
 0.0000000000000E+00
 0.0000000000000E+00
 0.0000000000000E+00
 0.0000000000000E+00
 0.0000000000000E+00
 0.0000000000000E+00
 0.0000000000000E+00
 0.0000000000000E+00
 0.0000000000000E+00
 0.0000000000000E+00
 0.0000000000000E+00
 0.0000000000000E+00
 0.0000000000000E+00
 0.0000000000000E+00
 0.0000000000000E+00
 0.0000000000000E+00
 0.0000000000000E+00
 0.0000000000000E+00
 0.0000000000000E+00
 0.0000000000000E+00
 0.0000000000000E+00
 0.0000000000000E+00
 0.0000000000000E+00
 0.0000000000000E+00
 0.0000000000000E+00
 0.0000000000000E+00
 0.0000000000000E+00
 0.0000000000000E+00
 0.0000000000000E+00
 0.0000000000000E+00
 0.0000000000000E+00
 0.0000000000000E+00
 0.0000000000000E+00
 0.0000000000000E+00
 0.0000000000000E+00
 0.0000000000000E+00
 0.0000000000000E+00
 0.0000000000000E+00
 0.0000000000000E+00
 0.0000000000000E+00
 0.0000000000000E+00
 0.0000000000000E+00
 0.0000000000000E+00
 0.0000000000000E+00
 0.0000000000000E+00
 0.0000000000000E+00
 0.0000000000000E+00
 0.0000000000000E+00
 0.0000000000000E+00
 0.0000000000000E+00
 0.0000000000000E+00
 0.0000000000000E+00
 0.0000000000000E+00
 0.0000000000000E+00
 0.0000000000000E+00
 0.0000000000000E+00
 0.0000000000000E+00
 0.0000000000000E+00
 0.0000000000000E+00
 0.0000000000000E+00
 0.0000000000000E+00
 0.0000000000000E+00
 0.0000000000000E+00
 0.0000000000000E+00
 0.0000000000000E+00
 0.0000000000000E+00
 0.0000000000000E+00
 0.0000000000000E+00
 0.0000000000000E+00
 0.0000000000000E+00
 0.0000000000000E+00
 0.0000000000000E+00
 0.0000000000000E+00
 0.0000000000000E+00
 0.0000000000000E+00
 0.0000000000000E+00
 0.0000000000000E+00
 0.0000000000000E+00
 0.0000000000000E+00
 0.0000000000000E+00
 0.0000000000000E+00
 0.0000000000000E+00
 0.0000000000000E+00
 0.0000000000000E+00
 0.0000000000000E+00
 0.0000000000000E+00
 0.0000000000000E+00
 0.0000000000000E+00
 0.0000000000000E+00
 0.0000000000000E+00
 0.0000000000000E+00
 0.0000000000000E+00
 0.0000000000000E+00
 0.0000000000000E+00
 0.0000000000000E+00
 0.0000000000000E+00
 0.0000000000000E+00
 0.0000000000000E+00
 0.0000000000000E+00
 0.0000000000000E+00
 0.0000000000000E+00
 0.0000000000000E+00
 0.0000000000000E+00
 0.0000000000000E+00
 0.0000000000000E+00
 0.0000000000000E+00
 0.0000000000000E+00
 0.0000000000000E+00
 0.0000000000000E+00
 0.0000000000000E+00
 0.0000000000000E+00
 0.0000000000000E+00
 0.0000000000000E+00
 0.0000000000000E+00
 0.0000000000000E+00
 0.0000000000000E+00
 0.0000000000000E+00
 0.0000000000000E+00
 0.0000000000000E+00
 0.0000000000000E+00
 0.0000000000000E+00
 0.0000000000000E+00
 0.0000000000000E+00
 0.0000000000000E+00
 0.0000000000000E+00
 0.0000000000000E+00
 0.0000000000000E+00
 0.0000000000000E+00
 0.0000000000000E+00
 0.0000000000000E+00
 0.0000000000000E+00
 0.0000000000000E+00
 0.0000000000000E+00
 0.0000000000000E+00
 0.0000000000000E+00
 0.0000000000000E+00
 0.0000000000000E+00
 0.0000000000000E+00
 0.0000000000000E+00
 0.0000000000000E+00
 0.0000000000000E+00
 0.0000000000000E+00
 0.0000000000000E+00
 0.0000000000000E+00
 0.0000000000000E+00
 0.0000000000000E+00
 0.0000000000000E+00
 0.0000000000000E+00
 0.0000000000000E+00
 0.0000000000000E+00
 0.0000000000000E+00
 0.0000000000000E+00
 0.0000000000000E+00
 0.0000000000000E+00
 0.0000000000000E+00
 0.0000000000000E+00
 0.0000000000000E+00
 0.0000000000000E+00
 0.0000000000000E+00
 0.0000000000000E+00
 0.0000000000000E+00
 0.0000000000000E+00
 0.0000000000000E+00
 0.0000000000000E+00
 0.0000000000000E+00
 0.0000000000000E+00
 0.0000000000000E+00
 0.0000000000000E+00
 0.0000000000000E+00
 0.0000000000000E+00
 0.0000000000000E+00
 0.0000000000000E+00
 0.0000000000000E+00
 0.0000000000000E+00
 0.0000000000000E+00
 0.0000000000000E+00
 0.0000000000000E+00
 0.0000000000000E+00
 0.0000000000000E+00
 0.0000000000000E+00
 0.0000000000000E+00
 0.0000000000000E+00
 0.0000000000000E+00
 0.0000000000000E+00
 0.0000000000000E+00
 0.0000000000000E+00
 0.0000000000000E+00
 0.0000000000000E+00
 0.0000000000000E+00
 0.0000000000000E+00
 0.0000000000000E+00
 0.0000000000000E+00
 0.0000000000000E+00
 0.0000000000000E+00
 0.0000000000000E+00
 0.0000000000000E+00
 0.0000000000000E+00
 0.0000000000000E+00
 0.0000000000000E+00
 0.0000000000000E+00
 0.0000000000000E+00
 0.0000000000000E+00
 0.0000000000000E+00
 0.0000000000000E+00
 0.0000000000000E+00
 0.0000000000000E+00
 0.0000000000000E+00
 0.0000000000000E+00
 0.0000000000000E+00
 0.0000000000000E+00
 0.0000000000000E+00
 0.0000000000000E+00
 0.0000000000000E+00
 0.0000000000000E+00
 0.0000000000000E+00
 0.0000000000000E+00
 0.0000000000000E+00
 0.0000000000000E+00
 0.0000000000000E+00
 0.0000000000000E+00
 0.0000000000000E+00
 0.0000000000000E+00
 0.0000000000000E+00
 0.0000000000000E+00
 0.0000000000000E+00
 0.0000000000000E+00
 0.0000000000000E+00
 0.0000000000000E+00
 0.0000000000000E+00
 0.0000000000000E+00
 0.0000000000000E+00
 0.0000000000000E+00
 0.0000000000000E+00
 0.0000000000000E+00
 0.0000000000000E+00
 0.0000000000000E+00
 0.0000000000000E+00
 0.0000000000000E+00
 0.0000000000000E+00
 0.0000000000000E+00
 0.0000000000000E+00
 0.0000000000000E+00
 0.0000000000000E+00
 0.0000000000000E+00
 0.0000000000000E+00
 0.0000000000000E+00
 0.0000000000000E+00
 0.0000000000000E+00
 0.0000000000000E+00
 0.0000000000000E+00
 0.0000000000000E+00
 0.0000000000000E+00
 0.0000000000000E+00
 0.0000000000000E+00
 0.0000000000000E+00
 0.0000000000000E+00
 0.0000000000000E+00
 0.0000000000000E+00
 0.0000000000000E+00
 0.0000000000000E+00
 0.0000000000000E+00
 0.0000000000000E+00
 0.0000000000000E+00
 0.0000000000000E+00
 0.0000000000000E+00
 0.0000000000000E+00
 0.0000000000000E+00
 0.0000000000000E+00
 0.0000000000000E+00
 0.0000000000000E+00
 0.0000000000000E+00
 0.0000000000000E+00
 0.0000000000000E+00
 0.0000000000000E+00
 0.0000000000000E+00
 0.0000000000000E+00
 0.0000000000000E+00
 0.0000000000000E+00
 0.0000000000000E+00
 0.0000000000000E+00
 0.0000000000000E+00
 0.0000000000000E+00
 0.0000000000000E+00
 0.0000000000000E+00
 0.0000000000000E+00
 0.0000000000000E+00
 0.0000000000000E+00
 0.0000000000000E+00
 0.0000000000000E+00
 0.0000000000000E+00
 0.0000000000000E+00
 0.0000000000000E+00
 0.0000000000000E+00
 0.0000000000000E+00
 0.0000000000000E+00
 0.0000000000000E+00
 0.0000000000000E+00
 0.0000000000000E+00
 0.0000000000000E+00
 0.0000000000000E+00
 0.0000000000000E+00
 0.0000000000000E+00
 0.0000000000000E+00
 0.0000000000000E+00
 0.0000000000000E+00
 0.0000000000000E+00
 0.0000000000000E+00
 0.0000000000000E+00
 0.0000000000000E+00
 0.0000000000000E+00
 0.0000000000000E+00
 0.0000000000000E+00
 0.0000000000000E+00
 0.0000000000000E+00
 0.0000000000000E+00
 0.0000000000000E+00
 0.0000000000000E+00
 0.0000000000000E+00
 0.0000000000000E+00
 0.0000000000000E+00
 0.0000000000000E+00
 0.0000000000000E+00
 0.0000000000000E+00
 0.0000000000000E+00
 0.0000000000000E+00
 0.0000000000000E+00
 0.0000000000000E+00
 0.0000000000000E+00
 0.0000000000000E+00
 0.0000000000000E+00
 0.0000000000000E+00
 0.0000000000000E+00
 0.0000000000000E+00
 0.0000000000000E+00
 0.0000000000000E+00
 0.0000000000000E+00
 0.0000000000000E+00
 0.0000000000000E+00
 0.0000000000000E+00
 0.0000000000000E+00
 0.0000000000000E+00
 0.0000000000000E+00
 0.0000000000000E+00
 0.0000000000000E+00
 0.0000000000000E+00
 0.0000000000000E+00
 0.0000000000000E+00
 0.0000000000000E+00
 0.0000000000000E+00
 0.0000000000000E+00
 0.0000000000000E+00
 0.0000000000000E+00
 0.0000000000000E+00
 0.0000000000000E+00
 0.0000000000000E+00
 0.0000000000000E+00
 0.0000000000000E+00
 0.0000000000000E+00
 0.0000000000000E+00
 0.0000000000000E+00
 0.0000000000000E+00
 0.0000000000000E+00
 0.0000000000000E+00
 0.0000000000000E+00
 0.0000000000000E+00
 0.0000000000000E+00
 0.0000000000000E+00
 0.0000000000000E+00
 0.0000000000000E+00
 0.0000000000000E+00
 0.0000000000000E+00
 0.0000000000000E+00
 0.0000000000000E+00
 0.0000000000000E+00
 0.0000000000000E+00
 0.0000000000000E+00
 0.0000000000000E+00
 0.0000000000000E+00
 0.0000000000000E+00
 0.0000000000000E+00
 0.0000000000000E+00
 0.0000000000000E+00
 0.0000000000000E+00
 0.0000000000000E+00
 0.0000000000000E+00
 0.0000000000000E+00
 0.0000000000000E+00
 0.0000000000000E+00
 0.0000000000000E+00
 0.0000000000000E+00
 0.0000000000000E+00
 0.0000000000000E+00
 0.0000000000000E+00
 0.0000000000000E+00
 0.0000000000000E+00
 0.0000000000000E+00
 0.0000000000000E+00
 0.0000000000000E+00
 0.0000000000000E+00
 0.0000000000000E+00
 0.0000000000000E+00
 0.0000000000000E+00
 0.0000000000000E+00
 0.0000000000000E+00
 0.0000000000000E+00
 0.0000000000000E+00
 0.0000000000000E+00
 0.0000000000000E+00
 0.0000000000000E+00
 0.0000000000000E+00
 0.0000000000000E+00
 0.0000000000000E+00
 0.0000000000000E+00
 0.0000000000000E+00
 0.0000000000000E+00
 0.0000000000000E+00
 0.0000000000000E+00
 0.0000000000000E+00
 0.0000000000000E+00
 0.0000000000000E+00
 0.0000000000000E+00
 0.0000000000000E+00
 0.0000000000000E+00
 0.0000000000000E+00
 0.0000000000000E+00
 0.0000000000000E+00
 0.0000000000000E+00
 0.0000000000000E+00
 0.0000000000000E+00
 0.0000000000000E+00
 0.0000000000000E+00
 0.0000000000000E+00
 0.0000000000000E+00
 0.0000000000000E+00
 0.0000000000000E+00
 0.0000000000000E+00
 0.0000000000000E+00
 0.0000000000000E+00
 0.0000000000000E+00
 0.0000000000000E+00
 0.0000000000000E+00
 0.0000000000000E+00
 0.0000000000000E+00
 0.0000000000000E+00
 0.0000000000000E+00
 0.0000000000000E+00
 0.0000000000000E+00
 0.0000000000000E+00
 0.0000000000000E+00
 0.0000000000000E+00
 0.0000000000000E+00
 0.0000000000000E+00
 0.0000000000000E+00
 0.0000000000000E+00
 0.0000000000000E+00
 0.0000000000000E+00
 0.0000000000000E+00
 0.0000000000000E+00
 0.0000000000000E+00
 0.0000000000000E+00
 0.0000000000000E+00
 0.0000000000000E+00
 0.0000000000000E+00
 0.0000000000000E+00
 0.0000000000000E+00
 0.0000000000000E+00
 0.0000000000000E+00
 0.0000000000000E+00
 0.0000000000000E+00
 0.0000000000000E+00
 0.0000000000000E+00
 0.0000000000000E+00
 0.0000000000000E+00
 0.0000000000000E+00
 0.0000000000000E+00
 0.0000000000000E+00
 0.0000000000000E+00
 0.0000000000000E+00
 0.0000000000000E+00
 0.0000000000000E+00
 0.0000000000000E+00
 0.0000000000000E+00
 0.0000000000000E+00
 0.0000000000000E+00
 0.0000000000000E+00
 0.0000000000000E+00
 0.0000000000000E+00
 0.0000000000000E+00
 0.0000000000000E+00
 0.0000000000000E+00
 0.0000000000000E+00
 0.0000000000000E+00
 0.0000000000000E+00
 0.0000000000000E+00
 0.0000000000000E+00
 0.0000000000000E+00
 0.0000000000000E+00
 0.0000000000000E+00
 0.0000000000000E+00
 0.0000000000000E+00
 0.0000000000000E+00
 0.0000000000000E+00
 0.0000000000000E+00
 0.0000000000000E+00
 0.0000000000000E+00
 0.0000000000000E+00
 0.0000000000000E+00
 0.0000000000000E+00
 0.0000000000000E+00
 0.0000000000000E+00
 0.0000000000000E+00
 0.0000000000000E+00
 0.0000000000000E+00
 0.0000000000000E+00
 0.0000000000000E+00
 0.0000000000000E+00
 0.0000000000000E+00
 0.0000000000000E+00
 0.0000000000000E+00
 0.0000000000000E+00
 0.0000000000000E+00
 0.0000000000000E+00
 0.0000000000000E+00
 0.0000000000000E+00
 0.0000000000000E+00
 0.0000000000000E+00
 0.0000000000000E+00
 0.0000000000000E+00
 0.0000000000000E+00
 0.0000000000000E+00
 0.0000000000000E+00
 0.0000000000000E+00
 0.0000000000000E+00
 0.0000000000000E+00
 0.0000000000000E+00
 0.0000000000000E+00
 0.0000000000000E+00
 0.0000000000000E+00
 0.0000000000000E+00
 0.0000000000000E+00
 0.0000000000000E+00
 0.0000000000000E+00
 0.0000000000000E+00
 0.0000000000000E+00
 0.0000000000000E+00
 0.0000000000000E+00
 0.0000000000000E+00
 0.0000000000000E+00
 0.0000000000000E+00
 0.0000000000000E+00
 0.0000000000000E+00
 0.0000000000000E+00
 0.0000000000000E+00
 0.0000000000000E+00
 0.0000000000000E+00
 0.0000000000000E+00
 0.0000000000000E+00
 0.0000000000000E+00
 0.0000000000000E+00
 0.0000000000000E+00
 0.0000000000000E+00
 0.0000000000000E+00
 0.0000000000000E+00
 0.0000000000000E+00
 0.0000000000000E+00
 0.0000000000000E+00
 0.0000000000000E+00
 0.0000000000000E+00
 0.0000000000000E+00
 0.0000000000000E+00
 0.0000000000000E+00
 0.0000000000000E+00
 0.0000000000000E+00
 0.0000000000000E+00
 0.0000000000000E+00
 0.0000000000000E+00
 0.0000000000000E+00
 0.0000000000000E+00
 0.0000000000000E+00
 0.0000000000000E+00
 0.0000000000000E+00
 0.0000000000000E+00
 0.0000000000000E+00
 0.0000000000000E+00
 0.0000000000000E+00
 0.0000000000000E+00
 0.0000000000000E+00
 0.0000000000000E+00
 0.0000000000000E+00
 0.0000000000000E+00
 0.0000000000000E+00
 0.0000000000000E+00
 0.0000000000000E+00
 0.0000000000000E+00
 0.0000000000000E+00
 0.0000000000000E+00
 0.0000000000000E+00
 0.0000000000000E+00
 0.0000000000000E+00
 0.0000000000000E+00
 0.0000000000000E+00
 0.0000000000000E+00
 0.0000000000000E+00
 0.0000000000000E+00
 0.0000000000000E+00
 0.0000000000000E+00
 0.0000000000000E+00
 0.0000000000000E+00
 0.0000000000000E+00
 0.0000000000000E+00
 0.0000000000000E+00
 0.0000000000000E+00
 0.0000000000000E+00
 0.0000000000000E+00
 0.0000000000000E+00
 0.0000000000000E+00
 0.0000000000000E+00
 0.0000000000000E+00
 0.0000000000000E+00
 0.0000000000000E+00
 0.0000000000000E+00
 0.0000000000000E+00
 0.0000000000000E+00
 0.0000000000000E+00
 0.0000000000000E+00
 0.0000000000000E+00
 0.0000000000000E+00
 0.0000000000000E+00
 0.0000000000000E+00
 0.0000000000000E+00
 0.0000000000000E+00
 0.0000000000000E+00
 0.0000000000000E+00
 0.0000000000000E+00
 0.0000000000000E+00
 0.0000000000000E+00
 0.0000000000000E+00
 0.0000000000000E+00
 0.0000000000000E+00
 0.0000000000000E+00
 0.0000000000000E+00
 0.0000000000000E+00
 0.0000000000000E+00
 0.0000000000000E+00
 0.0000000000000E+00
 0.0000000000000E+00
 0.0000000000000E+00
 0.0000000000000E+00
 0.0000000000000E+00
 0.0000000000000E+00
 0.0000000000000E+00
 0.0000000000000E+00
 0.0000000000000E+00
 0.0000000000000E+00
 0.0000000000000E+00
 0.0000000000000E+00
 0.0000000000000E+00
 0.0000000000000E+00
 0.0000000000000E+00
 0.0000000000000E+00
 0.0000000000000E+00
 0.0000000000000E+00
 0.0000000000000E+00
 0.0000000000000E+00
 0.0000000000000E+00
 0.0000000000000E+00
 0.0000000000000E+00
 0.0000000000000E+00
 0.0000000000000E+00
 0.0000000000000E+00
 0.0000000000000E+00
 0.0000000000000E+00
 0.0000000000000E+00
 0.0000000000000E+00
 0.0000000000000E+00
 0.0000000000000E+00
 0.0000000000000E+00
 0.0000000000000E+00
 0.0000000000000E+00
 0.0000000000000E+00
 0.0000000000000E+00
 0.0000000000000E+00
 0.0000000000000E+00
 0.0000000000000E+00
 0.0000000000000E+00
 0.0000000000000E+00
 0.0000000000000E+00
 0.0000000000000E+00
 0.0000000000000E+00
 0.0000000000000E+00
 0.0000000000000E+00
 0.0000000000000E+00
 0.0000000000000E+00
 0.0000000000000E+00
 0.0000000000000E+00
 0.0000000000000E+00
 0.0000000000000E+00
 0.0000000000000E+00
 0.0000000000000E+00
 0.0000000000000E+00
 0.0000000000000E+00
 0.0000000000000E+00
 0.0000000000000E+00
 0.0000000000000E+00
 0.0000000000000E+00
 0.0000000000000E+00
 0.0000000000000E+00
 0.0000000000000E+00
 0.0000000000000E+00
 0.0000000000000E+00
 0.0000000000000E+00
 0.0000000000000E+00
 0.0000000000000E+00
 0.0000000000000E+00
 0.0000000000000E+00
 0.0000000000000E+00
 0.0000000000000E+00
 0.0000000000000E+00
 0.0000000000000E+00
 0.0000000000000E+00
 0.0000000000000E+00
 0.0000000000000E+00
 0.0000000000000E+00
 0.0000000000000E+00
 0.0000000000000E+00
 0.0000000000000E+00
 0.0000000000000E+00
 0.0000000000000E+00
 0.0000000000000E+00
 0.0000000000000E+00
 0.0000000000000E+00
 0.0000000000000E+00
 0.0000000000000E+00
 0.0000000000000E+00
 0.0000000000000E+00
 0.0000000000000E+00
 0.0000000000000E+00
 0.0000000000000E+00
 0.0000000000000E+00
 0.0000000000000E+00
 0.0000000000000E+00
 0.0000000000000E+00
 0.0000000000000E+00
 0.0000000000000E+00
 0.0000000000000E+00
 0.0000000000000E+00
 0.0000000000000E+00
 0.0000000000000E+00
 0.0000000000000E+00
 0.0000000000000E+00
 0.0000000000000E+00
 0.0000000000000E+00
 0.0000000000000E+00
 0.0000000000000E+00
 0.0000000000000E+00
 0.0000000000000E+00
 0.0000000000000E+00
 0.0000000000000E+00
 0.0000000000000E+00
 0.0000000000000E+00
 0.0000000000000E+00
 0.0000000000000E+00
 0.0000000000000E+00
 0.0000000000000E+00
 0.0000000000000E+00
 0.0000000000000E+00
 0.0000000000000E+00
 0.0000000000000E+00
 0.0000000000000E+00
 0.0000000000000E+00
 0.0000000000000E+00
 0.0000000000000E+00
 0.0000000000000E+00
 0.0000000000000E+00
 0.0000000000000E+00
 0.0000000000000E+00
 0.0000000000000E+00
 0.0000000000000E+00
 0.0000000000000E+00
 0.0000000000000E+00
 0.0000000000000E+00
 0.0000000000000E+00
 0.0000000000000E+00
 0.0000000000000E+00
 0.0000000000000E+00
 0.0000000000000E+00
 0.0000000000000E+00
 0.0000000000000E+00
 0.0000000000000E+00
 0.0000000000000E+00
 0.0000000000000E+00
 0.0000000000000E+00
 0.0000000000000E+00
 0.0000000000000E+00
 0.0000000000000E+00
 0.0000000000000E+00
 0.0000000000000E+00
 0.0000000000000E+00
 0.0000000000000E+00
 0.0000000000000E+00
 0.0000000000000E+00
 0.0000000000000E+00
 0.0000000000000E+00
 0.0000000000000E+00
 0.0000000000000E+00
 0.0000000000000E+00
 0.0000000000000E+00
 0.0000000000000E+00
 0.0000000000000E+00
 0.0000000000000E+00
 0.0000000000000E+00
 0.0000000000000E+00
 0.0000000000000E+00
 0.0000000000000E+00
 0.0000000000000E+00
 0.0000000000000E+00
 0.0000000000000E+00
 0.0000000000000E+00
 0.0000000000000E+00
 0.0000000000000E+00
 0.0000000000000E+00
 0.0000000000000E+00
 0.0000000000000E+00
 0.0000000000000E+00
 0.0000000000000E+00
 0.0000000000000E+00
 0.0000000000000E+00
 0.0000000000000E+00
 0.0000000000000E+00
 0.0000000000000E+00
 0.0000000000000E+00
 0.0000000000000E+00
 0.0000000000000E+00
 0.0000000000000E+00
 0.0000000000000E+00
 0.0000000000000E+00
 0.0000000000000E+00
 0.0000000000000E+00
 0.0000000000000E+00
 0.0000000000000E+00
 0.0000000000000E+00
 0.0000000000000E+00
 0.0000000000000E+00
 0.0000000000000E+00
 0.0000000000000E+00
 0.0000000000000E+00
 0.0000000000000E+00
 0.0000000000000E+00
 0.0000000000000E+00
 0.0000000000000E+00
 0.0000000000000E+00
 0.0000000000000E+00
 0.0000000000000E+00
 0.0000000000000E+00
 0.0000000000000E+00
 0.0000000000000E+00
 0.0000000000000E+00
 0.0000000000000E+00
 0.0000000000000E+00
 0.0000000000000E+00
 0.0000000000000E+00
 0.0000000000000E+00
 0.0000000000000E+00
 0.0000000000000E+00
 0.0000000000000E+00
 0.0000000000000E+00
 0.0000000000000E+00
 0.0000000000000E+00
 0.0000000000000E+00
 0.0000000000000E+00
 0.0000000000000E+00
 0.0000000000000E+00
 0.0000000000000E+00
 0.0000000000000E+00
 0.0000000000000E+00
 0.0000000000000E+00
 0.0000000000000E+00
 0.0000000000000E+00
 0.0000000000000E+00
 0.0000000000000E+00
 0.0000000000000E+00
 0.0000000000000E+00
 0.0000000000000E+00
 0.0000000000000E+00
 0.0000000000000E+00
 0.0000000000000E+00
 0.0000000000000E+00
 0.0000000000000E+00
 0.0000000000000E+00
 0.0000000000000E+00
 0.0000000000000E+00
 0.0000000000000E+00
 0.0000000000000E+00
 0.0000000000000E+00
 0.0000000000000E+00
 0.0000000000000E+00
 0.0000000000000E+00
 0.0000000000000E+00
 0.0000000000000E+00
 0.0000000000000E+00
 0.0000000000000E+00
 0.0000000000000E+00
 0.0000000000000E+00
 0.0000000000000E+00
 0.0000000000000E+00
 0.0000000000000E+00
 0.0000000000000E+00
 0.0000000000000E+00
 0.0000000000000E+00
 0.0000000000000E+00
 0.0000000000000E+00
 0.0000000000000E+00
 0.0000000000000E+00
 0.0000000000000E+00
 0.0000000000000E+00
 0.0000000000000E+00
 0.0000000000000E+00
 0.0000000000000E+00
 0.0000000000000E+00
 0.0000000000000E+00
 0.0000000000000E+00
 0.0000000000000E+00
 0.0000000000000E+00
 0.0000000000000E+00
 0.0000000000000E+00
 0.0000000000000E+00
 0.0000000000000E+00
 0.0000000000000E+00
 0.0000000000000E+00
 0.0000000000000E+00
 0.0000000000000E+00
 0.0000000000000E+00
 0.0000000000000E+00
 0.0000000000000E+00
 0.0000000000000E+00
 0.0000000000000E+00
 0.0000000000000E+00
 0.0000000000000E+00
 0.0000000000000E+00
 0.0000000000000E+00
 0.0000000000000E+00
 0.0000000000000E+00
 0.0000000000000E+00
 0.0000000000000E+00
 0.0000000000000E+00
 0.0000000000000E+00
 0.0000000000000E+00
 0.0000000000000E+00
 0.0000000000000E+00
 0.0000000000000E+00
 0.0000000000000E+00
 0.0000000000000E+00
 0.0000000000000E+00
 0.0000000000000E+00
 0.0000000000000E+00
 0.0000000000000E+00
 0.0000000000000E+00
 0.0000000000000E+00
 0.0000000000000E+00
 0.0000000000000E+00
 0.0000000000000E+00
 0.0000000000000E+00
 0.0000000000000E+00
 0.0000000000000E+00
 0.0000000000000E+00
 0.0000000000000E+00
 0.0000000000000E+00
 0.0000000000000E+00
 0.0000000000000E+00
 0.0000000000000E+00
 0.0000000000000E+00
 0.0000000000000E+00
 0.0000000000000E+00
 0.0000000000000E+00
 0.0000000000000E+00
 0.0000000000000E+00
 0.0000000000000E+00
 0.0000000000000E+00
 0.0000000000000E+00
 0.0000000000000E+00
 0.0000000000000E+00
 0.0000000000000E+00
 0.0000000000000E+00
 0.0000000000000E+00
 0.0000000000000E+00
 0.0000000000000E+00
 0.0000000000000E+00
 0.0000000000000E+00
 0.0000000000000E+00
 0.0000000000000E+00
 0.0000000000000E+00
 0.0000000000000E+00
 0.0000000000000E+00
 0.0000000000000E+00
 0.0000000000000E+00
 0.0000000000000E+00
 0.0000000000000E+00
 0.0000000000000E+00
 0.0000000000000E+00
 0.0000000000000E+00
 0.0000000000000E+00
 0.0000000000000E+00
 0.0000000000000E+00
 0.0000000000000E+00
 0.0000000000000E+00
 0.0000000000000E+00
 0.0000000000000E+00
 0.0000000000000E+00
 0.0000000000000E+00
 0.0000000000000E+00
 0.0000000000000E+00
 0.0000000000000E+00
 0.0000000000000E+00
 0.0000000000000E+00
 0.0000000000000E+00
 0.0000000000000E+00
 0.0000000000000E+00
 0.0000000000000E+00
 0.0000000000000E+00
 0.0000000000000E+00
 0.0000000000000E+00
 0.0000000000000E+00
 0.0000000000000E+00
 0.0000000000000E+00
 0.0000000000000E+00
 0.0000000000000E+00
 0.0000000000000E+00
 0.0000000000000E+00
 0.0000000000000E+00
 0.0000000000000E+00
 0.0000000000000E+00
 0.0000000000000E+00
 0.0000000000000E+00
 0.0000000000000E+00
 0.0000000000000E+00
 0.0000000000000E+00
 0.0000000000000E+00
 0.0000000000000E+00
 0.0000000000000E+00
 0.0000000000000E+00
 0.0000000000000E+00
 0.0000000000000E+00
 0.0000000000000E+00
 0.0000000000000E+00
 0.0000000000000E+00
 0.0000000000000E+00
 0.0000000000000E+00
 0.0000000000000E+00
 0.0000000000000E+00
 0.0000000000000E+00
 0.0000000000000E+00
 0.0000000000000E+00
 0.0000000000000E+00
 0.0000000000000E+00
 0.0000000000000E+00
 0.0000000000000E+00
 0.0000000000000E+00
 0.0000000000000E+00
 0.0000000000000E+00
 0.0000000000000E+00
 0.0000000000000E+00
 0.0000000000000E+00
 0.0000000000000E+00
 0.0000000000000E+00
 0.0000000000000E+00
 0.0000000000000E+00
 0.0000000000000E+00
 0.0000000000000E+00
 0.0000000000000E+00
 0.0000000000000E+00
 0.0000000000000E+00
 0.0000000000000E+00
 0.0000000000000E+00
 0.0000000000000E+00
 0.0000000000000E+00
 0.0000000000000E+00
 0.0000000000000E+00
 0.0000000000000E+00
 0.0000000000000E+00
 0.0000000000000E+00
 0.0000000000000E+00
 0.0000000000000E+00
 0.0000000000000E+00
 0.0000000000000E+00
 0.0000000000000E+00
 0.0000000000000E+00
 0.0000000000000E+00
 0.0000000000000E+00
 0.0000000000000E+00
 0.0000000000000E+00
 0.0000000000000E+00
 0.0000000000000E+00
 0.0000000000000E+00
 0.0000000000000E+00
 0.0000000000000E+00
 0.0000000000000E+00
 0.0000000000000E+00
 0.0000000000000E+00
 0.0000000000000E+00
 0.0000000000000E+00
 0.0000000000000E+00
 0.0000000000000E+00
 0.0000000000000E+00
 0.0000000000000E+00
 0.0000000000000E+00
 0.0000000000000E+00
 0.0000000000000E+00
 0.0000000000000E+00
 0.0000000000000E+00
 0.0000000000000E+00
 0.0000000000000E+00
 0.0000000000000E+00
 0.0000000000000E+00
 0.0000000000000E+00
 0.0000000000000E+00
 0.0000000000000E+00
 0.0000000000000E+00
 0.0000000000000E+00
 0.0000000000000E+00
 0.0000000000000E+00
 0.0000000000000E+00
 0.0000000000000E+00
 0.0000000000000E+00
 0.0000000000000E+00
 0.0000000000000E+00
 0.0000000000000E+00
 0.0000000000000E+00
 0.0000000000000E+00
 0.0000000000000E+00
 0.0000000000000E+00
 0.0000000000000E+00
 0.0000000000000E+00
 0.0000000000000E+00
 0.0000000000000E+00
 0.0000000000000E+00
 0.0000000000000E+00
 0.0000000000000E+00
 0.0000000000000E+00
 0.0000000000000E+00
 0.0000000000000E+00
 0.0000000000000E+00
 0.0000000000000E+00
 0.0000000000000E+00
 0.0000000000000E+00
 0.0000000000000E+00
 0.0000000000000E+00
 0.0000000000000E+00
 0.0000000000000E+00
 0.0000000000000E+00
 0.0000000000000E+00
 0.0000000000000E+00
 0.0000000000000E+00
 0.0000000000000E+00
 0.0000000000000E+00
 0.0000000000000E+00
 0.0000000000000E+00
 0.0000000000000E+00
 0.0000000000000E+00
 0.0000000000000E+00
 0.0000000000000E+00
 0.0000000000000E+00
 0.0000000000000E+00
 0.0000000000000E+00
 0.0000000000000E+00
 0.0000000000000E+00
 0.0000000000000E+00
 0.0000000000000E+00
 0.0000000000000E+00
 0.0000000000000E+00
 0.0000000000000E+00
 0.0000000000000E+00
 0.0000000000000E+00
 0.0000000000000E+00
 0.0000000000000E+00
 0.0000000000000E+00
 0.0000000000000E+00
 0.0000000000000E+00
 0.0000000000000E+00
 0.0000000000000E+00
 0.0000000000000E+00
 0.0000000000000E+00
 0.0000000000000E+00
 0.0000000000000E+00
 0.0000000000000E+00
 0.0000000000000E+00
 0.0000000000000E+00
 0.0000000000000E+00
 0.0000000000000E+00
 0.0000000000000E+00
 0.0000000000000E+00
 0.0000000000000E+00
 0.0000000000000E+00
 0.0000000000000E+00
 0.0000000000000E+00
 0.0000000000000E+00
 0.0000000000000E+00
 0.0000000000000E+00
 0.0000000000000E+00
 0.0000000000000E+00
 0.0000000000000E+00
 0.0000000000000E+00
 0.0000000000000E+00
 0.0000000000000E+00
 0.0000000000000E+00
 0.0000000000000E+00
 0.0000000000000E+00
 0.0000000000000E+00
 0.0000000000000E+00
 0.0000000000000E+00
 0.0000000000000E+00
 0.0000000000000E+00
 0.0000000000000E+00
 0.0000000000000E+00
 0.0000000000000E+00
 0.0000000000000E+00
 0.0000000000000E+00
 0.0000000000000E+00
 0.0000000000000E+00
 0.0000000000000E+00
 0.0000000000000E+00
 0.0000000000000E+00
 0.0000000000000E+00
 0.0000000000000E+00
 0.0000000000000E+00
 0.0000000000000E+00
 0.0000000000000E+00
 0.0000000000000E+00
 0.0000000000000E+00
 0.0000000000000E+00
 0.0000000000000E+00
 0.0000000000000E+00
 0.0000000000000E+00
 0.0000000000000E+00
 0.0000000000000E+00
 0.0000000000000E+00
 0.0000000000000E+00
 0.0000000000000E+00
 0.0000000000000E+00
 0.0000000000000E+00
 0.0000000000000E+00
 0.0000000000000E+00
 0.0000000000000E+00
 0.0000000000000E+00
 0.0000000000000E+00
 0.0000000000000E+00
 0.0000000000000E+00
 0.0000000000000E+00
 0.0000000000000E+00
 0.0000000000000E+00
 0.0000000000000E+00
 0.0000000000000E+00
 0.0000000000000E+00
 0.0000000000000E+00
 0.0000000000000E+00
 0.0000000000000E+00
 0.0000000000000E+00
 0.0000000000000E+00
 0.0000000000000E+00
 0.0000000000000E+00
 0.0000000000000E+00
 0.0000000000000E+00
 0.0000000000000E+00
 0.0000000000000E+00
 0.0000000000000E+00
 0.0000000000000E+00
 0.0000000000000E+00
 0.0000000000000E+00
 0.0000000000000E+00
 0.0000000000000E+00
 0.0000000000000E+00
 0.0000000000000E+00
 0.0000000000000E+00
 0.0000000000000E+00
 0.0000000000000E+00
 0.0000000000000E+00
 0.0000000000000E+00
 0.0000000000000E+00
 0.0000000000000E+00
 0.0000000000000E+00
 0.0000000000000E+00
 0.0000000000000E+00
 0.0000000000000E+00
 0.0000000000000E+00
 0.0000000000000E+00
 0.0000000000000E+00
 0.0000000000000E+00
 0.0000000000000E+00
 0.0000000000000E+00
 0.0000000000000E+00
 0.0000000000000E+00
 0.0000000000000E+00
 0.0000000000000E+00
 0.0000000000000E+00
 0.0000000000000E+00
 0.0000000000000E+00
 0.0000000000000E+00
 0.0000000000000E+00
 0.0000000000000E+00
 0.0000000000000E+00
 0.0000000000000E+00
 0.0000000000000E+00
 0.0000000000000E+00
 0.0000000000000E+00
 0.0000000000000E+00
 0.0000000000000E+00
 0.0000000000000E+00
 0.0000000000000E+00
 0.0000000000000E+00
 0.0000000000000E+00
 0.0000000000000E+00
 0.0000000000000E+00
 0.0000000000000E+00
 0.0000000000000E+00
 0.0000000000000E+00
 0.0000000000000E+00
 0.0000000000000E+00
 0.0000000000000E+00
 0.0000000000000E+00
 0.0000000000000E+00
 0.0000000000000E+00
 0.0000000000000E+00
 0.0000000000000E+00
 0.0000000000000E+00
 0.0000000000000E+00
 0.0000000000000E+00
 0.0000000000000E+00
 0.0000000000000E+00
 0.0000000000000E+00
 0.0000000000000E+00
 0.0000000000000E+00
 0.0000000000000E+00
 0.0000000000000E+00
 0.0000000000000E+00
 0.0000000000000E+00
 0.0000000000000E+00
 0.0000000000000E+00
 0.0000000000000E+00
 0.0000000000000E+00
 0.0000000000000E+00
 0.0000000000000E+00
 0.0000000000000E+00
 0.0000000000000E+00
 0.0000000000000E+00
 0.0000000000000E+00
 0.0000000000000E+00
 0.0000000000000E+00
 0.0000000000000E+00
 0.0000000000000E+00
 0.0000000000000E+00
 0.0000000000000E+00
 0.0000000000000E+00
 0.0000000000000E+00
 0.0000000000000E+00
 0.0000000000000E+00
 0.0000000000000E+00
 0.0000000000000E+00
 0.0000000000000E+00
 0.0000000000000E+00
 0.0000000000000E+00
 0.0000000000000E+00
 0.0000000000000E+00
 0.0000000000000E+00
 0.0000000000000E+00
 0.0000000000000E+00
 0.0000000000000E+00
 0.0000000000000E+00
 0.0000000000000E+00
 0.0000000000000E+00
 0.0000000000000E+00
 0.0000000000000E+00
 0.0000000000000E+00
 0.0000000000000E+00
 0.0000000000000E+00
 0.0000000000000E+00
 0.0000000000000E+00
 0.0000000000000E+00
 0.0000000000000E+00
 0.0000000000000E+00
 0.0000000000000E+00
 0.0000000000000E+00
 0.0000000000000E+00
 0.0000000000000E+00
 0.0000000000000E+00
 0.0000000000000E+00
 0.0000000000000E+00
 0.0000000000000E+00
 0.0000000000000E+00
 0.0000000000000E+00
 0.0000000000000E+00
 0.0000000000000E+00
 0.0000000000000E+00
 0.0000000000000E+00
 0.0000000000000E+00
 0.0000000000000E+00
 0.0000000000000E+00
 0.0000000000000E+00
 0.0000000000000E+00
 0.0000000000000E+00
 0.0000000000000E+00
 0.0000000000000E+00
 0.0000000000000E+00
 0.0000000000000E+00
 0.0000000000000E+00
 0.0000000000000E+00
 0.0000000000000E+00
 0.0000000000000E+00
 0.0000000000000E+00
 0.0000000000000E+00
 0.0000000000000E+00
 0.0000000000000E+00
 0.0000000000000E+00
 0.0000000000000E+00
 0.0000000000000E+00
 0.0000000000000E+00
 0.0000000000000E+00
 0.0000000000000E+00
 0.0000000000000E+00
 0.0000000000000E+00
 0.0000000000000E+00
 0.0000000000000E+00
 0.0000000000000E+00
 0.0000000000000E+00
 0.0000000000000E+00
 0.0000000000000E+00
 0.0000000000000E+00
 0.0000000000000E+00
 0.0000000000000E+00
 0.0000000000000E+00
 0.0000000000000E+00
 0.0000000000000E+00
 0.0000000000000E+00
 0.0000000000000E+00
 0.0000000000000E+00
 0.0000000000000E+00
 0.0000000000000E+00
 0.0000000000000E+00
 0.0000000000000E+00
 0.0000000000000E+00
 0.0000000000000E+00
 0.0000000000000E+00
 0.0000000000000E+00
 0.0000000000000E+00
 0.0000000000000E+00
 0.0000000000000E+00
 0.0000000000000E+00
 0.0000000000000E+00
 0.0000000000000E+00
 0.0000000000000E+00
 0.0000000000000E+00
 0.0000000000000E+00
 0.0000000000000E+00
 0.0000000000000E+00
 0.0000000000000E+00
 0.0000000000000E+00
 0.0000000000000E+00
 0.0000000000000E+00
 0.0000000000000E+00
 0.0000000000000E+00
 0.0000000000000E+00
 0.0000000000000E+00
 0.0000000000000E+00
 0.0000000000000E+00
 0.0000000000000E+00
 0.0000000000000E+00
 0.0000000000000E+00
 0.0000000000000E+00
 0.0000000000000E+00
 0.0000000000000E+00
 0.0000000000000E+00
 0.0000000000000E+00
 0.0000000000000E+00
 0.0000000000000E+00
 0.0000000000000E+00
 0.0000000000000E+00
 0.0000000000000E+00
 0.0000000000000E+00
 0.0000000000000E+00
 0.0000000000000E+00
 0.0000000000000E+00
 0.0000000000000E+00
 0.0000000000000E+00
 0.0000000000000E+00
 0.0000000000000E+00
 0.0000000000000E+00
 0.0000000000000E+00
 0.0000000000000E+00
 0.0000000000000E+00
 0.0000000000000E+00
 0.0000000000000E+00
 0.0000000000000E+00
 0.0000000000000E+00
 0.0000000000000E+00
 0.0000000000000E+00
 0.0000000000000E+00
 0.0000000000000E+00
 0.0000000000000E+00
 0.0000000000000E+00
 0.0000000000000E+00
 0.0000000000000E+00
 0.0000000000000E+00
 0.0000000000000E+00
 0.0000000000000E+00
 0.0000000000000E+00
 0.0000000000000E+00
 0.0000000000000E+00
 0.0000000000000E+00
 0.0000000000000E+00
 0.0000000000000E+00
 0.0000000000000E+00
 0.0000000000000E+00
 0.0000000000000E+00
 0.0000000000000E+00
 0.0000000000000E+00
 0.0000000000000E+00
 0.0000000000000E+00
 0.0000000000000E+00
 0.0000000000000E+00
 0.0000000000000E+00
 0.0000000000000E+00
 0.0000000000000E+00
 0.0000000000000E+00
 0.0000000000000E+00
 0.0000000000000E+00
 0.0000000000000E+00
 0.0000000000000E+00
 0.0000000000000E+00
 0.0000000000000E+00
 0.0000000000000E+00
 0.0000000000000E+00
 0.0000000000000E+00
 0.0000000000000E+00
 0.0000000000000E+00
 0.0000000000000E+00
 0.0000000000000E+00
 0.0000000000000E+00
 0.0000000000000E+00
 0.0000000000000E+00
 0.0000000000000E+00
 0.0000000000000E+00
 0.0000000000000E+00
 0.0000000000000E+00
 0.0000000000000E+00
 0.0000000000000E+00
 0.0000000000000E+00
 0.0000000000000E+00
 0.0000000000000E+00
 0.0000000000000E+00
 0.0000000000000E+00
 0.0000000000000E+00
 0.0000000000000E+00
 0.0000000000000E+00
 0.0000000000000E+00
 0.0000000000000E+00
 0.0000000000000E+00
 0.0000000000000E+00
 0.0000000000000E+00
 0.0000000000000E+00
 0.0000000000000E+00
 0.0000000000000E+00
 0.0000000000000E+00
 0.0000000000000E+00
 0.0000000000000E+00
 0.0000000000000E+00
 0.0000000000000E+00
 0.0000000000000E+00
 0.0000000000000E+00
 0.0000000000000E+00
 0.0000000000000E+00
 0.0000000000000E+00
 0.0000000000000E+00
 0.0000000000000E+00
 0.0000000000000E+00
 0.0000000000000E+00
 0.0000000000000E+00
 0.0000000000000E+00
 0.0000000000000E+00
 0.0000000000000E+00
 0.0000000000000E+00
 0.0000000000000E+00
 0.0000000000000E+00
 0.0000000000000E+00
 0.0000000000000E+00
 0.0000000000000E+00
 0.0000000000000E+00
 0.0000000000000E+00
 0.0000000000000E+00
 0.0000000000000E+00
 0.0000000000000E+00
 0.0000000000000E+00
 0.0000000000000E+00
 0.0000000000000E+00
 0.0000000000000E+00
 0.0000000000000E+00
 0.0000000000000E+00
 0.0000000000000E+00
 0.0000000000000E+00
 0.0000000000000E+00
 0.0000000000000E+00
 0.0000000000000E+00
 0.0000000000000E+00
 0.0000000000000E+00
 0.0000000000000E+00
 0.0000000000000E+00
 0.0000000000000E+00
 0.0000000000000E+00
 0.0000000000000E+00
 0.0000000000000E+00
 0.0000000000000E+00
 0.0000000000000E+00
 0.0000000000000E+00
 0.0000000000000E+00
 0.0000000000000E+00
 0.0000000000000E+00
 0.0000000000000E+00
 0.0000000000000E+00
 0.0000000000000E+00
 0.0000000000000E+00
 0.0000000000000E+00
 0.0000000000000E+00
 0.0000000000000E+00
 0.0000000000000E+00
 0.0000000000000E+00
 0.0000000000000E+00
 0.0000000000000E+00
 0.0000000000000E+00
 0.0000000000000E+00
 0.0000000000000E+00
 0.0000000000000E+00
 0.0000000000000E+00
 0.0000000000000E+00
 0.0000000000000E+00
 0.0000000000000E+00
 0.0000000000000E+00
 0.0000000000000E+00
 0.0000000000000E+00
 0.0000000000000E+00
 0.0000000000000E+00
 0.0000000000000E+00
 0.0000000000000E+00
 0.0000000000000E+00
 0.0000000000000E+00
 0.0000000000000E+00
 0.0000000000000E+00
 0.0000000000000E+00
 0.0000000000000E+00
 0.0000000000000E+00
 0.0000000000000E+00
 0.0000000000000E+00
 0.0000000000000E+00
 0.0000000000000E+00
 0.0000000000000E+00
 0.0000000000000E+00
 0.0000000000000E+00
 0.0000000000000E+00
 0.0000000000000E+00
 0.0000000000000E+00
 0.0000000000000E+00
 0.0000000000000E+00
 0.0000000000000E+00
 0.0000000000000E+00
 0.0000000000000E+00
 0.0000000000000E+00
 0.0000000000000E+00
 0.0000000000000E+00
 0.0000000000000E+00
 0.0000000000000E+00
 0.0000000000000E+00
 0.0000000000000E+00
 0.0000000000000E+00
 0.0000000000000E+00
 0.0000000000000E+00
 0.0000000000000E+00
 0.0000000000000E+00
 0.0000000000000E+00
 0.0000000000000E+00
 0.0000000000000E+00
 0.0000000000000E+00
 0.0000000000000E+00
 0.0000000000000E+00
 0.0000000000000E+00
 0.0000000000000E+00
 0.0000000000000E+00
 0.0000000000000E+00
 0.0000000000000E+00
 0.0000000000000E+00
 0.0000000000000E+00
 0.0000000000000E+00
 0.0000000000000E+00
 0.0000000000000E+00
 0.0000000000000E+00
 0.0000000000000E+00
 0.0000000000000E+00
 0.0000000000000E+00
 0.0000000000000E+00
 0.0000000000000E+00
 0.0000000000000E+00
 0.0000000000000E+00
 0.0000000000000E+00
 0.0000000000000E+00
 0.0000000000000E+00
 0.0000000000000E+00
 0.0000000000000E+00
 0.0000000000000E+00
 0.0000000000000E+00
 0.0000000000000E+00
 0.0000000000000E+00
 0.0000000000000E+00
 0.0000000000000E+00
 0.0000000000000E+00
 0.0000000000000E+00
 0.0000000000000E+00
 0.0000000000000E+00
 0.0000000000000E+00
 0.0000000000000E+00
 0.0000000000000E+00
 0.0000000000000E+00
 0.0000000000000E+00
 0.0000000000000E+00
 0.0000000000000E+00
 0.0000000000000E+00
 0.0000000000000E+00
 0.0000000000000E+00
 0.0000000000000E+00
 0.0000000000000E+00
 0.0000000000000E+00
 0.0000000000000E+00
 0.0000000000000E+00
 0.0000000000000E+00
 0.0000000000000E+00
 0.0000000000000E+00
 0.0000000000000E+00
 0.0000000000000E+00
 0.0000000000000E+00
 0.0000000000000E+00
 0.0000000000000E+00
 0.0000000000000E+00
 0.0000000000000E+00
 0.0000000000000E+00
 0.0000000000000E+00
 0.0000000000000E+00
 0.0000000000000E+00
 0.0000000000000E+00
 0.0000000000000E+00
 0.0000000000000E+00
 0.0000000000000E+00
 0.0000000000000E+00
 0.0000000000000E+00
 0.0000000000000E+00
 0.0000000000000E+00
 0.0000000000000E+00
 0.0000000000000E+00
 0.0000000000000E+00
 0.0000000000000E+00
 0.0000000000000E+00
 0.0000000000000E+00
 0.0000000000000E+00
 0.0000000000000E+00
 0.0000000000000E+00
 0.0000000000000E+00
 0.0000000000000E+00
 0.0000000000000E+00
 0.0000000000000E+00
 0.0000000000000E+00
 0.0000000000000E+00
 0.0000000000000E+00
 0.0000000000000E+00
 0.0000000000000E+00
 0.0000000000000E+00
 0.0000000000000E+00
 0.0000000000000E+00
 0.0000000000000E+00
 0.0000000000000E+00
 0.0000000000000E+00
 0.0000000000000E+00
 0.0000000000000E+00
 0.0000000000000E+00
 0.0000000000000E+00
 0.0000000000000E+00
 0.0000000000000E+00
 0.0000000000000E+00
 0.0000000000000E+00
 0.0000000000000E+00
 0.0000000000000E+00
 0.0000000000000E+00
 0.0000000000000E+00
 0.0000000000000E+00
 0.0000000000000E+00
 0.0000000000000E+00
 0.0000000000000E+00
 0.0000000000000E+00
 0.0000000000000E+00
 0.0000000000000E+00
 0.0000000000000E+00
 0.0000000000000E+00
 0.0000000000000E+00
 0.0000000000000E+00
 0.0000000000000E+00
 0.0000000000000E+00
 0.0000000000000E+00
 0.0000000000000E+00
 0.0000000000000E+00
 0.0000000000000E+00
 0.0000000000000E+00
 0.0000000000000E+00
 0.0000000000000E+00
 0.0000000000000E+00
 0.0000000000000E+00
 0.0000000000000E+00
 0.0000000000000E+00
 0.0000000000000E+00
 0.0000000000000E+00
 0.0000000000000E+00
 0.0000000000000E+00
 0.0000000000000E+00
 0.0000000000000E+00
 0.0000000000000E+00
 0.0000000000000E+00
 0.0000000000000E+00
 0.0000000000000E+00
 0.0000000000000E+00
 0.0000000000000E+00
 0.0000000000000E+00
 0.0000000000000E+00
 0.0000000000000E+00
 0.0000000000000E+00
 0.0000000000000E+00
 0.0000000000000E+00
 0.0000000000000E+00
 0.0000000000000E+00
 0.0000000000000E+00
 0.0000000000000E+00
 0.0000000000000E+00
 0.0000000000000E+00
 0.0000000000000E+00
 0.0000000000000E+00
 0.0000000000000E+00
 0.0000000000000E+00
 0.0000000000000E+00
 0.0000000000000E+00
 0.0000000000000E+00
 0.0000000000000E+00
 0.0000000000000E+00
 0.0000000000000E+00
 0.0000000000000E+00
 0.0000000000000E+00
 0.0000000000000E+00
 0.0000000000000E+00
 0.0000000000000E+00
 0.0000000000000E+00
 0.0000000000000E+00
 0.0000000000000E+00
 0.0000000000000E+00
 0.0000000000000E+00
 0.0000000000000E+00
 0.0000000000000E+00
 0.0000000000000E+00
 0.0000000000000E+00
 0.0000000000000E+00
 0.0000000000000E+00
 0.0000000000000E+00
 0.0000000000000E+00
 0.0000000000000E+00
 0.0000000000000E+00
 0.0000000000000E+00
 0.0000000000000E+00
 0.0000000000000E+00
 0.0000000000000E+00
 0.0000000000000E+00
 0.0000000000000E+00
 0.0000000000000E+00
 0.0000000000000E+00
 0.0000000000000E+00
 0.0000000000000E+00
 0.0000000000000E+00
 0.0000000000000E+00
 0.0000000000000E+00
 0.0000000000000E+00
 0.0000000000000E+00
 0.0000000000000E+00
 0.0000000000000E+00
 0.0000000000000E+00
 0.0000000000000E+00
 0.0000000000000E+00
 0.0000000000000E+00
 0.0000000000000E+00
 0.0000000000000E+00
 0.0000000000000E+00
 0.0000000000000E+00
 0.0000000000000E+00
 0.0000000000000E+00
 0.0000000000000E+00
 0.0000000000000E+00
 0.0000000000000E+00
 0.0000000000000E+00
 0.0000000000000E+00
 0.0000000000000E+00
 0.0000000000000E+00
 0.0000000000000E+00
 0.0000000000000E+00
 0.0000000000000E+00
 0.0000000000000E+00
 0.0000000000000E+00
 0.0000000000000E+00
 0.0000000000000E+00
 0.0000000000000E+00
 0.0000000000000E+00
 0.0000000000000E+00
 0.0000000000000E+00
 0.0000000000000E+00
 0.0000000000000E+00
 0.0000000000000E+00
 0.0000000000000E+00
 0.0000000000000E+00
 0.0000000000000E+00
 0.0000000000000E+00
 0.0000000000000E+00
 0.0000000000000E+00
 0.0000000000000E+00
 0.0000000000000E+00
 0.0000000000000E+00
 0.0000000000000E+00
 0.0000000000000E+00
 0.0000000000000E+00
 0.0000000000000E+00
 0.0000000000000E+00
 0.0000000000000E+00
 0.0000000000000E+00
 0.0000000000000E+00
 0.0000000000000E+00
 0.0000000000000E+00
 0.0000000000000E+00
 0.0000000000000E+00
 0.0000000000000E+00
 0.0000000000000E+00
 0.0000000000000E+00
 0.0000000000000E+00
 0.0000000000000E+00
 0.0000000000000E+00
 0.0000000000000E+00
 0.0000000000000E+00
 0.0000000000000E+00
 0.0000000000000E+00
 0.0000000000000E+00
 0.0000000000000E+00
 0.0000000000000E+00
 0.0000000000000E+00
 0.0000000000000E+00
 0.0000000000000E+00
 0.0000000000000E+00
 0.0000000000000E+00
 0.0000000000000E+00
 0.0000000000000E+00
 0.0000000000000E+00
 0.0000000000000E+00
 0.0000000000000E+00
 0.0000000000000E+00
 0.0000000000000E+00
 0.0000000000000E+00
 0.0000000000000E+00
 0.0000000000000E+00
 0.0000000000000E+00
 0.0000000000000E+00
 0.0000000000000E+00
 0.0000000000000E+00
 0.0000000000000E+00
 0.0000000000000E+00
 0.0000000000000E+00
 0.0000000000000E+00
 0.0000000000000E+00
 0.0000000000000E+00
 0.0000000000000E+00
 0.0000000000000E+00
 0.0000000000000E+00
 0.0000000000000E+00
 0.0000000000000E+00
 0.0000000000000E+00
 0.0000000000000E+00
 0.0000000000000E+00
 0.0000000000000E+00
 0.0000000000000E+00
 0.0000000000000E+00
 0.0000000000000E+00
 0.0000000000000E+00
 0.0000000000000E+00
 0.0000000000000E+00
 0.0000000000000E+00
 0.0000000000000E+00
 0.0000000000000E+00
 0.0000000000000E+00
 0.0000000000000E+00
 0.0000000000000E+00
 0.0000000000000E+00
 0.0000000000000E+00
 0.0000000000000E+00
 0.0000000000000E+00
 0.0000000000000E+00
 0.0000000000000E+00
 0.0000000000000E+00
 0.0000000000000E+00
 0.0000000000000E+00
 0.0000000000000E+00
 0.0000000000000E+00
 0.0000000000000E+00
 0.0000000000000E+00
 0.0000000000000E+00
 0.0000000000000E+00
 0.0000000000000E+00
 0.0000000000000E+00
 0.0000000000000E+00
 0.0000000000000E+00
 0.0000000000000E+00
 0.0000000000000E+00
 0.0000000000000E+00
 0.0000000000000E+00
 0.0000000000000E+00
 0.0000000000000E+00
 0.0000000000000E+00
 0.0000000000000E+00
 0.0000000000000E+00
 0.0000000000000E+00
 0.0000000000000E+00
 0.0000000000000E+00
 0.0000000000000E+00
 0.0000000000000E+00
 0.0000000000000E+00
 0.0000000000000E+00
 0.0000000000000E+00
 0.0000000000000E+00
 0.0000000000000E+00
 0.0000000000000E+00
 0.0000000000000E+00
 0.0000000000000E+00
 0.0000000000000E+00
 0.0000000000000E+00
 0.0000000000000E+00
 0.0000000000000E+00
 0.0000000000000E+00
 0.0000000000000E+00
 0.0000000000000E+00
 0.0000000000000E+00
 0.0000000000000E+00
 0.0000000000000E+00
 0.0000000000000E+00
 0.0000000000000E+00
 0.0000000000000E+00
 0.0000000000000E+00
 0.0000000000000E+00
 0.0000000000000E+00
 0.0000000000000E+00
 0.0000000000000E+00
 0.0000000000000E+00
 0.0000000000000E+00
 0.0000000000000E+00
 0.0000000000000E+00
 0.0000000000000E+00
 0.0000000000000E+00
 0.0000000000000E+00
 0.0000000000000E+00
 0.0000000000000E+00
 0.0000000000000E+00
 0.0000000000000E+00
 0.0000000000000E+00
 0.0000000000000E+00
 0.0000000000000E+00
 0.0000000000000E+00
 0.0000000000000E+00
 0.0000000000000E+00
 0.0000000000000E+00
 0.0000000000000E+00
 0.0000000000000E+00
 0.0000000000000E+00
 0.0000000000000E+00
 0.0000000000000E+00
 0.0000000000000E+00
 0.0000000000000E+00
 0.0000000000000E+00
 0.0000000000000E+00
 0.0000000000000E+00
 0.0000000000000E+00
 0.0000000000000E+00
 0.0000000000000E+00
 0.0000000000000E+00
 0.0000000000000E+00
 0.0000000000000E+00
 0.0000000000000E+00
 0.0000000000000E+00
 0.0000000000000E+00
 0.0000000000000E+00
 0.0000000000000E+00
 0.0000000000000E+00
 0.0000000000000E+00
 0.0000000000000E+00
 0.0000000000000E+00
 0.0000000000000E+00
 0.0000000000000E+00
 0.0000000000000E+00
 0.0000000000000E+00
 0.0000000000000E+00
 0.0000000000000E+00
 0.0000000000000E+00
 0.0000000000000E+00
 0.0000000000000E+00
 0.0000000000000E+00
 0.0000000000000E+00
 0.0000000000000E+00
 0.0000000000000E+00
 0.0000000000000E+00
 0.0000000000000E+00
 0.0000000000000E+00
 0.0000000000000E+00
 0.0000000000000E+00
 0.0000000000000E+00
 0.0000000000000E+00
 0.0000000000000E+00
 0.0000000000000E+00
 0.0000000000000E+00
 0.0000000000000E+00
 0.0000000000000E+00
 0.0000000000000E+00
 0.0000000000000E+00
 0.0000000000000E+00
 0.0000000000000E+00
 0.0000000000000E+00
 0.0000000000000E+00
 0.0000000000000E+00
 0.0000000000000E+00
 0.0000000000000E+00
 0.0000000000000E+00
 0.0000000000000E+00
 0.0000000000000E+00
 0.0000000000000E+00
 0.0000000000000E+00
 0.0000000000000E+00
 0.0000000000000E+00
 0.0000000000000E+00
 0.0000000000000E+00
 0.0000000000000E+00
 0.0000000000000E+00
 0.0000000000000E+00
 0.0000000000000E+00
 0.0000000000000E+00
 0.0000000000000E+00
 0.0000000000000E+00
 0.0000000000000E+00
 0.0000000000000E+00
 0.0000000000000E+00
 0.0000000000000E+00
 0.0000000000000E+00
 0.0000000000000E+00
 0.0000000000000E+00
 0.0000000000000E+00
 0.0000000000000E+00
 0.0000000000000E+00
 0.0000000000000E+00
 0.0000000000000E+00
 0.0000000000000E+00
 0.0000000000000E+00
 0.0000000000000E+00
 0.0000000000000E+00
 0.0000000000000E+00
 0.0000000000000E+00
 0.0000000000000E+00
 0.0000000000000E+00
 0.0000000000000E+00
 0.0000000000000E+00
 0.0000000000000E+00
 0.0000000000000E+00
 0.0000000000000E+00
 0.0000000000000E+00
 0.0000000000000E+00
 0.0000000000000E+00
 0.0000000000000E+00
 0.0000000000000E+00
 0.0000000000000E+00
 0.0000000000000E+00
 0.0000000000000E+00
 0.0000000000000E+00
 0.0000000000000E+00
 0.0000000000000E+00
 0.0000000000000E+00
 0.0000000000000E+00
 0.0000000000000E+00
 0.0000000000000E+00
 0.0000000000000E+00
 0.0000000000000E+00
 0.0000000000000E+00
 0.0000000000000E+00
 0.0000000000000E+00
 0.0000000000000E+00
 0.0000000000000E+00
 0.0000000000000E+00
 0.0000000000000E+00
 0.0000000000000E+00
 0.0000000000000E+00
 0.0000000000000E+00
 0.0000000000000E+00
 0.0000000000000E+00
 0.0000000000000E+00
 0.0000000000000E+00
 0.0000000000000E+00
 0.0000000000000E+00
 0.0000000000000E+00
 0.0000000000000E+00
 0.0000000000000E+00
 0.0000000000000E+00
 0.0000000000000E+00
 0.0000000000000E+00
 0.0000000000000E+00
 0.0000000000000E+00
 0.0000000000000E+00
 0.0000000000000E+00
 0.0000000000000E+00
 0.0000000000000E+00
 0.0000000000000E+00
 0.0000000000000E+00
 0.0000000000000E+00
 0.0000000000000E+00
 0.0000000000000E+00
 0.0000000000000E+00
 0.0000000000000E+00
 0.0000000000000E+00
 0.0000000000000E+00
 0.0000000000000E+00
 0.0000000000000E+00
 0.0000000000000E+00
 0.0000000000000E+00
 0.0000000000000E+00
 0.0000000000000E+00
 0.0000000000000E+00
 0.0000000000000E+00
 0.0000000000000E+00
 0.0000000000000E+00
 0.0000000000000E+00
 0.0000000000000E+00
 0.0000000000000E+00
 0.0000000000000E+00
 0.0000000000000E+00
 0.0000000000000E+00
 0.0000000000000E+00
 0.0000000000000E+00
 0.0000000000000E+00
 0.0000000000000E+00
 0.0000000000000E+00
 0.0000000000000E+00
 0.0000000000000E+00
 0.0000000000000E+00
 0.0000000000000E+00
 0.0000000000000E+00
 0.0000000000000E+00
 0.0000000000000E+00
 0.0000000000000E+00
 0.0000000000000E+00
 0.0000000000000E+00
 0.0000000000000E+00
 0.0000000000000E+00
 0.0000000000000E+00
 0.0000000000000E+00
 0.0000000000000E+00
 0.0000000000000E+00
 0.0000000000000E+00
 0.0000000000000E+00
 0.0000000000000E+00
 0.0000000000000E+00
 0.0000000000000E+00
 0.0000000000000E+00
 0.0000000000000E+00
 0.0000000000000E+00
 0.0000000000000E+00
 0.0000000000000E+00
 0.0000000000000E+00
 0.0000000000000E+00
 0.0000000000000E+00
 0.0000000000000E+00
 0.0000000000000E+00
 0.0000000000000E+00
 0.0000000000000E+00
 0.0000000000000E+00
 0.0000000000000E+00
 0.0000000000000E+00
 0.0000000000000E+00
 0.0000000000000E+00
 0.0000000000000E+00
 0.0000000000000E+00
 0.0000000000000E+00
 0.0000000000000E+00
 0.0000000000000E+00
 0.0000000000000E+00
 0.0000000000000E+00
 0.0000000000000E+00
 0.0000000000000E+00
 0.0000000000000E+00
 0.0000000000000E+00
 0.0000000000000E+00
 0.0000000000000E+00
 0.0000000000000E+00
 0.0000000000000E+00
 0.0000000000000E+00
 0.0000000000000E+00
 0.0000000000000E+00
 0.0000000000000E+00
 0.0000000000000E+00
 0.0000000000000E+00
 0.0000000000000E+00
 0.0000000000000E+00
 0.0000000000000E+00
 0.0000000000000E+00
 0.0000000000000E+00
 0.0000000000000E+00
 0.0000000000000E+00
 0.0000000000000E+00
 0.0000000000000E+00
 0.0000000000000E+00
 0.0000000000000E+00
 0.0000000000000E+00
 0.0000000000000E+00
 0.0000000000000E+00
 0.0000000000000E+00
 0.0000000000000E+00
 0.0000000000000E+00
 0.0000000000000E+00
 0.0000000000000E+00
 0.0000000000000E+00
 0.0000000000000E+00
 0.0000000000000E+00
 0.0000000000000E+00
 0.0000000000000E+00
 0.0000000000000E+00
 0.0000000000000E+00
 0.0000000000000E+00
 0.0000000000000E+00
 0.0000000000000E+00
 0.0000000000000E+00
 0.0000000000000E+00
 0.0000000000000E+00
 0.0000000000000E+00
 0.0000000000000E+00
 0.0000000000000E+00
 0.0000000000000E+00
 0.0000000000000E+00
 0.0000000000000E+00
 0.0000000000000E+00
 0.0000000000000E+00
 0.0000000000000E+00
 0.0000000000000E+00
 0.0000000000000E+00
 0.0000000000000E+00
 0.0000000000000E+00
 0.0000000000000E+00
 0.0000000000000E+00
 0.0000000000000E+00
 0.0000000000000E+00
 0.0000000000000E+00
 0.0000000000000E+00
 0.0000000000000E+00
 0.0000000000000E+00
 0.0000000000000E+00
 0.0000000000000E+00
 0.0000000000000E+00
 0.0000000000000E+00
 0.0000000000000E+00
 0.0000000000000E+00
 0.0000000000000E+00
 0.0000000000000E+00
 0.0000000000000E+00
 0.0000000000000E+00
 0.0000000000000E+00
 0.0000000000000E+00
 0.0000000000000E+00
 0.0000000000000E+00
 0.0000000000000E+00
 0.0000000000000E+00
 0.0000000000000E+00
 0.0000000000000E+00
 0.0000000000000E+00
 0.0000000000000E+00
 0.0000000000000E+00
 0.0000000000000E+00
 0.0000000000000E+00
 0.0000000000000E+00
 0.0000000000000E+00
 0.0000000000000E+00
 0.0000000000000E+00
 0.0000000000000E+00
 0.0000000000000E+00
 0.0000000000000E+00
 0.0000000000000E+00
 0.0000000000000E+00
 0.0000000000000E+00
 0.0000000000000E+00
 0.0000000000000E+00
 0.0000000000000E+00
 0.0000000000000E+00
 0.0000000000000E+00
 0.0000000000000E+00
 0.0000000000000E+00
 0.0000000000000E+00
 0.0000000000000E+00
 0.0000000000000E+00
 0.0000000000000E+00
 0.0000000000000E+00
 0.0000000000000E+00
 0.0000000000000E+00
 0.0000000000000E+00
 0.0000000000000E+00
 0.0000000000000E+00
 0.0000000000000E+00
 0.0000000000000E+00
 0.0000000000000E+00
 0.0000000000000E+00
 0.0000000000000E+00
 0.0000000000000E+00
 0.0000000000000E+00
 0.0000000000000E+00
 0.0000000000000E+00
 0.0000000000000E+00
 0.0000000000000E+00
 0.0000000000000E+00
 0.0000000000000E+00
 0.0000000000000E+00
 0.0000000000000E+00
 0.0000000000000E+00
 0.0000000000000E+00
 0.0000000000000E+00
 0.0000000000000E+00
 0.0000000000000E+00
 0.0000000000000E+00
 0.0000000000000E+00
 0.0000000000000E+00
 0.0000000000000E+00
 0.0000000000000E+00
 0.0000000000000E+00
 0.0000000000000E+00
 0.0000000000000E+00
 0.0000000000000E+00
 0.0000000000000E+00
 0.0000000000000E+00
 0.0000000000000E+00
 0.0000000000000E+00
 0.0000000000000E+00
 0.0000000000000E+00
 0.0000000000000E+00
 0.0000000000000E+00
 0.0000000000000E+00
 0.0000000000000E+00
 0.0000000000000E+00
 0.0000000000000E+00
 0.0000000000000E+00
 0.0000000000000E+00
 0.0000000000000E+00
 0.0000000000000E+00
 0.0000000000000E+00
 0.0000000000000E+00
 0.0000000000000E+00
 0.0000000000000E+00
 0.0000000000000E+00
 0.0000000000000E+00
 0.0000000000000E+00
 0.0000000000000E+00
 0.0000000000000E+00
 0.0000000000000E+00
 0.0000000000000E+00
 0.0000000000000E+00
 0.0000000000000E+00
 0.0000000000000E+00
 0.0000000000000E+00
 0.0000000000000E+00
 0.0000000000000E+00
 0.0000000000000E+00
 0.0000000000000E+00
 0.0000000000000E+00
 0.0000000000000E+00
 0.0000000000000E+00
 0.0000000000000E+00
 0.0000000000000E+00
 0.0000000000000E+00
 0.0000000000000E+00
 0.0000000000000E+00
 0.0000000000000E+00
 0.0000000000000E+00
 0.0000000000000E+00
 0.0000000000000E+00
 0.0000000000000E+00
 0.0000000000000E+00
 0.0000000000000E+00
 0.0000000000000E+00
 0.0000000000000E+00
 0.0000000000000E+00
 0.0000000000000E+00
 0.0000000000000E+00
 0.0000000000000E+00
 0.0000000000000E+00
 0.0000000000000E+00
 0.0000000000000E+00
 0.0000000000000E+00
 0.0000000000000E+00
 0.0000000000000E+00
 0.0000000000000E+00
 0.0000000000000E+00
 0.0000000000000E+00
 0.0000000000000E+00
 0.0000000000000E+00
 0.0000000000000E+00
 0.0000000000000E+00
 0.0000000000000E+00
 0.0000000000000E+00
 0.0000000000000E+00
 0.0000000000000E+00
 0.0000000000000E+00
 0.0000000000000E+00
 0.0000000000000E+00
 0.0000000000000E+00
 0.0000000000000E+00
 0.0000000000000E+00
 0.0000000000000E+00
 0.0000000000000E+00
 0.0000000000000E+00
 0.0000000000000E+00
 0.0000000000000E+00
 0.0000000000000E+00
 0.0000000000000E+00
 0.0000000000000E+00
 0.0000000000000E+00
 0.0000000000000E+00
 0.0000000000000E+00
 0.0000000000000E+00
 0.0000000000000E+00
 0.0000000000000E+00
 0.0000000000000E+00
 0.0000000000000E+00
 0.0000000000000E+00
 0.0000000000000E+00
 0.0000000000000E+00
 0.0000000000000E+00
 0.0000000000000E+00
 0.0000000000000E+00
 0.0000000000000E+00
 0.0000000000000E+00
 0.0000000000000E+00
 0.0000000000000E+00
 0.0000000000000E+00
 0.0000000000000E+00
 0.0000000000000E+00
 0.0000000000000E+00
 0.0000000000000E+00
 0.0000000000000E+00
 0.0000000000000E+00
 0.0000000000000E+00
 0.0000000000000E+00
 0.0000000000000E+00
 0.0000000000000E+00
 0.0000000000000E+00
 0.0000000000000E+00
 0.0000000000000E+00
 0.0000000000000E+00
 0.0000000000000E+00
 0.0000000000000E+00
 0.0000000000000E+00
 0.0000000000000E+00
 0.0000000000000E+00
 0.0000000000000E+00
 0.0000000000000E+00
 0.0000000000000E+00
 0.0000000000000E+00
 0.0000000000000E+00
 0.0000000000000E+00
 0.0000000000000E+00
 0.0000000000000E+00
 0.0000000000000E+00
 0.0000000000000E+00
 0.0000000000000E+00
 0.0000000000000E+00
 0.0000000000000E+00
 0.0000000000000E+00
 0.0000000000000E+00
 0.0000000000000E+00
 0.0000000000000E+00
 0.0000000000000E+00
 0.0000000000000E+00
 0.0000000000000E+00
 0.0000000000000E+00
 0.0000000000000E+00
 0.0000000000000E+00
 0.0000000000000E+00
 0.0000000000000E+00
 0.0000000000000E+00
 0.0000000000000E+00
 0.0000000000000E+00
 0.0000000000000E+00
 0.0000000000000E+00
 0.0000000000000E+00
 0.0000000000000E+00
 0.0000000000000E+00
 0.0000000000000E+00
 0.0000000000000E+00
 0.0000000000000E+00
 0.0000000000000E+00
 0.0000000000000E+00
 0.0000000000000E+00
 0.0000000000000E+00
 0.0000000000000E+00
 0.0000000000000E+00
 0.0000000000000E+00
 0.0000000000000E+00
 0.0000000000000E+00
 0.0000000000000E+00
 0.0000000000000E+00
 0.0000000000000E+00
 0.0000000000000E+00
 0.0000000000000E+00
 0.0000000000000E+00
 0.0000000000000E+00
 0.0000000000000E+00
 0.0000000000000E+00
 0.0000000000000E+00
 0.0000000000000E+00
 0.0000000000000E+00
 0.0000000000000E+00
 0.0000000000000E+00
 0.0000000000000E+00
 0.0000000000000E+00
 0.0000000000000E+00
 0.0000000000000E+00
 0.0000000000000E+00
 0.0000000000000E+00
 0.0000000000000E+00
 0.0000000000000E+00
 0.0000000000000E+00
 0.0000000000000E+00
 0.0000000000000E+00
 0.0000000000000E+00
 0.0000000000000E+00
 0.0000000000000E+00
 0.0000000000000E+00
 0.0000000000000E+00
 0.0000000000000E+00
 0.0000000000000E+00
 0.0000000000000E+00
 0.0000000000000E+00
 0.0000000000000E+00
 0.0000000000000E+00
 0.0000000000000E+00
 0.0000000000000E+00
 0.0000000000000E+00
 0.0000000000000E+00
 0.0000000000000E+00
 0.0000000000000E+00
 0.0000000000000E+00
 0.0000000000000E+00
 0.0000000000000E+00
 0.0000000000000E+00
 0.0000000000000E+00
 0.0000000000000E+00
 0.0000000000000E+00
 0.0000000000000E+00
 0.0000000000000E+00
 0.0000000000000E+00
 0.0000000000000E+00
 0.0000000000000E+00
 0.0000000000000E+00
 0.0000000000000E+00
 0.0000000000000E+00
 0.0000000000000E+00
 0.0000000000000E+00
 0.0000000000000E+00
 0.0000000000000E+00
 0.0000000000000E+00
 0.0000000000000E+00
 0.0000000000000E+00
 0.0000000000000E+00
 0.0000000000000E+00
 0.0000000000000E+00
 0.0000000000000E+00
 0.0000000000000E+00
 0.0000000000000E+00
 0.0000000000000E+00
 0.0000000000000E+00
 0.0000000000000E+00
 0.0000000000000E+00
 0.0000000000000E+00
 0.0000000000000E+00
 0.0000000000000E+00
 0.0000000000000E+00
 0.0000000000000E+00
 0.0000000000000E+00
 0.0000000000000E+00
 0.0000000000000E+00
 0.0000000000000E+00
 0.0000000000000E+00
 0.0000000000000E+00
 0.0000000000000E+00
 0.0000000000000E+00
 0.0000000000000E+00
 0.0000000000000E+00
 0.0000000000000E+00
 0.0000000000000E+00
 0.0000000000000E+00
 0.0000000000000E+00
 0.0000000000000E+00
 0.0000000000000E+00
 0.0000000000000E+00
 0.0000000000000E+00
 0.0000000000000E+00
 0.0000000000000E+00
 0.0000000000000E+00
 0.0000000000000E+00
 0.0000000000000E+00
 0.0000000000000E+00
 0.0000000000000E+00
 0.0000000000000E+00
 0.0000000000000E+00
 0.0000000000000E+00
 0.0000000000000E+00
 0.0000000000000E+00
 0.0000000000000E+00
 0.0000000000000E+00
 0.0000000000000E+00
 0.0000000000000E+00
 0.0000000000000E+00
 0.0000000000000E+00
 0.0000000000000E+00
 0.0000000000000E+00
 0.0000000000000E+00
 0.0000000000000E+00
 0.0000000000000E+00
 0.0000000000000E+00
 0.0000000000000E+00
 0.0000000000000E+00
 0.0000000000000E+00
 0.0000000000000E+00
 0.0000000000000E+00
 0.0000000000000E+00
 0.0000000000000E+00
 0.0000000000000E+00
 0.0000000000000E+00
 0.0000000000000E+00
 0.0000000000000E+00
 0.0000000000000E+00
 0.0000000000000E+00
 0.0000000000000E+00
 0.0000000000000E+00
 0.0000000000000E+00
 0.0000000000000E+00
 0.0000000000000E+00
 0.0000000000000E+00
 0.0000000000000E+00
 0.0000000000000E+00
 0.0000000000000E+00
 0.0000000000000E+00
 0.0000000000000E+00
 0.0000000000000E+00
 0.0000000000000E+00
 0.0000000000000E+00
 0.0000000000000E+00
 0.0000000000000E+00
 0.0000000000000E+00
 0.0000000000000E+00
 0.0000000000000E+00
 0.0000000000000E+00
 0.0000000000000E+00
 0.0000000000000E+00
 0.0000000000000E+00
 0.0000000000000E+00
 0.0000000000000E+00
 0.0000000000000E+00
 0.0000000000000E+00
 0.0000000000000E+00
 0.0000000000000E+00
 0.0000000000000E+00
 0.0000000000000E+00
 0.0000000000000E+00
 0.0000000000000E+00
 0.0000000000000E+00
 0.0000000000000E+00
 0.0000000000000E+00
 0.0000000000000E+00
 0.0000000000000E+00
 0.0000000000000E+00
 0.0000000000000E+00
 0.0000000000000E+00
 0.0000000000000E+00
 0.0000000000000E+00
 0.0000000000000E+00
 0.0000000000000E+00
 0.0000000000000E+00
 0.0000000000000E+00
 0.0000000000000E+00
 0.0000000000000E+00
 0.0000000000000E+00
 0.0000000000000E+00
 0.0000000000000E+00
 0.0000000000000E+00
 0.0000000000000E+00
 0.0000000000000E+00
 0.0000000000000E+00
 0.0000000000000E+00
 0.0000000000000E+00
 0.0000000000000E+00
 0.0000000000000E+00
 0.0000000000000E+00
 0.0000000000000E+00
 0.0000000000000E+00
 0.0000000000000E+00
 0.0000000000000E+00
 0.0000000000000E+00
 0.0000000000000E+00
 0.0000000000000E+00
 0.0000000000000E+00
 0.0000000000000E+00
 0.0000000000000E+00
 0.0000000000000E+00
 0.0000000000000E+00
 0.0000000000000E+00
 0.0000000000000E+00
 0.0000000000000E+00
 0.0000000000000E+00
 0.0000000000000E+00
 0.0000000000000E+00
 0.0000000000000E+00
 0.0000000000000E+00
 0.0000000000000E+00
 0.0000000000000E+00
 0.0000000000000E+00
 0.0000000000000E+00
 0.0000000000000E+00
 0.0000000000000E+00
 0.0000000000000E+00
 0.0000000000000E+00
 0.0000000000000E+00
 0.0000000000000E+00
 0.0000000000000E+00
 0.0000000000000E+00
 0.0000000000000E+00
 0.0000000000000E+00
 0.0000000000000E+00
 0.0000000000000E+00
 0.0000000000000E+00
 0.0000000000000E+00
 0.0000000000000E+00
 0.0000000000000E+00
 0.0000000000000E+00
 0.0000000000000E+00
 0.0000000000000E+00
 0.0000000000000E+00
 0.0000000000000E+00
 0.0000000000000E+00
 0.0000000000000E+00
 0.0000000000000E+00
 0.0000000000000E+00
 0.0000000000000E+00
 0.0000000000000E+00
 0.0000000000000E+00
 0.0000000000000E+00
 0.0000000000000E+00
 0.0000000000000E+00
 0.0000000000000E+00
 0.0000000000000E+00
 0.0000000000000E+00
 0.0000000000000E+00
 0.0000000000000E+00
 0.0000000000000E+00
 0.0000000000000E+00
 0.0000000000000E+00
 0.0000000000000E+00
 0.0000000000000E+00
 0.0000000000000E+00
 0.0000000000000E+00
 0.0000000000000E+00
 0.0000000000000E+00
 0.0000000000000E+00
 0.0000000000000E+00
 0.0000000000000E+00
 0.0000000000000E+00
 0.0000000000000E+00
 0.0000000000000E+00
 0.0000000000000E+00
 0.0000000000000E+00
 0.0000000000000E+00
 0.0000000000000E+00
 0.0000000000000E+00
 0.0000000000000E+00
 0.0000000000000E+00
 0.0000000000000E+00
 0.0000000000000E+00
 0.0000000000000E+00
 0.0000000000000E+00
 0.0000000000000E+00
 0.0000000000000E+00
 0.0000000000000E+00
 0.0000000000000E+00
 0.0000000000000E+00
 0.0000000000000E+00
 0.0000000000000E+00
 0.0000000000000E+00
 0.0000000000000E+00
 0.0000000000000E+00
 0.0000000000000E+00
 0.0000000000000E+00
 0.0000000000000E+00
 0.0000000000000E+00
 0.0000000000000E+00
 0.0000000000000E+00
 0.0000000000000E+00
 0.0000000000000E+00
 0.0000000000000E+00
 0.0000000000000E+00
 0.0000000000000E+00
 0.0000000000000E+00
 0.0000000000000E+00
 0.0000000000000E+00
 0.0000000000000E+00
 0.0000000000000E+00
 0.0000000000000E+00
 0.0000000000000E+00
 0.0000000000000E+00
 0.0000000000000E+00
 0.0000000000000E+00
 0.0000000000000E+00
 0.0000000000000E+00
 0.0000000000000E+00
 0.0000000000000E+00
 0.0000000000000E+00
 0.0000000000000E+00
 0.0000000000000E+00
 0.0000000000000E+00
 0.0000000000000E+00
 0.0000000000000E+00
 0.0000000000000E+00
 0.0000000000000E+00
 0.0000000000000E+00
 0.0000000000000E+00
 0.0000000000000E+00
 0.0000000000000E+00
 0.0000000000000E+00
 0.0000000000000E+00
 0.0000000000000E+00
 0.0000000000000E+00
 0.0000000000000E+00
 0.0000000000000E+00
 0.0000000000000E+00
 0.0000000000000E+00
 0.0000000000000E+00
 0.0000000000000E+00
 0.0000000000000E+00
 0.0000000000000E+00
 0.0000000000000E+00
 0.0000000000000E+00
 0.0000000000000E+00
 0.0000000000000E+00
 0.0000000000000E+00
 0.0000000000000E+00
 0.0000000000000E+00
 0.0000000000000E+00
 0.0000000000000E+00
 0.0000000000000E+00
 0.0000000000000E+00
 0.0000000000000E+00
 0.0000000000000E+00
 0.0000000000000E+00
 0.0000000000000E+00
 0.0000000000000E+00
 0.0000000000000E+00
 0.0000000000000E+00
 0.0000000000000E+00
 0.0000000000000E+00
 0.0000000000000E+00
 0.0000000000000E+00
 0.0000000000000E+00
 0.0000000000000E+00
 0.0000000000000E+00
 0.0000000000000E+00
 0.0000000000000E+00
 0.0000000000000E+00
 0.0000000000000E+00
 0.0000000000000E+00
 0.0000000000000E+00
 0.0000000000000E+00
 0.0000000000000E+00
 0.0000000000000E+00
 0.0000000000000E+00
 0.0000000000000E+00
 0.0000000000000E+00
 0.0000000000000E+00
 0.0000000000000E+00
 0.0000000000000E+00
 0.0000000000000E+00
 0.0000000000000E+00
 0.0000000000000E+00
 0.0000000000000E+00
 0.0000000000000E+00
 0.0000000000000E+00
 0.0000000000000E+00
 0.0000000000000E+00
 0.0000000000000E+00
 0.0000000000000E+00
 0.0000000000000E+00
 0.0000000000000E+00
 0.0000000000000E+00
 0.0000000000000E+00
 0.0000000000000E+00
 0.0000000000000E+00
 0.0000000000000E+00
 0.0000000000000E+00
 0.0000000000000E+00
 0.0000000000000E+00
 0.0000000000000E+00
 0.0000000000000E+00
 0.0000000000000E+00
 0.0000000000000E+00
 0.0000000000000E+00
 0.0000000000000E+00
 0.0000000000000E+00
 0.0000000000000E+00
 0.0000000000000E+00
 0.0000000000000E+00
 0.0000000000000E+00
 0.0000000000000E+00
 0.0000000000000E+00
 0.0000000000000E+00
 0.0000000000000E+00
 0.0000000000000E+00
 0.0000000000000E+00
 0.0000000000000E+00
 0.0000000000000E+00
 0.0000000000000E+00
 0.0000000000000E+00
 0.0000000000000E+00
 0.0000000000000E+00
 0.0000000000000E+00
 0.0000000000000E+00
 0.0000000000000E+00
 0.0000000000000E+00
 0.0000000000000E+00
 0.0000000000000E+00
 0.0000000000000E+00
 0.0000000000000E+00
 0.0000000000000E+00
 0.0000000000000E+00
 0.0000000000000E+00
 0.0000000000000E+00
 0.0000000000000E+00
 0.0000000000000E+00
 0.0000000000000E+00
 0.0000000000000E+00
 0.0000000000000E+00
 0.0000000000000E+00
 0.0000000000000E+00
 0.0000000000000E+00
 0.0000000000000E+00
 0.0000000000000E+00
 0.0000000000000E+00
 0.0000000000000E+00
 0.0000000000000E+00
 0.0000000000000E+00
 0.0000000000000E+00
 0.0000000000000E+00
 0.0000000000000E+00
 0.0000000000000E+00
 0.0000000000000E+00
 0.0000000000000E+00
 0.0000000000000E+00
 0.0000000000000E+00
 0.0000000000000E+00
 0.0000000000000E+00
 0.0000000000000E+00
 0.0000000000000E+00
 0.0000000000000E+00
 0.0000000000000E+00
 0.0000000000000E+00
 0.0000000000000E+00
 0.0000000000000E+00
 0.0000000000000E+00
 0.0000000000000E+00
 0.0000000000000E+00
 0.0000000000000E+00
 0.0000000000000E+00
 0.0000000000000E+00
 0.0000000000000E+00
 0.0000000000000E+00
 0.0000000000000E+00
 0.0000000000000E+00
 0.0000000000000E+00
 0.0000000000000E+00
 0.0000000000000E+00
 0.0000000000000E+00
 0.0000000000000E+00
 0.0000000000000E+00
 0.0000000000000E+00
 0.0000000000000E+00
 0.0000000000000E+00
 0.0000000000000E+00
 0.0000000000000E+00
 0.0000000000000E+00
 0.0000000000000E+00
 0.0000000000000E+00
 0.0000000000000E+00
 0.0000000000000E+00
 0.0000000000000E+00
 0.0000000000000E+00
 0.0000000000000E+00
 0.0000000000000E+00
 0.0000000000000E+00
 0.0000000000000E+00
 0.0000000000000E+00
 0.0000000000000E+00
 0.0000000000000E+00
 0.0000000000000E+00
 0.0000000000000E+00
 0.0000000000000E+00
 0.0000000000000E+00
 0.0000000000000E+00
 0.0000000000000E+00
 0.0000000000000E+00
 0.0000000000000E+00
 0.0000000000000E+00
 0.0000000000000E+00
 0.0000000000000E+00
 0.0000000000000E+00
 0.0000000000000E+00
 0.0000000000000E+00
 0.0000000000000E+00
 0.0000000000000E+00
 0.0000000000000E+00
 0.0000000000000E+00
 0.0000000000000E+00
 0.0000000000000E+00
 0.0000000000000E+00
 0.0000000000000E+00
 0.0000000000000E+00
 0.0000000000000E+00
 0.0000000000000E+00
 0.0000000000000E+00
 0.0000000000000E+00
 0.0000000000000E+00
</DataArray>
<DataArray type="Int32" Name="Region" format="ascii">
           1
           1
           1
           1
           1
           1
           1
           1
           1
           1
           1
           1
           1
           1
           1
           1
           1
           1
           1
           1
           1
           1
           1
           1
           1
           1
           1
           1
           1
           1
           1
           1
           1
           1
           1
           1
           1
           1
           1
           1
           1
           1
           1
           1
           1
           1
           1
           1
           1
           1
           1
           1
           1
           1
           1
           1
           1
           1
           1
           1
           1
           1
           1
           1
           1
           1
           1
           1
           1
           1
           1
           1
           1
           1
           1
           1
           1
           1
           1
           1
           1
           1
           1
           1
           1
           1
           1
           1
           1
           1
           1
           1
           1
           1
           1
           1
           1
           1
           1
           1
           1
           1
           1
           1
           1
           1
           1
           1
           1
           1
           1
           1
           1
           1
           1
           1
           1
           1
           1
           1
           1
           1
           1
           1
           1
           1
           1
           1
           1
           1
           1
           1
           1
           1
           1
           1
           1
           1
           1
           1
           1
           1
           1
           1
           1
           1
           1
           1
           1
           1
           1
           1
           1
           1
           1
           1
           1
           1
           1
           1
           1
           1
           1
           1
           1
           1
           1
           1
           1
           1
           1
           1
           1
           1
           1
           1
           1
           1
           1
           1
           1
           1
           1
           1
           1
           1
           1
           1
           1
           1
           1
           1
           1
           1
           1
           1
           1
           1
           1
           1
           1
           1
           1
           1
           1
           1
           1
           1
           1
           1
           1
           1
           1
           1
           1
           1
           1
           1
           1
           1
           1
           1
           1
           1
           1
           1
           1
           1
           1
           1
           1
           1
           1
           1
           1
           1
           1
           1
           1
           1
           1
           1
           1
           1
           1
           1
           1
           1
           1
           1
           1
           1
           1
           1
           1
           1
           1
           1
           1
           1
           1
           1
           1
           1
           1
           1
           1
           1
           1
           1
           1
           1
           1
           1
           1
           1
           1
           1
           1
           1
           1
           1
           1
           1
           1
           1
           1
           1
           1
           1
           1
           1
           1
           1
           1
           1
           1
           1
           1
           1
           1
           1
           1
           1
           1
           1
           1
           1
           1
           1
           1
           1
           1
           1
           1
           1
           1
           1
           1
           1
           1
           1
           1
           1
           1
           1
           1
           1
           1
           1
           1
           1
           1
           1
           1
           1
           1
           1
           1
           1
           1
           1
           1
           1
           1
           1
           1
           1
           1
           1
           1
           1
           1
           1
           1
           1
           1
           1
           1
           1
           1
           1
           1
           1
           1
           1
           1
           1
           1
           1
           1
           1
           1
           1
           1
           1
           1
           1
           1
           1
           1
           1
           1
           1
           1
           1
           1
           1
           1
           1
           1
           1
           1
           1
           1
           1
           1
           1
           1
           1
           1
           1
           1
           1
           1
           1
           1
           1
           1
           1
           1
           1
           1
           1
           1
           1
           1
           1
           1
           1
           1
           1
           1
           1
           1
           1
           1
           1
           1
           1
           1
           1
           1
           1
           1
           1
           1
           1
           1
           1
           1
           1
           1
           1
           1
           1
           1
           1
           1
           1
           1
           1
           1
           1
           1
           1
           1
           1
           1
           1
           1
           1
           1
           1
           1
           1
           1
           1
           1
           1
           1
           1
           1
           1
           1
           1
           1
           1
           1
           1
           1
           1
           1
           1
           1
           1
           1
           1
           1
           1
           1
           1
           1
           1
           1
           1
           1
           1
           1
           1
           1
           1
           1
           1
           1
           1
           1
           1
           1
           1
           1
           1
           1
           1
           1
           1
           1
           1
           1
           1
           1
           1
           1
           1
           1
           1
           1
           1
           1
           1
           1
           1
           1
           1
           1
           1
           1
           1
           1
           1
           1
           1
           1
           1
           1
           1
           1
           1
           1
           1
           1
           1
           1
           1
           1
           1
           1
           1
           1
           1
           1
           1
           1
           1
           1
           1
           1
           1
           1
           1
           1
           1
           1
           1
           1
           1
           1
           1
           1
           1
           1
           1
           1
           1
           1
           1
           1
           1
           1
           1
           1
           1
           1
           1
           1
           1
           1
           1
           1
           1
           1
           1
           1
           1
           1
           1
           1
           1
           1
           1
           1
           1
           1
           1
           1
           1
           1
           1
           1
           1
           1
           1
           1
           1
           1
           1
           1
           1
           1
           1
           1
           1
           1
           1
           1
           1
           1
           1
           1
           1
           1
           1
           1
           1
           1
           1
           1
           1
           1
           1
           1
           1
           1
           1
           1
           1
           1
           1
           1
           1
           1
           1
           1
           1
           1
           1
           1
           1
           1
           1
           1
           1
           1
           1
           1
           1
           1
           1
           1
           1
           1
           1
           1
           1
           1
           1
           1
           1
           1
           1
           1
           1
           1
           1
           1
           1
           1
           1
           1
           1
           1
           1
           1
           1
           1
           1
           1
           1
           1
           1
           1
           1
           1
           1
           1
           1
           1
           1
           1
           1
           1
           1
           1
           1
           1
           1
           1
           1
           1
           1
           1
           1
           1
           1
           1
           1
           1
           1
           1
           1
           1
           1
           1
           1
           1
           1
           1
           1
           1
           1
           1
           1
           1
           1
           1
           1
           1
           1
           1
           1
           1
           1
           1
           1
           1
           1
           1
           1
           1
           1
           1
           1
           1
           1
           1
           1
           1
           1
           1
           1
           1
           1
           1
           1
           1
           1
           1
           1
           1
           1
           1
           1
           1
           1
           1
           1
           1
           1
           1
           1
           1
           1
           1
           1
           1
           1
           1
           1
           1
           1
           1
           1
           1
           1
           1
           1
           1
           1
           1
           1
           1
           1
           1
           1
           1
           1
           1
           1
           1
           1
           1
           1
           1
           1
           1
           1
           1
           1
           1
           1
           1
           1
           1
           1
           1
           1
           1
           1
           1
           1
           1
           1
           1
           1
           1
           1
           1
           1
           1
           1
           1
           1
           1
           1
           1
           1
           1
           1
           1
           1
           1
           1
           1
           1
           1
           1
           1
           1
           1
           1
           1
           1
           1
           1
           1
           1
           1
           1
           1
           1
           1
           1
           1
           1
           1
           1
           1
           1
           1
           1
           1
           1
           1
           1
           1
           1
           1
           1
           1
           1
           1
           1
           1
           1
           1
           1
           1
           1
           1
           1
           1
           1
           1
           1
           1
           1
           1
           1
           1
           1
           1
           1
           1
           1
           1
           1
           1
           1
           1
           1
           1
           1
           1
           1
           1
           1
           1
           1
           1
           1
           1
           1
           1
           1
           1
           1
           1
           1
           1
           1
           1
           1
           1
           1
           1
           1
           1
           1
           1
           1
           1
           1
           1
           1
           1
           1
           1
           1
           1
           1
           1
           1
           1
           1
           1
           1
           1
           1
           1
           1
           1
           1
           1
           1
           1
           1
           1
           1
           1
           1
           1
           1
           1
           1
           1
           1
           1
           1
           1
           1
           1
           1
           1
           1
           1
           1
           1
           1
           1
           1
           1
           1
           1
           1
           1
           1
           1
           1
           1
           1
           1
           1
           1
           1
           1
           1
           1
           1
           1
           1
           1
           1
           1
           1
           1
           1
           1
           1
           1
           1
           1
           1
           1
           1
           1
           1
           1
           1
           1
           1
           1
           1
           1
           1
           1
           1
           1
           1
           1
           1
           1
           1
           1
           1
           1
           1
           1
           1
           1
           1
           1
           1
           1
           1
           1
           1
           1
           1
           1
           1
           1
           1
           1
           1
           1
           1
           1
           1
           1
           1
           1
           1
           1
           1
           1
           1
           1
           1
           1
           1
           1
           1
           1
           1
           1
           1
           1
           1
           1
           1
           1
           1
           1
           1
           1
           1
           1
           1
           1
           1
           1
           1
           1
           1
           1
           1
           1
           1
           1
           1
           1
           1
           1
           1
           1
           1
           1
           1
           1
           1
           1
           1
           1
           1
           1
           1
           1
           1
           1
           1
           1
           1
           1
           1
           1
           1
           1
           1
           1
           1
           1
           1
           1
           1
           1
           1
           1
           1
           1
           1
           1
           1
           1
           1
           1
           1
           1
           1
           1
           1
           1
           1
           1
           1
           1
           1
           1
           1
           1
           1
           1
           1
           1
           1
           1
           1
           1
           1
           1
           1
           1
           1
           1
           1
           1
           1
           1
           1
           1
           1
           1
           1
           1
           1
           1
           1
           1
           1
           1
           1
           1
           1
           1
           1
           1
           1
           1
           1
           1
           1
           1
           1
           1
           1
           1
           1
           1
           1
           1
           1
           1
           1
           1
           1
           1
           1
           1
           1
           1
           1
           1
           1
           1
           1
           1
           1
           1
           1
           1
           1
           1
           1
           1
           1
           1
           1
           1
           1
           1
           1
           1
           1
           1
           1
           1
           1
           1
           1
           1
           1
           1
           1
           1
           1
           1
           1
           1
           1
           1
           1
           1
           1
           1
           1
           1
           1
           1
           1
           1
           1
           1
           1
           1
           1
           1
           1
           1
           1
           1
           1
           1
           1
           1
           1
           1
           1
           1
           1
           1
           1
           1
           1
           1
           1
           1
           1
           1
           1
           1
           1
           1
           1
           1
           1
           1
           1
           1
           1
           1
           1
           1
           1
           1
           1
           1
           1
           1
           1
           1
           1
           1
           1
           1
           1
           1
           1
           1
           1
           1
           1
           1
           1
           1
           1
           1
           1
           1
           1
           1
           1
           1
           1
           1
           1
           1
           1
           1
           1
           1
           1
           1
           1
           1
           1
           1
           1
           1
           1
           1
           1
           1
           1
           1
           1
           1
           1
           1
           1
           1
           1
           1
           1
           1
           1
           1
           1
           1
           1
           1
           1
           1
           1
           1
           1
           1
           1
           1
           1
           1
           1
           1
           1
           1
           1
           1
           1
           1
           1
           1
           1
           1
           1
           1
           1
           1
           1
           1
           1
           1
           1
           1
           1
           1
           1
           1
           1
           1
           1
           1
           1
           1
           1
           1
           1
           1
           1
           1
           1
           1
           1
           1
           1
           1
           1
           1
           1
           1
           1
           1
           1
           1
           1
           1
           1
           1
           1
           1
           1
           1
           1
           1
           1
           1
           1
           1
           1
           1
           1
           1
           1
           1
           1
           1
           1
           1
           1
           1
           1
           1
           1
           1
           1
           1
           1
           1
           1
           1
           1
           1
           1
           1
           1
           1
           1
           1
           1
           1
           1
           1
           1
           1
           1
           1
           1
           1
           1
           1
           1
           1
           1
           1
           1
           1
           1
           1
           1
           1
           1
           1
           1
           1
           1
           1
           1
           1
           1
           1
           1
           1
           1
           1
           1
           1
           1
           1
           1
           1
           1
           1
           1
           1
           1
           1
           1
           1
           1
           1
           1
           1
           1
           1
           1
           1
           1
           1
           1
           1
           1
           1
           1
           1
           1
           1
           1
           1
           1
           1
           1
           1
           1
           1
           1
           1
           1
           1
           1
           1
           1
           1
           1
           1
           1
           1
           1
           1
           1
           1
           1
           1
           1
           1
           1
           1
           1
           1
           1
           1
           1
           1
           1
           1
           1
           1
           1
           1
           1
           1
           1
           1
           1
           1
           1
           1
           1
           1
           1
           1
           1
           1
           1
           1
           1
           1
           1
           1
           1
           1
           1
           1
           1
           1
           1
           1
           1
           1
           1
           1
           1
           1
           1
           1
           1
           1
           1
           1
           1
           1
           1
           1
           1
           1
           1
           1
           1
           1
           1
           1
           1
           1
           1
           1
           1
           1
           1
           1
           1
           1
           1
           1
           1
           1
           1
           1
           1
           1
           1
           1
           1
           1
           1
           1
           1
           1
           1
           1
           1
           1
           1
           1
           1
           1
           1
           1
           1
           1
           1
           1
           1
           1
           1
           1
           1
           1
           1
           1
           1
           1
           1
           1
           1
           1
           1
           1
           1
           1
           1
           1
           1
           1
           1
           1
           1
           1
           1
           1
           1
           1
           1
           1
           1
           1
           1
           1
           1
           1
           1
           1
           1
           1
           1
           1
           1
           1
           1
           1
           1
           1
           1
           1
           1
           1
           1
           1
           1
           1
           1
           1
           1
           1
           1
           1
           1
           1
           1
           1
           1
           1
           1
           1
           1
           1
           1
           1
           1
           1
           1
           1
           1
           1
           1
           1
           1
           1
           1
           1
           1
           1
           1
           1
           1
           1
           1
           1
           1
           1
           1
           1
           1
           1
           1
           1
           1
           1
           1
           1
           1
           1
           1
           1
           1
           1
           1
           1
           1
           1
           1
           1
           1
           1
           1
           1
           1
           1
           1
           1
           1
           1
           1
           1
           1
           1
           1
           1
           1
           1
           1
           1
           1
           1
           1
           1
           1
           1
           1
           1
           1
           1
           1
           1
           1
           1
           1
           1
           1
           1
           1
           1
           1
           1
           1
           1
           1
           1
           1
           1
           1
           1
           1
           1
           1
           1
           1
           1
           1
           1
           1
           1
           1
           1
           1
           1
           1
           1
           1
           1
           1
           1
           1
           1
           1
           1
           1
           1
           1
           1
           1
           1
           1
           1
           1
           1
           1
           1
           1
           1
           1
           1
           1
           1
           1
           1
           1
           1
           1
           1
           1
           1
           1
           1
           1
           1
           1
           1
           1
           1
           1
           1
           1
           1
           1
           1
           1
           1
           1
           1
           1
           1
           1
           1
           1
           1
           1
           1
           1
           1
           1
           1
           1
           1
           1
           1
           1
           1
           1
           1
           1
           1
           1
           1
           1
           1
           1
           1
           1
           1
           1
           1
           1
           1
           1
           1
           1
           1
           1
           1
           1
           1
           1
           1
           1
           1
           1
           1
           1
           1
           1
           1
           1
           1
           1
           1
           1
           1
           1
           1
           1
           1
           1
           1
           1
           1
           1
           1
           1
           1
           1
           1
           1
           1
           1
           1
           1
           1
           1
           1
           1
           1
           1
           1
           1
           1
           1
           1
           1
           1
           1
           1
           1
           1
           1
           1
           1
           1
           1
           1
           1
           1
           1
           1
           1
           1
           1
           1
           1
           1
           1
           1
           1
           1
           1
           1
           1
           1
           1
           1
           1
           1
           1
           1
           1
           1
           1
           1
           1
           1
           1
           1
           1
           1
           1
           1
           1
           1
           1
           1
           1
           1
           1
           1
           1
           1
           1
           1
           1
           1
           1
           1
           1
           1
           1
           1
           1
           1
           1
           1
           1
           1
           1
           1
           1
           1
           1
           1
           1
           1
           1
           1
           1
           1
           1
           1
           1
           1
           1
           1
           1
           1
           1
           1
           1
           1
           1
           1
           1
           1
           1
           1
           1
           1
           1
           1
           1
           1
           1
           1
           1
           1
           1
           1
           1
           1
           1
           1
           1
           1
           1
           1
           1
           1
           1
           1
           1
           1
           1
           1
           1
           1
           1
           1
           1
           1
           1
           1
           1
           1
           1
           1
           1
           1
           1
           1
           1
           1
           1
           1
           1
           1
           1
           1
           1
           1
           1
           1
           1
           1
           1
           1
           1
           1
           1
           1
           1
           1
           1
           1
           1
           1
           1
           1
           1
           1
           1
           1
           1
           1
           1
           1
           1
           1
           1
           1
           1
           1
           1
           1
           1
           1
           1
           1
           1
           1
           1
           1
           1
           1
           1
           1
           1
           1
           1
           1
           1
           1
           1
           1
           1
           1
           1
           1
           1
           1
           1
           1
           1
           1
           1
           1
           1
           1
           1
           1
           1
           1
           1
           1
           1
           1
           1
           1
           1
           1
           1
           1
           1
           1
           1
           1
           1
           1
           1
           1
           1
           1
           1
           1
           1
           1
           1
           1
           1
           1
           1
           1
           1
           1
           1
           1
           1
           1
           1
           1
           1
           1
           1
           1
           1
           1
           1
           1
           1
           1
           1
           1
           1
           1
           1
           1
           1
           1
           1
           1
           1
           1
           1
           1
           1
           1
           1
           1
           1
           1
           1
           1
           1
           1
           1
           1
           1
           1
           1
           1
           1
           1
           1
           1
           1
           1
           1
           1
           1
           1
           1
           1
           1
           1
           1
           1
           1
           1
           1
           1
           1
           1
           1
           1
           1
           1
           1
           1
           1
           1
           1
           1
           1
           1
           1
           1
           1
           1
           1
           1
           1
           1
           1
           1
           1
           1
           1
           1
           1
           1
           1
           1
           1
           1
           1
           1
           1
           1
           1
           1
           1
           1
           1
           1
           1
           1
           1
           1
           1
           1
           1
           1
           1
           1
           1
           1
           1
           1
           1
           1
           1
           1
           1
           1
           1
           1
           1
           1
           1
           1
           1
           1
           1
           1
           1
           1
           1
           1
           1
           1
           1
           1
           1
           1
           1
           1
           1
           1
           1
           1
           1
           1
           1
           1
           1
           1
           1
           1
           1
           1
           1
           1
           1
           1
           1
           1
           1
           1
           1
           1
           1
           1
           1
           1
           1
           1
           1
           1
           1
           1
           1
           1
           1
           1
           1
           1
           1
           1
           1
           1
           1
           1
           1
           1
           1
           1
           1
           1
           1
           1
           1
           1
           1
           1
           1
           1
           1
           1
           1
           1
           1
           1
           1
           1
           1
           1
           1
           1
           1
           1
           1
           1
           1
           1
           1
           1
           1
           1
           1
           1
           1
           1
           1
           1
           1
           1
           1
           1
           1
           1
           1
           1
           1
           1
           1
           1
           1
           1
           1
           1
           1
           1
           1
           1
           1
           1
           1
           1
           1
           1
           1
           1
           1
           1
           1
           1
           1
           1
           1
           1
           1
           1
           1
           1
           1
           1
           1
           1
           1
           1
           1
           1
           1
           1
           1
           1
           1
           1
           1
           1
           1
           1
           1
           1
           1
           1
           1
           1
           1
           1
           1
           1
           1
           1
           1
           1
           1
           1
           1
           1
           1
           1
           1
           1
           1
           1
           1
           1
           1
           1
           1
           1
           1
           1
           1
           1
           1
           1
           1
           1
           1
           1
           1
           1
           1
           1
           1
           1
           1
           1
           1
           1
           1
           1
           1
           1
           1
           1
           1
           1
           1
           1
           1
           1
           1
           1
           1
           1
           1
           1
           1
           1
           1
           1
           1
           1
           1
           1
           1
           1
           1
           1
           1
           1
           1
           1
           1
           1
           1
           1
           1
           1
           1
           1
           1
           1
           1
           1
           1
           1
           1
           1
           1
           1
           1
           1
           1
           1
           1
           1
           1
           1
           1
           1
           1
           1
           1
           1
           1
           1
           1
           1
           1
           1
           1
           1
           1
           1
           1
           1
           1
           1
           1
           1
           1
           1
           1
           1
           1
           1
           1
           1
           1
           1
           1
           1
           1
           1
           1
           1
           1
           1
           1
           1
           1
           1
           1
           1
           1
           1
           1
           1
           1
           1
           1
           1
           1
           1
           1
           1
           1
           1
           1
           1
           1
           1
           1
           1
           1
           1
           1
           1
           1
           1
           1
           1
           1
           1
           1
           1
           1
           1
           1
           1
           1
           1
           1
           1
           1
           1
           1
           1
           1
           1
           1
           1
           1
           1
           1
           1
           1
           1
           1
           1
           1
           1
           1
           1
           1
           1
           1
           1
           1
           1
           1
           1
           1
           1
           1
           1
           1
           1
           1
           1
           1
           1
           1
           1
           1
           1
           1
           1
           1
           1
           1
           1
           1
           1
           1
           1
           1
           1
           1
           1
           1
           1
           1
           1
           1
           1
           1
           1
           1
           1
           1
           1
           1
           1
           1
           1
           1
           1
           1
           1
           1
           1
           1
           1
           1
           1
           1
           1
           1
           1
           1
           1
           1
           1
           1
           1
           1
           1
           1
           1
           1
           1
           1
           1
           1
           1
           1
           1
           1
           1
           1
           1
           1
           1
           1
           1
           1
           1
           1
           1
           1
           1
           1
           1
           1
           1
           1
           1
           1
           1
           1
           1
           1
           1
           1
           1
           1
           1
           1
           1
           1
           1
           1
           1
           1
           1
           1
           1
           1
           1
           1
           1
           1
           1
           1
           1
           1
           1
           1
           1
           1
           1
           1
           1
           1
           1
           1
           1
           1
           1
           1
           1
           1
           1
           1
           1
           1
           1
           1
           1
           1
           1
           1
           1
           1
           1
           1
           1
           1
           1
           1
           1
           1
           1
           1
           1
           1
           1
           1
           1
           1
           1
           1
           1
           1
           1
           1
           1
           1
           1
           1
           1
           1
           1
           1
           1
           1
           1
           1
           1
           1
           1
           1
           1
           1
           1
           1
           1
           1
           1
           1
           1
           1
           1
           1
           1
           1
           1
           1
           1
           1
           1
           1
           1
           1
           1
           1
           1
           1
           1
           1
           1
           1
           1
           1
           1
           1
           1
           1
           1
           1
           1
           1
           1
           1
           1
           1
           1
           1
           1
           1
           1
           1
           1
           1
           1
           1
           1
           1
           1
           1
           1
           1
           1
           1
           1
           1
           1
           1
           1
           1
           1
           1
           1
           1
           1
           1
           1
           1
           1
           1
           1
           1
           1
           1
           1
           1
           1
           1
           1
           1
           1
           1
           1
           1
           1
           1
           1
           1
           1
           1
           1
           1
           1
           1
           1
           1
           1
           1
           1
           1
           1
           1
           1
           1
           1
           1
           1
           1
           1
           1
           1
           1
           1
           1
           1
           1
           1
           1
           1
           1
           1
           1
           1
           1
           1
           1
           1
           1
           1
           1
           1
           1
           1
           1
           1
           1
           1
           1
           1
           1
           1
           1
           1
           1
           1
           1
           1
           1
           1
           1
           1
           1
           1
           1
           1
           1
           1
           1
           1
           1
           1
           1
           1
           1
           1
           1
           1
           1
           1
           1
           1
           1
           1
           1
           1
           1
           1
           1
           1
           1
           1
           1
           1
           1
           1
           1
           1
           1
           1
           1
           1
           1
           1
           1
           1
           1
           1
           1
           1
           1
           1
           1
           1
           1
           1
           1
           1
           1
           1
           1
           1
           1
           1
           1
           1
           1
           1
           1
           1
           1
           1
           1
           1
           1
           1
           1
           1
           1
           1
           1
           1
           1
           1
           1
           1
           1
           1
           1
           1
           1
           1
           1
           1
           1
           2
           2
           2
           2
           2
           2
           2
           2
           2
           2
           2
           2
           2
           2
           2
           2
           2
           2
           2
           2
           2
           2
           2
           2
           2
           2
           2
           2
           2
           2
           2
           2
           2
           2
           2
           2
           2
           2
           2
           2
           2
           2
           2
           2
           2
           2
           2
           2
           2
           2
           2
           2
           2
           2
           2
           2
           2
           2
           2
           2
           2
           2
           2
           2
           2
           2
           2
           2
           2
           2
           2
           2
           2
           2
           2
           2
           2
           2
           2
           2
           2
           2
           2
           2
           2
           2
           2
           2
           2
           2
           2
           2
           2
           2
           2
           2
           2
           2
           2
           2
           2
           2
           2
           2
           2
           2
           2
           2
           2
           2
           2
           2
           2
           2
           2
           2
           2
           2
           2
           2
           2
           2
           2
           2
           2
           2
           2
           2
           2
           2
           2
           2
           2
           2
           2
           2
           2
           2
           2
           2
           2
           2
           2
           2
           2
           2
           2
           2
           2
           2
           2
           2
           2
           2
           2
           2
           2
           2
           2
           2
           2
           2
           2
           2
           2
           2
           2
           2
           2
           2
           2
           2
           2
           2
           2
           2
           2
           2
           2
           2
           2
           2
           2
           2
           2
           2
           2
           2
           2
           2
           2
           2
           2
           2
           2
           2
           2
           2
           2
           2
           2
           2
           2
           2
           2
           2
           2
           2
           2
           2
           2
           2
           2
           2
           2
           2
           2
           2
           2
           2
           2
           2
           2
           2
           2
           2
           2
           2
           2
           2
           2
           2
           2
           2
           2
           2
           2
           2
           2
           2
           2
           2
           2
           2
           2
           2
           2
           2
           2
           2
           2
           2
           2
           2
           2
           2
           2
           2
           2
           2
           2
           2
           2
           2
           2
           2
           2
           2
           2
           2
           2
           2
           2
           2
           2
           2
           2
           2
           2
           2
           2
           2
           2
           2
           2
           2
           2
           2
           2
           2
           2
           2
           2
           2
           2
           2
           2
           2
           2
           2
           2
           2
           2
           2
           2
           2
           2
           2
           2
           2
           2
           2
           2
           2
           2
           2
           2
           2
           2
           2
           2
           2
           2
           2
           2
           2
           2
           2
           2
           2
           2
           2
           2
           2
           2
           2
           2
           2
           2
           2
           2
           2
           2
           2
           2
           2
           2
           2
           2
           2
           2
           2
           2
           2
           2
           2
           2
           2
           2
           2
           2
           2
           2
           2
           2
           2
           2
           2
           2
           2
           2
           2
           2
           2
           2
           2
           2
           2
           2
           2
           2
           2
           2
           2
           2
           2
           2
           2
           2
           2
           2
           2
           2
           2
           2
           2
           2
           2
           2
           2
           2
           2
           2
           2
           2
           2
           2
           2
           2
           2
           2
           2
           2
           2
           2
           2
           2
           2
           2
           2
           2
           2
           2
           2
           2
           2
           2
           2
           2
           2
           2
           2
           2
           2
           2
           2
           2
           2
           2
           2
           2
           2
           2
           2
           2
           2
           2
           2
           2
           2
           2
           2
           2
           2
           2
           2
           2
           2
           2
           2
           2
           2
           2
           2
           2
           2
           2
           2
           2
           2
           2
           2
           2
           2
           2
           2
           2
           2
           2
           2
           2
           2
           2
           2
           2
           2
           2
           2
           2
           2
           2
           2
           2
           2
           2
           2
           2
           2
           2
           2
           2
           2
           2
           2
           2
           2
           2
           2
           2
           2
           2
           2
           2
           2
           2
           2
           2
           2
           2
           2
           2
           2
           2
           2
           2
           2
           2
           2
           2
           2
           2
           2
           2
           2
           2
           2
           2
           2
           2
           2
           2
           2
           2
           2
           2
           2
           2
           2
           2
           2
           2
           2
           2
           2
           2
           2
           2
           2
           2
           2
           2
           2
           2
           2
           2
           2
           2
           2
           2
           2
           2
           2
           2
           2
           2
           2
           2
           2
           2
           2
           2
           2
           2
           2
           2
           2
           2
           2
           2
           2
           2
           2
           2
           2
           2
           2
           2
           2
           2
           2
           2
           2
           2
           2
           2
           2
           2
           2
           2
           2
           2
           2
           2
           2
           2
           2
           2
           2
           2
           2
           2
           2
           2
           2
           2
           2
           2
           2
           2
           2
           2
           2
           2
           2
           2
           2
           2
           2
           2
           2
           2
           2
           2
           2
           2
           2
           2
           2
           2
           2
           2
           2
           2
           2
           2
           2
           2
           2
           2
           2
           2
           2
           2
           2
           2
           2
           2
           2
           2
           2
           2
           2
           2
           2
           2
           2
           2
           2
           2
           2
           2
           2
           2
           2
           2
           2
           2
           2
           2
           2
           2
           2
           2
           2
           2
           2
           2
           2
           2
           2
           2
           2
           2
           2
           2
           2
           2
           2
           2
           2
           2
           2
           2
           2
           2
           2
           2
           2
           2
           2
           2
           2
           2
           2
           2
           2
           2
           2
           2
           2
           2
           2
           2
           2
           2
           2
           2
           2
           2
           2
           2
           2
           2
           2
           2
           2
           2
           2
           2
           2
           2
           2
           2
           2
           2
           2
           2
           2
           2
           2
           2
           2
           2
           2
           2
           2
           2
           2
           2
           2
           2
           2
           2
           2
           2
           2
           2
           2
           2
           2
           2
           2
           2
           2
           2
           2
           2
           2
           2
           2
           2
           2
           2
           2
           2
           2
           2
           2
           2
           2
           2
           2
           2
           2
           2
           2
           2
           2
           2
           2
           2
           2
           2
           2
           2
           2
           2
           2
           2
           2
           2
           2
           2
           2
           2
           2
           2
           2
           2
           2
           2
           2
           2
           2
           2
           2
           2
           2
           2
           2
           2
           2
           2
           2
           2
           2
           2
           2
           2
           2
           2
           2
           2
           2
           2
           2
           2
           2
           2
           2
           2
           2
           2
           2
           2
           2
           2
           2
           2
           2
           2
           2
           2
           2
           2
           2
           2
           2
           2
           2
           2
           2
           2
           2
           2
           2
           2
           2
           2
           2
           2
           2
           2
           2
           2
           2
           2
           2
           2
           2
           2
           2
           2
           2
           2
           2
           2
           2
           2
           2
           2
           2
           2
           2
           2
           2
           2
           2
           2
           2
           2
           2
           2
           2
           2
           2
           2
           2
           2
           2
           2
           2
           2
           2
           2
           2
           2
           2
           2
           2
           2
           2
           2
           2
           2
           2
           2
           2
           2
           2
           2
           2
           2
           2
           2
           2
           2
           2
           2
           2
           2
           2
           2
           2
           2
           2
           2
           2
           2
           2
           2
           2
           2
           2
           2
           2
           2
           2
           2
           2
           2
           2
           2
           2
           2
           2
           2
           2
           2
           2
           2
           2
           2
           2
           2
           2
           2
           2
           2
           2
           2
           2
           2
           2
           2
           2
           2
           2
           2
           2
           2
           2
           2
           2
           2
           2
           2
           2
           2
           2
           2
           2
           2
           2
           2
           2
           2
           2
           2
           2
           2
           2
           2
           2
           2
           2
           2
           2
           2
           2
           2
           2
           2
           2
           2
           2
           2
           2
           2
           2
           2
           2
           2
           2
           2
           2
           2
           2
           2
           2
           2
           2
           2
           2
           2
           2
           2
           2
           2
           2
           2
           2
           2
           2
           2
           2
           2
           2
           2
           2
           2
           2
           2
           2
           2
           2
           2
           2
           2
           2
           2
           2
           2
           2
           2
           2
           2
           2
           2
           2
           2
           2
           2
           2
           2
           2
           2
           2
           2
           2
           2
           2
           2
           2
           2
           2
           2
           2
           2
           2
           2
           2
           2
           2
           2
           2
           2
           2
           2
           2
           2
           2
           2
           2
           2
           2
           2
           2
           2
           2
           2
           2
           2
           2
           2
           2
           2
           2
           2
           2
           2
           2
           2
           2
           2
           2
           2
           2
           2
           2
           2
           2
           2
           2
           2
           2
           2
           2
           2
           2
           2
           2
           2
           2
           2
           2
           2
           2
           2
           2
           2
           2
           2
           2
           2
           2
           2
           2
           2
           2
           2
           2
           2
           2
           2
           2
           2
           2
           2
           2
           2
           2
           2
           2
           2
           2
           2
           2
           2
           2
           2
           2
           2
           2
           2
           2
           2
           2
           2
           2
           2
           2
           2
           2
           2
           2
           2
           2
           2
           2
           2
           2
           2
           2
           2
           2
           2
           2
           2
           2
           2
           2
           2
           2
           2
           2
           2
           2
           2
           2
           2
           2
           2
           2
           2
           2
           2
           2
           2
           2
           2
           2
           2
           2
           2
           2
           2
           2
           2
           2
           2
           2
           2
           2
           2
           2
           2
           2
           2
           2
           2
           2
           2
           2
           2
           2
           2
           2
           2
           2
           2
           2
           2
           2
           2
           2
           2
           2
           2
           2
           2
           2
           2
           2
           2
           2
           2
           2
           2
           2
           2
           2
           2
           2
           2
           2
           2
           2
           2
           2
           2
           2
           2
           2
           2
           2
           2
           2
           2
           2
           2
           2
           2
           2
           2
           2
           2
           2
           2
           2
           2
           2
           2
           2
           2
           2
           2
           2
           2
           2
           2
           2
           2
           2
           2
           2
           2
           2
           2
           2
           2
           2
           2
           2
           2
           2
           2
           2
           2
           2
           2
           2
           2
           2
           2
           2
           2
           2
           2
           2
           2
           2
           2
           2
           2
           2
           2
           2
           2
           2
           2
           2
           2
           2
           2
           2
           2
           2
           2
           2
           2
           2
           2
           2
           2
           2
           2
           2
           2
           2
           2
           2
           2
           2
           2
           2
           2
           2
           2
           2
           2
           2
           2
           2
           2
           2
           2
           2
           2
           2
           2
           2
           2
           2
           2
           2
           2
           2
           2
           2
           2
           2
           2
           2
           2
           2
           2
           2
           2
           2
           2
           2
           2
           2
           2
           2
           2
           2
           2
           2
           2
           2
           2
           2
           2
           2
           2
           2
           2
           2
           2
           2
           2
           2
           2
           2
           2
           2
           2
           2
           2
           2
           2
           2
           2
           2
           2
           2
           2
           2
           2
           2
           2
           2
           2
           2
           2
           2
           2
           2
           2
           2
           2
           2
           2
           2
           2
           2
           2
           2
           2
           2
           2
           2
           2
           2
           2
           2
           2
           2
           2
           2
           2
           2
           2
           2
           2
           2
           2
           2
           2
           2
           2
           2
           2
           2
           2
           2
           2
           2
           2
           2
           2
           2
           2
           2
           2
           2
           2
           2
           2
           2
           2
           2
           2
           2
           2
           2
           2
           2
           2
           2
           2
           2
           2
           2
           2
           2
           2
           2
           2
           2
           2
           2
           2
           2
           2
           2
           2
           2
           2
           2
           2
           2
           2
           2
           2
           2
           2
           2
           2
           2
           2
           2
           2
           2
           2
           2
           2
           2
           2
           2
           2
           2
           2
           2
           2
           2
           2
           2
           2
           2
           2
           2
           2
           2
           2
           2
           2
           2
           2
           2
           2
           2
           2
           2
           2
           2
           2
           2
           2
           2
           2
           2
           2
           2
           2
           2
           2
           2
           2
           2
           2
           2
           2
           2
           2
           2
           2
           2
           2
           2
           2
           2
           2
           2
           2
           2
           2
           2
           2
           2
           2
           2
           2
           2
           2
           2
           2
           2
           2
           2
           2
           2
           2
           2
           2
           2
           2
           2
           2
           2
           2
           2
           2
           2
           2
           2
           2
           2
           2
           2
           2
           2
           2
           2
           2
           2
           2
           2
           2
           2
           2
           2
           2
           2
           2
           2
           2
           2
           2
           2
           2
           2
           2
           2
           2
           2
           2
           2
           2
           2
           2
           2
           2
           2
           2
           2
           2
           2
           2
           2
           2
           2
           2
           2
           2
           2
           2
           2
           2
           2
           2
           2
           2
           2
           2
           2
           2
           2
           2
           2
           2
           2
           2
           2
           2
           2
           2
           2
           2
           2
           2
           2
           2
           2
           2
           2
           2
           2
           2
           2
           2
           2
           2
           2
           2
           2
           2
           2
           2
           2
           2
           2
           2
           2
           2
           2
           2
           2
           2
           2
           2
           2
           2
           2
           2
           2
           2
           2
           2
           2
           2
           2
           2
           2
           2
           2
           2
           2
           2
           2
           2
           2
           2
           2
           2
           2
           2
           2
           2
           2
           2
           2
           2
           2
           2
           2
           2
           2
           2
           2
           2
           2
           2
           2
           2
           2
           2
           2
           2
           2
           2
           2
           2
           2
           2
           2
           2
           2
           2
           2
           2
           2
           2
           2
           2
           2
           2
           2
           2
           2
           2
           2
           2
           2
           2
           2
           2
           2
           2
           2
           2
           2
           2
           2
           2
           2
           2
           2
           2
           2
           2
           2
           2
           2
           2
           2
           2
           2
           2
           2
           2
           2
           2
           2
           2
           2
           2
           2
           2
           2
           2
           2
           2
           2
           2
           2
           2
           2
           2
           2
           2
           2
           2
           2
           2
           2
           2
           2
           2
           2
           2
           2
           2
           2
           2
           2
           2
           2
           2
           2
           2
           2
           2
           2
           2
           2
           2
           2
           2
           2
           2
           2
           2
           2
           2
           2
           2
           2
           2
           2
           2
           2
           2
           2
           2
           2
           2
           2
           2
           2
           2
           2
           2
           2
           2
           2
           2
           2
           2
           2
           2
           2
           2
           2
           2
           2
           2
           2
           2
           2
           2
           2
           2
           2
           2
           2
           2
           2
           2
           2
           2
           2
           2
           2
           2
           2
           2
           2
           2
           2
           2
           2
           2
           2
           2
           2
           2
           2
           2
           2
           2
           2
           2
           2
           2
           2
           2
           2
           2
           2
           2
           2
           2
           2
           2
           2
           2
           2
           2
           2
           2
           2
           2
           2
           2
           2
           2
           2
           2
           2
           2
           2
           2
           2
           2
           2
           2
           2
           2
           2
           2
           2
           2
           2
           2
           2
           2
           2
           2
           2
           2
           2
           2
           2
           2
           2
           2
           2
           2
           2
           2
           2
           2
           2
           2
           2
           2
           2
           2
           2
           2
           2
           2
           2
           2
           2
           2
           2
           2
           2
           2
           2
           2
           2
           2
           2
           2
           2
           2
           2
           2
           2
           2
           2
           2
           2
           2
           2
           2
           2
           2
           2
           2
           2
           2
           2
           2
           2
           2
           2
           2
           2
           2
           2
           2
           2
           2
           2
           2
           2
           2
           2
           2
           2
           2
           2
           2
           2
           2
           2
           2
           2
           2
           2
           2
           2
           2
           2
           2
           2
           2
           2
           2
           2
           2
           2
           2
           2
           2
           2
           2
           2
           2
           2
           2
           2
           2
           2
           2
           2
           2
           2
           2
           2
           2
           2
           2
           2
           2
           2
           2
           2
           2
           2
           2
           2
           2
           2
           2
           2
           2
           2
           2
           2
           2
           2
           2
           2
           2
           2
           2
           2
           2
           2
           2
           2
           2
           2
           2
           2
           2
           2
           2
           2
           2
           2
           2
           2
           2
           2
           2
           2
           2
           2
           2
           2
           2
           2
           2
           2
           2
           2
           2
           2
           2
           2
           2
           2
           2
           2
           2
           2
           2
           2
           2
           2
           2
           2
           2
           2
           2
           2
           2
           2
           2
           2
           2
           2
           2
           2
           2
           2
           2
           2
           2
           2
           2
           2
           2
           2
           2
           2
           2
           2
           2
           2
           2
           2
           2
           2
           2
           2
           2
           2
           2
           2
           2
           2
           2
           2
           2
           2
           2
           2
           2
           2
           2
           2
           2
           2
           2
           2
           2
           2
           2
           2
           2
           2
           2
           2
           2
           2
           2
           2
           2
           2
           2
           2
           2
           2
           2
           2
           2
           2
           2
           2
           2
           2
           2
           2
           2
           2
           2
           2
           2
           2
           2
           2
           2
           2
           2
           2
           2
           2
           2
           2
           2
           2
           2
           2
           2
           2
           2
           2
           2
           2
           2
           2
           2
           2
           2
           2
           2
           2
           2
           2
           2
           2
           2
           2
           2
           2
           2
           2
           2
           2
           2
           2
           2
           2
           2
           2
           2
           2
           2
           2
           2
           2
           2
           2
           2
           2
           2
           2
           2
           2
           2
           2
</DataArray>
</CellData>
</Piece>
</UnstructuredGrid>
</VTKFile>
