<VTKFile type="UnstructuredGrid" version="1,0" byte_order="LittleEndian">
<UnstructuredGrid>
<Piece NumberOfPoints="5802" NumberOfCells="5680">
<Points>
<DataArray type="Float64" NumberOfComponents="3" format="ascii">
-0.1100000000000E+01 -0.4260376958938E+01  0.0000000000000E+00
 0.0000000000000E+00 -0.4260376958938E+01  0.0000000000000E+00
 0.1100000000000E+01 -0.4260376958938E+01  0.0000000000000E+00
-0.1294830748007E+01 -0.1260376958938E+01  0.0000000000000E+00
-0.6474153677980E+00 -0.1260376958938E+01  0.0000000000000E+00
 0.6474153802085E+00 -0.1260376958938E+01  0.0000000000000E+00
 0.1294830748007E+01 -0.1260376958938E+01  0.0000000000000E+00
-0.1038349899718E+01  0.8622996231128E+00  0.0000000000000E+00
 0.1038349908233E+01  0.8622996153791E+00  0.0000000000000E+00
-0.5250000000000E+00  0.3489497150362E+00  0.0000000000000E+00
 0.5250000000000E+00  0.3489497150362E+00  0.0000000000000E+00
-0.1072500000000E+01 -0.4260376958938E+01  0.0000000000000E+00
-0.1045000000000E+01 -0.4260376958938E+01  0.0000000000000E+00
-0.1017500000000E+01 -0.4260376958938E+01  0.0000000000000E+00
-0.9900000000000E+00 -0.4260376958938E+01  0.0000000000000E+00
-0.9625000000000E+00 -0.4260376958938E+01  0.0000000000000E+00
-0.9350000000000E+00 -0.4260376958938E+01  0.0000000000000E+00
-0.9075000000000E+00 -0.4260376958938E+01  0.0000000000000E+00
-0.8800000000000E+00 -0.4260376958938E+01  0.0000000000000E+00
-0.8525000000000E+00 -0.4260376958938E+01  0.0000000000000E+00
-0.8250000000000E+00 -0.4260376958938E+01  0.0000000000000E+00
-0.7975000000000E+00 -0.4260376958938E+01  0.0000000000000E+00
-0.7700000000000E+00 -0.4260376958938E+01  0.0000000000000E+00
-0.7425000000000E+00 -0.4260376958938E+01  0.0000000000000E+00
-0.7150000000000E+00 -0.4260376958938E+01  0.0000000000000E+00
-0.6875000000000E+00 -0.4260376958938E+01  0.0000000000000E+00
-0.6600000000000E+00 -0.4260376958938E+01  0.0000000000000E+00
-0.6325000000000E+00 -0.4260376958938E+01  0.0000000000000E+00
-0.6050000000000E+00 -0.4260376958938E+01  0.0000000000000E+00
-0.5775000000000E+00 -0.4260376958938E+01  0.0000000000000E+00
-0.5500000000000E+00 -0.4260376958938E+01  0.0000000000000E+00
-0.5225000000000E+00 -0.4260376958938E+01  0.0000000000000E+00
-0.4950000000000E+00 -0.4260376958938E+01  0.0000000000000E+00
-0.4675000000000E+00 -0.4260376958938E+01  0.0000000000000E+00
-0.4400000000000E+00 -0.4260376958938E+01  0.0000000000000E+00
-0.4125000000000E+00 -0.4260376958938E+01  0.0000000000000E+00
-0.3850000000000E+00 -0.4260376958938E+01  0.0000000000000E+00
-0.3575000000000E+00 -0.4260376958938E+01  0.0000000000000E+00
-0.3300000000000E+00 -0.4260376958938E+01  0.0000000000000E+00
-0.3025000000000E+00 -0.4260376958938E+01  0.0000000000000E+00
-0.2750000000000E+00 -0.4260376958938E+01  0.0000000000000E+00
-0.2475000000000E+00 -0.4260376958938E+01  0.0000000000000E+00
-0.2200000000000E+00 -0.4260376958938E+01  0.0000000000000E+00
-0.1925000000000E+00 -0.4260376958938E+01  0.0000000000000E+00
-0.1650000000000E+00 -0.4260376958938E+01  0.0000000000000E+00
-0.1375000000000E+00 -0.4260376958938E+01  0.0000000000000E+00
-0.1100000000000E+00 -0.4260376958938E+01  0.0000000000000E+00
-0.8250000000000E-01 -0.4260376958938E+01  0.0000000000000E+00
-0.5500000000000E-01 -0.4260376958938E+01  0.0000000000000E+00
-0.2750000000000E-01 -0.4260376958938E+01  0.0000000000000E+00
 0.2750000000000E-01 -0.4260376958938E+01  0.0000000000000E+00
 0.5500000000000E-01 -0.4260376958938E+01  0.0000000000000E+00
 0.8250000000000E-01 -0.4260376958938E+01  0.0000000000000E+00
 0.1100000000000E+00 -0.4260376958938E+01  0.0000000000000E+00
 0.1375000000000E+00 -0.4260376958938E+01  0.0000000000000E+00
 0.1650000000000E+00 -0.4260376958938E+01  0.0000000000000E+00
 0.1925000000000E+00 -0.4260376958938E+01  0.0000000000000E+00
 0.2200000000000E+00 -0.4260376958938E+01  0.0000000000000E+00
 0.2475000000000E+00 -0.4260376958938E+01  0.0000000000000E+00
 0.2750000000000E+00 -0.4260376958938E+01  0.0000000000000E+00
 0.3025000000000E+00 -0.4260376958938E+01  0.0000000000000E+00
 0.3300000000000E+00 -0.4260376958938E+01  0.0000000000000E+00
 0.3575000000000E+00 -0.4260376958938E+01  0.0000000000000E+00
 0.3850000000000E+00 -0.4260376958938E+01  0.0000000000000E+00
 0.4125000000000E+00 -0.4260376958938E+01  0.0000000000000E+00
 0.4400000000000E+00 -0.4260376958938E+01  0.0000000000000E+00
 0.4675000000000E+00 -0.4260376958938E+01  0.0000000000000E+00
 0.4950000000000E+00 -0.4260376958938E+01  0.0000000000000E+00
 0.5225000000000E+00 -0.4260376958938E+01  0.0000000000000E+00
 0.5500000000000E+00 -0.4260376958938E+01  0.0000000000000E+00
 0.5775000000000E+00 -0.4260376958938E+01  0.0000000000000E+00
 0.6050000000000E+00 -0.4260376958938E+01  0.0000000000000E+00
 0.6325000000000E+00 -0.4260376958938E+01  0.0000000000000E+00
 0.6600000000000E+00 -0.4260376958938E+01  0.0000000000000E+00
 0.6875000000000E+00 -0.4260376958938E+01  0.0000000000000E+00
 0.7150000000000E+00 -0.4260376958938E+01  0.0000000000000E+00
 0.7425000000000E+00 -0.4260376958938E+01  0.0000000000000E+00
 0.7700000000000E+00 -0.4260376958938E+01  0.0000000000000E+00
 0.7975000000000E+00 -0.4260376958938E+01  0.0000000000000E+00
 0.8250000000000E+00 -0.4260376958938E+01  0.0000000000000E+00
 0.8525000000000E+00 -0.4260376958938E+01  0.0000000000000E+00
 0.8800000000000E+00 -0.4260376958938E+01  0.0000000000000E+00
 0.9075000000000E+00 -0.4260376958938E+01  0.0000000000000E+00
 0.9350000000000E+00 -0.4260376958938E+01  0.0000000000000E+00
 0.9625000000000E+00 -0.4260376958938E+01  0.0000000000000E+00
 0.9900000000000E+00 -0.4260376958938E+01  0.0000000000000E+00
 0.1017500000000E+01 -0.4260376958938E+01  0.0000000000000E+00
 0.1045000000000E+01 -0.4260376958938E+01  0.0000000000000E+00
 0.1072500000000E+01 -0.4260376958938E+01  0.0000000000000E+00
-0.1262459978996E+01 -0.1260376958938E+01  0.0000000000000E+00
-0.1230089209986E+01 -0.1260376958938E+01  0.0000000000000E+00
-0.1197718440975E+01 -0.1260376958938E+01  0.0000000000000E+00
-0.1165347671965E+01 -0.1260376958938E+01  0.0000000000000E+00
-0.1132976902954E+01 -0.1260376958938E+01  0.0000000000000E+00
-0.1100606133944E+01 -0.1260376958938E+01  0.0000000000000E+00
-0.1068235364934E+01 -0.1260376958938E+01  0.0000000000000E+00
-0.1035864595923E+01 -0.1260376958938E+01  0.0000000000000E+00
-0.1003493826913E+01 -0.1260376958938E+01  0.0000000000000E+00
-0.9711230579023E+00 -0.1260376958938E+01  0.0000000000000E+00
-0.9387522888919E+00 -0.1260376958938E+01  0.0000000000000E+00
-0.9063815198814E+00 -0.1260376958938E+01  0.0000000000000E+00
-0.8740107508710E+00 -0.1260376958938E+01  0.0000000000000E+00
-0.8416399818606E+00 -0.1260376958938E+01  0.0000000000000E+00
-0.8092692128501E+00 -0.1260376958938E+01  0.0000000000000E+00
-0.7768984438397E+00 -0.1260376958938E+01  0.0000000000000E+00
-0.7445276748293E+00 -0.1260376958938E+01  0.0000000000000E+00
-0.7121569058189E+00 -0.1260376958938E+01  0.0000000000000E+00
-0.6797861368084E+00 -0.1260376958938E+01  0.0000000000000E+00
-0.6150445990978E+00 -0.1260376958938E+01  0.0000000000000E+00
-0.5826738303977E+00 -0.1260376958938E+01  0.0000000000000E+00
-0.5503030616975E+00 -0.1260376958938E+01  0.0000000000000E+00
-0.5179322929974E+00 -0.1260376958938E+01  0.0000000000000E+00
-0.4855615242972E+00 -0.1260376958938E+01  0.0000000000000E+00
-0.4531907555970E+00 -0.1260376958938E+01  0.0000000000000E+00
-0.4208199868969E+00 -0.1260376958938E+01  0.0000000000000E+00
-0.3884492181967E+00 -0.1260376958938E+01  0.0000000000000E+00
-0.3560784494965E+00 -0.1260376958938E+01  0.0000000000000E+00
-0.3237076807964E+00 -0.1260376958938E+01  0.0000000000000E+00
-0.2913369120962E+00 -0.1260376958938E+01  0.0000000000000E+00
-0.2589661433960E+00 -0.1260376958938E+01  0.0000000000000E+00
-0.2265953746959E+00 -0.1260376958938E+01  0.0000000000000E+00
-0.1942246059957E+00 -0.1260376958938E+01  0.0000000000000E+00
-0.1618538372956E+00 -0.1260376958938E+01  0.0000000000000E+00
-0.1294830685954E+00 -0.1260376958938E+01  0.0000000000000E+00
-0.9711229989523E-01 -0.1260376958938E+01  0.0000000000000E+00
-0.6474153119507E-01 -0.1260376958938E+01  0.0000000000000E+00
-0.3237076249490E-01 -0.1260376958938E+01  0.0000000000000E+00
 0.6205262220726E-08 -0.1260376958938E+01  0.0000000000000E+00
 0.3237077490543E-01 -0.1260376958938E+01  0.0000000000000E+00
 0.6474154360559E-01 -0.1260376958938E+01  0.0000000000000E+00
 0.9711231230575E-01 -0.1260376958938E+01  0.0000000000000E+00
 0.1294830810059E+00 -0.1260376958938E+01  0.0000000000000E+00
 0.1618538497061E+00 -0.1260376958938E+01  0.0000000000000E+00
 0.1942246184062E+00 -0.1260376958938E+01  0.0000000000000E+00
 0.2265953871064E+00 -0.1260376958938E+01  0.0000000000000E+00
 0.2589661558066E+00 -0.1260376958938E+01  0.0000000000000E+00
 0.2913369245067E+00 -0.1260376958938E+01  0.0000000000000E+00
 0.3237076932069E+00 -0.1260376958938E+01  0.0000000000000E+00
 0.3560784619071E+00 -0.1260376958938E+01  0.0000000000000E+00
 0.3884492306072E+00 -0.1260376958938E+01  0.0000000000000E+00
 0.4208199993074E+00 -0.1260376958938E+01  0.0000000000000E+00
 0.4531907680076E+00 -0.1260376958938E+01  0.0000000000000E+00
 0.4855615367077E+00 -0.1260376958938E+01  0.0000000000000E+00
 0.5179323054079E+00 -0.1260376958938E+01  0.0000000000000E+00
 0.5503030741080E+00 -0.1260376958938E+01  0.0000000000000E+00
 0.5826738428082E+00 -0.1260376958938E+01  0.0000000000000E+00
 0.6150446115084E+00 -0.1260376958938E+01  0.0000000000000E+00
 0.6797861485984E+00 -0.1260376958938E+01  0.0000000000000E+00
 0.7121569169883E+00 -0.1260376958938E+01  0.0000000000000E+00
 0.7445276853782E+00 -0.1260376958938E+01  0.0000000000000E+00
 0.7768984537681E+00 -0.1260376958938E+01  0.0000000000000E+00
 0.8092692221580E+00 -0.1260376958938E+01  0.0000000000000E+00
 0.8416399905479E+00 -0.1260376958938E+01  0.0000000000000E+00
 0.8740107589378E+00 -0.1260376958938E+01  0.0000000000000E+00
 0.9063815273277E+00 -0.1260376958938E+01  0.0000000000000E+00
 0.9387522957176E+00 -0.1260376958938E+01  0.0000000000000E+00
 0.9711230641075E+00 -0.1260376958938E+01  0.0000000000000E+00
 0.1003493832497E+01 -0.1260376958938E+01  0.0000000000000E+00
 0.1035864600887E+01 -0.1260376958938E+01  0.0000000000000E+00
 0.1068235369277E+01 -0.1260376958938E+01  0.0000000000000E+00
 0.1100606137667E+01 -0.1260376958938E+01  0.0000000000000E+00
 0.1132976906057E+01 -0.1260376958938E+01  0.0000000000000E+00
 0.1165347674447E+01 -0.1260376958938E+01  0.0000000000000E+00
 0.1197718442837E+01 -0.1260376958938E+01  0.0000000000000E+00
 0.1230089211227E+01 -0.1260376958938E+01  0.0000000000000E+00
 0.1262459979617E+01 -0.1260376958938E+01  0.0000000000000E+00
-0.1312155011510E+01 -0.1150203083613E+01  0.0000000000000E+00
-0.1327637341374E+01 -0.1039753931085E+01  0.0000000000000E+00
-0.1341665909610E+01 -0.9291104213802E+00  0.0000000000000E+00
-0.1354391361466E+01 -0.8183095298948E+00  0.0000000000000E+00
-0.1365833298202E+01 -0.7073687601696E+00  0.0000000000000E+00
-0.1375894555970E+01 -0.5962944619521E+00  0.0000000000000E+00
-0.1384355932365E+01 -0.4850870562275E+00  0.0000000000000E+00
-0.1391121394834E+01 -0.3737634319943E+00  0.0000000000000E+00
-0.1396094802383E+01 -0.2623461592890E+00  0.0000000000000E+00
-0.1399062707537E+01 -0.1508575645009E+00  0.0000000000000E+00
-0.1399985099640E+01 -0.3933280323447E-01  0.0000000000000E+00
-0.1399371687134E+01  0.7219242573532E-01  0.0000000000000E+00
-0.1392023041888E+01  0.1834402819205E+00  0.0000000000000E+00
-0.1373224643109E+01  0.2933160172014E+00  0.0000000000000E+00
-0.1342254580417E+01  0.4003982422534E+00  0.0000000000000E+00
-0.1299147096451E+01  0.5031944588907E+00  0.0000000000000E+00
-0.1245788737132E+01  0.6010884805479E+00  0.0000000000000E+00
-0.1184295328924E+01  0.6940973779637E+00  0.0000000000000E+00
-0.1115423112669E+01  0.7817798453380E+00  0.0000000000000E+00
-0.9953999080977E+00  0.8990612908450E+00  0.0000000000000E+00
-0.9504827232491E+00  0.9333936741942E+00  0.0000000000000E+00
-0.9038779344468E+00  0.9653991725778E+00  0.0000000000000E+00
-0.8558287935509E+00  0.9951944276872E+00  0.0000000000000E+00
-0.8065745425279E+00  0.1022954470846E+01  0.0000000000000E+00
-0.7563745841864E+00  0.1048968117851E+01  0.0000000000000E+00
-0.7055221739023E+00  0.1073685095719E+01  0.0000000000000E+00
-0.6543373939483E+00  0.1097708159783E+01  0.0000000000000E+00
-0.6030028739072E+00  0.1121408936098E+01  0.0000000000000E+00
-0.5511573080626E+00  0.1143965177158E+01  0.0000000000000E+00
-0.4985400003731E+00  0.1164653488733E+01  0.0000000000000E+00
-0.4451206320031E+00  0.1183171501571E+01  0.0000000000000E+00
-0.3909756266655E+00  0.1199445140769E+01  0.0000000000000E+00
-0.3362124051434E+00  0.1213497677274E+01  0.0000000000000E+00
-0.2809356549253E+00  0.1225380721385E+01  0.0000000000000E+00
-0.2252455004057E+00  0.1235139228470E+01  0.0000000000000E+00
-0.1692277473422E+00  0.1242797659442E+01  0.0000000000000E+00
-0.1129623151839E+00  0.1248349912846E+01  0.0000000000000E+00
-0.5652622173773E-01  0.1251752523713E+01  0.0000000000000E+00
 0.5721518201715E-08  0.1252915917342E+01  0.0000000000000E+00
 0.5652623317123E-01  0.1251752523209E+01  0.0000000000000E+00
 0.1129623265888E+00  0.1248349911861E+01  0.0000000000000E+00
 0.1692277587027E+00  0.1242797657991E+01  0.0000000000000E+00
 0.2252455117006E+00  0.1235139226564E+01  0.0000000000000E+00
 0.2809356661393E+00  0.1225380719029E+01  0.0000000000000E+00
 0.3362124162747E+00  0.1213497674468E+01  0.0000000000000E+00
 0.3909756376678E+00  0.1199445137522E+01  0.0000000000000E+00
 0.4451206428730E+00  0.1183171497887E+01  0.0000000000000E+00
 0.4985400111013E+00  0.1164653484628E+01  0.0000000000000E+00
 0.5511573186457E+00  0.1143965172676E+01  0.0000000000000E+00
 0.6030028843689E+00  0.1121408931341E+01  0.0000000000000E+00
 0.6543374043658E+00  0.1097708154925E+01  0.0000000000000E+00
 0.7055221842887E+00  0.1073685090798E+01  0.0000000000000E+00
 0.7563745944774E+00  0.1048968112736E+01  0.0000000000000E+00
 0.8065745526520E+00  0.1022954465413E+01  0.0000000000000E+00
 0.8558288034476E+00  0.9951944218405E+00  0.0000000000000E+00
 0.9038779440484E+00  0.9653991662662E+00  0.0000000000000E+00
 0.9504827325158E+00  0.9333936673912E+00  0.0000000000000E+00
 0.9953999169960E+00  0.8990612835587E+00  0.0000000000000E+00
 0.1115423119969E+01  0.7817798372309E+00  0.0000000000000E+00
 0.1184295335069E+01  0.6940973696789E+00  0.0000000000000E+00
 0.1245788742186E+01  0.6010884722267E+00  0.0000000000000E+00
 0.1299147100436E+01  0.5031944506385E+00  0.0000000000000E+00
 0.1342254583294E+01  0.4003982341591E+00  0.0000000000000E+00
 0.1373224644928E+01  0.2933160093813E+00  0.0000000000000E+00
 0.1392023042748E+01  0.1834402745273E+00  0.0000000000000E+00
 0.1399371687293E+01  0.7219241886835E-01  0.0000000000000E+00
 0.1399985099629E+01 -0.3933280952953E-01  0.0000000000000E+00
 0.1399062707437E+01 -0.1508575702208E+00  0.0000000000000E+00
 0.1396094802193E+01 -0.2623461644373E+00  0.0000000000000E+00
 0.1391121394584E+01 -0.3737634365663E+00  0.0000000000000E+00
 0.1384355932078E+01 -0.4850870602232E+00  0.0000000000000E+00
 0.1375894555663E+01 -0.5962944653722E+00  0.0000000000000E+00
 0.1365833297899E+01 -0.7073687630143E+00  0.0000000000000E+00
 0.1354391361186E+01 -0.8183095321661E+00  0.0000000000000E+00
 0.1341665909368E+01 -0.9291104230793E+00  0.0000000000000E+00
 0.1327637341185E+01 -0.1039753932216E+01  0.0000000000000E+00
 0.1312155011393E+01 -0.1150203084174E+01  0.0000000000000E+00
-0.1100000000000E+01 -0.4186859601281E+01  0.0000000000000E+00
-0.1100000000000E+01 -0.4113342086429E+01  0.0000000000000E+00
-0.1100000000000E+01 -0.4039824684257E+01  0.0000000000000E+00
-0.1100000000000E+01 -0.3966307217550E+01  0.0000000000000E+00
-0.1100000000000E+01 -0.3892789747717E+01  0.0000000000000E+00
-0.1100000000000E+01 -0.3819272288129E+01  0.0000000000000E+00
-0.1100000000000E+01 -0.3745754823288E+01  0.0000000000000E+00
-0.1100000000000E+01 -0.3672237366229E+01  0.0000000000000E+00
-0.1100000000000E+01 -0.3598719903615E+01  0.0000000000000E+00
-0.1100000000000E+01 -0.3525202280347E+01  0.0000000000000E+00
-0.1100000000000E+01 -0.3451684819510E+01  0.0000000000000E+00
-0.1100000000000E+01 -0.3378167379304E+01  0.0000000000000E+00
-0.1100000000000E+01 -0.3304649961005E+01  0.0000000000000E+00
-0.1100000000000E+01 -0.3231132803085E+01  0.0000000000000E+00
-0.1100000000000E+01 -0.3157615389387E+01  0.0000000000000E+00
-0.1100003367493E+01 -0.3084098002567E+01  0.0000000000000E+00
-0.1100163445176E+01 -0.3010580866809E+01  0.0000000000000E+00
-0.1100782072834E+01 -0.2937066271891E+01  0.0000000000000E+00
-0.1102023699626E+01 -0.2863559587695E+01  0.0000000000000E+00
-0.1103929635720E+01 -0.2790067100603E+01  0.0000000000000E+00
-0.1106486188836E+01 -0.2716594812946E+01  0.0000000000000E+00
-0.1109666467309E+01 -0.2643146234865E+01  0.0000000000000E+00
-0.1113448355568E+01 -0.2569726064901E+01  0.0000000000000E+00
-0.1117821735375E+01 -0.2496339061666E+01  0.0000000000000E+00
-0.1122792268339E+01 -0.2422989996067E+01  0.0000000000000E+00
-0.1128385326244E+01 -0.2349685803919E+01  0.0000000000000E+00
-0.1134650256572E+01 -0.2276436016166E+01  0.0000000000000E+00
-0.1141610183162E+01 -0.2203248992725E+01  0.0000000000000E+00
-0.1149256669967E+01 -0.2130130513310E+01  0.0000000000000E+00
-0.1157601152556E+01 -0.2057088440583E+01  0.0000000000000E+00
-0.1166677440836E+01 -0.1984133466366E+01  0.0000000000000E+00
-0.1176543877319E+01 -0.1911281600770E+01  0.0000000000000E+00
-0.1187286815106E+01 -0.1838554023786E+01  0.0000000000000E+00
-0.1199019040451E+01 -0.1765979519674E+01  0.0000000000000E+00
-0.1211849657205E+01 -0.1693591126070E+01  0.0000000000000E+00
-0.1225739090867E+01 -0.1621398208059E+01  0.0000000000000E+00
-0.1240134799336E+01 -0.1549304059582E+01  0.0000000000000E+00
-0.1254460274118E+01 -0.1477195909045E+01  0.0000000000000E+00
-0.1268516310659E+01 -0.1405034780455E+01  0.0000000000000E+00
-0.1282077126715E+01 -0.1332779095968E+01  0.0000000000000E+00
 0.1282077126706E+01 -0.1332779095966E+01  0.0000000000000E+00
 0.1268516310640E+01 -0.1405034780452E+01  0.0000000000000E+00
 0.1254460274092E+01 -0.1477195909041E+01  0.0000000000000E+00
 0.1240134799309E+01 -0.1549304059577E+01  0.0000000000000E+00
 0.1225739090841E+01 -0.1621398208054E+01  0.0000000000000E+00
 0.1211849657183E+01 -0.1693591126066E+01  0.0000000000000E+00
 0.1199019040432E+01 -0.1765979519671E+01  0.0000000000000E+00
 0.1187286815092E+01 -0.1838554023783E+01  0.0000000000000E+00
 0.1176543877308E+01 -0.1911281600768E+01  0.0000000000000E+00
 0.1166677440828E+01 -0.1984133466364E+01  0.0000000000000E+00
 0.1157601152551E+01 -0.2057088440582E+01  0.0000000000000E+00
 0.1149256669964E+01 -0.2130130513309E+01  0.0000000000000E+00
 0.1141610183160E+01 -0.2203248992724E+01  0.0000000000000E+00
 0.1134650256572E+01 -0.2276436016165E+01  0.0000000000000E+00
 0.1128385326245E+01 -0.2349685803918E+01  0.0000000000000E+00
 0.1122792268340E+01 -0.2422989996067E+01  0.0000000000000E+00
 0.1117821735377E+01 -0.2496339061666E+01  0.0000000000000E+00
 0.1113448355570E+01 -0.2569726064901E+01  0.0000000000000E+00
 0.1109666467311E+01 -0.2643146234864E+01  0.0000000000000E+00
 0.1106486188837E+01 -0.2716594812945E+01  0.0000000000000E+00
 0.1103929635722E+01 -0.2790067100603E+01  0.0000000000000E+00
 0.1102023699627E+01 -0.2863559587694E+01  0.0000000000000E+00
 0.1100782072834E+01 -0.2937066271891E+01  0.0000000000000E+00
 0.1100163445176E+01 -0.3010580866809E+01  0.0000000000000E+00
 0.1100003367493E+01 -0.3084098002567E+01  0.0000000000000E+00
 0.1100000000000E+01 -0.3157615389387E+01  0.0000000000000E+00
 0.1100000000000E+01 -0.3231132803084E+01  0.0000000000000E+00
 0.1100000000000E+01 -0.3304649961005E+01  0.0000000000000E+00
 0.1100000000000E+01 -0.3378167379303E+01  0.0000000000000E+00
 0.1100000000000E+01 -0.3451684819509E+01  0.0000000000000E+00
 0.1100000000000E+01 -0.3525202280347E+01  0.0000000000000E+00
 0.1100000000000E+01 -0.3598719903615E+01  0.0000000000000E+00
 0.1100000000000E+01 -0.3672237366228E+01  0.0000000000000E+00
 0.1100000000000E+01 -0.3745754823288E+01  0.0000000000000E+00
 0.1100000000000E+01 -0.3819272288128E+01  0.0000000000000E+00
 0.1100000000000E+01 -0.3892789747717E+01  0.0000000000000E+00
 0.1100000000000E+01 -0.3966307217550E+01  0.0000000000000E+00
 0.1100000000000E+01 -0.4039824684257E+01  0.0000000000000E+00
 0.1100000000000E+01 -0.4113342086429E+01  0.0000000000000E+00
 0.1100000000000E+01 -0.4186859601281E+01  0.0000000000000E+00
-0.4993026772283E+00  0.3556667767856E+00  0.0000000000000E+00
-0.4735245663412E+00  0.3620663345754E+00  0.0000000000000E+00
-0.4476687203903E+00  0.3681445021493E+00  0.0000000000000E+00
-0.4217386039092E+00  0.3738974563371E+00  0.0000000000000E+00
-0.3957377550662E+00  0.3793215337829E+00  0.0000000000000E+00
-0.3696697320059E+00  0.3844132472497E+00  0.0000000000000E+00
-0.3435383923604E+00  0.3891692391890E+00  0.0000000000000E+00
-0.3173476215928E+00  0.3935863469447E+00  0.0000000000000E+00
-0.2911015020050E+00  0.3976615807158E+00  0.0000000000000E+00
-0.2648041726206E+00  0.4013921568435E+00  0.0000000000000E+00
-0.2384599212245E+00  0.4047754915326E+00  0.0000000000000E+00
-0.2120731315299E+00  0.4078092176262E+00  0.0000000000000E+00
-0.1856482734578E+00  0.4104911929749E+00  0.0000000000000E+00
-0.1591899043058E+00  0.4128195070651E+00  0.0000000000000E+00
-0.1327026716844E+00  0.4147924875445E+00  0.0000000000000E+00
-0.1061912807138E+00  0.4164087088354E+00  0.0000000000000E+00
-0.7966049358352E-01  0.4176669966766E+00  0.0000000000000E+00
-0.5311511853688E-01  0.4185664328113E+00  0.0000000000000E+00
-0.2655999858263E-01  0.4191063586748E+00  0.0000000000000E+00
-0.2220446049250E-15  0.4192863780493E+00  0.0000000000000E+00
 0.2655999858263E-01  0.4191063586748E+00  0.0000000000000E+00
 0.5311511853688E-01  0.4185664328113E+00  0.0000000000000E+00
 0.7966049358352E-01  0.4176669966766E+00  0.0000000000000E+00
 0.1061912807138E+00  0.4164087088354E+00  0.0000000000000E+00
 0.1327026716844E+00  0.4147924875445E+00  0.0000000000000E+00
 0.1591899043058E+00  0.4128195070651E+00  0.0000000000000E+00
 0.1856482734578E+00  0.4104911929749E+00  0.0000000000000E+00
 0.2120731315299E+00  0.4078092176262E+00  0.0000000000000E+00
 0.2384599212245E+00  0.4047754915326E+00  0.0000000000000E+00
 0.2648041726206E+00  0.4013921568435E+00  0.0000000000000E+00
 0.2911015020050E+00  0.3976615807158E+00  0.0000000000000E+00
 0.3173476215928E+00  0.3935863469447E+00  0.0000000000000E+00
 0.3435383923604E+00  0.3891692391890E+00  0.0000000000000E+00
 0.3696697320059E+00  0.3844132472497E+00  0.0000000000000E+00
 0.3957377550662E+00  0.3793215337829E+00  0.0000000000000E+00
 0.4217386039092E+00  0.3738974563371E+00  0.0000000000000E+00
 0.4476687203903E+00  0.3681445021493E+00  0.0000000000000E+00
 0.4735245663412E+00  0.3620663345754E+00  0.0000000000000E+00
 0.4993026772283E+00  0.3556667767856E+00  0.0000000000000E+00
-0.5254305397178E+00  0.2681545389214E+00  0.0000000000000E+00
-0.5268050578882E+00  0.1873700269828E+00  0.0000000000000E+00
-0.5292624474844E+00  0.1066113625129E+00  0.0000000000000E+00
-0.5329591987273E+00  0.2590019213582E-01  0.0000000000000E+00
-0.5380609472327E+00 -0.5473409942444E-01  0.0000000000000E+00
-0.5447201698628E+00 -0.1352545080815E+00  0.0000000000000E+00
-0.5530298983064E+00 -0.2156212933524E+00  0.0000000000000E+00
-0.5629460114855E+00 -0.2958059507282E+00  0.0000000000000E+00
-0.5741921869928E+00 -0.3758154612773E+00  0.0000000000000E+00
-0.5862076862055E+00 -0.4557136218161E+00  0.0000000000000E+00
-0.5982231853407E+00 -0.5356117823665E+00  0.0000000000000E+00
-0.6094693606238E+00 -0.6156212929469E+00  0.0000000000000E+00
-0.6193854734541E+00 -0.6958059503657E+00  0.0000000000000E+00
-0.6276952014524E+00 -0.7761727356826E+00  0.0000000000000E+00
-0.6343544235680E+00 -0.8566931443820E+00  0.0000000000000E+00
-0.6394561715120E+00 -0.9373274359778E+00  0.0000000000000E+00
-0.6431529221637E+00 -0.1018038606382E+01  0.0000000000000E+00
-0.6456103111509E+00 -0.1098797270870E+01  0.0000000000000E+00
-0.6469848287027E+00 -0.1179581782819E+01  0.0000000000000E+00
 0.5254305397188E+00  0.2681545388746E+00  0.0000000000000E+00
 0.5268050578950E+00  0.1873700268891E+00  0.0000000000000E+00
 0.5292624475072E+00  0.1066113623728E+00  0.0000000000000E+00
 0.5329591987840E+00  0.2590019195037E-01  0.0000000000000E+00
 0.5380609473528E+00 -0.5473409965283E-01  0.0000000000000E+00
 0.5447201700916E+00 -0.1352545083477E+00  0.0000000000000E+00
 0.5530298987105E+00 -0.2156212936477E+00  0.0000000000000E+00
 0.5629460121574E+00 -0.2958059510374E+00  0.0000000000000E+00
 0.5741921880529E+00 -0.3758154615791E+00  0.0000000000000E+00
 0.5862076877978E+00 -0.4557136220852E+00  0.0000000000000E+00
 0.5982231876201E+00 -0.5356117825798E+00  0.0000000000000E+00
 0.6094693637399E+00 -0.6156212930901E+00  0.0000000000000E+00
 0.6193854775356E+00 -0.6958059504369E+00  0.0000000000000E+00
 0.6276952065998E+00 -0.7761727356909E+00  0.0000000000000E+00
 0.6343544298531E+00 -0.8566931443434E+00  0.0000000000000E+00
 0.6394561789831E+00 -0.9373274359111E+00  0.0000000000000E+00
 0.6431529308512E+00 -0.1018038606307E+01  0.0000000000000E+00
 0.6456103210724E+00 -0.1098797270804E+01  0.0000000000000E+00
 0.6469848398672E+00 -0.1179581782779E+01  0.0000000000000E+00
-0.5506674949859E+00  0.3746172104400E+00  0.0000000000000E+00
-0.5763349899718E+00  0.4002847058438E+00  0.0000000000000E+00
-0.6020024849577E+00  0.4259522012477E+00  0.0000000000000E+00
-0.6276699799436E+00  0.4516196966515E+00  0.0000000000000E+00
-0.6533374749295E+00  0.4772871920553E+00  0.0000000000000E+00
-0.6790049699154E+00  0.5029546874591E+00  0.0000000000000E+00
-0.7046724649013E+00  0.5286221828630E+00  0.0000000000000E+00
-0.7303399598872E+00  0.5542896782668E+00  0.0000000000000E+00
-0.7560074548731E+00  0.5799571736706E+00  0.0000000000000E+00
-0.7816749498590E+00  0.6056246690745E+00  0.0000000000000E+00
-0.8073424448449E+00  0.6312921644783E+00  0.0000000000000E+00
-0.8330099398308E+00  0.6569596598821E+00  0.0000000000000E+00
-0.8586774348167E+00  0.6826271552860E+00  0.0000000000000E+00
-0.8843449298026E+00  0.7082946506898E+00  0.0000000000000E+00
-0.9100124247885E+00  0.7339621460936E+00  0.0000000000000E+00
-0.9356799197744E+00  0.7596296414974E+00  0.0000000000000E+00
-0.9613474147603E+00  0.7852971369013E+00  0.0000000000000E+00
-0.9870149097462E+00  0.8109646323051E+00  0.0000000000000E+00
-0.1012682404732E+01  0.8366321277089E+00  0.0000000000000E+00
 0.5506674954117E+00  0.3746172100533E+00  0.0000000000000E+00
 0.5763349908233E+00  0.4002847050705E+00  0.0000000000000E+00
 0.6020024862350E+00  0.4259522000876E+00  0.0000000000000E+00
 0.6276699816466E+00  0.4516196951048E+00  0.0000000000000E+00
 0.6533374770583E+00  0.4772871901219E+00  0.0000000000000E+00
 0.6790049724699E+00  0.5029546851390E+00  0.0000000000000E+00
 0.7046724678816E+00  0.5286221801562E+00  0.0000000000000E+00
 0.7303399632932E+00  0.5542896751733E+00  0.0000000000000E+00
 0.7560074587049E+00  0.5799571701905E+00  0.0000000000000E+00
 0.7816749541165E+00  0.6056246652076E+00  0.0000000000000E+00
 0.8073424495282E+00  0.6312921602248E+00  0.0000000000000E+00
 0.8330099449398E+00  0.6569596552419E+00  0.0000000000000E+00
 0.8586774403515E+00  0.6826271502591E+00  0.0000000000000E+00
 0.8843449357631E+00  0.7082946452762E+00  0.0000000000000E+00
 0.9100124311748E+00  0.7339621402934E+00  0.0000000000000E+00
 0.9356799265864E+00  0.7596296353105E+00  0.0000000000000E+00
 0.9613474219981E+00  0.7852971303277E+00  0.0000000000000E+00
 0.9870149174097E+00  0.8109646253448E+00  0.0000000000000E+00
 0.1012682412821E+01  0.8366321203620E+00  0.0000000000000E+00
-0.1072499999993E+01 -0.4186859601281E+01  0.0000000000000E+00
-0.1072499999986E+01 -0.4113342086429E+01  0.0000000000000E+00
-0.1072499999979E+01 -0.4039824684257E+01  0.0000000000000E+00
-0.1072499999972E+01 -0.3966307217550E+01  0.0000000000000E+00
-0.1072499999965E+01 -0.3892789747717E+01  0.0000000000000E+00
-0.1072499999958E+01 -0.3819272288129E+01  0.0000000000000E+00
-0.1072499999951E+01 -0.3745754823288E+01  0.0000000000000E+00
-0.1072499999944E+01 -0.3672237366229E+01  0.0000000000000E+00
-0.1072499999937E+01 -0.3598719903615E+01  0.0000000000000E+00
-0.1072499999930E+01 -0.3525202280347E+01  0.0000000000000E+00
-0.1072499999924E+01 -0.3451684819510E+01  0.0000000000000E+00
-0.1072499999917E+01 -0.3378167379304E+01  0.0000000000000E+00
-0.1072499999910E+01 -0.3304649961005E+01  0.0000000000000E+00
-0.1072499999903E+01 -0.3231132803085E+01  0.0000000000000E+00
-0.1072499999896E+01 -0.3157615389387E+01  0.0000000000000E+00
-0.1072503283195E+01 -0.3084098002567E+01  0.0000000000000E+00
-0.1072659358928E+01 -0.3010580866809E+01  0.0000000000000E+00
-0.1073262520888E+01 -0.2937066271891E+01  0.0000000000000E+00
-0.1074473107003E+01 -0.2863559587695E+01  0.0000000000000E+00
-0.1076331394688E+01 -0.2790067100603E+01  0.0000000000000E+00
-0.1078824033968E+01 -0.2716594812946E+01  0.0000000000000E+00
-0.1081924805472E+01 -0.2643146234865E+01  0.0000000000000E+00
-0.1085612146517E+01 -0.2569726064901E+01  0.0000000000000E+00
-0.1089876191821E+01 -0.2496339061666E+01  0.0000000000000E+00
-0.1094722461453E+01 -0.2422989996067E+01  0.0000000000000E+00
-0.1100175692903E+01 -0.2349685803919E+01  0.0000000000000E+00
-0.1106283999966E+01 -0.2276436016166E+01  0.0000000000000E+00
-0.1113069928383E+01 -0.2203248992725E+01  0.0000000000000E+00
-0.1120525253010E+01 -0.2130130513310E+01  0.0000000000000E+00
-0.1128661123526E+01 -0.2057088440583E+01  0.0000000000000E+00
-0.1137510504591E+01 -0.1984133466366E+01  0.0000000000000E+00
-0.1147130280154E+01 -0.1911281600770E+01  0.0000000000000E+00
-0.1157604644488E+01 -0.1838554023786E+01  0.0000000000000E+00
-0.1169043564191E+01 -0.1765979519674E+01  0.0000000000000E+00
-0.1181553415518E+01 -0.1693591126070E+01  0.0000000000000E+00
-0.1195095613329E+01 -0.1621398208059E+01  0.0000000000000E+00
-0.1209131429078E+01 -0.1549304059582E+01  0.0000000000000E+00
-0.1223098766982E+01 -0.1477195909045E+01  0.0000000000000E+00
-0.1236803402600E+01 -0.1405034780455E+01  0.0000000000000E+00
-0.1250025198245E+01 -0.1332779095968E+01  0.0000000000000E+00
-0.1044999999986E+01 -0.4186859601281E+01  0.0000000000000E+00
-0.1044999999972E+01 -0.4113342086429E+01  0.0000000000000E+00
-0.1044999999958E+01 -0.4039824684257E+01  0.0000000000000E+00
-0.1044999999944E+01 -0.3966307217550E+01  0.0000000000000E+00
-0.1044999999930E+01 -0.3892789747717E+01  0.0000000000000E+00
-0.1044999999917E+01 -0.3819272288129E+01  0.0000000000000E+00
-0.1044999999903E+01 -0.3745754823288E+01  0.0000000000000E+00
-0.1044999999889E+01 -0.3672237366229E+01  0.0000000000000E+00
-0.1044999999875E+01 -0.3598719903615E+01  0.0000000000000E+00
-0.1044999999861E+01 -0.3525202280347E+01  0.0000000000000E+00
-0.1044999999847E+01 -0.3451684819510E+01  0.0000000000000E+00
-0.1044999999833E+01 -0.3378167379304E+01  0.0000000000000E+00
-0.1044999999819E+01 -0.3304649961005E+01  0.0000000000000E+00
-0.1044999999805E+01 -0.3231132803085E+01  0.0000000000000E+00
-0.1044999999791E+01 -0.3157615389387E+01  0.0000000000000E+00
-0.1045003198896E+01 -0.3084098002567E+01  0.0000000000000E+00
-0.1045155272681E+01 -0.3010580866809E+01  0.0000000000000E+00
-0.1045742968942E+01 -0.2937066271891E+01  0.0000000000000E+00
-0.1046922514380E+01 -0.2863559587695E+01  0.0000000000000E+00
-0.1048733153655E+01 -0.2790067100603E+01  0.0000000000000E+00
-0.1051161879100E+01 -0.2716594812946E+01  0.0000000000000E+00
-0.1054183143635E+01 -0.2643146234865E+01  0.0000000000000E+00
-0.1057775937466E+01 -0.2569726064901E+01  0.0000000000000E+00
-0.1061930648268E+01 -0.2496339061666E+01  0.0000000000000E+00
-0.1066652654568E+01 -0.2422989996067E+01  0.0000000000000E+00
-0.1071966059563E+01 -0.2349685803919E+01  0.0000000000000E+00
-0.1077917743359E+01 -0.2276436016166E+01  0.0000000000000E+00
-0.1084529673604E+01 -0.2203248992725E+01  0.0000000000000E+00
-0.1091793836053E+01 -0.2130130513310E+01  0.0000000000000E+00
-0.1099721094497E+01 -0.2057088440583E+01  0.0000000000000E+00
-0.1108343568346E+01 -0.1984133466366E+01  0.0000000000000E+00
-0.1117716682988E+01 -0.1911281600770E+01  0.0000000000000E+00
-0.1127922473870E+01 -0.1838554023786E+01  0.0000000000000E+00
-0.1139068087930E+01 -0.1765979519674E+01  0.0000000000000E+00
-0.1151257173830E+01 -0.1693591126070E+01  0.0000000000000E+00
-0.1164452135791E+01 -0.1621398208059E+01  0.0000000000000E+00
-0.1178128058819E+01 -0.1549304059582E+01  0.0000000000000E+00
-0.1191737259845E+01 -0.1477195909045E+01  0.0000000000000E+00
-0.1205090494541E+01 -0.1405034780455E+01  0.0000000000000E+00
-0.1217973269776E+01 -0.1332779095968E+01  0.0000000000000E+00
-0.1017499999979E+01 -0.4186859601281E+01  0.0000000000000E+00
-0.1017499999958E+01 -0.4113342086429E+01  0.0000000000000E+00
-0.1017499999937E+01 -0.4039824684257E+01  0.0000000000000E+00
-0.1017499999917E+01 -0.3966307217550E+01  0.0000000000000E+00
-0.1017499999896E+01 -0.3892789747717E+01  0.0000000000000E+00
-0.1017499999875E+01 -0.3819272288129E+01  0.0000000000000E+00
-0.1017499999854E+01 -0.3745754823288E+01  0.0000000000000E+00
-0.1017499999833E+01 -0.3672237366229E+01  0.0000000000000E+00
-0.1017499999812E+01 -0.3598719903615E+01  0.0000000000000E+00
-0.1017499999791E+01 -0.3525202280347E+01  0.0000000000000E+00
-0.1017499999771E+01 -0.3451684819510E+01  0.0000000000000E+00
-0.1017499999750E+01 -0.3378167379304E+01  0.0000000000000E+00
-0.1017499999729E+01 -0.3304649961005E+01  0.0000000000000E+00
-0.1017499999708E+01 -0.3231132803085E+01  0.0000000000000E+00
-0.1017499999687E+01 -0.3157615389387E+01  0.0000000000000E+00
-0.1017503114598E+01 -0.3084098002567E+01  0.0000000000000E+00
-0.1017651186433E+01 -0.3010580866809E+01  0.0000000000000E+00
-0.1018223416996E+01 -0.2937066271891E+01  0.0000000000000E+00
-0.1019371921757E+01 -0.2863559587695E+01  0.0000000000000E+00
-0.1021134912623E+01 -0.2790067100603E+01  0.0000000000000E+00
-0.1023499724232E+01 -0.2716594812946E+01  0.0000000000000E+00
-0.1026441481798E+01 -0.2643146234865E+01  0.0000000000000E+00
-0.1029939728415E+01 -0.2569726064901E+01  0.0000000000000E+00
-0.1033985104714E+01 -0.2496339061666E+01  0.0000000000000E+00
-0.1038582847683E+01 -0.2422989996067E+01  0.0000000000000E+00
-0.1043756426222E+01 -0.2349685803919E+01  0.0000000000000E+00
-0.1049551486753E+01 -0.2276436016166E+01  0.0000000000000E+00
-0.1055989418825E+01 -0.2203248992725E+01  0.0000000000000E+00
-0.1063062419096E+01 -0.2130130513310E+01  0.0000000000000E+00
-0.1070781065467E+01 -0.2057088440583E+01  0.0000000000000E+00
-0.1079176632101E+01 -0.1984133466366E+01  0.0000000000000E+00
-0.1088303085823E+01 -0.1911281600770E+01  0.0000000000000E+00
-0.1098240303252E+01 -0.1838554023786E+01  0.0000000000000E+00
-0.1109092611670E+01 -0.1765979519674E+01  0.0000000000000E+00
-0.1120960932142E+01 -0.1693591126070E+01  0.0000000000000E+00
-0.1133808658253E+01 -0.1621398208059E+01  0.0000000000000E+00
-0.1147124688561E+01 -0.1549304059582E+01  0.0000000000000E+00
-0.1160375752708E+01 -0.1477195909045E+01  0.0000000000000E+00
-0.1173377586482E+01 -0.1405034780455E+01  0.0000000000000E+00
-0.1185921341306E+01 -0.1332779095968E+01  0.0000000000000E+00
-0.9899999999722E+00 -0.4186859601281E+01  0.0000000000000E+00
-0.9899999999444E+00 -0.4113342086429E+01  0.0000000000000E+00
-0.9899999999166E+00 -0.4039824684257E+01  0.0000000000000E+00
-0.9899999998888E+00 -0.3966307217550E+01  0.0000000000000E+00
-0.9899999998610E+00 -0.3892789747717E+01  0.0000000000000E+00
-0.9899999998332E+00 -0.3819272288129E+01  0.0000000000000E+00
-0.9899999998054E+00 -0.3745754823288E+01  0.0000000000000E+00
-0.9899999997775E+00 -0.3672237366229E+01  0.0000000000000E+00
-0.9899999997497E+00 -0.3598719903615E+01  0.0000000000000E+00
-0.9899999997219E+00 -0.3525202280347E+01  0.0000000000000E+00
-0.9899999996941E+00 -0.3451684819510E+01  0.0000000000000E+00
-0.9899999996663E+00 -0.3378167379304E+01  0.0000000000000E+00
-0.9899999996385E+00 -0.3304649961005E+01  0.0000000000000E+00
-0.9899999996107E+00 -0.3231132803085E+01  0.0000000000000E+00
-0.9899999995829E+00 -0.3157615389387E+01  0.0000000000000E+00
-0.9900030302991E+00 -0.3084098002567E+01  0.0000000000000E+00
-0.9901471001853E+00 -0.3010580866809E+01  0.0000000000000E+00
-0.9907038650497E+00 -0.2937066271891E+01  0.0000000000000E+00
-0.9918213291341E+00 -0.2863559587695E+01  0.0000000000000E+00
-0.9935366715901E+00 -0.2790067100603E+01  0.0000000000000E+00
-0.9958375693647E+00 -0.2716594812946E+01  0.0000000000000E+00
-0.9986998199612E+00 -0.2643146234865E+01  0.0000000000000E+00
-0.1002103519364E+01 -0.2569726064901E+01  0.0000000000000E+00
-0.1006039561161E+01 -0.2496339061666E+01  0.0000000000000E+00
-0.1010513040798E+01 -0.2422989996067E+01  0.0000000000000E+00
-0.1015546792882E+01 -0.2349685803919E+01  0.0000000000000E+00
-0.1021185230146E+01 -0.2276436016166E+01  0.0000000000000E+00
-0.1027449164046E+01 -0.2203248992725E+01  0.0000000000000E+00
-0.1034331002139E+01 -0.2130130513310E+01  0.0000000000000E+00
-0.1041841036437E+01 -0.2057088440583E+01  0.0000000000000E+00
-0.1050009695856E+01 -0.1984133466366E+01  0.0000000000000E+00
-0.1058889488658E+01 -0.1911281600770E+01  0.0000000000000E+00
-0.1068558132634E+01 -0.1838554023786E+01  0.0000000000000E+00
-0.1079117135410E+01 -0.1765979519674E+01  0.0000000000000E+00
-0.1090664690455E+01 -0.1693591126070E+01  0.0000000000000E+00
-0.1103165180715E+01 -0.1621398208059E+01  0.0000000000000E+00
-0.1116121318302E+01 -0.1549304059582E+01  0.0000000000000E+00
-0.1129014245571E+01 -0.1477195909045E+01  0.0000000000000E+00
-0.1141664678423E+01 -0.1405034780455E+01  0.0000000000000E+00
-0.1153869412837E+01 -0.1332779095968E+01  0.0000000000000E+00
-0.9624999999652E+00 -0.4186859601281E+01  0.0000000000000E+00
-0.9624999999305E+00 -0.4113342086429E+01  0.0000000000000E+00
-0.9624999998957E+00 -0.4039824684257E+01  0.0000000000000E+00
-0.9624999998610E+00 -0.3966307217550E+01  0.0000000000000E+00
-0.9624999998262E+00 -0.3892789747717E+01  0.0000000000000E+00
-0.9624999997914E+00 -0.3819272288129E+01  0.0000000000000E+00
-0.9624999997567E+00 -0.3745754823288E+01  0.0000000000000E+00
-0.9624999997219E+00 -0.3672237366229E+01  0.0000000000000E+00
-0.9624999996872E+00 -0.3598719903615E+01  0.0000000000000E+00
-0.9624999996524E+00 -0.3525202280347E+01  0.0000000000000E+00
-0.9624999996177E+00 -0.3451684819510E+01  0.0000000000000E+00
-0.9624999995829E+00 -0.3378167379304E+01  0.0000000000000E+00
-0.9624999995481E+00 -0.3304649961005E+01  0.0000000000000E+00
-0.9624999995134E+00 -0.3231132803085E+01  0.0000000000000E+00
-0.9624999994786E+00 -0.3157615389387E+01  0.0000000000000E+00
-0.9625029460006E+00 -0.3084098002567E+01  0.0000000000000E+00
-0.9626430139377E+00 -0.3010580866809E+01  0.0000000000000E+00
-0.9631843131036E+00 -0.2937066271891E+01  0.0000000000000E+00
-0.9642707365111E+00 -0.2863559587695E+01  0.0000000000000E+00
-0.9659384305576E+00 -0.2790067100603E+01  0.0000000000000E+00
-0.9681754144969E+00 -0.2716594812946E+01  0.0000000000000E+00
-0.9709581581242E+00 -0.2643146234865E+01  0.0000000000000E+00
-0.9742673103133E+00 -0.2569726064901E+01  0.0000000000000E+00
-0.9780940176073E+00 -0.2496339061666E+01  0.0000000000000E+00
-0.9824432339124E+00 -0.2422989996067E+01  0.0000000000000E+00
-0.9873371595413E+00 -0.2349685803919E+01  0.0000000000000E+00
-0.9928189735396E+00 -0.2276436016166E+01  0.0000000000000E+00
-0.9989089092667E+00 -0.2203248992725E+01  0.0000000000000E+00
-0.1005599585181E+01 -0.2130130513310E+01  0.0000000000000E+00
-0.1012901007407E+01 -0.2057088440583E+01  0.0000000000000E+00
-0.1020842759611E+01 -0.1984133466366E+01  0.0000000000000E+00
-0.1029475891493E+01 -0.1911281600770E+01  0.0000000000000E+00
-0.1038875962015E+01 -0.1838554023786E+01  0.0000000000000E+00
-0.1049141659150E+01 -0.1765979519674E+01  0.0000000000000E+00
-0.1060368448767E+01 -0.1693591126070E+01  0.0000000000000E+00
-0.1072521703177E+01 -0.1621398208059E+01  0.0000000000000E+00
-0.1085117948044E+01 -0.1549304059582E+01  0.0000000000000E+00
-0.1097652738434E+01 -0.1477195909045E+01  0.0000000000000E+00
-0.1109951770363E+01 -0.1405034780455E+01  0.0000000000000E+00
-0.1121817484368E+01 -0.1332779095968E+01  0.0000000000000E+00
-0.9349999999583E+00 -0.4186859601281E+01  0.0000000000000E+00
-0.9349999999166E+00 -0.4113342086429E+01  0.0000000000000E+00
-0.9349999998749E+00 -0.4039824684257E+01  0.0000000000000E+00
-0.9349999998332E+00 -0.3966307217550E+01  0.0000000000000E+00
-0.9349999997914E+00 -0.3892789747717E+01  0.0000000000000E+00
-0.9349999997497E+00 -0.3819272288129E+01  0.0000000000000E+00
-0.9349999997080E+00 -0.3745754823288E+01  0.0000000000000E+00
-0.9349999996663E+00 -0.3672237366229E+01  0.0000000000000E+00
-0.9349999996246E+00 -0.3598719903615E+01  0.0000000000000E+00
-0.9349999995829E+00 -0.3525202280347E+01  0.0000000000000E+00
-0.9349999995412E+00 -0.3451684819510E+01  0.0000000000000E+00
-0.9349999994995E+00 -0.3378167379304E+01  0.0000000000000E+00
-0.9349999994578E+00 -0.3304649961005E+01  0.0000000000000E+00
-0.9349999994161E+00 -0.3231132803085E+01  0.0000000000000E+00
-0.9349999993743E+00 -0.3157615389387E+01  0.0000000000000E+00
-0.9350028617020E+00 -0.3084098002567E+01  0.0000000000000E+00
-0.9351389276901E+00 -0.3010580866809E+01  0.0000000000000E+00
-0.9356647611576E+00 -0.2937066271891E+01  0.0000000000000E+00
-0.9367201438881E+00 -0.2863559587695E+01  0.0000000000000E+00
-0.9383401895250E+00 -0.2790067100603E+01  0.0000000000000E+00
-0.9405132596292E+00 -0.2716594812946E+01  0.0000000000000E+00
-0.9432164962873E+00 -0.2643146234865E+01  0.0000000000000E+00
-0.9464311012625E+00 -0.2569726064901E+01  0.0000000000000E+00
-0.9501484740537E+00 -0.2496339061666E+01  0.0000000000000E+00
-0.9543734270272E+00 -0.2422989996067E+01  0.0000000000000E+00
-0.9591275262008E+00 -0.2349685803919E+01  0.0000000000000E+00
-0.9644527169331E+00 -0.2276436016166E+01  0.0000000000000E+00
-0.9703686544876E+00 -0.2203248992725E+01  0.0000000000000E+00
-0.9768681682243E+00 -0.2130130513310E+01  0.0000000000000E+00
-0.9839609783772E+00 -0.2057088440583E+01  0.0000000000000E+00
-0.9916758233662E+00 -0.1984133466366E+01  0.0000000000000E+00
-0.1000062294328E+01 -0.1911281600770E+01  0.0000000000000E+00
-0.1009193791397E+01 -0.1838554023786E+01  0.0000000000000E+00
-0.1019166182889E+01 -0.1765979519674E+01  0.0000000000000E+00
-0.1030072207079E+01 -0.1693591126070E+01  0.0000000000000E+00
-0.1041878225639E+01 -0.1621398208059E+01  0.0000000000000E+00
-0.1054114577786E+01 -0.1549304059582E+01  0.0000000000000E+00
-0.1066291231298E+01 -0.1477195909045E+01  0.0000000000000E+00
-0.1078238862304E+01 -0.1405034780455E+01  0.0000000000000E+00
-0.1089765555898E+01 -0.1332779095968E+01  0.0000000000000E+00
-0.9074999999513E+00 -0.4186859601281E+01  0.0000000000000E+00
-0.9074999999027E+00 -0.4113342086429E+01  0.0000000000000E+00
-0.9074999998540E+00 -0.4039824684257E+01  0.0000000000000E+00
-0.9074999998054E+00 -0.3966307217550E+01  0.0000000000000E+00
-0.9074999997567E+00 -0.3892789747717E+01  0.0000000000000E+00
-0.9074999997080E+00 -0.3819272288129E+01  0.0000000000000E+00
-0.9074999996594E+00 -0.3745754823288E+01  0.0000000000000E+00
-0.9074999996107E+00 -0.3672237366229E+01  0.0000000000000E+00
-0.9074999995620E+00 -0.3598719903615E+01  0.0000000000000E+00
-0.9074999995134E+00 -0.3525202280347E+01  0.0000000000000E+00
-0.9074999994647E+00 -0.3451684819510E+01  0.0000000000000E+00
-0.9074999994161E+00 -0.3378167379304E+01  0.0000000000000E+00
-0.9074999993674E+00 -0.3304649961005E+01  0.0000000000000E+00
-0.9074999993187E+00 -0.3231132803085E+01  0.0000000000000E+00
-0.9074999992701E+00 -0.3157615389387E+01  0.0000000000000E+00
-0.9075027774034E+00 -0.3084098002567E+01  0.0000000000000E+00
-0.9076348414425E+00 -0.3010580866809E+01  0.0000000000000E+00
-0.9081452092115E+00 -0.2937066271891E+01  0.0000000000000E+00
-0.9091695512650E+00 -0.2863559587695E+01  0.0000000000000E+00
-0.9107419484924E+00 -0.2790067100603E+01  0.0000000000000E+00
-0.9128511047615E+00 -0.2716594812946E+01  0.0000000000000E+00
-0.9154748344504E+00 -0.2643146234865E+01  0.0000000000000E+00
-0.9185948922116E+00 -0.2569726064901E+01  0.0000000000000E+00
-0.9222029305002E+00 -0.2496339061666E+01  0.0000000000000E+00
-0.9263036201420E+00 -0.2422989996067E+01  0.0000000000000E+00
-0.9309178928602E+00 -0.2349685803919E+01  0.0000000000000E+00
-0.9360864603266E+00 -0.2276436016166E+01  0.0000000000000E+00
-0.9418283997085E+00 -0.2203248992725E+01  0.0000000000000E+00
-0.9481367512672E+00 -0.2130130513310E+01  0.0000000000000E+00
-0.9550209493474E+00 -0.2057088440583E+01  0.0000000000000E+00
-0.9625088871213E+00 -0.1984133466366E+01  0.0000000000000E+00
-0.9706486971624E+00 -0.1911281600770E+01  0.0000000000000E+00
-0.9795116207790E+00 -0.1838554023786E+01  0.0000000000000E+00
-0.9891907066292E+00 -0.1765979519674E+01  0.0000000000000E+00
-0.9997759653916E+00 -0.1693591126070E+01  0.0000000000000E+00
-0.1011234748102E+01 -0.1621398208059E+01  0.0000000000000E+00
-0.1023111207527E+01 -0.1549304059582E+01  0.0000000000000E+00
-0.1034929724161E+01 -0.1477195909045E+01  0.0000000000000E+00
-0.1046525954245E+01 -0.1405034780455E+01  0.0000000000000E+00
-0.1057713627429E+01 -0.1332779095968E+01  0.0000000000000E+00
-0.8799999999444E+00 -0.4186859601281E+01  0.0000000000000E+00
-0.8799999998888E+00 -0.4113342086429E+01  0.0000000000000E+00
-0.8799999998332E+00 -0.4039824684257E+01  0.0000000000000E+00
-0.8799999997775E+00 -0.3966307217550E+01  0.0000000000000E+00
-0.8799999997219E+00 -0.3892789747717E+01  0.0000000000000E+00
-0.8799999996663E+00 -0.3819272288129E+01  0.0000000000000E+00
-0.8799999996107E+00 -0.3745754823288E+01  0.0000000000000E+00
-0.8799999995551E+00 -0.3672237366229E+01  0.0000000000000E+00
-0.8799999994995E+00 -0.3598719903615E+01  0.0000000000000E+00
-0.8799999994439E+00 -0.3525202280347E+01  0.0000000000000E+00
-0.8799999993882E+00 -0.3451684819510E+01  0.0000000000000E+00
-0.8799999993326E+00 -0.3378167379304E+01  0.0000000000000E+00
-0.8799999992770E+00 -0.3304649961005E+01  0.0000000000000E+00
-0.8799999992214E+00 -0.3231132803085E+01  0.0000000000000E+00
-0.8799999991658E+00 -0.3157615389387E+01  0.0000000000000E+00
-0.8800026931049E+00 -0.3084098002567E+01  0.0000000000000E+00
-0.8801307551949E+00 -0.3010580866809E+01  0.0000000000000E+00
-0.8806256572654E+00 -0.2937066271891E+01  0.0000000000000E+00
-0.8816189586420E+00 -0.2863559587695E+01  0.0000000000000E+00
-0.8831437074599E+00 -0.2790067100603E+01  0.0000000000000E+00
-0.8851889498937E+00 -0.2716594812946E+01  0.0000000000000E+00
-0.8877331726134E+00 -0.2643146234865E+01  0.0000000000000E+00
-0.8907586831608E+00 -0.2569726064901E+01  0.0000000000000E+00
-0.8942573869466E+00 -0.2496339061666E+01  0.0000000000000E+00
-0.8982338132567E+00 -0.2422989996067E+01  0.0000000000000E+00
-0.9027082595197E+00 -0.2349685803919E+01  0.0000000000000E+00
-0.9077202037202E+00 -0.2276436016166E+01  0.0000000000000E+00
-0.9132881449294E+00 -0.2203248992725E+01  0.0000000000000E+00
-0.9194053343101E+00 -0.2130130513310E+01  0.0000000000000E+00
-0.9260809203175E+00 -0.2057088440583E+01  0.0000000000000E+00
-0.9333419508763E+00 -0.1984133466366E+01  0.0000000000000E+00
-0.9412350999972E+00 -0.1911281600770E+01  0.0000000000000E+00
-0.9498294501608E+00 -0.1838554023786E+01  0.0000000000000E+00
-0.9592152303689E+00 -0.1765979519674E+01  0.0000000000000E+00
-0.9694797237040E+00 -0.1693591126070E+01  0.0000000000000E+00
-0.9805912705636E+00 -0.1621398208059E+01  0.0000000000000E+00
-0.9921078372688E+00 -0.1549304059582E+01  0.0000000000000E+00
-0.1003568217024E+01 -0.1477195909045E+01  0.0000000000000E+00
-0.1014813046186E+01 -0.1405034780455E+01  0.0000000000000E+00
-0.1025661698959E+01 -0.1332779095968E+01  0.0000000000000E+00
-0.8524999999374E+00 -0.4186859601281E+01  0.0000000000000E+00
-0.8524999998749E+00 -0.4113342086429E+01  0.0000000000000E+00
-0.8524999998123E+00 -0.4039824684257E+01  0.0000000000000E+00
-0.8524999997497E+00 -0.3966307217550E+01  0.0000000000000E+00
-0.8524999996872E+00 -0.3892789747717E+01  0.0000000000000E+00
-0.8524999996246E+00 -0.3819272288129E+01  0.0000000000000E+00
-0.8524999995620E+00 -0.3745754823288E+01  0.0000000000000E+00
-0.8524999994995E+00 -0.3672237366229E+01  0.0000000000000E+00
-0.8524999994369E+00 -0.3598719903615E+01  0.0000000000000E+00
-0.8524999993743E+00 -0.3525202280347E+01  0.0000000000000E+00
-0.8524999993118E+00 -0.3451684819510E+01  0.0000000000000E+00
-0.8524999992492E+00 -0.3378167379304E+01  0.0000000000000E+00
-0.8524999991866E+00 -0.3304649961005E+01  0.0000000000000E+00
-0.8524999991241E+00 -0.3231132803085E+01  0.0000000000000E+00
-0.8524999990615E+00 -0.3157615389387E+01  0.0000000000000E+00
-0.8525026088063E+00 -0.3084098002567E+01  0.0000000000000E+00
-0.8526266689474E+00 -0.3010580866809E+01  0.0000000000000E+00
-0.8531061053193E+00 -0.2937066271891E+01  0.0000000000000E+00
-0.8540683660190E+00 -0.2863559587695E+01  0.0000000000000E+00
-0.8555454664273E+00 -0.2790067100603E+01  0.0000000000000E+00
-0.8575267950260E+00 -0.2716594812946E+01  0.0000000000000E+00
-0.8599915107765E+00 -0.2643146234865E+01  0.0000000000000E+00
-0.8629224741099E+00 -0.2569726064901E+01  0.0000000000000E+00
-0.8663118433931E+00 -0.2496339061666E+01  0.0000000000000E+00
-0.8701640063715E+00 -0.2422989996067E+01  0.0000000000000E+00
-0.8744986261792E+00 -0.2349685803919E+01  0.0000000000000E+00
-0.8793539471137E+00 -0.2276436016166E+01  0.0000000000000E+00
-0.8847478901504E+00 -0.2203248992725E+01  0.0000000000000E+00
-0.8906739173530E+00 -0.2130130513310E+01  0.0000000000000E+00
-0.8971408912877E+00 -0.2057088440583E+01  0.0000000000000E+00
-0.9041750146314E+00 -0.1984133466366E+01  0.0000000000000E+00
-0.9118215028320E+00 -0.1911281600770E+01  0.0000000000000E+00
-0.9201472795426E+00 -0.1838554023785E+01  0.0000000000000E+00
-0.9292397541087E+00 -0.1765979519674E+01  0.0000000000000E+00
-0.9391834820163E+00 -0.1693591126070E+01  0.0000000000000E+00
-0.9499477930258E+00 -0.1621398208058E+01  0.0000000000000E+00
-0.9611044670103E+00 -0.1549304059582E+01  0.0000000000000E+00
-0.9722067098871E+00 -0.1477195909045E+01  0.0000000000000E+00
-0.9831001381267E+00 -0.1405034780455E+01  0.0000000000000E+00
-0.9936097704899E+00 -0.1332779095968E+01  0.0000000000000E+00
-0.8249999999305E+00 -0.4186859601281E+01  0.0000000000000E+00
-0.8249999998610E+00 -0.4113342086429E+01  0.0000000000000E+00
-0.8249999997914E+00 -0.4039824684257E+01  0.0000000000000E+00
-0.8249999997219E+00 -0.3966307217550E+01  0.0000000000000E+00
-0.8249999996524E+00 -0.3892789747717E+01  0.0000000000000E+00
-0.8249999995829E+00 -0.3819272288129E+01  0.0000000000000E+00
-0.8249999995134E+00 -0.3745754823288E+01  0.0000000000000E+00
-0.8249999994439E+00 -0.3672237366229E+01  0.0000000000000E+00
-0.8249999993743E+00 -0.3598719903615E+01  0.0000000000000E+00
-0.8249999993048E+00 -0.3525202280347E+01  0.0000000000000E+00
-0.8249999992353E+00 -0.3451684819510E+01  0.0000000000000E+00
-0.8249999991658E+00 -0.3378167379303E+01  0.0000000000000E+00
-0.8249999990963E+00 -0.3304649961005E+01  0.0000000000000E+00
-0.8249999990268E+00 -0.3231132803085E+01  0.0000000000000E+00
-0.8249999989572E+00 -0.3157615389387E+01  0.0000000000000E+00
-0.8250025245077E+00 -0.3084098002567E+01  0.0000000000000E+00
-0.8251225826998E+00 -0.3010580866809E+01  0.0000000000000E+00
-0.8255865533732E+00 -0.2937066271891E+01  0.0000000000000E+00
-0.8265177733960E+00 -0.2863559587695E+01  0.0000000000000E+00
-0.8279472253947E+00 -0.2790067100603E+01  0.0000000000000E+00
-0.8298646401582E+00 -0.2716594812946E+01  0.0000000000000E+00
-0.8322498489395E+00 -0.2643146234865E+01  0.0000000000000E+00
-0.8350862650591E+00 -0.2569726064901E+01  0.0000000000000E+00
-0.8383662998395E+00 -0.2496339061666E+01  0.0000000000000E+00
-0.8420941994863E+00 -0.2422989996067E+01  0.0000000000000E+00
-0.8462889928386E+00 -0.2349685803919E+01  0.0000000000000E+00
-0.8509876905072E+00 -0.2276436016166E+01  0.0000000000000E+00
-0.8562076353713E+00 -0.2203248992725E+01  0.0000000000000E+00
-0.8619425003959E+00 -0.2130130513310E+01  0.0000000000000E+00
-0.8682008622578E+00 -0.2057088440583E+01  0.0000000000000E+00
-0.8750080783865E+00 -0.1984133466366E+01  0.0000000000000E+00
-0.8824079056668E+00 -0.1911281600770E+01  0.0000000000000E+00
-0.8904651089244E+00 -0.1838554023785E+01  0.0000000000000E+00
-0.8992642778485E+00 -0.1765979519674E+01  0.0000000000000E+00
-0.9088872403287E+00 -0.1693591126070E+01  0.0000000000000E+00
-0.9193043154879E+00 -0.1621398208058E+01  0.0000000000000E+00
-0.9301010967519E+00 -0.1549304059582E+01  0.0000000000000E+00
-0.9408452027503E+00 -0.1477195909045E+01  0.0000000000000E+00
-0.9513872300675E+00 -0.1405034780455E+01  0.0000000000000E+00
-0.9615578420205E+00 -0.1332779095968E+01  0.0000000000000E+00
-0.7974999999235E+00 -0.4186859601281E+01  0.0000000000000E+00
-0.7974999998471E+00 -0.4113342086429E+01  0.0000000000000E+00
-0.7974999997706E+00 -0.4039824684257E+01  0.0000000000000E+00
-0.7974999996941E+00 -0.3966307217550E+01  0.0000000000000E+00
-0.7974999996177E+00 -0.3892789747717E+01  0.0000000000000E+00
-0.7974999995412E+00 -0.3819272288129E+01  0.0000000000000E+00
-0.7974999994647E+00 -0.3745754823288E+01  0.0000000000000E+00
-0.7974999993882E+00 -0.3672237366229E+01  0.0000000000000E+00
-0.7974999993118E+00 -0.3598719903615E+01  0.0000000000000E+00
-0.7974999992353E+00 -0.3525202280347E+01  0.0000000000000E+00
-0.7974999991588E+00 -0.3451684819510E+01  0.0000000000000E+00
-0.7974999990824E+00 -0.3378167379303E+01  0.0000000000000E+00
-0.7974999990059E+00 -0.3304649961005E+01  0.0000000000000E+00
-0.7974999989294E+00 -0.3231132803085E+01  0.0000000000000E+00
-0.7974999988530E+00 -0.3157615389387E+01  0.0000000000000E+00
-0.7975024402092E+00 -0.3084098002567E+01  0.0000000000000E+00
-0.7976184964522E+00 -0.3010580866809E+01  0.0000000000000E+00
-0.7980670014271E+00 -0.2937066271891E+01  0.0000000000000E+00
-0.7989671807730E+00 -0.2863559587695E+01  0.0000000000000E+00
-0.8003489843621E+00 -0.2790067100603E+01  0.0000000000000E+00
-0.8022024852905E+00 -0.2716594812946E+01  0.0000000000000E+00
-0.8045081871026E+00 -0.2643146234865E+01  0.0000000000000E+00
-0.8072500560082E+00 -0.2569726064901E+01  0.0000000000000E+00
-0.8104207562860E+00 -0.2496339061666E+01  0.0000000000000E+00
-0.8140243926010E+00 -0.2422989996067E+01  0.0000000000000E+00
-0.8180793594981E+00 -0.2349685803919E+01  0.0000000000000E+00
-0.8226214339007E+00 -0.2276436016166E+01  0.0000000000000E+00
-0.8276673805922E+00 -0.2203248992725E+01  0.0000000000000E+00
-0.8332110834388E+00 -0.2130130513310E+01  0.0000000000000E+00
-0.8392608332280E+00 -0.2057088440583E+01  0.0000000000000E+00
-0.8458411421415E+00 -0.1984133466366E+01  0.0000000000000E+00
-0.8529943085016E+00 -0.1911281600770E+01  0.0000000000000E+00
-0.8607829383062E+00 -0.1838554023785E+01  0.0000000000000E+00
-0.8692888015883E+00 -0.1765979519674E+01  0.0000000000000E+00
-0.8785909986410E+00 -0.1693591126070E+01  0.0000000000000E+00
-0.8886608379500E+00 -0.1621398208058E+01  0.0000000000000E+00
-0.8990977264935E+00 -0.1549304059581E+01  0.0000000000000E+00
-0.9094836956135E+00 -0.1477195909045E+01  0.0000000000000E+00
-0.9196743220083E+00 -0.1405034780455E+01  0.0000000000000E+00
-0.9295059135511E+00 -0.1332779095968E+01  0.0000000000000E+00
-0.7699999999166E+00 -0.4186859601281E+01  0.0000000000000E+00
-0.7699999998332E+00 -0.4113342086429E+01  0.0000000000000E+00
-0.7699999997497E+00 -0.4039824684257E+01  0.0000000000000E+00
-0.7699999996663E+00 -0.3966307217550E+01  0.0000000000000E+00
-0.7699999995829E+00 -0.3892789747717E+01  0.0000000000000E+00
-0.7699999994995E+00 -0.3819272288129E+01  0.0000000000000E+00
-0.7699999994161E+00 -0.3745754823288E+01  0.0000000000000E+00
-0.7699999993326E+00 -0.3672237366229E+01  0.0000000000000E+00
-0.7699999992492E+00 -0.3598719903615E+01  0.0000000000000E+00
-0.7699999991658E+00 -0.3525202280347E+01  0.0000000000000E+00
-0.7699999990824E+00 -0.3451684819510E+01  0.0000000000000E+00
-0.7699999989989E+00 -0.3378167379303E+01  0.0000000000000E+00
-0.7699999989155E+00 -0.3304649961005E+01  0.0000000000000E+00
-0.7699999988321E+00 -0.3231132803085E+01  0.0000000000000E+00
-0.7699999987487E+00 -0.3157615389387E+01  0.0000000000000E+00
-0.7700023559106E+00 -0.3084098002567E+01  0.0000000000000E+00
-0.7701144102046E+00 -0.3010580866809E+01  0.0000000000000E+00
-0.7705474494810E+00 -0.2937066271891E+01  0.0000000000000E+00
-0.7714165881500E+00 -0.2863559587695E+01  0.0000000000000E+00
-0.7727507433296E+00 -0.2790067100603E+01  0.0000000000000E+00
-0.7745403304228E+00 -0.2716594812946E+01  0.0000000000000E+00
-0.7767665252657E+00 -0.2643146234865E+01  0.0000000000000E+00
-0.7794138469574E+00 -0.2569726064901E+01  0.0000000000000E+00
-0.7824752127324E+00 -0.2496339061666E+01  0.0000000000000E+00
-0.7859545857158E+00 -0.2422989996067E+01  0.0000000000000E+00
-0.7898697261576E+00 -0.2349685803919E+01  0.0000000000000E+00
-0.7942551772942E+00 -0.2276436016166E+01  0.0000000000000E+00
-0.7991271258132E+00 -0.2203248992725E+01  0.0000000000000E+00
-0.8044796664817E+00 -0.2130130513310E+01  0.0000000000000E+00
-0.8103208041981E+00 -0.2057088440583E+01  0.0000000000000E+00
-0.8166742058966E+00 -0.1984133466366E+01  0.0000000000000E+00
-0.8235807113364E+00 -0.1911281600770E+01  0.0000000000000E+00
-0.8311007676880E+00 -0.1838554023785E+01  0.0000000000000E+00
-0.8393133253280E+00 -0.1765979519674E+01  0.0000000000000E+00
-0.8482947569534E+00 -0.1693591126070E+01  0.0000000000000E+00
-0.8580173604121E+00 -0.1621398208058E+01  0.0000000000000E+00
-0.8680943562351E+00 -0.1549304059581E+01  0.0000000000000E+00
-0.8781221884767E+00 -0.1477195909045E+01  0.0000000000000E+00
-0.8879614139491E+00 -0.1405034780455E+01  0.0000000000000E+00
-0.8974539850816E+00 -0.1332779095968E+01  0.0000000000000E+00
-0.7424999999096E+00 -0.4186859601281E+01  0.0000000000000E+00
-0.7424999998193E+00 -0.4113342086429E+01  0.0000000000000E+00
-0.7424999997289E+00 -0.4039824684257E+01  0.0000000000000E+00
-0.7424999996385E+00 -0.3966307217550E+01  0.0000000000000E+00
-0.7424999995481E+00 -0.3892789747717E+01  0.0000000000000E+00
-0.7424999994578E+00 -0.3819272288129E+01  0.0000000000000E+00
-0.7424999993674E+00 -0.3745754823288E+01  0.0000000000000E+00
-0.7424999992770E+00 -0.3672237366229E+01  0.0000000000000E+00
-0.7424999991866E+00 -0.3598719903615E+01  0.0000000000000E+00
-0.7424999990963E+00 -0.3525202280347E+01  0.0000000000000E+00
-0.7424999990059E+00 -0.3451684819510E+01  0.0000000000000E+00
-0.7424999989155E+00 -0.3378167379303E+01  0.0000000000000E+00
-0.7424999988252E+00 -0.3304649961005E+01  0.0000000000000E+00
-0.7424999987348E+00 -0.3231132803085E+01  0.0000000000000E+00
-0.7424999986444E+00 -0.3157615389387E+01  0.0000000000000E+00
-0.7425022716120E+00 -0.3084098002567E+01  0.0000000000000E+00
-0.7426103239570E+00 -0.3010580866809E+01  0.0000000000000E+00
-0.7430278975349E+00 -0.2937066271891E+01  0.0000000000000E+00
-0.7438659955270E+00 -0.2863559587695E+01  0.0000000000000E+00
-0.7451525022970E+00 -0.2790067100603E+01  0.0000000000000E+00
-0.7468781755550E+00 -0.2716594812946E+01  0.0000000000000E+00
-0.7490248634287E+00 -0.2643146234865E+01  0.0000000000000E+00
-0.7515776379065E+00 -0.2569726064901E+01  0.0000000000000E+00
-0.7545296691789E+00 -0.2496339061666E+01  0.0000000000000E+00
-0.7578847788306E+00 -0.2422989996067E+01  0.0000000000000E+00
-0.7616600928170E+00 -0.2349685803919E+01  0.0000000000000E+00
-0.7658889206877E+00 -0.2276436016166E+01  0.0000000000000E+00
-0.7705868710341E+00 -0.2203248992725E+01  0.0000000000000E+00
-0.7757482495245E+00 -0.2130130513310E+01  0.0000000000000E+00
-0.7813807751683E+00 -0.2057088440583E+01  0.0000000000000E+00
-0.7875072696517E+00 -0.1984133466366E+01  0.0000000000000E+00
-0.7941671141712E+00 -0.1911281600770E+01  0.0000000000000E+00
-0.8014185970699E+00 -0.1838554023785E+01  0.0000000000000E+00
-0.8093378490678E+00 -0.1765979519674E+01  0.0000000000000E+00
-0.8179985152657E+00 -0.1693591126069E+01  0.0000000000000E+00
-0.8273738828742E+00 -0.1621398208058E+01  0.0000000000000E+00
-0.8370909859766E+00 -0.1549304059581E+01  0.0000000000000E+00
-0.8467606813399E+00 -0.1477195909045E+01  0.0000000000000E+00
-0.8562485058899E+00 -0.1405034780455E+01  0.0000000000000E+00
-0.8654020566122E+00 -0.1332779095967E+01  0.0000000000000E+00
-0.7149999999027E+00 -0.4186859601281E+01  0.0000000000000E+00
-0.7149999998054E+00 -0.4113342086429E+01  0.0000000000000E+00
-0.7149999997080E+00 -0.4039824684257E+01  0.0000000000000E+00
-0.7149999996107E+00 -0.3966307217550E+01  0.0000000000000E+00
-0.7149999995134E+00 -0.3892789747717E+01  0.0000000000000E+00
-0.7149999994161E+00 -0.3819272288129E+01  0.0000000000000E+00
-0.7149999993187E+00 -0.3745754823288E+01  0.0000000000000E+00
-0.7149999992214E+00 -0.3672237366229E+01  0.0000000000000E+00
-0.7149999991241E+00 -0.3598719903615E+01  0.0000000000000E+00
-0.7149999990268E+00 -0.3525202280347E+01  0.0000000000000E+00
-0.7149999989294E+00 -0.3451684819510E+01  0.0000000000000E+00
-0.7149999988321E+00 -0.3378167379303E+01  0.0000000000000E+00
-0.7149999987348E+00 -0.3304649961005E+01  0.0000000000000E+00
-0.7149999986375E+00 -0.3231132803085E+01  0.0000000000000E+00
-0.7149999985401E+00 -0.3157615389387E+01  0.0000000000000E+00
-0.7150021873135E+00 -0.3084098002567E+01  0.0000000000000E+00
-0.7151062377094E+00 -0.3010580866809E+01  0.0000000000000E+00
-0.7155083455888E+00 -0.2937066271891E+01  0.0000000000000E+00
-0.7163154029040E+00 -0.2863559587695E+01  0.0000000000000E+00
-0.7175542612644E+00 -0.2790067100603E+01  0.0000000000000E+00
-0.7192160206873E+00 -0.2716594812946E+01  0.0000000000000E+00
-0.7212832015918E+00 -0.2643146234865E+01  0.0000000000000E+00
-0.7237414288557E+00 -0.2569726064901E+01  0.0000000000000E+00
-0.7265841256253E+00 -0.2496339061666E+01  0.0000000000000E+00
-0.7298149719453E+00 -0.2422989996067E+01  0.0000000000000E+00
-0.7334504594765E+00 -0.2349685803919E+01  0.0000000000000E+00
-0.7375226640812E+00 -0.2276436016166E+01  0.0000000000000E+00
-0.7420466162550E+00 -0.2203248992725E+01  0.0000000000000E+00
-0.7470168325674E+00 -0.2130130513310E+01  0.0000000000000E+00
-0.7524407461384E+00 -0.2057088440583E+01  0.0000000000000E+00
-0.7583403334067E+00 -0.1984133466366E+01  0.0000000000000E+00
-0.7647535170060E+00 -0.1911281600770E+01  0.0000000000000E+00
-0.7717364264517E+00 -0.1838554023785E+01  0.0000000000000E+00
-0.7793623728076E+00 -0.1765979519674E+01  0.0000000000000E+00
-0.7877022735781E+00 -0.1693591126069E+01  0.0000000000000E+00
-0.7967304053363E+00 -0.1621398208058E+01  0.0000000000000E+00
-0.8060876157182E+00 -0.1549304059581E+01  0.0000000000000E+00
-0.8153991742031E+00 -0.1477195909045E+01  0.0000000000000E+00
-0.8245355978307E+00 -0.1405034780454E+01  0.0000000000000E+00
-0.8333501281428E+00 -0.1332779095967E+01  0.0000000000000E+00
-0.6874999998957E+00 -0.4186859601281E+01  0.0000000000000E+00
-0.6874999997914E+00 -0.4113342086429E+01  0.0000000000000E+00
-0.6874999996872E+00 -0.4039824684257E+01  0.0000000000000E+00
-0.6874999995829E+00 -0.3966307217550E+01  0.0000000000000E+00
-0.6874999994786E+00 -0.3892789747717E+01  0.0000000000000E+00
-0.6874999993743E+00 -0.3819272288129E+01  0.0000000000000E+00
-0.6874999992701E+00 -0.3745754823288E+01  0.0000000000000E+00
-0.6874999991658E+00 -0.3672237366229E+01  0.0000000000000E+00
-0.6874999990615E+00 -0.3598719903615E+01  0.0000000000000E+00
-0.6874999989572E+00 -0.3525202280347E+01  0.0000000000000E+00
-0.6874999988530E+00 -0.3451684819510E+01  0.0000000000000E+00
-0.6874999987487E+00 -0.3378167379303E+01  0.0000000000000E+00
-0.6874999986444E+00 -0.3304649961005E+01  0.0000000000000E+00
-0.6874999985401E+00 -0.3231132803085E+01  0.0000000000000E+00
-0.6874999984359E+00 -0.3157615389387E+01  0.0000000000000E+00
-0.6875021030149E+00 -0.3084098002567E+01  0.0000000000000E+00
-0.6876021514618E+00 -0.3010580866809E+01  0.0000000000000E+00
-0.6879887936428E+00 -0.2937066271891E+01  0.0000000000000E+00
-0.6887648102810E+00 -0.2863559587695E+01  0.0000000000000E+00
-0.6899560202319E+00 -0.2790067100603E+01  0.0000000000000E+00
-0.6915538658196E+00 -0.2716594812946E+01  0.0000000000000E+00
-0.6935415397548E+00 -0.2643146234865E+01  0.0000000000000E+00
-0.6959052198048E+00 -0.2569726064901E+01  0.0000000000000E+00
-0.6986385820717E+00 -0.2496339061666E+01  0.0000000000000E+00
-0.7017451650601E+00 -0.2422989996067E+01  0.0000000000000E+00
-0.7052408261360E+00 -0.2349685803919E+01  0.0000000000000E+00
-0.7091564074748E+00 -0.2276436016166E+01  0.0000000000000E+00
-0.7135063614760E+00 -0.2203248992725E+01  0.0000000000000E+00
-0.7182854156103E+00 -0.2130130513310E+01  0.0000000000000E+00
-0.7235007171086E+00 -0.2057088440583E+01  0.0000000000000E+00
-0.7291733971618E+00 -0.1984133466366E+01  0.0000000000000E+00
-0.7353399198408E+00 -0.1911281600770E+01  0.0000000000000E+00
-0.7420542558335E+00 -0.1838554023785E+01  0.0000000000000E+00
-0.7493868965474E+00 -0.1765979519674E+01  0.0000000000000E+00
-0.7574060318904E+00 -0.1693591126069E+01  0.0000000000000E+00
-0.7660869277984E+00 -0.1621398208058E+01  0.0000000000000E+00
-0.7750842454598E+00 -0.1549304059581E+01  0.0000000000000E+00
-0.7840376670663E+00 -0.1477195909044E+01  0.0000000000000E+00
-0.7928226897716E+00 -0.1405034780454E+01  0.0000000000000E+00
-0.8012981996734E+00 -0.1332779095967E+01  0.0000000000000E+00
-0.6599999998888E+00 -0.4186859601281E+01  0.0000000000000E+00
-0.6599999997775E+00 -0.4113342086429E+01  0.0000000000000E+00
-0.6599999996663E+00 -0.4039824684257E+01  0.0000000000000E+00
-0.6599999995551E+00 -0.3966307217550E+01  0.0000000000000E+00
-0.6599999994439E+00 -0.3892789747717E+01  0.0000000000000E+00
-0.6599999993326E+00 -0.3819272288129E+01  0.0000000000000E+00
-0.6599999992214E+00 -0.3745754823288E+01  0.0000000000000E+00
-0.6599999991102E+00 -0.3672237366229E+01  0.0000000000000E+00
-0.6599999989989E+00 -0.3598719903615E+01  0.0000000000000E+00
-0.6599999988877E+00 -0.3525202280347E+01  0.0000000000000E+00
-0.6599999987765E+00 -0.3451684819510E+01  0.0000000000000E+00
-0.6599999986653E+00 -0.3378167379303E+01  0.0000000000000E+00
-0.6599999985540E+00 -0.3304649961005E+01  0.0000000000000E+00
-0.6599999984428E+00 -0.3231132803085E+01  0.0000000000000E+00
-0.6599999983316E+00 -0.3157615389387E+01  0.0000000000000E+00
-0.6600020187164E+00 -0.3084098002567E+01  0.0000000000000E+00
-0.6600980652142E+00 -0.3010580866809E+01  0.0000000000000E+00
-0.6604692416967E+00 -0.2937066271891E+01  0.0000000000000E+00
-0.6612142176580E+00 -0.2863559587695E+01  0.0000000000000E+00
-0.6623577791993E+00 -0.2790067100603E+01  0.0000000000000E+00
-0.6638917109518E+00 -0.2716594812946E+01  0.0000000000000E+00
-0.6657998779179E+00 -0.2643146234865E+01  0.0000000000000E+00
-0.6680690107540E+00 -0.2569726064901E+01  0.0000000000000E+00
-0.6706930385182E+00 -0.2496339061666E+01  0.0000000000000E+00
-0.6736753581749E+00 -0.2422989996067E+01  0.0000000000000E+00
-0.6770311927954E+00 -0.2349685803919E+01  0.0000000000000E+00
-0.6807901508683E+00 -0.2276436016166E+01  0.0000000000000E+00
-0.6849661066969E+00 -0.2203248992725E+01  0.0000000000000E+00
-0.6895539986532E+00 -0.2130130513310E+01  0.0000000000000E+00
-0.6945606880787E+00 -0.2057088440583E+01  0.0000000000000E+00
-0.7000064609169E+00 -0.1984133466366E+01  0.0000000000000E+00
-0.7059263226756E+00 -0.1911281600770E+01  0.0000000000000E+00
-0.7123720852153E+00 -0.1838554023785E+01  0.0000000000000E+00
-0.7194114202871E+00 -0.1765979519674E+01  0.0000000000000E+00
-0.7271097902028E+00 -0.1693591126069E+01  0.0000000000000E+00
-0.7354434502605E+00 -0.1621398208058E+01  0.0000000000000E+00
-0.7440808752013E+00 -0.1549304059581E+01  0.0000000000000E+00
-0.7526761599294E+00 -0.1477195909044E+01  0.0000000000000E+00
-0.7611097817124E+00 -0.1405034780454E+01  0.0000000000000E+00
-0.7692462712040E+00 -0.1332779095967E+01  0.0000000000000E+00
-0.6324999998818E+00 -0.4186859601281E+01  0.0000000000000E+00
-0.6324999997636E+00 -0.4113342086429E+01  0.0000000000000E+00
-0.6324999996455E+00 -0.4039824684257E+01  0.0000000000000E+00
-0.6324999995273E+00 -0.3966307217550E+01  0.0000000000000E+00
-0.6324999994091E+00 -0.3892789747717E+01  0.0000000000000E+00
-0.6324999992909E+00 -0.3819272288129E+01  0.0000000000000E+00
-0.6324999991727E+00 -0.3745754823288E+01  0.0000000000000E+00
-0.6324999990546E+00 -0.3672237366229E+01  0.0000000000000E+00
-0.6324999989364E+00 -0.3598719903615E+01  0.0000000000000E+00
-0.6324999988182E+00 -0.3525202280347E+01  0.0000000000000E+00
-0.6324999987000E+00 -0.3451684819510E+01  0.0000000000000E+00
-0.6324999985818E+00 -0.3378167379303E+01  0.0000000000000E+00
-0.6324999984637E+00 -0.3304649961005E+01  0.0000000000000E+00
-0.6324999983455E+00 -0.3231132803085E+01  0.0000000000000E+00
-0.6324999982273E+00 -0.3157615389387E+01  0.0000000000000E+00
-0.6325019344178E+00 -0.3084098002567E+01  0.0000000000000E+00
-0.6325939789666E+00 -0.3010580866809E+01  0.0000000000000E+00
-0.6329496897506E+00 -0.2937066271891E+01  0.0000000000000E+00
-0.6336636250350E+00 -0.2863559587695E+01  0.0000000000000E+00
-0.6347595381667E+00 -0.2790067100603E+01  0.0000000000000E+00
-0.6362295560841E+00 -0.2716594812946E+01  0.0000000000000E+00
-0.6380582160810E+00 -0.2643146234864E+01  0.0000000000000E+00
-0.6402328017031E+00 -0.2569726064901E+01  0.0000000000000E+00
-0.6427474949646E+00 -0.2496339061666E+01  0.0000000000000E+00
-0.6456055512896E+00 -0.2422989996067E+01  0.0000000000000E+00
-0.6488215594549E+00 -0.2349685803919E+01  0.0000000000000E+00
-0.6524238942618E+00 -0.2276436016166E+01  0.0000000000000E+00
-0.6564258519178E+00 -0.2203248992725E+01  0.0000000000000E+00
-0.6608225816961E+00 -0.2130130513310E+01  0.0000000000000E+00
-0.6656206590488E+00 -0.2057088440583E+01  0.0000000000000E+00
-0.6708395246719E+00 -0.1984133466366E+01  0.0000000000000E+00
-0.6765127255104E+00 -0.1911281600769E+01  0.0000000000000E+00
-0.6826899145971E+00 -0.1838554023785E+01  0.0000000000000E+00
-0.6894359440269E+00 -0.1765979519673E+01  0.0000000000000E+00
-0.6968135485151E+00 -0.1693591126069E+01  0.0000000000000E+00
-0.7047999727226E+00 -0.1621398208058E+01  0.0000000000000E+00
-0.7130775049429E+00 -0.1549304059581E+01  0.0000000000000E+00
-0.7213146527926E+00 -0.1477195909044E+01  0.0000000000000E+00
-0.7293968736532E+00 -0.1405034780454E+01  0.0000000000000E+00
-0.7371943427346E+00 -0.1332779095967E+01  0.0000000000000E+00
-0.6049999998749E+00 -0.4186859601281E+01  0.0000000000000E+00
-0.6049999997497E+00 -0.4113342086429E+01  0.0000000000000E+00
-0.6049999996246E+00 -0.4039824684257E+01  0.0000000000000E+00
-0.6049999994995E+00 -0.3966307217550E+01  0.0000000000000E+00
-0.6049999993743E+00 -0.3892789747717E+01  0.0000000000000E+00
-0.6049999992492E+00 -0.3819272288129E+01  0.0000000000000E+00
-0.6049999991241E+00 -0.3745754823288E+01  0.0000000000000E+00
-0.6049999989989E+00 -0.3672237366228E+01  0.0000000000000E+00
-0.6049999988738E+00 -0.3598719903615E+01  0.0000000000000E+00
-0.6049999987487E+00 -0.3525202280347E+01  0.0000000000000E+00
-0.6049999986236E+00 -0.3451684819510E+01  0.0000000000000E+00
-0.6049999984984E+00 -0.3378167379303E+01  0.0000000000000E+00
-0.6049999983733E+00 -0.3304649961005E+01  0.0000000000000E+00
-0.6049999982482E+00 -0.3231132803085E+01  0.0000000000000E+00
-0.6049999981230E+00 -0.3157615389387E+01  0.0000000000000E+00
-0.6050018501192E+00 -0.3084098002567E+01  0.0000000000000E+00
-0.6050898927190E+00 -0.3010580866809E+01  0.0000000000000E+00
-0.6054301378045E+00 -0.2937066271891E+01  0.0000000000000E+00
-0.6061130324120E+00 -0.2863559587695E+01  0.0000000000000E+00
-0.6071612971342E+00 -0.2790067100603E+01  0.0000000000000E+00
-0.6085674012163E+00 -0.2716594812946E+01  0.0000000000000E+00
-0.6103165542440E+00 -0.2643146234864E+01  0.0000000000000E+00
-0.6123965926523E+00 -0.2569726064901E+01  0.0000000000000E+00
-0.6148019514111E+00 -0.2496339061666E+01  0.0000000000000E+00
-0.6175357444044E+00 -0.2422989996067E+01  0.0000000000000E+00
-0.6206119261143E+00 -0.2349685803919E+01  0.0000000000000E+00
-0.6240576376553E+00 -0.2276436016166E+01  0.0000000000000E+00
-0.6278855971387E+00 -0.2203248992725E+01  0.0000000000000E+00
-0.6320911647390E+00 -0.2130130513310E+01  0.0000000000000E+00
-0.6366806300190E+00 -0.2057088440583E+01  0.0000000000000E+00
-0.6416725884270E+00 -0.1984133466365E+01  0.0000000000000E+00
-0.6470991283452E+00 -0.1911281600769E+01  0.0000000000000E+00
-0.6530077439789E+00 -0.1838554023785E+01  0.0000000000000E+00
-0.6594604677667E+00 -0.1765979519673E+01  0.0000000000000E+00
-0.6665173068275E+00 -0.1693591126069E+01  0.0000000000000E+00
-0.6741564951847E+00 -0.1621398208058E+01  0.0000000000000E+00
-0.6820741346845E+00 -0.1549304059581E+01  0.0000000000000E+00
-0.6899531456558E+00 -0.1477195909044E+01  0.0000000000000E+00
-0.6976839655940E+00 -0.1405034780454E+01  0.0000000000000E+00
-0.7051424142651E+00 -0.1332779095967E+01  0.0000000000000E+00
-0.5774999998679E+00 -0.4186859601281E+01  0.0000000000000E+00
-0.5774999997358E+00 -0.4113342086429E+01  0.0000000000000E+00
-0.5774999996037E+00 -0.4039824684257E+01  0.0000000000000E+00
-0.5774999994717E+00 -0.3966307217550E+01  0.0000000000000E+00
-0.5774999993396E+00 -0.3892789747717E+01  0.0000000000000E+00
-0.5774999992075E+00 -0.3819272288129E+01  0.0000000000000E+00
-0.5774999990754E+00 -0.3745754823288E+01  0.0000000000000E+00
-0.5774999989433E+00 -0.3672237366228E+01  0.0000000000000E+00
-0.5774999988112E+00 -0.3598719903615E+01  0.0000000000000E+00
-0.5774999986792E+00 -0.3525202280347E+01  0.0000000000000E+00
-0.5774999985471E+00 -0.3451684819510E+01  0.0000000000000E+00
-0.5774999984150E+00 -0.3378167379303E+01  0.0000000000000E+00
-0.5774999982829E+00 -0.3304649961005E+01  0.0000000000000E+00
-0.5774999981508E+00 -0.3231132803085E+01  0.0000000000000E+00
-0.5774999980187E+00 -0.3157615389387E+01  0.0000000000000E+00
-0.5775017658207E+00 -0.3084098002567E+01  0.0000000000000E+00
-0.5775858064714E+00 -0.3010580866809E+01  0.0000000000000E+00
-0.5779105858584E+00 -0.2937066271891E+01  0.0000000000000E+00
-0.5785624397890E+00 -0.2863559587695E+01  0.0000000000000E+00
-0.5795630561016E+00 -0.2790067100603E+01  0.0000000000000E+00
-0.5809052463486E+00 -0.2716594812946E+01  0.0000000000000E+00
-0.5825748924071E+00 -0.2643146234864E+01  0.0000000000000E+00
-0.5845603836014E+00 -0.2569726064901E+01  0.0000000000000E+00
-0.5868564078575E+00 -0.2496339061666E+01  0.0000000000000E+00
-0.5894659375192E+00 -0.2422989996067E+01  0.0000000000000E+00
-0.5924022927738E+00 -0.2349685803919E+01  0.0000000000000E+00
-0.5956913810488E+00 -0.2276436016166E+01  0.0000000000000E+00
-0.5993453423597E+00 -0.2203248992725E+01  0.0000000000000E+00
-0.6033597477819E+00 -0.2130130513310E+01  0.0000000000000E+00
-0.6077406009891E+00 -0.2057088440583E+01  0.0000000000000E+00
-0.6125056521821E+00 -0.1984133466365E+01  0.0000000000000E+00
-0.6176855311800E+00 -0.1911281600769E+01  0.0000000000000E+00
-0.6233255733607E+00 -0.1838554023785E+01  0.0000000000000E+00
-0.6294849915065E+00 -0.1765979519673E+01  0.0000000000000E+00
-0.6362210651398E+00 -0.1693591126069E+01  0.0000000000000E+00
-0.6435130176468E+00 -0.1621398208058E+01  0.0000000000000E+00
-0.6510707644261E+00 -0.1549304059581E+01  0.0000000000000E+00
-0.6585916385190E+00 -0.1477195909044E+01  0.0000000000000E+00
-0.6659710575348E+00 -0.1405034780454E+01  0.0000000000000E+00
-0.6730904857957E+00 -0.1332779095967E+01  0.0000000000000E+00
-0.5499999998610E+00 -0.4186859601281E+01  0.0000000000000E+00
-0.5499999997219E+00 -0.4113342086429E+01  0.0000000000000E+00
-0.5499999995829E+00 -0.4039824684257E+01  0.0000000000000E+00
-0.5499999994439E+00 -0.3966307217550E+01  0.0000000000000E+00
-0.5499999993048E+00 -0.3892789747717E+01  0.0000000000000E+00
-0.5499999991658E+00 -0.3819272288129E+01  0.0000000000000E+00
-0.5499999990268E+00 -0.3745754823288E+01  0.0000000000000E+00
-0.5499999988877E+00 -0.3672237366228E+01  0.0000000000000E+00
-0.5499999987487E+00 -0.3598719903615E+01  0.0000000000000E+00
-0.5499999986096E+00 -0.3525202280347E+01  0.0000000000000E+00
-0.5499999984706E+00 -0.3451684819510E+01  0.0000000000000E+00
-0.5499999983316E+00 -0.3378167379303E+01  0.0000000000000E+00
-0.5499999981925E+00 -0.3304649961005E+01  0.0000000000000E+00
-0.5499999980535E+00 -0.3231132803085E+01  0.0000000000000E+00
-0.5499999979145E+00 -0.3157615389387E+01  0.0000000000000E+00
-0.5500016815221E+00 -0.3084098002567E+01  0.0000000000000E+00
-0.5500817202238E+00 -0.3010580866809E+01  0.0000000000000E+00
-0.5503910339123E+00 -0.2937066271891E+01  0.0000000000000E+00
-0.5510118471659E+00 -0.2863559587695E+01  0.0000000000000E+00
-0.5519648150690E+00 -0.2790067100603E+01  0.0000000000000E+00
-0.5532430914809E+00 -0.2716594812946E+01  0.0000000000000E+00
-0.5548332305702E+00 -0.2643146234864E+01  0.0000000000000E+00
-0.5567241745506E+00 -0.2569726064901E+01  0.0000000000000E+00
-0.5589108643040E+00 -0.2496339061666E+01  0.0000000000000E+00
-0.5613961306339E+00 -0.2422989996067E+01  0.0000000000000E+00
-0.5641926594333E+00 -0.2349685803919E+01  0.0000000000000E+00
-0.5673251244423E+00 -0.2276436016166E+01  0.0000000000000E+00
-0.5708050875806E+00 -0.2203248992725E+01  0.0000000000000E+00
-0.5746283308247E+00 -0.2130130513310E+01  0.0000000000000E+00
-0.5788005719593E+00 -0.2057088440583E+01  0.0000000000000E+00
-0.5833387159371E+00 -0.1984133466365E+01  0.0000000000000E+00
-0.5882719340148E+00 -0.1911281600769E+01  0.0000000000000E+00
-0.5936434027425E+00 -0.1838554023785E+01  0.0000000000000E+00
-0.5995095152462E+00 -0.1765979519673E+01  0.0000000000000E+00
-0.6059248234522E+00 -0.1693591126069E+01  0.0000000000000E+00
-0.6128695401089E+00 -0.1621398208058E+01  0.0000000000000E+00
-0.6200673941676E+00 -0.1549304059581E+01  0.0000000000000E+00
-0.6272301313822E+00 -0.1477195909044E+01  0.0000000000000E+00
-0.6342581494756E+00 -0.1405034780454E+01  0.0000000000000E+00
-0.6410385573263E+00 -0.1332779095967E+01  0.0000000000000E+00
-0.5224999998610E+00 -0.4186859601281E+01  0.0000000000000E+00
-0.5224999997219E+00 -0.4113342086429E+01  0.0000000000000E+00
-0.5224999995829E+00 -0.4039824684257E+01  0.0000000000000E+00
-0.5224999994439E+00 -0.3966307217550E+01  0.0000000000000E+00
-0.5224999993048E+00 -0.3892789747717E+01  0.0000000000000E+00
-0.5224999991658E+00 -0.3819272288129E+01  0.0000000000000E+00
-0.5224999990268E+00 -0.3745754823288E+01  0.0000000000000E+00
-0.5224999988877E+00 -0.3672237366228E+01  0.0000000000000E+00
-0.5224999987487E+00 -0.3598719903615E+01  0.0000000000000E+00
-0.5224999986096E+00 -0.3525202280347E+01  0.0000000000000E+00
-0.5224999984706E+00 -0.3451684819510E+01  0.0000000000000E+00
-0.5224999983316E+00 -0.3378167379303E+01  0.0000000000000E+00
-0.5224999981925E+00 -0.3304649961005E+01  0.0000000000000E+00
-0.5224999980535E+00 -0.3231132803085E+01  0.0000000000000E+00
-0.5224999979145E+00 -0.3157615389387E+01  0.0000000000000E+00
-0.5225015973348E+00 -0.3084098002567E+01  0.0000000000000E+00
-0.5225776340944E+00 -0.3010580866809E+01  0.0000000000000E+00
-0.5228714820914E+00 -0.2937066271891E+01  0.0000000000000E+00
-0.5234612546753E+00 -0.2863559587695E+01  0.0000000000000E+00
-0.5243665741760E+00 -0.2790067100603E+01  0.0000000000000E+00
-0.5255809367599E+00 -0.2716594812946E+01  0.0000000000000E+00
-0.5270915688874E+00 -0.2643146234864E+01  0.0000000000000E+00
-0.5288879656614E+00 -0.2569726064901E+01  0.0000000000000E+00
-0.5309653209196E+00 -0.2496339061666E+01  0.0000000000000E+00
-0.5333263239254E+00 -0.2422989996067E+01  0.0000000000000E+00
-0.5359830262772E+00 -0.2349685803919E+01  0.0000000000000E+00
-0.5389588680280E+00 -0.2276436016166E+01  0.0000000000000E+00
-0.5422648330016E+00 -0.2203248992725E+01  0.0000000000000E+00
-0.5458969140756E+00 -0.2130130513310E+01  0.0000000000000E+00
-0.5498605431455E+00 -0.2057088440583E+01  0.0000000000000E+00
-0.5541717799163E+00 -0.1984133466365E+01  0.0000000000000E+00
-0.5588583370819E+00 -0.1911281600769E+01  0.0000000000000E+00
-0.5639612323650E+00 -0.1838554023785E+01  0.0000000000000E+00
-0.5695340392352E+00 -0.1765979519673E+01  0.0000000000000E+00
-0.5756285820223E+00 -0.1693591126069E+01  0.0000000000000E+00
-0.5822260628376E+00 -0.1621398208058E+01  0.0000000000000E+00
-0.5890640241846E+00 -0.1549304059581E+01  0.0000000000000E+00
-0.5958686245296E+00 -0.1477195909044E+01  0.0000000000000E+00
-0.6025452417094E+00 -0.1405034780454E+01  0.0000000000000E+00
-0.6089866291585E+00 -0.1332779095967E+01  0.0000000000000E+00
-0.4949999998610E+00 -0.4186859601281E+01  0.0000000000000E+00
-0.4949999997219E+00 -0.4113342086429E+01  0.0000000000000E+00
-0.4949999995829E+00 -0.4039824684257E+01  0.0000000000000E+00
-0.4949999994439E+00 -0.3966307217550E+01  0.0000000000000E+00
-0.4949999993048E+00 -0.3892789747717E+01  0.0000000000000E+00
-0.4949999991658E+00 -0.3819272288129E+01  0.0000000000000E+00
-0.4949999990268E+00 -0.3745754823288E+01  0.0000000000000E+00
-0.4949999988877E+00 -0.3672237366228E+01  0.0000000000000E+00
-0.4949999987487E+00 -0.3598719903615E+01  0.0000000000000E+00
-0.4949999986096E+00 -0.3525202280347E+01  0.0000000000000E+00
-0.4949999984706E+00 -0.3451684819510E+01  0.0000000000000E+00
-0.4949999983316E+00 -0.3378167379303E+01  0.0000000000000E+00
-0.4949999981925E+00 -0.3304649961005E+01  0.0000000000000E+00
-0.4949999980535E+00 -0.3231132803085E+01  0.0000000000000E+00
-0.4949999979145E+00 -0.3157615389387E+01  0.0000000000000E+00
-0.4950015131474E+00 -0.3084098002567E+01  0.0000000000000E+00
-0.4950735479650E+00 -0.3010580866809E+01  0.0000000000000E+00
-0.4953519302706E+00 -0.2937066271891E+01  0.0000000000000E+00
-0.4959106621846E+00 -0.2863559587695E+01  0.0000000000000E+00
-0.4967683332830E+00 -0.2790067100603E+01  0.0000000000000E+00
-0.4979187820390E+00 -0.2716594812946E+01  0.0000000000000E+00
-0.4993499072047E+00 -0.2643146234864E+01  0.0000000000000E+00
-0.5010517567722E+00 -0.2569726064901E+01  0.0000000000000E+00
-0.5030197775352E+00 -0.2496339061666E+01  0.0000000000000E+00
-0.5052565172169E+00 -0.2422989996067E+01  0.0000000000000E+00
-0.5077733931210E+00 -0.2349685803919E+01  0.0000000000000E+00
-0.5105926116137E+00 -0.2276436016166E+01  0.0000000000000E+00
-0.5137245784225E+00 -0.2203248992725E+01  0.0000000000000E+00
-0.5171654973265E+00 -0.2130130513310E+01  0.0000000000000E+00
-0.5209205143316E+00 -0.2057088440583E+01  0.0000000000000E+00
-0.5250048438955E+00 -0.1984133466365E+01  0.0000000000000E+00
-0.5294447401491E+00 -0.1911281600769E+01  0.0000000000000E+00
-0.5342790619876E+00 -0.1838554023785E+01  0.0000000000000E+00
-0.5395585632242E+00 -0.1765979519673E+01  0.0000000000000E+00
-0.5453323405925E+00 -0.1693591126069E+01  0.0000000000000E+00
-0.5515825855662E+00 -0.1621398208058E+01  0.0000000000000E+00
-0.5580606542015E+00 -0.1549304059581E+01  0.0000000000000E+00
-0.5645071176769E+00 -0.1477195909044E+01  0.0000000000000E+00
-0.5708323339431E+00 -0.1405034780454E+01  0.0000000000000E+00
-0.5769347009908E+00 -0.1332779095967E+01  0.0000000000000E+00
-0.4674999998610E+00 -0.4186859601281E+01  0.0000000000000E+00
-0.4674999997219E+00 -0.4113342086429E+01  0.0000000000000E+00
-0.4674999995829E+00 -0.4039824684257E+01  0.0000000000000E+00
-0.4674999994439E+00 -0.3966307217550E+01  0.0000000000000E+00
-0.4674999993048E+00 -0.3892789747717E+01  0.0000000000000E+00
-0.4674999991658E+00 -0.3819272288129E+01  0.0000000000000E+00
-0.4674999990268E+00 -0.3745754823288E+01  0.0000000000000E+00
-0.4674999988877E+00 -0.3672237366228E+01  0.0000000000000E+00
-0.4674999987487E+00 -0.3598719903615E+01  0.0000000000000E+00
-0.4674999986096E+00 -0.3525202280347E+01  0.0000000000000E+00
-0.4674999984706E+00 -0.3451684819510E+01  0.0000000000000E+00
-0.4674999983316E+00 -0.3378167379303E+01  0.0000000000000E+00
-0.4674999981925E+00 -0.3304649961005E+01  0.0000000000000E+00
-0.4674999980535E+00 -0.3231132803085E+01  0.0000000000000E+00
-0.4674999979145E+00 -0.3157615389387E+01  0.0000000000000E+00
-0.4675014289601E+00 -0.3084098002567E+01  0.0000000000000E+00
-0.4675694618356E+00 -0.3010580866809E+01  0.0000000000000E+00
-0.4678323784497E+00 -0.2937066271891E+01  0.0000000000000E+00
-0.4683600696940E+00 -0.2863559587695E+01  0.0000000000000E+00
-0.4691700923899E+00 -0.2790067100603E+01  0.0000000000000E+00
-0.4702566273181E+00 -0.2716594812946E+01  0.0000000000000E+00
-0.4716082455219E+00 -0.2643146234864E+01  0.0000000000000E+00
-0.4732155478829E+00 -0.2569726064901E+01  0.0000000000000E+00
-0.4750742341508E+00 -0.2496339061666E+01  0.0000000000000E+00
-0.4771867105085E+00 -0.2422989996067E+01  0.0000000000000E+00
-0.4795637599649E+00 -0.2349685803919E+01  0.0000000000000E+00
-0.4822263551994E+00 -0.2276436016165E+01  0.0000000000000E+00
-0.4851843238435E+00 -0.2203248992725E+01  0.0000000000000E+00
-0.4884340805773E+00 -0.2130130513310E+01  0.0000000000000E+00
-0.4919804855178E+00 -0.2057088440583E+01  0.0000000000000E+00
-0.4958379078748E+00 -0.1984133466365E+01  0.0000000000000E+00
-0.5000311432163E+00 -0.1911281600769E+01  0.0000000000000E+00
-0.5045968916101E+00 -0.1838554023785E+01  0.0000000000000E+00
-0.5095830872131E+00 -0.1765979519673E+01  0.0000000000000E+00
-0.5150360991627E+00 -0.1693591126069E+01  0.0000000000000E+00
-0.5209391082949E+00 -0.1621398208058E+01  0.0000000000000E+00
-0.5270572842184E+00 -0.1549304059581E+01  0.0000000000000E+00
-0.5331456108243E+00 -0.1477195909044E+01  0.0000000000000E+00
-0.5391194261769E+00 -0.1405034780454E+01  0.0000000000000E+00
-0.5448827728230E+00 -0.1332779095967E+01  0.0000000000000E+00
-0.4399999998610E+00 -0.4186859601281E+01  0.0000000000000E+00
-0.4399999997219E+00 -0.4113342086429E+01  0.0000000000000E+00
-0.4399999995829E+00 -0.4039824684257E+01  0.0000000000000E+00
-0.4399999994439E+00 -0.3966307217550E+01  0.0000000000000E+00
-0.4399999993048E+00 -0.3892789747717E+01  0.0000000000000E+00
-0.4399999991658E+00 -0.3819272288129E+01  0.0000000000000E+00
-0.4399999990268E+00 -0.3745754823288E+01  0.0000000000000E+00
-0.4399999988877E+00 -0.3672237366228E+01  0.0000000000000E+00
-0.4399999987487E+00 -0.3598719903615E+01  0.0000000000000E+00
-0.4399999986096E+00 -0.3525202280347E+01  0.0000000000000E+00
-0.4399999984706E+00 -0.3451684819510E+01  0.0000000000000E+00
-0.4399999983316E+00 -0.3378167379303E+01  0.0000000000000E+00
-0.4399999981925E+00 -0.3304649961005E+01  0.0000000000000E+00
-0.4399999980535E+00 -0.3231132803085E+01  0.0000000000000E+00
-0.4399999979145E+00 -0.3157615389387E+01  0.0000000000000E+00
-0.4400013447728E+00 -0.3084098002567E+01  0.0000000000000E+00
-0.4400653757062E+00 -0.3010580866809E+01  0.0000000000000E+00
-0.4403128266289E+00 -0.2937066271891E+01  0.0000000000000E+00
-0.4408094772033E+00 -0.2863559587695E+01  0.0000000000000E+00
-0.4415718514969E+00 -0.2790067100603E+01  0.0000000000000E+00
-0.4425944725972E+00 -0.2716594812946E+01  0.0000000000000E+00
-0.4438665838392E+00 -0.2643146234864E+01  0.0000000000000E+00
-0.4453793389937E+00 -0.2569726064901E+01  0.0000000000000E+00
-0.4471286907664E+00 -0.2496339061666E+01  0.0000000000000E+00
-0.4491169038000E+00 -0.2422989996067E+01  0.0000000000000E+00
-0.4513541268088E+00 -0.2349685803919E+01  0.0000000000000E+00
-0.4538600987851E+00 -0.2276436016165E+01  0.0000000000000E+00
-0.4566440692645E+00 -0.2203248992725E+01  0.0000000000000E+00
-0.4597026638282E+00 -0.2130130513310E+01  0.0000000000000E+00
-0.4630404567039E+00 -0.2057088440583E+01  0.0000000000000E+00
-0.4666709718540E+00 -0.1984133466365E+01  0.0000000000000E+00
-0.4706175462834E+00 -0.1911281600769E+01  0.0000000000000E+00
-0.4749147212326E+00 -0.1838554023785E+01  0.0000000000000E+00
-0.4796076112021E+00 -0.1765979519673E+01  0.0000000000000E+00
-0.4847398577328E+00 -0.1693591126069E+01  0.0000000000000E+00
-0.4902956310235E+00 -0.1621398208058E+01  0.0000000000000E+00
-0.4960539142354E+00 -0.1549304059581E+01  0.0000000000000E+00
-0.5017841039716E+00 -0.1477195909044E+01  0.0000000000000E+00
-0.5074065184107E+00 -0.1405034780454E+01  0.0000000000000E+00
-0.5128308446553E+00 -0.1332779095967E+01  0.0000000000000E+00
-0.4124999998610E+00 -0.4186859601281E+01  0.0000000000000E+00
-0.4124999997219E+00 -0.4113342086429E+01  0.0000000000000E+00
-0.4124999995829E+00 -0.4039824684257E+01  0.0000000000000E+00
-0.4124999994439E+00 -0.3966307217550E+01  0.0000000000000E+00
-0.4124999993048E+00 -0.3892789747717E+01  0.0000000000000E+00
-0.4124999991658E+00 -0.3819272288129E+01  0.0000000000000E+00
-0.4124999990268E+00 -0.3745754823288E+01  0.0000000000000E+00
-0.4124999988877E+00 -0.3672237366228E+01  0.0000000000000E+00
-0.4124999987487E+00 -0.3598719903615E+01  0.0000000000000E+00
-0.4124999986096E+00 -0.3525202280347E+01  0.0000000000000E+00
-0.4124999984706E+00 -0.3451684819510E+01  0.0000000000000E+00
-0.4124999983316E+00 -0.3378167379303E+01  0.0000000000000E+00
-0.4124999981925E+00 -0.3304649961005E+01  0.0000000000000E+00
-0.4124999980535E+00 -0.3231132803085E+01  0.0000000000000E+00
-0.4124999979145E+00 -0.3157615389387E+01  0.0000000000000E+00
-0.4125012605854E+00 -0.3084098002567E+01  0.0000000000000E+00
-0.4125612895768E+00 -0.3010580866809E+01  0.0000000000000E+00
-0.4127932748080E+00 -0.2937066271891E+01  0.0000000000000E+00
-0.4132588847126E+00 -0.2863559587695E+01  0.0000000000000E+00
-0.4139736106039E+00 -0.2790067100603E+01  0.0000000000000E+00
-0.4149323178763E+00 -0.2716594812946E+01  0.0000000000000E+00
-0.4161249221564E+00 -0.2643146234864E+01  0.0000000000000E+00
-0.4175431301045E+00 -0.2569726064901E+01  0.0000000000000E+00
-0.4191831473820E+00 -0.2496339061666E+01  0.0000000000000E+00
-0.4210470970915E+00 -0.2422989996067E+01  0.0000000000000E+00
-0.4231444936527E+00 -0.2349685803919E+01  0.0000000000000E+00
-0.4254938423708E+00 -0.2276436016165E+01  0.0000000000000E+00
-0.4281038146855E+00 -0.2203248992725E+01  0.0000000000000E+00
-0.4309712470791E+00 -0.2130130513310E+01  0.0000000000000E+00
-0.4341004278901E+00 -0.2057088440583E+01  0.0000000000000E+00
-0.4375040358332E+00 -0.1984133466365E+01  0.0000000000000E+00
-0.4412039493506E+00 -0.1911281600769E+01  0.0000000000000E+00
-0.4452325508551E+00 -0.1838554023785E+01  0.0000000000000E+00
-0.4496321351910E+00 -0.1765979519673E+01  0.0000000000000E+00
-0.4544436163030E+00 -0.1693591126069E+01  0.0000000000000E+00
-0.4596521537522E+00 -0.1621398208057E+01  0.0000000000000E+00
-0.4650505442523E+00 -0.1549304059581E+01  0.0000000000000E+00
-0.4704225971190E+00 -0.1477195909044E+01  0.0000000000000E+00
-0.4756936106444E+00 -0.1405034780454E+01  0.0000000000000E+00
-0.4807789164875E+00 -0.1332779095967E+01  0.0000000000000E+00
-0.3849999998610E+00 -0.4186859601281E+01  0.0000000000000E+00
-0.3849999997219E+00 -0.4113342086429E+01  0.0000000000000E+00
-0.3849999995829E+00 -0.4039824684257E+01  0.0000000000000E+00
-0.3849999994439E+00 -0.3966307217550E+01  0.0000000000000E+00
-0.3849999993048E+00 -0.3892789747717E+01  0.0000000000000E+00
-0.3849999991658E+00 -0.3819272288129E+01  0.0000000000000E+00
-0.3849999990268E+00 -0.3745754823288E+01  0.0000000000000E+00
-0.3849999988877E+00 -0.3672237366228E+01  0.0000000000000E+00
-0.3849999987487E+00 -0.3598719903615E+01  0.0000000000000E+00
-0.3849999986096E+00 -0.3525202280347E+01  0.0000000000000E+00
-0.3849999984706E+00 -0.3451684819510E+01  0.0000000000000E+00
-0.3849999983316E+00 -0.3378167379303E+01  0.0000000000000E+00
-0.3849999981925E+00 -0.3304649961005E+01  0.0000000000000E+00
-0.3849999980535E+00 -0.3231132803085E+01  0.0000000000000E+00
-0.3849999979145E+00 -0.3157615389387E+01  0.0000000000000E+00
-0.3850011763981E+00 -0.3084098002567E+01  0.0000000000000E+00
-0.3850572034474E+00 -0.3010580866809E+01  0.0000000000000E+00
-0.3852737229872E+00 -0.2937066271891E+01  0.0000000000000E+00
-0.3857082922220E+00 -0.2863559587695E+01  0.0000000000000E+00
-0.3863753697109E+00 -0.2790067100603E+01  0.0000000000000E+00
-0.3872701631554E+00 -0.2716594812946E+01  0.0000000000000E+00
-0.3883832604737E+00 -0.2643146234864E+01  0.0000000000000E+00
-0.3897069212153E+00 -0.2569726064901E+01  0.0000000000000E+00
-0.3912376039976E+00 -0.2496339061666E+01  0.0000000000000E+00
-0.3929772903830E+00 -0.2422989996067E+01  0.0000000000000E+00
-0.3949348604966E+00 -0.2349685803919E+01  0.0000000000000E+00
-0.3971275859565E+00 -0.2276436016165E+01  0.0000000000000E+00
-0.3995635601064E+00 -0.2203248992725E+01  0.0000000000000E+00
-0.4022398303299E+00 -0.2130130513310E+01  0.0000000000000E+00
-0.4051603990763E+00 -0.2057088440583E+01  0.0000000000000E+00
-0.4083370998124E+00 -0.1984133466365E+01  0.0000000000000E+00
-0.4117903524178E+00 -0.1911281600769E+01  0.0000000000000E+00
-0.4155503804777E+00 -0.1838554023785E+01  0.0000000000000E+00
-0.4196566591800E+00 -0.1765979519673E+01  0.0000000000000E+00
-0.4241473748731E+00 -0.1693591126069E+01  0.0000000000000E+00
-0.4290086764809E+00 -0.1621398208057E+01  0.0000000000000E+00
-0.4340471742693E+00 -0.1549304059581E+01  0.0000000000000E+00
-0.4390610902664E+00 -0.1477195909044E+01  0.0000000000000E+00
-0.4439807028782E+00 -0.1405034780454E+01  0.0000000000000E+00
-0.4487269883198E+00 -0.1332779095967E+01  0.0000000000000E+00
-0.3574999998610E+00 -0.4186859601281E+01  0.0000000000000E+00
-0.3574999997219E+00 -0.4113342086429E+01  0.0000000000000E+00
-0.3574999995829E+00 -0.4039824684257E+01  0.0000000000000E+00
-0.3574999994439E+00 -0.3966307217550E+01  0.0000000000000E+00
-0.3574999993048E+00 -0.3892789747717E+01  0.0000000000000E+00
-0.3574999991658E+00 -0.3819272288129E+01  0.0000000000000E+00
-0.3574999990268E+00 -0.3745754823288E+01  0.0000000000000E+00
-0.3574999988877E+00 -0.3672237366228E+01  0.0000000000000E+00
-0.3574999987487E+00 -0.3598719903615E+01  0.0000000000000E+00
-0.3574999986096E+00 -0.3525202280347E+01  0.0000000000000E+00
-0.3574999984706E+00 -0.3451684819510E+01  0.0000000000000E+00
-0.3574999983316E+00 -0.3378167379303E+01  0.0000000000000E+00
-0.3574999981925E+00 -0.3304649961005E+01  0.0000000000000E+00
-0.3574999980535E+00 -0.3231132803085E+01  0.0000000000000E+00
-0.3574999979145E+00 -0.3157615389387E+01  0.0000000000000E+00
-0.3575010922108E+00 -0.3084098002567E+01  0.0000000000000E+00
-0.3575531173181E+00 -0.3010580866809E+01  0.0000000000000E+00
-0.3577541711663E+00 -0.2937066271891E+01  0.0000000000000E+00
-0.3581576997313E+00 -0.2863559587695E+01  0.0000000000000E+00
-0.3587771288178E+00 -0.2790067100603E+01  0.0000000000000E+00
-0.3596080084345E+00 -0.2716594812946E+01  0.0000000000000E+00
-0.3606415987909E+00 -0.2643146234864E+01  0.0000000000000E+00
-0.3618707123261E+00 -0.2569726064901E+01  0.0000000000000E+00
-0.3632920606132E+00 -0.2496339061666E+01  0.0000000000000E+00
-0.3649074836745E+00 -0.2422989996067E+01  0.0000000000000E+00
-0.3667252273405E+00 -0.2349685803919E+01  0.0000000000000E+00
-0.3687613295422E+00 -0.2276436016165E+01  0.0000000000000E+00
-0.3710233055274E+00 -0.2203248992725E+01  0.0000000000000E+00
-0.3735084135808E+00 -0.2130130513310E+01  0.0000000000000E+00
-0.3762203702624E+00 -0.2057088440583E+01  0.0000000000000E+00
-0.3791701637916E+00 -0.1984133466365E+01  0.0000000000000E+00
-0.3823767554850E+00 -0.1911281600769E+01  0.0000000000000E+00
-0.3858682101002E+00 -0.1838554023785E+01  0.0000000000000E+00
-0.3896811831690E+00 -0.1765979519673E+01  0.0000000000000E+00
-0.3938511334433E+00 -0.1693591126069E+01  0.0000000000000E+00
-0.3983651992095E+00 -0.1621398208057E+01  0.0000000000000E+00
-0.4030438042862E+00 -0.1549304059580E+01  0.0000000000000E+00
-0.4076995834137E+00 -0.1477195909044E+01  0.0000000000000E+00
-0.4122677951119E+00 -0.1405034780454E+01  0.0000000000000E+00
-0.4166750601520E+00 -0.1332779095967E+01  0.0000000000000E+00
-0.3299999998610E+00 -0.4186859601281E+01  0.0000000000000E+00
-0.3299999997219E+00 -0.4113342086429E+01  0.0000000000000E+00
-0.3299999995829E+00 -0.4039824684257E+01  0.0000000000000E+00
-0.3299999994439E+00 -0.3966307217550E+01  0.0000000000000E+00
-0.3299999993048E+00 -0.3892789747717E+01  0.0000000000000E+00
-0.3299999991658E+00 -0.3819272288129E+01  0.0000000000000E+00
-0.3299999990268E+00 -0.3745754823288E+01  0.0000000000000E+00
-0.3299999988877E+00 -0.3672237366228E+01  0.0000000000000E+00
-0.3299999987487E+00 -0.3598719903615E+01  0.0000000000000E+00
-0.3299999986096E+00 -0.3525202280347E+01  0.0000000000000E+00
-0.3299999984706E+00 -0.3451684819510E+01  0.0000000000000E+00
-0.3299999983316E+00 -0.3378167379303E+01  0.0000000000000E+00
-0.3299999981925E+00 -0.3304649961005E+01  0.0000000000000E+00
-0.3299999980535E+00 -0.3231132803085E+01  0.0000000000000E+00
-0.3299999979145E+00 -0.3157615389387E+01  0.0000000000000E+00
-0.3300010080234E+00 -0.3084098002567E+01  0.0000000000000E+00
-0.3300490311887E+00 -0.3010580866809E+01  0.0000000000000E+00
-0.3302346193454E+00 -0.2937066271891E+01  0.0000000000000E+00
-0.3306071072407E+00 -0.2863559587695E+01  0.0000000000000E+00
-0.3311788879248E+00 -0.2790067100603E+01  0.0000000000000E+00
-0.3319458537136E+00 -0.2716594812946E+01  0.0000000000000E+00
-0.3328999371082E+00 -0.2643146234864E+01  0.0000000000000E+00
-0.3340345034369E+00 -0.2569726064901E+01  0.0000000000000E+00
-0.3353465172288E+00 -0.2496339061666E+01  0.0000000000000E+00
-0.3368376769660E+00 -0.2422989996067E+01  0.0000000000000E+00
-0.3385155941844E+00 -0.2349685803919E+01  0.0000000000000E+00
-0.3403950731279E+00 -0.2276436016165E+01  0.0000000000000E+00
-0.3424830509484E+00 -0.2203248992725E+01  0.0000000000000E+00
-0.3447769968317E+00 -0.2130130513310E+01  0.0000000000000E+00
-0.3472803414486E+00 -0.2057088440583E+01  0.0000000000000E+00
-0.3500032277708E+00 -0.1984133466365E+01  0.0000000000000E+00
-0.3529631585521E+00 -0.1911281600769E+01  0.0000000000000E+00
-0.3561860397227E+00 -0.1838554023785E+01  0.0000000000000E+00
-0.3597057071579E+00 -0.1765979519673E+01  0.0000000000000E+00
-0.3635548920134E+00 -0.1693591126069E+01  0.0000000000000E+00
-0.3677217219382E+00 -0.1621398208057E+01  0.0000000000000E+00
-0.3720404343031E+00 -0.1549304059580E+01  0.0000000000000E+00
-0.3763380765611E+00 -0.1477195909044E+01  0.0000000000000E+00
-0.3805548873457E+00 -0.1405034780454E+01  0.0000000000000E+00
-0.3846231319842E+00 -0.1332779095967E+01  0.0000000000000E+00
-0.3024999998610E+00 -0.4186859601281E+01  0.0000000000000E+00
-0.3024999997219E+00 -0.4113342086429E+01  0.0000000000000E+00
-0.3024999995829E+00 -0.4039824684257E+01  0.0000000000000E+00
-0.3024999994439E+00 -0.3966307217550E+01  0.0000000000000E+00
-0.3024999993048E+00 -0.3892789747717E+01  0.0000000000000E+00
-0.3024999991658E+00 -0.3819272288129E+01  0.0000000000000E+00
-0.3024999990268E+00 -0.3745754823288E+01  0.0000000000000E+00
-0.3024999988877E+00 -0.3672237366228E+01  0.0000000000000E+00
-0.3024999987487E+00 -0.3598719903615E+01  0.0000000000000E+00
-0.3024999986096E+00 -0.3525202280347E+01  0.0000000000000E+00
-0.3024999984706E+00 -0.3451684819510E+01  0.0000000000000E+00
-0.3024999983316E+00 -0.3378167379303E+01  0.0000000000000E+00
-0.3024999981925E+00 -0.3304649961005E+01  0.0000000000000E+00
-0.3024999980535E+00 -0.3231132803085E+01  0.0000000000000E+00
-0.3024999979145E+00 -0.3157615389387E+01  0.0000000000000E+00
-0.3025009238361E+00 -0.3084098002567E+01  0.0000000000000E+00
-0.3025449450593E+00 -0.3010580866809E+01  0.0000000000000E+00
-0.3027150675246E+00 -0.2937066271891E+01  0.0000000000000E+00
-0.3030565147500E+00 -0.2863559587695E+01  0.0000000000000E+00
-0.3035806470318E+00 -0.2790067100603E+01  0.0000000000000E+00
-0.3042836989927E+00 -0.2716594812946E+01  0.0000000000000E+00
-0.3051582754254E+00 -0.2643146234864E+01  0.0000000000000E+00
-0.3061982945476E+00 -0.2569726064901E+01  0.0000000000000E+00
-0.3074009738444E+00 -0.2496339061666E+01  0.0000000000000E+00
-0.3087678702575E+00 -0.2422989996067E+01  0.0000000000000E+00
-0.3103059610283E+00 -0.2349685803919E+01  0.0000000000000E+00
-0.3120288167136E+00 -0.2276436016165E+01  0.0000000000000E+00
-0.3139427963693E+00 -0.2203248992725E+01  0.0000000000000E+00
-0.3160455800825E+00 -0.2130130513310E+01  0.0000000000000E+00
-0.3183403126348E+00 -0.2057088440583E+01  0.0000000000000E+00
-0.3208362917500E+00 -0.1984133466365E+01  0.0000000000000E+00
-0.3235495616193E+00 -0.1911281600769E+01  0.0000000000000E+00
-0.3265038693452E+00 -0.1838554023785E+01  0.0000000000000E+00
-0.3297302311469E+00 -0.1765979519673E+01  0.0000000000000E+00
-0.3332586505836E+00 -0.1693591126069E+01  0.0000000000000E+00
-0.3370782446668E+00 -0.1621398208057E+01  0.0000000000000E+00
-0.3410370643201E+00 -0.1549304059580E+01  0.0000000000000E+00
-0.3449765697085E+00 -0.1477195909044E+01  0.0000000000000E+00
-0.3488419795795E+00 -0.1405034780454E+01  0.0000000000000E+00
-0.3525712038165E+00 -0.1332779095967E+01  0.0000000000000E+00
-0.2749999998610E+00 -0.4186859601281E+01  0.0000000000000E+00
-0.2749999997219E+00 -0.4113342086429E+01  0.0000000000000E+00
-0.2749999995829E+00 -0.4039824684257E+01  0.0000000000000E+00
-0.2749999994439E+00 -0.3966307217550E+01  0.0000000000000E+00
-0.2749999993048E+00 -0.3892789747717E+01  0.0000000000000E+00
-0.2749999991658E+00 -0.3819272288129E+01  0.0000000000000E+00
-0.2749999990268E+00 -0.3745754823288E+01  0.0000000000000E+00
-0.2749999988877E+00 -0.3672237366228E+01  0.0000000000000E+00
-0.2749999987487E+00 -0.3598719903615E+01  0.0000000000000E+00
-0.2749999986096E+00 -0.3525202280347E+01  0.0000000000000E+00
-0.2749999984706E+00 -0.3451684819510E+01  0.0000000000000E+00
-0.2749999983316E+00 -0.3378167379303E+01  0.0000000000000E+00
-0.2749999981925E+00 -0.3304649961005E+01  0.0000000000000E+00
-0.2749999980535E+00 -0.3231132803085E+01  0.0000000000000E+00
-0.2749999979145E+00 -0.3157615389387E+01  0.0000000000000E+00
-0.2750008396488E+00 -0.3084098002567E+01  0.0000000000000E+00
-0.2750408589299E+00 -0.3010580866809E+01  0.0000000000000E+00
-0.2751955157037E+00 -0.2937066271891E+01  0.0000000000000E+00
-0.2755059222593E+00 -0.2863559587695E+01  0.0000000000000E+00
-0.2759824061388E+00 -0.2790067100603E+01  0.0000000000000E+00
-0.2766215442717E+00 -0.2716594812946E+01  0.0000000000000E+00
-0.2774166137427E+00 -0.2643146234864E+01  0.0000000000000E+00
-0.2783620856584E+00 -0.2569726064901E+01  0.0000000000000E+00
-0.2794554304600E+00 -0.2496339061666E+01  0.0000000000000E+00
-0.2806980635491E+00 -0.2422989996067E+01  0.0000000000000E+00
-0.2820963278721E+00 -0.2349685803919E+01  0.0000000000000E+00
-0.2836625602993E+00 -0.2276436016165E+01  0.0000000000000E+00
-0.2854025417903E+00 -0.2203248992725E+01  0.0000000000000E+00
-0.2873141633334E+00 -0.2130130513310E+01  0.0000000000000E+00
-0.2894002838209E+00 -0.2057088440583E+01  0.0000000000000E+00
-0.2916693557292E+00 -0.1984133466365E+01  0.0000000000000E+00
-0.2941359646865E+00 -0.1911281600769E+01  0.0000000000000E+00
-0.2968216989678E+00 -0.1838554023785E+01  0.0000000000000E+00
-0.2997547551359E+00 -0.1765979519673E+01  0.0000000000000E+00
-0.3029624091537E+00 -0.1693591126069E+01  0.0000000000000E+00
-0.3064347673955E+00 -0.1621398208057E+01  0.0000000000000E+00
-0.3100336943370E+00 -0.1549304059580E+01  0.0000000000000E+00
-0.3136150628558E+00 -0.1477195909044E+01  0.0000000000000E+00
-0.3171290718132E+00 -0.1405034780454E+01  0.0000000000000E+00
-0.3205192756487E+00 -0.1332779095967E+01  0.0000000000000E+00
-0.2474999998610E+00 -0.4186859601281E+01  0.0000000000000E+00
-0.2474999997219E+00 -0.4113342086429E+01  0.0000000000000E+00
-0.2474999995829E+00 -0.4039824684257E+01  0.0000000000000E+00
-0.2474999994439E+00 -0.3966307217550E+01  0.0000000000000E+00
-0.2474999993048E+00 -0.3892789747717E+01  0.0000000000000E+00
-0.2474999991658E+00 -0.3819272288129E+01  0.0000000000000E+00
-0.2474999990268E+00 -0.3745754823288E+01  0.0000000000000E+00
-0.2474999988877E+00 -0.3672237366228E+01  0.0000000000000E+00
-0.2474999987487E+00 -0.3598719903615E+01  0.0000000000000E+00
-0.2474999986096E+00 -0.3525202280347E+01  0.0000000000000E+00
-0.2474999984706E+00 -0.3451684819510E+01  0.0000000000000E+00
-0.2474999983316E+00 -0.3378167379303E+01  0.0000000000000E+00
-0.2474999981925E+00 -0.3304649961005E+01  0.0000000000000E+00
-0.2474999980535E+00 -0.3231132803085E+01  0.0000000000000E+00
-0.2474999979145E+00 -0.3157615389387E+01  0.0000000000000E+00
-0.2475007554614E+00 -0.3084098002567E+01  0.0000000000000E+00
-0.2475367728005E+00 -0.3010580866809E+01  0.0000000000000E+00
-0.2476759638829E+00 -0.2937066271891E+01  0.0000000000000E+00
-0.2479553297687E+00 -0.2863559587695E+01  0.0000000000000E+00
-0.2483841652457E+00 -0.2790067100603E+01  0.0000000000000E+00
-0.2489593895508E+00 -0.2716594812946E+01  0.0000000000000E+00
-0.2496749520599E+00 -0.2643146234864E+01  0.0000000000000E+00
-0.2505258767692E+00 -0.2569726064901E+01  0.0000000000000E+00
-0.2515098870756E+00 -0.2496339061666E+01  0.0000000000000E+00
-0.2526282568406E+00 -0.2422989996067E+01  0.0000000000000E+00
-0.2538866947160E+00 -0.2349685803919E+01  0.0000000000000E+00
-0.2552963038850E+00 -0.2276436016165E+01  0.0000000000000E+00
-0.2568622872113E+00 -0.2203248992725E+01  0.0000000000000E+00
-0.2585827465843E+00 -0.2130130513310E+01  0.0000000000000E+00
-0.2604602550071E+00 -0.2057088440583E+01  0.0000000000000E+00
-0.2625024197084E+00 -0.1984133466365E+01  0.0000000000000E+00
-0.2647223677536E+00 -0.1911281600769E+01  0.0000000000000E+00
-0.2671395285903E+00 -0.1838554023785E+01  0.0000000000000E+00
-0.2697792791248E+00 -0.1765979519673E+01  0.0000000000000E+00
-0.2726661677239E+00 -0.1693591126069E+01  0.0000000000000E+00
-0.2757912901242E+00 -0.1621398208057E+01  0.0000000000000E+00
-0.2790303243540E+00 -0.1549304059580E+01  0.0000000000000E+00
-0.2822535560032E+00 -0.1477195909044E+01  0.0000000000000E+00
-0.2854161640470E+00 -0.1405034780454E+01  0.0000000000000E+00
-0.2884673474810E+00 -0.1332779095967E+01  0.0000000000000E+00
-0.2199999998610E+00 -0.4186859601281E+01  0.0000000000000E+00
-0.2199999997219E+00 -0.4113342086429E+01  0.0000000000000E+00
-0.2199999995829E+00 -0.4039824684257E+01  0.0000000000000E+00
-0.2199999994439E+00 -0.3966307217550E+01  0.0000000000000E+00
-0.2199999993048E+00 -0.3892789747717E+01  0.0000000000000E+00
-0.2199999991658E+00 -0.3819272288129E+01  0.0000000000000E+00
-0.2199999990268E+00 -0.3745754823288E+01  0.0000000000000E+00
-0.2199999988877E+00 -0.3672237366228E+01  0.0000000000000E+00
-0.2199999987487E+00 -0.3598719903615E+01  0.0000000000000E+00
-0.2199999986096E+00 -0.3525202280347E+01  0.0000000000000E+00
-0.2199999984706E+00 -0.3451684819510E+01  0.0000000000000E+00
-0.2199999983316E+00 -0.3378167379303E+01  0.0000000000000E+00
-0.2199999981925E+00 -0.3304649961005E+01  0.0000000000000E+00
-0.2199999980535E+00 -0.3231132803085E+01  0.0000000000000E+00
-0.2199999979145E+00 -0.3157615389387E+01  0.0000000000000E+00
-0.2200006712741E+00 -0.3084098002567E+01  0.0000000000000E+00
-0.2200326866711E+00 -0.3010580866809E+01  0.0000000000000E+00
-0.2201564120620E+00 -0.2937066271891E+01  0.0000000000000E+00
-0.2204047372780E+00 -0.2863559587695E+01  0.0000000000000E+00
-0.2207859243527E+00 -0.2790067100603E+01  0.0000000000000E+00
-0.2212972348299E+00 -0.2716594812946E+01  0.0000000000000E+00
-0.2219332903772E+00 -0.2643146234864E+01  0.0000000000000E+00
-0.2226896678800E+00 -0.2569726064901E+01  0.0000000000000E+00
-0.2235643436911E+00 -0.2496339061666E+01  0.0000000000000E+00
-0.2245584501321E+00 -0.2422989996067E+01  0.0000000000000E+00
-0.2256770615599E+00 -0.2349685803919E+01  0.0000000000000E+00
-0.2269300474707E+00 -0.2276436016165E+01  0.0000000000000E+00
-0.2283220326322E+00 -0.2203248992725E+01  0.0000000000000E+00
-0.2298513298351E+00 -0.2130130513310E+01  0.0000000000000E+00
-0.2315202261932E+00 -0.2057088440583E+01  0.0000000000000E+00
-0.2333354836876E+00 -0.1984133466365E+01  0.0000000000000E+00
-0.2353087708208E+00 -0.1911281600769E+01  0.0000000000000E+00
-0.2374573582128E+00 -0.1838554023785E+01  0.0000000000000E+00
-0.2398038031138E+00 -0.1765979519673E+01  0.0000000000000E+00
-0.2423699262940E+00 -0.1693591126069E+01  0.0000000000000E+00
-0.2451478128528E+00 -0.1621398208057E+01  0.0000000000000E+00
-0.2480269543709E+00 -0.1549304059580E+01  0.0000000000000E+00
-0.2508920491506E+00 -0.1477195909043E+01  0.0000000000000E+00
-0.2537032562807E+00 -0.1405034780454E+01  0.0000000000000E+00
-0.2564154193132E+00 -0.1332779095967E+01  0.0000000000000E+00
-0.1924999998610E+00 -0.4186859601281E+01  0.0000000000000E+00
-0.1924999997219E+00 -0.4113342086429E+01  0.0000000000000E+00
-0.1924999995829E+00 -0.4039824684257E+01  0.0000000000000E+00
-0.1924999994439E+00 -0.3966307217550E+01  0.0000000000000E+00
-0.1924999993048E+00 -0.3892789747717E+01  0.0000000000000E+00
-0.1924999991658E+00 -0.3819272288129E+01  0.0000000000000E+00
-0.1924999990268E+00 -0.3745754823288E+01  0.0000000000000E+00
-0.1924999988877E+00 -0.3672237366228E+01  0.0000000000000E+00
-0.1924999987487E+00 -0.3598719903615E+01  0.0000000000000E+00
-0.1924999986096E+00 -0.3525202280347E+01  0.0000000000000E+00
-0.1924999984706E+00 -0.3451684819510E+01  0.0000000000000E+00
-0.1924999983316E+00 -0.3378167379303E+01  0.0000000000000E+00
-0.1924999981925E+00 -0.3304649961005E+01  0.0000000000000E+00
-0.1924999980535E+00 -0.3231132803085E+01  0.0000000000000E+00
-0.1924999979145E+00 -0.3157615389387E+01  0.0000000000000E+00
-0.1925005870868E+00 -0.3084098002567E+01  0.0000000000000E+00
-0.1925286005417E+00 -0.3010580866809E+01  0.0000000000000E+00
-0.1926368602412E+00 -0.2937066271891E+01  0.0000000000000E+00
-0.1928541447873E+00 -0.2863559587695E+01  0.0000000000000E+00
-0.1931876834597E+00 -0.2790067100603E+01  0.0000000000000E+00
-0.1936350801090E+00 -0.2716594812946E+01  0.0000000000000E+00
-0.1941916286944E+00 -0.2643146234864E+01  0.0000000000000E+00
-0.1948534589908E+00 -0.2569726064901E+01  0.0000000000000E+00
-0.1956188003067E+00 -0.2496339061666E+01  0.0000000000000E+00
-0.1964886434236E+00 -0.2422989996067E+01  0.0000000000000E+00
-0.1974674284038E+00 -0.2349685803919E+01  0.0000000000000E+00
-0.1985637910564E+00 -0.2276436016165E+01  0.0000000000000E+00
-0.1997817780532E+00 -0.2203248992725E+01  0.0000000000000E+00
-0.2011199130860E+00 -0.2130130513310E+01  0.0000000000000E+00
-0.2025801973794E+00 -0.2057088440583E+01  0.0000000000000E+00
-0.2041685476668E+00 -0.1984133466365E+01  0.0000000000000E+00
-0.2058951738880E+00 -0.1911281600769E+01  0.0000000000000E+00
-0.2077751878353E+00 -0.1838554023785E+01  0.0000000000000E+00
-0.2098283271027E+00 -0.1765979519673E+01  0.0000000000000E+00
-0.2120736848642E+00 -0.1693591126068E+01  0.0000000000000E+00
-0.2145043355815E+00 -0.1621398208057E+01  0.0000000000000E+00
-0.2170235843879E+00 -0.1549304059580E+01  0.0000000000000E+00
-0.2195305422979E+00 -0.1477195909043E+01  0.0000000000000E+00
-0.2219903485145E+00 -0.1405034780454E+01  0.0000000000000E+00
-0.2243634911454E+00 -0.1332779095967E+01  0.0000000000000E+00
-0.1649999998610E+00 -0.4186859601281E+01  0.0000000000000E+00
-0.1649999997219E+00 -0.4113342086429E+01  0.0000000000000E+00
-0.1649999995829E+00 -0.4039824684257E+01  0.0000000000000E+00
-0.1649999994439E+00 -0.3966307217550E+01  0.0000000000000E+00
-0.1649999993048E+00 -0.3892789747717E+01  0.0000000000000E+00
-0.1649999991658E+00 -0.3819272288129E+01  0.0000000000000E+00
-0.1649999990268E+00 -0.3745754823288E+01  0.0000000000000E+00
-0.1649999988877E+00 -0.3672237366228E+01  0.0000000000000E+00
-0.1649999987487E+00 -0.3598719903615E+01  0.0000000000000E+00
-0.1649999986096E+00 -0.3525202280347E+01  0.0000000000000E+00
-0.1649999984706E+00 -0.3451684819510E+01  0.0000000000000E+00
-0.1649999983316E+00 -0.3378167379303E+01  0.0000000000000E+00
-0.1649999981925E+00 -0.3304649961005E+01  0.0000000000000E+00
-0.1649999980535E+00 -0.3231132803085E+01  0.0000000000000E+00
-0.1649999979145E+00 -0.3157615389387E+01  0.0000000000000E+00
-0.1650005028994E+00 -0.3084098002567E+01  0.0000000000000E+00
-0.1650245144123E+00 -0.3010580866809E+01  0.0000000000000E+00
-0.1651173084203E+00 -0.2937066271891E+01  0.0000000000000E+00
-0.1653035522967E+00 -0.2863559587695E+01  0.0000000000000E+00
-0.1655894425667E+00 -0.2790067100603E+01  0.0000000000000E+00
-0.1659729253881E+00 -0.2716594812946E+01  0.0000000000000E+00
-0.1664499670117E+00 -0.2643146234864E+01  0.0000000000000E+00
-0.1670172501016E+00 -0.2569726064901E+01  0.0000000000000E+00
-0.1676732569223E+00 -0.2496339061666E+01  0.0000000000000E+00
-0.1684188367151E+00 -0.2422989996067E+01  0.0000000000000E+00
-0.1692577952477E+00 -0.2349685803919E+01  0.0000000000000E+00
-0.1701975346421E+00 -0.2276436016165E+01  0.0000000000000E+00
-0.1712415234742E+00 -0.2203248992725E+01  0.0000000000000E+00
-0.1723884963369E+00 -0.2130130513310E+01  0.0000000000000E+00
-0.1736401685656E+00 -0.2057088440583E+01  0.0000000000000E+00
-0.1750016116460E+00 -0.1984133466365E+01  0.0000000000000E+00
-0.1764815769552E+00 -0.1911281600769E+01  0.0000000000000E+00
-0.1780930174579E+00 -0.1838554023785E+01  0.0000000000000E+00
-0.1798528510917E+00 -0.1765979519673E+01  0.0000000000000E+00
-0.1817774434343E+00 -0.1693591126068E+01  0.0000000000000E+00
-0.1838608583101E+00 -0.1621398208057E+01  0.0000000000000E+00
-0.1860202144048E+00 -0.1549304059580E+01  0.0000000000000E+00
-0.1881690354453E+00 -0.1477195909043E+01  0.0000000000000E+00
-0.1902774407483E+00 -0.1405034780454E+01  0.0000000000000E+00
-0.1923115629777E+00 -0.1332779095967E+01  0.0000000000000E+00
-0.1374999998610E+00 -0.4186859601281E+01  0.0000000000000E+00
-0.1374999997219E+00 -0.4113342086429E+01  0.0000000000000E+00
-0.1374999995829E+00 -0.4039824684257E+01  0.0000000000000E+00
-0.1374999994439E+00 -0.3966307217550E+01  0.0000000000000E+00
-0.1374999993048E+00 -0.3892789747717E+01  0.0000000000000E+00
-0.1374999991658E+00 -0.3819272288129E+01  0.0000000000000E+00
-0.1374999990268E+00 -0.3745754823288E+01  0.0000000000000E+00
-0.1374999988877E+00 -0.3672237366228E+01  0.0000000000000E+00
-0.1374999987487E+00 -0.3598719903615E+01  0.0000000000000E+00
-0.1374999986096E+00 -0.3525202280347E+01  0.0000000000000E+00
-0.1374999984706E+00 -0.3451684819510E+01  0.0000000000000E+00
-0.1374999983316E+00 -0.3378167379303E+01  0.0000000000000E+00
-0.1374999981925E+00 -0.3304649961005E+01  0.0000000000000E+00
-0.1374999980535E+00 -0.3231132803085E+01  0.0000000000000E+00
-0.1374999979145E+00 -0.3157615389387E+01  0.0000000000000E+00
-0.1375004187121E+00 -0.3084098002567E+01  0.0000000000000E+00
-0.1375204282829E+00 -0.3010580866809E+01  0.0000000000000E+00
-0.1375977565995E+00 -0.2937066271891E+01  0.0000000000000E+00
-0.1377529598060E+00 -0.2863559587695E+01  0.0000000000000E+00
-0.1379912016736E+00 -0.2790067100603E+01  0.0000000000000E+00
-0.1383107706672E+00 -0.2716594812946E+01  0.0000000000000E+00
-0.1387083053289E+00 -0.2643146234864E+01  0.0000000000000E+00
-0.1391810412123E+00 -0.2569726064901E+01  0.0000000000000E+00
-0.1397277135379E+00 -0.2496339061666E+01  0.0000000000000E+00
-0.1403490300066E+00 -0.2422989996067E+01  0.0000000000000E+00
-0.1410481620916E+00 -0.2349685803919E+01  0.0000000000000E+00
-0.1418312782278E+00 -0.2276436016165E+01  0.0000000000000E+00
-0.1427012688952E+00 -0.2203248992725E+01  0.0000000000000E+00
-0.1436570795877E+00 -0.2130130513310E+01  0.0000000000000E+00
-0.1447001397517E+00 -0.2057088440583E+01  0.0000000000000E+00
-0.1458346756252E+00 -0.1984133466365E+01  0.0000000000000E+00
-0.1470679800223E+00 -0.1911281600769E+01  0.0000000000000E+00
-0.1484108470804E+00 -0.1838554023785E+01  0.0000000000000E+00
-0.1498773750807E+00 -0.1765979519673E+01  0.0000000000000E+00
-0.1514812020045E+00 -0.1693591126068E+01  0.0000000000000E+00
-0.1532173810388E+00 -0.1621398208057E+01  0.0000000000000E+00
-0.1550168444217E+00 -0.1549304059580E+01  0.0000000000000E+00
-0.1568075285926E+00 -0.1477195909043E+01  0.0000000000000E+00
-0.1585645329820E+00 -0.1405034780454E+01  0.0000000000000E+00
-0.1602596348099E+00 -0.1332779095967E+01  0.0000000000000E+00
-0.1099999998610E+00 -0.4186859601281E+01  0.0000000000000E+00
-0.1099999997219E+00 -0.4113342086429E+01  0.0000000000000E+00
-0.1099999995829E+00 -0.4039824684257E+01  0.0000000000000E+00
-0.1099999994439E+00 -0.3966307217550E+01  0.0000000000000E+00
-0.1099999993048E+00 -0.3892789747717E+01  0.0000000000000E+00
-0.1099999991658E+00 -0.3819272288129E+01  0.0000000000000E+00
-0.1099999990268E+00 -0.3745754823288E+01  0.0000000000000E+00
-0.1099999988877E+00 -0.3672237366228E+01  0.0000000000000E+00
-0.1099999987487E+00 -0.3598719903615E+01  0.0000000000000E+00
-0.1099999986096E+00 -0.3525202280347E+01  0.0000000000000E+00
-0.1099999984706E+00 -0.3451684819510E+01  0.0000000000000E+00
-0.1099999983316E+00 -0.3378167379303E+01  0.0000000000000E+00
-0.1099999981925E+00 -0.3304649961005E+01  0.0000000000000E+00
-0.1099999980535E+00 -0.3231132803085E+01  0.0000000000000E+00
-0.1099999979145E+00 -0.3157615389387E+01  0.0000000000000E+00
-0.1100003345248E+00 -0.3084098002567E+01  0.0000000000000E+00
-0.1100163421535E+00 -0.3010580866809E+01  0.0000000000000E+00
-0.1100782047786E+00 -0.2937066271891E+01  0.0000000000000E+00
-0.1102023673154E+00 -0.2863559587695E+01  0.0000000000000E+00
-0.1103929607806E+00 -0.2790067100603E+01  0.0000000000000E+00
-0.1106486159463E+00 -0.2716594812946E+01  0.0000000000000E+00
-0.1109666436462E+00 -0.2643146234864E+01  0.0000000000000E+00
-0.1113448323231E+00 -0.2569726064901E+01  0.0000000000000E+00
-0.1117821701535E+00 -0.2496339061666E+01  0.0000000000000E+00
-0.1122792232981E+00 -0.2422989996067E+01  0.0000000000000E+00
-0.1128385289355E+00 -0.2349685803919E+01  0.0000000000000E+00
-0.1134650218135E+00 -0.2276436016165E+01  0.0000000000000E+00
-0.1141610143161E+00 -0.2203248992725E+01  0.0000000000000E+00
-0.1149256628386E+00 -0.2130130513310E+01  0.0000000000000E+00
-0.1157601109379E+00 -0.2057088440583E+01  0.0000000000000E+00
-0.1166677396045E+00 -0.1984133466365E+01  0.0000000000000E+00
-0.1176543830895E+00 -0.1911281600769E+01  0.0000000000000E+00
-0.1187286767029E+00 -0.1838554023785E+01  0.0000000000000E+00
-0.1199018990696E+00 -0.1765979519673E+01  0.0000000000000E+00
-0.1211849605746E+00 -0.1693591126068E+01  0.0000000000000E+00
-0.1225739037674E+00 -0.1621398208057E+01  0.0000000000000E+00
-0.1240134744387E+00 -0.1549304059580E+01  0.0000000000000E+00
-0.1254460217400E+00 -0.1477195909043E+01  0.0000000000000E+00
-0.1268516252158E+00 -0.1405034780454E+01  0.0000000000000E+00
-0.1282077066422E+00 -0.1332779095967E+01  0.0000000000000E+00
-0.8249999986096E-01 -0.4186859601281E+01  0.0000000000000E+00
-0.8249999972193E-01 -0.4113342086429E+01  0.0000000000000E+00
-0.8249999958289E-01 -0.4039824684257E+01  0.0000000000000E+00
-0.8249999944386E-01 -0.3966307217550E+01  0.0000000000000E+00
-0.8249999930482E-01 -0.3892789747717E+01  0.0000000000000E+00
-0.8249999916579E-01 -0.3819272288129E+01  0.0000000000000E+00
-0.8249999902675E-01 -0.3745754823288E+01  0.0000000000000E+00
-0.8249999888772E-01 -0.3672237366228E+01  0.0000000000000E+00
-0.8249999874868E-01 -0.3598719903615E+01  0.0000000000000E+00
-0.8249999860965E-01 -0.3525202280347E+01  0.0000000000000E+00
-0.8249999847061E-01 -0.3451684819510E+01  0.0000000000000E+00
-0.8249999833158E-01 -0.3378167379303E+01  0.0000000000000E+00
-0.8249999819254E-01 -0.3304649961005E+01  0.0000000000000E+00
-0.8249999805351E-01 -0.3231132803085E+01  0.0000000000000E+00
-0.8249999791447E-01 -0.3157615389387E+01  0.0000000000000E+00
-0.8250025033743E-01 -0.3084098002567E+01  0.0000000000000E+00
-0.8251225602412E-01 -0.3010580866809E+01  0.0000000000000E+00
-0.8255865295774E-01 -0.2937066271891E+01  0.0000000000000E+00
-0.8265177482469E-01 -0.2863559587695E+01  0.0000000000000E+00
-0.8279471988758E-01 -0.2790067100603E+01  0.0000000000000E+00
-0.8298646122536E-01 -0.2716594812946E+01  0.0000000000000E+00
-0.8322498196343E-01 -0.2643146234864E+01  0.0000000000000E+00
-0.8350862343391E-01 -0.2569726064901E+01  0.0000000000000E+00
-0.8383662676914E-01 -0.2496339061666E+01  0.0000000000000E+00
-0.8420941658965E-01 -0.2422989996067E+01  0.0000000000000E+00
-0.8462889577935E-01 -0.2349685803919E+01  0.0000000000000E+00
-0.8509876539922E-01 -0.2276436016165E+01  0.0000000000000E+00
-0.8562075973709E-01 -0.2203248992725E+01  0.0000000000000E+00
-0.8619424608948E-01 -0.2130130513310E+01  0.0000000000000E+00
-0.8682008212406E-01 -0.2057088440583E+01  0.0000000000000E+00
-0.8750080358367E-01 -0.1984133466365E+01  0.0000000000000E+00
-0.8824078615667E-01 -0.1911281600769E+01  0.0000000000000E+00
-0.8904650632544E-01 -0.1838554023785E+01  0.0000000000000E+00
-0.8992642305859E-01 -0.1765979519673E+01  0.0000000000000E+00
-0.9088871914477E-01 -0.1693591126068E+01  0.0000000000000E+00
-0.9193042649611E-01 -0.1621398208057E+01  0.0000000000000E+00
-0.9301010445562E-01 -0.1549304059580E+01  0.0000000000000E+00
-0.9408451488737E-01 -0.1477195909043E+01  0.0000000000000E+00
-0.9513871744955E-01 -0.1405034780453E+01  0.0000000000000E+00
-0.9615577847440E-01 -0.1332779095967E+01  0.0000000000000E+00
-0.5499999986096E-01 -0.4186859601281E+01  0.0000000000000E+00
-0.5499999972193E-01 -0.4113342086429E+01  0.0000000000000E+00
-0.5499999958289E-01 -0.4039824684257E+01  0.0000000000000E+00
-0.5499999944386E-01 -0.3966307217550E+01  0.0000000000000E+00
-0.5499999930482E-01 -0.3892789747717E+01  0.0000000000000E+00
-0.5499999916579E-01 -0.3819272288129E+01  0.0000000000000E+00
-0.5499999902675E-01 -0.3745754823288E+01  0.0000000000000E+00
-0.5499999888772E-01 -0.3672237366228E+01  0.0000000000000E+00
-0.5499999874868E-01 -0.3598719903615E+01  0.0000000000000E+00
-0.5499999860965E-01 -0.3525202280347E+01  0.0000000000000E+00
-0.5499999847061E-01 -0.3451684819509E+01  0.0000000000000E+00
-0.5499999833158E-01 -0.3378167379303E+01  0.0000000000000E+00
-0.5499999819254E-01 -0.3304649961005E+01  0.0000000000000E+00
-0.5499999805351E-01 -0.3231132803085E+01  0.0000000000000E+00
-0.5499999791447E-01 -0.3157615389387E+01  0.0000000000000E+00
-0.5500016615009E-01 -0.3084098002567E+01  0.0000000000000E+00
-0.5500816989472E-01 -0.3010580866809E+01  0.0000000000000E+00
-0.5503910113688E-01 -0.2937066271891E+01  0.0000000000000E+00
-0.5510118233403E-01 -0.2863559587695E+01  0.0000000000000E+00
-0.5519647899455E-01 -0.2790067100603E+01  0.0000000000000E+00
-0.5532430650444E-01 -0.2716594812945E+01  0.0000000000000E+00
-0.5548332028068E-01 -0.2643146234864E+01  0.0000000000000E+00
-0.5567241454470E-01 -0.2569726064901E+01  0.0000000000000E+00
-0.5589108338473E-01 -0.2496339061666E+01  0.0000000000000E+00
-0.5613960988116E-01 -0.2422989996067E+01  0.0000000000000E+00
-0.5641926262324E-01 -0.2349685803919E+01  0.0000000000000E+00
-0.5673250898492E-01 -0.2276436016165E+01  0.0000000000000E+00
-0.5708050515806E-01 -0.2203248992725E+01  0.0000000000000E+00
-0.5746282934035E-01 -0.2130130513310E+01  0.0000000000000E+00
-0.5788005331022E-01 -0.2057088440583E+01  0.0000000000000E+00
-0.5833386756287E-01 -0.1984133466365E+01  0.0000000000000E+00
-0.5882718922384E-01 -0.1911281600769E+01  0.0000000000000E+00
-0.5936433594797E-01 -0.1838554023785E+01  0.0000000000000E+00
-0.5995094704755E-01 -0.1765979519673E+01  0.0000000000000E+00
-0.6059247771492E-01 -0.1693591126068E+01  0.0000000000000E+00
-0.6128694922477E-01 -0.1621398208057E+01  0.0000000000000E+00
-0.6200673447256E-01 -0.1549304059580E+01  0.0000000000000E+00
-0.6272300803474E-01 -0.1477195909043E+01  0.0000000000000E+00
-0.6342580968331E-01 -0.1405034780453E+01  0.0000000000000E+00
-0.6410385030664E-01 -0.1332779095967E+01  0.0000000000000E+00
-0.2749999986096E-01 -0.4186859601281E+01  0.0000000000000E+00
-0.2749999972193E-01 -0.4113342086429E+01  0.0000000000000E+00
-0.2749999958289E-01 -0.4039824684257E+01  0.0000000000000E+00
-0.2749999944386E-01 -0.3966307217550E+01  0.0000000000000E+00
-0.2749999930482E-01 -0.3892789747717E+01  0.0000000000000E+00
-0.2749999916579E-01 -0.3819272288128E+01  0.0000000000000E+00
-0.2749999902675E-01 -0.3745754823288E+01  0.0000000000000E+00
-0.2749999888772E-01 -0.3672237366228E+01  0.0000000000000E+00
-0.2749999874868E-01 -0.3598719903615E+01  0.0000000000000E+00
-0.2749999860965E-01 -0.3525202280347E+01  0.0000000000000E+00
-0.2749999847061E-01 -0.3451684819509E+01  0.0000000000000E+00
-0.2749999833158E-01 -0.3378167379303E+01  0.0000000000000E+00
-0.2749999819254E-01 -0.3304649961005E+01  0.0000000000000E+00
-0.2749999805351E-01 -0.3231132803085E+01  0.0000000000000E+00
-0.2749999791447E-01 -0.3157615389387E+01  0.0000000000000E+00
-0.2750008196276E-01 -0.3084098002567E+01  0.0000000000000E+00
-0.2750408376533E-01 -0.3010580866809E+01  0.0000000000000E+00
-0.2751954931602E-01 -0.2937066271891E+01  0.0000000000000E+00
-0.2755058984337E-01 -0.2863559587695E+01  0.0000000000000E+00
-0.2759823810152E-01 -0.2790067100603E+01  0.0000000000000E+00
-0.2766215178353E-01 -0.2716594812945E+01  0.0000000000000E+00
-0.2774165859793E-01 -0.2643146234864E+01  0.0000000000000E+00
-0.2783620565548E-01 -0.2569726064901E+01  0.0000000000000E+00
-0.2794554000033E-01 -0.2496339061666E+01  0.0000000000000E+00
-0.2806980317267E-01 -0.2422989996067E+01  0.0000000000000E+00
-0.2820962946712E-01 -0.2349685803919E+01  0.0000000000000E+00
-0.2836625257062E-01 -0.2276436016165E+01  0.0000000000000E+00
-0.2854025057903E-01 -0.2203248992725E+01  0.0000000000000E+00
-0.2873141259122E-01 -0.2130130513310E+01  0.0000000000000E+00
-0.2894002449638E-01 -0.2057088440583E+01  0.0000000000000E+00
-0.2916693154208E-01 -0.1984133466365E+01  0.0000000000000E+00
-0.2941359229101E-01 -0.1911281600769E+01  0.0000000000000E+00
-0.2968216557049E-01 -0.1838554023784E+01  0.0000000000000E+00
-0.2997547103652E-01 -0.1765979519673E+01  0.0000000000000E+00
-0.3029623628508E-01 -0.1693591126068E+01  0.0000000000000E+00
-0.3064347195342E-01 -0.1621398208057E+01  0.0000000000000E+00
-0.3100336448950E-01 -0.1549304059580E+01  0.0000000000000E+00
-0.3136150118210E-01 -0.1477195909043E+01  0.0000000000000E+00
-0.3171290191707E-01 -0.1405034780453E+01  0.0000000000000E+00
-0.3205192213889E-01 -0.1332779095967E+01  0.0000000000000E+00
 0.1390354743131E-09 -0.4186859601281E+01  0.0000000000000E+00
 0.2780705505956E-09 -0.4113342086429E+01  0.0000000000000E+00
 0.4171060575715E-09 -0.4039824684257E+01  0.0000000000000E+00
 0.5561412602524E-09 -0.3966307217550E+01  0.0000000000000E+00
 0.6951766705972E-09 -0.3892789747717E+01  0.0000000000000E+00
 0.8342121431180E-09 -0.3819272288128E+01  0.0000000000000E+00
 0.9732474182843E-09 -0.3745754823288E+01  0.0000000000000E+00
 0.1112282802333E-08 -0.3672237366228E+01  0.0000000000000E+00
 0.1251318294960E-08 -0.3598719903615E+01  0.0000000000000E+00
 0.1390353813009E-08 -0.3525202280347E+01  0.0000000000000E+00
 0.1529389163202E-08 -0.3451684819509E+01  0.0000000000000E+00
 0.1668424554188E-08 -0.3378167379303E+01  0.0000000000000E+00
 0.1807459650274E-08 -0.3304649961005E+01  0.0000000000000E+00
 0.1946494376859E-08 -0.3231132803085E+01  0.0000000000000E+00
 0.2085529741028E-08 -0.3157615389387E+01  0.0000000000000E+00
 0.2224574625698E-08 -0.3084098002567E+01  0.0000000000000E+00
 0.2364064634836E-08 -0.3010580866809E+01  0.0000000000000E+00
 0.2504833556286E-08 -0.2937066271891E+01  0.0000000000000E+00
 0.2647292734782E-08 -0.2863559587695E+01  0.0000000000000E+00
 0.2791501958223E-08 -0.2790067100603E+01  0.0000000000000E+00
 0.2937379100042E-08 -0.2716594812945E+01  0.0000000000000E+00
 0.3084818653443E-08 -0.2643146234864E+01  0.0000000000000E+00
 0.3233734531287E-08 -0.2569726064901E+01  0.0000000000000E+00
 0.3384071636922E-08 -0.2496339061666E+01  0.0000000000000E+00
 0.3535814743461E-08 -0.2422989996067E+01  0.0000000000000E+00
 0.3688988805617E-08 -0.2349685803919E+01  0.0000000000000E+00
 0.3843683676532E-08 -0.2276436016165E+01  0.0000000000000E+00
 0.3999997810813E-08 -0.2203248992725E+01  0.0000000000000E+00
 0.4157914882495E-08 -0.2130130513310E+01  0.0000000000000E+00
 0.4317456570341E-08 -0.2057088440583E+01  0.0000000000000E+00
 0.4478710343982E-08 -0.1984133466365E+01  0.0000000000000E+00
 0.4641815539791E-08 -0.1911281600769E+01  0.0000000000000E+00
 0.4806982281144E-08 -0.1838554023784E+01  0.0000000000000E+00
 0.4974521798449E-08 -0.1765979519673E+01  0.0000000000000E+00
 0.5144772820396E-08 -0.1693591126068E+01  0.0000000000000E+00
 0.5317917718960E-08 -0.1621398208057E+01  0.0000000000000E+00
 0.5493560806702E-08 -0.1549304059580E+01  0.0000000000000E+00
 0.5670536855295E-08 -0.1477195909043E+01  0.0000000000000E+00
 0.5849166081565E-08 -0.1405034780453E+01  0.0000000000000E+00
 0.6028873484876E-08 -0.1332779095967E+01  0.0000000000000E+00
 0.2750000013904E-01 -0.4186859601281E+01  0.0000000000000E+00
 0.2750000027807E-01 -0.4113342086429E+01  0.0000000000000E+00
 0.2750000041711E-01 -0.4039824684257E+01  0.0000000000000E+00
 0.2750000055614E-01 -0.3966307217550E+01  0.0000000000000E+00
 0.2750000069518E-01 -0.3892789747717E+01  0.0000000000000E+00
 0.2750000083421E-01 -0.3819272288128E+01  0.0000000000000E+00
 0.2750000097325E-01 -0.3745754823288E+01  0.0000000000000E+00
 0.2750000111228E-01 -0.3672237366228E+01  0.0000000000000E+00
 0.2750000125132E-01 -0.3598719903615E+01  0.0000000000000E+00
 0.2750000139035E-01 -0.3525202280347E+01  0.0000000000000E+00
 0.2750000152939E-01 -0.3451684819509E+01  0.0000000000000E+00
 0.2750000166842E-01 -0.3378167379303E+01  0.0000000000000E+00
 0.2750000180746E-01 -0.3304649961005E+01  0.0000000000000E+00
 0.2750000194649E-01 -0.3231132803085E+01  0.0000000000000E+00
 0.2750000208553E-01 -0.3157615389387E+01  0.0000000000000E+00
 0.2750008641191E-01 -0.3084098002567E+01  0.0000000000000E+00
 0.2750408849346E-01 -0.3010580866809E+01  0.0000000000000E+00
 0.2751955432569E-01 -0.2937066271891E+01  0.0000000000000E+00
 0.2755059513795E-01 -0.2863559587695E+01  0.0000000000000E+00
 0.2759824368453E-01 -0.2790067100603E+01  0.0000000000000E+00
 0.2766215765829E-01 -0.2716594812945E+01  0.0000000000000E+00
 0.2774166476757E-01 -0.2643146234864E+01  0.0000000000000E+00
 0.2783621212295E-01 -0.2569726064901E+01  0.0000000000000E+00
 0.2794554676847E-01 -0.2496339061666E+01  0.0000000000000E+00
 0.2806981024430E-01 -0.2422989996067E+01  0.0000000000000E+00
 0.2820963684510E-01 -0.2349685803919E+01  0.0000000000000E+00
 0.2836626025798E-01 -0.2276436016165E+01  0.0000000000000E+00
 0.2854025857903E-01 -0.2203248992725E+01  0.0000000000000E+00
 0.2873142090705E-01 -0.2130130513310E+01  0.0000000000000E+00
 0.2894003313129E-01 -0.2057088440583E+01  0.0000000000000E+00
 0.2916694049950E-01 -0.1984133466365E+01  0.0000000000000E+00
 0.2941360157464E-01 -0.1911281600769E+01  0.0000000000000E+00
 0.2968217518446E-01 -0.1838554023784E+01  0.0000000000000E+00
 0.2997548098556E-01 -0.1765979519673E+01  0.0000000000000E+00
 0.3029624657462E-01 -0.1693591126068E+01  0.0000000000000E+00
 0.3064348258926E-01 -0.1621398208057E+01  0.0000000000000E+00
 0.3100337547662E-01 -0.1549304059580E+01  0.0000000000000E+00
 0.3136151252317E-01 -0.1477195909043E+01  0.0000000000000E+00
 0.3171291361540E-01 -0.1405034780453E+01  0.0000000000000E+00
 0.3205193419663E-01 -0.1332779095967E+01  0.0000000000000E+00
 0.5500000013904E-01 -0.4186859601281E+01  0.0000000000000E+00
 0.5500000027807E-01 -0.4113342086429E+01  0.0000000000000E+00
 0.5500000041711E-01 -0.4039824684257E+01  0.0000000000000E+00
 0.5500000055614E-01 -0.3966307217550E+01  0.0000000000000E+00
 0.5500000069518E-01 -0.3892789747717E+01  0.0000000000000E+00
 0.5500000083421E-01 -0.3819272288128E+01  0.0000000000000E+00
 0.5500000097325E-01 -0.3745754823288E+01  0.0000000000000E+00
 0.5500000111228E-01 -0.3672237366228E+01  0.0000000000000E+00
 0.5500000125132E-01 -0.3598719903615E+01  0.0000000000000E+00
 0.5500000139035E-01 -0.3525202280347E+01  0.0000000000000E+00
 0.5500000152939E-01 -0.3451684819509E+01  0.0000000000000E+00
 0.5500000166842E-01 -0.3378167379303E+01  0.0000000000000E+00
 0.5500000180746E-01 -0.3304649961005E+01  0.0000000000000E+00
 0.5500000194649E-01 -0.3231132803085E+01  0.0000000000000E+00
 0.5500000208553E-01 -0.3157615389387E+01  0.0000000000000E+00
 0.5500017059924E-01 -0.3084098002567E+01  0.0000000000000E+00
 0.5500817462285E-01 -0.3010580866809E+01  0.0000000000000E+00
 0.5503910614655E-01 -0.2937066271891E+01  0.0000000000000E+00
 0.5510118762862E-01 -0.2863559587695E+01  0.0000000000000E+00
 0.5519648457755E-01 -0.2790067100603E+01  0.0000000000000E+00
 0.5532431237920E-01 -0.2716594812945E+01  0.0000000000000E+00
 0.5548332645032E-01 -0.2643146234864E+01  0.0000000000000E+00
 0.5567242101217E-01 -0.2569726064901E+01  0.0000000000000E+00
 0.5589109015288E-01 -0.2496339061666E+01  0.0000000000000E+00
 0.5613961695279E-01 -0.2422989996067E+01  0.0000000000000E+00
 0.5641927000122E-01 -0.2349685803919E+01  0.0000000000000E+00
 0.5673251667228E-01 -0.2276436016165E+01  0.0000000000000E+00
 0.5708051315806E-01 -0.2203248992725E+01  0.0000000000000E+00
 0.5746283765618E-01 -0.2130130513310E+01  0.0000000000000E+00
 0.5788006194513E-01 -0.2057088440583E+01  0.0000000000000E+00
 0.5833387652029E-01 -0.1984133466365E+01  0.0000000000000E+00
 0.5882719850747E-01 -0.1911281600769E+01  0.0000000000000E+00
 0.5936434556193E-01 -0.1838554023784E+01  0.0000000000000E+00
 0.5995095699660E-01 -0.1765979519672E+01  0.0000000000000E+00
 0.6059248800447E-01 -0.1693591126068E+01  0.0000000000000E+00
 0.6128695986060E-01 -0.1621398208056E+01  0.0000000000000E+00
 0.6200674545968E-01 -0.1549304059580E+01  0.0000000000000E+00
 0.6272301937581E-01 -0.1477195909043E+01  0.0000000000000E+00
 0.6342582138164E-01 -0.1405034780453E+01  0.0000000000000E+00
 0.6410386236439E-01 -0.1332779095967E+01  0.0000000000000E+00
 0.8250000013904E-01 -0.4186859601281E+01  0.0000000000000E+00
 0.8250000027807E-01 -0.4113342086429E+01  0.0000000000000E+00
 0.8250000041711E-01 -0.4039824684257E+01  0.0000000000000E+00
 0.8250000055614E-01 -0.3966307217550E+01  0.0000000000000E+00
 0.8250000069518E-01 -0.3892789747717E+01  0.0000000000000E+00
 0.8250000083421E-01 -0.3819272288128E+01  0.0000000000000E+00
 0.8250000097325E-01 -0.3745754823288E+01  0.0000000000000E+00
 0.8250000111228E-01 -0.3672237366228E+01  0.0000000000000E+00
 0.8250000125132E-01 -0.3598719903615E+01  0.0000000000000E+00
 0.8250000139035E-01 -0.3525202280347E+01  0.0000000000000E+00
 0.8250000152939E-01 -0.3451684819509E+01  0.0000000000000E+00
 0.8250000166842E-01 -0.3378167379303E+01  0.0000000000000E+00
 0.8250000180746E-01 -0.3304649961005E+01  0.0000000000000E+00
 0.8250000194649E-01 -0.3231132803085E+01  0.0000000000000E+00
 0.8250000208553E-01 -0.3157615389387E+01  0.0000000000000E+00
 0.8250025478658E-01 -0.3084098002567E+01  0.0000000000000E+00
 0.8251226075225E-01 -0.3010580866809E+01  0.0000000000000E+00
 0.8255865796740E-01 -0.2937066271891E+01  0.0000000000000E+00
 0.8265178011928E-01 -0.2863559587695E+01  0.0000000000000E+00
 0.8279472547058E-01 -0.2790067100603E+01  0.0000000000000E+00
 0.8298646710011E-01 -0.2716594812945E+01  0.0000000000000E+00
 0.8322498813306E-01 -0.2643146234864E+01  0.0000000000000E+00
 0.8350862990138E-01 -0.2569726064901E+01  0.0000000000000E+00
 0.8383663353728E-01 -0.2496339061666E+01  0.0000000000000E+00
 0.8420942366128E-01 -0.2422989996067E+01  0.0000000000000E+00
 0.8462890315733E-01 -0.2349685803919E+01  0.0000000000000E+00
 0.8509877308658E-01 -0.2276436016165E+01  0.0000000000000E+00
 0.8562076773709E-01 -0.2203248992725E+01  0.0000000000000E+00
 0.8619425440531E-01 -0.2130130513310E+01  0.0000000000000E+00
 0.8682009075897E-01 -0.2057088440583E+01  0.0000000000000E+00
 0.8750081254109E-01 -0.1984133466365E+01  0.0000000000000E+00
 0.8824079544030E-01 -0.1911281600769E+01  0.0000000000000E+00
 0.8904651593941E-01 -0.1838554023784E+01  0.0000000000000E+00
 0.8992643300764E-01 -0.1765979519672E+01  0.0000000000000E+00
 0.9088872943432E-01 -0.1693591126068E+01  0.0000000000000E+00
 0.9193043713194E-01 -0.1621398208056E+01  0.0000000000000E+00
 0.9301011544274E-01 -0.1549304059579E+01  0.0000000000000E+00
 0.9408452622845E-01 -0.1477195909043E+01  0.0000000000000E+00
 0.9513872914788E-01 -0.1405034780453E+01  0.0000000000000E+00
 0.9615579053215E-01 -0.1332779095967E+01  0.0000000000000E+00
 0.1100000001390E+00 -0.4186859601281E+01  0.0000000000000E+00
 0.1100000002781E+00 -0.4113342086429E+01  0.0000000000000E+00
 0.1100000004171E+00 -0.4039824684257E+01  0.0000000000000E+00
 0.1100000005561E+00 -0.3966307217550E+01  0.0000000000000E+00
 0.1100000006952E+00 -0.3892789747717E+01  0.0000000000000E+00
 0.1100000008342E+00 -0.3819272288128E+01  0.0000000000000E+00
 0.1100000009732E+00 -0.3745754823288E+01  0.0000000000000E+00
 0.1100000011123E+00 -0.3672237366228E+01  0.0000000000000E+00
 0.1100000012513E+00 -0.3598719903615E+01  0.0000000000000E+00
 0.1100000013904E+00 -0.3525202280347E+01  0.0000000000000E+00
 0.1100000015294E+00 -0.3451684819509E+01  0.0000000000000E+00
 0.1100000016684E+00 -0.3378167379303E+01  0.0000000000000E+00
 0.1100000018075E+00 -0.3304649961005E+01  0.0000000000000E+00
 0.1100000019465E+00 -0.3231132803085E+01  0.0000000000000E+00
 0.1100000020855E+00 -0.3157615389387E+01  0.0000000000000E+00
 0.1100003389739E+00 -0.3084098002567E+01  0.0000000000000E+00
 0.1100163468816E+00 -0.3010580866809E+01  0.0000000000000E+00
 0.1100782097883E+00 -0.2937066271891E+01  0.0000000000000E+00
 0.1102023726099E+00 -0.2863559587695E+01  0.0000000000000E+00
 0.1103929663636E+00 -0.2790067100603E+01  0.0000000000000E+00
 0.1106486218210E+00 -0.2716594812945E+01  0.0000000000000E+00
 0.1109666498158E+00 -0.2643146234864E+01  0.0000000000000E+00
 0.1113448387906E+00 -0.2569726064901E+01  0.0000000000000E+00
 0.1117821769217E+00 -0.2496339061666E+01  0.0000000000000E+00
 0.1122792303698E+00 -0.2422989996067E+01  0.0000000000000E+00
 0.1128385363134E+00 -0.2349685803919E+01  0.0000000000000E+00
 0.1134650295009E+00 -0.2276436016165E+01  0.0000000000000E+00
 0.1141610223161E+00 -0.2203248992725E+01  0.0000000000000E+00
 0.1149256711544E+00 -0.2130130513310E+01  0.0000000000000E+00
 0.1157601195728E+00 -0.2057088440583E+01  0.0000000000000E+00
 0.1166677485619E+00 -0.1984133466365E+01  0.0000000000000E+00
 0.1176543923731E+00 -0.1911281600769E+01  0.0000000000000E+00
 0.1187286863169E+00 -0.1838554023784E+01  0.0000000000000E+00
 0.1199019090187E+00 -0.1765979519672E+01  0.0000000000000E+00
 0.1211849708642E+00 -0.1693591126068E+01  0.0000000000000E+00
 0.1225739144033E+00 -0.1621398208056E+01  0.0000000000000E+00
 0.1240134854258E+00 -0.1549304059579E+01  0.0000000000000E+00
 0.1254460330811E+00 -0.1477195909043E+01  0.0000000000000E+00
 0.1268516369141E+00 -0.1405034780453E+01  0.0000000000000E+00
 0.1282077186999E+00 -0.1332779095967E+01  0.0000000000000E+00
 0.1375000001390E+00 -0.4186859601281E+01  0.0000000000000E+00
 0.1375000002781E+00 -0.4113342086429E+01  0.0000000000000E+00
 0.1375000004171E+00 -0.4039824684257E+01  0.0000000000000E+00
 0.1375000005561E+00 -0.3966307217550E+01  0.0000000000000E+00
 0.1375000006952E+00 -0.3892789747717E+01  0.0000000000000E+00
 0.1375000008342E+00 -0.3819272288128E+01  0.0000000000000E+00
 0.1375000009732E+00 -0.3745754823288E+01  0.0000000000000E+00
 0.1375000011123E+00 -0.3672237366228E+01  0.0000000000000E+00
 0.1375000012513E+00 -0.3598719903615E+01  0.0000000000000E+00
 0.1375000013904E+00 -0.3525202280347E+01  0.0000000000000E+00
 0.1375000015294E+00 -0.3451684819509E+01  0.0000000000000E+00
 0.1375000016684E+00 -0.3378167379303E+01  0.0000000000000E+00
 0.1375000018075E+00 -0.3304649961005E+01  0.0000000000000E+00
 0.1375000019465E+00 -0.3231132803085E+01  0.0000000000000E+00
 0.1375000020855E+00 -0.3157615389387E+01  0.0000000000000E+00
 0.1375004231612E+00 -0.3084098002567E+01  0.0000000000000E+00
 0.1375204330110E+00 -0.3010580866809E+01  0.0000000000000E+00
 0.1375977616091E+00 -0.2937066271891E+01  0.0000000000000E+00
 0.1377529651006E+00 -0.2863559587695E+01  0.0000000000000E+00
 0.1379912072566E+00 -0.2790067100603E+01  0.0000000000000E+00
 0.1383107765419E+00 -0.2716594812945E+01  0.0000000000000E+00
 0.1387083114986E+00 -0.2643146234864E+01  0.0000000000000E+00
 0.1391810476798E+00 -0.2569726064901E+01  0.0000000000000E+00
 0.1397277203061E+00 -0.2496339061666E+01  0.0000000000000E+00
 0.1403490370782E+00 -0.2422989996067E+01  0.0000000000000E+00
 0.1410481694696E+00 -0.2349685803919E+01  0.0000000000000E+00
 0.1418312859152E+00 -0.2276436016165E+01  0.0000000000000E+00
 0.1427012768951E+00 -0.2203248992725E+01  0.0000000000000E+00
 0.1436570879036E+00 -0.2130130513310E+01  0.0000000000000E+00
 0.1447001483866E+00 -0.2057088440583E+01  0.0000000000000E+00
 0.1458346845827E+00 -0.1984133466365E+01  0.0000000000000E+00
 0.1470679893060E+00 -0.1911281600769E+01  0.0000000000000E+00
 0.1484108566944E+00 -0.1838554023784E+01  0.0000000000000E+00
 0.1498773850297E+00 -0.1765979519672E+01  0.0000000000000E+00
 0.1514812122940E+00 -0.1693591126068E+01  0.0000000000000E+00
 0.1532173916746E+00 -0.1621398208056E+01  0.0000000000000E+00
 0.1550168554089E+00 -0.1549304059579E+01  0.0000000000000E+00
 0.1568075399337E+00 -0.1477195909043E+01  0.0000000000000E+00
 0.1585645446804E+00 -0.1405034780453E+01  0.0000000000000E+00
 0.1602596468677E+00 -0.1332779095967E+01  0.0000000000000E+00
 0.1650000001390E+00 -0.4186859601281E+01  0.0000000000000E+00
 0.1650000002781E+00 -0.4113342086429E+01  0.0000000000000E+00
 0.1650000004171E+00 -0.4039824684257E+01  0.0000000000000E+00
 0.1650000005561E+00 -0.3966307217550E+01  0.0000000000000E+00
 0.1650000006952E+00 -0.3892789747717E+01  0.0000000000000E+00
 0.1650000008342E+00 -0.3819272288128E+01  0.0000000000000E+00
 0.1650000009732E+00 -0.3745754823288E+01  0.0000000000000E+00
 0.1650000011123E+00 -0.3672237366228E+01  0.0000000000000E+00
 0.1650000012513E+00 -0.3598719903615E+01  0.0000000000000E+00
 0.1650000013904E+00 -0.3525202280347E+01  0.0000000000000E+00
 0.1650000015294E+00 -0.3451684819509E+01  0.0000000000000E+00
 0.1650000016684E+00 -0.3378167379303E+01  0.0000000000000E+00
 0.1650000018075E+00 -0.3304649961005E+01  0.0000000000000E+00
 0.1650000019465E+00 -0.3231132803084E+01  0.0000000000000E+00
 0.1650000020855E+00 -0.3157615389387E+01  0.0000000000000E+00
 0.1650005073486E+00 -0.3084098002567E+01  0.0000000000000E+00
 0.1650245191404E+00 -0.3010580866809E+01  0.0000000000000E+00
 0.1651173134300E+00 -0.2937066271891E+01  0.0000000000000E+00
 0.1653035575913E+00 -0.2863559587695E+01  0.0000000000000E+00
 0.1655894481497E+00 -0.2790067100603E+01  0.0000000000000E+00
 0.1659729312628E+00 -0.2716594812945E+01  0.0000000000000E+00
 0.1664499731813E+00 -0.2643146234864E+01  0.0000000000000E+00
 0.1670172565690E+00 -0.2569726064901E+01  0.0000000000000E+00
 0.1676732636905E+00 -0.2496339061666E+01  0.0000000000000E+00
 0.1684188437867E+00 -0.2422989996067E+01  0.0000000000000E+00
 0.1692578026257E+00 -0.2349685803919E+01  0.0000000000000E+00
 0.1701975423295E+00 -0.2276436016165E+01  0.0000000000000E+00
 0.1712415314742E+00 -0.2203248992725E+01  0.0000000000000E+00
 0.1723885046527E+00 -0.2130130513310E+01  0.0000000000000E+00
 0.1736401772005E+00 -0.2057088440583E+01  0.0000000000000E+00
 0.1750016206035E+00 -0.1984133466365E+01  0.0000000000000E+00
 0.1764815862388E+00 -0.1911281600769E+01  0.0000000000000E+00
 0.1780930270718E+00 -0.1838554023784E+01  0.0000000000000E+00
 0.1798528610408E+00 -0.1765979519672E+01  0.0000000000000E+00
 0.1817774537239E+00 -0.1693591126068E+01  0.0000000000000E+00
 0.1838608689460E+00 -0.1621398208056E+01  0.0000000000000E+00
 0.1860202253919E+00 -0.1549304059579E+01  0.0000000000000E+00
 0.1881690467864E+00 -0.1477195909043E+01  0.0000000000000E+00
 0.1902774524466E+00 -0.1405034780453E+01  0.0000000000000E+00
 0.1923115750354E+00 -0.1332779095967E+01  0.0000000000000E+00
 0.1925000001390E+00 -0.4186859601281E+01  0.0000000000000E+00
 0.1925000002781E+00 -0.4113342086429E+01  0.0000000000000E+00
 0.1925000004171E+00 -0.4039824684257E+01  0.0000000000000E+00
 0.1925000005561E+00 -0.3966307217550E+01  0.0000000000000E+00
 0.1925000006952E+00 -0.3892789747717E+01  0.0000000000000E+00
 0.1925000008342E+00 -0.3819272288128E+01  0.0000000000000E+00
 0.1925000009732E+00 -0.3745754823288E+01  0.0000000000000E+00
 0.1925000011123E+00 -0.3672237366228E+01  0.0000000000000E+00
 0.1925000012513E+00 -0.3598719903615E+01  0.0000000000000E+00
 0.1925000013904E+00 -0.3525202280347E+01  0.0000000000000E+00
 0.1925000015294E+00 -0.3451684819509E+01  0.0000000000000E+00
 0.1925000016684E+00 -0.3378167379303E+01  0.0000000000000E+00
 0.1925000018075E+00 -0.3304649961005E+01  0.0000000000000E+00
 0.1925000019465E+00 -0.3231132803084E+01  0.0000000000000E+00
 0.1925000020855E+00 -0.3157615389387E+01  0.0000000000000E+00
 0.1925005915359E+00 -0.3084098002567E+01  0.0000000000000E+00
 0.1925286052698E+00 -0.3010580866809E+01  0.0000000000000E+00
 0.1926368652508E+00 -0.2937066271891E+01  0.0000000000000E+00
 0.1928541500819E+00 -0.2863559587695E+01  0.0000000000000E+00
 0.1931876890427E+00 -0.2790067100603E+01  0.0000000000000E+00
 0.1936350859838E+00 -0.2716594812945E+01  0.0000000000000E+00
 0.1941916348641E+00 -0.2643146234864E+01  0.0000000000000E+00
 0.1948534654582E+00 -0.2569726064901E+01  0.0000000000000E+00
 0.1956188070749E+00 -0.2496339061666E+01  0.0000000000000E+00
 0.1964886504952E+00 -0.2422989996067E+01  0.0000000000000E+00
 0.1974674357818E+00 -0.2349685803919E+01  0.0000000000000E+00
 0.1985637987438E+00 -0.2276436016165E+01  0.0000000000000E+00
 0.1997817860532E+00 -0.2203248992725E+01  0.0000000000000E+00
 0.2011199214018E+00 -0.2130130513310E+01  0.0000000000000E+00
 0.2025802060143E+00 -0.2057088440583E+01  0.0000000000000E+00
 0.2041685566243E+00 -0.1984133466365E+01  0.0000000000000E+00
 0.2058951831716E+00 -0.1911281600769E+01  0.0000000000000E+00
 0.2077751974493E+00 -0.1838554023784E+01  0.0000000000000E+00
 0.2098283370518E+00 -0.1765979519672E+01  0.0000000000000E+00
 0.2120736951537E+00 -0.1693591126068E+01  0.0000000000000E+00
 0.2145043462173E+00 -0.1621398208056E+01  0.0000000000000E+00
 0.2170235953750E+00 -0.1549304059579E+01  0.0000000000000E+00
 0.2195305536390E+00 -0.1477195909043E+01  0.0000000000000E+00
 0.2219903602128E+00 -0.1405034780453E+01  0.0000000000000E+00
 0.2243635032032E+00 -0.1332779095967E+01  0.0000000000000E+00
 0.2200000001390E+00 -0.4186859601281E+01  0.0000000000000E+00
 0.2200000002781E+00 -0.4113342086429E+01  0.0000000000000E+00
 0.2200000004171E+00 -0.4039824684257E+01  0.0000000000000E+00
 0.2200000005561E+00 -0.3966307217550E+01  0.0000000000000E+00
 0.2200000006952E+00 -0.3892789747717E+01  0.0000000000000E+00
 0.2200000008342E+00 -0.3819272288128E+01  0.0000000000000E+00
 0.2200000009732E+00 -0.3745754823288E+01  0.0000000000000E+00
 0.2200000011123E+00 -0.3672237366228E+01  0.0000000000000E+00
 0.2200000012513E+00 -0.3598719903615E+01  0.0000000000000E+00
 0.2200000013904E+00 -0.3525202280347E+01  0.0000000000000E+00
 0.2200000015294E+00 -0.3451684819509E+01  0.0000000000000E+00
 0.2200000016684E+00 -0.3378167379303E+01  0.0000000000000E+00
 0.2200000018075E+00 -0.3304649961005E+01  0.0000000000000E+00
 0.2200000019465E+00 -0.3231132803084E+01  0.0000000000000E+00
 0.2200000020855E+00 -0.3157615389387E+01  0.0000000000000E+00
 0.2200006757232E+00 -0.3084098002567E+01  0.0000000000000E+00
 0.2200326913992E+00 -0.3010580866809E+01  0.0000000000000E+00
 0.2201564170717E+00 -0.2937066271891E+01  0.0000000000000E+00
 0.2204047425726E+00 -0.2863559587695E+01  0.0000000000000E+00
 0.2207859299357E+00 -0.2790067100603E+01  0.0000000000000E+00
 0.2212972407047E+00 -0.2716594812945E+01  0.0000000000000E+00
 0.2219332965468E+00 -0.2643146234864E+01  0.0000000000000E+00
 0.2226896743475E+00 -0.2569726064901E+01  0.0000000000000E+00
 0.2235643504593E+00 -0.2496339061666E+01  0.0000000000000E+00
 0.2245584572037E+00 -0.2422989996067E+01  0.0000000000000E+00
 0.2256770689379E+00 -0.2349685803918E+01  0.0000000000000E+00
 0.2269300551581E+00 -0.2276436016165E+01  0.0000000000000E+00
 0.2283220406322E+00 -0.2203248992725E+01  0.0000000000000E+00
 0.2298513381510E+00 -0.2130130513310E+01  0.0000000000000E+00
 0.2315202348282E+00 -0.2057088440583E+01  0.0000000000000E+00
 0.2333354926450E+00 -0.1984133466365E+01  0.0000000000000E+00
 0.2353087801044E+00 -0.1911281600769E+01  0.0000000000000E+00
 0.2374573678268E+00 -0.1838554023784E+01  0.0000000000000E+00
 0.2398038130628E+00 -0.1765979519672E+01  0.0000000000000E+00
 0.2423699365836E+00 -0.1693591126068E+01  0.0000000000000E+00
 0.2451478234886E+00 -0.1621398208056E+01  0.0000000000000E+00
 0.2480269653580E+00 -0.1549304059579E+01  0.0000000000000E+00
 0.2508920604916E+00 -0.1477195909043E+01  0.0000000000000E+00
 0.2537032679791E+00 -0.1405034780453E+01  0.0000000000000E+00
 0.2564154313709E+00 -0.1332779095967E+01  0.0000000000000E+00
 0.2475000001390E+00 -0.4186859601281E+01  0.0000000000000E+00
 0.2475000002781E+00 -0.4113342086429E+01  0.0000000000000E+00
 0.2475000004171E+00 -0.4039824684257E+01  0.0000000000000E+00
 0.2475000005561E+00 -0.3966307217550E+01  0.0000000000000E+00
 0.2475000006952E+00 -0.3892789747717E+01  0.0000000000000E+00
 0.2475000008342E+00 -0.3819272288128E+01  0.0000000000000E+00
 0.2475000009732E+00 -0.3745754823288E+01  0.0000000000000E+00
 0.2475000011123E+00 -0.3672237366228E+01  0.0000000000000E+00
 0.2475000012513E+00 -0.3598719903615E+01  0.0000000000000E+00
 0.2475000013904E+00 -0.3525202280347E+01  0.0000000000000E+00
 0.2475000015294E+00 -0.3451684819509E+01  0.0000000000000E+00
 0.2475000016684E+00 -0.3378167379303E+01  0.0000000000000E+00
 0.2475000018075E+00 -0.3304649961005E+01  0.0000000000000E+00
 0.2475000019465E+00 -0.3231132803084E+01  0.0000000000000E+00
 0.2475000020855E+00 -0.3157615389387E+01  0.0000000000000E+00
 0.2475007599106E+00 -0.3084098002567E+01  0.0000000000000E+00
 0.2475367775286E+00 -0.3010580866809E+01  0.0000000000000E+00
 0.2476759688925E+00 -0.2937066271891E+01  0.0000000000000E+00
 0.2479553350633E+00 -0.2863559587695E+01  0.0000000000000E+00
 0.2483841708287E+00 -0.2790067100603E+01  0.0000000000000E+00
 0.2489593954256E+00 -0.2716594812945E+01  0.0000000000000E+00
 0.2496749582296E+00 -0.2643146234864E+01  0.0000000000000E+00
 0.2505258832367E+00 -0.2569726064901E+01  0.0000000000000E+00
 0.2515098938437E+00 -0.2496339061666E+01  0.0000000000000E+00
 0.2526282639122E+00 -0.2422989996067E+01  0.0000000000000E+00
 0.2538867020940E+00 -0.2349685803918E+01  0.0000000000000E+00
 0.2552963115724E+00 -0.2276436016165E+01  0.0000000000000E+00
 0.2568622952113E+00 -0.2203248992725E+01  0.0000000000000E+00
 0.2585827549001E+00 -0.2130130513310E+01  0.0000000000000E+00
 0.2604602636420E+00 -0.2057088440583E+01  0.0000000000000E+00
 0.2625024286658E+00 -0.1984133466365E+01  0.0000000000000E+00
 0.2647223770373E+00 -0.1911281600769E+01  0.0000000000000E+00
 0.2671395382043E+00 -0.1838554023784E+01  0.0000000000000E+00
 0.2697792890739E+00 -0.1765979519672E+01  0.0000000000000E+00
 0.2726661780134E+00 -0.1693591126068E+01  0.0000000000000E+00
 0.2757913007600E+00 -0.1621398208056E+01  0.0000000000000E+00
 0.2790303353411E+00 -0.1549304059579E+01  0.0000000000000E+00
 0.2822535673443E+00 -0.1477195909042E+01  0.0000000000000E+00
 0.2854161757453E+00 -0.1405034780453E+01  0.0000000000000E+00
 0.2884673595387E+00 -0.1332779095967E+01  0.0000000000000E+00
 0.2750000001390E+00 -0.4186859601281E+01  0.0000000000000E+00
 0.2750000002781E+00 -0.4113342086429E+01  0.0000000000000E+00
 0.2750000004171E+00 -0.4039824684257E+01  0.0000000000000E+00
 0.2750000005561E+00 -0.3966307217550E+01  0.0000000000000E+00
 0.2750000006952E+00 -0.3892789747717E+01  0.0000000000000E+00
 0.2750000008342E+00 -0.3819272288128E+01  0.0000000000000E+00
 0.2750000009732E+00 -0.3745754823288E+01  0.0000000000000E+00
 0.2750000011123E+00 -0.3672237366228E+01  0.0000000000000E+00
 0.2750000012513E+00 -0.3598719903615E+01  0.0000000000000E+00
 0.2750000013904E+00 -0.3525202280347E+01  0.0000000000000E+00
 0.2750000015294E+00 -0.3451684819509E+01  0.0000000000000E+00
 0.2750000016684E+00 -0.3378167379303E+01  0.0000000000000E+00
 0.2750000018075E+00 -0.3304649961005E+01  0.0000000000000E+00
 0.2750000019465E+00 -0.3231132803084E+01  0.0000000000000E+00
 0.2750000020855E+00 -0.3157615389387E+01  0.0000000000000E+00
 0.2750008440979E+00 -0.3084098002567E+01  0.0000000000000E+00
 0.2750408636580E+00 -0.3010580866809E+01  0.0000000000000E+00
 0.2751955207134E+00 -0.2937066271891E+01  0.0000000000000E+00
 0.2755059275539E+00 -0.2863559587695E+01  0.0000000000000E+00
 0.2759824117218E+00 -0.2790067100603E+01  0.0000000000000E+00
 0.2766215501465E+00 -0.2716594812945E+01  0.0000000000000E+00
 0.2774166199123E+00 -0.2643146234864E+01  0.0000000000000E+00
 0.2783620921259E+00 -0.2569726064901E+01  0.0000000000000E+00
 0.2794554372281E+00 -0.2496339061666E+01  0.0000000000000E+00
 0.2806980706207E+00 -0.2422989996067E+01  0.0000000000000E+00
 0.2820963352501E+00 -0.2349685803918E+01  0.0000000000000E+00
 0.2836625679867E+00 -0.2276436016165E+01  0.0000000000000E+00
 0.2854025497903E+00 -0.2203248992725E+01  0.0000000000000E+00
 0.2873141716492E+00 -0.2130130513309E+01  0.0000000000000E+00
 0.2894002924558E+00 -0.2057088440583E+01  0.0000000000000E+00
 0.2916693646866E+00 -0.1984133466365E+01  0.0000000000000E+00
 0.2941359739701E+00 -0.1911281600769E+01  0.0000000000000E+00
 0.2968217085817E+00 -0.1838554023784E+01  0.0000000000000E+00
 0.2997547650849E+00 -0.1765979519672E+01  0.0000000000000E+00
 0.3029624194433E+00 -0.1693591126068E+01  0.0000000000000E+00
 0.3064347780313E+00 -0.1621398208056E+01  0.0000000000000E+00
 0.3100337053242E+00 -0.1549304059579E+01  0.0000000000000E+00
 0.3136150741969E+00 -0.1477195909042E+01  0.0000000000000E+00
 0.3171290835116E+00 -0.1405034780453E+01  0.0000000000000E+00
 0.3205192877065E+00 -0.1332779095967E+01  0.0000000000000E+00
 0.3025000001390E+00 -0.4186859601281E+01  0.0000000000000E+00
 0.3025000002781E+00 -0.4113342086429E+01  0.0000000000000E+00
 0.3025000004171E+00 -0.4039824684257E+01  0.0000000000000E+00
 0.3025000005561E+00 -0.3966307217550E+01  0.0000000000000E+00
 0.3025000006952E+00 -0.3892789747717E+01  0.0000000000000E+00
 0.3025000008342E+00 -0.3819272288128E+01  0.0000000000000E+00
 0.3025000009732E+00 -0.3745754823288E+01  0.0000000000000E+00
 0.3025000011123E+00 -0.3672237366228E+01  0.0000000000000E+00
 0.3025000012513E+00 -0.3598719903615E+01  0.0000000000000E+00
 0.3025000013904E+00 -0.3525202280347E+01  0.0000000000000E+00
 0.3025000015294E+00 -0.3451684819509E+01  0.0000000000000E+00
 0.3025000016684E+00 -0.3378167379303E+01  0.0000000000000E+00
 0.3025000018075E+00 -0.3304649961005E+01  0.0000000000000E+00
 0.3025000019465E+00 -0.3231132803084E+01  0.0000000000000E+00
 0.3025000020855E+00 -0.3157615389387E+01  0.0000000000000E+00
 0.3025009282853E+00 -0.3084098002567E+01  0.0000000000000E+00
 0.3025449497874E+00 -0.3010580866809E+01  0.0000000000000E+00
 0.3027150725343E+00 -0.2937066271891E+01  0.0000000000000E+00
 0.3030565200446E+00 -0.2863559587695E+01  0.0000000000000E+00
 0.3035806526148E+00 -0.2790067100603E+01  0.0000000000000E+00
 0.3042837048674E+00 -0.2716594812945E+01  0.0000000000000E+00
 0.3051582815951E+00 -0.2643146234864E+01  0.0000000000000E+00
 0.3061983010151E+00 -0.2569726064901E+01  0.0000000000000E+00
 0.3074009806125E+00 -0.2496339061666E+01  0.0000000000000E+00
 0.3087678773292E+00 -0.2422989996067E+01  0.0000000000000E+00
 0.3103059684062E+00 -0.2349685803918E+01  0.0000000000000E+00
 0.3120288244010E+00 -0.2276436016165E+01  0.0000000000000E+00
 0.3139428043693E+00 -0.2203248992725E+01  0.0000000000000E+00
 0.3160455883984E+00 -0.2130130513309E+01  0.0000000000000E+00
 0.3183403212697E+00 -0.2057088440583E+01  0.0000000000000E+00
 0.3208363007074E+00 -0.1984133466365E+01  0.0000000000000E+00
 0.3235495709029E+00 -0.1911281600769E+01  0.0000000000000E+00
 0.3265038789592E+00 -0.1838554023784E+01  0.0000000000000E+00
 0.3297302410959E+00 -0.1765979519672E+01  0.0000000000000E+00
 0.3332586608731E+00 -0.1693591126068E+01  0.0000000000000E+00
 0.3370782553027E+00 -0.1621398208056E+01  0.0000000000000E+00
 0.3410370753072E+00 -0.1549304059579E+01  0.0000000000000E+00
 0.3449765810495E+00 -0.1477195909042E+01  0.0000000000000E+00
 0.3488419912778E+00 -0.1405034780453E+01  0.0000000000000E+00
 0.3525712158742E+00 -0.1332779095967E+01  0.0000000000000E+00
 0.3300000001390E+00 -0.4186859601281E+01  0.0000000000000E+00
 0.3300000002781E+00 -0.4113342086429E+01  0.0000000000000E+00
 0.3300000004171E+00 -0.4039824684257E+01  0.0000000000000E+00
 0.3300000005561E+00 -0.3966307217550E+01  0.0000000000000E+00
 0.3300000006952E+00 -0.3892789747717E+01  0.0000000000000E+00
 0.3300000008342E+00 -0.3819272288128E+01  0.0000000000000E+00
 0.3300000009732E+00 -0.3745754823288E+01  0.0000000000000E+00
 0.3300000011123E+00 -0.3672237366228E+01  0.0000000000000E+00
 0.3300000012513E+00 -0.3598719903615E+01  0.0000000000000E+00
 0.3300000013904E+00 -0.3525202280347E+01  0.0000000000000E+00
 0.3300000015294E+00 -0.3451684819509E+01  0.0000000000000E+00
 0.3300000016684E+00 -0.3378167379303E+01  0.0000000000000E+00
 0.3300000018075E+00 -0.3304649961005E+01  0.0000000000000E+00
 0.3300000019465E+00 -0.3231132803084E+01  0.0000000000000E+00
 0.3300000020855E+00 -0.3157615389387E+01  0.0000000000000E+00
 0.3300010124726E+00 -0.3084098002567E+01  0.0000000000000E+00
 0.3300490359168E+00 -0.3010580866809E+01  0.0000000000000E+00
 0.3302346243551E+00 -0.2937066271891E+01  0.0000000000000E+00
 0.3306071125352E+00 -0.2863559587695E+01  0.0000000000000E+00
 0.3311788935078E+00 -0.2790067100603E+01  0.0000000000000E+00
 0.3319458595883E+00 -0.2716594812945E+01  0.0000000000000E+00
 0.3328999432778E+00 -0.2643146234864E+01  0.0000000000000E+00
 0.3340345099043E+00 -0.2569726064901E+01  0.0000000000000E+00
 0.3353465239969E+00 -0.2496339061666E+01  0.0000000000000E+00
 0.3368376840377E+00 -0.2422989996067E+01  0.0000000000000E+00
 0.3385156015623E+00 -0.2349685803918E+01  0.0000000000000E+00
 0.3403950808153E+00 -0.2276436016165E+01  0.0000000000000E+00
 0.3424830589484E+00 -0.2203248992725E+01  0.0000000000000E+00
 0.3447770051475E+00 -0.2130130513309E+01  0.0000000000000E+00
 0.3472803500835E+00 -0.2057088440583E+01  0.0000000000000E+00
 0.3500032367282E+00 -0.1984133466365E+01  0.0000000000000E+00
 0.3529631678358E+00 -0.1911281600768E+01  0.0000000000000E+00
 0.3561860493367E+00 -0.1838554023784E+01  0.0000000000000E+00
 0.3597057171070E+00 -0.1765979519672E+01  0.0000000000000E+00
 0.3635549023030E+00 -0.1693591126068E+01  0.0000000000000E+00
 0.3677217325740E+00 -0.1621398208056E+01  0.0000000000000E+00
 0.3720404452903E+00 -0.1549304059579E+01  0.0000000000000E+00
 0.3763380879022E+00 -0.1477195909042E+01  0.0000000000000E+00
 0.3805548990440E+00 -0.1405034780453E+01  0.0000000000000E+00
 0.3846231440420E+00 -0.1332779095967E+01  0.0000000000000E+00
 0.3575000001390E+00 -0.4186859601281E+01  0.0000000000000E+00
 0.3575000002781E+00 -0.4113342086429E+01  0.0000000000000E+00
 0.3575000004171E+00 -0.4039824684257E+01  0.0000000000000E+00
 0.3575000005561E+00 -0.3966307217550E+01  0.0000000000000E+00
 0.3575000006952E+00 -0.3892789747717E+01  0.0000000000000E+00
 0.3575000008342E+00 -0.3819272288128E+01  0.0000000000000E+00
 0.3575000009732E+00 -0.3745754823288E+01  0.0000000000000E+00
 0.3575000011123E+00 -0.3672237366228E+01  0.0000000000000E+00
 0.3575000012513E+00 -0.3598719903615E+01  0.0000000000000E+00
 0.3575000013904E+00 -0.3525202280347E+01  0.0000000000000E+00
 0.3575000015294E+00 -0.3451684819509E+01  0.0000000000000E+00
 0.3575000016684E+00 -0.3378167379303E+01  0.0000000000000E+00
 0.3575000018075E+00 -0.3304649961005E+01  0.0000000000000E+00
 0.3575000019465E+00 -0.3231132803084E+01  0.0000000000000E+00
 0.3575000020855E+00 -0.3157615389387E+01  0.0000000000000E+00
 0.3575010966599E+00 -0.3084098002567E+01  0.0000000000000E+00
 0.3575531220462E+00 -0.3010580866809E+01  0.0000000000000E+00
 0.3577541761760E+00 -0.2937066271891E+01  0.0000000000000E+00
 0.3581577050259E+00 -0.2863559587695E+01  0.0000000000000E+00
 0.3587771344008E+00 -0.2790067100603E+01  0.0000000000000E+00
 0.3596080143092E+00 -0.2716594812945E+01  0.0000000000000E+00
 0.3606416049605E+00 -0.2643146234864E+01  0.0000000000000E+00
 0.3618707187935E+00 -0.2569726064901E+01  0.0000000000000E+00
 0.3632920673813E+00 -0.2496339061666E+01  0.0000000000000E+00
 0.3649074907461E+00 -0.2422989996067E+01  0.0000000000000E+00
 0.3667252347185E+00 -0.2349685803918E+01  0.0000000000000E+00
 0.3687613372296E+00 -0.2276436016165E+01  0.0000000000000E+00
 0.3710233135274E+00 -0.2203248992725E+01  0.0000000000000E+00
 0.3735084218966E+00 -0.2130130513309E+01  0.0000000000000E+00
 0.3762203788973E+00 -0.2057088440583E+01  0.0000000000000E+00
 0.3791701727490E+00 -0.1984133466365E+01  0.0000000000000E+00
 0.3823767647686E+00 -0.1911281600768E+01  0.0000000000000E+00
 0.3858682197142E+00 -0.1838554023784E+01  0.0000000000000E+00
 0.3896811931180E+00 -0.1765979519672E+01  0.0000000000000E+00
 0.3938511437328E+00 -0.1693591126067E+01  0.0000000000000E+00
 0.3983652098454E+00 -0.1621398208056E+01  0.0000000000000E+00
 0.4030438152733E+00 -0.1549304059579E+01  0.0000000000000E+00
 0.4076995947548E+00 -0.1477195909042E+01  0.0000000000000E+00
 0.4122678068103E+00 -0.1405034780453E+01  0.0000000000000E+00
 0.4166750722097E+00 -0.1332779095967E+01  0.0000000000000E+00
 0.3850000001390E+00 -0.4186859601281E+01  0.0000000000000E+00
 0.3850000002781E+00 -0.4113342086429E+01  0.0000000000000E+00
 0.3850000004171E+00 -0.4039824684257E+01  0.0000000000000E+00
 0.3850000005561E+00 -0.3966307217550E+01  0.0000000000000E+00
 0.3850000006952E+00 -0.3892789747717E+01  0.0000000000000E+00
 0.3850000008342E+00 -0.3819272288128E+01  0.0000000000000E+00
 0.3850000009732E+00 -0.3745754823288E+01  0.0000000000000E+00
 0.3850000011123E+00 -0.3672237366228E+01  0.0000000000000E+00
 0.3850000012513E+00 -0.3598719903615E+01  0.0000000000000E+00
 0.3850000013904E+00 -0.3525202280347E+01  0.0000000000000E+00
 0.3850000015294E+00 -0.3451684819509E+01  0.0000000000000E+00
 0.3850000016684E+00 -0.3378167379303E+01  0.0000000000000E+00
 0.3850000018075E+00 -0.3304649961005E+01  0.0000000000000E+00
 0.3850000019465E+00 -0.3231132803084E+01  0.0000000000000E+00
 0.3850000020855E+00 -0.3157615389387E+01  0.0000000000000E+00
 0.3850011808473E+00 -0.3084098002567E+01  0.0000000000000E+00
 0.3850572081756E+00 -0.3010580866809E+01  0.0000000000000E+00
 0.3852737279968E+00 -0.2937066271891E+01  0.0000000000000E+00
 0.3857082975166E+00 -0.2863559587695E+01  0.0000000000000E+00
 0.3863753752939E+00 -0.2790067100603E+01  0.0000000000000E+00
 0.3872701690301E+00 -0.2716594812945E+01  0.0000000000000E+00
 0.3883832666433E+00 -0.2643146234864E+01  0.0000000000000E+00
 0.3897069276828E+00 -0.2569726064901E+01  0.0000000000000E+00
 0.3912376107657E+00 -0.2496339061666E+01  0.0000000000000E+00
 0.3929772974546E+00 -0.2422989996067E+01  0.0000000000000E+00
 0.3949348678746E+00 -0.2349685803918E+01  0.0000000000000E+00
 0.3971275936439E+00 -0.2276436016165E+01  0.0000000000000E+00
 0.3995635681064E+00 -0.2203248992725E+01  0.0000000000000E+00
 0.4022398386458E+00 -0.2130130513309E+01  0.0000000000000E+00
 0.4051604077112E+00 -0.2057088440583E+01  0.0000000000000E+00
 0.4083371087698E+00 -0.1984133466365E+01  0.0000000000000E+00
 0.4117903617014E+00 -0.1911281600768E+01  0.0000000000000E+00
 0.4155503900916E+00 -0.1838554023784E+01  0.0000000000000E+00
 0.4196566691291E+00 -0.1765979519672E+01  0.0000000000000E+00
 0.4241473851627E+00 -0.1693591126067E+01  0.0000000000000E+00
 0.4290086871167E+00 -0.1621398208056E+01  0.0000000000000E+00
 0.4340471852564E+00 -0.1549304059579E+01  0.0000000000000E+00
 0.4390611016074E+00 -0.1477195909042E+01  0.0000000000000E+00
 0.4439807145765E+00 -0.1405034780453E+01  0.0000000000000E+00
 0.4487270003775E+00 -0.1332779095967E+01  0.0000000000000E+00
 0.4125000001390E+00 -0.4186859601281E+01  0.0000000000000E+00
 0.4125000002781E+00 -0.4113342086429E+01  0.0000000000000E+00
 0.4125000004171E+00 -0.4039824684257E+01  0.0000000000000E+00
 0.4125000005561E+00 -0.3966307217550E+01  0.0000000000000E+00
 0.4125000006952E+00 -0.3892789747717E+01  0.0000000000000E+00
 0.4125000008342E+00 -0.3819272288128E+01  0.0000000000000E+00
 0.4125000009732E+00 -0.3745754823288E+01  0.0000000000000E+00
 0.4125000011123E+00 -0.3672237366228E+01  0.0000000000000E+00
 0.4125000012513E+00 -0.3598719903615E+01  0.0000000000000E+00
 0.4125000013904E+00 -0.3525202280347E+01  0.0000000000000E+00
 0.4125000015294E+00 -0.3451684819509E+01  0.0000000000000E+00
 0.4125000016684E+00 -0.3378167379303E+01  0.0000000000000E+00
 0.4125000018075E+00 -0.3304649961005E+01  0.0000000000000E+00
 0.4125000019465E+00 -0.3231132803084E+01  0.0000000000000E+00
 0.4125000020855E+00 -0.3157615389387E+01  0.0000000000000E+00
 0.4125012650346E+00 -0.3084098002567E+01  0.0000000000000E+00
 0.4125612943050E+00 -0.3010580866809E+01  0.0000000000000E+00
 0.4127932798177E+00 -0.2937066271891E+01  0.0000000000000E+00
 0.4132588900072E+00 -0.2863559587694E+01  0.0000000000000E+00
 0.4139736161869E+00 -0.2790067100603E+01  0.0000000000000E+00
 0.4149323237511E+00 -0.2716594812945E+01  0.0000000000000E+00
 0.4161249283260E+00 -0.2643146234864E+01  0.0000000000000E+00
 0.4175431365720E+00 -0.2569726064901E+01  0.0000000000000E+00
 0.4191831541501E+00 -0.2496339061666E+01  0.0000000000000E+00
 0.4210471041631E+00 -0.2422989996067E+01  0.0000000000000E+00
 0.4231445010307E+00 -0.2349685803918E+01  0.0000000000000E+00
 0.4254938500582E+00 -0.2276436016165E+01  0.0000000000000E+00
 0.4281038226855E+00 -0.2203248992725E+01  0.0000000000000E+00
 0.4309712553949E+00 -0.2130130513309E+01  0.0000000000000E+00
 0.4341004365250E+00 -0.2057088440582E+01  0.0000000000000E+00
 0.4375040447906E+00 -0.1984133466365E+01  0.0000000000000E+00
 0.4412039586342E+00 -0.1911281600768E+01  0.0000000000000E+00
 0.4452325604691E+00 -0.1838554023784E+01  0.0000000000000E+00
 0.4496321451401E+00 -0.1765979519672E+01  0.0000000000000E+00
 0.4544436265925E+00 -0.1693591126067E+01  0.0000000000000E+00
 0.4596521643880E+00 -0.1621398208056E+01  0.0000000000000E+00
 0.4650505552394E+00 -0.1549304059579E+01  0.0000000000000E+00
 0.4704226084601E+00 -0.1477195909042E+01  0.0000000000000E+00
 0.4756936223427E+00 -0.1405034780453E+01  0.0000000000000E+00
 0.4807789285453E+00 -0.1332779095967E+01  0.0000000000000E+00
 0.4400000001390E+00 -0.4186859601281E+01  0.0000000000000E+00
 0.4400000002781E+00 -0.4113342086429E+01  0.0000000000000E+00
 0.4400000004171E+00 -0.4039824684257E+01  0.0000000000000E+00
 0.4400000005561E+00 -0.3966307217550E+01  0.0000000000000E+00
 0.4400000006952E+00 -0.3892789747717E+01  0.0000000000000E+00
 0.4400000008342E+00 -0.3819272288128E+01  0.0000000000000E+00
 0.4400000009732E+00 -0.3745754823288E+01  0.0000000000000E+00
 0.4400000011123E+00 -0.3672237366228E+01  0.0000000000000E+00
 0.4400000012513E+00 -0.3598719903615E+01  0.0000000000000E+00
 0.4400000013904E+00 -0.3525202280347E+01  0.0000000000000E+00
 0.4400000015294E+00 -0.3451684819509E+01  0.0000000000000E+00
 0.4400000016684E+00 -0.3378167379303E+01  0.0000000000000E+00
 0.4400000018075E+00 -0.3304649961005E+01  0.0000000000000E+00
 0.4400000019465E+00 -0.3231132803084E+01  0.0000000000000E+00
 0.4400000020855E+00 -0.3157615389387E+01  0.0000000000000E+00
 0.4400013492219E+00 -0.3084098002567E+01  0.0000000000000E+00
 0.4400653804344E+00 -0.3010580866809E+01  0.0000000000000E+00
 0.4403128316385E+00 -0.2937066271891E+01  0.0000000000000E+00
 0.4408094824979E+00 -0.2863559587694E+01  0.0000000000000E+00
 0.4415718570799E+00 -0.2790067100603E+01  0.0000000000000E+00
 0.4425944784720E+00 -0.2716594812945E+01  0.0000000000000E+00
 0.4438665900088E+00 -0.2643146234864E+01  0.0000000000000E+00
 0.4453793454612E+00 -0.2569726064901E+01  0.0000000000000E+00
 0.4471286975345E+00 -0.2496339061666E+01  0.0000000000000E+00
 0.4491169108716E+00 -0.2422989996067E+01  0.0000000000000E+00
 0.4513541341868E+00 -0.2349685803918E+01  0.0000000000000E+00
 0.4538601064725E+00 -0.2276436016165E+01  0.0000000000000E+00
 0.4566440772645E+00 -0.2203248992725E+01  0.0000000000000E+00
 0.4597026721440E+00 -0.2130130513309E+01  0.0000000000000E+00
 0.4630404653389E+00 -0.2057088440582E+01  0.0000000000000E+00
 0.4666709808114E+00 -0.1984133466365E+01  0.0000000000000E+00
 0.4706175555671E+00 -0.1911281600768E+01  0.0000000000000E+00
 0.4749147308466E+00 -0.1838554023784E+01  0.0000000000000E+00
 0.4796076211511E+00 -0.1765979519672E+01  0.0000000000000E+00
 0.4847398680223E+00 -0.1693591126067E+01  0.0000000000000E+00
 0.4902956416594E+00 -0.1621398208056E+01  0.0000000000000E+00
 0.4960539252225E+00 -0.1549304059579E+01  0.0000000000000E+00
 0.5017841153127E+00 -0.1477195909042E+01  0.0000000000000E+00
 0.5074065301090E+00 -0.1405034780453E+01  0.0000000000000E+00
 0.5128308567130E+00 -0.1332779095967E+01  0.0000000000000E+00
 0.4675000001390E+00 -0.4186859601281E+01  0.0000000000000E+00
 0.4675000002781E+00 -0.4113342086429E+01  0.0000000000000E+00
 0.4675000004171E+00 -0.4039824684257E+01  0.0000000000000E+00
 0.4675000005561E+00 -0.3966307217550E+01  0.0000000000000E+00
 0.4675000006952E+00 -0.3892789747717E+01  0.0000000000000E+00
 0.4675000008342E+00 -0.3819272288128E+01  0.0000000000000E+00
 0.4675000009732E+00 -0.3745754823288E+01  0.0000000000000E+00
 0.4675000011123E+00 -0.3672237366228E+01  0.0000000000000E+00
 0.4675000012513E+00 -0.3598719903615E+01  0.0000000000000E+00
 0.4675000013904E+00 -0.3525202280347E+01  0.0000000000000E+00
 0.4675000015294E+00 -0.3451684819509E+01  0.0000000000000E+00
 0.4675000016684E+00 -0.3378167379303E+01  0.0000000000000E+00
 0.4675000018075E+00 -0.3304649961005E+01  0.0000000000000E+00
 0.4675000019465E+00 -0.3231132803084E+01  0.0000000000000E+00
 0.4675000020855E+00 -0.3157615389387E+01  0.0000000000000E+00
 0.4675014334093E+00 -0.3084098002567E+01  0.0000000000000E+00
 0.4675694665638E+00 -0.3010580866809E+01  0.0000000000000E+00
 0.4678323834594E+00 -0.2937066271891E+01  0.0000000000000E+00
 0.4683600749885E+00 -0.2863559587694E+01  0.0000000000000E+00
 0.4691700979729E+00 -0.2790067100603E+01  0.0000000000000E+00
 0.4702566331929E+00 -0.2716594812945E+01  0.0000000000000E+00
 0.4716082516915E+00 -0.2643146234864E+01  0.0000000000000E+00
 0.4732155543504E+00 -0.2569726064901E+01  0.0000000000000E+00
 0.4750742409189E+00 -0.2496339061666E+01  0.0000000000000E+00
 0.4771867175801E+00 -0.2422989996067E+01  0.0000000000000E+00
 0.4795637673429E+00 -0.2349685803918E+01  0.0000000000000E+00
 0.4822263628868E+00 -0.2276436016165E+01  0.0000000000000E+00
 0.4851843318435E+00 -0.2203248992725E+01  0.0000000000000E+00
 0.4884340888932E+00 -0.2130130513309E+01  0.0000000000000E+00
 0.4919804941527E+00 -0.2057088440582E+01  0.0000000000000E+00
 0.4958379168322E+00 -0.1984133466365E+01  0.0000000000000E+00
 0.5000311524999E+00 -0.1911281600768E+01  0.0000000000000E+00
 0.5045969012241E+00 -0.1838554023784E+01  0.0000000000000E+00
 0.5095830971622E+00 -0.1765979519672E+01  0.0000000000000E+00
 0.5150361094522E+00 -0.1693591126067E+01  0.0000000000000E+00
 0.5209391189307E+00 -0.1621398208056E+01  0.0000000000000E+00
 0.5270572952056E+00 -0.1549304059579E+01  0.0000000000000E+00
 0.5331456221654E+00 -0.1477195909042E+01  0.0000000000000E+00
 0.5391194378752E+00 -0.1405034780453E+01  0.0000000000000E+00
 0.5448827848808E+00 -0.1332779095967E+01  0.0000000000000E+00
 0.4950000001390E+00 -0.4186859601281E+01  0.0000000000000E+00
 0.4950000002781E+00 -0.4113342086429E+01  0.0000000000000E+00
 0.4950000004171E+00 -0.4039824684257E+01  0.0000000000000E+00
 0.4950000005561E+00 -0.3966307217550E+01  0.0000000000000E+00
 0.4950000006952E+00 -0.3892789747717E+01  0.0000000000000E+00
 0.4950000008342E+00 -0.3819272288128E+01  0.0000000000000E+00
 0.4950000009732E+00 -0.3745754823288E+01  0.0000000000000E+00
 0.4950000011123E+00 -0.3672237366228E+01  0.0000000000000E+00
 0.4950000012513E+00 -0.3598719903615E+01  0.0000000000000E+00
 0.4950000013904E+00 -0.3525202280347E+01  0.0000000000000E+00
 0.4950000015294E+00 -0.3451684819509E+01  0.0000000000000E+00
 0.4950000016684E+00 -0.3378167379303E+01  0.0000000000000E+00
 0.4950000018075E+00 -0.3304649961005E+01  0.0000000000000E+00
 0.4950000019465E+00 -0.3231132803084E+01  0.0000000000000E+00
 0.4950000020855E+00 -0.3157615389387E+01  0.0000000000000E+00
 0.4950015175966E+00 -0.3084098002567E+01  0.0000000000000E+00
 0.4950735526932E+00 -0.3010580866809E+01  0.0000000000000E+00
 0.4953519352803E+00 -0.2937066271891E+01  0.0000000000000E+00
 0.4959106674792E+00 -0.2863559587694E+01  0.0000000000000E+00
 0.4967683388660E+00 -0.2790067100603E+01  0.0000000000000E+00
 0.4979187879138E+00 -0.2716594812945E+01  0.0000000000000E+00
 0.4993499133743E+00 -0.2643146234864E+01  0.0000000000000E+00
 0.5010517632396E+00 -0.2569726064901E+01  0.0000000000000E+00
 0.5030197843033E+00 -0.2496339061666E+01  0.0000000000000E+00
 0.5052565242886E+00 -0.2422989996067E+01  0.0000000000000E+00
 0.5077734004990E+00 -0.2349685803918E+01  0.0000000000000E+00
 0.5105926193011E+00 -0.2276436016165E+01  0.0000000000000E+00
 0.5137245864225E+00 -0.2203248992725E+01  0.0000000000000E+00
 0.5171655056423E+00 -0.2130130513309E+01  0.0000000000000E+00
 0.5209205229665E+00 -0.2057088440582E+01  0.0000000000000E+00
 0.5250048528530E+00 -0.1984133466365E+01  0.0000000000000E+00
 0.5294447494327E+00 -0.1911281600768E+01  0.0000000000000E+00
 0.5342790716015E+00 -0.1838554023784E+01  0.0000000000000E+00
 0.5395585731732E+00 -0.1765979519672E+01  0.0000000000000E+00
 0.5453323508820E+00 -0.1693591126067E+01  0.0000000000000E+00
 0.5515825962021E+00 -0.1621398208056E+01  0.0000000000000E+00
 0.5580606651886E+00 -0.1549304059579E+01  0.0000000000000E+00
 0.5645071290180E+00 -0.1477195909042E+01  0.0000000000000E+00
 0.5708323456415E+00 -0.1405034780453E+01  0.0000000000000E+00
 0.5769347130485E+00 -0.1332779095967E+01  0.0000000000000E+00
 0.5225000001390E+00 -0.4186859601281E+01  0.0000000000000E+00
 0.5225000002781E+00 -0.4113342086429E+01  0.0000000000000E+00
 0.5225000004171E+00 -0.4039824684257E+01  0.0000000000000E+00
 0.5225000005561E+00 -0.3966307217550E+01  0.0000000000000E+00
 0.5225000006952E+00 -0.3892789747717E+01  0.0000000000000E+00
 0.5225000008342E+00 -0.3819272288128E+01  0.0000000000000E+00
 0.5225000009732E+00 -0.3745754823288E+01  0.0000000000000E+00
 0.5225000011123E+00 -0.3672237366228E+01  0.0000000000000E+00
 0.5225000012513E+00 -0.3598719903615E+01  0.0000000000000E+00
 0.5225000013904E+00 -0.3525202280347E+01  0.0000000000000E+00
 0.5225000015294E+00 -0.3451684819509E+01  0.0000000000000E+00
 0.5225000016684E+00 -0.3378167379303E+01  0.0000000000000E+00
 0.5225000018075E+00 -0.3304649961005E+01  0.0000000000000E+00
 0.5225000019465E+00 -0.3231132803084E+01  0.0000000000000E+00
 0.5225000020855E+00 -0.3157615389387E+01  0.0000000000000E+00
 0.5225016017839E+00 -0.3084098002567E+01  0.0000000000000E+00
 0.5225776388225E+00 -0.3010580866809E+01  0.0000000000000E+00
 0.5228714871011E+00 -0.2937066271891E+01  0.0000000000000E+00
 0.5234612599699E+00 -0.2863559587694E+01  0.0000000000000E+00
 0.5243665797590E+00 -0.2790067100603E+01  0.0000000000000E+00
 0.5255809426347E+00 -0.2716594812945E+01  0.0000000000000E+00
 0.5270915750570E+00 -0.2643146234864E+01  0.0000000000000E+00
 0.5288879721288E+00 -0.2569726064901E+01  0.0000000000000E+00
 0.5309653276877E+00 -0.2496339061666E+01  0.0000000000000E+00
 0.5333263309971E+00 -0.2422989996067E+01  0.0000000000000E+00
 0.5359830336551E+00 -0.2349685803918E+01  0.0000000000000E+00
 0.5389588757154E+00 -0.2276436016165E+01  0.0000000000000E+00
 0.5422648410016E+00 -0.2203248992725E+01  0.0000000000000E+00
 0.5458969223914E+00 -0.2130130513309E+01  0.0000000000000E+00
 0.5498605517804E+00 -0.2057088440582E+01  0.0000000000000E+00
 0.5541717888738E+00 -0.1984133466365E+01  0.0000000000000E+00
 0.5588583463656E+00 -0.1911281600768E+01  0.0000000000000E+00
 0.5639612419790E+00 -0.1838554023784E+01  0.0000000000000E+00
 0.5695340491842E+00 -0.1765979519672E+01  0.0000000000000E+00
 0.5756285923119E+00 -0.1693591126067E+01  0.0000000000000E+00
 0.5822260734734E+00 -0.1621398208055E+01  0.0000000000000E+00
 0.5890640351717E+00 -0.1549304059579E+01  0.0000000000000E+00
 0.5958686358706E+00 -0.1477195909042E+01  0.0000000000000E+00
 0.6025452534077E+00 -0.1405034780453E+01  0.0000000000000E+00
 0.6089866412163E+00 -0.1332779095967E+01  0.0000000000000E+00
 0.5500000001390E+00 -0.4186859601281E+01  0.0000000000000E+00
 0.5500000002781E+00 -0.4113342086429E+01  0.0000000000000E+00
 0.5500000004171E+00 -0.4039824684257E+01  0.0000000000000E+00
 0.5500000005561E+00 -0.3966307217550E+01  0.0000000000000E+00
 0.5500000006952E+00 -0.3892789747717E+01  0.0000000000000E+00
 0.5500000008342E+00 -0.3819272288128E+01  0.0000000000000E+00
 0.5500000009732E+00 -0.3745754823288E+01  0.0000000000000E+00
 0.5500000011123E+00 -0.3672237366228E+01  0.0000000000000E+00
 0.5500000012513E+00 -0.3598719903615E+01  0.0000000000000E+00
 0.5500000013904E+00 -0.3525202280347E+01  0.0000000000000E+00
 0.5500000015294E+00 -0.3451684819509E+01  0.0000000000000E+00
 0.5500000016684E+00 -0.3378167379303E+01  0.0000000000000E+00
 0.5500000018075E+00 -0.3304649961005E+01  0.0000000000000E+00
 0.5500000019465E+00 -0.3231132803084E+01  0.0000000000000E+00
 0.5500000020855E+00 -0.3157615389387E+01  0.0000000000000E+00
 0.5500016859713E+00 -0.3084098002567E+01  0.0000000000000E+00
 0.5500817249519E+00 -0.3010580866809E+01  0.0000000000000E+00
 0.5503910389220E+00 -0.2937066271891E+01  0.0000000000000E+00
 0.5510118524605E+00 -0.2863559587694E+01  0.0000000000000E+00
 0.5519648206520E+00 -0.2790067100603E+01  0.0000000000000E+00
 0.5532430973556E+00 -0.2716594812945E+01  0.0000000000000E+00
 0.5548332367398E+00 -0.2643146234864E+01  0.0000000000000E+00
 0.5567241810181E+00 -0.2569726064901E+01  0.0000000000000E+00
 0.5589108710721E+00 -0.2496339061666E+01  0.0000000000000E+00
 0.5613961377056E+00 -0.2422989996067E+01  0.0000000000000E+00
 0.5641926668113E+00 -0.2349685803918E+01  0.0000000000000E+00
 0.5673251321297E+00 -0.2276436016165E+01  0.0000000000000E+00
 0.5708050955806E+00 -0.2203248992725E+01  0.0000000000000E+00
 0.5746283391406E+00 -0.2130130513309E+01  0.0000000000000E+00
 0.5788005805942E+00 -0.2057088440582E+01  0.0000000000000E+00
 0.5833387248945E+00 -0.1984133466365E+01  0.0000000000000E+00
 0.5882719432984E+00 -0.1911281600768E+01  0.0000000000000E+00
 0.5936434123565E+00 -0.1838554023784E+01  0.0000000000000E+00
 0.5995095251953E+00 -0.1765979519672E+01  0.0000000000000E+00
 0.6059248337417E+00 -0.1693591126067E+01  0.0000000000000E+00
 0.6128695507447E+00 -0.1621398208055E+01  0.0000000000000E+00
 0.6200674051547E+00 -0.1549304059578E+01  0.0000000000000E+00
 0.6272301427233E+00 -0.1477195909042E+01  0.0000000000000E+00
 0.6342581611739E+00 -0.1405034780452E+01  0.0000000000000E+00
 0.6410385693841E+00 -0.1332779095967E+01  0.0000000000000E+00
 0.5775000001321E+00 -0.4186859601281E+01  0.0000000000000E+00
 0.5775000002642E+00 -0.4113342086429E+01  0.0000000000000E+00
 0.5775000003963E+00 -0.4039824684257E+01  0.0000000000000E+00
 0.5775000005283E+00 -0.3966307217550E+01  0.0000000000000E+00
 0.5775000006604E+00 -0.3892789747717E+01  0.0000000000000E+00
 0.5775000007925E+00 -0.3819272288128E+01  0.0000000000000E+00
 0.5775000009246E+00 -0.3745754823288E+01  0.0000000000000E+00
 0.5775000010567E+00 -0.3672237366228E+01  0.0000000000000E+00
 0.5775000011888E+00 -0.3598719903615E+01  0.0000000000000E+00
 0.5775000013208E+00 -0.3525202280347E+01  0.0000000000000E+00
 0.5775000014529E+00 -0.3451684819509E+01  0.0000000000000E+00
 0.5775000015850E+00 -0.3378167379303E+01  0.0000000000000E+00
 0.5775000017171E+00 -0.3304649961005E+01  0.0000000000000E+00
 0.5775000018492E+00 -0.3231132803084E+01  0.0000000000000E+00
 0.5775000019813E+00 -0.3157615389387E+01  0.0000000000000E+00
 0.5775017700474E+00 -0.3084098002567E+01  0.0000000000000E+00
 0.5775858109631E+00 -0.3010580866809E+01  0.0000000000000E+00
 0.5779105906176E+00 -0.2937066271891E+01  0.0000000000000E+00
 0.5785624448188E+00 -0.2863559587694E+01  0.0000000000000E+00
 0.5795630614055E+00 -0.2790067100603E+01  0.0000000000000E+00
 0.5809052519297E+00 -0.2716594812945E+01  0.0000000000000E+00
 0.5825748982683E+00 -0.2643146234864E+01  0.0000000000000E+00
 0.5845603897456E+00 -0.2569726064901E+01  0.0000000000000E+00
 0.5868564142874E+00 -0.2496339061666E+01  0.0000000000000E+00
 0.5894659442373E+00 -0.2422989996067E+01  0.0000000000000E+00
 0.5924022997829E+00 -0.2349685803918E+01  0.0000000000000E+00
 0.5956913883518E+00 -0.2276436016165E+01  0.0000000000000E+00
 0.5993453499596E+00 -0.2203248992725E+01  0.0000000000000E+00
 0.6033597556817E+00 -0.2130130513309E+01  0.0000000000000E+00
 0.6077406091920E+00 -0.2057088440582E+01  0.0000000000000E+00
 0.6125056606912E+00 -0.1984133466365E+01  0.0000000000000E+00
 0.6176855399988E+00 -0.1911281600768E+01  0.0000000000000E+00
 0.6233255824932E+00 -0.1838554023784E+01  0.0000000000000E+00
 0.6294850009571E+00 -0.1765979519672E+01  0.0000000000000E+00
 0.6362210749138E+00 -0.1693591126067E+01  0.0000000000000E+00
 0.6435130277495E+00 -0.1621398208055E+01  0.0000000000000E+00
 0.6510707748624E+00 -0.1549304059578E+01  0.0000000000000E+00
 0.6585916492917E+00 -0.1477195909042E+01  0.0000000000000E+00
 0.6659710686472E+00 -0.1405034780452E+01  0.0000000000000E+00
 0.6730904972502E+00 -0.1332779095967E+01  0.0000000000000E+00
 0.6050000001251E+00 -0.4186859601281E+01  0.0000000000000E+00
 0.6050000002503E+00 -0.4113342086429E+01  0.0000000000000E+00
 0.6050000003754E+00 -0.4039824684257E+01  0.0000000000000E+00
 0.6050000005005E+00 -0.3966307217550E+01  0.0000000000000E+00
 0.6050000006257E+00 -0.3892789747717E+01  0.0000000000000E+00
 0.6050000007508E+00 -0.3819272288128E+01  0.0000000000000E+00
 0.6050000008759E+00 -0.3745754823288E+01  0.0000000000000E+00
 0.6050000010011E+00 -0.3672237366228E+01  0.0000000000000E+00
 0.6050000011262E+00 -0.3598719903615E+01  0.0000000000000E+00
 0.6050000012513E+00 -0.3525202280347E+01  0.0000000000000E+00
 0.6050000013765E+00 -0.3451684819509E+01  0.0000000000000E+00
 0.6050000015016E+00 -0.3378167379303E+01  0.0000000000000E+00
 0.6050000016267E+00 -0.3304649961005E+01  0.0000000000000E+00
 0.6050000017518E+00 -0.3231132803084E+01  0.0000000000000E+00
 0.6050000018770E+00 -0.3157615389387E+01  0.0000000000000E+00
 0.6050018541235E+00 -0.3084098002567E+01  0.0000000000000E+00
 0.6050898969743E+00 -0.3010580866809E+01  0.0000000000000E+00
 0.6054301423132E+00 -0.2937066271891E+01  0.0000000000000E+00
 0.6061130371772E+00 -0.2863559587694E+01  0.0000000000000E+00
 0.6071613021590E+00 -0.2790067100603E+01  0.0000000000000E+00
 0.6085674065038E+00 -0.2716594812945E+01  0.0000000000000E+00
 0.6103165597969E+00 -0.2643146234864E+01  0.0000000000000E+00
 0.6123965984732E+00 -0.2569726064901E+01  0.0000000000000E+00
 0.6148019575026E+00 -0.2496339061666E+01  0.0000000000000E+00
 0.6175357507690E+00 -0.2422989996067E+01  0.0000000000000E+00
 0.6206119327546E+00 -0.2349685803918E+01  0.0000000000000E+00
 0.6240576445739E+00 -0.2276436016165E+01  0.0000000000000E+00
 0.6278856043386E+00 -0.2203248992725E+01  0.0000000000000E+00
 0.6320911722229E+00 -0.2130130513309E+01  0.0000000000000E+00
 0.6366806377898E+00 -0.2057088440582E+01  0.0000000000000E+00
 0.6416725964878E+00 -0.1984133466364E+01  0.0000000000000E+00
 0.6470991366993E+00 -0.1911281600768E+01  0.0000000000000E+00
 0.6530077526300E+00 -0.1838554023784E+01  0.0000000000000E+00
 0.6594604767190E+00 -0.1765979519672E+01  0.0000000000000E+00
 0.6665173160858E+00 -0.1693591126067E+01  0.0000000000000E+00
 0.6741565047543E+00 -0.1621398208055E+01  0.0000000000000E+00
 0.6820741445701E+00 -0.1549304059578E+01  0.0000000000000E+00
 0.6899531558602E+00 -0.1477195909042E+01  0.0000000000000E+00
 0.6976839761205E+00 -0.1405034780452E+01  0.0000000000000E+00
 0.7051424251163E+00 -0.1332779095967E+01  0.0000000000000E+00
 0.6325000001182E+00 -0.4186859601281E+01  0.0000000000000E+00
 0.6325000002364E+00 -0.4113342086429E+01  0.0000000000000E+00
 0.6325000003545E+00 -0.4039824684257E+01  0.0000000000000E+00
 0.6325000004727E+00 -0.3966307217550E+01  0.0000000000000E+00
 0.6325000005909E+00 -0.3892789747717E+01  0.0000000000000E+00
 0.6325000007091E+00 -0.3819272288128E+01  0.0000000000000E+00
 0.6325000008273E+00 -0.3745754823288E+01  0.0000000000000E+00
 0.6325000009454E+00 -0.3672237366228E+01  0.0000000000000E+00
 0.6325000010636E+00 -0.3598719903615E+01  0.0000000000000E+00
 0.6325000011818E+00 -0.3525202280347E+01  0.0000000000000E+00
 0.6325000013000E+00 -0.3451684819509E+01  0.0000000000000E+00
 0.6325000014182E+00 -0.3378167379303E+01  0.0000000000000E+00
 0.6325000015363E+00 -0.3304649961005E+01  0.0000000000000E+00
 0.6325000016545E+00 -0.3231132803084E+01  0.0000000000000E+00
 0.6325000017727E+00 -0.3157615389387E+01  0.0000000000000E+00
 0.6325019381996E+00 -0.3084098002567E+01  0.0000000000000E+00
 0.6325939829855E+00 -0.3010580866809E+01  0.0000000000000E+00
 0.6329496940088E+00 -0.2937066271891E+01  0.0000000000000E+00
 0.6336636295355E+00 -0.2863559587694E+01  0.0000000000000E+00
 0.6347595429125E+00 -0.2790067100603E+01  0.0000000000000E+00
 0.6362295610779E+00 -0.2716594812945E+01  0.0000000000000E+00
 0.6380582213255E+00 -0.2643146234864E+01  0.0000000000000E+00
 0.6402328072008E+00 -0.2569726064901E+01  0.0000000000000E+00
 0.6427475007179E+00 -0.2496339061666E+01  0.0000000000000E+00
 0.6456055573008E+00 -0.2422989996067E+01  0.0000000000000E+00
 0.6488215657263E+00 -0.2349685803918E+01  0.0000000000000E+00
 0.6524239007960E+00 -0.2276436016165E+01  0.0000000000000E+00
 0.6564258587176E+00 -0.2203248992725E+01  0.0000000000000E+00
 0.6608225887640E+00 -0.2130130513309E+01  0.0000000000000E+00
 0.6656206663877E+00 -0.2057088440582E+01  0.0000000000000E+00
 0.6708395322845E+00 -0.1984133466364E+01  0.0000000000000E+00
 0.6765127333998E+00 -0.1911281600768E+01  0.0000000000000E+00
 0.6826899227668E+00 -0.1838554023784E+01  0.0000000000000E+00
 0.6894359524808E+00 -0.1765979519672E+01  0.0000000000000E+00
 0.6968135572579E+00 -0.1693591126067E+01  0.0000000000000E+00
 0.7047999817591E+00 -0.1621398208055E+01  0.0000000000000E+00
 0.7130775142778E+00 -0.1549304059578E+01  0.0000000000000E+00
 0.7213146624286E+00 -0.1477195909042E+01  0.0000000000000E+00
 0.7293968835938E+00 -0.1405034780452E+01  0.0000000000000E+00
 0.7371943529824E+00 -0.1332779095967E+01  0.0000000000000E+00
 0.6600000001112E+00 -0.4186859601281E+01  0.0000000000000E+00
 0.6600000002225E+00 -0.4113342086429E+01  0.0000000000000E+00
 0.6600000003337E+00 -0.4039824684257E+01  0.0000000000000E+00
 0.6600000004449E+00 -0.3966307217550E+01  0.0000000000000E+00
 0.6600000005561E+00 -0.3892789747717E+01  0.0000000000000E+00
 0.6600000006674E+00 -0.3819272288128E+01  0.0000000000000E+00
 0.6600000007786E+00 -0.3745754823288E+01  0.0000000000000E+00
 0.6600000008898E+00 -0.3672237366228E+01  0.0000000000000E+00
 0.6600000010011E+00 -0.3598719903615E+01  0.0000000000000E+00
 0.6600000011123E+00 -0.3525202280347E+01  0.0000000000000E+00
 0.6600000012235E+00 -0.3451684819509E+01  0.0000000000000E+00
 0.6600000013347E+00 -0.3378167379303E+01  0.0000000000000E+00
 0.6600000014460E+00 -0.3304649961005E+01  0.0000000000000E+00
 0.6600000015572E+00 -0.3231132803084E+01  0.0000000000000E+00
 0.6600000016684E+00 -0.3157615389387E+01  0.0000000000000E+00
 0.6600020222757E+00 -0.3084098002567E+01  0.0000000000000E+00
 0.6600980689967E+00 -0.3010580866809E+01  0.0000000000000E+00
 0.6604692457045E+00 -0.2937066271891E+01  0.0000000000000E+00
 0.6612142218938E+00 -0.2863559587694E+01  0.0000000000000E+00
 0.6623577836659E+00 -0.2790067100603E+01  0.0000000000000E+00
 0.6638917156520E+00 -0.2716594812945E+01  0.0000000000000E+00
 0.6657998828540E+00 -0.2643146234864E+01  0.0000000000000E+00
 0.6680690159284E+00 -0.2569726064901E+01  0.0000000000000E+00
 0.6706930439331E+00 -0.2496339061666E+01  0.0000000000000E+00
 0.6736753638325E+00 -0.2422989996067E+01  0.0000000000000E+00
 0.6770311986980E+00 -0.2349685803918E+01  0.0000000000000E+00
 0.6807901570181E+00 -0.2276436016165E+01  0.0000000000000E+00
 0.6849661130966E+00 -0.2203248992725E+01  0.0000000000000E+00
 0.6895540053052E+00 -0.2130130513309E+01  0.0000000000000E+00
 0.6945606949855E+00 -0.2057088440582E+01  0.0000000000000E+00
 0.7000064680811E+00 -0.1984133466364E+01  0.0000000000000E+00
 0.7059263301002E+00 -0.1911281600768E+01  0.0000000000000E+00
 0.7123720929035E+00 -0.1838554023784E+01  0.0000000000000E+00
 0.7194114282427E+00 -0.1765979519672E+01  0.0000000000000E+00
 0.7271097984299E+00 -0.1693591126067E+01  0.0000000000000E+00
 0.7354434587639E+00 -0.1621398208055E+01  0.0000000000000E+00
 0.7440808839855E+00 -0.1549304059578E+01  0.0000000000000E+00
 0.7526761689971E+00 -0.1477195909042E+01  0.0000000000000E+00
 0.7611097910671E+00 -0.1405034780452E+01  0.0000000000000E+00
 0.7692462808485E+00 -0.1332779095967E+01  0.0000000000000E+00
 0.6875000001043E+00 -0.4186859601281E+01  0.0000000000000E+00
 0.6875000002086E+00 -0.4113342086429E+01  0.0000000000000E+00
 0.6875000003128E+00 -0.4039824684257E+01  0.0000000000000E+00
 0.6875000004171E+00 -0.3966307217550E+01  0.0000000000000E+00
 0.6875000005214E+00 -0.3892789747717E+01  0.0000000000000E+00
 0.6875000006257E+00 -0.3819272288128E+01  0.0000000000000E+00
 0.6875000007299E+00 -0.3745754823288E+01  0.0000000000000E+00
 0.6875000008342E+00 -0.3672237366228E+01  0.0000000000000E+00
 0.6875000009385E+00 -0.3598719903615E+01  0.0000000000000E+00
 0.6875000010428E+00 -0.3525202280347E+01  0.0000000000000E+00
 0.6875000011470E+00 -0.3451684819509E+01  0.0000000000000E+00
 0.6875000012513E+00 -0.3378167379303E+01  0.0000000000000E+00
 0.6875000013556E+00 -0.3304649961005E+01  0.0000000000000E+00
 0.6875000014599E+00 -0.3231132803084E+01  0.0000000000000E+00
 0.6875000015641E+00 -0.3157615389387E+01  0.0000000000000E+00
 0.6875021063518E+00 -0.3084098002567E+01  0.0000000000000E+00
 0.6876021550079E+00 -0.3010580866809E+01  0.0000000000000E+00
 0.6879887974001E+00 -0.2937066271891E+01  0.0000000000000E+00
 0.6887648142521E+00 -0.2863559587694E+01  0.0000000000000E+00
 0.6899560244194E+00 -0.2790067100603E+01  0.0000000000000E+00
 0.6915538702260E+00 -0.2716594812945E+01  0.0000000000000E+00
 0.6935415443826E+00 -0.2643146234864E+01  0.0000000000000E+00
 0.6959052246560E+00 -0.2569726064901E+01  0.0000000000000E+00
 0.6986385871484E+00 -0.2496339061666E+01  0.0000000000000E+00
 0.7017451703643E+00 -0.2422989996067E+01  0.0000000000000E+00
 0.7052408316697E+00 -0.2349685803918E+01  0.0000000000000E+00
 0.7091564132403E+00 -0.2276436016165E+01  0.0000000000000E+00
 0.7135063674756E+00 -0.2203248992725E+01  0.0000000000000E+00
 0.7182854218463E+00 -0.2130130513309E+01  0.0000000000000E+00
 0.7235007235833E+00 -0.2057088440582E+01  0.0000000000000E+00
 0.7291734038778E+00 -0.1984133466364E+01  0.0000000000000E+00
 0.7353399268007E+00 -0.1911281600768E+01  0.0000000000000E+00
 0.7420542630403E+00 -0.1838554023784E+01  0.0000000000000E+00
 0.7493869040045E+00 -0.1765979519672E+01  0.0000000000000E+00
 0.7574060396020E+00 -0.1693591126067E+01  0.0000000000000E+00
 0.7660869357687E+00 -0.1621398208055E+01  0.0000000000000E+00
 0.7750842536932E+00 -0.1549304059578E+01  0.0000000000000E+00
 0.7840376755656E+00 -0.1477195909041E+01  0.0000000000000E+00
 0.7928226985404E+00 -0.1405034780452E+01  0.0000000000000E+00
 0.8012982087146E+00 -0.1332779095967E+01  0.0000000000000E+00
 0.7150000000973E+00 -0.4186859601281E+01  0.0000000000000E+00
 0.7150000001946E+00 -0.4113342086429E+01  0.0000000000000E+00
 0.7150000002920E+00 -0.4039824684257E+01  0.0000000000000E+00
 0.7150000003893E+00 -0.3966307217550E+01  0.0000000000000E+00
 0.7150000004866E+00 -0.3892789747717E+01  0.0000000000000E+00
 0.7150000005839E+00 -0.3819272288128E+01  0.0000000000000E+00
 0.7150000006813E+00 -0.3745754823288E+01  0.0000000000000E+00
 0.7150000007786E+00 -0.3672237366228E+01  0.0000000000000E+00
 0.7150000008759E+00 -0.3598719903615E+01  0.0000000000000E+00
 0.7150000009732E+00 -0.3525202280347E+01  0.0000000000000E+00
 0.7150000010706E+00 -0.3451684819509E+01  0.0000000000000E+00
 0.7150000011679E+00 -0.3378167379303E+01  0.0000000000000E+00
 0.7150000012652E+00 -0.3304649961005E+01  0.0000000000000E+00
 0.7150000013625E+00 -0.3231132803084E+01  0.0000000000000E+00
 0.7150000014599E+00 -0.3157615389387E+01  0.0000000000000E+00
 0.7150021904279E+00 -0.3084098002567E+01  0.0000000000000E+00
 0.7151062410191E+00 -0.3010580866809E+01  0.0000000000000E+00
 0.7155083490957E+00 -0.2937066271891E+01  0.0000000000000E+00
 0.7163154066104E+00 -0.2863559587694E+01  0.0000000000000E+00
 0.7175542651729E+00 -0.2790067100603E+01  0.0000000000000E+00
 0.7192160248001E+00 -0.2716594812945E+01  0.0000000000000E+00
 0.7212832059111E+00 -0.2643146234864E+01  0.0000000000000E+00
 0.7237414333836E+00 -0.2569726064901E+01  0.0000000000000E+00
 0.7265841303636E+00 -0.2496339061666E+01  0.0000000000000E+00
 0.7298149768960E+00 -0.2422989996067E+01  0.0000000000000E+00
 0.7334504646414E+00 -0.2349685803918E+01  0.0000000000000E+00
 0.7375226694624E+00 -0.2276436016165E+01  0.0000000000000E+00
 0.7420466218545E+00 -0.2203248992725E+01  0.0000000000000E+00
 0.7470168383875E+00 -0.2130130513309E+01  0.0000000000000E+00
 0.7524407521811E+00 -0.2057088440582E+01  0.0000000000000E+00
 0.7583403396744E+00 -0.1984133466364E+01  0.0000000000000E+00
 0.7647535235011E+00 -0.1911281600768E+01  0.0000000000000E+00
 0.7717364331770E+00 -0.1838554023784E+01  0.0000000000000E+00
 0.7793623797664E+00 -0.1765979519672E+01  0.0000000000000E+00
 0.7877022807740E+00 -0.1693591126067E+01  0.0000000000000E+00
 0.7967304127735E+00 -0.1621398208055E+01  0.0000000000000E+00
 0.8060876234009E+00 -0.1549304059578E+01  0.0000000000000E+00
 0.8153991821340E+00 -0.1477195909041E+01  0.0000000000000E+00
 0.8245356060137E+00 -0.1405034780452E+01  0.0000000000000E+00
 0.8333501365807E+00 -0.1332779095966E+01  0.0000000000000E+00
 0.7425000000904E+00 -0.4186859601281E+01  0.0000000000000E+00
 0.7425000001807E+00 -0.4113342086429E+01  0.0000000000000E+00
 0.7425000002711E+00 -0.4039824684257E+01  0.0000000000000E+00
 0.7425000003615E+00 -0.3966307217550E+01  0.0000000000000E+00
 0.7425000004519E+00 -0.3892789747717E+01  0.0000000000000E+00
 0.7425000005422E+00 -0.3819272288128E+01  0.0000000000000E+00
 0.7425000006326E+00 -0.3745754823288E+01  0.0000000000000E+00
 0.7425000007230E+00 -0.3672237366228E+01  0.0000000000000E+00
 0.7425000008134E+00 -0.3598719903615E+01  0.0000000000000E+00
 0.7425000009037E+00 -0.3525202280347E+01  0.0000000000000E+00
 0.7425000009941E+00 -0.3451684819509E+01  0.0000000000000E+00
 0.7425000010845E+00 -0.3378167379303E+01  0.0000000000000E+00
 0.7425000011748E+00 -0.3304649961005E+01  0.0000000000000E+00
 0.7425000012652E+00 -0.3231132803084E+01  0.0000000000000E+00
 0.7425000013556E+00 -0.3157615389387E+01  0.0000000000000E+00
 0.7425022745040E+00 -0.3084098002567E+01  0.0000000000000E+00
 0.7426103270303E+00 -0.3010580866809E+01  0.0000000000000E+00
 0.7430279007913E+00 -0.2937066271891E+01  0.0000000000000E+00
 0.7438659989687E+00 -0.2863559587694E+01  0.0000000000000E+00
 0.7451525059264E+00 -0.2790067100603E+01  0.0000000000000E+00
 0.7468781793742E+00 -0.2716594812945E+01  0.0000000000000E+00
 0.7490248674397E+00 -0.2643146234864E+01  0.0000000000000E+00
 0.7515776421111E+00 -0.2569726064901E+01  0.0000000000000E+00
 0.7545296735789E+00 -0.2496339061666E+01  0.0000000000000E+00
 0.7578847834277E+00 -0.2422989996067E+01  0.0000000000000E+00
 0.7616600976131E+00 -0.2349685803918E+01  0.0000000000000E+00
 0.7658889256845E+00 -0.2276436016165E+01  0.0000000000000E+00
 0.7705868762335E+00 -0.2203248992725E+01  0.0000000000000E+00
 0.7757482549286E+00 -0.2130130513309E+01  0.0000000000000E+00
 0.7813807807790E+00 -0.2057088440582E+01  0.0000000000000E+00
 0.7875072754711E+00 -0.1984133466364E+01  0.0000000000000E+00
 0.7941671202016E+00 -0.1911281600768E+01  0.0000000000000E+00
 0.8014186033138E+00 -0.1838554023784E+01  0.0000000000000E+00
 0.8093378555282E+00 -0.1765979519671E+01  0.0000000000000E+00
 0.8179985219461E+00 -0.1693591126067E+01  0.0000000000000E+00
 0.8273738897783E+00 -0.1621398208055E+01  0.0000000000000E+00
 0.8370909931086E+00 -0.1549304059578E+01  0.0000000000000E+00
 0.8467606887025E+00 -0.1477195909041E+01  0.0000000000000E+00
 0.8562485134870E+00 -0.1405034780452E+01  0.0000000000000E+00
 0.8654020644468E+00 -0.1332779095966E+01  0.0000000000000E+00
 0.7700000000834E+00 -0.4186859601281E+01  0.0000000000000E+00
 0.7700000001668E+00 -0.4113342086429E+01  0.0000000000000E+00
 0.7700000002503E+00 -0.4039824684257E+01  0.0000000000000E+00
 0.7700000003337E+00 -0.3966307217550E+01  0.0000000000000E+00
 0.7700000004171E+00 -0.3892789747717E+01  0.0000000000000E+00
 0.7700000005005E+00 -0.3819272288128E+01  0.0000000000000E+00
 0.7700000005839E+00 -0.3745754823288E+01  0.0000000000000E+00
 0.7700000006674E+00 -0.3672237366228E+01  0.0000000000000E+00
 0.7700000007508E+00 -0.3598719903615E+01  0.0000000000000E+00
 0.7700000008342E+00 -0.3525202280347E+01  0.0000000000000E+00
 0.7700000009176E+00 -0.3451684819509E+01  0.0000000000000E+00
 0.7700000010011E+00 -0.3378167379303E+01  0.0000000000000E+00
 0.7700000010845E+00 -0.3304649961005E+01  0.0000000000000E+00
 0.7700000011679E+00 -0.3231132803084E+01  0.0000000000000E+00
 0.7700000012513E+00 -0.3157615389387E+01  0.0000000000000E+00
 0.7700023585801E+00 -0.3084098002567E+01  0.0000000000000E+00
 0.7701144130415E+00 -0.3010580866809E+01  0.0000000000000E+00
 0.7705474524870E+00 -0.2937066271891E+01  0.0000000000000E+00
 0.7714165913271E+00 -0.2863559587694E+01  0.0000000000000E+00
 0.7727507466799E+00 -0.2790067100603E+01  0.0000000000000E+00
 0.7745403339483E+00 -0.2716594812945E+01  0.0000000000000E+00
 0.7767665289682E+00 -0.2643146234864E+01  0.0000000000000E+00
 0.7794138508387E+00 -0.2569726064901E+01  0.0000000000000E+00
 0.7824752167941E+00 -0.2496339061666E+01  0.0000000000000E+00
 0.7859545899595E+00 -0.2422989996067E+01  0.0000000000000E+00
 0.7898697305848E+00 -0.2349685803918E+01  0.0000000000000E+00
 0.7942551819066E+00 -0.2276436016165E+01  0.0000000000000E+00
 0.7991271306125E+00 -0.2203248992724E+01  0.0000000000000E+00
 0.8044796714698E+00 -0.2130130513309E+01  0.0000000000000E+00
 0.8103208093768E+00 -0.2057088440582E+01  0.0000000000000E+00
 0.8166742112677E+00 -0.1984133466364E+01  0.0000000000000E+00
 0.8235807169020E+00 -0.1911281600768E+01  0.0000000000000E+00
 0.8311007734505E+00 -0.1838554023784E+01  0.0000000000000E+00
 0.8393133312901E+00 -0.1765979519671E+01  0.0000000000000E+00
 0.8482947631181E+00 -0.1693591126067E+01  0.0000000000000E+00
 0.8580173667831E+00 -0.1621398208055E+01  0.0000000000000E+00
 0.8680943628163E+00 -0.1549304059578E+01  0.0000000000000E+00
 0.8781221952709E+00 -0.1477195909041E+01  0.0000000000000E+00
 0.8879614209602E+00 -0.1405034780452E+01  0.0000000000000E+00
 0.8974539923129E+00 -0.1332779095966E+01  0.0000000000000E+00
 0.7975000000765E+00 -0.4186859601281E+01  0.0000000000000E+00
 0.7975000001529E+00 -0.4113342086429E+01  0.0000000000000E+00
 0.7975000002294E+00 -0.4039824684257E+01  0.0000000000000E+00
 0.7975000003059E+00 -0.3966307217550E+01  0.0000000000000E+00
 0.7975000003823E+00 -0.3892789747717E+01  0.0000000000000E+00
 0.7975000004588E+00 -0.3819272288128E+01  0.0000000000000E+00
 0.7975000005353E+00 -0.3745754823288E+01  0.0000000000000E+00
 0.7975000006118E+00 -0.3672237366228E+01  0.0000000000000E+00
 0.7975000006882E+00 -0.3598719903615E+01  0.0000000000000E+00
 0.7975000007647E+00 -0.3525202280347E+01  0.0000000000000E+00
 0.7975000008412E+00 -0.3451684819509E+01  0.0000000000000E+00
 0.7975000009176E+00 -0.3378167379303E+01  0.0000000000000E+00
 0.7975000009941E+00 -0.3304649961005E+01  0.0000000000000E+00
 0.7975000010706E+00 -0.3231132803084E+01  0.0000000000000E+00
 0.7975000011470E+00 -0.3157615389387E+01  0.0000000000000E+00
 0.7975024426562E+00 -0.3084098002567E+01  0.0000000000000E+00
 0.7976184990527E+00 -0.3010580866809E+01  0.0000000000000E+00
 0.7980670041826E+00 -0.2937066271891E+01  0.0000000000000E+00
 0.7989671836854E+00 -0.2863559587694E+01  0.0000000000000E+00
 0.8003489874333E+00 -0.2790067100603E+01  0.0000000000000E+00
 0.8022024885224E+00 -0.2716594812945E+01  0.0000000000000E+00
 0.8045081904968E+00 -0.2643146234864E+01  0.0000000000000E+00
 0.8072500595663E+00 -0.2569726064901E+01  0.0000000000000E+00
 0.8104207600094E+00 -0.2496339061666E+01  0.0000000000000E+00
 0.8140243964912E+00 -0.2422989996067E+01  0.0000000000000E+00
 0.8180793635565E+00 -0.2349685803918E+01  0.0000000000000E+00
 0.8226214381287E+00 -0.2276436016165E+01  0.0000000000000E+00
 0.8276673849915E+00 -0.2203248992724E+01  0.0000000000000E+00
 0.8332110880109E+00 -0.2130130513309E+01  0.0000000000000E+00
 0.8392608379746E+00 -0.2057088440582E+01  0.0000000000000E+00
 0.8458411470644E+00 -0.1984133466364E+01  0.0000000000000E+00
 0.8529943136025E+00 -0.1911281600768E+01  0.0000000000000E+00
 0.8607829435873E+00 -0.1838554023783E+01  0.0000000000000E+00
 0.8692888070519E+00 -0.1765979519671E+01  0.0000000000000E+00
 0.8785910042902E+00 -0.1693591126067E+01  0.0000000000000E+00
 0.8886608437878E+00 -0.1621398208055E+01  0.0000000000000E+00
 0.8990977325239E+00 -0.1549304059578E+01  0.0000000000000E+00
 0.9094837018394E+00 -0.1477195909041E+01  0.0000000000000E+00
 0.9196743284335E+00 -0.1405034780452E+01  0.0000000000000E+00
 0.9295059201790E+00 -0.1332779095966E+01  0.0000000000000E+00
 0.8250000000695E+00 -0.4186859601281E+01  0.0000000000000E+00
 0.8250000001390E+00 -0.4113342086429E+01  0.0000000000000E+00
 0.8250000002086E+00 -0.4039824684257E+01  0.0000000000000E+00
 0.8250000002781E+00 -0.3966307217550E+01  0.0000000000000E+00
 0.8250000003476E+00 -0.3892789747717E+01  0.0000000000000E+00
 0.8250000004171E+00 -0.3819272288128E+01  0.0000000000000E+00
 0.8250000004866E+00 -0.3745754823288E+01  0.0000000000000E+00
 0.8250000005561E+00 -0.3672237366228E+01  0.0000000000000E+00
 0.8250000006257E+00 -0.3598719903615E+01  0.0000000000000E+00
 0.8250000006952E+00 -0.3525202280347E+01  0.0000000000000E+00
 0.8250000007647E+00 -0.3451684819509E+01  0.0000000000000E+00
 0.8250000008342E+00 -0.3378167379303E+01  0.0000000000000E+00
 0.8250000009037E+00 -0.3304649961005E+01  0.0000000000000E+00
 0.8250000009732E+00 -0.3231132803084E+01  0.0000000000000E+00
 0.8250000010428E+00 -0.3157615389387E+01  0.0000000000000E+00
 0.8250025267323E+00 -0.3084098002567E+01  0.0000000000000E+00
 0.8251225850639E+00 -0.3010580866809E+01  0.0000000000000E+00
 0.8255865558782E+00 -0.2937066271891E+01  0.0000000000000E+00
 0.8265177760437E+00 -0.2863559587694E+01  0.0000000000000E+00
 0.8279472281868E+00 -0.2790067100603E+01  0.0000000000000E+00
 0.8298646430965E+00 -0.2716594812945E+01  0.0000000000000E+00
 0.8322498520254E+00 -0.2643146234864E+01  0.0000000000000E+00
 0.8350862682939E+00 -0.2569726064901E+01  0.0000000000000E+00
 0.8383663032246E+00 -0.2496339061666E+01  0.0000000000000E+00
 0.8420942030230E+00 -0.2422989996067E+01  0.0000000000000E+00
 0.8462889965281E+00 -0.2349685803918E+01  0.0000000000000E+00
 0.8509876943508E+00 -0.2276436016165E+01  0.0000000000000E+00
 0.8562076393705E+00 -0.2203248992724E+01  0.0000000000000E+00
 0.8619425045521E+00 -0.2130130513309E+01  0.0000000000000E+00
 0.8682008665724E+00 -0.2057088440582E+01  0.0000000000000E+00
 0.8750080828610E+00 -0.1984133466364E+01  0.0000000000000E+00
 0.8824079103029E+00 -0.1911281600768E+01  0.0000000000000E+00
 0.8904651137241E+00 -0.1838554023783E+01  0.0000000000000E+00
 0.8992642828138E+00 -0.1765979519671E+01  0.0000000000000E+00
 0.9088872454622E+00 -0.1693591126067E+01  0.0000000000000E+00
 0.9193043207926E+00 -0.1621398208055E+01  0.0000000000000E+00
 0.9301011022316E+00 -0.1549304059578E+01  0.0000000000000E+00
 0.9408452084078E+00 -0.1477195909041E+01  0.0000000000000E+00
 0.9513872359068E+00 -0.1405034780452E+01  0.0000000000000E+00
 0.9615578480451E+00 -0.1332779095966E+01  0.0000000000000E+00
 0.8525000000626E+00 -0.4186859601281E+01  0.0000000000000E+00
 0.8525000001251E+00 -0.4113342086429E+01  0.0000000000000E+00
 0.8525000001877E+00 -0.4039824684257E+01  0.0000000000000E+00
 0.8525000002503E+00 -0.3966307217550E+01  0.0000000000000E+00
 0.8525000003128E+00 -0.3892789747717E+01  0.0000000000000E+00
 0.8525000003754E+00 -0.3819272288128E+01  0.0000000000000E+00
 0.8525000004380E+00 -0.3745754823288E+01  0.0000000000000E+00
 0.8525000005005E+00 -0.3672237366228E+01  0.0000000000000E+00
 0.8525000005631E+00 -0.3598719903615E+01  0.0000000000000E+00
 0.8525000006257E+00 -0.3525202280347E+01  0.0000000000000E+00
 0.8525000006882E+00 -0.3451684819509E+01  0.0000000000000E+00
 0.8525000007508E+00 -0.3378167379303E+01  0.0000000000000E+00
 0.8525000008134E+00 -0.3304649961005E+01  0.0000000000000E+00
 0.8525000008759E+00 -0.3231132803084E+01  0.0000000000000E+00
 0.8525000009385E+00 -0.3157615389387E+01  0.0000000000000E+00
 0.8525026108084E+00 -0.3084098002567E+01  0.0000000000000E+00
 0.8526266710751E+00 -0.3010580866809E+01  0.0000000000000E+00
 0.8531061075738E+00 -0.2937066271891E+01  0.0000000000000E+00
 0.8540683684020E+00 -0.2863559587694E+01  0.0000000000000E+00
 0.8555454689403E+00 -0.2790067100603E+01  0.0000000000000E+00
 0.8575267976705E+00 -0.2716594812945E+01  0.0000000000000E+00
 0.8599915135539E+00 -0.2643146234864E+01  0.0000000000000E+00
 0.8629224770215E+00 -0.2569726064901E+01  0.0000000000000E+00
 0.8663118464399E+00 -0.2496339061666E+01  0.0000000000000E+00
 0.8701640095547E+00 -0.2422989996067E+01  0.0000000000000E+00
 0.8744986294998E+00 -0.2349685803918E+01  0.0000000000000E+00
 0.8793539505729E+00 -0.2276436016165E+01  0.0000000000000E+00
 0.8847478937495E+00 -0.2203248992724E+01  0.0000000000000E+00
 0.8906739210932E+00 -0.2130130513309E+01  0.0000000000000E+00
 0.8971408951702E+00 -0.2057088440582E+01  0.0000000000000E+00
 0.9041750186577E+00 -0.1984133466364E+01  0.0000000000000E+00
 0.9118215070034E+00 -0.1911281600768E+01  0.0000000000000E+00
 0.9201472838608E+00 -0.1838554023783E+01  0.0000000000000E+00
 0.9292397585756E+00 -0.1765979519671E+01  0.0000000000000E+00
 0.9391834866342E+00 -0.1693591126067E+01  0.0000000000000E+00
 0.9499477977974E+00 -0.1621398208055E+01  0.0000000000000E+00
 0.9611044719393E+00 -0.1549304059578E+01  0.0000000000000E+00
 0.9722067149763E+00 -0.1477195909041E+01  0.0000000000000E+00
 0.9831001433801E+00 -0.1405034780452E+01  0.0000000000000E+00
 0.9936097759111E+00 -0.1332779095966E+01  0.0000000000000E+00
 0.8800000000556E+00 -0.4186859601281E+01  0.0000000000000E+00
 0.8800000001112E+00 -0.4113342086429E+01  0.0000000000000E+00
 0.8800000001668E+00 -0.4039824684257E+01  0.0000000000000E+00
 0.8800000002225E+00 -0.3966307217550E+01  0.0000000000000E+00
 0.8800000002781E+00 -0.3892789747717E+01  0.0000000000000E+00
 0.8800000003337E+00 -0.3819272288128E+01  0.0000000000000E+00
 0.8800000003893E+00 -0.3745754823288E+01  0.0000000000000E+00
 0.8800000004449E+00 -0.3672237366228E+01  0.0000000000000E+00
 0.8800000005005E+00 -0.3598719903615E+01  0.0000000000000E+00
 0.8800000005561E+00 -0.3525202280347E+01  0.0000000000000E+00
 0.8800000006118E+00 -0.3451684819509E+01  0.0000000000000E+00
 0.8800000006674E+00 -0.3378167379303E+01  0.0000000000000E+00
 0.8800000007230E+00 -0.3304649961005E+01  0.0000000000000E+00
 0.8800000007786E+00 -0.3231132803084E+01  0.0000000000000E+00
 0.8800000008342E+00 -0.3157615389387E+01  0.0000000000000E+00
 0.8800026948845E+00 -0.3084098002567E+01  0.0000000000000E+00
 0.8801307570862E+00 -0.3010580866809E+01  0.0000000000000E+00
 0.8806256592695E+00 -0.2937066271891E+01  0.0000000000000E+00
 0.8816189607603E+00 -0.2863559587694E+01  0.0000000000000E+00
 0.8831437096938E+00 -0.2790067100603E+01  0.0000000000000E+00
 0.8851889522446E+00 -0.2716594812945E+01  0.0000000000000E+00
 0.8877331750825E+00 -0.2643146234864E+01  0.0000000000000E+00
 0.8907586857491E+00 -0.2569726064901E+01  0.0000000000000E+00
 0.8942573896551E+00 -0.2496339061666E+01  0.0000000000000E+00
 0.8982338160864E+00 -0.2422989996067E+01  0.0000000000000E+00
 0.9027082624715E+00 -0.2349685803918E+01  0.0000000000000E+00
 0.9077202067950E+00 -0.2276436016165E+01  0.0000000000000E+00
 0.9132881481285E+00 -0.2203248992724E+01  0.0000000000000E+00
 0.9194053376344E+00 -0.2130130513309E+01  0.0000000000000E+00
 0.9260809237681E+00 -0.2057088440582E+01  0.0000000000000E+00
 0.9333419544543E+00 -0.1984133466364E+01  0.0000000000000E+00
 0.9412351037039E+00 -0.1911281600768E+01  0.0000000000000E+00
 0.9498294539976E+00 -0.1838554023783E+01  0.0000000000000E+00
 0.9592152343375E+00 -0.1765979519671E+01  0.0000000000000E+00
 0.9694797278063E+00 -0.1693591126067E+01  0.0000000000000E+00
 0.9805912748022E+00 -0.1621398208055E+01  0.0000000000000E+00
 0.9921078416470E+00 -0.1549304059578E+01  0.0000000000000E+00
 0.1003568221545E+01 -0.1477195909041E+01  0.0000000000000E+00
 0.1014813050853E+01 -0.1405034780452E+01  0.0000000000000E+00
 0.1025661703777E+01 -0.1332779095966E+01  0.0000000000000E+00
 0.9075000000487E+00 -0.4186859601281E+01  0.0000000000000E+00
 0.9075000000973E+00 -0.4113342086429E+01  0.0000000000000E+00
 0.9075000001460E+00 -0.4039824684257E+01  0.0000000000000E+00
 0.9075000001946E+00 -0.3966307217550E+01  0.0000000000000E+00
 0.9075000002433E+00 -0.3892789747717E+01  0.0000000000000E+00
 0.9075000002920E+00 -0.3819272288128E+01  0.0000000000000E+00
 0.9075000003406E+00 -0.3745754823288E+01  0.0000000000000E+00
 0.9075000003893E+00 -0.3672237366228E+01  0.0000000000000E+00
 0.9075000004380E+00 -0.3598719903615E+01  0.0000000000000E+00
 0.9075000004866E+00 -0.3525202280347E+01  0.0000000000000E+00
 0.9075000005353E+00 -0.3451684819509E+01  0.0000000000000E+00
 0.9075000005839E+00 -0.3378167379303E+01  0.0000000000000E+00
 0.9075000006326E+00 -0.3304649961005E+01  0.0000000000000E+00
 0.9075000006813E+00 -0.3231132803084E+01  0.0000000000000E+00
 0.9075000007299E+00 -0.3157615389387E+01  0.0000000000000E+00
 0.9075027789606E+00 -0.3084098002567E+01  0.0000000000000E+00
 0.9076348430974E+00 -0.3010580866809E+01  0.0000000000000E+00
 0.9081452109651E+00 -0.2937066271891E+01  0.0000000000000E+00
 0.9091695531186E+00 -0.2863559587694E+01  0.0000000000000E+00
 0.9107419504473E+00 -0.2790067100603E+01  0.0000000000000E+00
 0.9128511068187E+00 -0.2716594812945E+01  0.0000000000000E+00
 0.9154748366110E+00 -0.2643146234864E+01  0.0000000000000E+00
 0.9185948944766E+00 -0.2569726064901E+01  0.0000000000000E+00
 0.9222029328704E+00 -0.2496339061666E+01  0.0000000000000E+00
 0.9263036226182E+00 -0.2422989996067E+01  0.0000000000000E+00
 0.9309178954432E+00 -0.2349685803918E+01  0.0000000000000E+00
 0.9360864630172E+00 -0.2276436016165E+01  0.0000000000000E+00
 0.9418284025075E+00 -0.2203248992724E+01  0.0000000000000E+00
 0.9481367541755E+00 -0.2130130513309E+01  0.0000000000000E+00
 0.9550209523659E+00 -0.2057088440582E+01  0.0000000000000E+00
 0.9625088902510E+00 -0.1984133466364E+01  0.0000000000000E+00
 0.9706487004043E+00 -0.1911281600768E+01  0.0000000000000E+00
 0.9795116241343E+00 -0.1838554023783E+01  0.0000000000000E+00
 0.9891907100993E+00 -0.1765979519671E+01  0.0000000000000E+00
 0.9997759689783E+00 -0.1693591126066E+01  0.0000000000000E+00
 0.1011234751807E+01 -0.1621398208055E+01  0.0000000000000E+00
 0.1023111211355E+01 -0.1549304059578E+01  0.0000000000000E+00
 0.1034929728113E+01 -0.1477195909041E+01  0.0000000000000E+00
 0.1046525958327E+01 -0.1405034780452E+01  0.0000000000000E+00
 0.1057713631643E+01 -0.1332779095966E+01  0.0000000000000E+00
 0.9350000000417E+00 -0.4186859601281E+01  0.0000000000000E+00
 0.9350000000834E+00 -0.4113342086429E+01  0.0000000000000E+00
 0.9350000001251E+00 -0.4039824684257E+01  0.0000000000000E+00
 0.9350000001668E+00 -0.3966307217550E+01  0.0000000000000E+00
 0.9350000002086E+00 -0.3892789747717E+01  0.0000000000000E+00
 0.9350000002503E+00 -0.3819272288128E+01  0.0000000000000E+00
 0.9350000002920E+00 -0.3745754823288E+01  0.0000000000000E+00
 0.9350000003337E+00 -0.3672237366228E+01  0.0000000000000E+00
 0.9350000003754E+00 -0.3598719903615E+01  0.0000000000000E+00
 0.9350000004171E+00 -0.3525202280347E+01  0.0000000000000E+00
 0.9350000004588E+00 -0.3451684819509E+01  0.0000000000000E+00
 0.9350000005005E+00 -0.3378167379303E+01  0.0000000000000E+00
 0.9350000005422E+00 -0.3304649961005E+01  0.0000000000000E+00
 0.9350000005839E+00 -0.3231132803084E+01  0.0000000000000E+00
 0.9350000006257E+00 -0.3157615389387E+01  0.0000000000000E+00
 0.9350028630367E+00 -0.3084098002567E+01  0.0000000000000E+00
 0.9351389291086E+00 -0.3010580866809E+01  0.0000000000000E+00
 0.9356647626607E+00 -0.2937066271891E+01  0.0000000000000E+00
 0.9367201454770E+00 -0.2863559587694E+01  0.0000000000000E+00
 0.9383401912008E+00 -0.2790067100603E+01  0.0000000000000E+00
 0.9405132613928E+00 -0.2716594812945E+01  0.0000000000000E+00
 0.9432164981396E+00 -0.2643146234864E+01  0.0000000000000E+00
 0.9464311032042E+00 -0.2569726064901E+01  0.0000000000000E+00
 0.9501484760856E+00 -0.2496339061666E+01  0.0000000000000E+00
 0.9543734291499E+00 -0.2422989996067E+01  0.0000000000000E+00
 0.9591275284149E+00 -0.2349685803918E+01  0.0000000000000E+00
 0.9644527192393E+00 -0.2276436016165E+01  0.0000000000000E+00
 0.9703686568865E+00 -0.2203248992724E+01  0.0000000000000E+00
 0.9768681707167E+00 -0.2130130513309E+01  0.0000000000000E+00
 0.9839609809637E+00 -0.2057088440582E+01  0.0000000000000E+00
 0.9916758260476E+00 -0.1984133466364E+01  0.0000000000000E+00
 0.1000062297105E+01 -0.1911281600768E+01  0.0000000000000E+00
 0.1009193794271E+01 -0.1838554023783E+01  0.0000000000000E+00
 0.1019166185861E+01 -0.1765979519671E+01  0.0000000000000E+00
 0.1030072210150E+01 -0.1693591126066E+01  0.0000000000000E+00
 0.1041878228812E+01 -0.1621398208055E+01  0.0000000000000E+00
 0.1054114581062E+01 -0.1549304059578E+01  0.0000000000000E+00
 0.1066291234682E+01 -0.1477195909041E+01  0.0000000000000E+00
 0.1078238865800E+01 -0.1405034780452E+01  0.0000000000000E+00
 0.1089765559509E+01 -0.1332779095966E+01  0.0000000000000E+00
 0.9625000000348E+00 -0.4186859601281E+01  0.0000000000000E+00
 0.9625000000695E+00 -0.4113342086429E+01  0.0000000000000E+00
 0.9625000001043E+00 -0.4039824684257E+01  0.0000000000000E+00
 0.9625000001390E+00 -0.3966307217550E+01  0.0000000000000E+00
 0.9625000001738E+00 -0.3892789747717E+01  0.0000000000000E+00
 0.9625000002086E+00 -0.3819272288128E+01  0.0000000000000E+00
 0.9625000002433E+00 -0.3745754823288E+01  0.0000000000000E+00
 0.9625000002781E+00 -0.3672237366228E+01  0.0000000000000E+00
 0.9625000003128E+00 -0.3598719903615E+01  0.0000000000000E+00
 0.9625000003476E+00 -0.3525202280347E+01  0.0000000000000E+00
 0.9625000003823E+00 -0.3451684819509E+01  0.0000000000000E+00
 0.9625000004171E+00 -0.3378167379303E+01  0.0000000000000E+00
 0.9625000004519E+00 -0.3304649961005E+01  0.0000000000000E+00
 0.9625000004866E+00 -0.3231132803084E+01  0.0000000000000E+00
 0.9625000005214E+00 -0.3157615389387E+01  0.0000000000000E+00
 0.9625029471128E+00 -0.3084098002567E+01  0.0000000000000E+00
 0.9626430151198E+00 -0.3010580866809E+01  0.0000000000000E+00
 0.9631843143563E+00 -0.2937066271891E+01  0.0000000000000E+00
 0.9642707378353E+00 -0.2863559587694E+01  0.0000000000000E+00
 0.9659384319542E+00 -0.2790067100603E+01  0.0000000000000E+00
 0.9681754159669E+00 -0.2716594812945E+01  0.0000000000000E+00
 0.9709581596681E+00 -0.2643146234864E+01  0.0000000000000E+00
 0.9742673119318E+00 -0.2569726064901E+01  0.0000000000000E+00
 0.9780940193009E+00 -0.2496339061666E+01  0.0000000000000E+00
 0.9824432356817E+00 -0.2422989996067E+01  0.0000000000000E+00
 0.9873371613866E+00 -0.2349685803918E+01  0.0000000000000E+00
 0.9928189754614E+00 -0.2276436016165E+01  0.0000000000000E+00
 0.9989089112655E+00 -0.2203248992724E+01  0.0000000000000E+00
 0.1005599587258E+01 -0.2130130513309E+01  0.0000000000000E+00
 0.1012901009562E+01 -0.2057088440582E+01  0.0000000000000E+00
 0.1020842761844E+01 -0.1984133466364E+01  0.0000000000000E+00
 0.1029475893805E+01 -0.1911281600768E+01  0.0000000000000E+00
 0.1038875964408E+01 -0.1838554023783E+01  0.0000000000000E+00
 0.1049141661623E+01 -0.1765979519671E+01  0.0000000000000E+00
 0.1060368451322E+01 -0.1693591126066E+01  0.0000000000000E+00
 0.1072521705817E+01 -0.1621398208055E+01  0.0000000000000E+00
 0.1085117950770E+01 -0.1549304059578E+01  0.0000000000000E+00
 0.1097652741250E+01 -0.1477195909041E+01  0.0000000000000E+00
 0.1109951773273E+01 -0.1405034780452E+01  0.0000000000000E+00
 0.1121817487376E+01 -0.1332779095966E+01  0.0000000000000E+00
 0.9900000000278E+00 -0.4186859601281E+01  0.0000000000000E+00
 0.9900000000556E+00 -0.4113342086429E+01  0.0000000000000E+00
 0.9900000000834E+00 -0.4039824684257E+01  0.0000000000000E+00
 0.9900000001112E+00 -0.3966307217550E+01  0.0000000000000E+00
 0.9900000001390E+00 -0.3892789747717E+01  0.0000000000000E+00
 0.9900000001668E+00 -0.3819272288128E+01  0.0000000000000E+00
 0.9900000001946E+00 -0.3745754823288E+01  0.0000000000000E+00
 0.9900000002225E+00 -0.3672237366228E+01  0.0000000000000E+00
 0.9900000002503E+00 -0.3598719903615E+01  0.0000000000000E+00
 0.9900000002781E+00 -0.3525202280347E+01  0.0000000000000E+00
 0.9900000003059E+00 -0.3451684819509E+01  0.0000000000000E+00
 0.9900000003337E+00 -0.3378167379303E+01  0.0000000000000E+00
 0.9900000003615E+00 -0.3304649961005E+01  0.0000000000000E+00
 0.9900000003893E+00 -0.3231132803084E+01  0.0000000000000E+00
 0.9900000004171E+00 -0.3157615389387E+01  0.0000000000000E+00
 0.9900030311889E+00 -0.3084098002567E+01  0.0000000000000E+00
 0.9901471011310E+00 -0.3010580866809E+01  0.0000000000000E+00
 0.9907038660519E+00 -0.2937066271891E+01  0.0000000000000E+00
 0.9918213301936E+00 -0.2863559587694E+01  0.0000000000000E+00
 0.9935366727077E+00 -0.2790067100603E+01  0.0000000000000E+00
 0.9958375705410E+00 -0.2716594812945E+01  0.0000000000000E+00
 0.9986998211967E+00 -0.2643146234864E+01  0.0000000000000E+00
 0.1002103520659E+01 -0.2569726064901E+01  0.0000000000000E+00
 0.1006039562516E+01 -0.2496339061666E+01  0.0000000000000E+00
 0.1010513042213E+01 -0.2422989996067E+01  0.0000000000000E+00
 0.1015546794358E+01 -0.2349685803918E+01  0.0000000000000E+00
 0.1021185231684E+01 -0.2276436016165E+01  0.0000000000000E+00
 0.1027449165644E+01 -0.2203248992724E+01  0.0000000000000E+00
 0.1034331003799E+01 -0.2130130513309E+01  0.0000000000000E+00
 0.1041841038159E+01 -0.2057088440582E+01  0.0000000000000E+00
 0.1050009697641E+01 -0.1984133466364E+01  0.0000000000000E+00
 0.1058889490506E+01 -0.1911281600768E+01  0.0000000000000E+00
 0.1068558134545E+01 -0.1838554023783E+01  0.0000000000000E+00
 0.1079117137385E+01 -0.1765979519671E+01  0.0000000000000E+00
 0.1090664692494E+01 -0.1693591126066E+01  0.0000000000000E+00
 0.1103165182821E+01 -0.1621398208054E+01  0.0000000000000E+00
 0.1116121320478E+01 -0.1549304059577E+01  0.0000000000000E+00
 0.1129014247819E+01 -0.1477195909041E+01  0.0000000000000E+00
 0.1141664680747E+01 -0.1405034780452E+01  0.0000000000000E+00
 0.1153869415242E+01 -0.1332779095966E+01  0.0000000000000E+00
 0.1017500000021E+01 -0.4186859601281E+01  0.0000000000000E+00
 0.1017500000042E+01 -0.4113342086429E+01  0.0000000000000E+00
 0.1017500000063E+01 -0.4039824684257E+01  0.0000000000000E+00
 0.1017500000083E+01 -0.3966307217550E+01  0.0000000000000E+00
 0.1017500000104E+01 -0.3892789747717E+01  0.0000000000000E+00
 0.1017500000125E+01 -0.3819272288128E+01  0.0000000000000E+00
 0.1017500000146E+01 -0.3745754823288E+01  0.0000000000000E+00
 0.1017500000167E+01 -0.3672237366228E+01  0.0000000000000E+00
 0.1017500000188E+01 -0.3598719903615E+01  0.0000000000000E+00
 0.1017500000209E+01 -0.3525202280347E+01  0.0000000000000E+00
 0.1017500000229E+01 -0.3451684819509E+01  0.0000000000000E+00
 0.1017500000250E+01 -0.3378167379303E+01  0.0000000000000E+00
 0.1017500000271E+01 -0.3304649961005E+01  0.0000000000000E+00
 0.1017500000292E+01 -0.3231132803084E+01  0.0000000000000E+00
 0.1017500000313E+01 -0.3157615389387E+01  0.0000000000000E+00
 0.1017503115265E+01 -0.3084098002567E+01  0.0000000000000E+00
 0.1017651187142E+01 -0.3010580866809E+01  0.0000000000000E+00
 0.1018223417748E+01 -0.2937066271891E+01  0.0000000000000E+00
 0.1019371922552E+01 -0.2863559587694E+01  0.0000000000000E+00
 0.1021134913461E+01 -0.2790067100603E+01  0.0000000000000E+00
 0.1023499725115E+01 -0.2716594812945E+01  0.0000000000000E+00
 0.1026441482725E+01 -0.2643146234864E+01  0.0000000000000E+00
 0.1029939729387E+01 -0.2569726064901E+01  0.0000000000000E+00
 0.1033985105731E+01 -0.2496339061666E+01  0.0000000000000E+00
 0.1038582848745E+01 -0.2422989996067E+01  0.0000000000000E+00
 0.1043756427330E+01 -0.2349685803918E+01  0.0000000000000E+00
 0.1049551487906E+01 -0.2276436016165E+01  0.0000000000000E+00
 0.1055989420023E+01 -0.2203248992724E+01  0.0000000000000E+00
 0.1063062420340E+01 -0.2130130513309E+01  0.0000000000000E+00
 0.1070781066757E+01 -0.2057088440582E+01  0.0000000000000E+00
 0.1079176633438E+01 -0.1984133466364E+01  0.0000000000000E+00
 0.1088303087206E+01 -0.1911281600768E+01  0.0000000000000E+00
 0.1098240304681E+01 -0.1838554023783E+01  0.0000000000000E+00
 0.1109092613147E+01 -0.1765979519671E+01  0.0000000000000E+00
 0.1120960933667E+01 -0.1693591126066E+01  0.0000000000000E+00
 0.1133808659826E+01 -0.1621398208054E+01  0.0000000000000E+00
 0.1147124690185E+01 -0.1549304059577E+01  0.0000000000000E+00
 0.1160375754387E+01 -0.1477195909041E+01  0.0000000000000E+00
 0.1173377588220E+01 -0.1405034780452E+01  0.0000000000000E+00
 0.1185921343108E+01 -0.1332779095966E+01  0.0000000000000E+00
 0.1045000000014E+01 -0.4186859601281E+01  0.0000000000000E+00
 0.1045000000028E+01 -0.4113342086429E+01  0.0000000000000E+00
 0.1045000000042E+01 -0.4039824684257E+01  0.0000000000000E+00
 0.1045000000056E+01 -0.3966307217550E+01  0.0000000000000E+00
 0.1045000000070E+01 -0.3892789747717E+01  0.0000000000000E+00
 0.1045000000083E+01 -0.3819272288128E+01  0.0000000000000E+00
 0.1045000000097E+01 -0.3745754823288E+01  0.0000000000000E+00
 0.1045000000111E+01 -0.3672237366228E+01  0.0000000000000E+00
 0.1045000000125E+01 -0.3598719903615E+01  0.0000000000000E+00
 0.1045000000139E+01 -0.3525202280347E+01  0.0000000000000E+00
 0.1045000000153E+01 -0.3451684819509E+01  0.0000000000000E+00
 0.1045000000167E+01 -0.3378167379303E+01  0.0000000000000E+00
 0.1045000000181E+01 -0.3304649961005E+01  0.0000000000000E+00
 0.1045000000195E+01 -0.3231132803084E+01  0.0000000000000E+00
 0.1045000000209E+01 -0.3157615389387E+01  0.0000000000000E+00
 0.1045003199341E+01 -0.3084098002567E+01  0.0000000000000E+00
 0.1045155273153E+01 -0.3010580866809E+01  0.0000000000000E+00
 0.1045742969443E+01 -0.2937066271891E+01  0.0000000000000E+00
 0.1046922514910E+01 -0.2863559587694E+01  0.0000000000000E+00
 0.1048733154215E+01 -0.2790067100603E+01  0.0000000000000E+00
 0.1051161879689E+01 -0.2716594812945E+01  0.0000000000000E+00
 0.1054183144254E+01 -0.2643146234864E+01  0.0000000000000E+00
 0.1057775938115E+01 -0.2569726064901E+01  0.0000000000000E+00
 0.1061930648947E+01 -0.2496339061666E+01  0.0000000000000E+00
 0.1066652655277E+01 -0.2422989996067E+01  0.0000000000000E+00
 0.1071966060302E+01 -0.2349685803918E+01  0.0000000000000E+00
 0.1077917744128E+01 -0.2276436016165E+01  0.0000000000000E+00
 0.1084529674402E+01 -0.2203248992724E+01  0.0000000000000E+00
 0.1091793836881E+01 -0.2130130513309E+01  0.0000000000000E+00
 0.1099721095355E+01 -0.2057088440582E+01  0.0000000000000E+00
 0.1108343569234E+01 -0.1984133466364E+01  0.0000000000000E+00
 0.1117716683907E+01 -0.1911281600768E+01  0.0000000000000E+00
 0.1127922474818E+01 -0.1838554023783E+01  0.0000000000000E+00
 0.1139068088909E+01 -0.1765979519671E+01  0.0000000000000E+00
 0.1151257174839E+01 -0.1693591126066E+01  0.0000000000000E+00
 0.1164452136831E+01 -0.1621398208054E+01  0.0000000000000E+00
 0.1178128059893E+01 -0.1549304059577E+01  0.0000000000000E+00
 0.1191737260956E+01 -0.1477195909041E+01  0.0000000000000E+00
 0.1205090495693E+01 -0.1405034780452E+01  0.0000000000000E+00
 0.1217973270974E+01 -0.1332779095966E+01  0.0000000000000E+00
 0.1072500000007E+01 -0.4186859601281E+01  0.0000000000000E+00
 0.1072500000014E+01 -0.4113342086429E+01  0.0000000000000E+00
 0.1072500000021E+01 -0.4039824684257E+01  0.0000000000000E+00
 0.1072500000028E+01 -0.3966307217550E+01  0.0000000000000E+00
 0.1072500000035E+01 -0.3892789747717E+01  0.0000000000000E+00
 0.1072500000042E+01 -0.3819272288128E+01  0.0000000000000E+00
 0.1072500000049E+01 -0.3745754823288E+01  0.0000000000000E+00
 0.1072500000056E+01 -0.3672237366228E+01  0.0000000000000E+00
 0.1072500000063E+01 -0.3598719903615E+01  0.0000000000000E+00
 0.1072500000070E+01 -0.3525202280347E+01  0.0000000000000E+00
 0.1072500000076E+01 -0.3451684819509E+01  0.0000000000000E+00
 0.1072500000083E+01 -0.3378167379303E+01  0.0000000000000E+00
 0.1072500000090E+01 -0.3304649961005E+01  0.0000000000000E+00
 0.1072500000097E+01 -0.3231132803084E+01  0.0000000000000E+00
 0.1072500000104E+01 -0.3157615389387E+01  0.0000000000000E+00
 0.1072503283417E+01 -0.3084098002567E+01  0.0000000000000E+00
 0.1072659359165E+01 -0.3010580866809E+01  0.0000000000000E+00
 0.1073262521139E+01 -0.2937066271891E+01  0.0000000000000E+00
 0.1074473107269E+01 -0.2863559587694E+01  0.0000000000000E+00
 0.1076331394968E+01 -0.2790067100603E+01  0.0000000000000E+00
 0.1078824034263E+01 -0.2716594812945E+01  0.0000000000000E+00
 0.1081924805782E+01 -0.2643146234864E+01  0.0000000000000E+00
 0.1085612146842E+01 -0.2569726064901E+01  0.0000000000000E+00
 0.1089876192162E+01 -0.2496339061666E+01  0.0000000000000E+00
 0.1094722461809E+01 -0.2422989996067E+01  0.0000000000000E+00
 0.1100175693273E+01 -0.2349685803918E+01  0.0000000000000E+00
 0.1106284000350E+01 -0.2276436016165E+01  0.0000000000000E+00
 0.1113069928781E+01 -0.2203248992724E+01  0.0000000000000E+00
 0.1120525253422E+01 -0.2130130513309E+01  0.0000000000000E+00
 0.1128661123953E+01 -0.2057088440582E+01  0.0000000000000E+00
 0.1137510505031E+01 -0.1984133466364E+01  0.0000000000000E+00
 0.1147130280607E+01 -0.1911281600768E+01  0.0000000000000E+00
 0.1157604644955E+01 -0.1838554023783E+01  0.0000000000000E+00
 0.1169043564670E+01 -0.1765979519671E+01  0.0000000000000E+00
 0.1181553416011E+01 -0.1693591126066E+01  0.0000000000000E+00
 0.1195095613836E+01 -0.1621398208054E+01  0.0000000000000E+00
 0.1209131429601E+01 -0.1549304059577E+01  0.0000000000000E+00
 0.1223098767524E+01 -0.1477195909041E+01  0.0000000000000E+00
 0.1236803403166E+01 -0.1405034780452E+01  0.0000000000000E+00
 0.1250025198840E+01 -0.1332779095966E+01  0.0000000000000E+00
-0.6146632205864E+00 -0.1179245927773E+01  0.0000000000000E+00
-0.6133850625710E+00 -0.1098125561271E+01  0.0000000000000E+00
-0.6110781767176E+00 -0.1017031042899E+01  0.0000000000000E+00
-0.6075938972867E+00 -0.9359840196841E+00  0.0000000000000E+00
-0.6027748704429E+00 -0.8550138763628E+00  0.0000000000000E+00
-0.5964762431763E+00 -0.7741576168479E+00  0.0000000000000E+00
-0.5886096354219E+00 -0.6934549809652E+00  0.0000000000000E+00
-0.5792169622724E+00 -0.6129344720338E+00  0.0000000000000E+00
-0.5685607300787E+00 -0.5325891076342E+00  0.0000000000000E+00
-0.5571736404696E+00 -0.4523550909481E+00  0.0000000000000E+00
-0.5457865507829E+00 -0.3721210742731E+00  0.0000000000000E+00
-0.5351303183650E+00 -0.2917757099033E+00  0.0000000000000E+00
-0.5257376448667E+00 -0.2112552010127E+00  0.0000000000000E+00
-0.5178710366670E+00 -0.1305525651737E+00  0.0000000000000E+00
-0.5115724088858E+00 -0.4969630569897E-01  0.0000000000000E+00
-0.5067533814807E+00  0.3127383758862E-01  0.0000000000000E+00
-0.5032691014587E+00  0.1123208607782E+00  0.0000000000000E+00
-0.5009622149962E+00  0.1934153791321E+00  0.0000000000000E+00
-0.4996840563622E+00  0.2745357456241E+00  0.0000000000000E+00
-0.5823375735839E+00 -0.1178925948017E+01  0.0000000000000E+00
-0.5811517361345E+00 -0.1097485602229E+01  0.0000000000000E+00
-0.5789913143491E+00 -0.1016071105210E+01  0.0000000000000E+00
-0.5757154669679E+00 -0.9347041043687E+00  0.0000000000000E+00
-0.5711751219322E+00 -0.8534139844555E+00  0.0000000000000E+00
-0.5652330500847E+00 -0.7722377492156E+00  0.0000000000000E+00
-0.5578055229899E+00 -0.6912151378461E+00  0.0000000000000E+00
-0.5489322497722E+00 -0.6103746525257E+00  0.0000000000000E+00
-0.5388619207640E+00 -0.5297093095395E+00  0.0000000000000E+00
-0.5280992006759E+00 -0.4491553120599E+00  0.0000000000000E+00
-0.5173364805104E+00 -0.3686013145907E+00  0.0000000000000E+00
-0.5072661512780E+00 -0.2879359716328E+00  0.0000000000000E+00
-0.4983928777114E+00 -0.2070954863511E+00  0.0000000000000E+00
-0.4909653501714E+00 -0.1260728750229E+00  0.0000000000000E+00
-0.4850232778093E+00 -0.4489663982115E-01  0.0000000000000E+00
-0.4804829322123E+00  0.3639348006013E-01  0.0000000000000E+00
-0.4772070842400E+00  0.1177604808772E+00  0.0000000000000E+00
-0.4750466618455E+00  0.1991749778796E+00  0.0000000000000E+00
-0.4738608237776E+00  0.2806153236578E+00  0.0000000000000E+00
-0.5500080394828E+00 -0.1178622037865E+01  0.0000000000000E+00
-0.5489106355602E+00 -0.1096877782373E+01  0.0000000000000E+00
-0.5468927908727E+00 -0.1015159376255E+01  0.0000000000000E+00
-0.5438214886538E+00 -0.9334884672851E+00  0.0000000000000E+00
-0.5395559386310E+00 -0.8518944402257E+00  0.0000000000000E+00
-0.5339665355062E+00 -0.7704142986630E+00  0.0000000000000E+00
-0.5269742024711E+00 -0.6890877811968E+00  0.0000000000000E+00
-0.5186164426654E+00 -0.6079433889229E+00  0.0000000000000E+00
-0.5091281303716E+00 -0.5269741368961E+00  0.0000000000000E+00
-0.4989858933504E+00 -0.4461162282797E+00  0.0000000000000E+00
-0.4888436562517E+00 -0.3652583196731E+00  0.0000000000000E+00
-0.4793553437337E+00 -0.2842890676730E+00  0.0000000000000E+00
-0.4709975835792E+00 -0.2031446754356E+00  0.0000000000000E+00
-0.4640052500988E+00 -0.1218181580084E+00  0.0000000000000E+00
-0.4584158464595E+00 -0.4033801648185E-01  0.0000000000000E+00
-0.4541502958753E+00  0.4125601054745E-01  0.0000000000000E+00
-0.4510789930653E+00  0.1229269194944E+00  0.0000000000000E+00
-0.4490611477687E+00  0.2046453255965E+00  0.0000000000000E+00
-0.4479637432275E+00  0.2863895810799E+00  0.0000000000000E+00
-0.5176747919670E+00 -0.1178334388478E+01  0.0000000000000E+00
-0.5166621081398E+00 -0.1096302484021E+01  0.0000000000000E+00
-0.5147831271008E+00 -0.1014296429512E+01  0.0000000000000E+00
-0.5119126565776E+00 -0.9323378730696E+00  0.0000000000000E+00
-0.5079181880800E+00 -0.8504561994673E+00  0.0000000000000E+00
-0.5026777401640E+00 -0.7686884121413E+00  0.0000000000000E+00
-0.4961168876386E+00 -0.6870742491256E+00  0.0000000000000E+00
-0.4882709276467E+00 -0.6056422104914E+00  0.0000000000000E+00
-0.4793609184126E+00 -0.5243853101288E+00  0.0000000000000E+00
-0.4698354507598E+00 -0.4432397511925E+00  0.0000000000000E+00
-0.4603099830294E+00 -0.3620941922655E+00  0.0000000000000E+00
-0.4513999735711E+00 -0.2808372919280E+00  0.0000000000000E+00
-0.4435540132304E+00 -0.1994052533281E+00  0.0000000000000E+00
-0.4369931602597E+00 -0.1177910903493E+00  0.0000000000000E+00
-0.4317527118292E+00 -0.3602330305715E-01  0.0000000000000E+00
-0.4277582427703E+00  0.4585837051678E-01  0.0000000000000E+00
-0.4248877716559E+00  0.1278169269378E+00  0.0000000000000E+00
-0.4230087900078E+00  0.2098229814316E+00  0.0000000000000E+00
-0.4219961055620E+00  0.2918548858801E+00  0.0000000000000E+00
-0.4853380080548E+00 -0.1178063183023E+01  0.0000000000000E+00
-0.4844065078916E+00 -0.1095760073511E+01  0.0000000000000E+00
-0.4826628540306E+00 -0.1013482814487E+01  0.0000000000000E+00
-0.4799896786910E+00 -0.9312530543955E+00  0.0000000000000E+00
-0.4762627551584E+00 -0.8491001780208E+00  0.0000000000000E+00
-0.4713677258340E+00 -0.7670611886573E+00  0.0000000000000E+00
-0.4652348171335E+00 -0.6851758238060E+00  0.0000000000000E+00
-0.4578971201924E+00 -0.6034725825716E+00  0.0000000000000E+00
-0.4495618771738E+00 -0.5219444777461E+00  0.0000000000000E+00
-0.4406496419882E+00 -0.4405277124764E+00  0.0000000000000E+00
-0.4317374067250E+00 -0.3591109472153E+00  0.0000000000000E+00
-0.4234021634823E+00 -0.2775828424134E+00  0.0000000000000E+00
-0.4160644661923E+00 -0.1958796012112E+00  0.0000000000000E+00
-0.4099315570465E+00 -0.1139942363943E+00  0.0000000000000E+00
-0.4050365272076E+00 -0.3195524706260E-01  0.0000000000000E+00
-0.4013096031137E+00  0.5019762928550E-01  0.0000000000000E+00
-0.3986364271830E+00  0.1324273893569E+00  0.0000000000000E+00
-0.3968927727129E+00  0.2147046483665E+00  0.0000000000000E+00
-0.3959612719311E+00  0.2970077578713E+00  0.0000000000000E+00
-0.4529978651745E+00 -0.1177808595865E+01  0.0000000000000E+00
-0.4521441897514E+00 -0.1095250899568E+01  0.0000000000000E+00
-0.4505325041965E+00 -0.1012719054268E+01  0.0000000000000E+00
-0.4480532652313E+00 -0.9302347087123E+00  0.0000000000000E+00
-0.4445905279238E+00 -0.8478272476968E+00  0.0000000000000E+00
-0.4400375585254E+00 -0.7655336743824E+00  0.0000000000000E+00
-0.4343292350556E+00 -0.6833937257696E+00  0.0000000000000E+00
-0.4274964426286E+00 -0.6014359000561E+00  0.0000000000000E+00
-0.4197326073215E+00 -0.5196532090030E+00  0.0000000000000E+00
-0.4114302461080E+00 -0.4379818557497E+00  0.0000000000000E+00
-0.4031278848169E+00 -0.3563105025045E+00  0.0000000000000E+00
-0.3953640492856E+00 -0.2745278114734E+00  0.0000000000000E+00
-0.3885312565098E+00 -0.1925699857899E+00  0.0000000000000E+00
-0.3828229325947E+00 -0.1104300372093E+00  0.0000000000000E+00
-0.3782699626817E+00 -0.2813646392457E-01  0.0000000000000E+00
-0.3748072248130E+00  0.5427099706610E-01  0.0000000000000E+00
-0.3723279852565E+00  0.1367553426026E+00  0.0000000000000E+00
-0.3707162990926E+00  0.2192871878897E+00  0.0000000000000E+00
-0.3698626230510E+00  0.3018448841793E+00  0.0000000000000E+00
-0.4206545565374E+00 -0.1177570794880E+01  0.0000000000000E+00
-0.4198755400873E+00 -0.1094775297949E+01  0.0000000000000E+00
-0.4183926570604E+00 -0.1012005652488E+01  0.0000000000000E+00
-0.4161041886816E+00 -0.9292835075316E+00  0.0000000000000E+00
-0.4129024717991E+00 -0.8466382478836E+00  0.0000000000000E+00
-0.4086883965102E+00 -0.7641068765812E+00  0.0000000000000E+00
-0.4034014924306E+00 -0.6817291301575E+00  0.0000000000000E+00
-0.3970704386426E+00 -0.5995335059625E+00  0.0000000000000E+00
-0.3898748451289E+00 -0.5175130147949E+00  0.0000000000000E+00
-0.3821791919351E+00 -0.4356038597868E+00  0.0000000000000E+00
-0.3744835386638E+00 -0.3536947047861E+00  0.0000000000000E+00
-0.3672879449259E+00 -0.2716742136390E+00  0.0000000000000E+00
-0.3609568907891E+00 -0.1894785894719E+00  0.0000000000000E+00
-0.3556699862643E+00 -0.1071008430780E+00  0.0000000000000E+00
-0.3514559104608E+00 -0.2456947180318E-01  0.0000000000000E+00
-0.3482541930169E+00  0.5807578782172E-01  0.0000000000000E+00
-0.3459657240469E+00  0.1407979327608E+00  0.0000000000000E+00
-0.3444828404110E+00  0.2235675782092E+00  0.0000000000000E+00
-0.3437038233424E+00  0.3063630751341E+00  0.0000000000000E+00
-0.3883082762411E+00 -0.1177349938204E+01  0.0000000000000E+00
-0.3876009471235E+00 -0.1094333584921E+01  0.0000000000000E+00
-0.3862438950063E+00 -0.1011343083549E+01  0.0000000000000E+00
-0.3841432256237E+00 -0.9284000833865E+00  0.0000000000000E+00
-0.3811995576068E+00 -0.8455339692466E+00  0.0000000000000E+00
-0.3773214048994E+00 -0.7627817440508E+00  0.0000000000000E+00
-0.3724529487092E+00 -0.6801831438981E+00  0.0000000000000E+00
-0.3666206620752E+00 -0.5977666653515E+00  0.0000000000000E+00
-0.3599903388695E+00 -0.5155253183156E+00  0.0000000000000E+00
-0.3528984222012E+00 -0.4333953059157E+00  0.0000000000000E+00
-0.3458065054554E+00 -0.3512652935227E+00  0.0000000000000E+00
-0.3391761820256E+00 -0.2690239465056E+00  0.0000000000000E+00
-0.3333438950428E+00 -0.1866074679848E+00  0.0000000000000E+00
-0.3284754384073E+00 -0.1040088678596E+00  0.0000000000000E+00
-0.3245972851854E+00 -0.2125664268932E-01  0.0000000000000E+00
-0.3216536166071E+00  0.6160947142931E-01  0.0000000000000E+00
-0.3195529466334E+00  0.1445524715757E+00  0.0000000000000E+00
-0.3181958939071E+00  0.2275429729362E+00  0.0000000000000E+00
-0.3174885641708E+00  0.3105593262131E+00  0.0000000000000E+00
-0.3559592285778E+00 -0.1177146175326E+01  0.0000000000000E+00
-0.3553208194146E+00 -0.1093926059465E+01  0.0000000000000E+00
-0.3540868308174E+00 -0.1010731795922E+01  0.0000000000000E+00
-0.3521711930307E+00 -0.9275850342389E+00  0.0000000000000E+00
-0.3494828064657E+00 -0.8445151592370E+00  0.0000000000000E+00
-0.3459378089090E+00 -0.7615591737315E+00  0.0000000000000E+00
-0.3414850331533E+00 -0.6787568134207E+00  0.0000000000000E+00
-0.3361487461853E+00 -0.5961365741418E+00  0.0000000000000E+00
-0.3300809257594E+00 -0.5136914649741E+00  0.0000000000000E+00
-0.3235899780573E+00 -0.4313576890368E+00  0.0000000000000E+00
-0.3170990302776E+00 -0.3490239131059E+00  0.0000000000000E+00
-0.3110312096275E+00 -0.2665788039555E+00  0.0000000000000E+00
-0.3056949223106E+00 -0.1839585647001E+00  0.0000000000000E+00
-0.3012421461097E+00 -0.1011562044146E+00  0.0000000000000E+00
-0.2976971480385E+00 -0.1820021893247E-01  0.0000000000000E+00
-0.2950087609122E+00  0.6486965604994E-01  0.0000000000000E+00
-0.2930931225343E+00  0.1480164177185E+00  0.0000000000000E+00
-0.2918591333281E+00  0.2312106812512E+00  0.0000000000000E+00
-0.2912207235462E+00  0.3144307971066E+00  0.0000000000000E+00
-0.3236076203727E+00 -0.1176959645432E+01  0.0000000000000E+00
-0.3230355706320E+00 -0.1093552999950E+01  0.0000000000000E+00
-0.3219220850352E+00 -0.1010172207159E+01  0.0000000000000E+00
-0.3201889183408E+00 -0.9268389168223E+00  0.0000000000000E+00
-0.3177532527416E+00 -0.8435825137707E+00  0.0000000000000E+00
-0.3145388498667E+00 -0.7604400007212E+00  0.0000000000000E+00
-0.3104991940892E+00 -0.6774511130053E+00  0.0000000000000E+00
-0.3056563463339E+00 -0.5946443457954E+00  0.0000000000000E+00
-0.3001484682258E+00 -0.5120127074157E+00  0.0000000000000E+00
-0.2942559290150E+00 -0.4294924009797E+00  0.0000000000000E+00
-0.2883633897267E+00 -0.3469720945496E+00  0.0000000000000E+00
-0.2828555113944E+00 -0.2643404561856E+00  0.0000000000000E+00
-0.2780126632903E+00 -0.1815336889972E+00  0.0000000000000E+00
-0.2739730070675E+00 -0.9854480130419E-01  0.0000000000000E+00
-0.2707586036781E+00 -0.1540228827586E-01  0.0000000000000E+00
-0.2683229375175E+00  0.6785411475801E-01  0.0000000000000E+00
-0.2665897702320E+00  0.1511874050807E+00  0.0000000000000E+00
-0.2654762840261E+00  0.2345681978628E+00  0.0000000000000E+00
-0.2649042336669E+00  0.3179748433392E+00  0.0000000000000E+00
-0.2912536660710E+00 -0.1176790477710E+01  0.0000000000000E+00
-0.2907456296570E+00 -0.1093214664755E+01  0.0000000000000E+00
-0.2897503009658E+00 -0.1009664704829E+01  0.0000000000000E+00
-0.2881972592727E+00 -0.9261622478972E+00  0.0000000000000E+00
-0.2860119685514E+00 -0.8427366787975E+00  0.0000000000000E+00
-0.2831258142719E+00 -0.7594250001585E+00  0.0000000000000E+00
-0.2794969323826E+00 -0.6762669469790E+00  0.0000000000000E+00
-0.2751451777386E+00 -0.5932910138288E+00  0.0000000000000E+00
-0.2701948958265E+00 -0.5104902083470E+00  0.0000000000000E+00
-0.2648984189668E+00 -0.4278007336419E+00  0.0000000000000E+00
-0.2596019420296E+00 -0.3451112589420E+00  0.0000000000000E+00
-0.2546516598934E+00 -0.2623104534743E+00  0.0000000000000E+00
-0.2502999049005E+00 -0.1793345203434E+00  0.0000000000000E+00
-0.2466710225660E+00 -0.9617646718464E-01  0.0000000000000E+00
-0.2437848677719E+00 -0.1286478856466E-01  0.0000000000000E+00
-0.2415995764893E+00  0.7056078051910E-01  0.0000000000000E+00
-0.2400465342051E+00  0.1540632374383E+00  0.0000000000000E+00
-0.2390512049048E+00  0.2376131973566E+00  0.0000000000000E+00
-0.2385431678721E+00  0.3211890103064E+00  0.0000000000000E+00
-0.2588975848758E+00 -0.1176638790520E+01  0.0000000000000E+00
-0.2584514348923E+00 -0.1092911290598E+01  0.0000000000000E+00
-0.2575721362084E+00 -0.1009209644008E+01  0.0000000000000E+00
-0.2561970926179E+00 -0.9255555008964E+00  0.0000000000000E+00
-0.2542600498742E+00 -0.8419782461075E+00  0.0000000000000E+00
-0.2517000172863E+00 -0.7585148821905E+00  0.0000000000000E+00
-0.2484797823734E+00 -0.6752051438462E+00  0.0000000000000E+00
-0.2446169939132E+00 -0.5920775251035E+00  0.0000000000000E+00
-0.2402221812472E+00 -0.5091250329875E+00  0.0000000000000E+00
-0.2355196397695E+00 -0.4262838706018E+00  0.0000000000000E+00
-0.2308170982141E+00 -0.3434427082208E+00  0.0000000000000E+00
-0.2264222853240E+00 -0.2604902161173E+00  0.0000000000000E+00
-0.2225594965150E+00 -0.1773625973918E+00  0.0000000000000E+00
-0.2193392611568E+00 -0.9405285906584E-01  0.0000000000000E+00
-0.2167792280544E+00 -0.1058949516580E-01  0.0000000000000E+00
-0.2148421847494E+00  0.7298775960893E-01  0.0000000000000E+00
-0.2134671405677E+00  0.1566419027092E+00  0.0000000000000E+00
-0.2125878412748E+00  0.2403435492926E+00  0.0000000000000E+00
-0.2121416906726E+00  0.3240710492098E+00  0.0000000000000E+00
-0.2265396002550E+00 -0.1176504690970E+01  0.0000000000000E+00
-0.2261534332785E+00 -0.1092643091695E+01  0.0000000000000E+00
-0.2253882611815E+00 -0.1008807346019E+01  0.0000000000000E+00
-0.2241893122779E+00 -0.9250191042510E+00  0.0000000000000E+00
-0.2224986141016E+00 -0.8413077512389E+00  0.0000000000000E+00
-0.2202627997988E+00 -0.7577102894623E+00  0.0000000000000E+00
-0.2174493084560E+00 -0.6742664533583E+00  0.0000000000000E+00
-0.2140735827668E+00 -0.5910047364781E+00  0.0000000000000E+00
-0.2102323359199E+00 -0.5079181453036E+00  0.0000000000000E+00
-0.2061218263833E+00 -0.4249428829342E+00  0.0000000000000E+00
-0.2020113167692E+00 -0.3419676205689E+00  0.0000000000000E+00
-0.1981700696982E+00 -0.2588810294053E+00  0.0000000000000E+00
-0.1947943436601E+00 -0.1756193125402E+00  0.0000000000000E+00
-0.1919808518720E+00 -0.9217547645228E-01  0.0000000000000E+00
-0.1897450370548E+00 -0.8578014690528E-02  0.0000000000000E+00
-0.1880543383171E+00  0.7513333830921E-01  0.0000000000000E+00
-0.1868553888224E+00  0.1589215800678E+00  0.0000000000000E+00
-0.1860902161163E+00  0.2427573257374E+00  0.0000000000000E+00
-0.1857040485211E+00  0.3266189250080E+00  0.0000000000000E+00
-0.1941799400497E+00 -0.1176388274585E+01  0.0000000000000E+00
-0.1938520805015E+00 -0.1092410259098E+01  0.0000000000000E+00
-0.1931993594199E+00 -0.1008458097441E+01  0.0000000000000E+00
-0.1921748296420E+00 -0.9245534400649E+00  0.0000000000000E+00
-0.1907288004820E+00 -0.8407256718208E+00  0.0000000000000E+00
-0.1888155289237E+00 -0.7570117951279E+00  0.0000000000000E+00
-0.1864071056176E+00 -0.6734515441946E+00  0.0000000000000E+00
-0.1835167671670E+00 -0.5900734121569E+00  0.0000000000000E+00
-0.1802274106004E+00 -0.5068704050253E+00  0.0000000000000E+00
-0.1767072574573E+00 -0.4237787258958E+00  0.0000000000000E+00
-0.1731871042367E+00 -0.3406870467698E+00  0.0000000000000E+00
-0.1698977474458E+00 -0.2574840396476E+00  0.0000000000000E+00
-0.1670074086464E+00 -0.1741059076228E+00  0.0000000000000E+00
-0.1645989848950E+00 -0.9054565670324E-01  0.0000000000000E+00
-0.1626857128222E+00 -0.6831780023127E-02  0.0000000000000E+00
-0.1612396831009E+00  0.7699598821036E-01  0.0000000000000E+00
-0.1602151527318E+00  0.1609006455788E+00  0.0000000000000E+00
-0.1595624310412E+00  0.2448528072298E+00  0.0000000000000E+00
-0.1592345708744E+00  0.3288308227139E+00  0.0000000000000E+00
-0.1618188366807E+00 -0.1176289624985E+01  0.0000000000000E+00
-0.1615478413963E+00 -0.1092212960043E+01  0.0000000000000E+00
-0.1610061281651E+00 -0.1008162149129E+01  0.0000000000000E+00
-0.1601545743482E+00 -0.9241588428095E+00  0.0000000000000E+00
-0.1589517710402E+00 -0.8402324259419E+00  0.0000000000000E+00
-0.1573595990610E+00 -0.7564199008932E+00  0.0000000000000E+00
-0.1553548006218E+00 -0.6727610016777E+00  0.0000000000000E+00
-0.1529484062311E+00 -0.5892842210799E+00  0.0000000000000E+00
-0.1502094967515E+00 -0.5059825647107E+00  0.0000000000000E+00
-0.1472782567965E+00 -0.4227922356629E+00  0.0000000000000E+00
-0.1443470167639E+00 -0.3396019066179E+00  0.0000000000000E+00
-0.1416081070601E+00 -0.2563002502565E+00  0.0000000000000E+00
-0.1392017123206E+00 -0.1728234696695E+00  0.0000000000000E+00
-0.1371969134361E+00 -0.8916457046546E-01  0.0000000000000E+00
-0.1356047409424E+00 -0.5352045427417E-02  0.0000000000000E+00
-0.1344019370731E+00  0.7857437143128E-01  0.0000000000000E+00
-0.1335503826650E+00  0.1625776777437E+00  0.0000000000000E+00
-0.1330086688247E+00  0.2466284886535E+00  0.0000000000000E+00
-0.1327376729217E+00  0.3307051535930E+00  0.0000000000000E+00
-0.1294565253983E+00 -0.1176208813448E+01  0.0000000000000E+00
-0.1292411864641E+00 -0.1092051337089E+01  0.0000000000000E+00
-0.1288092731701E+00 -0.1007919714918E+01  0.0000000000000E+00
-0.1281294874025E+00 -0.9238355976011E+00  0.0000000000000E+00
-0.1271687020359E+00 -0.8398283699972E+00  0.0000000000000E+00
-0.1258964217254E+00 -0.7559350344316E+00  0.0000000000000E+00
-0.1242940402406E+00 -0.6721953247595E+00  0.0000000000000E+00
-0.1223703819904E+00 -0.5886377334774E+00  0.0000000000000E+00
-0.1201807116679E+00 -0.5052552658689E+00  0.0000000000000E+00
-0.1178371769611E+00 -0.4219841250242E+00  0.0000000000000E+00
-0.1154936421767E+00 -0.3387129841817E+00  0.0000000000000E+00
-0.1133039716300E+00 -0.2553305165795E+00  0.0000000000000E+00
-0.1113803130311E+00 -0.1717729253060E+00  0.0000000000000E+00
-0.1097779311010E+00 -0.8803321564312E-01  0.0000000000000E+00
-0.1085056502760E+00 -0.4139880085961E-02  0.0000000000000E+00
-0.1075448643481E+00  0.7986734751083E-01  0.0000000000000E+00
-0.1068650779893E+00  0.1639514648225E+00  0.0000000000000E+00
-0.1064331640861E+00  0.2480830869894E+00  0.0000000000000E+00
-0.1062178245334E+00  0.3322405633470E+00  0.0000000000000E+00
-0.9709324430840E-01 -0.1176145898689E+01  0.0000000000000E+00
-0.9693259191755E-01 -0.1091925507662E+01  0.0000000000000E+00
-0.9660950875430E-01 -0.1007730970950E+01  0.0000000000000E+00
-0.9610052123146E-01 -0.9235839392927E+00  0.0000000000000E+00
-0.9538078400334E-01 -0.8395137975525E+00  0.0000000000000E+00
-0.9442742555954E-01 -0.7555575480213E+00  0.0000000000000E+00
-0.9322649122599E-01 -0.6717549244308E+00  0.0000000000000E+00
-0.9178459930891E-01 -0.5881344190532E+00  0.0000000000000E+00
-0.9014319832780E-01 -0.5046890369170E+00  0.0000000000000E+00
-0.8838639904588E-01 -0.4213549811103E+00  0.0000000000000E+00
-0.8662959968642E-01 -0.3380209253053E+00  0.0000000000000E+00
-0.8498819848112E-01 -0.2545755431738E+00  0.0000000000000E+00
-0.8354630621523E-01 -0.1709550378026E+00  0.0000000000000E+00
-0.8234537143641E-01 -0.8715241421902E-01  0.0000000000000E+00
-0.8139201247807E-01 -0.3196164694228E-02  0.0000000000000E+00
-0.8067227468865E-01  0.8087397704071E-01  0.0000000000000E+00
-0.8016328657462E-01  0.1650210086939E+00  0.0000000000000E+00
-0.7984020280232E-01  0.2492155454030E+00  0.0000000000000E+00
-0.7967954979286E-01  0.3334359364282E+00  0.0000000000000E+00
-0.6472923382140E-01 -0.1176100926619E+01  0.0000000000000E+00
-0.6462253857726E-01 -0.1091835563588E+01  0.0000000000000E+00
-0.6440755614920E-01 -0.1007596054963E+01  0.0000000000000E+00
-0.6406863747714E-01 -0.9234040515362E+00  0.0000000000000E+00
-0.6358921899517E-01 -0.8392889381722E+00  0.0000000000000E+00
-0.6295405302690E-01 -0.7552877171396E+00  0.0000000000000E+00
-0.6215383645313E-01 -0.6714401220813E+00  0.0000000000000E+00
-0.6119298147473E-01 -0.5877746451094E+00  0.0000000000000E+00
-0.6009912043493E-01 -0.5042842910700E+00  0.0000000000000E+00
-0.5892832717247E-01 -0.4209052630496E+00  0.0000000000000E+00
-0.5775753383247E-01 -0.3375262350304E+00  0.0000000000000E+00
-0.5666367256850E-01 -0.2540358809941E+00  0.0000000000000E+00
-0.5570281724129E-01 -0.1703704040265E+00  0.0000000000000E+00
-0.5490260022224E-01 -0.8652280897287E-01  0.0000000000000E+00
-0.5426743373944E-01 -0.2521587944447E-02  0.0000000000000E+00
-0.5378801469616E-01  0.8159352541603E-01  0.0000000000000E+00
-0.5344909543291E-01  0.1657855288401E+00  0.0000000000000E+00
-0.5323411239580E-01  0.2500250374636E+00  0.0000000000000E+00
-0.5312741653305E-01  0.3342904004928E+00  0.0000000000000E+00
-0.3236473608673E-01 -0.1176073930167E+01  0.0000000000000E+00
-0.3231151074225E-01 -0.1091781570725E+01  0.0000000000000E+00
-0.3220414180319E-01 -0.1007515065743E+01  0.0000000000000E+00
-0.3203480473717E-01 -0.9232960660450E+00  0.0000000000000E+00
-0.3179521775803E-01 -0.8391539564979E+00  0.0000000000000E+00
-0.3147775702315E-01 -0.7551257393558E+00  0.0000000000000E+00
-0.3107777096723E-01 -0.6712511482086E+00  0.0000000000000E+00
-0.3059746568405E-01 -0.5875586750717E+00  0.0000000000000E+00
-0.3005065733864E-01 -0.5040413246819E+00  0.0000000000000E+00
-0.2946538284527E-01 -0.4206353001246E+00  0.0000000000000E+00
-0.2888010827436E-01 -0.3372292755679E+00  0.0000000000000E+00
-0.2833329970477E-01 -0.2537119251797E+00  0.0000000000000E+00
-0.2785299407277E-01 -0.1700194520450E+00  0.0000000000000E+00
-0.2745300757158E-01 -0.8614486090003E-01  0.0000000000000E+00
-0.2713554632216E-01 -0.2116643760018E-02  0.0000000000000E+00
-0.2689595878172E-01  0.8202546578529E-01  0.0000000000000E+00
-0.2672662112451E-01  0.1662444654814E+00  0.0000000000000E+00
-0.2661925157640E-01  0.2505109704632E+00  0.0000000000000E+00
-0.2656602561332E-01  0.3348033299045E+00  0.0000000000000E+00
 0.5582238603101E-08 -0.1176064929145E+01  0.0000000000000E+00
 0.4960748769495E-08 -0.1091763568694E+01  0.0000000000000E+00
 0.4343732432866E-08 -0.1007488062721E+01  0.0000000000000E+00
 0.3735549954647E-08 -0.9232600620628E+00  0.0000000000000E+00
 0.3142548509650E-08 -0.8391089515842E+00  0.0000000000000E+00
 0.2573668596438E-08 -0.7550717335353E+00  0.0000000000000E+00
 0.2040772407577E-08 -0.6711881414885E+00  0.0000000000000E+00
 0.1558046544304E-08 -0.5874866674269E+00  0.0000000000000E+00
 0.1139719687470E-08 -0.5039603160504E+00  0.0000000000000E+00
 0.7961283098685E-09 -0.4205452904441E+00  0.0000000000000E+00
 0.5300797238991E-09 -0.3371302648377E+00  0.0000000000000E+00
 0.3359349566239E-09 -0.2536039134613E+00  0.0000000000000E+00
 0.2020188105716E-09 -0.1699024393997E+00  0.0000000000000E+00
 0.1143966199395E-09 -0.8601884735283E-01  0.0000000000000E+00
 0.6005099690279E-10 -0.1981629303997E-02  0.0000000000000E+00
 0.2835452662725E-10  0.8216948117463E-01  0.0000000000000E+00
 0.1136281835831E-10  0.1663974818332E+00  0.0000000000000E+00
 0.3398426023553E-11  0.2506729878062E+00  0.0000000000000E+00
 0.5133240929992E-12  0.3349743482567E+00  0.0000000000000E+00
 0.3236474725121E-01 -0.1176073930165E+01  0.0000000000000E+00
 0.3231152066375E-01 -0.1091781570722E+01  0.0000000000000E+00
 0.3220415049066E-01 -0.1007515065739E+01  0.0000000000000E+00
 0.3203481220827E-01 -0.9232960660417E+00  0.0000000000000E+00
 0.3179522404313E-01 -0.8391539564960E+00  0.0000000000000E+00
 0.3147776217049E-01 -0.7551257393562E+00  0.0000000000000E+00
 0.3107777504878E-01 -0.6712511482121E+00  0.0000000000000E+00
 0.3059746880014E-01 -0.5875586750789E+00  0.0000000000000E+00
 0.3005065961808E-01 -0.5040413246926E+00  0.0000000000000E+00
 0.2946538443753E-01 -0.4206353001381E+00  0.0000000000000E+00
 0.2888010933452E-01 -0.3372292755830E+00  0.0000000000000E+00
 0.2833330037664E-01 -0.2537119251951E+00  0.0000000000000E+00
 0.2785299447681E-01 -0.1700194520597E+00  0.0000000000000E+00
 0.2745300780037E-01 -0.8614486091335E-01  0.0000000000000E+00
 0.2713554644227E-01 -0.2116643771438E-02  0.0000000000000E+00
 0.2689595883843E-01  0.8202546577601E-01  0.0000000000000E+00
 0.2672662114723E-01  0.1662444654744E+00  0.0000000000000E+00
 0.2661925158320E-01  0.2505109704585E+00  0.0000000000000E+00
 0.2656602561434E-01  0.3348033299022E+00  0.0000000000000E+00
 0.6472924498588E-01 -0.1176100926615E+01  0.0000000000000E+00
 0.6462254849876E-01 -0.1091835563582E+01  0.0000000000000E+00
 0.6440756483667E-01 -0.1007596054955E+01  0.0000000000000E+00
 0.6406864494824E-01 -0.9234040515296E+00  0.0000000000000E+00
 0.6358922528027E-01 -0.8392889381684E+00  0.0000000000000E+00
 0.6295405817423E-01 -0.7552877171404E+00  0.0000000000000E+00
 0.6215384053467E-01 -0.6714401220885E+00  0.0000000000000E+00
 0.6119298459082E-01 -0.5877746451237E+00  0.0000000000000E+00
 0.6009912271437E-01 -0.5042842910913E+00  0.0000000000000E+00
 0.5892832876473E-01 -0.4209052630765E+00  0.0000000000000E+00
 0.5775753489263E-01 -0.3375262350606E+00  0.0000000000000E+00
 0.5666367324036E-01 -0.2540358810250E+00  0.0000000000000E+00
 0.5570281764532E-01 -0.1703704040560E+00  0.0000000000000E+00
 0.5490260045104E-01 -0.8652280899949E-01  0.0000000000000E+00
 0.5426743385954E-01 -0.2521587967286E-02  0.0000000000000E+00
 0.5378801475287E-01  0.8159352539748E-01  0.0000000000000E+00
 0.5344909545563E-01  0.1657855288261E+00  0.0000000000000E+00
 0.5323411240259E-01  0.2500250374542E+00  0.0000000000000E+00
 0.5312741653408E-01  0.3342904004881E+00  0.0000000000000E+00
 0.9709325547288E-01 -0.1176145898683E+01  0.0000000000000E+00
 0.9693260183905E-01 -0.1091925507652E+01  0.0000000000000E+00
 0.9660951744177E-01 -0.1007730970939E+01  0.0000000000000E+00
 0.9610052870256E-01 -0.9235839392827E+00  0.0000000000000E+00
 0.9538079028844E-01 -0.8395137975467E+00  0.0000000000000E+00
 0.9442743070688E-01 -0.7555575480226E+00  0.0000000000000E+00
 0.9322649530754E-01 -0.6717549244415E+00  0.0000000000000E+00
 0.9178460242501E-01 -0.5881344190747E+00  0.0000000000000E+00
 0.9014320060724E-01 -0.5046890369490E+00  0.0000000000000E+00
 0.8838640063814E-01 -0.4213549811507E+00  0.0000000000000E+00
 0.8662960074658E-01 -0.3380209253506E+00  0.0000000000000E+00
 0.8498819915299E-01 -0.2545755432202E+00  0.0000000000000E+00
 0.8354630661927E-01 -0.1709550378469E+00  0.0000000000000E+00
 0.8234537166520E-01 -0.8715241425896E-01  0.0000000000000E+00
 0.8139201259817E-01 -0.3196164728487E-02  0.0000000000000E+00
 0.8067227474536E-01  0.8087397701289E-01  0.0000000000000E+00
 0.8016328659734E-01  0.1650210086728E+00  0.0000000000000E+00
 0.7984020280912E-01  0.2492155453889E+00  0.0000000000000E+00
 0.7967954979389E-01  0.3334359364211E+00  0.0000000000000E+00
 0.1294565365627E+00 -0.1176208813440E+01  0.0000000000000E+00
 0.1292411963856E+00 -0.1092051337076E+01  0.0000000000000E+00
 0.1288092818575E+00 -0.1007919714903E+01  0.0000000000000E+00
 0.1281294948736E+00 -0.9238355975878E+00  0.0000000000000E+00
 0.1271687083210E+00 -0.8398283699895E+00  0.0000000000000E+00
 0.1258964268727E+00 -0.7559350344332E+00  0.0000000000000E+00
 0.1242940443221E+00 -0.6721953247737E+00  0.0000000000000E+00
 0.1223703851065E+00 -0.5886377335061E+00  0.0000000000000E+00
 0.1201807139474E+00 -0.5052552659116E+00  0.0000000000000E+00
 0.1178371785533E+00 -0.4219841250780E+00  0.0000000000000E+00
 0.1154936432368E+00 -0.3387129842421E+00  0.0000000000000E+00
 0.1133039723019E+00 -0.2553305166413E+00  0.0000000000000E+00
 0.1113803134351E+00 -0.1717729253651E+00  0.0000000000000E+00
 0.1097779313298E+00 -0.8803321569638E-01  0.0000000000000E+00
 0.1085056503961E+00 -0.4139880131640E-02  0.0000000000000E+00
 0.1075448644048E+00  0.7986734747374E-01  0.0000000000000E+00
 0.1068650780120E+00  0.1639514647945E+00  0.0000000000000E+00
 0.1064331640929E+00  0.2480830869706E+00  0.0000000000000E+00
 0.1062178245344E+00  0.3322405633376E+00  0.0000000000000E+00
 0.1618188478452E+00 -0.1176289624975E+01  0.0000000000000E+00
 0.1615478513178E+00 -0.1092212960027E+01  0.0000000000000E+00
 0.1610061368526E+00 -0.1008162149110E+01  0.0000000000000E+00
 0.1601545818193E+00 -0.9241588427928E+00  0.0000000000000E+00
 0.1589517773253E+00 -0.8402324259322E+00  0.0000000000000E+00
 0.1573596042083E+00 -0.7564199008953E+00  0.0000000000000E+00
 0.1553548047034E+00 -0.6727610016955E+00  0.0000000000000E+00
 0.1529484093472E+00 -0.5892842211157E+00  0.0000000000000E+00
 0.1502094990309E+00 -0.5059825647640E+00  0.0000000000000E+00
 0.1472782583887E+00 -0.4227922357302E+00  0.0000000000000E+00
 0.1443470178240E+00 -0.3396019066934E+00  0.0000000000000E+00
 0.1416081077320E+00 -0.2563002503338E+00  0.0000000000000E+00
 0.1392017127246E+00 -0.1728234697433E+00  0.0000000000000E+00
 0.1371969136649E+00 -0.8916457053203E-01  0.0000000000000E+00
 0.1356047410625E+00 -0.5352045484516E-02  0.0000000000000E+00
 0.1344019371298E+00  0.7857437138492E-01  0.0000000000000E+00
 0.1335503826877E+00  0.1625776777087E+00  0.0000000000000E+00
 0.1330086688315E+00  0.2466284886301E+00  0.0000000000000E+00
 0.1327376729228E+00  0.3307051535812E+00  0.0000000000000E+00
 0.1941799512142E+00 -0.1176388274573E+01  0.0000000000000E+00
 0.1938520904230E+00 -0.1092410259078E+01  0.0000000000000E+00
 0.1931993681074E+00 -0.1008458097419E+01  0.0000000000000E+00
 0.1921748371131E+00 -0.9245534400449E+00  0.0000000000000E+00
 0.1907288067671E+00 -0.8407256718092E+00  0.0000000000000E+00
 0.1888155340711E+00 -0.7570117951304E+00  0.0000000000000E+00
 0.1864071096991E+00 -0.6734515442159E+00  0.0000000000000E+00
 0.1835167702831E+00 -0.5900734121999E+00  0.0000000000000E+00
 0.1802274128798E+00 -0.5068704050893E+00  0.0000000000000E+00
 0.1767072590495E+00 -0.4237787259765E+00  0.0000000000000E+00
 0.1731871052968E+00 -0.3406870468603E+00  0.0000000000000E+00
 0.1698977481177E+00 -0.2574840397403E+00  0.0000000000000E+00
 0.1670074090505E+00 -0.1741059077114E+00  0.0000000000000E+00
 0.1645989851238E+00 -0.9054565678312E-01  0.0000000000000E+00
 0.1626857129423E+00 -0.6831780091645E-02  0.0000000000000E+00
 0.1612396831576E+00  0.7699598815473E-01  0.0000000000000E+00
 0.1602151527545E+00  0.1609006455368E+00  0.0000000000000E+00
 0.1595624310480E+00  0.2448528072017E+00  0.0000000000000E+00
 0.1592345708754E+00  0.3288308226998E+00  0.0000000000000E+00
 0.2265396114195E+00 -0.1176504690955E+01  0.0000000000000E+00
 0.2261534432000E+00 -0.1092643091672E+01  0.0000000000000E+00
 0.2253882698689E+00 -0.1008807345993E+01  0.0000000000000E+00
 0.2241893197490E+00 -0.9250191042277E+00  0.0000000000000E+00
 0.2224986203867E+00 -0.8413077512254E+00  0.0000000000000E+00
 0.2202628049462E+00 -0.7577102894652E+00  0.0000000000000E+00
 0.2174493125376E+00 -0.6742664533833E+00  0.0000000000000E+00
 0.2140735858829E+00 -0.5910047365283E+00  0.0000000000000E+00
 0.2102323381994E+00 -0.5079181453782E+00  0.0000000000000E+00
 0.2061218279756E+00 -0.4249428830284E+00  0.0000000000000E+00
 0.2020113178294E+00 -0.3419676206746E+00  0.0000000000000E+00
 0.1981700703700E+00 -0.2588810295135E+00  0.0000000000000E+00
 0.1947943440642E+00 -0.1756193126435E+00  0.0000000000000E+00
 0.1919808521008E+00 -0.9217547654548E-01  0.0000000000000E+00
 0.1897450371749E+00 -0.8578014770466E-02  0.0000000000000E+00
 0.1880543383738E+00  0.7513333824430E-01  0.0000000000000E+00
 0.1868553888451E+00  0.1589215800187E+00  0.0000000000000E+00
 0.1860902161231E+00  0.2427573257046E+00  0.0000000000000E+00
 0.1857040485222E+00  0.3266189249916E+00  0.0000000000000E+00
 0.2588975960403E+00 -0.1176638790504E+01  0.0000000000000E+00
 0.2584514448138E+00 -0.1092911290572E+01  0.0000000000000E+00
 0.2575721448959E+00 -0.1009209643977E+01  0.0000000000000E+00
 0.2561971000890E+00 -0.9255555008698E+00  0.0000000000000E+00
 0.2542600561593E+00 -0.8419782460920E+00  0.0000000000000E+00
 0.2517000224336E+00 -0.7585148821938E+00  0.0000000000000E+00
 0.2484797864549E+00 -0.6752051438747E+00  0.0000000000000E+00
 0.2446169970293E+00 -0.5920775251608E+00  0.0000000000000E+00
 0.2402221835267E+00 -0.5091250330728E+00  0.0000000000000E+00
 0.2355196413617E+00 -0.4262838707095E+00  0.0000000000000E+00
 0.2308170992743E+00 -0.3434427083415E+00  0.0000000000000E+00
 0.2264222859959E+00 -0.2604902162409E+00  0.0000000000000E+00
 0.2225594969190E+00 -0.1773625975099E+00  0.0000000000000E+00
 0.2193392613856E+00 -0.9405285917235E-01  0.0000000000000E+00
 0.2167792281745E+00 -0.1058949525716E-01  0.0000000000000E+00
 0.2148421848061E+00  0.7298775953475E-01  0.0000000000000E+00
 0.2134671405904E+00  0.1566419026531E+00  0.0000000000000E+00
 0.2125878412816E+00  0.2403435492551E+00  0.0000000000000E+00
 0.2121416906736E+00  0.3240710491911E+00  0.0000000000000E+00
 0.2912536772355E+00 -0.1176790477692E+01  0.0000000000000E+00
 0.2907456395785E+00 -0.1093214664726E+01  0.0000000000000E+00
 0.2897503096532E+00 -0.1009664704795E+01  0.0000000000000E+00
 0.2881972667438E+00 -0.9261622478673E+00  0.0000000000000E+00
 0.2860119748365E+00 -0.8427366787801E+00  0.0000000000000E+00
 0.2831258194192E+00 -0.7594250001622E+00  0.0000000000000E+00
 0.2794969364642E+00 -0.6762669470111E+00  0.0000000000000E+00
 0.2751451808547E+00 -0.5932910138932E+00  0.0000000000000E+00
 0.2701948981060E+00 -0.5104902084429E+00  0.0000000000000E+00
 0.2648984205591E+00 -0.4278007337630E+00  0.0000000000000E+00
 0.2596019430898E+00 -0.3451112590778E+00  0.0000000000000E+00
 0.2546516605652E+00 -0.2623104536134E+00  0.0000000000000E+00
 0.2502999053046E+00 -0.1793345204763E+00  0.0000000000000E+00
 0.2466710227948E+00 -0.9617646730447E-01  0.0000000000000E+00
 0.2437848678920E+00 -0.1286478866744E-01  0.0000000000000E+00
 0.2415995765460E+00  0.7056078043565E-01  0.0000000000000E+00
 0.2400465342278E+00  0.1540632373752E+00  0.0000000000000E+00
 0.2390512049116E+00  0.2376131973144E+00  0.0000000000000E+00
 0.2385431678732E+00  0.3211890102853E+00  0.0000000000000E+00
 0.3236076315371E+00 -0.1176959645411E+01  0.0000000000000E+00
 0.3230355805535E+00 -0.1093552999917E+01  0.0000000000000E+00
 0.3219220937226E+00 -0.1010172207121E+01  0.0000000000000E+00
 0.3201889258119E+00 -0.9268389167890E+00  0.0000000000000E+00
 0.3177532590267E+00 -0.8435825137514E+00  0.0000000000000E+00
 0.3145388550141E+00 -0.7604400007254E+00  0.0000000000000E+00
 0.3104991981707E+00 -0.6774511130409E+00  0.0000000000000E+00
 0.3056563494499E+00 -0.5946443458670E+00  0.0000000000000E+00
 0.3001484705052E+00 -0.5120127075223E+00  0.0000000000000E+00
 0.2942559306073E+00 -0.4294924011143E+00  0.0000000000000E+00
 0.2883633907869E+00 -0.3469720947005E+00  0.0000000000000E+00
 0.2828555120663E+00 -0.2643404563401E+00  0.0000000000000E+00
 0.2780126636944E+00 -0.1815336891448E+00  0.0000000000000E+00
 0.2739730072963E+00 -0.9854480143733E-01  0.0000000000000E+00
 0.2707586037982E+00 -0.1540228839006E-01  0.0000000000000E+00
 0.2683229375742E+00  0.6785411466528E-01  0.0000000000000E+00
 0.2665897702547E+00  0.1511874050106E+00  0.0000000000000E+00
 0.2654762840329E+00  0.2345681978159E+00  0.0000000000000E+00
 0.2649042336679E+00  0.3179748433157E+00  0.0000000000000E+00
 0.3559592397423E+00 -0.1177146175304E+01  0.0000000000000E+00
 0.3553208293361E+00 -0.1093926059429E+01  0.0000000000000E+00
 0.3540868395049E+00 -0.1010731795881E+01  0.0000000000000E+00
 0.3521712005018E+00 -0.9275850342023E+00  0.0000000000000E+00
 0.3494828127508E+00 -0.8445151592157E+00  0.0000000000000E+00
 0.3459378140564E+00 -0.7615591737361E+00  0.0000000000000E+00
 0.3414850372349E+00 -0.6787568134599E+00  0.0000000000000E+00
 0.3361487493013E+00 -0.5961365742205E+00  0.0000000000000E+00
 0.3300809280388E+00 -0.5136914650914E+00  0.0000000000000E+00
 0.3235899796495E+00 -0.4313576891848E+00  0.0000000000000E+00
 0.3170990313377E+00 -0.3490239132719E+00  0.0000000000000E+00
 0.3110312102994E+00 -0.2665788041255E+00  0.0000000000000E+00
 0.3056949227147E+00 -0.1839585648625E+00  0.0000000000000E+00
 0.3012421463385E+00 -0.1011562045611E+00  0.0000000000000E+00
 0.2976971481586E+00 -0.1820021905809E-01  0.0000000000000E+00
 0.2950087609689E+00  0.6486965594795E-01  0.0000000000000E+00
 0.2930931225570E+00  0.1480164176414E+00  0.0000000000000E+00
 0.2918591333349E+00  0.2312106811997E+00  0.0000000000000E+00
 0.2912207235473E+00  0.3144307970808E+00  0.0000000000000E+00
 0.3883082874056E+00 -0.1177349938180E+01  0.0000000000000E+00
 0.3876009570450E+00 -0.1094333584881E+01  0.0000000000000E+00
 0.3862439036937E+00 -0.1011343083504E+01  0.0000000000000E+00
 0.3841432330948E+00 -0.9284000833465E+00  0.0000000000000E+00
 0.3811995638919E+00 -0.8455339692234E+00  0.0000000000000E+00
 0.3773214100467E+00 -0.7627817440558E+00  0.0000000000000E+00
 0.3724529527907E+00 -0.6801831439408E+00  0.0000000000000E+00
 0.3666206651913E+00 -0.5977666654374E+00  0.0000000000000E+00
 0.3599903411489E+00 -0.5155253184436E+00  0.0000000000000E+00
 0.3528984237935E+00 -0.4333953060771E+00  0.0000000000000E+00
 0.3458065065156E+00 -0.3512652937038E+00  0.0000000000000E+00
 0.3391761826974E+00 -0.2690239466911E+00  0.0000000000000E+00
 0.3333438954468E+00 -0.1866074681620E+00  0.0000000000000E+00
 0.3284754386361E+00 -0.1040088680194E+00  0.0000000000000E+00
 0.3245972853055E+00 -0.2125664282636E-01  0.0000000000000E+00
 0.3216536166638E+00  0.6160947131804E-01  0.0000000000000E+00
 0.3195529466561E+00  0.1445524714917E+00  0.0000000000000E+00
 0.3181958939139E+00  0.2275429728799E+00  0.0000000000000E+00
 0.3174885641719E+00  0.3105593261850E+00  0.0000000000000E+00
 0.4206545677019E+00 -0.1177570794854E+01  0.0000000000000E+00
 0.4198755500088E+00 -0.1094775297906E+01  0.0000000000000E+00
 0.4183926657479E+00 -0.1012005652439E+01  0.0000000000000E+00
 0.4161041961527E+00 -0.9292835074883E+00  0.0000000000000E+00
 0.4129024780842E+00 -0.8466382478585E+00  0.0000000000000E+00
 0.4086884016575E+00 -0.7641068765866E+00  0.0000000000000E+00
 0.4034014965121E+00 -0.6817291302038E+00  0.0000000000000E+00
 0.3970704417587E+00 -0.5995335060555E+00  0.0000000000000E+00
 0.3898748474083E+00 -0.5175130149336E+00  0.0000000000000E+00
 0.3821791935274E+00 -0.4356038599617E+00  0.0000000000000E+00
 0.3744835397240E+00 -0.3536947049823E+00  0.0000000000000E+00
 0.3672879455978E+00 -0.2716742138399E+00  0.0000000000000E+00
 0.3609568911932E+00 -0.1894785896638E+00  0.0000000000000E+00
 0.3556699864930E+00 -0.1071008432511E+00  0.0000000000000E+00
 0.3514559105809E+00 -0.2456947195164E-01  0.0000000000000E+00
 0.3482541930737E+00  0.5807578770118E-01  0.0000000000000E+00
 0.3459657240697E+00  0.1407979326698E+00  0.0000000000000E+00
 0.3444828404178E+00  0.2235675781483E+00  0.0000000000000E+00
 0.3437038233434E+00  0.3063630751036E+00  0.0000000000000E+00
 0.4529978763389E+00 -0.1177808595837E+01  0.0000000000000E+00
 0.4521441996729E+00 -0.1095250899522E+01  0.0000000000000E+00
 0.4505325128840E+00 -0.1012719054215E+01  0.0000000000000E+00
 0.4480532727024E+00 -0.9302347086656E+00  0.0000000000000E+00
 0.4445905342089E+00 -0.8478272476697E+00  0.0000000000000E+00
 0.4400375636727E+00 -0.7655336743882E+00  0.0000000000000E+00
 0.4343292391371E+00 -0.6833937258195E+00  0.0000000000000E+00
 0.4274964457447E+00 -0.6014359001563E+00  0.0000000000000E+00
 0.4197326096009E+00 -0.5196532091523E+00  0.0000000000000E+00
 0.4114302477002E+00 -0.4379818559381E+00  0.0000000000000E+00
 0.4031278858770E+00 -0.3563105027157E+00  0.0000000000000E+00
 0.3953640499575E+00 -0.2745278116898E+00  0.0000000000000E+00
 0.3885312569138E+00 -0.1925699859965E+00  0.0000000000000E+00
 0.3828229328235E+00 -0.1104300373957E+00  0.0000000000000E+00
 0.3782699628018E+00 -0.2813646408445E-01  0.0000000000000E+00
 0.3748072248697E+00  0.5427099693629E-01  0.0000000000000E+00
 0.3723279852793E+00  0.1367553425046E+00  0.0000000000000E+00
 0.3707162990994E+00  0.2192871878241E+00  0.0000000000000E+00
 0.3698626230520E+00  0.3018448841465E+00  0.0000000000000E+00
 0.4853380192193E+00 -0.1178063182993E+01  0.0000000000000E+00
 0.4844065178131E+00 -0.1095760073461E+01  0.0000000000000E+00
 0.4826628627181E+00 -0.1013482814431E+01  0.0000000000000E+00
 0.4799896861621E+00 -0.9312530543456E+00  0.0000000000000E+00
 0.4762627614435E+00 -0.8491001779919E+00  0.0000000000000E+00
 0.4713677309814E+00 -0.7670611886636E+00  0.0000000000000E+00
 0.4652348212151E+00 -0.6851758238594E+00  0.0000000000000E+00
 0.4578971233085E+00 -0.6034725826789E+00  0.0000000000000E+00
 0.4495618794533E+00 -0.5219444779061E+00  0.0000000000000E+00
 0.4406496435805E+00 -0.4405277126782E+00  0.0000000000000E+00
 0.4317374077852E+00 -0.3591109474417E+00  0.0000000000000E+00
 0.4234021641542E+00 -0.2775828426453E+00  0.0000000000000E+00
 0.4160644665964E+00 -0.1958796014326E+00  0.0000000000000E+00
 0.4099315572753E+00 -0.1139942365940E+00  0.0000000000000E+00
 0.4050365273277E+00 -0.3195524723390E-01  0.0000000000000E+00
 0.4013096031704E+00  0.5019762914641E-01  0.0000000000000E+00
 0.3986364272057E+00  0.1324273892518E+00  0.0000000000000E+00
 0.3968927727197E+00  0.2147046482963E+00  0.0000000000000E+00
 0.3959612719321E+00  0.2970077578361E+00  0.0000000000000E+00
 0.5176748031315E+00 -0.1178334388446E+01  0.0000000000000E+00
 0.5166621180613E+00 -0.1096302483968E+01  0.0000000000000E+00
 0.5147831357883E+00 -0.1014296429452E+01  0.0000000000000E+00
 0.5119126640487E+00 -0.9323378730163E+00  0.0000000000000E+00
 0.5079181943651E+00 -0.8504561994364E+00  0.0000000000000E+00
 0.5026777453114E+00 -0.7686884121479E+00  0.0000000000000E+00
 0.4961168917201E+00 -0.6870742491826E+00  0.0000000000000E+00
 0.4882709307628E+00 -0.6056422106060E+00  0.0000000000000E+00
 0.4793609206920E+00 -0.5243853102994E+00  0.0000000000000E+00
 0.4698354523520E+00 -0.4432397514078E+00  0.0000000000000E+00
 0.4603099840896E+00 -0.3620941925070E+00  0.0000000000000E+00
 0.4513999742430E+00 -0.2808372921753E+00  0.0000000000000E+00
 0.4435540136345E+00 -0.1994052535644E+00  0.0000000000000E+00
 0.4369931604885E+00 -0.1177910905623E+00  0.0000000000000E+00
 0.4317527119493E+00 -0.3602330323987E-01  0.0000000000000E+00
 0.4277582428270E+00  0.4585837036842E-01  0.0000000000000E+00
 0.4248877716786E+00  0.1278169268257E+00  0.0000000000000E+00
 0.4230087900146E+00  0.2098229813567E+00  0.0000000000000E+00
 0.4219961055631E+00  0.2918548858427E+00  0.0000000000000E+00
 0.5500080506473E+00 -0.1178622037831E+01  0.0000000000000E+00
 0.5489106454817E+00 -0.1096877782317E+01  0.0000000000000E+00
 0.5468927995602E+00 -0.1015159376191E+01  0.0000000000000E+00
 0.5438214961249E+00 -0.9334884672285E+00  0.0000000000000E+00
 0.5395559449161E+00 -0.8518944401928E+00  0.0000000000000E+00
 0.5339665406536E+00 -0.7704142986701E+00  0.0000000000000E+00
 0.5269742065526E+00 -0.6890877812573E+00  0.0000000000000E+00
 0.5186164457815E+00 -0.6079433890446E+00  0.0000000000000E+00
 0.5091281326510E+00 -0.5269741370774E+00  0.0000000000000E+00
 0.4989858949427E+00 -0.4461162285085E+00  0.0000000000000E+00
 0.4888436573119E+00 -0.3652583199297E+00  0.0000000000000E+00
 0.4793553444056E+00 -0.2842890679358E+00  0.0000000000000E+00
 0.4709975839832E+00 -0.2031446756866E+00  0.0000000000000E+00
 0.4640052503276E+00 -0.1218181582348E+00  0.0000000000000E+00
 0.4584158465796E+00 -0.4033801667599E-01  0.0000000000000E+00
 0.4541502959321E+00  0.4125601038982E-01  0.0000000000000E+00
 0.4510789930880E+00  0.1229269193754E+00  0.0000000000000E+00
 0.4490611477755E+00  0.2046453255169E+00  0.0000000000000E+00
 0.4479637432285E+00  0.2863895810401E+00  0.0000000000000E+00
 0.5823375847483E+00 -0.1178925947981E+01  0.0000000000000E+00
 0.5811517460560E+00 -0.1097485602170E+01  0.0000000000000E+00
 0.5789913230366E+00 -0.1016071105142E+01  0.0000000000000E+00
 0.5757154744390E+00 -0.9347041043087E+00  0.0000000000000E+00
 0.5711751282173E+00 -0.8534139844207E+00  0.0000000000000E+00
 0.5652330552321E+00 -0.7722377492231E+00  0.0000000000000E+00
 0.5578055270715E+00 -0.6912151379102E+00  0.0000000000000E+00
 0.5489322528883E+00 -0.6103746526545E+00  0.0000000000000E+00
 0.5388619230434E+00 -0.5297093097315E+00  0.0000000000000E+00
 0.5280992022682E+00 -0.4491553123021E+00  0.0000000000000E+00
 0.5173364815706E+00 -0.3686013148624E+00  0.0000000000000E+00
 0.5072661519498E+00 -0.2879359719111E+00  0.0000000000000E+00
 0.4983928781155E+00 -0.2070954866168E+00  0.0000000000000E+00
 0.4909653504001E+00 -0.1260728752625E+00  0.0000000000000E+00
 0.4850232779294E+00 -0.4489664002671E-01  0.0000000000000E+00
 0.4804829322690E+00  0.3639347989323E-01  0.0000000000000E+00
 0.4772070842627E+00  0.1177604807511E+00  0.0000000000000E+00
 0.4750466618523E+00  0.1991749777953E+00  0.0000000000000E+00
 0.4738608237786E+00  0.2806153236156E+00  0.0000000000000E+00
 0.6146632317509E+00 -0.1179245927735E+01  0.0000000000000E+00
 0.6133850724925E+00 -0.1098125561208E+01  0.0000000000000E+00
 0.6110781854051E+00 -0.1017031042828E+01  0.0000000000000E+00
 0.6075939047578E+00 -0.9359840196208E+00  0.0000000000000E+00
 0.6027748767280E+00 -0.8550138763261E+00  0.0000000000000E+00
 0.5964762483236E+00 -0.7741576168557E+00  0.0000000000000E+00
 0.5886096395034E+00 -0.6934549810328E+00  0.0000000000000E+00
 0.5792169653885E+00 -0.6129344721698E+00  0.0000000000000E+00
 0.5685607323581E+00 -0.5325891078368E+00  0.0000000000000E+00
 0.5571736420618E+00 -0.4523550912038E+00  0.0000000000000E+00
 0.5457865518431E+00 -0.3721210745598E+00  0.0000000000000E+00
 0.5351303190368E+00 -0.2917757101970E+00  0.0000000000000E+00
 0.5257376452707E+00 -0.2112552012932E+00  0.0000000000000E+00
 0.5178710368958E+00 -0.1305525654266E+00  0.0000000000000E+00
 0.5115724090060E+00 -0.4969630591594E-01  0.0000000000000E+00
 0.5067533815375E+00  0.3127383741244E-01  0.0000000000000E+00
 0.5032691014814E+00  0.1123208606451E+00  0.0000000000000E+00
 0.5009622150030E+00  0.1934153790431E+00  0.0000000000000E+00
 0.4996840563632E+00  0.2745357455796E+00  0.0000000000000E+00
-0.1278896502369E+01 -0.1151672018574E+01  0.0000000000000E+00
-0.1293535989863E+01 -0.1042706098075E+01  0.0000000000000E+00
-0.1306740260238E+01 -0.9335568306302E+00  0.0000000000000E+00
-0.1318644601968E+01 -0.8242604251989E+00  0.0000000000000E+00
-0.1329259354471E+01 -0.7148349793802E+00  0.0000000000000E+00
-0.1338484588244E+01 -0.6052883756386E+00  0.0000000000000E+00
-0.1346107409420E+01 -0.4956230009344E+00  0.0000000000000E+00
-0.1352038793124E+01 -0.3858563250419E+00  0.0000000000000E+00
-0.1356201221531E+01 -0.2760094404429E+00  0.0000000000000E+00
-0.1358419956471E+01 -0.1661003673666E+00  0.0000000000000E+00
-0.1358695454008E+01 -0.5615693613661E-01  0.0000000000000E+00
-0.1357550403351E+01  0.5379250691215E-01  0.0000000000000E+00
-0.1350073384709E+01  0.1634872031569E+00  0.0000000000000E+00
-0.1331799419446E+01  0.2718874909373E+00  0.0000000000000E+00
-0.1302044898758E+01  0.3776416251695E+00  0.0000000000000E+00
-0.1260837701565E+01  0.4793297455530E+00  0.0000000000000E+00
-0.1209962422649E+01  0.5763646246461E+00  0.0000000000000E+00
-0.1151420815372E+01  0.6687610104146E+00  0.0000000000000E+00
-0.1085923484021E+01  0.7560985800172E+00  0.0000000000000E+00
-0.1245637993229E+01 -0.1153140953534E+01  0.0000000000000E+00
-0.1259434638352E+01 -0.1045658265064E+01  0.0000000000000E+00
-0.1271814610865E+01 -0.9380032398803E+00  0.0000000000000E+00
-0.1282897842471E+01 -0.8302113205031E+00  0.0000000000000E+00
-0.1292685410739E+01 -0.7223011985908E+00  0.0000000000000E+00
-0.1301074620519E+01 -0.6142822893251E+00  0.0000000000000E+00
-0.1307858886474E+01 -0.5061589456413E+00  0.0000000000000E+00
-0.1312956191413E+01 -0.3979492180895E+00  0.0000000000000E+00
-0.1316307640679E+01 -0.2896727215968E+00  0.0000000000000E+00
-0.1317777205404E+01 -0.1813431702324E+00  0.0000000000000E+00
-0.1317405808375E+01 -0.7298106903875E-01  0.0000000000000E+00
-0.1315729119569E+01  0.3539258808897E-01  0.0000000000000E+00
-0.1308123727530E+01  0.1435341243932E+00  0.0000000000000E+00
-0.1290374195784E+01  0.2504589646731E+00  0.0000000000000E+00
-0.1261835217099E+01  0.3548850080857E+00  0.0000000000000E+00
-0.1222528306679E+01  0.4554650322152E+00  0.0000000000000E+00
-0.1174136108167E+01  0.5516407687444E+00  0.0000000000000E+00
-0.1118546301820E+01  0.6434246428656E+00  0.0000000000000E+00
-0.1056423855374E+01  0.7304173146964E+00  0.0000000000000E+00
-0.1212379484089E+01 -0.1154609888494E+01  0.0000000000000E+00
-0.1225333286841E+01 -0.1048610432053E+01  0.0000000000000E+00
-0.1236888961493E+01 -0.9424496491304E+00  0.0000000000000E+00
-0.1247151082973E+01 -0.8361622158072E+00  0.0000000000000E+00
-0.1256111467007E+01 -0.7297674178015E+00  0.0000000000000E+00
-0.1263664652793E+01 -0.6232762030117E+00  0.0000000000000E+00
-0.1269610363529E+01 -0.5166948903483E+00  0.0000000000000E+00
-0.1273873589703E+01 -0.4100421111372E+00  0.0000000000000E+00
-0.1276414059827E+01 -0.3033360027507E+00  0.0000000000000E+00
-0.1277134454338E+01 -0.1965859730982E+00  0.0000000000000E+00
-0.1276116162743E+01 -0.8980520194089E-01  0.0000000000000E+00
-0.1273907835787E+01  0.1699266926579E-01  0.0000000000000E+00
-0.1266174070351E+01  0.1235810456296E+00  0.0000000000000E+00
-0.1248948972122E+01  0.2290304384090E+00  0.0000000000000E+00
-0.1221625535439E+01  0.3321283910018E+00  0.0000000000000E+00
-0.1184218911793E+01  0.4316003188775E+00  0.0000000000000E+00
-0.1138309793685E+01  0.5269169128427E+00  0.0000000000000E+00
-0.1085671788268E+01  0.6180882753165E+00  0.0000000000000E+00
-0.1026924226726E+01  0.7047360493755E+00  0.0000000000000E+00
-0.1179120974948E+01 -0.1156078823454E+01  0.0000000000000E+00
-0.1191231935330E+01 -0.1051562599042E+01  0.0000000000000E+00
-0.1201963312121E+01 -0.9468960583805E+00  0.0000000000000E+00
-0.1211404323475E+01 -0.8421131111114E+00  0.0000000000000E+00
-0.1219537523275E+01 -0.7372336370121E+00  0.0000000000000E+00
-0.1226254685067E+01 -0.6322701166982E+00  0.0000000000000E+00
-0.1231361840583E+01 -0.5272308350552E+00  0.0000000000000E+00
-0.1234790987992E+01 -0.4221350041848E+00  0.0000000000000E+00
-0.1236520478975E+01 -0.3169992839045E+00  0.0000000000000E+00
-0.1236491703271E+01 -0.2118287759639E+00  0.0000000000000E+00
-0.1234826517111E+01 -0.1066293348430E+00  0.0000000000000E+00
-0.1232086552004E+01 -0.1407249557388E-02  0.0000000000000E+00
-0.1224224413172E+01  0.1036279668659E+00  0.0000000000000E+00
-0.1207523748460E+01  0.2076019121449E+00  0.0000000000000E+00
-0.1181415853780E+01  0.3093717739179E+00  0.0000000000000E+00
-0.1145909516907E+01  0.4077356055397E+00  0.0000000000000E+00
-0.1102483479202E+01  0.5021930569409E+00  0.0000000000000E+00
-0.1052797274716E+01  0.5927519077675E+00  0.0000000000000E+00
-0.9974245980785E+00  0.6790547840547E+00  0.0000000000000E+00
-0.1145862465808E+01 -0.1157547758415E+01  0.0000000000000E+00
-0.1157130583818E+01 -0.1054514766032E+01  0.0000000000000E+00
-0.1167037662748E+01 -0.9513424676306E+00  0.0000000000000E+00
-0.1175657563978E+01 -0.8480640064155E+00  0.0000000000000E+00
-0.1182963579544E+01 -0.7446998562227E+00  0.0000000000000E+00
-0.1188844717341E+01 -0.6412640303847E+00  0.0000000000000E+00
-0.1193113317638E+01 -0.5377667797621E+00  0.0000000000000E+00
-0.1195708386282E+01 -0.4342278972324E+00  0.0000000000000E+00
-0.1196626898123E+01 -0.3306625650584E+00  0.0000000000000E+00
-0.1195848952204E+01 -0.2270715788297E+00  0.0000000000000E+00
-0.1193536871478E+01 -0.1234534677452E+00  0.0000000000000E+00
-0.1190265268222E+01 -0.1980716838057E-01  0.0000000000000E+00
-0.1182274755993E+01  0.8367488810228E-01  0.0000000000000E+00
-0.1166098524797E+01  0.1861733858807E+00  0.0000000000000E+00
-0.1141206172121E+01  0.2866151568340E+00  0.0000000000000E+00
-0.1107600122020E+01  0.3838708922020E+00  0.0000000000000E+00
-0.1066657164720E+01  0.4774692010392E+00  0.0000000000000E+00
-0.1019922761165E+01  0.5674155402184E+00  0.0000000000000E+00
-0.9679249694309E+00  0.6533735187339E+00  0.0000000000000E+00
-0.1112603956668E+01 -0.1159016693375E+01  0.0000000000000E+00
-0.1123029232307E+01 -0.1057466933021E+01  0.0000000000000E+00
-0.1132112013376E+01 -0.9557888768807E+00  0.0000000000000E+00
-0.1139910804480E+01 -0.8540149017197E+00  0.0000000000000E+00
-0.1146389635812E+01 -0.7521660754333E+00  0.0000000000000E+00
-0.1151434749615E+01 -0.6502579440712E+00  0.0000000000000E+00
-0.1154864794692E+01 -0.5483027244690E+00  0.0000000000000E+00
-0.1156625784571E+01 -0.4463207902801E+00  0.0000000000000E+00
-0.1156733317270E+01 -0.3443258462123E+00  0.0000000000000E+00
-0.1155206201138E+01 -0.2423143816954E+00  0.0000000000000E+00
-0.1152247225846E+01 -0.1402776006473E+00  0.0000000000000E+00
-0.1148443984439E+01 -0.3820708720374E-01  0.0000000000000E+00
-0.1140325098814E+01  0.6372180933864E-01  0.0000000000000E+00
-0.1124673301135E+01  0.1647448596166E+00  0.0000000000000E+00
-0.1100996490462E+01  0.2638585397501E+00  0.0000000000000E+00
-0.1069290727134E+01  0.3600061788643E+00  0.0000000000000E+00
-0.1030830850237E+01  0.4527453451374E+00  0.0000000000000E+00
-0.9870482476130E+00  0.5420791726694E+00  0.0000000000000E+00
-0.9384253407834E+00  0.6276922534130E+00  0.0000000000000E+00
-0.1079345447527E+01 -0.1160485628335E+01  0.0000000000000E+00
-0.1088927880796E+01 -0.1060419100010E+01  0.0000000000000E+00
-0.1097186364004E+01 -0.9602352861308E+00  0.0000000000000E+00
-0.1104164044982E+01 -0.8599657970238E+00  0.0000000000000E+00
-0.1109815692080E+01 -0.7596322946440E+00  0.0000000000000E+00
-0.1114024781889E+01 -0.6592518577578E+00  0.0000000000000E+00
-0.1116616271746E+01 -0.5588386691759E+00  0.0000000000000E+00
-0.1117543182861E+01 -0.4584136833277E+00  0.0000000000000E+00
-0.1116839736418E+01 -0.3579891273662E+00  0.0000000000000E+00
-0.1114563450071E+01 -0.2575571845612E+00  0.0000000000000E+00
-0.1110957580214E+01 -0.1571017335495E+00  0.0000000000000E+00
-0.1106622700657E+01 -0.5660700602692E-01  0.0000000000000E+00
-0.1098375441635E+01  0.4376873057499E-01  0.0000000000000E+00
-0.1083248077473E+01  0.1433163333524E+00  0.0000000000000E+00
-0.1060786808803E+01  0.2411019226662E+00  0.0000000000000E+00
-0.1030981332248E+01  0.3361414655265E+00  0.0000000000000E+00
-0.9950045357551E+00  0.4280214892357E+00  0.0000000000000E+00
-0.9541737340612E+00  0.5167428051204E+00  0.0000000000000E+00
-0.9089257121358E+00  0.6020109880922E+00  0.0000000000000E+00
-0.1046086938387E+01 -0.1161954563296E+01  0.0000000000000E+00
-0.1054826529285E+01 -0.1063371266999E+01  0.0000000000000E+00
-0.1062260714631E+01 -0.9646816953809E+00  0.0000000000000E+00
-0.1068417285485E+01 -0.8659166923280E+00  0.0000000000000E+00
-0.1073241748349E+01 -0.7670985138546E+00  0.0000000000000E+00
-0.1076614814163E+01 -0.6682457714443E+00  0.0000000000000E+00
-0.1078367748801E+01 -0.5693746138828E+00  0.0000000000000E+00
-0.1078460581150E+01 -0.4705065763753E+00  0.0000000000000E+00
-0.1076946155566E+01 -0.3716524085200E+00  0.0000000000000E+00
-0.1073920699005E+01 -0.2727999874270E+00  0.0000000000000E+00
-0.1069667934581E+01 -0.1739258664516E+00  0.0000000000000E+00
-0.1064801416874E+01 -0.7500692485010E-01  0.0000000000000E+00
-0.1056425784456E+01  0.2381565181134E-01  0.0000000000000E+00
-0.1041822853810E+01  0.1218878070883E+00  0.0000000000000E+00
-0.1020577127143E+01  0.2183453055823E+00  0.0000000000000E+00
-0.9926719373617E+00  0.3122767521888E+00  0.0000000000000E+00
-0.9591782212728E+00  0.4032976333339E+00  0.0000000000000E+00
-0.9212992205094E+00  0.4914064375713E+00  0.0000000000000E+00
-0.8794260834883E+00  0.5763297227714E+00  0.0000000000000E+00
-0.1012828429247E+01 -0.1163423498256E+01  0.0000000000000E+00
-0.1020725177774E+01 -0.1066323433989E+01  0.0000000000000E+00
-0.1027335065259E+01 -0.9691281046309E+00  0.0000000000000E+00
-0.1032670525987E+01 -0.8718675876321E+00  0.0000000000000E+00
-0.1036667804617E+01 -0.7745647330652E+00  0.0000000000000E+00
-0.1039204846437E+01 -0.6772396851308E+00  0.0000000000000E+00
-0.1040119225855E+01 -0.5799105585897E+00  0.0000000000000E+00
-0.1039377979440E+01 -0.4825994694230E+00  0.0000000000000E+00
-0.1037052574714E+01 -0.3853156896739E+00  0.0000000000000E+00
-0.1033277947938E+01 -0.2880427902927E+00  0.0000000000000E+00
-0.1028378288949E+01 -0.1907499993537E+00  0.0000000000000E+00
-0.1022980133092E+01 -0.9340684367328E-01  0.0000000000000E+00
-0.1014476127276E+01  0.3862573047696E-02  0.0000000000000E+00
-0.1000397630148E+01  0.1004592808241E+00  0.0000000000000E+00
-0.9803674454841E+00  0.1955886884984E+00  0.0000000000000E+00
-0.9543625424755E+00  0.2884120388510E+00  0.0000000000000E+00
-0.9233519067904E+00  0.3785737774322E+00  0.0000000000000E+00
-0.8884247069577E+00  0.4660700700223E+00  0.0000000000000E+00
-0.8499264548408E+00  0.5506484574506E+00  0.0000000000000E+00
-0.9795699201063E+00 -0.1164892433216E+01  0.0000000000000E+00
-0.9866238262626E+00 -0.1069275600978E+01  0.0000000000000E+00
-0.9924094158868E+00 -0.9735745138810E+00  0.0000000000000E+00
-0.9969237664891E+00 -0.8778184829363E+00  0.0000000000000E+00
-0.1000093860885E+01 -0.7820309522758E+00  0.0000000000000E+00
-0.1001794878711E+01 -0.6862335988173E+00  0.0000000000000E+00
-0.1001870702910E+01 -0.5904465032966E+00  0.0000000000000E+00
-0.1000295377729E+01 -0.4946923624706E+00  0.0000000000000E+00
-0.9971589938620E+00 -0.3989789708278E+00  0.0000000000000E+00
-0.9926351968715E+00 -0.3032855931585E+00  0.0000000000000E+00
-0.9870886433164E+00 -0.2075741322559E+00  0.0000000000000E+00
-0.9811588493097E+00 -0.1118067624965E+00  0.0000000000000E+00
-0.9725264700973E+00 -0.1609050571595E-01  0.0000000000000E+00
-0.9589724064858E+00  0.7903075455998E-01  0.0000000000000E+00
-0.9401577638249E+00  0.1728320714145E+00  0.0000000000000E+00
-0.9160531475893E+00  0.2645473255133E+00  0.0000000000000E+00
-0.8875255923080E+00  0.3538499215304E+00  0.0000000000000E+00
-0.8555501934059E+00  0.4407337024732E+00  0.0000000000000E+00
-0.8204268261932E+00  0.5249671921297E+00  0.0000000000000E+00
-0.9463114109659E+00 -0.1166361368177E+01  0.0000000000000E+00
-0.9525224747514E+00 -0.1072227767967E+01  0.0000000000000E+00
-0.9574837665145E+00 -0.9780209231311E+00  0.0000000000000E+00
-0.9611770069914E+00 -0.8837693782404E+00  0.0000000000000E+00
-0.9635199171535E+00 -0.7894971714864E+00  0.0000000000000E+00
-0.9643849109855E+00 -0.6952275125039E+00  0.0000000000000E+00
-0.9636221799641E+00 -0.6009824480035E+00  0.0000000000000E+00
-0.9612127760186E+00 -0.5067852555182E+00  0.0000000000000E+00
-0.9572654130098E+00 -0.4126422519817E+00  0.0000000000000E+00
-0.9519924458049E+00 -0.3185283960243E+00  0.0000000000000E+00
-0.9457989976841E+00 -0.2243982651580E+00  0.0000000000000E+00
-0.9393375655272E+00 -0.1302066813196E+00  0.0000000000000E+00
-0.9305768129182E+00 -0.3604358447960E-01  0.0000000000000E+00
-0.9175471828235E+00  0.5760222829584E-01  0.0000000000000E+00
-0.8999480821656E+00  0.1500754543306E+00  0.0000000000000E+00
-0.8777437527031E+00  0.2406826121755E+00  0.0000000000000E+00
-0.8516992778257E+00  0.3291260656287E+00  0.0000000000000E+00
-0.8226756798541E+00  0.4153973349242E+00  0.0000000000000E+00
-0.7909271975457E+00  0.4992859268089E+00  0.0000000000000E+00
-0.9130529018256E+00 -0.1167830303137E+01  0.0000000000000E+00
-0.9184211232403E+00 -0.1075179934956E+01  0.0000000000000E+00
-0.9225581171422E+00 -0.9824673323812E+00  0.0000000000000E+00
-0.9254302474937E+00 -0.8897202735446E+00  0.0000000000000E+00
-0.9269459734218E+00 -0.7969633906971E+00  0.0000000000000E+00
-0.9269749432596E+00 -0.7042214261904E+00  0.0000000000000E+00
-0.9253736570186E+00 -0.6115183927104E+00  0.0000000000000E+00
-0.9221301743080E+00 -0.5188781485659E+00  0.0000000000000E+00
-0.9173718321577E+00 -0.4263055331355E+00  0.0000000000000E+00
-0.9113496947383E+00 -0.3337711988900E+00  0.0000000000000E+00
-0.9045093520517E+00 -0.2412223980602E+00  0.0000000000000E+00
-0.8975162817448E+00 -0.1486066001428E+00  0.0000000000000E+00
-0.8886271557392E+00 -0.5599666324325E-01  0.0000000000000E+00
-0.8761219591612E+00  0.3617370203170E-01  0.0000000000000E+00
-0.8597384005064E+00  0.1273188372467E+00  0.0000000000000E+00
-0.8394343578169E+00  0.2168178988378E+00  0.0000000000000E+00
-0.8158729633433E+00  0.3044022097269E+00  0.0000000000000E+00
-0.7898011663024E+00  0.3900609673752E+00  0.0000000000000E+00
-0.7614275688981E+00  0.4736046614881E+00  0.0000000000000E+00
-0.8797943926852E+00 -0.1169299238097E+01  0.0000000000000E+00
-0.8843197717291E+00 -0.1078132101946E+01  0.0000000000000E+00
-0.8876324677699E+00 -0.9869137416313E+00  0.0000000000000E+00
-0.8896834879960E+00 -0.8956711688487E+00  0.0000000000000E+00
-0.8903720296900E+00 -0.8044296099077E+00  0.0000000000000E+00
-0.8895649755337E+00 -0.7132153398769E+00  0.0000000000000E+00
-0.8871251340730E+00 -0.6220543374173E+00  0.0000000000000E+00
-0.8830475725975E+00 -0.5309710416135E+00  0.0000000000000E+00
-0.8774782513056E+00 -0.4399688142894E+00  0.0000000000000E+00
-0.8707069436717E+00 -0.3490140017558E+00  0.0000000000000E+00
-0.8632197064193E+00 -0.2580465309623E+00  0.0000000000000E+00
-0.8556949979624E+00 -0.1670065189660E+00  0.0000000000000E+00
-0.8466774985601E+00 -0.7594974200689E-01  0.0000000000000E+00
-0.8346967354989E+00  0.1474517576755E-01  0.0000000000000E+00
-0.8195287188472E+00  0.1045622201628E+00  0.0000000000000E+00
-0.8011249629307E+00  0.1929531855000E+00  0.0000000000000E+00
-0.7800466488610E+00  0.2796783538252E+00  0.0000000000000E+00
-0.7569266527506E+00  0.3647245998261E+00  0.0000000000000E+00
-0.7319279402506E+00  0.4479233961672E+00  0.0000000000000E+00
-0.8465358835449E+00 -0.1170768173058E+01  0.0000000000000E+00
-0.8502184202179E+00 -0.1081084268935E+01  0.0000000000000E+00
-0.8527068183976E+00 -0.9913601508814E+00  0.0000000000000E+00
-0.8539367284983E+00 -0.9016220641529E+00  0.0000000000000E+00
-0.8537980859583E+00 -0.8118958291183E+00  0.0000000000000E+00
-0.8521550078078E+00 -0.7222092535634E+00  0.0000000000000E+00
-0.8488766111274E+00 -0.6325902821242E+00  0.0000000000000E+00
-0.8439649708870E+00 -0.5430639346611E+00  0.0000000000000E+00
-0.8375846704535E+00 -0.4536320954433E+00  0.0000000000000E+00
-0.8300641926051E+00 -0.3642568046215E+00  0.0000000000000E+00
-0.8219300607870E+00 -0.2748706638644E+00  0.0000000000000E+00
-0.8138737141800E+00 -0.1854064377892E+00  0.0000000000000E+00
-0.8047278413810E+00 -0.9590282077054E-01  0.0000000000000E+00
-0.7932715118366E+00 -0.6683350496594E-02  0.0000000000000E+00
-0.7793190371880E+00  0.8180560307893E-01  0.0000000000000E+00
-0.7628155680445E+00  0.1690884721623E+00  0.0000000000000E+00
-0.7442203343786E+00  0.2549544979234E+00  0.0000000000000E+00
-0.7240521391988E+00  0.3393882322771E+00  0.0000000000000E+00
-0.7024283116030E+00  0.4222421308464E+00  0.0000000000000E+00
-0.8132773744045E+00 -0.1172237108018E+01  0.0000000000000E+00
-0.8161170687067E+00 -0.1084036435924E+01  0.0000000000000E+00
-0.8177811690253E+00 -0.9958065601315E+00  0.0000000000000E+00
-0.8181899690006E+00 -0.9075729594570E+00  0.0000000000000E+00
-0.8172241422266E+00 -0.8193620483289E+00  0.0000000000000E+00
-0.8147450400819E+00 -0.7312031672500E+00  0.0000000000000E+00
-0.8106280881819E+00 -0.6431262268311E+00  0.0000000000000E+00
-0.8048823691764E+00 -0.5551568277088E+00  0.0000000000000E+00
-0.7976910896013E+00 -0.4672953765972E+00  0.0000000000000E+00
-0.7894214415385E+00 -0.3794996074873E+00  0.0000000000000E+00
-0.7806404151546E+00 -0.2916947967666E+00  0.0000000000000E+00
-0.7720524303976E+00 -0.2038063566123E+00  0.0000000000000E+00
-0.7627781842019E+00 -0.1158558995342E+00  0.0000000000000E+00
-0.7518462881743E+00 -0.2811187676074E-01  0.0000000000000E+00
-0.7391093555288E+00  0.5904898599503E-01  0.0000000000000E+00
-0.7245061731583E+00  0.1452237588245E+00  0.0000000000000E+00
-0.7083940198962E+00  0.2302306420217E+00  0.0000000000000E+00
-0.6911776256471E+00  0.3140518647280E+00  0.0000000000000E+00
-0.6729286829555E+00  0.3965608655256E+00  0.0000000000000E+00
-0.7800188652641E+00 -0.1173706042978E+01  0.0000000000000E+00
-0.7820157171956E+00 -0.1086988602913E+01  0.0000000000000E+00
-0.7828555196530E+00 -0.1000252969382E+01  0.0000000000000E+00
-0.7824432095029E+00 -0.9135238547612E+00  0.0000000000000E+00
-0.7806501984949E+00 -0.8268282675395E+00  0.0000000000000E+00
-0.7773350723560E+00 -0.7401970809365E+00  0.0000000000000E+00
-0.7723795652363E+00 -0.6536621715381E+00  0.0000000000000E+00
-0.7657997674659E+00 -0.5672497207564E+00  0.0000000000000E+00
-0.7577975087492E+00 -0.4809586577510E+00  0.0000000000000E+00
-0.7487786904719E+00 -0.3947424103531E+00  0.0000000000000E+00
-0.7393507695222E+00 -0.3085189296687E+00  0.0000000000000E+00
-0.7302311466152E+00 -0.2222062754355E+00  0.0000000000000E+00
-0.7208285270228E+00 -0.1358089782978E+00  0.0000000000000E+00
-0.7104210645120E+00 -0.4954040302488E-01  0.0000000000000E+00
-0.6988996738695E+00  0.3629236891114E-01  0.0000000000000E+00
-0.6861967782721E+00  0.1213590454868E+00  0.0000000000000E+00
-0.6725677054139E+00  0.2055067861199E+00  0.0000000000000E+00
-0.6583031120953E+00  0.2887154971790E+00  0.0000000000000E+00
-0.6434290543080E+00  0.3708796002047E+00  0.0000000000000E+00
-0.7467603561238E+00 -0.1175174977939E+01  0.0000000000000E+00
-0.7479143656844E+00 -0.1089940769903E+01  0.0000000000000E+00
-0.7479298702806E+00 -0.1004699378632E+01  0.0000000000000E+00
-0.7466964500052E+00 -0.9194747500653E+00  0.0000000000000E+00
-0.7440762547632E+00 -0.8342944867502E+00  0.0000000000000E+00
-0.7399251046301E+00 -0.7491909946230E+00  0.0000000000000E+00
-0.7341310422907E+00 -0.6641981162450E+00  0.0000000000000E+00
-0.7267171657554E+00 -0.5793426138040E+00  0.0000000000000E+00
-0.7179039278971E+00 -0.4946219389049E+00  0.0000000000000E+00
-0.7081359394053E+00 -0.4099852132188E+00  0.0000000000000E+00
-0.6980611238899E+00 -0.3253430625709E+00  0.0000000000000E+00
-0.6884098628328E+00 -0.2406061942587E+00  0.0000000000000E+00
-0.6788788698437E+00 -0.1557620570615E+00  0.0000000000000E+00
-0.6689958408497E+00 -0.7096892928903E-01  0.0000000000000E+00
-0.6586899922103E+00  0.1353575182724E-01  0.0000000000000E+00
-0.6478873833859E+00  0.9749433214906E-01  0.0000000000000E+00
-0.6367413909315E+00  0.1807829302182E+00  0.0000000000000E+00
-0.6254285985435E+00  0.2633791296299E+00  0.0000000000000E+00
-0.6139294256604E+00  0.3451983348839E+00  0.0000000000000E+00
-0.7135018469834E+00 -0.1176643912899E+01  0.0000000000000E+00
-0.7138130141732E+00 -0.1092892936892E+01  0.0000000000000E+00
-0.7130042209083E+00 -0.1009145787882E+01  0.0000000000000E+00
-0.7109496905075E+00 -0.9254256453695E+00  0.0000000000000E+00
-0.7075023110315E+00 -0.8417607059608E+00  0.0000000000000E+00
-0.7025151369042E+00 -0.7581849083095E+00  0.0000000000000E+00
-0.6958825193452E+00 -0.6747340609519E+00  0.0000000000000E+00
-0.6876345640448E+00 -0.5914355068517E+00  0.0000000000000E+00
-0.6780103470450E+00 -0.5082852200588E+00  0.0000000000000E+00
-0.6674931883387E+00 -0.4252280160846E+00  0.0000000000000E+00
-0.6567714782575E+00 -0.3421671954730E+00  0.0000000000000E+00
-0.6465885790503E+00 -0.2590061130819E+00  0.0000000000000E+00
-0.6369292126646E+00 -0.1757151358251E+00  0.0000000000000E+00
-0.6275706171874E+00 -0.9239745555317E-01  0.0000000000000E+00
-0.6184803105511E+00 -0.9220865256651E-02  0.0000000000000E+00
-0.6095779884997E+00  0.7362961881131E-01  0.0000000000000E+00
-0.6009150764492E+00  0.1560590743164E+00  0.0000000000000E+00
-0.5925540849918E+00  0.2380427620809E+00  0.0000000000000E+00
-0.5844297970129E+00  0.3195170695631E+00  0.0000000000000E+00
-0.6802433378431E+00 -0.1178112847859E+01  0.0000000000000E+00
-0.6797116626621E+00 -0.1095845103881E+01  0.0000000000000E+00
-0.6780785715360E+00 -0.1013592197132E+01  0.0000000000000E+00
-0.6752029310098E+00 -0.9313765406736E+00  0.0000000000000E+00
-0.6709283672997E+00 -0.8492269251714E+00  0.0000000000000E+00
-0.6651051691783E+00 -0.7671788219961E+00  0.0000000000000E+00
-0.6576339963996E+00 -0.6852700056588E+00  0.0000000000000E+00
-0.6485519623343E+00 -0.6035283998993E+00  0.0000000000000E+00
-0.6381167661928E+00 -0.5219485012127E+00  0.0000000000000E+00
-0.6268504372721E+00 -0.4404708189504E+00  0.0000000000000E+00
-0.6154818326251E+00 -0.3589913283751E+00  0.0000000000000E+00
-0.6047672952679E+00 -0.2774060319051E+00  0.0000000000000E+00
-0.5949795554855E+00 -0.1956682145888E+00  0.0000000000000E+00
-0.5861453935251E+00 -0.1138259818173E+00  0.0000000000000E+00
-0.5782706288919E+00 -0.3197748234054E-01  0.0000000000000E+00
-0.5712685936135E+00  0.4976490547357E-01  0.0000000000000E+00
-0.5650887619668E+00  0.1313352184147E+00  0.0000000000000E+00
-0.5596795714400E+00  0.2127063945319E+00  0.0000000000000E+00
-0.5549301683653E+00  0.2938358042423E+00  0.0000000000000E+00
 0.6802433484435E+00 -0.1178112847849E+01  0.0000000000000E+00
 0.6797116720780E+00 -0.1095845103875E+01  0.0000000000000E+00
 0.6780785797770E+00 -0.1013592197145E+01  0.0000000000000E+00
 0.6752029380933E+00 -0.9313765407239E+00  0.0000000000000E+00
 0.6709283732554E+00 -0.8492269252769E+00  0.0000000000000E+00
 0.6651051740529E+00 -0.7671788221750E+00  0.0000000000000E+00
 0.6576340002627E+00 -0.6852700059262E+00  0.0000000000000E+00
 0.6485519652821E+00 -0.6035284002639E+00  0.0000000000000E+00
 0.6381167683488E+00 -0.5219485016727E+00  0.0000000000000E+00
 0.6268504387797E+00 -0.4404708194920E+00  0.0000000000000E+00
 0.6154818336317E+00 -0.3589913289766E+00  0.0000000000000E+00
 0.6047672959142E+00 -0.2774060325421E+00  0.0000000000000E+00
 0.5949795559123E+00 -0.1956682152389E+00  0.0000000000000E+00
 0.5861453938334E+00 -0.1138259824613E+00  0.0000000000000E+00
 0.5782706291498E+00 -0.3197748296223E-01  0.0000000000000E+00
 0.5712685938666E+00  0.4976490488478E-01  0.0000000000000E+00
 0.5650887622411E+00  0.1313352178655E+00  0.0000000000000E+00
 0.5596795717538E+00  0.2127063940286E+00  0.0000000000000E+00
 0.5549301687313E+00  0.2938358037924E+00  0.0000000000000E+00
 0.7135018570198E+00 -0.1176643912919E+01  0.0000000000000E+00
 0.7138130230836E+00 -0.1092892936945E+01  0.0000000000000E+00
 0.7130042287029E+00 -0.1009145787984E+01  0.0000000000000E+00
 0.7109496972034E+00 -0.9254256455366E+00  0.0000000000000E+00
 0.7075023166577E+00 -0.8417607062105E+00  0.0000000000000E+00
 0.7025151415061E+00 -0.7581849086590E+00  0.0000000000000E+00
 0.6958825229899E+00 -0.6747340614155E+00  0.0000000000000E+00
 0.6876345668242E+00 -0.5914355074377E+00  0.0000000000000E+00
 0.6780103490774E+00 -0.5082852207655E+00  0.0000000000000E+00
 0.6674931897617E+00 -0.4252280168988E+00  0.0000000000000E+00
 0.6567714792105E+00 -0.3421671963741E+00  0.0000000000000E+00
 0.6465885796710E+00 -0.2590061140468E+00  0.0000000000000E+00
 0.6369292131142E+00 -0.1757151368302E+00  0.0000000000000E+00
 0.6275706175752E+00 -0.9239745657483E-01  0.0000000000000E+00
 0.6184803109469E+00 -0.9220866271635E-02  0.0000000000000E+00
 0.6095779889493E+00  0.7362961781919E-01  0.0000000000000E+00
 0.6009150769751E+00  0.1560590733582E+00  0.0000000000000E+00
 0.5925540856125E+00  0.2380427611681E+00  0.0000000000000E+00
 0.5844297977438E+00  0.3195170687102E+00  0.0000000000000E+00
 0.7467603655960E+00 -0.1175174977988E+01  0.0000000000000E+00
 0.7479143740892E+00 -0.1089940770016E+01  0.0000000000000E+00
 0.7479298776287E+00 -0.1004699378822E+01  0.0000000000000E+00
 0.7466964563136E+00 -0.9194747503494E+00  0.0000000000000E+00
 0.7440762600600E+00 -0.8342944871440E+00  0.0000000000000E+00
 0.7399251089593E+00 -0.7491909951431E+00  0.0000000000000E+00
 0.7341310457170E+00 -0.6641981169049E+00  0.0000000000000E+00
 0.7267171683664E+00 -0.5793426146115E+00  0.0000000000000E+00
 0.7179039298061E+00 -0.4946219398584E+00  0.0000000000000E+00
 0.7081359407437E+00 -0.4099852143056E+00  0.0000000000000E+00
 0.6980611247893E+00 -0.3253430637716E+00  0.0000000000000E+00
 0.6884098634278E+00 -0.2406061955515E+00  0.0000000000000E+00
 0.6788788703161E+00 -0.1557620584214E+00  0.0000000000000E+00
 0.6689958413171E+00 -0.7096893068838E-01  0.0000000000000E+00
 0.6586899927439E+00  0.1353575041896E-01  0.0000000000000E+00
 0.6478873840319E+00  0.9749433075359E-01  0.0000000000000E+00
 0.6367413917090E+00  0.1807829288509E+00  0.0000000000000E+00
 0.6254285994712E+00  0.2633791283076E+00  0.0000000000000E+00
 0.6139294267563E+00  0.3451983336280E+00  0.0000000000000E+00
 0.7800188741723E+00 -0.1173706043058E+01  0.0000000000000E+00
 0.7820157250948E+00 -0.1086988603087E+01  0.0000000000000E+00
 0.7828555265545E+00 -0.1000252969661E+01  0.0000000000000E+00
 0.7824432154237E+00 -0.9135238551621E+00  0.0000000000000E+00
 0.7806502034623E+00 -0.8268282680776E+00  0.0000000000000E+00
 0.7773350764125E+00 -0.7401970816272E+00  0.0000000000000E+00
 0.7723795684441E+00 -0.6536621723942E+00  0.0000000000000E+00
 0.7657997699086E+00 -0.5672497217854E+00  0.0000000000000E+00
 0.7577975105347E+00 -0.4809586589513E+00  0.0000000000000E+00
 0.7487786917257E+00 -0.3947424117123E+00  0.0000000000000E+00
 0.7393507703682E+00 -0.3085189311692E+00  0.0000000000000E+00
 0.7302311471845E+00 -0.2222062770562E+00  0.0000000000000E+00
 0.7208285275179E+00 -0.1358089800127E+00  0.0000000000000E+00
 0.7104210650589E+00 -0.4954040480193E-01  0.0000000000000E+00
 0.6988996745410E+00  0.3629236710956E-01  0.0000000000000E+00
 0.6861967791145E+00  0.1213590436880E+00  0.0000000000000E+00
 0.6725677064430E+00  0.2055067843436E+00  0.0000000000000E+00
 0.6583031133299E+00  0.2887154954471E+00  0.0000000000000E+00
 0.6434290557688E+00  0.3708795985458E+00  0.0000000000000E+00
 0.8132773827486E+00 -0.1172237108128E+01  0.0000000000000E+00
 0.8161170761004E+00 -0.1084036436157E+01  0.0000000000000E+00
 0.8177811754804E+00 -0.9958065604997E+00  0.0000000000000E+00
 0.8181899745339E+00 -0.9075729599749E+00  0.0000000000000E+00
 0.8172241468646E+00 -0.8193620490111E+00  0.0000000000000E+00
 0.8147450438657E+00 -0.7312031681112E+00  0.0000000000000E+00
 0.8106280911713E+00 -0.6431262278835E+00  0.0000000000000E+00
 0.8048823714508E+00 -0.5551568289592E+00  0.0000000000000E+00
 0.7976910912633E+00 -0.4672953780442E+00  0.0000000000000E+00
 0.7894214427077E+00 -0.3794996091191E+00  0.0000000000000E+00
 0.7806404159470E+00 -0.2916947985667E+00  0.0000000000000E+00
 0.7720524309413E+00 -0.2038063585610E+00  0.0000000000000E+00
 0.7627781847198E+00 -0.1158559016039E+00  0.0000000000000E+00
 0.7518462888007E+00 -0.2811187891548E-01  0.0000000000000E+00
 0.7391093563381E+00  0.5904898380016E-01  0.0000000000000E+00
 0.7245061741971E+00  0.1452237566224E+00  0.0000000000000E+00
 0.7083940211769E+00  0.2302306398363E+00  0.0000000000000E+00
 0.6911776271886E+00  0.3140518625866E+00  0.0000000000000E+00
 0.6729286847813E+00  0.3965608634636E+00  0.0000000000000E+00
 0.8465358913249E+00 -0.1170768173198E+01  0.0000000000000E+00
 0.8502184271060E+00 -0.1081084269228E+01  0.0000000000000E+00
 0.8527068244062E+00 -0.9913601513384E+00  0.0000000000000E+00
 0.8539367336440E+00 -0.9016220647876E+00  0.0000000000000E+00
 0.8537980902669E+00 -0.8118958299447E+00  0.0000000000000E+00
 0.8521550113189E+00 -0.7222092545953E+00  0.0000000000000E+00
 0.8488766138984E+00 -0.6325902833728E+00  0.0000000000000E+00
 0.8439649729930E+00 -0.5430639361330E+00  0.0000000000000E+00
 0.8375846719920E+00 -0.4536320971370E+00  0.0000000000000E+00
 0.8300641936896E+00 -0.3642568065259E+00  0.0000000000000E+00
 0.8219300615258E+00 -0.2748706659642E+00  0.0000000000000E+00
 0.8138737146981E+00 -0.1854064400657E+00  0.0000000000000E+00
 0.8047278419217E+00 -0.9590282319517E-01  0.0000000000000E+00
 0.7932715125426E+00 -0.6683353029025E-02  0.0000000000000E+00
 0.7793190381351E+00  0.8180560049076E-01  0.0000000000000E+00
 0.7628155692797E+00  0.1690884695568E+00  0.0000000000000E+00
 0.7442203359109E+00  0.2549544953290E+00  0.0000000000000E+00
 0.7240521410473E+00  0.3393882297260E+00  0.0000000000000E+00
 0.7024283137938E+00  0.4222421283815E+00  0.0000000000000E+00
 0.8797943999012E+00 -0.1169299238267E+01  0.0000000000000E+00
 0.8843197781116E+00 -0.1078132102298E+01  0.0000000000000E+00
 0.8876324733320E+00 -0.9869137421770E+00  0.0000000000000E+00
 0.8896834927542E+00 -0.8956711696004E+00  0.0000000000000E+00
 0.8903720336692E+00 -0.8044296108782E+00  0.0000000000000E+00
 0.8895649787720E+00 -0.7132153410794E+00  0.0000000000000E+00
 0.8871251366255E+00 -0.6220543388621E+00  0.0000000000000E+00
 0.8830475745352E+00 -0.5309710433068E+00  0.0000000000000E+00
 0.8774782527206E+00 -0.4399688162299E+00  0.0000000000000E+00
 0.8707069446716E+00 -0.3490140039327E+00  0.0000000000000E+00
 0.8632197071046E+00 -0.2580465333617E+00  0.0000000000000E+00
 0.8556949984549E+00 -0.1670065215704E+00  0.0000000000000E+00
 0.8466774991235E+00 -0.7594974478642E-01  0.0000000000000E+00
 0.8346967362844E+00  0.1474517285743E-01  0.0000000000000E+00
 0.8195287199322E+00  0.1045622171814E+00  0.0000000000000E+00
 0.8011249643623E+00  0.1929531824912E+00  0.0000000000000E+00
 0.7800466506448E+00  0.2796783508217E+00  0.0000000000000E+00
 0.7569266549060E+00  0.3647245968655E+00  0.0000000000000E+00
 0.7319279428062E+00  0.4479233932993E+00  0.0000000000000E+00
 0.9130529084775E+00 -0.1167830303337E+01  0.0000000000000E+00
 0.9184211291173E+00 -0.1075179935369E+01  0.0000000000000E+00
 0.9225581222579E+00 -0.9824673330156E+00  0.0000000000000E+00
 0.9254302518643E+00 -0.8897202744131E+00  0.0000000000000E+00
 0.9269459770715E+00 -0.7969633918117E+00  0.0000000000000E+00
 0.9269749462252E+00 -0.7042214275634E+00  0.0000000000000E+00
 0.9253736593527E+00 -0.6115183943514E+00  0.0000000000000E+00
 0.9221301760774E+00 -0.5188781504806E+00  0.0000000000000E+00
 0.9173718334493E+00 -0.4263055353228E+00  0.0000000000000E+00
 0.9113496956536E+00 -0.3337712013394E+00  0.0000000000000E+00
 0.9045093526834E+00 -0.2412224007593E+00  0.0000000000000E+00
 0.8975162822117E+00 -0.1486066030751E+00  0.0000000000000E+00
 0.8886271563254E+00 -0.5599666637767E-01  0.0000000000000E+00
 0.8761219600262E+00  0.3617369874388E-01  0.0000000000000E+00
 0.8597384017292E+00  0.1273188338720E+00  0.0000000000000E+00
 0.8394343594449E+00  0.2168178954256E+00  0.0000000000000E+00
 0.8158729653788E+00  0.3044022063144E+00  0.0000000000000E+00
 0.7898011687647E+00  0.3900609640050E+00  0.0000000000000E+00
 0.7614275718187E+00  0.4736046582171E+00  0.0000000000000E+00
 0.9463114170538E+00 -0.1166361368407E+01  0.0000000000000E+00
 0.9525224801229E+00 -0.1072227768440E+01  0.0000000000000E+00
 0.9574837711837E+00 -0.9780209238543E+00  0.0000000000000E+00
 0.9611770109745E+00 -0.8837693792259E+00  0.0000000000000E+00
 0.9635199204738E+00 -0.7894971727453E+00  0.0000000000000E+00
 0.9643849136784E+00 -0.6952275140475E+00  0.0000000000000E+00
 0.9636221820798E+00 -0.6009824498407E+00  0.0000000000000E+00
 0.9612127776196E+00 -0.5067852576544E+00  0.0000000000000E+00
 0.9572654141779E+00 -0.4126422544157E+00  0.0000000000000E+00
 0.9519924466356E+00 -0.3185283987462E+00  0.0000000000000E+00
 0.9457989982622E+00 -0.2243982681568E+00  0.0000000000000E+00
 0.9393375659685E+00 -0.1302066845798E+00  0.0000000000000E+00
 0.9305768135273E+00 -0.3604358796892E-01  0.0000000000000E+00
 0.9175471837681E+00  0.5760222463033E-01  0.0000000000000E+00
 0.8999480835263E+00  0.1500754505626E+00  0.0000000000000E+00
 0.8777437545275E+00  0.2406826083600E+00  0.0000000000000E+00
 0.8516992801127E+00  0.3291260618070E+00  0.0000000000000E+00
 0.8226756826234E+00  0.4153973311445E+00  0.0000000000000E+00
 0.7909272008312E+00  0.4992859231349E+00  0.0000000000000E+00
 0.9795699256300E+00 -0.1164892433477E+01  0.0000000000000E+00
 0.9866238311285E+00 -0.1069275601510E+01  0.0000000000000E+00
 0.9924094201095E+00 -0.9735745146929E+00  0.0000000000000E+00
 0.9969237700846E+00 -0.8778184840386E+00  0.0000000000000E+00
 0.1000093863876E+01 -0.7820309536788E+00  0.0000000000000E+00
 0.1001794881132E+01 -0.6862336005316E+00  0.0000000000000E+00
 0.1001870704807E+01 -0.5904465053301E+00  0.0000000000000E+00
 0.1000295379162E+01 -0.4946923648282E+00  0.0000000000000E+00
 0.9971589949066E+00 -0.3989789735085E+00  0.0000000000000E+00
 0.9926351976176E+00 -0.3032855961530E+00  0.0000000000000E+00
 0.9870886438410E+00 -0.2075741355543E+00  0.0000000000000E+00
 0.9811588497253E+00 -0.1118067660845E+00  0.0000000000000E+00
 0.9725264707291E+00 -0.1609050956017E-01  0.0000000000000E+00
 0.9589724075099E+00  0.7903075051678E-01  0.0000000000000E+00
 0.9401577653233E+00  0.1728320672532E+00  0.0000000000000E+00
 0.9160531496101E+00  0.2645473212944E+00  0.0000000000000E+00
 0.8875255948467E+00  0.3538499172997E+00  0.0000000000000E+00
 0.8555501964822E+00  0.4407336982840E+00  0.0000000000000E+00
 0.8204268298437E+00  0.5249671880527E+00  0.0000000000000E+00
 0.1012828434206E+01 -0.1163423498546E+01  0.0000000000000E+00
 0.1020725182134E+01 -0.1066323434581E+01  0.0000000000000E+00
 0.1027335069035E+01 -0.9691281055316E+00  0.0000000000000E+00
 0.1032670529195E+01 -0.8718675888514E+00  0.0000000000000E+00
 0.1036667807278E+01 -0.7745647346124E+00  0.0000000000000E+00
 0.1039204848585E+01 -0.6772396870156E+00  0.0000000000000E+00
 0.1040119227534E+01 -0.5799105608194E+00  0.0000000000000E+00
 0.1039377980704E+01 -0.4825994720020E+00  0.0000000000000E+00
 0.1037052575635E+01 -0.3853156926014E+00  0.0000000000000E+00
 0.1033277948600E+01 -0.2880427935598E+00  0.0000000000000E+00
 0.1028378289420E+01 -0.1907500029518E+00  0.0000000000000E+00
 0.1022980133482E+01 -0.9340684758923E-01  0.0000000000000E+00
 0.1014476127931E+01  0.3862568848579E-02  0.0000000000000E+00
 0.1000397631252E+01  0.1004592764032E+00  0.0000000000000E+00
 0.9803674471204E+00  0.1955886839438E+00  0.0000000000000E+00
 0.9543625446928E+00  0.2884120342288E+00  0.0000000000000E+00
 0.9233519095806E+00  0.3785737727924E+00  0.0000000000000E+00
 0.8884247103409E+00  0.4660700654235E+00  0.0000000000000E+00
 0.8499264588562E+00  0.5506484529706E+00  0.0000000000000E+00
 0.1046086942783E+01 -0.1161954563616E+01  0.0000000000000E+00
 0.1054826533140E+01 -0.1063371267651E+01  0.0000000000000E+00
 0.1062260717961E+01 -0.9646816963702E+00  0.0000000000000E+00
 0.1068417288305E+01 -0.8659166936641E+00  0.0000000000000E+00
 0.1073241750681E+01 -0.7670985155459E+00  0.0000000000000E+00
 0.1076614816038E+01 -0.6682457734997E+00  0.0000000000000E+00
 0.1078367750261E+01 -0.5693746163087E+00  0.0000000000000E+00
 0.1078460582246E+01 -0.4705065791758E+00  0.0000000000000E+00
 0.1076946156364E+01 -0.3716524116943E+00  0.0000000000000E+00
 0.1073920699582E+01 -0.2727999909666E+00  0.0000000000000E+00
 0.1069667934999E+01 -0.1739258703494E+00  0.0000000000000E+00
 0.1064801417239E+01 -0.7500692909395E-01  0.0000000000000E+00
 0.1056425785133E+01  0.2381564725733E-01  0.0000000000000E+00
 0.1041822854994E+01  0.1218878022897E+00  0.0000000000000E+00
 0.1020577128917E+01  0.2183453006344E+00  0.0000000000000E+00
 0.9926719397754E+00  0.3122767471633E+00  0.0000000000000E+00
 0.9591782243146E+00  0.4032976282851E+00  0.0000000000000E+00
 0.9212992241996E+00  0.4914064325630E+00  0.0000000000000E+00
 0.8794260878687E+00  0.5763297178884E+00  0.0000000000000E+00
 0.1079345451359E+01 -0.1160485628686E+01  0.0000000000000E+00
 0.1088927884145E+01 -0.1060419100722E+01  0.0000000000000E+00
 0.1097186366887E+01 -0.9602352872088E+00  0.0000000000000E+00
 0.1104164047415E+01 -0.8599657984769E+00  0.0000000000000E+00
 0.1109815694083E+01 -0.7596322964795E+00  0.0000000000000E+00
 0.1114024783491E+01 -0.6592518599838E+00  0.0000000000000E+00
 0.1116616272988E+01 -0.5588386717980E+00  0.0000000000000E+00
 0.1117543183788E+01 -0.4584136863497E+00  0.0000000000000E+00
 0.1116839737092E+01 -0.3579891307872E+00  0.0000000000000E+00
 0.1114563450564E+01 -0.2575571883733E+00  0.0000000000000E+00
 0.1110957580577E+01 -0.1571017377469E+00  0.0000000000000E+00
 0.1106622700996E+01 -0.5660701059866E-01  0.0000000000000E+00
 0.1098375442335E+01  0.4376872566608E-01  0.0000000000000E+00
 0.1083248078735E+01  0.1433163281761E+00  0.0000000000000E+00
 0.1060786810715E+01  0.2411019173250E+00  0.0000000000000E+00
 0.1030981334858E+01  0.3361414600977E+00  0.0000000000000E+00
 0.9950045390485E+00  0.4280214837778E+00  0.0000000000000E+00
 0.9541737380583E+00  0.5167427997025E+00  0.0000000000000E+00
 0.9089257168812E+00  0.6020109828062E+00  0.0000000000000E+00
 0.1112603959935E+01 -0.1159016693756E+01  0.0000000000000E+00
 0.1123029235151E+01 -0.1057466933793E+01  0.0000000000000E+00
 0.1132112015813E+01 -0.9557888780475E+00  0.0000000000000E+00
 0.1139910806525E+01 -0.8540149032896E+00  0.0000000000000E+00
 0.1146389637485E+01 -0.7521660774130E+00  0.0000000000000E+00
 0.1151434750944E+01 -0.6502579464678E+00  0.0000000000000E+00
 0.1154864795715E+01 -0.5483027272873E+00  0.0000000000000E+00
 0.1156625785331E+01 -0.4463207935235E+00  0.0000000000000E+00
 0.1156733317821E+01 -0.3443258498800E+00  0.0000000000000E+00
 0.1155206201545E+01 -0.2423143857801E+00  0.0000000000000E+00
 0.1152247226156E+01 -0.1402776051444E+00  0.0000000000000E+00
 0.1148443984752E+01 -0.3820709210337E-01  0.0000000000000E+00
 0.1140325099537E+01  0.6372180407483E-01  0.0000000000000E+00
 0.1124673302477E+01  0.1647448540626E+00  0.0000000000000E+00
 0.1100996492512E+01  0.2638585340156E+00  0.0000000000000E+00
 0.1069290729941E+01  0.3600061730321E+00  0.0000000000000E+00
 0.1030830853782E+01  0.4527453392705E+00  0.0000000000000E+00
 0.9870482519170E+00  0.5420791668420E+00  0.0000000000000E+00
 0.9384253458937E+00  0.6276922477240E+00  0.0000000000000E+00
 0.1145862468511E+01 -0.1157547758825E+01  0.0000000000000E+00
 0.1157130586157E+01 -0.1054514766863E+01  0.0000000000000E+00
 0.1167037664739E+01 -0.9513424688861E+00  0.0000000000000E+00
 0.1175657565635E+01 -0.8480640081024E+00  0.0000000000000E+00
 0.1182963580888E+01 -0.7446998583466E+00  0.0000000000000E+00
 0.1188844718398E+01 -0.6412640329519E+00  0.0000000000000E+00
 0.1193113318443E+01 -0.5377667827766E+00  0.0000000000000E+00
 0.1195708386873E+01 -0.4342279006973E+00  0.0000000000000E+00
 0.1196626898550E+01 -0.3306625689729E+00  0.0000000000000E+00
 0.1195848952527E+01 -0.2270715831869E+00  0.0000000000000E+00
 0.1193536871735E+01 -0.1234534725419E+00  0.0000000000000E+00
 0.1190265268509E+01 -0.1980717360809E-01  0.0000000000000E+00
 0.1182274756738E+01  0.8367488248358E-01  0.0000000000000E+00
 0.1166098526219E+01  0.1861733799490E+00  0.0000000000000E+00
 0.1141206174309E+01  0.2866151507062E+00  0.0000000000000E+00
 0.1107600125023E+01  0.3838708859665E+00  0.0000000000000E+00
 0.1066657168516E+01  0.4774691947632E+00  0.0000000000000E+00
 0.1019922765776E+01  0.5674155339815E+00  0.0000000000000E+00
 0.9679249749061E+00  0.6533735126418E+00  0.0000000000000E+00
 0.1179120977088E+01 -0.1156078823895E+01  0.0000000000000E+00
 0.1191231937162E+01 -0.1051562599934E+01  0.0000000000000E+00
 0.1201963313665E+01 -0.9468960597248E+00  0.0000000000000E+00
 0.1211404324746E+01 -0.8421131129151E+00  0.0000000000000E+00
 0.1219537524290E+01 -0.7372336392801E+00  0.0000000000000E+00
 0.1226254685851E+01 -0.6322701194360E+00  0.0000000000000E+00
 0.1231361841170E+01 -0.5272308382660E+00  0.0000000000000E+00
 0.1234790988415E+01 -0.4221350078711E+00  0.0000000000000E+00
 0.1236520479278E+01 -0.3169992880658E+00  0.0000000000000E+00
 0.1236491703509E+01 -0.2118287805937E+00  0.0000000000000E+00
 0.1234826517314E+01 -0.1066293399394E+00  0.0000000000000E+00
 0.1232086552266E+01 -0.1407255112799E-02  0.0000000000000E+00
 0.1224224413940E+01  0.1036279608923E+00  0.0000000000000E+00
 0.1207523749961E+01  0.2076019058355E+00  0.0000000000000E+00
 0.1181415856106E+01  0.3093717673968E+00  0.0000000000000E+00
 0.1145909520106E+01  0.4077355989009E+00  0.0000000000000E+00
 0.1102483483250E+01  0.5021930502559E+00  0.0000000000000E+00
 0.1052797279634E+01  0.5927519011209E+00  0.0000000000000E+00
 0.9974246039186E+00  0.6790547775596E+00  0.0000000000000E+00
 0.1212379485664E+01 -0.1154609888965E+01  0.0000000000000E+00
 0.1225333288168E+01 -0.1048610433004E+01  0.0000000000000E+00
 0.1236888962590E+01 -0.9424496505634E+00  0.0000000000000E+00
 0.1247151083856E+01 -0.8361622177279E+00  0.0000000000000E+00
 0.1256111467692E+01 -0.7297674202137E+00  0.0000000000000E+00
 0.1263664653304E+01 -0.6232762059200E+00  0.0000000000000E+00
 0.1269610363897E+01 -0.5166948937553E+00  0.0000000000000E+00
 0.1273873589957E+01 -0.4100421150449E+00  0.0000000000000E+00
 0.1276414060007E+01 -0.3033360071587E+00  0.0000000000000E+00
 0.1277134454491E+01 -0.1965859780004E+00  0.0000000000000E+00
 0.1276116162893E+01 -0.8980520733696E-01  0.0000000000000E+00
 0.1273907836023E+01  0.1699266338249E-01  0.0000000000000E+00
 0.1266174071142E+01  0.1235810393011E+00  0.0000000000000E+00
 0.1248948973703E+01  0.2290304317219E+00  0.0000000000000E+00
 0.1221625537903E+01  0.3321283840874E+00  0.0000000000000E+00
 0.1184218915188E+01  0.4316003118353E+00  0.0000000000000E+00
 0.1138309797984E+01  0.5269169057486E+00  0.0000000000000E+00
 0.1085671793493E+01  0.6180882682604E+00  0.0000000000000E+00
 0.1026924232931E+01  0.7047360424775E+00  0.0000000000000E+00
 0.1245637994240E+01 -0.1153140954035E+01  0.0000000000000E+00
 0.1259434639173E+01 -0.1045658266075E+01  0.0000000000000E+00
 0.1271814611516E+01 -0.9380032414020E+00  0.0000000000000E+00
 0.1282897842966E+01 -0.8302113225406E+00  0.0000000000000E+00
 0.1292685411094E+01 -0.7223012011472E+00  0.0000000000000E+00
 0.1301074620757E+01 -0.6142822924041E+00  0.0000000000000E+00
 0.1307858886624E+01 -0.5061589492446E+00  0.0000000000000E+00
 0.1312956191499E+01 -0.3979492222187E+00  0.0000000000000E+00
 0.1316307640736E+01 -0.2896727262515E+00  0.0000000000000E+00
 0.1317777205473E+01 -0.1813431754072E+00  0.0000000000000E+00
 0.1317405808471E+01 -0.7298107473448E-01  0.0000000000000E+00
 0.1315729119780E+01  0.3539258187777E-01  0.0000000000000E+00
 0.1308123728344E+01  0.1435341177098E+00  0.0000000000000E+00
 0.1290374197445E+01  0.2504589576084E+00  0.0000000000000E+00
 0.1261835219700E+01  0.3548850007780E+00  0.0000000000000E+00
 0.1222528310271E+01  0.4554650247697E+00  0.0000000000000E+00
 0.1174136112718E+01  0.5516407612413E+00  0.0000000000000E+00
 0.1118546307352E+01  0.6434246353999E+00  0.0000000000000E+00
 0.1056423861944E+01  0.7304173073953E+00  0.0000000000000E+00
 0.1278896502817E+01 -0.1151672019104E+01  0.0000000000000E+00
 0.1293535990179E+01 -0.1042706099146E+01  0.0000000000000E+00
 0.1306740260442E+01 -0.9335568322407E+00  0.0000000000000E+00
 0.1318644602076E+01 -0.8242604273534E+00  0.0000000000000E+00
 0.1329259354497E+01 -0.7148349820807E+00  0.0000000000000E+00
 0.1338484588210E+01 -0.6052883788882E+00  0.0000000000000E+00
 0.1346107409351E+01 -0.4956230047339E+00  0.0000000000000E+00
 0.1352038793042E+01 -0.3858563293925E+00  0.0000000000000E+00
 0.1356201221464E+01 -0.2760094453444E+00  0.0000000000000E+00
 0.1358419956455E+01 -0.1661003728140E+00  0.0000000000000E+00
 0.1358695454050E+01 -0.5615694213201E-01  0.0000000000000E+00
 0.1357550403536E+01  0.5379250037306E-01  0.0000000000000E+00
 0.1350073385546E+01  0.1634871961186E+00  0.0000000000000E+00
 0.1331799421186E+01  0.2718874834949E+00  0.0000000000000E+00
 0.1302044901497E+01  0.3776416174686E+00  0.0000000000000E+00
 0.1260837705354E+01  0.4793297377041E+00  0.0000000000000E+00
 0.1209962427452E+01  0.5763646167340E+00  0.0000000000000E+00
 0.1151420821211E+01  0.6687610025394E+00  0.0000000000000E+00
 0.1085923490956E+01  0.7560985723131E+00  0.0000000000000E+00
-0.5241075387717E+00  0.3828365024885E+00  0.0000000000000E+00
-0.5489124003152E+00  0.4100062281915E+00  0.0000000000000E+00
-0.5737172618587E+00  0.4371759538945E+00  0.0000000000000E+00
-0.5985221234022E+00  0.4643456795974E+00  0.0000000000000E+00
-0.6233269849456E+00  0.4915154053004E+00  0.0000000000000E+00
-0.6481318464891E+00  0.5186851310034E+00  0.0000000000000E+00
-0.6729367080326E+00  0.5458548567064E+00  0.0000000000000E+00
-0.6977415695760E+00  0.5730245824093E+00  0.0000000000000E+00
-0.7225464311195E+00  0.6001943081123E+00  0.0000000000000E+00
-0.7473512926630E+00  0.6273640338153E+00  0.0000000000000E+00
-0.7721561542064E+00  0.6545337595182E+00  0.0000000000000E+00
-0.7969610157499E+00  0.6817034852212E+00  0.0000000000000E+00
-0.8217658772934E+00  0.7088732109242E+00  0.0000000000000E+00
-0.8465707388369E+00  0.7360429366271E+00  0.0000000000000E+00
-0.8713756003803E+00  0.7632126623301E+00  0.0000000000000E+00
-0.8961804619238E+00  0.7903823880331E+00  0.0000000000000E+00
-0.9209853234673E+00  0.8175521137361E+00  0.0000000000000E+00
-0.9457901850107E+00  0.8447218394390E+00  0.0000000000000E+00
-0.9705950465542E+00  0.8718915651420E+00  0.0000000000000E+00
-0.4973724741866E+00  0.3906327015564E+00  0.0000000000000E+00
-0.5212203820320E+00  0.4191990685373E+00  0.0000000000000E+00
-0.5450682898774E+00  0.4477654355183E+00  0.0000000000000E+00
-0.5689161977228E+00  0.4763318024992E+00  0.0000000000000E+00
-0.5927641055682E+00  0.5048981694801E+00  0.0000000000000E+00
-0.6166120134136E+00  0.5334645364611E+00  0.0000000000000E+00
-0.6404599212590E+00  0.5620309034420E+00  0.0000000000000E+00
-0.6643078291044E+00  0.5905972704229E+00  0.0000000000000E+00
-0.6881557369498E+00  0.6191636374039E+00  0.0000000000000E+00
-0.7120036447952E+00  0.6477300043848E+00  0.0000000000000E+00
-0.7358515526406E+00  0.6762963713657E+00  0.0000000000000E+00
-0.7596994604860E+00  0.7048627383467E+00  0.0000000000000E+00
-0.7835473683314E+00  0.7334291053276E+00  0.0000000000000E+00
-0.8073952761768E+00  0.7619954723085E+00  0.0000000000000E+00
-0.8312431840221E+00  0.7905618392895E+00  0.0000000000000E+00
-0.8550910918675E+00  0.8191282062704E+00  0.0000000000000E+00
-0.8789389997129E+00  0.8476945732514E+00  0.0000000000000E+00
-0.9027869075583E+00  0.8762609402323E+00  0.0000000000000E+00
-0.9266348154037E+00  0.9048273072132E+00  0.0000000000000E+00
-0.4704791810931E+00  0.3980072356707E+00  0.0000000000000E+00
-0.4932896417959E+00  0.4278699691922E+00  0.0000000000000E+00
-0.5161001024988E+00  0.4577327027136E+00  0.0000000000000E+00
-0.5389105632016E+00  0.4875954362350E+00  0.0000000000000E+00
-0.5617210239044E+00  0.5174581697564E+00  0.0000000000000E+00
-0.5845314846072E+00  0.5473209032779E+00  0.0000000000000E+00
-0.6073419453101E+00  0.5771836367993E+00  0.0000000000000E+00
-0.6301524060129E+00  0.6070463703207E+00  0.0000000000000E+00
-0.6529628667157E+00  0.6369091038421E+00  0.0000000000000E+00
-0.6757733274185E+00  0.6667718373635E+00  0.0000000000000E+00
-0.6985837881214E+00  0.6966345708850E+00  0.0000000000000E+00
-0.7213942488242E+00  0.7264973044064E+00  0.0000000000000E+00
-0.7442047095270E+00  0.7563600379278E+00  0.0000000000000E+00
-0.7670151702298E+00  0.7862227714492E+00  0.0000000000000E+00
-0.7898256309326E+00  0.8160855049706E+00  0.0000000000000E+00
-0.8126360916355E+00  0.8459482384921E+00  0.0000000000000E+00
-0.8354465523383E+00  0.8758109720135E+00  0.0000000000000E+00
-0.8582570130411E+00  0.9056737055349E+00  0.0000000000000E+00
-0.8810674737439E+00  0.9355364390563E+00  0.0000000000000E+00
-0.4434431133913E+00  0.4049623049046E+00  0.0000000000000E+00
-0.4651476228734E+00  0.4360271534721E+00  0.0000000000000E+00
-0.4868521323554E+00  0.4670920020396E+00  0.0000000000000E+00
-0.5085566418375E+00  0.4981568506071E+00  0.0000000000000E+00
-0.5302611513196E+00  0.5292216991746E+00  0.0000000000000E+00
-0.5519656608017E+00  0.5602865477421E+00  0.0000000000000E+00
-0.5736701702838E+00  0.5913513963096E+00  0.0000000000000E+00
-0.5953746797659E+00  0.6224162448771E+00  0.0000000000000E+00
-0.6170791892479E+00  0.6534810934446E+00  0.0000000000000E+00
-0.6387836987300E+00  0.6845459420121E+00  0.0000000000000E+00
-0.6604882082121E+00  0.7156107905796E+00  0.0000000000000E+00
-0.6821927176942E+00  0.7466756391471E+00  0.0000000000000E+00
-0.7038972271763E+00  0.7777404877146E+00  0.0000000000000E+00
-0.7256017366584E+00  0.8088053362822E+00  0.0000000000000E+00
-0.7473062461404E+00  0.8398701848497E+00  0.0000000000000E+00
-0.7690107556225E+00  0.8709350334172E+00  0.0000000000000E+00
-0.7907152651046E+00  0.9019998819847E+00  0.0000000000000E+00
-0.8124197745867E+00  0.9330647305522E+00  0.0000000000000E+00
-0.8341242840688E+00  0.9641295791197E+00  0.0000000000000E+00
-0.4162795944393E+00  0.4115031806360E+00  0.0000000000000E+00
-0.4368214338124E+00  0.4436848274892E+00  0.0000000000000E+00
-0.4573632731855E+00  0.4758664743423E+00  0.0000000000000E+00
-0.4779051125585E+00  0.5080481211954E+00  0.0000000000000E+00
-0.4984469519316E+00  0.5402297680486E+00  0.0000000000000E+00
-0.5189887913047E+00  0.5724114149017E+00  0.0000000000000E+00
-0.5395306306778E+00  0.6045930617548E+00  0.0000000000000E+00
-0.5600724700509E+00  0.6367747086080E+00  0.0000000000000E+00
-0.5806143094240E+00  0.6689563554611E+00  0.0000000000000E+00
-0.6011561487970E+00  0.7011380023142E+00  0.0000000000000E+00
-0.6216979881701E+00  0.7333196491674E+00  0.0000000000000E+00
-0.6422398275432E+00  0.7655012960205E+00  0.0000000000000E+00
-0.6627816669163E+00  0.7976829428736E+00  0.0000000000000E+00
-0.6833235062894E+00  0.8298645897268E+00  0.0000000000000E+00
-0.7038653456625E+00  0.8620462365799E+00  0.0000000000000E+00
-0.7244071850355E+00  0.8942278834330E+00  0.0000000000000E+00
-0.7449490244086E+00  0.9264095302862E+00  0.0000000000000E+00
-0.7654908637817E+00  0.9585911771393E+00  0.0000000000000E+00
-0.7860327031548E+00  0.9907728239924E+00  0.0000000000000E+00
-0.3890049746149E+00  0.4176409907798E+00  0.0000000000000E+00
-0.4083402172239E+00  0.4508687343098E+00  0.0000000000000E+00
-0.4276754598330E+00  0.4840964778399E+00  0.0000000000000E+00
-0.4470107024420E+00  0.5173242213700E+00  0.0000000000000E+00
-0.4663459450510E+00  0.5505519649000E+00  0.0000000000000E+00
-0.4856811876600E+00  0.5837797084301E+00  0.0000000000000E+00
-0.5050164302691E+00  0.6170074519601E+00  0.0000000000000E+00
-0.5243516728781E+00  0.6502351954902E+00  0.0000000000000E+00
-0.5436869154871E+00  0.6834629390203E+00  0.0000000000000E+00
-0.5630221580962E+00  0.7166906825503E+00  0.0000000000000E+00
-0.5823574007052E+00  0.7499184260804E+00  0.0000000000000E+00
-0.6016926433142E+00  0.7831461696105E+00  0.0000000000000E+00
-0.6210278859232E+00  0.8163739131405E+00  0.0000000000000E+00
-0.6403631285323E+00  0.8496016566706E+00  0.0000000000000E+00
-0.6596983711413E+00  0.8828294002006E+00  0.0000000000000E+00
-0.6790336137503E+00  0.9160571437307E+00  0.0000000000000E+00
-0.6983688563594E+00  0.9492848872608E+00  0.0000000000000E+00
-0.7177040989684E+00  0.9825126307908E+00  0.0000000000000E+00
-0.7370393415774E+00  0.1015740374321E+01  0.0000000000000E+00
-0.3616375814374E+00  0.4233950320155E+00  0.0000000000000E+00
-0.3797367705145E+00  0.4576208248420E+00  0.0000000000000E+00
-0.3978359595916E+00  0.4918466176685E+00  0.0000000000000E+00
-0.4159351486687E+00  0.5260724104950E+00  0.0000000000000E+00
-0.4340343377458E+00  0.5602982033215E+00  0.0000000000000E+00
-0.4521335268229E+00  0.5945239961480E+00  0.0000000000000E+00
-0.4702327159000E+00  0.6287497889745E+00  0.0000000000000E+00
-0.4883319049771E+00  0.6629755818010E+00  0.0000000000000E+00
-0.5064310940542E+00  0.6972013746275E+00  0.0000000000000E+00
-0.5245302831313E+00  0.7314271674540E+00  0.0000000000000E+00
-0.5426294722084E+00  0.7656529602805E+00  0.0000000000000E+00
-0.5607286612855E+00  0.7998787531070E+00  0.0000000000000E+00
-0.5788278503626E+00  0.8341045459335E+00  0.0000000000000E+00
-0.5969270394397E+00  0.8683303387600E+00  0.0000000000000E+00
-0.6150262285168E+00  0.9025561315865E+00  0.0000000000000E+00
-0.6331254175939E+00  0.9367819244129E+00  0.0000000000000E+00
-0.6512246066710E+00  0.9710077172394E+00  0.0000000000000E+00
-0.6693237957481E+00  0.1005233510066E+01  0.0000000000000E+00
-0.6874229848252E+00  0.1039459302892E+01  0.0000000000000E+00
-0.3341971102105E+00  0.4287924375866E+00  0.0000000000000E+00
-0.3510465988283E+00  0.4639985282286E+00  0.0000000000000E+00
-0.3678960874461E+00  0.4992046188705E+00  0.0000000000000E+00
-0.3847455760639E+00  0.5344107095124E+00  0.0000000000000E+00
-0.4015950646816E+00  0.5696168001544E+00  0.0000000000000E+00
-0.4184445532994E+00  0.6048228907963E+00  0.0000000000000E+00
-0.4352940419172E+00  0.6400289814383E+00  0.0000000000000E+00
-0.4521435305350E+00  0.6752350720802E+00  0.0000000000000E+00
-0.4689930191527E+00  0.7104411627221E+00  0.0000000000000E+00
-0.4858425077705E+00  0.7456472533641E+00  0.0000000000000E+00
-0.5026919963883E+00  0.7808533440060E+00  0.0000000000000E+00
-0.5195414850061E+00  0.8160594346480E+00  0.0000000000000E+00
-0.5363909736238E+00  0.8512655252899E+00  0.0000000000000E+00
-0.5532404622416E+00  0.8864716159318E+00  0.0000000000000E+00
-0.5700899508594E+00  0.9216777065738E+00  0.0000000000000E+00
-0.5869394394772E+00  0.9568837972157E+00  0.0000000000000E+00
-0.6037889280950E+00  0.9920898878576E+00  0.0000000000000E+00
-0.6206384167127E+00  0.1027295978500E+01  0.0000000000000E+00
-0.6374879053305E+00  0.1062502069142E+01  0.0000000000000E+00
-0.3066965706001E+00  0.4338489484850E+00  0.0000000000000E+00
-0.3222916391952E+00  0.4700363162541E+00  0.0000000000000E+00
-0.3378867077903E+00  0.5062236840232E+00  0.0000000000000E+00
-0.3534817763854E+00  0.5424110517923E+00  0.0000000000000E+00
-0.3690768449805E+00  0.5785984195614E+00  0.0000000000000E+00
-0.3846719135756E+00  0.6147857873305E+00  0.0000000000000E+00
-0.4002669821708E+00  0.6509731550996E+00  0.0000000000000E+00
-0.4158620507659E+00  0.6871605228687E+00  0.0000000000000E+00
-0.4314571193610E+00  0.7233478906379E+00  0.0000000000000E+00
-0.4470521879561E+00  0.7595352584070E+00  0.0000000000000E+00
-0.4626472565512E+00  0.7957226261761E+00  0.0000000000000E+00
-0.4782423251463E+00  0.8319099939452E+00  0.0000000000000E+00
-0.4938373937414E+00  0.8680973617143E+00  0.0000000000000E+00
-0.5094324623365E+00  0.9042847294834E+00  0.0000000000000E+00
-0.5250275309316E+00  0.9404720972525E+00  0.0000000000000E+00
-0.5406225995268E+00  0.9766594650216E+00  0.0000000000000E+00
-0.5562176681219E+00  0.1012846832791E+01  0.0000000000000E+00
-0.5718127367170E+00  0.1049034200560E+01  0.0000000000000E+00
-0.5874078053121E+00  0.1085221568329E+01  0.0000000000000E+00
-0.2791218293927E+00  0.4385208078592E+00  0.0000000000000E+00
-0.2934394861648E+00  0.4756494588749E+00  0.0000000000000E+00
-0.3077571429369E+00  0.5127781098906E+00  0.0000000000000E+00
-0.3220747997090E+00  0.5499067609063E+00  0.0000000000000E+00
-0.3363924564811E+00  0.5870354119220E+00  0.0000000000000E+00
-0.3507101132532E+00  0.6241640629377E+00  0.0000000000000E+00
-0.3650277700253E+00  0.6612927139534E+00  0.0000000000000E+00
-0.3793454267974E+00  0.6984213649692E+00  0.0000000000000E+00
-0.3936630835695E+00  0.7355500159849E+00  0.0000000000000E+00
-0.4079807403416E+00  0.7726786670006E+00  0.0000000000000E+00
-0.4222983971137E+00  0.8098073180163E+00  0.0000000000000E+00
-0.4366160538858E+00  0.8469359690320E+00  0.0000000000000E+00
-0.4509337106579E+00  0.8840646200477E+00  0.0000000000000E+00
-0.4652513674300E+00  0.9211932710634E+00  0.0000000000000E+00
-0.4795690242021E+00  0.9583219220791E+00  0.0000000000000E+00
-0.4938866809742E+00  0.9954505730948E+00  0.0000000000000E+00
-0.5082043377463E+00  0.1032579224111E+01  0.0000000000000E+00
-0.5225219945184E+00  0.1069707875126E+01  0.0000000000000E+00
-0.5368396512905E+00  0.1106836526142E+01  0.0000000000000E+00
-0.2514639251819E+00  0.4427693913927E+00  0.0000000000000E+00
-0.2644679291393E+00  0.4807632912527E+00  0.0000000000000E+00
-0.2774719330968E+00  0.5187571911127E+00  0.0000000000000E+00
-0.2904759370542E+00  0.5567510909728E+00  0.0000000000000E+00
-0.3034799410116E+00  0.5947449908328E+00  0.0000000000000E+00
-0.3164839449691E+00  0.6327388906929E+00  0.0000000000000E+00
-0.3294879489265E+00  0.6707327905529E+00  0.0000000000000E+00
-0.3424919528839E+00  0.7087266904129E+00  0.0000000000000E+00
-0.3554959568414E+00  0.7467205902730E+00  0.0000000000000E+00
-0.3684999607988E+00  0.7847144901330E+00  0.0000000000000E+00
-0.3815039647562E+00  0.8227083899931E+00  0.0000000000000E+00
-0.3945079687137E+00  0.8607022898531E+00  0.0000000000000E+00
-0.4075119726711E+00  0.8986961897131E+00  0.0000000000000E+00
-0.4205159766285E+00  0.9366900895732E+00  0.0000000000000E+00
-0.4335199805859E+00  0.9746839894332E+00  0.0000000000000E+00
-0.4465239845434E+00  0.1012677889293E+01  0.0000000000000E+00
-0.4595279885008E+00  0.1050671789153E+01  0.0000000000000E+00
-0.4725319924582E+00  0.1088665689013E+01  0.0000000000000E+00
-0.4855359964157E+00  0.1126659588873E+01  0.0000000000000E+00
-0.2237255065535E+00  0.4465773318235E+00  0.0000000000000E+00
-0.2353778815772E+00  0.4853454460208E+00  0.0000000000000E+00
-0.2470302566009E+00  0.5241135602180E+00  0.0000000000000E+00
-0.2586826316245E+00  0.5628816744153E+00  0.0000000000000E+00
-0.2703350066482E+00  0.6016497886126E+00  0.0000000000000E+00
-0.2819873816718E+00  0.6404179028098E+00  0.0000000000000E+00
-0.2936397566955E+00  0.6791860170071E+00  0.0000000000000E+00
-0.3052921317192E+00  0.7179541312043E+00  0.0000000000000E+00
-0.3169445067428E+00  0.7567222454016E+00  0.0000000000000E+00
-0.3285968817665E+00  0.7954903595989E+00  0.0000000000000E+00
-0.3402492567901E+00  0.8342584737961E+00  0.0000000000000E+00
-0.3519016318138E+00  0.8730265879934E+00  0.0000000000000E+00
-0.3635540068375E+00  0.9117947021907E+00  0.0000000000000E+00
-0.3752063818611E+00  0.9505628163879E+00  0.0000000000000E+00
-0.3868587568848E+00  0.9893309305852E+00  0.0000000000000E+00
-0.3985111319084E+00  0.1028099044782E+01  0.0000000000000E+00
-0.4101635069321E+00  0.1066867158980E+01  0.0000000000000E+00
-0.4218158819558E+00  0.1105635273177E+01  0.0000000000000E+00
-0.4334682569794E+00  0.1144403387374E+01  0.0000000000000E+00
-0.1959146411182E+00  0.4499388903646E+00  0.0000000000000E+00
-0.2061810087786E+00  0.4893865877542E+00  0.0000000000000E+00
-0.2164473764389E+00  0.5288342851439E+00  0.0000000000000E+00
-0.2267137440993E+00  0.5682819825336E+00  0.0000000000000E+00
-0.2369801117597E+00  0.6077296799233E+00  0.0000000000000E+00
-0.2472464794201E+00  0.6471773773130E+00  0.0000000000000E+00
-0.2575128470805E+00  0.6866250747027E+00  0.0000000000000E+00
-0.2677792147409E+00  0.7260727720924E+00  0.0000000000000E+00
-0.2780455824013E+00  0.7655204694820E+00  0.0000000000000E+00
-0.2883119500617E+00  0.8049681668717E+00  0.0000000000000E+00
-0.2985783177220E+00  0.8444158642614E+00  0.0000000000000E+00
-0.3088446853824E+00  0.8838635616511E+00  0.0000000000000E+00
-0.3191110530428E+00  0.9233112590408E+00  0.0000000000000E+00
-0.3293774207032E+00  0.9627589564305E+00  0.0000000000000E+00
-0.3396437883636E+00  0.1002206653820E+01  0.0000000000000E+00
-0.3499101560240E+00  0.1041654351210E+01  0.0000000000000E+00
-0.3601765236844E+00  0.1081102048600E+01  0.0000000000000E+00
-0.3704428913448E+00  0.1120549745989E+01  0.0000000000000E+00
-0.3807092590051E+00  0.1159997443379E+01  0.0000000000000E+00
-0.1680410293477E+00  0.4528534155756E+00  0.0000000000000E+00
-0.1768921543896E+00  0.4928873240860E+00  0.0000000000000E+00
-0.1857432794315E+00  0.5329212325965E+00  0.0000000000000E+00
-0.1945944044734E+00  0.5729551411069E+00  0.0000000000000E+00
-0.2034455295152E+00  0.6129890496173E+00  0.0000000000000E+00
-0.2122966545571E+00  0.6530229581278E+00  0.0000000000000E+00
-0.2211477795990E+00  0.6930568666382E+00  0.0000000000000E+00
-0.2299989046409E+00  0.7330907751486E+00  0.0000000000000E+00
-0.2388500296828E+00  0.7731246836591E+00  0.0000000000000E+00
-0.2477011547246E+00  0.8131585921695E+00  0.0000000000000E+00
-0.2565522797665E+00  0.8531925006799E+00  0.0000000000000E+00
-0.2654034048084E+00  0.8932264091904E+00  0.0000000000000E+00
-0.2742545298503E+00  0.9332603177008E+00  0.0000000000000E+00
-0.2831056548921E+00  0.9732942262112E+00  0.0000000000000E+00
-0.2919567799340E+00  0.1013328134722E+01  0.0000000000000E+00
-0.3008079049759E+00  0.1053362043232E+01  0.0000000000000E+00
-0.3096590300178E+00  0.1093395951743E+01  0.0000000000000E+00
-0.3185101550597E+00  0.1133429860253E+01  0.0000000000000E+00
-0.3273612801015E+00  0.1173463768763E+01  0.0000000000000E+00
-0.1401143208464E+00  0.4553218992365E+00  0.0000000000000E+00
-0.1475259700085E+00  0.4958513109285E+00  0.0000000000000E+00
-0.1549376191705E+00  0.5363807226205E+00  0.0000000000000E+00
-0.1623492683326E+00  0.5769101343125E+00  0.0000000000000E+00
-0.1697609174946E+00  0.6174395460045E+00  0.0000000000000E+00
-0.1771725666567E+00  0.6579689576965E+00  0.0000000000000E+00
-0.1845842158187E+00  0.6984983693885E+00  0.0000000000000E+00
-0.1919958649808E+00  0.7390277810805E+00  0.0000000000000E+00
-0.1994075141428E+00  0.7795571927725E+00  0.0000000000000E+00
-0.2068191633048E+00  0.8200866044646E+00  0.0000000000000E+00
-0.2142308124669E+00  0.8606160161566E+00  0.0000000000000E+00
-0.2216424616289E+00  0.9011454278486E+00  0.0000000000000E+00
-0.2290541107910E+00  0.9416748395406E+00  0.0000000000000E+00
-0.2364657599530E+00  0.9822042512326E+00  0.0000000000000E+00
-0.2438774091151E+00  0.1022733662925E+01  0.0000000000000E+00
-0.2512890582771E+00  0.1063263074617E+01  0.0000000000000E+00
-0.2587007074392E+00  0.1103792486309E+01  0.0000000000000E+00
-0.2661123566012E+00  0.1144321898001E+01  0.0000000000000E+00
-0.2735240057633E+00  0.1184851309693E+01  0.0000000000000E+00
-0.1121439916984E+00  0.4573452348171E+00  0.0000000000000E+00
-0.1180967026830E+00  0.4982817607989E+00  0.0000000000000E+00
-0.1240494136676E+00  0.5392182867806E+00  0.0000000000000E+00
-0.1300021246522E+00  0.5801548127624E+00  0.0000000000000E+00
-0.1359548356368E+00  0.6210913387441E+00  0.0000000000000E+00
-0.1419075466214E+00  0.6620278647259E+00  0.0000000000000E+00
-0.1478602576060E+00  0.7029643907077E+00  0.0000000000000E+00
-0.1538129685906E+00  0.7439009166894E+00  0.0000000000000E+00
-0.1597656795751E+00  0.7848374426712E+00  0.0000000000000E+00
-0.1657183905597E+00  0.8257739686529E+00  0.0000000000000E+00
-0.1716711015443E+00  0.8667104946347E+00  0.0000000000000E+00
-0.1776238125289E+00  0.9076470206164E+00  0.0000000000000E+00
-0.1835765235135E+00  0.9485835465982E+00  0.0000000000000E+00
-0.1895292344981E+00  0.9895200725800E+00  0.0000000000000E+00
-0.1954819454827E+00  0.1030456598562E+01  0.0000000000000E+00
-0.2014346564673E+00  0.1071393124543E+01  0.0000000000000E+00
-0.2073873674519E+00  0.1112329650525E+01  0.0000000000000E+00
-0.2133400784365E+00  0.1153266176507E+01  0.0000000000000E+00
-0.2192927894211E+00  0.1194202702489E+01  0.0000000000000E+00
-0.8413885627146E-01  0.4589235298149E+00  0.0000000000000E+00
-0.8861721895939E-01  0.5001800629532E+00  0.0000000000000E+00
-0.9309558164732E-01  0.5414365960915E+00  0.0000000000000E+00
-0.9757394433525E-01  0.5826931292297E+00  0.0000000000000E+00
-0.1020523070232E+00  0.6239496623680E+00  0.0000000000000E+00
-0.1065306697111E+00  0.6652061955063E+00  0.0000000000000E+00
-0.1110090323990E+00  0.7064627286446E+00  0.0000000000000E+00
-0.1154873950870E+00  0.7477192617829E+00  0.0000000000000E+00
-0.1199657577749E+00  0.7889757949212E+00  0.0000000000000E+00
-0.1244441204628E+00  0.8302323280595E+00  0.0000000000000E+00
-0.1289224831508E+00  0.8714888611978E+00  0.0000000000000E+00
-0.1334008458387E+00  0.9127453943361E+00  0.0000000000000E+00
-0.1378792085266E+00  0.9540019274744E+00  0.0000000000000E+00
-0.1423575712146E+00  0.9952584606127E+00  0.0000000000000E+00
-0.1468359339025E+00  0.1036514993751E+01  0.0000000000000E+00
-0.1513142965904E+00  0.1077771526889E+01  0.0000000000000E+00
-0.1557926592784E+00  0.1119028060028E+01  0.0000000000000E+00
-0.1602710219663E+00  0.1160284593166E+01  0.0000000000000E+00
-0.1647493846542E+00  0.1201541126304E+01  0.0000000000000E+00
-0.5610747836923E-01  0.4600556068131E+00  0.0000000000000E+00
-0.5909983820158E-01  0.5015447808148E+00  0.0000000000000E+00
-0.6209219803393E-01  0.5430339548165E+00  0.0000000000000E+00
-0.6508455786628E-01  0.5845231288182E+00  0.0000000000000E+00
-0.6807691769863E-01  0.6260123028200E+00  0.0000000000000E+00
-0.7106927753098E-01  0.6675014768217E+00  0.0000000000000E+00
-0.7406163736334E-01  0.7089906508234E+00  0.0000000000000E+00
-0.7705399719569E-01  0.7504798248252E+00  0.0000000000000E+00
-0.8004635702804E-01  0.7919689988269E+00  0.0000000000000E+00
-0.8303871686039E-01  0.8334581728286E+00  0.0000000000000E+00
-0.8603107669274E-01  0.8749473468303E+00  0.0000000000000E+00
-0.8902343652509E-01  0.9164365208321E+00  0.0000000000000E+00
-0.9201579635744E-01  0.9579256948338E+00  0.0000000000000E+00
-0.9500815618979E-01  0.9994148688355E+00  0.0000000000000E+00
-0.9800051602214E-01  0.1040904042837E+01  0.0000000000000E+00
-0.1009928758545E+00  0.1082393216839E+01  0.0000000000000E+00
-0.1039852356868E+00  0.1123882390841E+01  0.0000000000000E+00
-0.1069775955192E+00  0.1165371564842E+01  0.0000000000000E+00
-0.1099699553515E+00  0.1206860738844E+01  0.0000000000000E+00
-0.2805830974039E-01  0.4607386669267E+00  0.0000000000000E+00
-0.2955662089814E-01  0.5023709751786E+00  0.0000000000000E+00
-0.3105493205590E-01  0.5440032834305E+00  0.0000000000000E+00
-0.3255324321365E-01  0.5856355916824E+00  0.0000000000000E+00
-0.3405155437141E-01  0.6272678999343E+00  0.0000000000000E+00
-0.3554986552916E-01  0.6689002081862E+00  0.0000000000000E+00
-0.3704817668692E-01  0.7105325164381E+00  0.0000000000000E+00
-0.3854648784467E-01  0.7521648246900E+00  0.0000000000000E+00
-0.4004479900242E-01  0.7937971329419E+00  0.0000000000000E+00
-0.4154311016018E-01  0.8354294411938E+00  0.0000000000000E+00
-0.4304142131793E-01  0.8770617494457E+00  0.0000000000000E+00
-0.4453973247569E-01  0.9186940576976E+00  0.0000000000000E+00
-0.4603804363344E-01  0.9603263659495E+00  0.0000000000000E+00
-0.4753635479120E-01  0.1001958674201E+01  0.0000000000000E+00
-0.4903466594895E-01  0.1043590982453E+01  0.0000000000000E+00
-0.5053297710671E-01  0.1085223290705E+01  0.0000000000000E+00
-0.5203128826446E-01  0.1126855598957E+01  0.0000000000000E+00
-0.5352959942222E-01  0.1168487907209E+01  0.0000000000000E+00
-0.5502791057997E-01  0.1210120215461E+01  0.0000000000000E+00
 0.2860756622583E-09  0.4609678550140E+00  0.0000000000000E+00
 0.5721514265632E-09  0.5026493319786E+00  0.0000000000000E+00
 0.8582273643404E-09  0.5443308089433E+00  0.0000000000000E+00
 0.1144303288240E-08  0.5860122859079E+00  0.0000000000000E+00
 0.1430379267650E-08  0.6276937628726E+00  0.0000000000000E+00
 0.1716455108283E-08  0.6693752398372E+00  0.0000000000000E+00
 0.2002531059938E-08  0.7110567168019E+00  0.0000000000000E+00
 0.2288607011593E-08  0.7527381937665E+00  0.0000000000000E+00
 0.2574682879981E-08  0.7944196707312E+00  0.0000000000000E+00
 0.2860758831636E-08  0.8361011476958E+00  0.0000000000000E+00
 0.3146834755536E-08  0.8777826246605E+00  0.0000000000000E+00
 0.3432910790458E-08  0.9194641016251E+00  0.0000000000000E+00
 0.3718986714357E-08  0.9611455785898E+00  0.0000000000000E+00
 0.4005062638256E-08  0.1002827055554E+01  0.0000000000000E+00
 0.4291138673178E-08  0.1044508532519E+01  0.0000000000000E+00
 0.4577214430544E-08  0.1086190009484E+01  0.0000000000000E+00
 0.4863290520977E-08  0.1127871486448E+01  0.0000000000000E+00
 0.5149366278343E-08  0.1169552963413E+01  0.0000000000000E+00
 0.5435442368776E-08  0.1211234440378E+01  0.0000000000000E+00
 0.2805831031206E-01  0.4607386669015E+00  0.0000000000000E+00
 0.2955662204149E-01  0.5023709751282E+00  0.0000000000000E+00
 0.3105493377092E-01  0.5440032833549E+00  0.0000000000000E+00
 0.3255324550035E-01  0.5856355915817E+00  0.0000000000000E+00
 0.3405155722978E-01  0.6272678998084E+00  0.0000000000000E+00
 0.3554986895921E-01  0.6689002080351E+00  0.0000000000000E+00
 0.3704818068864E-01  0.7105325162618E+00  0.0000000000000E+00
 0.3854649241807E-01  0.7521648244885E+00  0.0000000000000E+00
 0.4004480414750E-01  0.7937971327152E+00  0.0000000000000E+00
 0.4154311587693E-01  0.8354294409419E+00  0.0000000000000E+00
 0.4304142760636E-01  0.8770617491687E+00  0.0000000000000E+00
 0.4453973933579E-01  0.9186940573954E+00  0.0000000000000E+00
 0.4603805106522E-01  0.9603263656221E+00  0.0000000000000E+00
 0.4753636279465E-01  0.1001958673849E+01  0.0000000000000E+00
 0.4903467452408E-01  0.1043590982076E+01  0.0000000000000E+00
 0.5053298625351E-01  0.1085223290302E+01  0.0000000000000E+00
 0.5203129798294E-01  0.1126855598529E+01  0.0000000000000E+00
 0.5352960971237E-01  0.1168487906756E+01  0.0000000000000E+00
 0.5502792144180E-01  0.1210120214982E+01  0.0000000000000E+00
 0.5610747893947E-01  0.4600556067638E+00  0.0000000000000E+00
 0.5909983934207E-01  0.5015447807163E+00  0.0000000000000E+00
 0.6209219974467E-01  0.5430339546687E+00  0.0000000000000E+00
 0.6508456014726E-01  0.5845231286212E+00  0.0000000000000E+00
 0.6807692054986E-01  0.6260123025737E+00  0.0000000000000E+00
 0.7106928095246E-01  0.6675014765262E+00  0.0000000000000E+00
 0.7406164135505E-01  0.7089906504786E+00  0.0000000000000E+00
 0.7705400175765E-01  0.7504798244311E+00  0.0000000000000E+00
 0.8004636216024E-01  0.7919689983836E+00  0.0000000000000E+00
 0.8303872256284E-01  0.8334581723360E+00  0.0000000000000E+00
 0.8603108296544E-01  0.8749473462885E+00  0.0000000000000E+00
 0.8902344336803E-01  0.9164365202410E+00  0.0000000000000E+00
 0.9201580377063E-01  0.9579256941934E+00  0.0000000000000E+00
 0.9500816417323E-01  0.9994148681459E+00  0.0000000000000E+00
 0.9800052457582E-01  0.1040904042098E+01  0.0000000000000E+00
 0.1009928849784E+00  0.1082393216051E+01  0.0000000000000E+00
 0.1039852453810E+00  0.1123882390003E+01  0.0000000000000E+00
 0.1069776057836E+00  0.1165371563956E+01  0.0000000000000E+00
 0.1099699661862E+00  0.1206860737908E+01  0.0000000000000E+00
 0.8413885683948E-01  0.4589235297423E+00  0.0000000000000E+00
 0.8861722009544E-01  0.5001800628080E+00  0.0000000000000E+00
 0.9309558335140E-01  0.5414365958738E+00  0.0000000000000E+00
 0.9757394660735E-01  0.5826931289395E+00  0.0000000000000E+00
 0.1020523098633E+00  0.6239496620052E+00  0.0000000000000E+00
 0.1065306731193E+00  0.6652061950710E+00  0.0000000000000E+00
 0.1110090363752E+00  0.7064627281367E+00  0.0000000000000E+00
 0.1154873996312E+00  0.7477192612024E+00  0.0000000000000E+00
 0.1199657628871E+00  0.7889757942682E+00  0.0000000000000E+00
 0.1244441261431E+00  0.8302323273339E+00  0.0000000000000E+00
 0.1289224893991E+00  0.8714888603996E+00  0.0000000000000E+00
 0.1334008526550E+00  0.9127453934654E+00  0.0000000000000E+00
 0.1378792159110E+00  0.9540019265311E+00  0.0000000000000E+00
 0.1423575791669E+00  0.9952584595968E+00  0.0000000000000E+00
 0.1468359424229E+00  0.1036514992663E+01  0.0000000000000E+00
 0.1513143056788E+00  0.1077771525728E+01  0.0000000000000E+00
 0.1557926689348E+00  0.1119028058794E+01  0.0000000000000E+00
 0.1602710321908E+00  0.1160284591860E+01  0.0000000000000E+00
 0.1647493954467E+00  0.1201541124925E+01  0.0000000000000E+00
 0.1121439922631E+00  0.4573452347218E+00  0.0000000000000E+00
 0.1180967038124E+00  0.4982817606082E+00  0.0000000000000E+00
 0.1240494153618E+00  0.5392182864946E+00  0.0000000000000E+00
 0.1300021269111E+00  0.5801548123811E+00  0.0000000000000E+00
 0.1359548384605E+00  0.6210913382675E+00  0.0000000000000E+00
 0.1419075500098E+00  0.6620278641539E+00  0.0000000000000E+00
 0.1478602615592E+00  0.7029643900404E+00  0.0000000000000E+00
 0.1538129731085E+00  0.7439009159268E+00  0.0000000000000E+00
 0.1597656846578E+00  0.7848374418132E+00  0.0000000000000E+00
 0.1657183962072E+00  0.8257739676996E+00  0.0000000000000E+00
 0.1716711077565E+00  0.8667104935861E+00  0.0000000000000E+00
 0.1776238193059E+00  0.9076470194725E+00  0.0000000000000E+00
 0.1835765308552E+00  0.9485835453589E+00  0.0000000000000E+00
 0.1895292424046E+00  0.9895200712454E+00  0.0000000000000E+00
 0.1954819539539E+00  0.1030456597132E+01  0.0000000000000E+00
 0.2014346655032E+00  0.1071393123018E+01  0.0000000000000E+00
 0.2073873770526E+00  0.1112329648905E+01  0.0000000000000E+00
 0.2133400886019E+00  0.1153266174791E+01  0.0000000000000E+00
 0.2192928001513E+00  0.1194202700677E+01  0.0000000000000E+00
 0.1401143214071E+00  0.4553218991187E+00  0.0000000000000E+00
 0.1475259711299E+00  0.4958513106929E+00  0.0000000000000E+00
 0.1549376208526E+00  0.5363807222671E+00  0.0000000000000E+00
 0.1623492705753E+00  0.5769101338413E+00  0.0000000000000E+00
 0.1697609202981E+00  0.6174395454155E+00  0.0000000000000E+00
 0.1771725700208E+00  0.6579689569897E+00  0.0000000000000E+00
 0.1845842197436E+00  0.6984983685639E+00  0.0000000000000E+00
 0.1919958694663E+00  0.7390277801381E+00  0.0000000000000E+00
 0.1994075191891E+00  0.7795571917124E+00  0.0000000000000E+00
 0.2068191689118E+00  0.8200866032866E+00  0.0000000000000E+00
 0.2142308186346E+00  0.8606160148608E+00  0.0000000000000E+00
 0.2216424683573E+00  0.9011454264350E+00  0.0000000000000E+00
 0.2290541180800E+00  0.9416748380092E+00  0.0000000000000E+00
 0.2364657678028E+00  0.9822042495834E+00  0.0000000000000E+00
 0.2438774175255E+00  0.1022733661158E+01  0.0000000000000E+00
 0.2512890672483E+00  0.1063263072732E+01  0.0000000000000E+00
 0.2587007169710E+00  0.1103792484306E+01  0.0000000000000E+00
 0.2661123666938E+00  0.1144321895880E+01  0.0000000000000E+00
 0.2735240164165E+00  0.1184851307454E+01  0.0000000000000E+00
 0.1680410299043E+00  0.4528534154353E+00  0.0000000000000E+00
 0.1768921555027E+00  0.4928873238054E+00  0.0000000000000E+00
 0.1857432811012E+00  0.5329212321756E+00  0.0000000000000E+00
 0.1945944066996E+00  0.5729551405457E+00  0.0000000000000E+00
 0.2034455322981E+00  0.6129890489159E+00  0.0000000000000E+00
 0.2122966578965E+00  0.6530229572860E+00  0.0000000000000E+00
 0.2211477834950E+00  0.6930568656562E+00  0.0000000000000E+00
 0.2299989090934E+00  0.7330907740263E+00  0.0000000000000E+00
 0.2388500346918E+00  0.7731246823965E+00  0.0000000000000E+00
 0.2477011602903E+00  0.8131585907666E+00  0.0000000000000E+00
 0.2565522858887E+00  0.8531924991368E+00  0.0000000000000E+00
 0.2654034114872E+00  0.8932264075069E+00  0.0000000000000E+00
 0.2742545370856E+00  0.9332603158771E+00  0.0000000000000E+00
 0.2831056626841E+00  0.9732942242472E+00  0.0000000000000E+00
 0.2919567882825E+00  0.1013328132617E+01  0.0000000000000E+00
 0.3008079138810E+00  0.1053362040987E+01  0.0000000000000E+00
 0.3096590394794E+00  0.1093395949358E+01  0.0000000000000E+00
 0.3185101650779E+00  0.1133429857728E+01  0.0000000000000E+00
 0.3273612906763E+00  0.1173463766098E+01  0.0000000000000E+00
 0.1959146416683E+00  0.4499388902022E+00  0.0000000000000E+00
 0.2061810098788E+00  0.4893865874296E+00  0.0000000000000E+00
 0.2164473780893E+00  0.5288342846570E+00  0.0000000000000E+00
 0.2267137462998E+00  0.5682819818844E+00  0.0000000000000E+00
 0.2369801145103E+00  0.6077296791117E+00  0.0000000000000E+00
 0.2472464827208E+00  0.6471773763391E+00  0.0000000000000E+00
 0.2575128509313E+00  0.6866250735665E+00  0.0000000000000E+00
 0.2677792191418E+00  0.7260727707939E+00  0.0000000000000E+00
 0.2780455873523E+00  0.7655204680212E+00  0.0000000000000E+00
 0.2883119555628E+00  0.8049681652486E+00  0.0000000000000E+00
 0.2985783237733E+00  0.8444158624760E+00  0.0000000000000E+00
 0.3088446919838E+00  0.8838635597034E+00  0.0000000000000E+00
 0.3191110601943E+00  0.9233112569307E+00  0.0000000000000E+00
 0.3293774284048E+00  0.9627589541581E+00  0.0000000000000E+00
 0.3396437966153E+00  0.1002206651385E+01  0.0000000000000E+00
 0.3499101648258E+00  0.1041654348613E+01  0.0000000000000E+00
 0.3601765330363E+00  0.1081102045840E+01  0.0000000000000E+00
 0.3704429012468E+00  0.1120549743068E+01  0.0000000000000E+00
 0.3807092694573E+00  0.1159997440295E+01  0.0000000000000E+00
 0.2237255070970E+00  0.4465773316393E+00  0.0000000000000E+00
 0.2353778826642E+00  0.4853454456524E+00  0.0000000000000E+00
 0.2470302582313E+00  0.5241135596654E+00  0.0000000000000E+00
 0.2586826337985E+00  0.5628816736785E+00  0.0000000000000E+00
 0.2703350093657E+00  0.6016497876915E+00  0.0000000000000E+00
 0.2819873849328E+00  0.6404179017046E+00  0.0000000000000E+00
 0.2936397605000E+00  0.6791860157177E+00  0.0000000000000E+00
 0.3052921360671E+00  0.7179541297307E+00  0.0000000000000E+00
 0.3169445116343E+00  0.7567222437438E+00  0.0000000000000E+00
 0.3285968872014E+00  0.7954903577569E+00  0.0000000000000E+00
 0.3402492627686E+00  0.8342584717699E+00  0.0000000000000E+00
 0.3519016383358E+00  0.8730265857830E+00  0.0000000000000E+00
 0.3635540139029E+00  0.9117946997960E+00  0.0000000000000E+00
 0.3752063894701E+00  0.9505628138091E+00  0.0000000000000E+00
 0.3868587650372E+00  0.9893309278222E+00  0.0000000000000E+00
 0.3985111406044E+00  0.1028099041835E+01  0.0000000000000E+00
 0.4101635161715E+00  0.1066867155848E+01  0.0000000000000E+00
 0.4218158917387E+00  0.1105635269861E+01  0.0000000000000E+00
 0.4334682673059E+00  0.1144403383874E+01  0.0000000000000E+00
 0.2514639257183E+00  0.4427693911874E+00  0.0000000000000E+00
 0.2644679302121E+00  0.4807632908421E+00  0.0000000000000E+00
 0.2774719347060E+00  0.5187571904969E+00  0.0000000000000E+00
 0.2904759391998E+00  0.5567510901517E+00  0.0000000000000E+00
 0.3034799436937E+00  0.5947449898064E+00  0.0000000000000E+00
 0.3164839481875E+00  0.6327388894612E+00  0.0000000000000E+00
 0.3294879526813E+00  0.6707327891159E+00  0.0000000000000E+00
 0.3424919571752E+00  0.7087266887707E+00  0.0000000000000E+00
 0.3554959616690E+00  0.7467205884254E+00  0.0000000000000E+00
 0.3684999661629E+00  0.7847144880802E+00  0.0000000000000E+00
 0.3815039706567E+00  0.8227083877350E+00  0.0000000000000E+00
 0.3945079751505E+00  0.8607022873897E+00  0.0000000000000E+00
 0.4075119796444E+00  0.8986961870445E+00  0.0000000000000E+00
 0.4205159841382E+00  0.9366900866992E+00  0.0000000000000E+00
 0.4335199886321E+00  0.9746839863540E+00  0.0000000000000E+00
 0.4465239931259E+00  0.1012677886009E+01  0.0000000000000E+00
 0.4595279976197E+00  0.1050671785664E+01  0.0000000000000E+00
 0.4725320021136E+00  0.1088665685318E+01  0.0000000000000E+00
 0.4855360066074E+00  0.1126659584973E+01  0.0000000000000E+00
 0.2791218299219E+00  0.4385208076351E+00  0.0000000000000E+00
 0.2934394872232E+00  0.4756494584267E+00  0.0000000000000E+00
 0.3077571445244E+00  0.5127781092184E+00  0.0000000000000E+00
 0.3220748018257E+00  0.5499067600100E+00  0.0000000000000E+00
 0.3363924591269E+00  0.5870354108016E+00  0.0000000000000E+00
 0.3507101164282E+00  0.6241640615933E+00  0.0000000000000E+00
 0.3650277737294E+00  0.6612927123849E+00  0.0000000000000E+00
 0.3793454310307E+00  0.6984213631766E+00  0.0000000000000E+00
 0.3936630883319E+00  0.7355500139682E+00  0.0000000000000E+00
 0.4079807456332E+00  0.7726786647598E+00  0.0000000000000E+00
 0.4222984029344E+00  0.8098073155515E+00  0.0000000000000E+00
 0.4366160602357E+00  0.8469359663431E+00  0.0000000000000E+00
 0.4509337175369E+00  0.8840646171348E+00  0.0000000000000E+00
 0.4652513748382E+00  0.9211932679264E+00  0.0000000000000E+00
 0.4795690321395E+00  0.9583219187180E+00  0.0000000000000E+00
 0.4938866894407E+00  0.9954505695097E+00  0.0000000000000E+00
 0.5082043467420E+00  0.1032579220301E+01  0.0000000000000E+00
 0.5225220040432E+00  0.1069707871093E+01  0.0000000000000E+00
 0.5368396613445E+00  0.1106836521885E+01  0.0000000000000E+00
 0.3066965711232E+00  0.4338489482471E+00  0.0000000000000E+00
 0.3222916402414E+00  0.4700363157784E+00  0.0000000000000E+00
 0.3378867093596E+00  0.5062236833096E+00  0.0000000000000E+00
 0.3534817784778E+00  0.5424110508409E+00  0.0000000000000E+00
 0.3690768475959E+00  0.5785984183721E+00  0.0000000000000E+00
 0.3846719167141E+00  0.6147857859034E+00  0.0000000000000E+00
 0.4002669858323E+00  0.6509731534347E+00  0.0000000000000E+00
 0.4158620549505E+00  0.6871605209659E+00  0.0000000000000E+00
 0.4314571240687E+00  0.7233478884972E+00  0.0000000000000E+00
 0.4470521931869E+00  0.7595352560285E+00  0.0000000000000E+00
 0.4626472623051E+00  0.7957226235597E+00  0.0000000000000E+00
 0.4782423314233E+00  0.8319099910910E+00  0.0000000000000E+00
 0.4938374005415E+00  0.8680973586222E+00  0.0000000000000E+00
 0.5094324696597E+00  0.9042847261535E+00  0.0000000000000E+00
 0.5250275387779E+00  0.9404720936848E+00  0.0000000000000E+00
 0.5406226078961E+00  0.9766594612160E+00  0.0000000000000E+00
 0.5562176770143E+00  0.1012846828747E+01  0.0000000000000E+00
 0.5718127461325E+00  0.1049034196279E+01  0.0000000000000E+00
 0.5874078152507E+00  0.1085221563810E+01  0.0000000000000E+00
 0.3341971107314E+00  0.4287924373437E+00  0.0000000000000E+00
 0.3510465998701E+00  0.4639985277428E+00  0.0000000000000E+00
 0.3678960890087E+00  0.4992046181418E+00  0.0000000000000E+00
 0.3847455781474E+00  0.5344107085408E+00  0.0000000000000E+00
 0.4015950672860E+00  0.5696167989399E+00  0.0000000000000E+00
 0.4184445564247E+00  0.6048228893389E+00  0.0000000000000E+00
 0.4352940455633E+00  0.6400289797380E+00  0.0000000000000E+00
 0.4521435347020E+00  0.6752350701370E+00  0.0000000000000E+00
 0.4689930238406E+00  0.7104411605360E+00  0.0000000000000E+00
 0.4858425129793E+00  0.7456472509351E+00  0.0000000000000E+00
 0.5026920021179E+00  0.7808533413341E+00  0.0000000000000E+00
 0.5195414912566E+00  0.8160594317332E+00  0.0000000000000E+00
 0.5363909803952E+00  0.8512655221322E+00  0.0000000000000E+00
 0.5532404695339E+00  0.8864716125313E+00  0.0000000000000E+00
 0.5700899586725E+00  0.9216777029303E+00  0.0000000000000E+00
 0.5869394478112E+00  0.9568837933293E+00  0.0000000000000E+00
 0.6037889369498E+00  0.9920898837284E+00  0.0000000000000E+00
 0.6206384260885E+00  0.1027295974127E+01  0.0000000000000E+00
 0.6374879152271E+00  0.1062502064526E+01  0.0000000000000E+00
 0.3616375819568E+00  0.4233950317695E+00  0.0000000000000E+00
 0.3797367715532E+00  0.4576208243499E+00  0.0000000000000E+00
 0.3978359611496E+00  0.4918466169303E+00  0.0000000000000E+00
 0.4159351507460E+00  0.5260724095108E+00  0.0000000000000E+00
 0.4340343403424E+00  0.5602982020912E+00  0.0000000000000E+00
 0.4521335299388E+00  0.5945239946716E+00  0.0000000000000E+00
 0.4702327195353E+00  0.6287497872521E+00  0.0000000000000E+00
 0.4883319091317E+00  0.6629755798325E+00  0.0000000000000E+00
 0.5064310987281E+00  0.6972013724129E+00  0.0000000000000E+00
 0.5245302883245E+00  0.7314271649934E+00  0.0000000000000E+00
 0.5426294779209E+00  0.7656529575738E+00  0.0000000000000E+00
 0.5607286675173E+00  0.7998787501542E+00  0.0000000000000E+00
 0.5788278571138E+00  0.8341045427347E+00  0.0000000000000E+00
 0.5969270467102E+00  0.8683303353151E+00  0.0000000000000E+00
 0.6150262363066E+00  0.9025561278956E+00  0.0000000000000E+00
 0.6331254259030E+00  0.9367819204760E+00  0.0000000000000E+00
 0.6512246154994E+00  0.9710077130564E+00  0.0000000000000E+00
 0.6693238050958E+00  0.1005233505637E+01  0.0000000000000E+00
 0.6874229946923E+00  0.1039459298217E+01  0.0000000000000E+00
 0.3890049751294E+00  0.4176409905240E+00  0.0000000000000E+00
 0.4083402182530E+00  0.4508687337983E+00  0.0000000000000E+00
 0.4276754613766E+00  0.4840964770726E+00  0.0000000000000E+00
 0.4470107045002E+00  0.5173242203469E+00  0.0000000000000E+00
 0.4663459476237E+00  0.5505519636212E+00  0.0000000000000E+00
 0.4856811907473E+00  0.5837797068956E+00  0.0000000000000E+00
 0.5050164338709E+00  0.6170074501699E+00  0.0000000000000E+00
 0.5243516769945E+00  0.6502351934442E+00  0.0000000000000E+00
 0.5436869201180E+00  0.6834629367185E+00  0.0000000000000E+00
 0.5630221632416E+00  0.7166906799928E+00  0.0000000000000E+00
 0.5823574063652E+00  0.7499184232671E+00  0.0000000000000E+00
 0.6016926494888E+00  0.7831461665414E+00  0.0000000000000E+00
 0.6210278926123E+00  0.8163739098157E+00  0.0000000000000E+00
 0.6403631357359E+00  0.8496016530900E+00  0.0000000000000E+00
 0.6596983788595E+00  0.8828293963643E+00  0.0000000000000E+00
 0.6790336219831E+00  0.9160571396386E+00  0.0000000000000E+00
 0.6983688651066E+00  0.9492848829129E+00  0.0000000000000E+00
 0.7177041082302E+00  0.9825126261872E+00  0.0000000000000E+00
 0.7370393513538E+00  0.1015740369462E+01  0.0000000000000E+00
 0.4162795949455E+00  0.4115031803644E+00  0.0000000000000E+00
 0.4368214348248E+00  0.4436848269459E+00  0.0000000000000E+00
 0.4573632747041E+00  0.4758664735274E+00  0.0000000000000E+00
 0.4779051145834E+00  0.5080481201089E+00  0.0000000000000E+00
 0.4984469544626E+00  0.5402297666905E+00  0.0000000000000E+00
 0.5189887943419E+00  0.5724114132720E+00  0.0000000000000E+00
 0.5395306342212E+00  0.6045930598535E+00  0.0000000000000E+00
 0.5600724741005E+00  0.6367747064350E+00  0.0000000000000E+00
 0.5806143139798E+00  0.6689563530165E+00  0.0000000000000E+00
 0.6011561538591E+00  0.7011379995980E+00  0.0000000000000E+00
 0.6216979937384E+00  0.7333196461795E+00  0.0000000000000E+00
 0.6422398336177E+00  0.7655012927610E+00  0.0000000000000E+00
 0.6627816734970E+00  0.7976829393425E+00  0.0000000000000E+00
 0.6833235133763E+00  0.8298645859240E+00  0.0000000000000E+00
 0.7038653532555E+00  0.8620462325056E+00  0.0000000000000E+00
 0.7244071931348E+00  0.8942278790871E+00  0.0000000000000E+00
 0.7449490330141E+00  0.9264095256686E+00  0.0000000000000E+00
 0.7654908728934E+00  0.9585911722501E+00  0.0000000000000E+00
 0.7860327127727E+00  0.9907728188316E+00  0.0000000000000E+00
 0.4434431138861E+00  0.4049623046123E+00  0.0000000000000E+00
 0.4651476238630E+00  0.4360271528875E+00  0.0000000000000E+00
 0.4868521338399E+00  0.4670920011626E+00  0.0000000000000E+00
 0.5085566438169E+00  0.4981568494378E+00  0.0000000000000E+00
 0.5302611537938E+00  0.5292216977130E+00  0.0000000000000E+00
 0.5519656637707E+00  0.5602865459881E+00  0.0000000000000E+00
 0.5736701737476E+00  0.5913513942633E+00  0.0000000000000E+00
 0.5953746837245E+00  0.6224162425385E+00  0.0000000000000E+00
 0.6170791937015E+00  0.6534810908137E+00  0.0000000000000E+00
 0.6387837036784E+00  0.6845459390888E+00  0.0000000000000E+00
 0.6604882136553E+00  0.7156107873640E+00  0.0000000000000E+00
 0.6821927236322E+00  0.7466756356392E+00  0.0000000000000E+00
 0.7038972336091E+00  0.7777404839143E+00  0.0000000000000E+00
 0.7256017435861E+00  0.8088053321895E+00  0.0000000000000E+00
 0.7473062535630E+00  0.8398701804647E+00  0.0000000000000E+00
 0.7690107635399E+00  0.8709350287399E+00  0.0000000000000E+00
 0.7907152735168E+00  0.9019998770150E+00  0.0000000000000E+00
 0.8124197834938E+00  0.9330647252902E+00  0.0000000000000E+00
 0.8341242934707E+00  0.9641295735654E+00  0.0000000000000E+00
 0.4704791815732E+00  0.3980072353552E+00  0.0000000000000E+00
 0.4932896427561E+00  0.4278699685610E+00  0.0000000000000E+00
 0.5161001039390E+00  0.4577327017669E+00  0.0000000000000E+00
 0.5389105651219E+00  0.4875954349727E+00  0.0000000000000E+00
 0.5617210263048E+00  0.5174581681785E+00  0.0000000000000E+00
 0.5845314874877E+00  0.5473209013844E+00  0.0000000000000E+00
 0.6073419486706E+00  0.5771836345902E+00  0.0000000000000E+00
 0.6301524098535E+00  0.6070463677961E+00  0.0000000000000E+00
 0.6529628710365E+00  0.6369091010019E+00  0.0000000000000E+00
 0.6757733322194E+00  0.6667718342078E+00  0.0000000000000E+00
 0.6985837934023E+00  0.6966345674136E+00  0.0000000000000E+00
 0.7213942545852E+00  0.7264973006194E+00  0.0000000000000E+00
 0.7442047157681E+00  0.7563600338253E+00  0.0000000000000E+00
 0.7670151769510E+00  0.7862227670311E+00  0.0000000000000E+00
 0.7898256381339E+00  0.8160855002370E+00  0.0000000000000E+00
 0.8126360993168E+00  0.8459482334428E+00  0.0000000000000E+00
 0.8354465604997E+00  0.8758109666487E+00  0.0000000000000E+00
 0.8582570216826E+00  0.9056736998545E+00  0.0000000000000E+00
 0.8810674828655E+00  0.9355364330604E+00  0.0000000000000E+00
 0.4973724746499E+00  0.3906327012162E+00  0.0000000000000E+00
 0.5212203829587E+00  0.4191990678570E+00  0.0000000000000E+00
 0.5450682912674E+00  0.4477654344978E+00  0.0000000000000E+00
 0.5689161995761E+00  0.4763318011386E+00  0.0000000000000E+00
 0.5927641078849E+00  0.5048981677794E+00  0.0000000000000E+00
 0.6166120161936E+00  0.5334645344202E+00  0.0000000000000E+00
 0.6404599245023E+00  0.5620309010610E+00  0.0000000000000E+00
 0.6643078328111E+00  0.5905972677017E+00  0.0000000000000E+00
 0.6881557411198E+00  0.6191636343425E+00  0.0000000000000E+00
 0.7120036494285E+00  0.6477300009833E+00  0.0000000000000E+00
 0.7358515577373E+00  0.6762963676241E+00  0.0000000000000E+00
 0.7596994660460E+00  0.7048627342649E+00  0.0000000000000E+00
 0.7835473743547E+00  0.7334291009057E+00  0.0000000000000E+00
 0.8073952826635E+00  0.7619954675465E+00  0.0000000000000E+00
 0.8312431909722E+00  0.7905618341873E+00  0.0000000000000E+00
 0.8550910992809E+00  0.8191282008280E+00  0.0000000000000E+00
 0.8789390075897E+00  0.8476945674688E+00  0.0000000000000E+00
 0.9027869158984E+00  0.8762609341096E+00  0.0000000000000E+00
 0.9266348242071E+00  0.9048273007504E+00  0.0000000000000E+00
 0.5241075392167E+00  0.3828365021242E+00  0.0000000000000E+00
 0.5489124012050E+00  0.4100062274629E+00  0.0000000000000E+00
 0.5737172631934E+00  0.4371759528015E+00  0.0000000000000E+00
 0.5985221251818E+00  0.4643456781402E+00  0.0000000000000E+00
 0.6233269871702E+00  0.4915154034788E+00  0.0000000000000E+00
 0.6481318491586E+00  0.5186851288175E+00  0.0000000000000E+00
 0.6729367111470E+00  0.5458548541562E+00  0.0000000000000E+00
 0.6977415731353E+00  0.5730245794948E+00  0.0000000000000E+00
 0.7225464351237E+00  0.6001943048335E+00  0.0000000000000E+00
 0.7473512971121E+00  0.6273640301721E+00  0.0000000000000E+00
 0.7721561591005E+00  0.6545337555108E+00  0.0000000000000E+00
 0.7969610210889E+00  0.6817034808494E+00  0.0000000000000E+00
 0.8217658830773E+00  0.7088732061881E+00  0.0000000000000E+00
 0.8465707450657E+00  0.7360429315268E+00  0.0000000000000E+00
 0.8713756070540E+00  0.7632126568654E+00  0.0000000000000E+00
 0.8961804690424E+00  0.7903823822041E+00  0.0000000000000E+00
 0.9209853310308E+00  0.8175521075427E+00  0.0000000000000E+00
 0.9457901930192E+00  0.8447218328814E+00  0.0000000000000E+00
 0.9705950550076E+00  0.8718915582200E+00  0.0000000000000E+00
</DataArray>
</Points>
<Cells>
<DataArray type="Int64" Name="connectivity" format="ascii">
0 11 438 243
243 438 439 244
244 439 440 245
245 440 441 246
246 441 442 247
247 442 443 248
248 443 444 249
249 444 445 250
250 445 446 251
251 446 447 252
252 447 448 253
253 448 449 254
254 449 450 255
255 450 451 256
256 451 452 257
257 452 453 258
258 453 454 259
259 454 455 260
260 455 456 261
261 456 457 262
262 457 458 263
263 458 459 264
264 459 460 265
265 460 461 266
266 461 462 267
267 462 463 268
268 463 464 269
269 464 465 270
270 465 466 271
271 466 467 272
272 467 468 273
273 468 469 274
274 469 470 275
275 470 471 276
276 471 472 277
277 472 473 278
278 473 474 279
279 474 475 280
280 475 476 281
281 476 477 282
282 477 89 3
11 12 478 438
438 478 479 439
439 479 480 440
440 480 481 441
441 481 482 442
442 482 483 443
443 483 484 444
444 484 485 445
445 485 486 446
446 486 487 447
447 487 488 448
448 488 489 449
449 489 490 450
450 490 491 451
451 491 492 452
452 492 493 453
453 493 494 454
454 494 495 455
455 495 496 456
456 496 497 457
457 497 498 458
458 498 499 459
459 499 500 460
460 500 501 461
461 501 502 462
462 502 503 463
463 503 504 464
464 504 505 465
465 505 506 466
466 506 507 467
467 507 508 468
468 508 509 469
469 509 510 470
470 510 511 471
471 511 512 472
472 512 513 473
473 513 514 474
474 514 515 475
475 515 516 476
476 516 517 477
477 517 90 89
12 13 518 478
478 518 519 479
479 519 520 480
480 520 521 481
481 521 522 482
482 522 523 483
483 523 524 484
484 524 525 485
485 525 526 486
486 526 527 487
487 527 528 488
488 528 529 489
489 529 530 490
490 530 531 491
491 531 532 492
492 532 533 493
493 533 534 494
494 534 535 495
495 535 536 496
496 536 537 497
497 537 538 498
498 538 539 499
499 539 540 500
500 540 541 501
501 541 542 502
502 542 543 503
503 543 544 504
504 544 545 505
505 545 546 506
506 546 547 507
507 547 548 508
508 548 549 509
509 549 550 510
510 550 551 511
511 551 552 512
512 552 553 513
513 553 554 514
514 554 555 515
515 555 556 516
516 556 557 517
517 557 91 90
13 14 558 518
518 558 559 519
519 559 560 520
520 560 561 521
521 561 562 522
522 562 563 523
523 563 564 524
524 564 565 525
525 565 566 526
526 566 567 527
527 567 568 528
528 568 569 529
529 569 570 530
530 570 571 531
531 571 572 532
532 572 573 533
533 573 574 534
534 574 575 535
535 575 576 536
536 576 577 537
537 577 578 538
538 578 579 539
539 579 580 540
540 580 581 541
541 581 582 542
542 582 583 543
543 583 584 544
544 584 585 545
545 585 586 546
546 586 587 547
547 587 588 548
548 588 589 549
549 589 590 550
550 590 591 551
551 591 592 552
552 592 593 553
553 593 594 554
554 594 595 555
555 595 596 556
556 596 597 557
557 597 92 91
14 15 598 558
558 598 599 559
559 599 600 560
560 600 601 561
561 601 602 562
562 602 603 563
563 603 604 564
564 604 605 565
565 605 606 566
566 606 607 567
567 607 608 568
568 608 609 569
569 609 610 570
570 610 611 571
571 611 612 572
572 612 613 573
573 613 614 574
574 614 615 575
575 615 616 576
576 616 617 577
577 617 618 578
578 618 619 579
579 619 620 580
580 620 621 581
581 621 622 582
582 622 623 583
583 623 624 584
584 624 625 585
585 625 626 586
586 626 627 587
587 627 628 588
588 628 629 589
589 629 630 590
590 630 631 591
591 631 632 592
592 632 633 593
593 633 634 594
594 634 635 595
595 635 636 596
596 636 637 597
597 637 93 92
15 16 638 598
598 638 639 599
599 639 640 600
600 640 641 601
601 641 642 602
602 642 643 603
603 643 644 604
604 644 645 605
605 645 646 606
606 646 647 607
607 647 648 608
608 648 649 609
609 649 650 610
610 650 651 611
611 651 652 612
612 652 653 613
613 653 654 614
614 654 655 615
615 655 656 616
616 656 657 617
617 657 658 618
618 658 659 619
619 659 660 620
620 660 661 621
621 661 662 622
622 662 663 623
623 663 664 624
624 664 665 625
625 665 666 626
626 666 667 627
627 667 668 628
628 668 669 629
629 669 670 630
630 670 671 631
631 671 672 632
632 672 673 633
633 673 674 634
634 674 675 635
635 675 676 636
636 676 677 637
637 677 94 93
16 17 678 638
638 678 679 639
639 679 680 640
640 680 681 641
641 681 682 642
642 682 683 643
643 683 684 644
644 684 685 645
645 685 686 646
646 686 687 647
647 687 688 648
648 688 689 649
649 689 690 650
650 690 691 651
651 691 692 652
652 692 693 653
653 693 694 654
654 694 695 655
655 695 696 656
656 696 697 657
657 697 698 658
658 698 699 659
659 699 700 660
660 700 701 661
661 701 702 662
662 702 703 663
663 703 704 664
664 704 705 665
665 705 706 666
666 706 707 667
667 707 708 668
668 708 709 669
669 709 710 670
670 710 711 671
671 711 712 672
672 712 713 673
673 713 714 674
674 714 715 675
675 715 716 676
676 716 717 677
677 717 95 94
17 18 718 678
678 718 719 679
679 719 720 680
680 720 721 681
681 721 722 682
682 722 723 683
683 723 724 684
684 724 725 685
685 725 726 686
686 726 727 687
687 727 728 688
688 728 729 689
689 729 730 690
690 730 731 691
691 731 732 692
692 732 733 693
693 733 734 694
694 734 735 695
695 735 736 696
696 736 737 697
697 737 738 698
698 738 739 699
699 739 740 700
700 740 741 701
701 741 742 702
702 742 743 703
703 743 744 704
704 744 745 705
705 745 746 706
706 746 747 707
707 747 748 708
708 748 749 709
709 749 750 710
710 750 751 711
711 751 752 712
712 752 753 713
713 753 754 714
714 754 755 715
715 755 756 716
716 756 757 717
717 757 96 95
18 19 758 718
718 758 759 719
719 759 760 720
720 760 761 721
721 761 762 722
722 762 763 723
723 763 764 724
724 764 765 725
725 765 766 726
726 766 767 727
727 767 768 728
728 768 769 729
729 769 770 730
730 770 771 731
731 771 772 732
732 772 773 733
733 773 774 734
734 774 775 735
735 775 776 736
736 776 777 737
737 777 778 738
738 778 779 739
739 779 780 740
740 780 781 741
741 781 782 742
742 782 783 743
743 783 784 744
744 784 785 745
745 785 786 746
746 786 787 747
747 787 788 748
748 788 789 749
749 789 790 750
750 790 791 751
751 791 792 752
752 792 793 753
753 793 794 754
754 794 795 755
755 795 796 756
756 796 797 757
757 797 97 96
19 20 798 758
758 798 799 759
759 799 800 760
760 800 801 761
761 801 802 762
762 802 803 763
763 803 804 764
764 804 805 765
765 805 806 766
766 806 807 767
767 807 808 768
768 808 809 769
769 809 810 770
770 810 811 771
771 811 812 772
772 812 813 773
773 813 814 774
774 814 815 775
775 815 816 776
776 816 817 777
777 817 818 778
778 818 819 779
779 819 820 780
780 820 821 781
781 821 822 782
782 822 823 783
783 823 824 784
784 824 825 785
785 825 826 786
786 826 827 787
787 827 828 788
788 828 829 789
789 829 830 790
790 830 831 791
791 831 832 792
792 832 833 793
793 833 834 794
794 834 835 795
795 835 836 796
796 836 837 797
797 837 98 97
20 21 838 798
798 838 839 799
799 839 840 800
800 840 841 801
801 841 842 802
802 842 843 803
803 843 844 804
804 844 845 805
805 845 846 806
806 846 847 807
807 847 848 808
808 848 849 809
809 849 850 810
810 850 851 811
811 851 852 812
812 852 853 813
813 853 854 814
814 854 855 815
815 855 856 816
816 856 857 817
817 857 858 818
818 858 859 819
819 859 860 820
820 860 861 821
821 861 862 822
822 862 863 823
823 863 864 824
824 864 865 825
825 865 866 826
826 866 867 827
827 867 868 828
828 868 869 829
829 869 870 830
830 870 871 831
831 871 872 832
832 872 873 833
833 873 874 834
834 874 875 835
835 875 876 836
836 876 877 837
837 877 99 98
21 22 878 838
838 878 879 839
839 879 880 840
840 880 881 841
841 881 882 842
842 882 883 843
843 883 884 844
844 884 885 845
845 885 886 846
846 886 887 847
847 887 888 848
848 888 889 849
849 889 890 850
850 890 891 851
851 891 892 852
852 892 893 853
853 893 894 854
854 894 895 855
855 895 896 856
856 896 897 857
857 897 898 858
858 898 899 859
859 899 900 860
860 900 901 861
861 901 902 862
862 902 903 863
863 903 904 864
864 904 905 865
865 905 906 866
866 906 907 867
867 907 908 868
868 908 909 869
869 909 910 870
870 910 911 871
871 911 912 872
872 912 913 873
873 913 914 874
874 914 915 875
875 915 916 876
876 916 917 877
877 917 100 99
22 23 918 878
878 918 919 879
879 919 920 880
880 920 921 881
881 921 922 882
882 922 923 883
883 923 924 884
884 924 925 885
885 925 926 886
886 926 927 887
887 927 928 888
888 928 929 889
889 929 930 890
890 930 931 891
891 931 932 892
892 932 933 893
893 933 934 894
894 934 935 895
895 935 936 896
896 936 937 897
897 937 938 898
898 938 939 899
899 939 940 900
900 940 941 901
901 941 942 902
902 942 943 903
903 943 944 904
904 944 945 905
905 945 946 906
906 946 947 907
907 947 948 908
908 948 949 909
909 949 950 910
910 950 951 911
911 951 952 912
912 952 953 913
913 953 954 914
914 954 955 915
915 955 956 916
916 956 957 917
917 957 101 100
23 24 958 918
918 958 959 919
919 959 960 920
920 960 961 921
921 961 962 922
922 962 963 923
923 963 964 924
924 964 965 925
925 965 966 926
926 966 967 927
927 967 968 928
928 968 969 929
929 969 970 930
930 970 971 931
931 971 972 932
932 972 973 933
933 973 974 934
934 974 975 935
935 975 976 936
936 976 977 937
937 977 978 938
938 978 979 939
939 979 980 940
940 980 981 941
941 981 982 942
942 982 983 943
943 983 984 944
944 984 985 945
945 985 986 946
946 986 987 947
947 987 988 948
948 988 989 949
949 989 990 950
950 990 991 951
951 991 992 952
952 992 993 953
953 993 994 954
954 994 995 955
955 995 996 956
956 996 997 957
957 997 102 101
24 25 998 958
958 998 999 959
959 999 1000 960
960 1000 1001 961
961 1001 1002 962
962 1002 1003 963
963 1003 1004 964
964 1004 1005 965
965 1005 1006 966
966 1006 1007 967
967 1007 1008 968
968 1008 1009 969
969 1009 1010 970
970 1010 1011 971
971 1011 1012 972
972 1012 1013 973
973 1013 1014 974
974 1014 1015 975
975 1015 1016 976
976 1016 1017 977
977 1017 1018 978
978 1018 1019 979
979 1019 1020 980
980 1020 1021 981
981 1021 1022 982
982 1022 1023 983
983 1023 1024 984
984 1024 1025 985
985 1025 1026 986
986 1026 1027 987
987 1027 1028 988
988 1028 1029 989
989 1029 1030 990
990 1030 1031 991
991 1031 1032 992
992 1032 1033 993
993 1033 1034 994
994 1034 1035 995
995 1035 1036 996
996 1036 1037 997
997 1037 103 102
25 26 1038 998
998 1038 1039 999
999 1039 1040 1000
1000 1040 1041 1001
1001 1041 1042 1002
1002 1042 1043 1003
1003 1043 1044 1004
1004 1044 1045 1005
1005 1045 1046 1006
1006 1046 1047 1007
1007 1047 1048 1008
1008 1048 1049 1009
1009 1049 1050 1010
1010 1050 1051 1011
1011 1051 1052 1012
1012 1052 1053 1013
1013 1053 1054 1014
1014 1054 1055 1015
1015 1055 1056 1016
1016 1056 1057 1017
1017 1057 1058 1018
1018 1058 1059 1019
1019 1059 1060 1020
1020 1060 1061 1021
1021 1061 1062 1022
1022 1062 1063 1023
1023 1063 1064 1024
1024 1064 1065 1025
1025 1065 1066 1026
1026 1066 1067 1027
1027 1067 1068 1028
1028 1068 1069 1029
1029 1069 1070 1030
1030 1070 1071 1031
1031 1071 1072 1032
1032 1072 1073 1033
1033 1073 1074 1034
1034 1074 1075 1035
1035 1075 1076 1036
1036 1076 1077 1037
1037 1077 104 103
26 27 1078 1038
1038 1078 1079 1039
1039 1079 1080 1040
1040 1080 1081 1041
1041 1081 1082 1042
1042 1082 1083 1043
1043 1083 1084 1044
1044 1084 1085 1045
1045 1085 1086 1046
1046 1086 1087 1047
1047 1087 1088 1048
1048 1088 1089 1049
1049 1089 1090 1050
1050 1090 1091 1051
1051 1091 1092 1052
1052 1092 1093 1053
1053 1093 1094 1054
1054 1094 1095 1055
1055 1095 1096 1056
1056 1096 1097 1057
1057 1097 1098 1058
1058 1098 1099 1059
1059 1099 1100 1060
1060 1100 1101 1061
1061 1101 1102 1062
1062 1102 1103 1063
1063 1103 1104 1064
1064 1104 1105 1065
1065 1105 1106 1066
1066 1106 1107 1067
1067 1107 1108 1068
1068 1108 1109 1069
1069 1109 1110 1070
1070 1110 1111 1071
1071 1111 1112 1072
1072 1112 1113 1073
1073 1113 1114 1074
1074 1114 1115 1075
1075 1115 1116 1076
1076 1116 1117 1077
1077 1117 105 104
27 28 1118 1078
1078 1118 1119 1079
1079 1119 1120 1080
1080 1120 1121 1081
1081 1121 1122 1082
1082 1122 1123 1083
1083 1123 1124 1084
1084 1124 1125 1085
1085 1125 1126 1086
1086 1126 1127 1087
1087 1127 1128 1088
1088 1128 1129 1089
1089 1129 1130 1090
1090 1130 1131 1091
1091 1131 1132 1092
1092 1132 1133 1093
1093 1133 1134 1094
1094 1134 1135 1095
1095 1135 1136 1096
1096 1136 1137 1097
1097 1137 1138 1098
1098 1138 1139 1099
1099 1139 1140 1100
1100 1140 1141 1101
1101 1141 1142 1102
1102 1142 1143 1103
1103 1143 1144 1104
1104 1144 1145 1105
1105 1145 1146 1106
1106 1146 1147 1107
1107 1147 1148 1108
1108 1148 1149 1109
1109 1149 1150 1110
1110 1150 1151 1111
1111 1151 1152 1112
1112 1152 1153 1113
1113 1153 1154 1114
1114 1154 1155 1115
1115 1155 1156 1116
1116 1156 1157 1117
1117 1157 106 105
28 29 1158 1118
1118 1158 1159 1119
1119 1159 1160 1120
1120 1160 1161 1121
1121 1161 1162 1122
1122 1162 1163 1123
1123 1163 1164 1124
1124 1164 1165 1125
1125 1165 1166 1126
1126 1166 1167 1127
1127 1167 1168 1128
1128 1168 1169 1129
1129 1169 1170 1130
1130 1170 1171 1131
1131 1171 1172 1132
1132 1172 1173 1133
1133 1173 1174 1134
1134 1174 1175 1135
1135 1175 1176 1136
1136 1176 1177 1137
1137 1177 1178 1138
1138 1178 1179 1139
1139 1179 1180 1140
1140 1180 1181 1141
1141 1181 1182 1142
1142 1182 1183 1143
1143 1183 1184 1144
1144 1184 1185 1145
1145 1185 1186 1146
1146 1186 1187 1147
1147 1187 1188 1148
1148 1188 1189 1149
1149 1189 1190 1150
1150 1190 1191 1151
1151 1191 1192 1152
1152 1192 1193 1153
1153 1193 1194 1154
1154 1194 1195 1155
1155 1195 1196 1156
1156 1196 1197 1157
1157 1197 107 106
29 30 1198 1158
1158 1198 1199 1159
1159 1199 1200 1160
1160 1200 1201 1161
1161 1201 1202 1162
1162 1202 1203 1163
1163 1203 1204 1164
1164 1204 1205 1165
1165 1205 1206 1166
1166 1206 1207 1167
1167 1207 1208 1168
1168 1208 1209 1169
1169 1209 1210 1170
1170 1210 1211 1171
1171 1211 1212 1172
1172 1212 1213 1173
1173 1213 1214 1174
1174 1214 1215 1175
1175 1215 1216 1176
1176 1216 1217 1177
1177 1217 1218 1178
1178 1218 1219 1179
1179 1219 1220 1180
1180 1220 1221 1181
1181 1221 1222 1182
1182 1222 1223 1183
1183 1223 1224 1184
1184 1224 1225 1185
1185 1225 1226 1186
1186 1226 1227 1187
1187 1227 1228 1188
1188 1228 1229 1189
1189 1229 1230 1190
1190 1230 1231 1191
1191 1231 1232 1192
1192 1232 1233 1193
1193 1233 1234 1194
1194 1234 1235 1195
1195 1235 1236 1196
1196 1236 1237 1197
1197 1237 4 107
30 31 1238 1198
1198 1238 1239 1199
1199 1239 1240 1200
1200 1240 1241 1201
1201 1241 1242 1202
1202 1242 1243 1203
1203 1243 1244 1204
1204 1244 1245 1205
1205 1245 1246 1206
1206 1246 1247 1207
1207 1247 1248 1208
1208 1248 1249 1209
1209 1249 1250 1210
1210 1250 1251 1211
1211 1251 1252 1212
1212 1252 1253 1213
1213 1253 1254 1214
1214 1254 1255 1215
1215 1255 1256 1216
1216 1256 1257 1217
1217 1257 1258 1218
1218 1258 1259 1219
1219 1259 1260 1220
1220 1260 1261 1221
1221 1261 1262 1222
1222 1262 1263 1223
1223 1263 1264 1224
1224 1264 1265 1225
1225 1265 1266 1226
1226 1266 1267 1227
1227 1267 1268 1228
1228 1268 1269 1229
1229 1269 1270 1230
1230 1270 1271 1231
1231 1271 1272 1232
1232 1272 1273 1233
1233 1273 1274 1234
1234 1274 1275 1235
1235 1275 1276 1236
1236 1276 1277 1237
1237 1277 108 4
31 32 1278 1238
1238 1278 1279 1239
1239 1279 1280 1240
1240 1280 1281 1241
1241 1281 1282 1242
1242 1282 1283 1243
1243 1283 1284 1244
1244 1284 1285 1245
1245 1285 1286 1246
1246 1286 1287 1247
1247 1287 1288 1248
1248 1288 1289 1249
1249 1289 1290 1250
1250 1290 1291 1251
1251 1291 1292 1252
1252 1292 1293 1253
1253 1293 1294 1254
1254 1294 1295 1255
1255 1295 1296 1256
1256 1296 1297 1257
1257 1297 1298 1258
1258 1298 1299 1259
1259 1299 1300 1260
1260 1300 1301 1261
1261 1301 1302 1262
1262 1302 1303 1263
1263 1303 1304 1264
1264 1304 1305 1265
1265 1305 1306 1266
1266 1306 1307 1267
1267 1307 1308 1268
1268 1308 1309 1269
1269 1309 1310 1270
1270 1310 1311 1271
1271 1311 1312 1272
1272 1312 1313 1273
1273 1313 1314 1274
1274 1314 1315 1275
1275 1315 1316 1276
1276 1316 1317 1277
1277 1317 109 108
32 33 1318 1278
1278 1318 1319 1279
1279 1319 1320 1280
1280 1320 1321 1281
1281 1321 1322 1282
1282 1322 1323 1283
1283 1323 1324 1284
1284 1324 1325 1285
1285 1325 1326 1286
1286 1326 1327 1287
1287 1327 1328 1288
1288 1328 1329 1289
1289 1329 1330 1290
1290 1330 1331 1291
1291 1331 1332 1292
1292 1332 1333 1293
1293 1333 1334 1294
1294 1334 1335 1295
1295 1335 1336 1296
1296 1336 1337 1297
1297 1337 1338 1298
1298 1338 1339 1299
1299 1339 1340 1300
1300 1340 1341 1301
1301 1341 1342 1302
1302 1342 1343 1303
1303 1343 1344 1304
1304 1344 1345 1305
1305 1345 1346 1306
1306 1346 1347 1307
1307 1347 1348 1308
1308 1348 1349 1309
1309 1349 1350 1310
1310 1350 1351 1311
1311 1351 1352 1312
1312 1352 1353 1313
1313 1353 1354 1314
1314 1354 1355 1315
1315 1355 1356 1316
1316 1356 1357 1317
1317 1357 110 109
33 34 1358 1318
1318 1358 1359 1319
1319 1359 1360 1320
1320 1360 1361 1321
1321 1361 1362 1322
1322 1362 1363 1323
1323 1363 1364 1324
1324 1364 1365 1325
1325 1365 1366 1326
1326 1366 1367 1327
1327 1367 1368 1328
1328 1368 1369 1329
1329 1369 1370 1330
1330 1370 1371 1331
1331 1371 1372 1332
1332 1372 1373 1333
1333 1373 1374 1334
1334 1374 1375 1335
1335 1375 1376 1336
1336 1376 1377 1337
1337 1377 1378 1338
1338 1378 1379 1339
1339 1379 1380 1340
1340 1380 1381 1341
1341 1381 1382 1342
1342 1382 1383 1343
1343 1383 1384 1344
1344 1384 1385 1345
1345 1385 1386 1346
1346 1386 1387 1347
1347 1387 1388 1348
1348 1388 1389 1349
1349 1389 1390 1350
1350 1390 1391 1351
1351 1391 1392 1352
1352 1392 1393 1353
1353 1393 1394 1354
1354 1394 1395 1355
1355 1395 1396 1356
1356 1396 1397 1357
1357 1397 111 110
34 35 1398 1358
1358 1398 1399 1359
1359 1399 1400 1360
1360 1400 1401 1361
1361 1401 1402 1362
1362 1402 1403 1363
1363 1403 1404 1364
1364 1404 1405 1365
1365 1405 1406 1366
1366 1406 1407 1367
1367 1407 1408 1368
1368 1408 1409 1369
1369 1409 1410 1370
1370 1410 1411 1371
1371 1411 1412 1372
1372 1412 1413 1373
1373 1413 1414 1374
1374 1414 1415 1375
1375 1415 1416 1376
1376 1416 1417 1377
1377 1417 1418 1378
1378 1418 1419 1379
1379 1419 1420 1380
1380 1420 1421 1381
1381 1421 1422 1382
1382 1422 1423 1383
1383 1423 1424 1384
1384 1424 1425 1385
1385 1425 1426 1386
1386 1426 1427 1387
1387 1427 1428 1388
1388 1428 1429 1389
1389 1429 1430 1390
1390 1430 1431 1391
1391 1431 1432 1392
1392 1432 1433 1393
1393 1433 1434 1394
1394 1434 1435 1395
1395 1435 1436 1396
1396 1436 1437 1397
1397 1437 112 111
35 36 1438 1398
1398 1438 1439 1399
1399 1439 1440 1400
1400 1440 1441 1401
1401 1441 1442 1402
1402 1442 1443 1403
1403 1443 1444 1404
1404 1444 1445 1405
1405 1445 1446 1406
1406 1446 1447 1407
1407 1447 1448 1408
1408 1448 1449 1409
1409 1449 1450 1410
1410 1450 1451 1411
1411 1451 1452 1412
1412 1452 1453 1413
1413 1453 1454 1414
1414 1454 1455 1415
1415 1455 1456 1416
1416 1456 1457 1417
1417 1457 1458 1418
1418 1458 1459 1419
1419 1459 1460 1420
1420 1460 1461 1421
1421 1461 1462 1422
1422 1462 1463 1423
1423 1463 1464 1424
1424 1464 1465 1425
1425 1465 1466 1426
1426 1466 1467 1427
1427 1467 1468 1428
1428 1468 1469 1429
1429 1469 1470 1430
1430 1470 1471 1431
1431 1471 1472 1432
1432 1472 1473 1433
1433 1473 1474 1434
1434 1474 1475 1435
1435 1475 1476 1436
1436 1476 1477 1437
1437 1477 113 112
36 37 1478 1438
1438 1478 1479 1439
1439 1479 1480 1440
1440 1480 1481 1441
1441 1481 1482 1442
1442 1482 1483 1443
1443 1483 1484 1444
1444 1484 1485 1445
1445 1485 1486 1446
1446 1486 1487 1447
1447 1487 1488 1448
1448 1488 1489 1449
1449 1489 1490 1450
1450 1490 1491 1451
1451 1491 1492 1452
1452 1492 1493 1453
1453 1493 1494 1454
1454 1494 1495 1455
1455 1495 1496 1456
1456 1496 1497 1457
1457 1497 1498 1458
1458 1498 1499 1459
1459 1499 1500 1460
1460 1500 1501 1461
1461 1501 1502 1462
1462 1502 1503 1463
1463 1503 1504 1464
1464 1504 1505 1465
1465 1505 1506 1466
1466 1506 1507 1467
1467 1507 1508 1468
1468 1508 1509 1469
1469 1509 1510 1470
1470 1510 1511 1471
1471 1511 1512 1472
1472 1512 1513 1473
1473 1513 1514 1474
1474 1514 1515 1475
1475 1515 1516 1476
1476 1516 1517 1477
1477 1517 114 113
37 38 1518 1478
1478 1518 1519 1479
1479 1519 1520 1480
1480 1520 1521 1481
1481 1521 1522 1482
1482 1522 1523 1483
1483 1523 1524 1484
1484 1524 1525 1485
1485 1525 1526 1486
1486 1526 1527 1487
1487 1527 1528 1488
1488 1528 1529 1489
1489 1529 1530 1490
1490 1530 1531 1491
1491 1531 1532 1492
1492 1532 1533 1493
1493 1533 1534 1494
1494 1534 1535 1495
1495 1535 1536 1496
1496 1536 1537 1497
1497 1537 1538 1498
1498 1538 1539 1499
1499 1539 1540 1500
1500 1540 1541 1501
1501 1541 1542 1502
1502 1542 1543 1503
1503 1543 1544 1504
1504 1544 1545 1505
1505 1545 1546 1506
1506 1546 1547 1507
1507 1547 1548 1508
1508 1548 1549 1509
1509 1549 1550 1510
1510 1550 1551 1511
1511 1551 1552 1512
1512 1552 1553 1513
1513 1553 1554 1514
1514 1554 1555 1515
1515 1555 1556 1516
1516 1556 1557 1517
1517 1557 115 114
38 39 1558 1518
1518 1558 1559 1519
1519 1559 1560 1520
1520 1560 1561 1521
1521 1561 1562 1522
1522 1562 1563 1523
1523 1563 1564 1524
1524 1564 1565 1525
1525 1565 1566 1526
1526 1566 1567 1527
1527 1567 1568 1528
1528 1568 1569 1529
1529 1569 1570 1530
1530 1570 1571 1531
1531 1571 1572 1532
1532 1572 1573 1533
1533 1573 1574 1534
1534 1574 1575 1535
1535 1575 1576 1536
1536 1576 1577 1537
1537 1577 1578 1538
1538 1578 1579 1539
1539 1579 1580 1540
1540 1580 1581 1541
1541 1581 1582 1542
1542 1582 1583 1543
1543 1583 1584 1544
1544 1584 1585 1545
1545 1585 1586 1546
1546 1586 1587 1547
1547 1587 1588 1548
1548 1588 1589 1549
1549 1589 1590 1550
1550 1590 1591 1551
1551 1591 1592 1552
1552 1592 1593 1553
1553 1593 1594 1554
1554 1594 1595 1555
1555 1595 1596 1556
1556 1596 1597 1557
1557 1597 116 115
39 40 1598 1558
1558 1598 1599 1559
1559 1599 1600 1560
1560 1600 1601 1561
1561 1601 1602 1562
1562 1602 1603 1563
1563 1603 1604 1564
1564 1604 1605 1565
1565 1605 1606 1566
1566 1606 1607 1567
1567 1607 1608 1568
1568 1608 1609 1569
1569 1609 1610 1570
1570 1610 1611 1571
1571 1611 1612 1572
1572 1612 1613 1573
1573 1613 1614 1574
1574 1614 1615 1575
1575 1615 1616 1576
1576 1616 1617 1577
1577 1617 1618 1578
1578 1618 1619 1579
1579 1619 1620 1580
1580 1620 1621 1581
1581 1621 1622 1582
1582 1622 1623 1583
1583 1623 1624 1584
1584 1624 1625 1585
1585 1625 1626 1586
1586 1626 1627 1587
1587 1627 1628 1588
1588 1628 1629 1589
1589 1629 1630 1590
1590 1630 1631 1591
1591 1631 1632 1592
1592 1632 1633 1593
1593 1633 1634 1594
1594 1634 1635 1595
1595 1635 1636 1596
1596 1636 1637 1597
1597 1637 117 116
40 41 1638 1598
1598 1638 1639 1599
1599 1639 1640 1600
1600 1640 1641 1601
1601 1641 1642 1602
1602 1642 1643 1603
1603 1643 1644 1604
1604 1644 1645 1605
1605 1645 1646 1606
1606 1646 1647 1607
1607 1647 1648 1608
1608 1648 1649 1609
1609 1649 1650 1610
1610 1650 1651 1611
1611 1651 1652 1612
1612 1652 1653 1613
1613 1653 1654 1614
1614 1654 1655 1615
1615 1655 1656 1616
1616 1656 1657 1617
1617 1657 1658 1618
1618 1658 1659 1619
1619 1659 1660 1620
1620 1660 1661 1621
1621 1661 1662 1622
1622 1662 1663 1623
1623 1663 1664 1624
1624 1664 1665 1625
1625 1665 1666 1626
1626 1666 1667 1627
1627 1667 1668 1628
1628 1668 1669 1629
1629 1669 1670 1630
1630 1670 1671 1631
1631 1671 1672 1632
1632 1672 1673 1633
1633 1673 1674 1634
1634 1674 1675 1635
1635 1675 1676 1636
1636 1676 1677 1637
1637 1677 118 117
41 42 1678 1638
1638 1678 1679 1639
1639 1679 1680 1640
1640 1680 1681 1641
1641 1681 1682 1642
1642 1682 1683 1643
1643 1683 1684 1644
1644 1684 1685 1645
1645 1685 1686 1646
1646 1686 1687 1647
1647 1687 1688 1648
1648 1688 1689 1649
1649 1689 1690 1650
1650 1690 1691 1651
1651 1691 1692 1652
1652 1692 1693 1653
1653 1693 1694 1654
1654 1694 1695 1655
1655 1695 1696 1656
1656 1696 1697 1657
1657 1697 1698 1658
1658 1698 1699 1659
1659 1699 1700 1660
1660 1700 1701 1661
1661 1701 1702 1662
1662 1702 1703 1663
1663 1703 1704 1664
1664 1704 1705 1665
1665 1705 1706 1666
1666 1706 1707 1667
1667 1707 1708 1668
1668 1708 1709 1669
1669 1709 1710 1670
1670 1710 1711 1671
1671 1711 1712 1672
1672 1712 1713 1673
1673 1713 1714 1674
1674 1714 1715 1675
1675 1715 1716 1676
1676 1716 1717 1677
1677 1717 119 118
42 43 1718 1678
1678 1718 1719 1679
1679 1719 1720 1680
1680 1720 1721 1681
1681 1721 1722 1682
1682 1722 1723 1683
1683 1723 1724 1684
1684 1724 1725 1685
1685 1725 1726 1686
1686 1726 1727 1687
1687 1727 1728 1688
1688 1728 1729 1689
1689 1729 1730 1690
1690 1730 1731 1691
1691 1731 1732 1692
1692 1732 1733 1693
1693 1733 1734 1694
1694 1734 1735 1695
1695 1735 1736 1696
1696 1736 1737 1697
1697 1737 1738 1698
1698 1738 1739 1699
1699 1739 1740 1700
1700 1740 1741 1701
1701 1741 1742 1702
1702 1742 1743 1703
1703 1743 1744 1704
1704 1744 1745 1705
1705 1745 1746 1706
1706 1746 1747 1707
1707 1747 1748 1708
1708 1748 1749 1709
1709 1749 1750 1710
1710 1750 1751 1711
1711 1751 1752 1712
1712 1752 1753 1713
1713 1753 1754 1714
1714 1754 1755 1715
1715 1755 1756 1716
1716 1756 1757 1717
1717 1757 120 119
43 44 1758 1718
1718 1758 1759 1719
1719 1759 1760 1720
1720 1760 1761 1721
1721 1761 1762 1722
1722 1762 1763 1723
1723 1763 1764 1724
1724 1764 1765 1725
1725 1765 1766 1726
1726 1766 1767 1727
1727 1767 1768 1728
1728 1768 1769 1729
1729 1769 1770 1730
1730 1770 1771 1731
1731 1771 1772 1732
1732 1772 1773 1733
1733 1773 1774 1734
1734 1774 1775 1735
1735 1775 1776 1736
1736 1776 1777 1737
1737 1777 1778 1738
1738 1778 1779 1739
1739 1779 1780 1740
1740 1780 1781 1741
1741 1781 1782 1742
1742 1782 1783 1743
1743 1783 1784 1744
1744 1784 1785 1745
1745 1785 1786 1746
1746 1786 1787 1747
1747 1787 1788 1748
1748 1788 1789 1749
1749 1789 1790 1750
1750 1790 1791 1751
1751 1791 1792 1752
1752 1792 1793 1753
1753 1793 1794 1754
1754 1794 1795 1755
1755 1795 1796 1756
1756 1796 1797 1757
1757 1797 121 120
44 45 1798 1758
1758 1798 1799 1759
1759 1799 1800 1760
1760 1800 1801 1761
1761 1801 1802 1762
1762 1802 1803 1763
1763 1803 1804 1764
1764 1804 1805 1765
1765 1805 1806 1766
1766 1806 1807 1767
1767 1807 1808 1768
1768 1808 1809 1769
1769 1809 1810 1770
1770 1810 1811 1771
1771 1811 1812 1772
1772 1812 1813 1773
1773 1813 1814 1774
1774 1814 1815 1775
1775 1815 1816 1776
1776 1816 1817 1777
1777 1817 1818 1778
1778 1818 1819 1779
1779 1819 1820 1780
1780 1820 1821 1781
1781 1821 1822 1782
1782 1822 1823 1783
1783 1823 1824 1784
1784 1824 1825 1785
1785 1825 1826 1786
1786 1826 1827 1787
1787 1827 1828 1788
1788 1828 1829 1789
1789 1829 1830 1790
1790 1830 1831 1791
1791 1831 1832 1792
1792 1832 1833 1793
1793 1833 1834 1794
1794 1834 1835 1795
1795 1835 1836 1796
1796 1836 1837 1797
1797 1837 122 121
45 46 1838 1798
1798 1838 1839 1799
1799 1839 1840 1800
1800 1840 1841 1801
1801 1841 1842 1802
1802 1842 1843 1803
1803 1843 1844 1804
1804 1844 1845 1805
1805 1845 1846 1806
1806 1846 1847 1807
1807 1847 1848 1808
1808 1848 1849 1809
1809 1849 1850 1810
1810 1850 1851 1811
1811 1851 1852 1812
1812 1852 1853 1813
1813 1853 1854 1814
1814 1854 1855 1815
1815 1855 1856 1816
1816 1856 1857 1817
1817 1857 1858 1818
1818 1858 1859 1819
1819 1859 1860 1820
1820 1860 1861 1821
1821 1861 1862 1822
1822 1862 1863 1823
1823 1863 1864 1824
1824 1864 1865 1825
1825 1865 1866 1826
1826 1866 1867 1827
1827 1867 1868 1828
1828 1868 1869 1829
1829 1869 1870 1830
1830 1870 1871 1831
1831 1871 1872 1832
1832 1872 1873 1833
1833 1873 1874 1834
1834 1874 1875 1835
1835 1875 1876 1836
1836 1876 1877 1837
1837 1877 123 122
46 47 1878 1838
1838 1878 1879 1839
1839 1879 1880 1840
1840 1880 1881 1841
1841 1881 1882 1842
1842 1882 1883 1843
1843 1883 1884 1844
1844 1884 1885 1845
1845 1885 1886 1846
1846 1886 1887 1847
1847 1887 1888 1848
1848 1888 1889 1849
1849 1889 1890 1850
1850 1890 1891 1851
1851 1891 1892 1852
1852 1892 1893 1853
1853 1893 1894 1854
1854 1894 1895 1855
1855 1895 1896 1856
1856 1896 1897 1857
1857 1897 1898 1858
1858 1898 1899 1859
1859 1899 1900 1860
1860 1900 1901 1861
1861 1901 1902 1862
1862 1902 1903 1863
1863 1903 1904 1864
1864 1904 1905 1865
1865 1905 1906 1866
1866 1906 1907 1867
1867 1907 1908 1868
1868 1908 1909 1869
1869 1909 1910 1870
1870 1910 1911 1871
1871 1911 1912 1872
1872 1912 1913 1873
1873 1913 1914 1874
1874 1914 1915 1875
1875 1915 1916 1876
1876 1916 1917 1877
1877 1917 124 123
47 48 1918 1878
1878 1918 1919 1879
1879 1919 1920 1880
1880 1920 1921 1881
1881 1921 1922 1882
1882 1922 1923 1883
1883 1923 1924 1884
1884 1924 1925 1885
1885 1925 1926 1886
1886 1926 1927 1887
1887 1927 1928 1888
1888 1928 1929 1889
1889 1929 1930 1890
1890 1930 1931 1891
1891 1931 1932 1892
1892 1932 1933 1893
1893 1933 1934 1894
1894 1934 1935 1895
1895 1935 1936 1896
1896 1936 1937 1897
1897 1937 1938 1898
1898 1938 1939 1899
1899 1939 1940 1900
1900 1940 1941 1901
1901 1941 1942 1902
1902 1942 1943 1903
1903 1943 1944 1904
1904 1944 1945 1905
1905 1945 1946 1906
1906 1946 1947 1907
1907 1947 1948 1908
1908 1948 1949 1909
1909 1949 1950 1910
1910 1950 1951 1911
1911 1951 1952 1912
1912 1952 1953 1913
1913 1953 1954 1914
1914 1954 1955 1915
1915 1955 1956 1916
1916 1956 1957 1917
1917 1957 125 124
48 49 1958 1918
1918 1958 1959 1919
1919 1959 1960 1920
1920 1960 1961 1921
1921 1961 1962 1922
1922 1962 1963 1923
1923 1963 1964 1924
1924 1964 1965 1925
1925 1965 1966 1926
1926 1966 1967 1927
1927 1967 1968 1928
1928 1968 1969 1929
1929 1969 1970 1930
1930 1970 1971 1931
1931 1971 1972 1932
1932 1972 1973 1933
1933 1973 1974 1934
1934 1974 1975 1935
1935 1975 1976 1936
1936 1976 1977 1937
1937 1977 1978 1938
1938 1978 1979 1939
1939 1979 1980 1940
1940 1980 1981 1941
1941 1981 1982 1942
1942 1982 1983 1943
1943 1983 1984 1944
1944 1984 1985 1945
1945 1985 1986 1946
1946 1986 1987 1947
1947 1987 1988 1948
1948 1988 1989 1949
1949 1989 1990 1950
1950 1990 1991 1951
1951 1991 1992 1952
1952 1992 1993 1953
1953 1993 1994 1954
1954 1994 1995 1955
1955 1995 1996 1956
1956 1996 1997 1957
1957 1997 126 125
49 1 1998 1958
1958 1998 1999 1959
1959 1999 2000 1960
1960 2000 2001 1961
1961 2001 2002 1962
1962 2002 2003 1963
1963 2003 2004 1964
1964 2004 2005 1965
1965 2005 2006 1966
1966 2006 2007 1967
1967 2007 2008 1968
1968 2008 2009 1969
1969 2009 2010 1970
1970 2010 2011 1971
1971 2011 2012 1972
1972 2012 2013 1973
1973 2013 2014 1974
1974 2014 2015 1975
1975 2015 2016 1976
1976 2016 2017 1977
1977 2017 2018 1978
1978 2018 2019 1979
1979 2019 2020 1980
1980 2020 2021 1981
1981 2021 2022 1982
1982 2022 2023 1983
1983 2023 2024 1984
1984 2024 2025 1985
1985 2025 2026 1986
1986 2026 2027 1987
1987 2027 2028 1988
1988 2028 2029 1989
1989 2029 2030 1990
1990 2030 2031 1991
1991 2031 2032 1992
1992 2032 2033 1993
1993 2033 2034 1994
1994 2034 2035 1995
1995 2035 2036 1996
1996 2036 2037 1997
1997 2037 127 126
1 50 2038 1998
1998 2038 2039 1999
1999 2039 2040 2000
2000 2040 2041 2001
2001 2041 2042 2002
2002 2042 2043 2003
2003 2043 2044 2004
2004 2044 2045 2005
2005 2045 2046 2006
2006 2046 2047 2007
2007 2047 2048 2008
2008 2048 2049 2009
2009 2049 2050 2010
2010 2050 2051 2011
2011 2051 2052 2012
2012 2052 2053 2013
2013 2053 2054 2014
2014 2054 2055 2015
2015 2055 2056 2016
2016 2056 2057 2017
2017 2057 2058 2018
2018 2058 2059 2019
2019 2059 2060 2020
2020 2060 2061 2021
2021 2061 2062 2022
2022 2062 2063 2023
2023 2063 2064 2024
2024 2064 2065 2025
2025 2065 2066 2026
2026 2066 2067 2027
2027 2067 2068 2028
2028 2068 2069 2029
2029 2069 2070 2030
2030 2070 2071 2031
2031 2071 2072 2032
2032 2072 2073 2033
2033 2073 2074 2034
2034 2074 2075 2035
2035 2075 2076 2036
2036 2076 2077 2037
2037 2077 128 127
50 51 2078 2038
2038 2078 2079 2039
2039 2079 2080 2040
2040 2080 2081 2041
2041 2081 2082 2042
2042 2082 2083 2043
2043 2083 2084 2044
2044 2084 2085 2045
2045 2085 2086 2046
2046 2086 2087 2047
2047 2087 2088 2048
2048 2088 2089 2049
2049 2089 2090 2050
2050 2090 2091 2051
2051 2091 2092 2052
2052 2092 2093 2053
2053 2093 2094 2054
2054 2094 2095 2055
2055 2095 2096 2056
2056 2096 2097 2057
2057 2097 2098 2058
2058 2098 2099 2059
2059 2099 2100 2060
2060 2100 2101 2061
2061 2101 2102 2062
2062 2102 2103 2063
2063 2103 2104 2064
2064 2104 2105 2065
2065 2105 2106 2066
2066 2106 2107 2067
2067 2107 2108 2068
2068 2108 2109 2069
2069 2109 2110 2070
2070 2110 2111 2071
2071 2111 2112 2072
2072 2112 2113 2073
2073 2113 2114 2074
2074 2114 2115 2075
2075 2115 2116 2076
2076 2116 2117 2077
2077 2117 129 128
51 52 2118 2078
2078 2118 2119 2079
2079 2119 2120 2080
2080 2120 2121 2081
2081 2121 2122 2082
2082 2122 2123 2083
2083 2123 2124 2084
2084 2124 2125 2085
2085 2125 2126 2086
2086 2126 2127 2087
2087 2127 2128 2088
2088 2128 2129 2089
2089 2129 2130 2090
2090 2130 2131 2091
2091 2131 2132 2092
2092 2132 2133 2093
2093 2133 2134 2094
2094 2134 2135 2095
2095 2135 2136 2096
2096 2136 2137 2097
2097 2137 2138 2098
2098 2138 2139 2099
2099 2139 2140 2100
2100 2140 2141 2101
2101 2141 2142 2102
2102 2142 2143 2103
2103 2143 2144 2104
2104 2144 2145 2105
2105 2145 2146 2106
2106 2146 2147 2107
2107 2147 2148 2108
2108 2148 2149 2109
2109 2149 2150 2110
2110 2150 2151 2111
2111 2151 2152 2112
2112 2152 2153 2113
2113 2153 2154 2114
2114 2154 2155 2115
2115 2155 2156 2116
2116 2156 2157 2117
2117 2157 130 129
52 53 2158 2118
2118 2158 2159 2119
2119 2159 2160 2120
2120 2160 2161 2121
2121 2161 2162 2122
2122 2162 2163 2123
2123 2163 2164 2124
2124 2164 2165 2125
2125 2165 2166 2126
2126 2166 2167 2127
2127 2167 2168 2128
2128 2168 2169 2129
2129 2169 2170 2130
2130 2170 2171 2131
2131 2171 2172 2132
2132 2172 2173 2133
2133 2173 2174 2134
2134 2174 2175 2135
2135 2175 2176 2136
2136 2176 2177 2137
2137 2177 2178 2138
2138 2178 2179 2139
2139 2179 2180 2140
2140 2180 2181 2141
2141 2181 2182 2142
2142 2182 2183 2143
2143 2183 2184 2144
2144 2184 2185 2145
2145 2185 2186 2146
2146 2186 2187 2147
2147 2187 2188 2148
2148 2188 2189 2149
2149 2189 2190 2150
2150 2190 2191 2151
2151 2191 2192 2152
2152 2192 2193 2153
2153 2193 2194 2154
2154 2194 2195 2155
2155 2195 2196 2156
2156 2196 2197 2157
2157 2197 131 130
53 54 2198 2158
2158 2198 2199 2159
2159 2199 2200 2160
2160 2200 2201 2161
2161 2201 2202 2162
2162 2202 2203 2163
2163 2203 2204 2164
2164 2204 2205 2165
2165 2205 2206 2166
2166 2206 2207 2167
2167 2207 2208 2168
2168 2208 2209 2169
2169 2209 2210 2170
2170 2210 2211 2171
2171 2211 2212 2172
2172 2212 2213 2173
2173 2213 2214 2174
2174 2214 2215 2175
2175 2215 2216 2176
2176 2216 2217 2177
2177 2217 2218 2178
2178 2218 2219 2179
2179 2219 2220 2180
2180 2220 2221 2181
2181 2221 2222 2182
2182 2222 2223 2183
2183 2223 2224 2184
2184 2224 2225 2185
2185 2225 2226 2186
2186 2226 2227 2187
2187 2227 2228 2188
2188 2228 2229 2189
2189 2229 2230 2190
2190 2230 2231 2191
2191 2231 2232 2192
2192 2232 2233 2193
2193 2233 2234 2194
2194 2234 2235 2195
2195 2235 2236 2196
2196 2236 2237 2197
2197 2237 132 131
54 55 2238 2198
2198 2238 2239 2199
2199 2239 2240 2200
2200 2240 2241 2201
2201 2241 2242 2202
2202 2242 2243 2203
2203 2243 2244 2204
2204 2244 2245 2205
2205 2245 2246 2206
2206 2246 2247 2207
2207 2247 2248 2208
2208 2248 2249 2209
2209 2249 2250 2210
2210 2250 2251 2211
2211 2251 2252 2212
2212 2252 2253 2213
2213 2253 2254 2214
2214 2254 2255 2215
2215 2255 2256 2216
2216 2256 2257 2217
2217 2257 2258 2218
2218 2258 2259 2219
2219 2259 2260 2220
2220 2260 2261 2221
2221 2261 2262 2222
2222 2262 2263 2223
2223 2263 2264 2224
2224 2264 2265 2225
2225 2265 2266 2226
2226 2266 2267 2227
2227 2267 2268 2228
2228 2268 2269 2229
2229 2269 2270 2230
2230 2270 2271 2231
2231 2271 2272 2232
2232 2272 2273 2233
2233 2273 2274 2234
2234 2274 2275 2235
2235 2275 2276 2236
2236 2276 2277 2237
2237 2277 133 132
55 56 2278 2238
2238 2278 2279 2239
2239 2279 2280 2240
2240 2280 2281 2241
2241 2281 2282 2242
2242 2282 2283 2243
2243 2283 2284 2244
2244 2284 2285 2245
2245 2285 2286 2246
2246 2286 2287 2247
2247 2287 2288 2248
2248 2288 2289 2249
2249 2289 2290 2250
2250 2290 2291 2251
2251 2291 2292 2252
2252 2292 2293 2253
2253 2293 2294 2254
2254 2294 2295 2255
2255 2295 2296 2256
2256 2296 2297 2257
2257 2297 2298 2258
2258 2298 2299 2259
2259 2299 2300 2260
2260 2300 2301 2261
2261 2301 2302 2262
2262 2302 2303 2263
2263 2303 2304 2264
2264 2304 2305 2265
2265 2305 2306 2266
2266 2306 2307 2267
2267 2307 2308 2268
2268 2308 2309 2269
2269 2309 2310 2270
2270 2310 2311 2271
2271 2311 2312 2272
2272 2312 2313 2273
2273 2313 2314 2274
2274 2314 2315 2275
2275 2315 2316 2276
2276 2316 2317 2277
2277 2317 134 133
56 57 2318 2278
2278 2318 2319 2279
2279 2319 2320 2280
2280 2320 2321 2281
2281 2321 2322 2282
2282 2322 2323 2283
2283 2323 2324 2284
2284 2324 2325 2285
2285 2325 2326 2286
2286 2326 2327 2287
2287 2327 2328 2288
2288 2328 2329 2289
2289 2329 2330 2290
2290 2330 2331 2291
2291 2331 2332 2292
2292 2332 2333 2293
2293 2333 2334 2294
2294 2334 2335 2295
2295 2335 2336 2296
2296 2336 2337 2297
2297 2337 2338 2298
2298 2338 2339 2299
2299 2339 2340 2300
2300 2340 2341 2301
2301 2341 2342 2302
2302 2342 2343 2303
2303 2343 2344 2304
2304 2344 2345 2305
2305 2345 2346 2306
2306 2346 2347 2307
2307 2347 2348 2308
2308 2348 2349 2309
2309 2349 2350 2310
2310 2350 2351 2311
2311 2351 2352 2312
2312 2352 2353 2313
2313 2353 2354 2314
2314 2354 2355 2315
2315 2355 2356 2316
2316 2356 2357 2317
2317 2357 135 134
57 58 2358 2318
2318 2358 2359 2319
2319 2359 2360 2320
2320 2360 2361 2321
2321 2361 2362 2322
2322 2362 2363 2323
2323 2363 2364 2324
2324 2364 2365 2325
2325 2365 2366 2326
2326 2366 2367 2327
2327 2367 2368 2328
2328 2368 2369 2329
2329 2369 2370 2330
2330 2370 2371 2331
2331 2371 2372 2332
2332 2372 2373 2333
2333 2373 2374 2334
2334 2374 2375 2335
2335 2375 2376 2336
2336 2376 2377 2337
2337 2377 2378 2338
2338 2378 2379 2339
2339 2379 2380 2340
2340 2380 2381 2341
2341 2381 2382 2342
2342 2382 2383 2343
2343 2383 2384 2344
2344 2384 2385 2345
2345 2385 2386 2346
2346 2386 2387 2347
2347 2387 2388 2348
2348 2388 2389 2349
2349 2389 2390 2350
2350 2390 2391 2351
2351 2391 2392 2352
2352 2392 2393 2353
2353 2393 2394 2354
2354 2394 2395 2355
2355 2395 2396 2356
2356 2396 2397 2357
2357 2397 136 135
58 59 2398 2358
2358 2398 2399 2359
2359 2399 2400 2360
2360 2400 2401 2361
2361 2401 2402 2362
2362 2402 2403 2363
2363 2403 2404 2364
2364 2404 2405 2365
2365 2405 2406 2366
2366 2406 2407 2367
2367 2407 2408 2368
2368 2408 2409 2369
2369 2409 2410 2370
2370 2410 2411 2371
2371 2411 2412 2372
2372 2412 2413 2373
2373 2413 2414 2374
2374 2414 2415 2375
2375 2415 2416 2376
2376 2416 2417 2377
2377 2417 2418 2378
2378 2418 2419 2379
2379 2419 2420 2380
2380 2420 2421 2381
2381 2421 2422 2382
2382 2422 2423 2383
2383 2423 2424 2384
2384 2424 2425 2385
2385 2425 2426 2386
2386 2426 2427 2387
2387 2427 2428 2388
2388 2428 2429 2389
2389 2429 2430 2390
2390 2430 2431 2391
2391 2431 2432 2392
2392 2432 2433 2393
2393 2433 2434 2394
2394 2434 2435 2395
2395 2435 2436 2396
2396 2436 2437 2397
2397 2437 137 136
59 60 2438 2398
2398 2438 2439 2399
2399 2439 2440 2400
2400 2440 2441 2401
2401 2441 2442 2402
2402 2442 2443 2403
2403 2443 2444 2404
2404 2444 2445 2405
2405 2445 2446 2406
2406 2446 2447 2407
2407 2447 2448 2408
2408 2448 2449 2409
2409 2449 2450 2410
2410 2450 2451 2411
2411 2451 2452 2412
2412 2452 2453 2413
2413 2453 2454 2414
2414 2454 2455 2415
2415 2455 2456 2416
2416 2456 2457 2417
2417 2457 2458 2418
2418 2458 2459 2419
2419 2459 2460 2420
2420 2460 2461 2421
2421 2461 2462 2422
2422 2462 2463 2423
2423 2463 2464 2424
2424 2464 2465 2425
2425 2465 2466 2426
2426 2466 2467 2427
2427 2467 2468 2428
2428 2468 2469 2429
2429 2469 2470 2430
2430 2470 2471 2431
2431 2471 2472 2432
2432 2472 2473 2433
2433 2473 2474 2434
2434 2474 2475 2435
2435 2475 2476 2436
2436 2476 2477 2437
2437 2477 138 137
60 61 2478 2438
2438 2478 2479 2439
2439 2479 2480 2440
2440 2480 2481 2441
2441 2481 2482 2442
2442 2482 2483 2443
2443 2483 2484 2444
2444 2484 2485 2445
2445 2485 2486 2446
2446 2486 2487 2447
2447 2487 2488 2448
2448 2488 2489 2449
2449 2489 2490 2450
2450 2490 2491 2451
2451 2491 2492 2452
2452 2492 2493 2453
2453 2493 2494 2454
2454 2494 2495 2455
2455 2495 2496 2456
2456 2496 2497 2457
2457 2497 2498 2458
2458 2498 2499 2459
2459 2499 2500 2460
2460 2500 2501 2461
2461 2501 2502 2462
2462 2502 2503 2463
2463 2503 2504 2464
2464 2504 2505 2465
2465 2505 2506 2466
2466 2506 2507 2467
2467 2507 2508 2468
2468 2508 2509 2469
2469 2509 2510 2470
2470 2510 2511 2471
2471 2511 2512 2472
2472 2512 2513 2473
2473 2513 2514 2474
2474 2514 2515 2475
2475 2515 2516 2476
2476 2516 2517 2477
2477 2517 139 138
61 62 2518 2478
2478 2518 2519 2479
2479 2519 2520 2480
2480 2520 2521 2481
2481 2521 2522 2482
2482 2522 2523 2483
2483 2523 2524 2484
2484 2524 2525 2485
2485 2525 2526 2486
2486 2526 2527 2487
2487 2527 2528 2488
2488 2528 2529 2489
2489 2529 2530 2490
2490 2530 2531 2491
2491 2531 2532 2492
2492 2532 2533 2493
2493 2533 2534 2494
2494 2534 2535 2495
2495 2535 2536 2496
2496 2536 2537 2497
2497 2537 2538 2498
2498 2538 2539 2499
2499 2539 2540 2500
2500 2540 2541 2501
2501 2541 2542 2502
2502 2542 2543 2503
2503 2543 2544 2504
2504 2544 2545 2505
2505 2545 2546 2506
2506 2546 2547 2507
2507 2547 2548 2508
2508 2548 2549 2509
2509 2549 2550 2510
2510 2550 2551 2511
2511 2551 2552 2512
2512 2552 2553 2513
2513 2553 2554 2514
2514 2554 2555 2515
2515 2555 2556 2516
2516 2556 2557 2517
2517 2557 140 139
62 63 2558 2518
2518 2558 2559 2519
2519 2559 2560 2520
2520 2560 2561 2521
2521 2561 2562 2522
2522 2562 2563 2523
2523 2563 2564 2524
2524 2564 2565 2525
2525 2565 2566 2526
2526 2566 2567 2527
2527 2567 2568 2528
2528 2568 2569 2529
2529 2569 2570 2530
2530 2570 2571 2531
2531 2571 2572 2532
2532 2572 2573 2533
2533 2573 2574 2534
2534 2574 2575 2535
2535 2575 2576 2536
2536 2576 2577 2537
2537 2577 2578 2538
2538 2578 2579 2539
2539 2579 2580 2540
2540 2580 2581 2541
2541 2581 2582 2542
2542 2582 2583 2543
2543 2583 2584 2544
2544 2584 2585 2545
2545 2585 2586 2546
2546 2586 2587 2547
2547 2587 2588 2548
2548 2588 2589 2549
2549 2589 2590 2550
2550 2590 2591 2551
2551 2591 2592 2552
2552 2592 2593 2553
2553 2593 2594 2554
2554 2594 2595 2555
2555 2595 2596 2556
2556 2596 2597 2557
2557 2597 141 140
63 64 2598 2558
2558 2598 2599 2559
2559 2599 2600 2560
2560 2600 2601 2561
2561 2601 2602 2562
2562 2602 2603 2563
2563 2603 2604 2564
2564 2604 2605 2565
2565 2605 2606 2566
2566 2606 2607 2567
2567 2607 2608 2568
2568 2608 2609 2569
2569 2609 2610 2570
2570 2610 2611 2571
2571 2611 2612 2572
2572 2612 2613 2573
2573 2613 2614 2574
2574 2614 2615 2575
2575 2615 2616 2576
2576 2616 2617 2577
2577 2617 2618 2578
2578 2618 2619 2579
2579 2619 2620 2580
2580 2620 2621 2581
2581 2621 2622 2582
2582 2622 2623 2583
2583 2623 2624 2584
2584 2624 2625 2585
2585 2625 2626 2586
2586 2626 2627 2587
2587 2627 2628 2588
2588 2628 2629 2589
2589 2629 2630 2590
2590 2630 2631 2591
2591 2631 2632 2592
2592 2632 2633 2593
2593 2633 2634 2594
2594 2634 2635 2595
2595 2635 2636 2596
2596 2636 2637 2597
2597 2637 142 141
64 65 2638 2598
2598 2638 2639 2599
2599 2639 2640 2600
2600 2640 2641 2601
2601 2641 2642 2602
2602 2642 2643 2603
2603 2643 2644 2604
2604 2644 2645 2605
2605 2645 2646 2606
2606 2646 2647 2607
2607 2647 2648 2608
2608 2648 2649 2609
2609 2649 2650 2610
2610 2650 2651 2611
2611 2651 2652 2612
2612 2652 2653 2613
2613 2653 2654 2614
2614 2654 2655 2615
2615 2655 2656 2616
2616 2656 2657 2617
2617 2657 2658 2618
2618 2658 2659 2619
2619 2659 2660 2620
2620 2660 2661 2621
2621 2661 2662 2622
2622 2662 2663 2623
2623 2663 2664 2624
2624 2664 2665 2625
2625 2665 2666 2626
2626 2666 2667 2627
2627 2667 2668 2628
2628 2668 2669 2629
2629 2669 2670 2630
2630 2670 2671 2631
2631 2671 2672 2632
2632 2672 2673 2633
2633 2673 2674 2634
2634 2674 2675 2635
2635 2675 2676 2636
2636 2676 2677 2637
2637 2677 143 142
65 66 2678 2638
2638 2678 2679 2639
2639 2679 2680 2640
2640 2680 2681 2641
2641 2681 2682 2642
2642 2682 2683 2643
2643 2683 2684 2644
2644 2684 2685 2645
2645 2685 2686 2646
2646 2686 2687 2647
2647 2687 2688 2648
2648 2688 2689 2649
2649 2689 2690 2650
2650 2690 2691 2651
2651 2691 2692 2652
2652 2692 2693 2653
2653 2693 2694 2654
2654 2694 2695 2655
2655 2695 2696 2656
2656 2696 2697 2657
2657 2697 2698 2658
2658 2698 2699 2659
2659 2699 2700 2660
2660 2700 2701 2661
2661 2701 2702 2662
2662 2702 2703 2663
2663 2703 2704 2664
2664 2704 2705 2665
2665 2705 2706 2666
2666 2706 2707 2667
2667 2707 2708 2668
2668 2708 2709 2669
2669 2709 2710 2670
2670 2710 2711 2671
2671 2711 2712 2672
2672 2712 2713 2673
2673 2713 2714 2674
2674 2714 2715 2675
2675 2715 2716 2676
2676 2716 2717 2677
2677 2717 144 143
66 67 2718 2678
2678 2718 2719 2679
2679 2719 2720 2680
2680 2720 2721 2681
2681 2721 2722 2682
2682 2722 2723 2683
2683 2723 2724 2684
2684 2724 2725 2685
2685 2725 2726 2686
2686 2726 2727 2687
2687 2727 2728 2688
2688 2728 2729 2689
2689 2729 2730 2690
2690 2730 2731 2691
2691 2731 2732 2692
2692 2732 2733 2693
2693 2733 2734 2694
2694 2734 2735 2695
2695 2735 2736 2696
2696 2736 2737 2697
2697 2737 2738 2698
2698 2738 2739 2699
2699 2739 2740 2700
2700 2740 2741 2701
2701 2741 2742 2702
2702 2742 2743 2703
2703 2743 2744 2704
2704 2744 2745 2705
2705 2745 2746 2706
2706 2746 2747 2707
2707 2747 2748 2708
2708 2748 2749 2709
2709 2749 2750 2710
2710 2750 2751 2711
2711 2751 2752 2712
2712 2752 2753 2713
2713 2753 2754 2714
2714 2754 2755 2715
2715 2755 2756 2716
2716 2756 2757 2717
2717 2757 145 144
67 68 2758 2718
2718 2758 2759 2719
2719 2759 2760 2720
2720 2760 2761 2721
2721 2761 2762 2722
2722 2762 2763 2723
2723 2763 2764 2724
2724 2764 2765 2725
2725 2765 2766 2726
2726 2766 2767 2727
2727 2767 2768 2728
2728 2768 2769 2729
2729 2769 2770 2730
2730 2770 2771 2731
2731 2771 2772 2732
2732 2772 2773 2733
2733 2773 2774 2734
2734 2774 2775 2735
2735 2775 2776 2736
2736 2776 2777 2737
2737 2777 2778 2738
2738 2778 2779 2739
2739 2779 2780 2740
2740 2780 2781 2741
2741 2781 2782 2742
2742 2782 2783 2743
2743 2783 2784 2744
2744 2784 2785 2745
2745 2785 2786 2746
2746 2786 2787 2747
2747 2787 2788 2748
2748 2788 2789 2749
2749 2789 2790 2750
2750 2790 2791 2751
2751 2791 2792 2752
2752 2792 2793 2753
2753 2793 2794 2754
2754 2794 2795 2755
2755 2795 2796 2756
2756 2796 2797 2757
2757 2797 146 145
68 69 2798 2758
2758 2798 2799 2759
2759 2799 2800 2760
2760 2800 2801 2761
2761 2801 2802 2762
2762 2802 2803 2763
2763 2803 2804 2764
2764 2804 2805 2765
2765 2805 2806 2766
2766 2806 2807 2767
2767 2807 2808 2768
2768 2808 2809 2769
2769 2809 2810 2770
2770 2810 2811 2771
2771 2811 2812 2772
2772 2812 2813 2773
2773 2813 2814 2774
2774 2814 2815 2775
2775 2815 2816 2776
2776 2816 2817 2777
2777 2817 2818 2778
2778 2818 2819 2779
2779 2819 2820 2780
2780 2820 2821 2781
2781 2821 2822 2782
2782 2822 2823 2783
2783 2823 2824 2784
2784 2824 2825 2785
2785 2825 2826 2786
2786 2826 2827 2787
2787 2827 2828 2788
2788 2828 2829 2789
2789 2829 2830 2790
2790 2830 2831 2791
2791 2831 2832 2792
2792 2832 2833 2793
2793 2833 2834 2794
2794 2834 2835 2795
2795 2835 2836 2796
2796 2836 2837 2797
2797 2837 5 146
69 70 2838 2798
2798 2838 2839 2799
2799 2839 2840 2800
2800 2840 2841 2801
2801 2841 2842 2802
2802 2842 2843 2803
2803 2843 2844 2804
2804 2844 2845 2805
2805 2845 2846 2806
2806 2846 2847 2807
2807 2847 2848 2808
2808 2848 2849 2809
2809 2849 2850 2810
2810 2850 2851 2811
2811 2851 2852 2812
2812 2852 2853 2813
2813 2853 2854 2814
2814 2854 2855 2815
2815 2855 2856 2816
2816 2856 2857 2817
2817 2857 2858 2818
2818 2858 2859 2819
2819 2859 2860 2820
2820 2860 2861 2821
2821 2861 2862 2822
2822 2862 2863 2823
2823 2863 2864 2824
2824 2864 2865 2825
2825 2865 2866 2826
2826 2866 2867 2827
2827 2867 2868 2828
2828 2868 2869 2829
2829 2869 2870 2830
2830 2870 2871 2831
2831 2871 2872 2832
2832 2872 2873 2833
2833 2873 2874 2834
2834 2874 2875 2835
2835 2875 2876 2836
2836 2876 2877 2837
2837 2877 147 5
70 71 2878 2838
2838 2878 2879 2839
2839 2879 2880 2840
2840 2880 2881 2841
2841 2881 2882 2842
2842 2882 2883 2843
2843 2883 2884 2844
2844 2884 2885 2845
2845 2885 2886 2846
2846 2886 2887 2847
2847 2887 2888 2848
2848 2888 2889 2849
2849 2889 2890 2850
2850 2890 2891 2851
2851 2891 2892 2852
2852 2892 2893 2853
2853 2893 2894 2854
2854 2894 2895 2855
2855 2895 2896 2856
2856 2896 2897 2857
2857 2897 2898 2858
2858 2898 2899 2859
2859 2899 2900 2860
2860 2900 2901 2861
2861 2901 2902 2862
2862 2902 2903 2863
2863 2903 2904 2864
2864 2904 2905 2865
2865 2905 2906 2866
2866 2906 2907 2867
2867 2907 2908 2868
2868 2908 2909 2869
2869 2909 2910 2870
2870 2910 2911 2871
2871 2911 2912 2872
2872 2912 2913 2873
2873 2913 2914 2874
2874 2914 2915 2875
2875 2915 2916 2876
2876 2916 2917 2877
2877 2917 148 147
71 72 2918 2878
2878 2918 2919 2879
2879 2919 2920 2880
2880 2920 2921 2881
2881 2921 2922 2882
2882 2922 2923 2883
2883 2923 2924 2884
2884 2924 2925 2885
2885 2925 2926 2886
2886 2926 2927 2887
2887 2927 2928 2888
2888 2928 2929 2889
2889 2929 2930 2890
2890 2930 2931 2891
2891 2931 2932 2892
2892 2932 2933 2893
2893 2933 2934 2894
2894 2934 2935 2895
2895 2935 2936 2896
2896 2936 2937 2897
2897 2937 2938 2898
2898 2938 2939 2899
2899 2939 2940 2900
2900 2940 2941 2901
2901 2941 2942 2902
2902 2942 2943 2903
2903 2943 2944 2904
2904 2944 2945 2905
2905 2945 2946 2906
2906 2946 2947 2907
2907 2947 2948 2908
2908 2948 2949 2909
2909 2949 2950 2910
2910 2950 2951 2911
2911 2951 2952 2912
2912 2952 2953 2913
2913 2953 2954 2914
2914 2954 2955 2915
2915 2955 2956 2916
2916 2956 2957 2917
2917 2957 149 148
72 73 2958 2918
2918 2958 2959 2919
2919 2959 2960 2920
2920 2960 2961 2921
2921 2961 2962 2922
2922 2962 2963 2923
2923 2963 2964 2924
2924 2964 2965 2925
2925 2965 2966 2926
2926 2966 2967 2927
2927 2967 2968 2928
2928 2968 2969 2929
2929 2969 2970 2930
2930 2970 2971 2931
2931 2971 2972 2932
2932 2972 2973 2933
2933 2973 2974 2934
2934 2974 2975 2935
2935 2975 2976 2936
2936 2976 2977 2937
2937 2977 2978 2938
2938 2978 2979 2939
2939 2979 2980 2940
2940 2980 2981 2941
2941 2981 2982 2942
2942 2982 2983 2943
2943 2983 2984 2944
2944 2984 2985 2945
2945 2985 2986 2946
2946 2986 2987 2947
2947 2987 2988 2948
2948 2988 2989 2949
2949 2989 2990 2950
2950 2990 2991 2951
2951 2991 2992 2952
2952 2992 2993 2953
2953 2993 2994 2954
2954 2994 2995 2955
2955 2995 2996 2956
2956 2996 2997 2957
2957 2997 150 149
73 74 2998 2958
2958 2998 2999 2959
2959 2999 3000 2960
2960 3000 3001 2961
2961 3001 3002 2962
2962 3002 3003 2963
2963 3003 3004 2964
2964 3004 3005 2965
2965 3005 3006 2966
2966 3006 3007 2967
2967 3007 3008 2968
2968 3008 3009 2969
2969 3009 3010 2970
2970 3010 3011 2971
2971 3011 3012 2972
2972 3012 3013 2973
2973 3013 3014 2974
2974 3014 3015 2975
2975 3015 3016 2976
2976 3016 3017 2977
2977 3017 3018 2978
2978 3018 3019 2979
2979 3019 3020 2980
2980 3020 3021 2981
2981 3021 3022 2982
2982 3022 3023 2983
2983 3023 3024 2984
2984 3024 3025 2985
2985 3025 3026 2986
2986 3026 3027 2987
2987 3027 3028 2988
2988 3028 3029 2989
2989 3029 3030 2990
2990 3030 3031 2991
2991 3031 3032 2992
2992 3032 3033 2993
2993 3033 3034 2994
2994 3034 3035 2995
2995 3035 3036 2996
2996 3036 3037 2997
2997 3037 151 150
74 75 3038 2998
2998 3038 3039 2999
2999 3039 3040 3000
3000 3040 3041 3001
3001 3041 3042 3002
3002 3042 3043 3003
3003 3043 3044 3004
3004 3044 3045 3005
3005 3045 3046 3006
3006 3046 3047 3007
3007 3047 3048 3008
3008 3048 3049 3009
3009 3049 3050 3010
3010 3050 3051 3011
3011 3051 3052 3012
3012 3052 3053 3013
3013 3053 3054 3014
3014 3054 3055 3015
3015 3055 3056 3016
3016 3056 3057 3017
3017 3057 3058 3018
3018 3058 3059 3019
3019 3059 3060 3020
3020 3060 3061 3021
3021 3061 3062 3022
3022 3062 3063 3023
3023 3063 3064 3024
3024 3064 3065 3025
3025 3065 3066 3026
3026 3066 3067 3027
3027 3067 3068 3028
3028 3068 3069 3029
3029 3069 3070 3030
3030 3070 3071 3031
3031 3071 3072 3032
3032 3072 3073 3033
3033 3073 3074 3034
3034 3074 3075 3035
3035 3075 3076 3036
3036 3076 3077 3037
3037 3077 152 151
75 76 3078 3038
3038 3078 3079 3039
3039 3079 3080 3040
3040 3080 3081 3041
3041 3081 3082 3042
3042 3082 3083 3043
3043 3083 3084 3044
3044 3084 3085 3045
3045 3085 3086 3046
3046 3086 3087 3047
3047 3087 3088 3048
3048 3088 3089 3049
3049 3089 3090 3050
3050 3090 3091 3051
3051 3091 3092 3052
3052 3092 3093 3053
3053 3093 3094 3054
3054 3094 3095 3055
3055 3095 3096 3056
3056 3096 3097 3057
3057 3097 3098 3058
3058 3098 3099 3059
3059 3099 3100 3060
3060 3100 3101 3061
3061 3101 3102 3062
3062 3102 3103 3063
3063 3103 3104 3064
3064 3104 3105 3065
3065 3105 3106 3066
3066 3106 3107 3067
3067 3107 3108 3068
3068 3108 3109 3069
3069 3109 3110 3070
3070 3110 3111 3071
3071 3111 3112 3072
3072 3112 3113 3073
3073 3113 3114 3074
3074 3114 3115 3075
3075 3115 3116 3076
3076 3116 3117 3077
3077 3117 153 152
76 77 3118 3078
3078 3118 3119 3079
3079 3119 3120 3080
3080 3120 3121 3081
3081 3121 3122 3082
3082 3122 3123 3083
3083 3123 3124 3084
3084 3124 3125 3085
3085 3125 3126 3086
3086 3126 3127 3087
3087 3127 3128 3088
3088 3128 3129 3089
3089 3129 3130 3090
3090 3130 3131 3091
3091 3131 3132 3092
3092 3132 3133 3093
3093 3133 3134 3094
3094 3134 3135 3095
3095 3135 3136 3096
3096 3136 3137 3097
3097 3137 3138 3098
3098 3138 3139 3099
3099 3139 3140 3100
3100 3140 3141 3101
3101 3141 3142 3102
3102 3142 3143 3103
3103 3143 3144 3104
3104 3144 3145 3105
3105 3145 3146 3106
3106 3146 3147 3107
3107 3147 3148 3108
3108 3148 3149 3109
3109 3149 3150 3110
3110 3150 3151 3111
3111 3151 3152 3112
3112 3152 3153 3113
3113 3153 3154 3114
3114 3154 3155 3115
3115 3155 3156 3116
3116 3156 3157 3117
3117 3157 154 153
77 78 3158 3118
3118 3158 3159 3119
3119 3159 3160 3120
3120 3160 3161 3121
3121 3161 3162 3122
3122 3162 3163 3123
3123 3163 3164 3124
3124 3164 3165 3125
3125 3165 3166 3126
3126 3166 3167 3127
3127 3167 3168 3128
3128 3168 3169 3129
3129 3169 3170 3130
3130 3170 3171 3131
3131 3171 3172 3132
3132 3172 3173 3133
3133 3173 3174 3134
3134 3174 3175 3135
3135 3175 3176 3136
3136 3176 3177 3137
3137 3177 3178 3138
3138 3178 3179 3139
3139 3179 3180 3140
3140 3180 3181 3141
3141 3181 3182 3142
3142 3182 3183 3143
3143 3183 3184 3144
3144 3184 3185 3145
3145 3185 3186 3146
3146 3186 3187 3147
3147 3187 3188 3148
3148 3188 3189 3149
3149 3189 3190 3150
3150 3190 3191 3151
3151 3191 3192 3152
3152 3192 3193 3153
3153 3193 3194 3154
3154 3194 3195 3155
3155 3195 3196 3156
3156 3196 3197 3157
3157 3197 155 154
78 79 3198 3158
3158 3198 3199 3159
3159 3199 3200 3160
3160 3200 3201 3161
3161 3201 3202 3162
3162 3202 3203 3163
3163 3203 3204 3164
3164 3204 3205 3165
3165 3205 3206 3166
3166 3206 3207 3167
3167 3207 3208 3168
3168 3208 3209 3169
3169 3209 3210 3170
3170 3210 3211 3171
3171 3211 3212 3172
3172 3212 3213 3173
3173 3213 3214 3174
3174 3214 3215 3175
3175 3215 3216 3176
3176 3216 3217 3177
3177 3217 3218 3178
3178 3218 3219 3179
3179 3219 3220 3180
3180 3220 3221 3181
3181 3221 3222 3182
3182 3222 3223 3183
3183 3223 3224 3184
3184 3224 3225 3185
3185 3225 3226 3186
3186 3226 3227 3187
3187 3227 3228 3188
3188 3228 3229 3189
3189 3229 3230 3190
3190 3230 3231 3191
3191 3231 3232 3192
3192 3232 3233 3193
3193 3233 3234 3194
3194 3234 3235 3195
3195 3235 3236 3196
3196 3236 3237 3197
3197 3237 156 155
79 80 3238 3198
3198 3238 3239 3199
3199 3239 3240 3200
3200 3240 3241 3201
3201 3241 3242 3202
3202 3242 3243 3203
3203 3243 3244 3204
3204 3244 3245 3205
3205 3245 3246 3206
3206 3246 3247 3207
3207 3247 3248 3208
3208 3248 3249 3209
3209 3249 3250 3210
3210 3250 3251 3211
3211 3251 3252 3212
3212 3252 3253 3213
3213 3253 3254 3214
3214 3254 3255 3215
3215 3255 3256 3216
3216 3256 3257 3217
3217 3257 3258 3218
3218 3258 3259 3219
3219 3259 3260 3220
3220 3260 3261 3221
3221 3261 3262 3222
3222 3262 3263 3223
3223 3263 3264 3224
3224 3264 3265 3225
3225 3265 3266 3226
3226 3266 3267 3227
3227 3267 3268 3228
3228 3268 3269 3229
3229 3269 3270 3230
3230 3270 3271 3231
3231 3271 3272 3232
3232 3272 3273 3233
3233 3273 3274 3234
3234 3274 3275 3235
3235 3275 3276 3236
3236 3276 3277 3237
3237 3277 157 156
80 81 3278 3238
3238 3278 3279 3239
3239 3279 3280 3240
3240 3280 3281 3241
3241 3281 3282 3242
3242 3282 3283 3243
3243 3283 3284 3244
3244 3284 3285 3245
3245 3285 3286 3246
3246 3286 3287 3247
3247 3287 3288 3248
3248 3288 3289 3249
3249 3289 3290 3250
3250 3290 3291 3251
3251 3291 3292 3252
3252 3292 3293 3253
3253 3293 3294 3254
3254 3294 3295 3255
3255 3295 3296 3256
3256 3296 3297 3257
3257 3297 3298 3258
3258 3298 3299 3259
3259 3299 3300 3260
3260 3300 3301 3261
3261 3301 3302 3262
3262 3302 3303 3263
3263 3303 3304 3264
3264 3304 3305 3265
3265 3305 3306 3266
3266 3306 3307 3267
3267 3307 3308 3268
3268 3308 3309 3269
3269 3309 3310 3270
3270 3310 3311 3271
3271 3311 3312 3272
3272 3312 3313 3273
3273 3313 3314 3274
3274 3314 3315 3275
3275 3315 3316 3276
3276 3316 3317 3277
3277 3317 158 157
81 82 3318 3278
3278 3318 3319 3279
3279 3319 3320 3280
3280 3320 3321 3281
3281 3321 3322 3282
3282 3322 3323 3283
3283 3323 3324 3284
3284 3324 3325 3285
3285 3325 3326 3286
3286 3326 3327 3287
3287 3327 3328 3288
3288 3328 3329 3289
3289 3329 3330 3290
3290 3330 3331 3291
3291 3331 3332 3292
3292 3332 3333 3293
3293 3333 3334 3294
3294 3334 3335 3295
3295 3335 3336 3296
3296 3336 3337 3297
3297 3337 3338 3298
3298 3338 3339 3299
3299 3339 3340 3300
3300 3340 3341 3301
3301 3341 3342 3302
3302 3342 3343 3303
3303 3343 3344 3304
3304 3344 3345 3305
3305 3345 3346 3306
3306 3346 3347 3307
3307 3347 3348 3308
3308 3348 3349 3309
3309 3349 3350 3310
3310 3350 3351 3311
3311 3351 3352 3312
3312 3352 3353 3313
3313 3353 3354 3314
3314 3354 3355 3315
3315 3355 3356 3316
3316 3356 3357 3317
3317 3357 159 158
82 83 3358 3318
3318 3358 3359 3319
3319 3359 3360 3320
3320 3360 3361 3321
3321 3361 3362 3322
3322 3362 3363 3323
3323 3363 3364 3324
3324 3364 3365 3325
3325 3365 3366 3326
3326 3366 3367 3327
3327 3367 3368 3328
3328 3368 3369 3329
3329 3369 3370 3330
3330 3370 3371 3331
3331 3371 3372 3332
3332 3372 3373 3333
3333 3373 3374 3334
3334 3374 3375 3335
3335 3375 3376 3336
3336 3376 3377 3337
3337 3377 3378 3338
3338 3378 3379 3339
3339 3379 3380 3340
3340 3380 3381 3341
3341 3381 3382 3342
3342 3382 3383 3343
3343 3383 3384 3344
3344 3384 3385 3345
3345 3385 3386 3346
3346 3386 3387 3347
3347 3387 3388 3348
3348 3388 3389 3349
3349 3389 3390 3350
3350 3390 3391 3351
3351 3391 3392 3352
3352 3392 3393 3353
3353 3393 3394 3354
3354 3394 3395 3355
3355 3395 3396 3356
3356 3396 3397 3357
3357 3397 160 159
83 84 3398 3358
3358 3398 3399 3359
3359 3399 3400 3360
3360 3400 3401 3361
3361 3401 3402 3362
3362 3402 3403 3363
3363 3403 3404 3364
3364 3404 3405 3365
3365 3405 3406 3366
3366 3406 3407 3367
3367 3407 3408 3368
3368 3408 3409 3369
3369 3409 3410 3370
3370 3410 3411 3371
3371 3411 3412 3372
3372 3412 3413 3373
3373 3413 3414 3374
3374 3414 3415 3375
3375 3415 3416 3376
3376 3416 3417 3377
3377 3417 3418 3378
3378 3418 3419 3379
3379 3419 3420 3380
3380 3420 3421 3381
3381 3421 3422 3382
3382 3422 3423 3383
3383 3423 3424 3384
3384 3424 3425 3385
3385 3425 3426 3386
3386 3426 3427 3387
3387 3427 3428 3388
3388 3428 3429 3389
3389 3429 3430 3390
3390 3430 3431 3391
3391 3431 3432 3392
3392 3432 3433 3393
3393 3433 3434 3394
3394 3434 3435 3395
3395 3435 3436 3396
3396 3436 3437 3397
3397 3437 161 160
84 85 3438 3398
3398 3438 3439 3399
3399 3439 3440 3400
3400 3440 3441 3401
3401 3441 3442 3402
3402 3442 3443 3403
3403 3443 3444 3404
3404 3444 3445 3405
3405 3445 3446 3406
3406 3446 3447 3407
3407 3447 3448 3408
3408 3448 3449 3409
3409 3449 3450 3410
3410 3450 3451 3411
3411 3451 3452 3412
3412 3452 3453 3413
3413 3453 3454 3414
3414 3454 3455 3415
3415 3455 3456 3416
3416 3456 3457 3417
3417 3457 3458 3418
3418 3458 3459 3419
3419 3459 3460 3420
3420 3460 3461 3421
3421 3461 3462 3422
3422 3462 3463 3423
3423 3463 3464 3424
3424 3464 3465 3425
3425 3465 3466 3426
3426 3466 3467 3427
3427 3467 3468 3428
3428 3468 3469 3429
3429 3469 3470 3430
3430 3470 3471 3431
3431 3471 3472 3432
3432 3472 3473 3433
3433 3473 3474 3434
3434 3474 3475 3435
3435 3475 3476 3436
3436 3476 3477 3437
3437 3477 162 161
85 86 3478 3438
3438 3478 3479 3439
3439 3479 3480 3440
3440 3480 3481 3441
3441 3481 3482 3442
3442 3482 3483 3443
3443 3483 3484 3444
3444 3484 3485 3445
3445 3485 3486 3446
3446 3486 3487 3447
3447 3487 3488 3448
3448 3488 3489 3449
3449 3489 3490 3450
3450 3490 3491 3451
3451 3491 3492 3452
3452 3492 3493 3453
3453 3493 3494 3454
3454 3494 3495 3455
3455 3495 3496 3456
3456 3496 3497 3457
3457 3497 3498 3458
3458 3498 3499 3459
3459 3499 3500 3460
3460 3500 3501 3461
3461 3501 3502 3462
3462 3502 3503 3463
3463 3503 3504 3464
3464 3504 3505 3465
3465 3505 3506 3466
3466 3506 3507 3467
3467 3507 3508 3468
3468 3508 3509 3469
3469 3509 3510 3470
3470 3510 3511 3471
3471 3511 3512 3472
3472 3512 3513 3473
3473 3513 3514 3474
3474 3514 3515 3475
3475 3515 3516 3476
3476 3516 3517 3477
3477 3517 163 162
86 87 3518 3478
3478 3518 3519 3479
3479 3519 3520 3480
3480 3520 3521 3481
3481 3521 3522 3482
3482 3522 3523 3483
3483 3523 3524 3484
3484 3524 3525 3485
3485 3525 3526 3486
3486 3526 3527 3487
3487 3527 3528 3488
3488 3528 3529 3489
3489 3529 3530 3490
3490 3530 3531 3491
3491 3531 3532 3492
3492 3532 3533 3493
3493 3533 3534 3494
3494 3534 3535 3495
3495 3535 3536 3496
3496 3536 3537 3497
3497 3537 3538 3498
3498 3538 3539 3499
3499 3539 3540 3500
3500 3540 3541 3501
3501 3541 3542 3502
3502 3542 3543 3503
3503 3543 3544 3504
3504 3544 3545 3505
3505 3545 3546 3506
3506 3546 3547 3507
3507 3547 3548 3508
3508 3548 3549 3509
3509 3549 3550 3510
3510 3550 3551 3511
3511 3551 3552 3512
3512 3552 3553 3513
3513 3553 3554 3514
3514 3554 3555 3515
3515 3555 3556 3516
3516 3556 3557 3517
3517 3557 164 163
87 88 3558 3518
3518 3558 3559 3519
3519 3559 3560 3520
3520 3560 3561 3521
3521 3561 3562 3522
3522 3562 3563 3523
3523 3563 3564 3524
3524 3564 3565 3525
3525 3565 3566 3526
3526 3566 3567 3527
3527 3567 3568 3528
3528 3568 3569 3529
3529 3569 3570 3530
3530 3570 3571 3531
3531 3571 3572 3532
3532 3572 3573 3533
3533 3573 3574 3534
3534 3574 3575 3535
3535 3575 3576 3536
3536 3576 3577 3537
3537 3577 3578 3538
3538 3578 3579 3539
3539 3579 3580 3540
3540 3580 3581 3541
3541 3581 3582 3542
3542 3582 3583 3543
3543 3583 3584 3544
3544 3584 3585 3545
3545 3585 3586 3546
3546 3586 3587 3547
3547 3587 3588 3548
3548 3588 3589 3549
3549 3589 3590 3550
3550 3590 3591 3551
3551 3591 3592 3552
3552 3592 3593 3553
3553 3593 3594 3554
3554 3594 3595 3555
3555 3595 3596 3556
3556 3596 3597 3557
3557 3597 165 164
88 2 322 3558
3558 322 321 3559
3559 321 320 3560
3560 320 319 3561
3561 319 318 3562
3562 318 317 3563
3563 317 316 3564
3564 316 315 3565
3565 315 314 3566
3566 314 313 3567
3567 313 312 3568
3568 312 311 3569
3569 311 310 3570
3570 310 309 3571
3571 309 308 3572
3572 308 307 3573
3573 307 306 3574
3574 306 305 3575
3575 305 304 3576
3576 304 303 3577
3577 303 302 3578
3578 302 301 3579
3579 301 300 3580
3580 300 299 3581
3581 299 298 3582
3582 298 297 3583
3583 297 296 3584
3584 296 295 3585
3585 295 294 3586
3586 294 293 3587
3587 293 292 3588
3588 292 291 3589
3589 291 290 3590
3590 290 289 3591
3591 289 288 3592
3592 288 287 3593
3593 287 286 3594
3594 286 285 3595
3595 285 284 3596
3596 284 283 3597
3597 283 6 165
4 108 3598 380
380 3598 3599 379
379 3599 3600 378
378 3600 3601 377
377 3601 3602 376
376 3602 3603 375
375 3603 3604 374
374 3604 3605 373
373 3605 3606 372
372 3606 3607 371
371 3607 3608 370
370 3608 3609 369
369 3609 3610 368
368 3610 3611 367
367 3611 3612 366
366 3612 3613 365
365 3613 3614 364
364 3614 3615 363
363 3615 3616 362
362 3616 323 9
108 109 3617 3598
3598 3617 3618 3599
3599 3618 3619 3600
3600 3619 3620 3601
3601 3620 3621 3602
3602 3621 3622 3603
3603 3622 3623 3604
3604 3623 3624 3605
3605 3624 3625 3606
3606 3625 3626 3607
3607 3626 3627 3608
3608 3627 3628 3609
3609 3628 3629 3610
3610 3629 3630 3611
3611 3630 3631 3612
3612 3631 3632 3613
3613 3632 3633 3614
3614 3633 3634 3615
3615 3634 3635 3616
3616 3635 324 323
109 110 3636 3617
3617 3636 3637 3618
3618 3637 3638 3619
3619 3638 3639 3620
3620 3639 3640 3621
3621 3640 3641 3622
3622 3641 3642 3623
3623 3642 3643 3624
3624 3643 3644 3625
3625 3644 3645 3626
3626 3645 3646 3627
3627 3646 3647 3628
3628 3647 3648 3629
3629 3648 3649 3630
3630 3649 3650 3631
3631 3650 3651 3632
3632 3651 3652 3633
3633 3652 3653 3634
3634 3653 3654 3635
3635 3654 325 324
110 111 3655 3636
3636 3655 3656 3637
3637 3656 3657 3638
3638 3657 3658 3639
3639 3658 3659 3640
3640 3659 3660 3641
3641 3660 3661 3642
3642 3661 3662 3643
3643 3662 3663 3644
3644 3663 3664 3645
3645 3664 3665 3646
3646 3665 3666 3647
3647 3666 3667 3648
3648 3667 3668 3649
3649 3668 3669 3650
3650 3669 3670 3651
3651 3670 3671 3652
3652 3671 3672 3653
3653 3672 3673 3654
3654 3673 326 325
111 112 3674 3655
3655 3674 3675 3656
3656 3675 3676 3657
3657 3676 3677 3658
3658 3677 3678 3659
3659 3678 3679 3660
3660 3679 3680 3661
3661 3680 3681 3662
3662 3681 3682 3663
3663 3682 3683 3664
3664 3683 3684 3665
3665 3684 3685 3666
3666 3685 3686 3667
3667 3686 3687 3668
3668 3687 3688 3669
3669 3688 3689 3670
3670 3689 3690 3671
3671 3690 3691 3672
3672 3691 3692 3673
3673 3692 327 326
112 113 3693 3674
3674 3693 3694 3675
3675 3694 3695 3676
3676 3695 3696 3677
3677 3696 3697 3678
3678 3697 3698 3679
3679 3698 3699 3680
3680 3699 3700 3681
3681 3700 3701 3682
3682 3701 3702 3683
3683 3702 3703 3684
3684 3703 3704 3685
3685 3704 3705 3686
3686 3705 3706 3687
3687 3706 3707 3688
3688 3707 3708 3689
3689 3708 3709 3690
3690 3709 3710 3691
3691 3710 3711 3692
3692 3711 328 327
113 114 3712 3693
3693 3712 3713 3694
3694 3713 3714 3695
3695 3714 3715 3696
3696 3715 3716 3697
3697 3716 3717 3698
3698 3717 3718 3699
3699 3718 3719 3700
3700 3719 3720 3701
3701 3720 3721 3702
3702 3721 3722 3703
3703 3722 3723 3704
3704 3723 3724 3705
3705 3724 3725 3706
3706 3725 3726 3707
3707 3726 3727 3708
3708 3727 3728 3709
3709 3728 3729 3710
3710 3729 3730 3711
3711 3730 329 328
114 115 3731 3712
3712 3731 3732 3713
3713 3732 3733 3714
3714 3733 3734 3715
3715 3734 3735 3716
3716 3735 3736 3717
3717 3736 3737 3718
3718 3737 3738 3719
3719 3738 3739 3720
3720 3739 3740 3721
3721 3740 3741 3722
3722 3741 3742 3723
3723 3742 3743 3724
3724 3743 3744 3725
3725 3744 3745 3726
3726 3745 3746 3727
3727 3746 3747 3728
3728 3747 3748 3729
3729 3748 3749 3730
3730 3749 330 329
115 116 3750 3731
3731 3750 3751 3732
3732 3751 3752 3733
3733 3752 3753 3734
3734 3753 3754 3735
3735 3754 3755 3736
3736 3755 3756 3737
3737 3756 3757 3738
3738 3757 3758 3739
3739 3758 3759 3740
3740 3759 3760 3741
3741 3760 3761 3742
3742 3761 3762 3743
3743 3762 3763 3744
3744 3763 3764 3745
3745 3764 3765 3746
3746 3765 3766 3747
3747 3766 3767 3748
3748 3767 3768 3749
3749 3768 331 330
116 117 3769 3750
3750 3769 3770 3751
3751 3770 3771 3752
3752 3771 3772 3753
3753 3772 3773 3754
3754 3773 3774 3755
3755 3774 3775 3756
3756 3775 3776 3757
3757 3776 3777 3758
3758 3777 3778 3759
3759 3778 3779 3760
3760 3779 3780 3761
3761 3780 3781 3762
3762 3781 3782 3763
3763 3782 3783 3764
3764 3783 3784 3765
3765 3784 3785 3766
3766 3785 3786 3767
3767 3786 3787 3768
3768 3787 332 331
117 118 3788 3769
3769 3788 3789 3770
3770 3789 3790 3771
3771 3790 3791 3772
3772 3791 3792 3773
3773 3792 3793 3774
3774 3793 3794 3775
3775 3794 3795 3776
3776 3795 3796 3777
3777 3796 3797 3778
3778 3797 3798 3779
3779 3798 3799 3780
3780 3799 3800 3781
3781 3800 3801 3782
3782 3801 3802 3783
3783 3802 3803 3784
3784 3803 3804 3785
3785 3804 3805 3786
3786 3805 3806 3787
3787 3806 333 332
118 119 3807 3788
3788 3807 3808 3789
3789 3808 3809 3790
3790 3809 3810 3791
3791 3810 3811 3792
3792 3811 3812 3793
3793 3812 3813 3794
3794 3813 3814 3795
3795 3814 3815 3796
3796 3815 3816 3797
3797 3816 3817 3798
3798 3817 3818 3799
3799 3818 3819 3800
3800 3819 3820 3801
3801 3820 3821 3802
3802 3821 3822 3803
3803 3822 3823 3804
3804 3823 3824 3805
3805 3824 3825 3806
3806 3825 334 333
119 120 3826 3807
3807 3826 3827 3808
3808 3827 3828 3809
3809 3828 3829 3810
3810 3829 3830 3811
3811 3830 3831 3812
3812 3831 3832 3813
3813 3832 3833 3814
3814 3833 3834 3815
3815 3834 3835 3816
3816 3835 3836 3817
3817 3836 3837 3818
3818 3837 3838 3819
3819 3838 3839 3820
3820 3839 3840 3821
3821 3840 3841 3822
3822 3841 3842 3823
3823 3842 3843 3824
3824 3843 3844 3825
3825 3844 335 334
120 121 3845 3826
3826 3845 3846 3827
3827 3846 3847 3828
3828 3847 3848 3829
3829 3848 3849 3830
3830 3849 3850 3831
3831 3850 3851 3832
3832 3851 3852 3833
3833 3852 3853 3834
3834 3853 3854 3835
3835 3854 3855 3836
3836 3855 3856 3837
3837 3856 3857 3838
3838 3857 3858 3839
3839 3858 3859 3840
3840 3859 3860 3841
3841 3860 3861 3842
3842 3861 3862 3843
3843 3862 3863 3844
3844 3863 336 335
121 122 3864 3845
3845 3864 3865 3846
3846 3865 3866 3847
3847 3866 3867 3848
3848 3867 3868 3849
3849 3868 3869 3850
3850 3869 3870 3851
3851 3870 3871 3852
3852 3871 3872 3853
3853 3872 3873 3854
3854 3873 3874 3855
3855 3874 3875 3856
3856 3875 3876 3857
3857 3876 3877 3858
3858 3877 3878 3859
3859 3878 3879 3860
3860 3879 3880 3861
3861 3880 3881 3862
3862 3881 3882 3863
3863 3882 337 336
122 123 3883 3864
3864 3883 3884 3865
3865 3884 3885 3866
3866 3885 3886 3867
3867 3886 3887 3868
3868 3887 3888 3869
3869 3888 3889 3870
3870 3889 3890 3871
3871 3890 3891 3872
3872 3891 3892 3873
3873 3892 3893 3874
3874 3893 3894 3875
3875 3894 3895 3876
3876 3895 3896 3877
3877 3896 3897 3878
3878 3897 3898 3879
3879 3898 3899 3880
3880 3899 3900 3881
3881 3900 3901 3882
3882 3901 338 337
123 124 3902 3883
3883 3902 3903 3884
3884 3903 3904 3885
3885 3904 3905 3886
3886 3905 3906 3887
3887 3906 3907 3888
3888 3907 3908 3889
3889 3908 3909 3890
3890 3909 3910 3891
3891 3910 3911 3892
3892 3911 3912 3893
3893 3912 3913 3894
3894 3913 3914 3895
3895 3914 3915 3896
3896 3915 3916 3897
3897 3916 3917 3898
3898 3917 3918 3899
3899 3918 3919 3900
3900 3919 3920 3901
3901 3920 339 338
124 125 3921 3902
3902 3921 3922 3903
3903 3922 3923 3904
3904 3923 3924 3905
3905 3924 3925 3906
3906 3925 3926 3907
3907 3926 3927 3908
3908 3927 3928 3909
3909 3928 3929 3910
3910 3929 3930 3911
3911 3930 3931 3912
3912 3931 3932 3913
3913 3932 3933 3914
3914 3933 3934 3915
3915 3934 3935 3916
3916 3935 3936 3917
3917 3936 3937 3918
3918 3937 3938 3919
3919 3938 3939 3920
3920 3939 340 339
125 126 3940 3921
3921 3940 3941 3922
3922 3941 3942 3923
3923 3942 3943 3924
3924 3943 3944 3925
3925 3944 3945 3926
3926 3945 3946 3927
3927 3946 3947 3928
3928 3947 3948 3929
3929 3948 3949 3930
3930 3949 3950 3931
3931 3950 3951 3932
3932 3951 3952 3933
3933 3952 3953 3934
3934 3953 3954 3935
3935 3954 3955 3936
3936 3955 3956 3937
3937 3956 3957 3938
3938 3957 3958 3939
3939 3958 341 340
126 127 3959 3940
3940 3959 3960 3941
3941 3960 3961 3942
3942 3961 3962 3943
3943 3962 3963 3944
3944 3963 3964 3945
3945 3964 3965 3946
3946 3965 3966 3947
3947 3966 3967 3948
3948 3967 3968 3949
3949 3968 3969 3950
3950 3969 3970 3951
3951 3970 3971 3952
3952 3971 3972 3953
3953 3972 3973 3954
3954 3973 3974 3955
3955 3974 3975 3956
3956 3975 3976 3957
3957 3976 3977 3958
3958 3977 342 341
127 128 3978 3959
3959 3978 3979 3960
3960 3979 3980 3961
3961 3980 3981 3962
3962 3981 3982 3963
3963 3982 3983 3964
3964 3983 3984 3965
3965 3984 3985 3966
3966 3985 3986 3967
3967 3986 3987 3968
3968 3987 3988 3969
3969 3988 3989 3970
3970 3989 3990 3971
3971 3990 3991 3972
3972 3991 3992 3973
3973 3992 3993 3974
3974 3993 3994 3975
3975 3994 3995 3976
3976 3995 3996 3977
3977 3996 343 342
128 129 3997 3978
3978 3997 3998 3979
3979 3998 3999 3980
3980 3999 4000 3981
3981 4000 4001 3982
3982 4001 4002 3983
3983 4002 4003 3984
3984 4003 4004 3985
3985 4004 4005 3986
3986 4005 4006 3987
3987 4006 4007 3988
3988 4007 4008 3989
3989 4008 4009 3990
3990 4009 4010 3991
3991 4010 4011 3992
3992 4011 4012 3993
3993 4012 4013 3994
3994 4013 4014 3995
3995 4014 4015 3996
3996 4015 344 343
129 130 4016 3997
3997 4016 4017 3998
3998 4017 4018 3999
3999 4018 4019 4000
4000 4019 4020 4001
4001 4020 4021 4002
4002 4021 4022 4003
4003 4022 4023 4004
4004 4023 4024 4005
4005 4024 4025 4006
4006 4025 4026 4007
4007 4026 4027 4008
4008 4027 4028 4009
4009 4028 4029 4010
4010 4029 4030 4011
4011 4030 4031 4012
4012 4031 4032 4013
4013 4032 4033 4014
4014 4033 4034 4015
4015 4034 345 344
130 131 4035 4016
4016 4035 4036 4017
4017 4036 4037 4018
4018 4037 4038 4019
4019 4038 4039 4020
4020 4039 4040 4021
4021 4040 4041 4022
4022 4041 4042 4023
4023 4042 4043 4024
4024 4043 4044 4025
4025 4044 4045 4026
4026 4045 4046 4027
4027 4046 4047 4028
4028 4047 4048 4029
4029 4048 4049 4030
4030 4049 4050 4031
4031 4050 4051 4032
4032 4051 4052 4033
4033 4052 4053 4034
4034 4053 346 345
131 132 4054 4035
4035 4054 4055 4036
4036 4055 4056 4037
4037 4056 4057 4038
4038 4057 4058 4039
4039 4058 4059 4040
4040 4059 4060 4041
4041 4060 4061 4042
4042 4061 4062 4043
4043 4062 4063 4044
4044 4063 4064 4045
4045 4064 4065 4046
4046 4065 4066 4047
4047 4066 4067 4048
4048 4067 4068 4049
4049 4068 4069 4050
4050 4069 4070 4051
4051 4070 4071 4052
4052 4071 4072 4053
4053 4072 347 346
132 133 4073 4054
4054 4073 4074 4055
4055 4074 4075 4056
4056 4075 4076 4057
4057 4076 4077 4058
4058 4077 4078 4059
4059 4078 4079 4060
4060 4079 4080 4061
4061 4080 4081 4062
4062 4081 4082 4063
4063 4082 4083 4064
4064 4083 4084 4065
4065 4084 4085 4066
4066 4085 4086 4067
4067 4086 4087 4068
4068 4087 4088 4069
4069 4088 4089 4070
4070 4089 4090 4071
4071 4090 4091 4072
4072 4091 348 347
133 134 4092 4073
4073 4092 4093 4074
4074 4093 4094 4075
4075 4094 4095 4076
4076 4095 4096 4077
4077 4096 4097 4078
4078 4097 4098 4079
4079 4098 4099 4080
4080 4099 4100 4081
4081 4100 4101 4082
4082 4101 4102 4083
4083 4102 4103 4084
4084 4103 4104 4085
4085 4104 4105 4086
4086 4105 4106 4087
4087 4106 4107 4088
4088 4107 4108 4089
4089 4108 4109 4090
4090 4109 4110 4091
4091 4110 349 348
134 135 4111 4092
4092 4111 4112 4093
4093 4112 4113 4094
4094 4113 4114 4095
4095 4114 4115 4096
4096 4115 4116 4097
4097 4116 4117 4098
4098 4117 4118 4099
4099 4118 4119 4100
4100 4119 4120 4101
4101 4120 4121 4102
4102 4121 4122 4103
4103 4122 4123 4104
4104 4123 4124 4105
4105 4124 4125 4106
4106 4125 4126 4107
4107 4126 4127 4108
4108 4127 4128 4109
4109 4128 4129 4110
4110 4129 350 349
135 136 4130 4111
4111 4130 4131 4112
4112 4131 4132 4113
4113 4132 4133 4114
4114 4133 4134 4115
4115 4134 4135 4116
4116 4135 4136 4117
4117 4136 4137 4118
4118 4137 4138 4119
4119 4138 4139 4120
4120 4139 4140 4121
4121 4140 4141 4122
4122 4141 4142 4123
4123 4142 4143 4124
4124 4143 4144 4125
4125 4144 4145 4126
4126 4145 4146 4127
4127 4146 4147 4128
4128 4147 4148 4129
4129 4148 351 350
136 137 4149 4130
4130 4149 4150 4131
4131 4150 4151 4132
4132 4151 4152 4133
4133 4152 4153 4134
4134 4153 4154 4135
4135 4154 4155 4136
4136 4155 4156 4137
4137 4156 4157 4138
4138 4157 4158 4139
4139 4158 4159 4140
4140 4159 4160 4141
4141 4160 4161 4142
4142 4161 4162 4143
4143 4162 4163 4144
4144 4163 4164 4145
4145 4164 4165 4146
4146 4165 4166 4147
4147 4166 4167 4148
4148 4167 352 351
137 138 4168 4149
4149 4168 4169 4150
4150 4169 4170 4151
4151 4170 4171 4152
4152 4171 4172 4153
4153 4172 4173 4154
4154 4173 4174 4155
4155 4174 4175 4156
4156 4175 4176 4157
4157 4176 4177 4158
4158 4177 4178 4159
4159 4178 4179 4160
4160 4179 4180 4161
4161 4180 4181 4162
4162 4181 4182 4163
4163 4182 4183 4164
4164 4183 4184 4165
4165 4184 4185 4166
4166 4185 4186 4167
4167 4186 353 352
138 139 4187 4168
4168 4187 4188 4169
4169 4188 4189 4170
4170 4189 4190 4171
4171 4190 4191 4172
4172 4191 4192 4173
4173 4192 4193 4174
4174 4193 4194 4175
4175 4194 4195 4176
4176 4195 4196 4177
4177 4196 4197 4178
4178 4197 4198 4179
4179 4198 4199 4180
4180 4199 4200 4181
4181 4200 4201 4182
4182 4201 4202 4183
4183 4202 4203 4184
4184 4203 4204 4185
4185 4204 4205 4186
4186 4205 354 353
139 140 4206 4187
4187 4206 4207 4188
4188 4207 4208 4189
4189 4208 4209 4190
4190 4209 4210 4191
4191 4210 4211 4192
4192 4211 4212 4193
4193 4212 4213 4194
4194 4213 4214 4195
4195 4214 4215 4196
4196 4215 4216 4197
4197 4216 4217 4198
4198 4217 4218 4199
4199 4218 4219 4200
4200 4219 4220 4201
4201 4220 4221 4202
4202 4221 4222 4203
4203 4222 4223 4204
4204 4223 4224 4205
4205 4224 355 354
140 141 4225 4206
4206 4225 4226 4207
4207 4226 4227 4208
4208 4227 4228 4209
4209 4228 4229 4210
4210 4229 4230 4211
4211 4230 4231 4212
4212 4231 4232 4213
4213 4232 4233 4214
4214 4233 4234 4215
4215 4234 4235 4216
4216 4235 4236 4217
4217 4236 4237 4218
4218 4237 4238 4219
4219 4238 4239 4220
4220 4239 4240 4221
4221 4240 4241 4222
4222 4241 4242 4223
4223 4242 4243 4224
4224 4243 356 355
141 142 4244 4225
4225 4244 4245 4226
4226 4245 4246 4227
4227 4246 4247 4228
4228 4247 4248 4229
4229 4248 4249 4230
4230 4249 4250 4231
4231 4250 4251 4232
4232 4251 4252 4233
4233 4252 4253 4234
4234 4253 4254 4235
4235 4254 4255 4236
4236 4255 4256 4237
4237 4256 4257 4238
4238 4257 4258 4239
4239 4258 4259 4240
4240 4259 4260 4241
4241 4260 4261 4242
4242 4261 4262 4243
4243 4262 357 356
142 143 4263 4244
4244 4263 4264 4245
4245 4264 4265 4246
4246 4265 4266 4247
4247 4266 4267 4248
4248 4267 4268 4249
4249 4268 4269 4250
4250 4269 4270 4251
4251 4270 4271 4252
4252 4271 4272 4253
4253 4272 4273 4254
4254 4273 4274 4255
4255 4274 4275 4256
4256 4275 4276 4257
4257 4276 4277 4258
4258 4277 4278 4259
4259 4278 4279 4260
4260 4279 4280 4261
4261 4280 4281 4262
4262 4281 358 357
143 144 4282 4263
4263 4282 4283 4264
4264 4283 4284 4265
4265 4284 4285 4266
4266 4285 4286 4267
4267 4286 4287 4268
4268 4287 4288 4269
4269 4288 4289 4270
4270 4289 4290 4271
4271 4290 4291 4272
4272 4291 4292 4273
4273 4292 4293 4274
4274 4293 4294 4275
4275 4294 4295 4276
4276 4295 4296 4277
4277 4296 4297 4278
4278 4297 4298 4279
4279 4298 4299 4280
4280 4299 4300 4281
4281 4300 359 358
144 145 4301 4282
4282 4301 4302 4283
4283 4302 4303 4284
4284 4303 4304 4285
4285 4304 4305 4286
4286 4305 4306 4287
4287 4306 4307 4288
4288 4307 4308 4289
4289 4308 4309 4290
4290 4309 4310 4291
4291 4310 4311 4292
4292 4311 4312 4293
4293 4312 4313 4294
4294 4313 4314 4295
4295 4314 4315 4296
4296 4315 4316 4297
4297 4316 4317 4298
4298 4317 4318 4299
4299 4318 4319 4300
4300 4319 360 359
145 146 4320 4301
4301 4320 4321 4302
4302 4321 4322 4303
4303 4322 4323 4304
4304 4323 4324 4305
4305 4324 4325 4306
4306 4325 4326 4307
4307 4326 4327 4308
4308 4327 4328 4309
4309 4328 4329 4310
4310 4329 4330 4311
4311 4330 4331 4312
4312 4331 4332 4313
4313 4332 4333 4314
4314 4333 4334 4315
4315 4334 4335 4316
4316 4335 4336 4317
4317 4336 4337 4318
4318 4337 4338 4319
4319 4338 361 360
146 5 399 4320
4320 399 398 4321
4321 398 397 4322
4322 397 396 4323
4323 396 395 4324
4324 395 394 4325
4325 394 393 4326
4326 393 392 4327
4327 392 391 4328
4328 391 390 4329
4329 390 389 4330
4330 389 388 4331
4331 388 387 4332
4332 387 386 4333
4333 386 385 4334
4334 385 384 4335
4335 384 383 4336
4336 383 382 4337
4337 382 381 4338
4338 381 10 361
3 89 4339 166
166 4339 4340 167
167 4340 4341 168
168 4341 4342 169
169 4342 4343 170
170 4343 4344 171
171 4344 4345 172
172 4345 4346 173
173 4346 4347 174
174 4347 4348 175
175 4348 4349 176
176 4349 4350 177
177 4350 4351 178
178 4351 4352 179
179 4352 4353 180
180 4353 4354 181
181 4354 4355 182
182 4355 4356 183
183 4356 4357 184
184 4357 418 7
89 90 4358 4339
4339 4358 4359 4340
4340 4359 4360 4341
4341 4360 4361 4342
4342 4361 4362 4343
4343 4362 4363 4344
4344 4363 4364 4345
4345 4364 4365 4346
4346 4365 4366 4347
4347 4366 4367 4348
4348 4367 4368 4349
4349 4368 4369 4350
4350 4369 4370 4351
4351 4370 4371 4352
4352 4371 4372 4353
4353 4372 4373 4354
4354 4373 4374 4355
4355 4374 4375 4356
4356 4375 4376 4357
4357 4376 417 418
90 91 4377 4358
4358 4377 4378 4359
4359 4378 4379 4360
4360 4379 4380 4361
4361 4380 4381 4362
4362 4381 4382 4363
4363 4382 4383 4364
4364 4383 4384 4365
4365 4384 4385 4366
4366 4385 4386 4367
4367 4386 4387 4368
4368 4387 4388 4369
4369 4388 4389 4370
4370 4389 4390 4371
4371 4390 4391 4372
4372 4391 4392 4373
4373 4392 4393 4374
4374 4393 4394 4375
4375 4394 4395 4376
4376 4395 416 417
91 92 4396 4377
4377 4396 4397 4378
4378 4397 4398 4379
4379 4398 4399 4380
4380 4399 4400 4381
4381 4400 4401 4382
4382 4401 4402 4383
4383 4402 4403 4384
4384 4403 4404 4385
4385 4404 4405 4386
4386 4405 4406 4387
4387 4406 4407 4388
4388 4407 4408 4389
4389 4408 4409 4390
4390 4409 4410 4391
4391 4410 4411 4392
4392 4411 4412 4393
4393 4412 4413 4394
4394 4413 4414 4395
4395 4414 415 416
92 93 4415 4396
4396 4415 4416 4397
4397 4416 4417 4398
4398 4417 4418 4399
4399 4418 4419 4400
4400 4419 4420 4401
4401 4420 4421 4402
4402 4421 4422 4403
4403 4422 4423 4404
4404 4423 4424 4405
4405 4424 4425 4406
4406 4425 4426 4407
4407 4426 4427 4408
4408 4427 4428 4409
4409 4428 4429 4410
4410 4429 4430 4411
4411 4430 4431 4412
4412 4431 4432 4413
4413 4432 4433 4414
4414 4433 414 415
93 94 4434 4415
4415 4434 4435 4416
4416 4435 4436 4417
4417 4436 4437 4418
4418 4437 4438 4419
4419 4438 4439 4420
4420 4439 4440 4421
4421 4440 4441 4422
4422 4441 4442 4423
4423 4442 4443 4424
4424 4443 4444 4425
4425 4444 4445 4426
4426 4445 4446 4427
4427 4446 4447 4428
4428 4447 4448 4429
4429 4448 4449 4430
4430 4449 4450 4431
4431 4450 4451 4432
4432 4451 4452 4433
4433 4452 413 414
94 95 4453 4434
4434 4453 4454 4435
4435 4454 4455 4436
4436 4455 4456 4437
4437 4456 4457 4438
4438 4457 4458 4439
4439 4458 4459 4440
4440 4459 4460 4441
4441 4460 4461 4442
4442 4461 4462 4443
4443 4462 4463 4444
4444 4463 4464 4445
4445 4464 4465 4446
4446 4465 4466 4447
4447 4466 4467 4448
4448 4467 4468 4449
4449 4468 4469 4450
4450 4469 4470 4451
4451 4470 4471 4452
4452 4471 412 413
95 96 4472 4453
4453 4472 4473 4454
4454 4473 4474 4455
4455 4474 4475 4456
4456 4475 4476 4457
4457 4476 4477 4458
4458 4477 4478 4459
4459 4478 4479 4460
4460 4479 4480 4461
4461 4480 4481 4462
4462 4481 4482 4463
4463 4482 4483 4464
4464 4483 4484 4465
4465 4484 4485 4466
4466 4485 4486 4467
4467 4486 4487 4468
4468 4487 4488 4469
4469 4488 4489 4470
4470 4489 4490 4471
4471 4490 411 412
96 97 4491 4472
4472 4491 4492 4473
4473 4492 4493 4474
4474 4493 4494 4475
4475 4494 4495 4476
4476 4495 4496 4477
4477 4496 4497 4478
4478 4497 4498 4479
4479 4498 4499 4480
4480 4499 4500 4481
4481 4500 4501 4482
4482 4501 4502 4483
4483 4502 4503 4484
4484 4503 4504 4485
4485 4504 4505 4486
4486 4505 4506 4487
4487 4506 4507 4488
4488 4507 4508 4489
4489 4508 4509 4490
4490 4509 410 411
97 98 4510 4491
4491 4510 4511 4492
4492 4511 4512 4493
4493 4512 4513 4494
4494 4513 4514 4495
4495 4514 4515 4496
4496 4515 4516 4497
4497 4516 4517 4498
4498 4517 4518 4499
4499 4518 4519 4500
4500 4519 4520 4501
4501 4520 4521 4502
4502 4521 4522 4503
4503 4522 4523 4504
4504 4523 4524 4505
4505 4524 4525 4506
4506 4525 4526 4507
4507 4526 4527 4508
4508 4527 4528 4509
4509 4528 409 410
98 99 4529 4510
4510 4529 4530 4511
4511 4530 4531 4512
4512 4531 4532 4513
4513 4532 4533 4514
4514 4533 4534 4515
4515 4534 4535 4516
4516 4535 4536 4517
4517 4536 4537 4518
4518 4537 4538 4519
4519 4538 4539 4520
4520 4539 4540 4521
4521 4540 4541 4522
4522 4541 4542 4523
4523 4542 4543 4524
4524 4543 4544 4525
4525 4544 4545 4526
4526 4545 4546 4527
4527 4546 4547 4528
4528 4547 408 409
99 100 4548 4529
4529 4548 4549 4530
4530 4549 4550 4531
4531 4550 4551 4532
4532 4551 4552 4533
4533 4552 4553 4534
4534 4553 4554 4535
4535 4554 4555 4536
4536 4555 4556 4537
4537 4556 4557 4538
4538 4557 4558 4539
4539 4558 4559 4540
4540 4559 4560 4541
4541 4560 4561 4542
4542 4561 4562 4543
4543 4562 4563 4544
4544 4563 4564 4545
4545 4564 4565 4546
4546 4565 4566 4547
4547 4566 407 408
100 101 4567 4548
4548 4567 4568 4549
4549 4568 4569 4550
4550 4569 4570 4551
4551 4570 4571 4552
4552 4571 4572 4553
4553 4572 4573 4554
4554 4573 4574 4555
4555 4574 4575 4556
4556 4575 4576 4557
4557 4576 4577 4558
4558 4577 4578 4559
4559 4578 4579 4560
4560 4579 4580 4561
4561 4580 4581 4562
4562 4581 4582 4563
4563 4582 4583 4564
4564 4583 4584 4565
4565 4584 4585 4566
4566 4585 406 407
101 102 4586 4567
4567 4586 4587 4568
4568 4587 4588 4569
4569 4588 4589 4570
4570 4589 4590 4571
4571 4590 4591 4572
4572 4591 4592 4573
4573 4592 4593 4574
4574 4593 4594 4575
4575 4594 4595 4576
4576 4595 4596 4577
4577 4596 4597 4578
4578 4597 4598 4579
4579 4598 4599 4580
4580 4599 4600 4581
4581 4600 4601 4582
4582 4601 4602 4583
4583 4602 4603 4584
4584 4603 4604 4585
4585 4604 405 406
102 103 4605 4586
4586 4605 4606 4587
4587 4606 4607 4588
4588 4607 4608 4589
4589 4608 4609 4590
4590 4609 4610 4591
4591 4610 4611 4592
4592 4611 4612 4593
4593 4612 4613 4594
4594 4613 4614 4595
4595 4614 4615 4596
4596 4615 4616 4597
4597 4616 4617 4598
4598 4617 4618 4599
4599 4618 4619 4600
4600 4619 4620 4601
4601 4620 4621 4602
4602 4621 4622 4603
4603 4622 4623 4604
4604 4623 404 405
103 104 4624 4605
4605 4624 4625 4606
4606 4625 4626 4607
4607 4626 4627 4608
4608 4627 4628 4609
4609 4628 4629 4610
4610 4629 4630 4611
4611 4630 4631 4612
4612 4631 4632 4613
4613 4632 4633 4614
4614 4633 4634 4615
4615 4634 4635 4616
4616 4635 4636 4617
4617 4636 4637 4618
4618 4637 4638 4619
4619 4638 4639 4620
4620 4639 4640 4621
4621 4640 4641 4622
4622 4641 4642 4623
4623 4642 403 404
104 105 4643 4624
4624 4643 4644 4625
4625 4644 4645 4626
4626 4645 4646 4627
4627 4646 4647 4628
4628 4647 4648 4629
4629 4648 4649 4630
4630 4649 4650 4631
4631 4650 4651 4632
4632 4651 4652 4633
4633 4652 4653 4634
4634 4653 4654 4635
4635 4654 4655 4636
4636 4655 4656 4637
4637 4656 4657 4638
4638 4657 4658 4639
4639 4658 4659 4640
4640 4659 4660 4641
4641 4660 4661 4642
4642 4661 402 403
105 106 4662 4643
4643 4662 4663 4644
4644 4663 4664 4645
4645 4664 4665 4646
4646 4665 4666 4647
4647 4666 4667 4648
4648 4667 4668 4649
4649 4668 4669 4650
4650 4669 4670 4651
4651 4670 4671 4652
4652 4671 4672 4653
4653 4672 4673 4654
4654 4673 4674 4655
4655 4674 4675 4656
4656 4675 4676 4657
4657 4676 4677 4658
4658 4677 4678 4659
4659 4678 4679 4660
4660 4679 4680 4661
4661 4680 401 402
106 107 4681 4662
4662 4681 4682 4663
4663 4682 4683 4664
4664 4683 4684 4665
4665 4684 4685 4666
4666 4685 4686 4667
4667 4686 4687 4668
4668 4687 4688 4669
4669 4688 4689 4670
4670 4689 4690 4671
4671 4690 4691 4672
4672 4691 4692 4673
4673 4692 4693 4674
4674 4693 4694 4675
4675 4694 4695 4676
4676 4695 4696 4677
4677 4696 4697 4678
4678 4697 4698 4679
4679 4698 4699 4680
4680 4699 400 401
107 4 380 4681
4681 380 379 4682
4682 379 378 4683
4683 378 377 4684
4684 377 376 4685
4685 376 375 4686
4686 375 374 4687
4687 374 373 4688
4688 373 372 4689
4689 372 371 4690
4690 371 370 4691
4691 370 369 4692
4692 369 368 4693
4693 368 367 4694
4694 367 366 4695
4695 366 365 4696
4696 365 364 4697
4697 364 363 4698
4698 363 362 4699
4699 362 9 400
5 147 4700 399
399 4700 4701 398
398 4701 4702 397
397 4702 4703 396
396 4703 4704 395
395 4704 4705 394
394 4705 4706 393
393 4706 4707 392
392 4707 4708 391
391 4708 4709 390
390 4709 4710 389
389 4710 4711 388
388 4711 4712 387
387 4712 4713 386
386 4713 4714 385
385 4714 4715 384
384 4715 4716 383
383 4716 4717 382
382 4717 4718 381
381 4718 419 10
147 148 4719 4700
4700 4719 4720 4701
4701 4720 4721 4702
4702 4721 4722 4703
4703 4722 4723 4704
4704 4723 4724 4705
4705 4724 4725 4706
4706 4725 4726 4707
4707 4726 4727 4708
4708 4727 4728 4709
4709 4728 4729 4710
4710 4729 4730 4711
4711 4730 4731 4712
4712 4731 4732 4713
4713 4732 4733 4714
4714 4733 4734 4715
4715 4734 4735 4716
4716 4735 4736 4717
4717 4736 4737 4718
4718 4737 420 419
148 149 4738 4719
4719 4738 4739 4720
4720 4739 4740 4721
4721 4740 4741 4722
4722 4741 4742 4723
4723 4742 4743 4724
4724 4743 4744 4725
4725 4744 4745 4726
4726 4745 4746 4727
4727 4746 4747 4728
4728 4747 4748 4729
4729 4748 4749 4730
4730 4749 4750 4731
4731 4750 4751 4732
4732 4751 4752 4733
4733 4752 4753 4734
4734 4753 4754 4735
4735 4754 4755 4736
4736 4755 4756 4737
4737 4756 421 420
149 150 4757 4738
4738 4757 4758 4739
4739 4758 4759 4740
4740 4759 4760 4741
4741 4760 4761 4742
4742 4761 4762 4743
4743 4762 4763 4744
4744 4763 4764 4745
4745 4764 4765 4746
4746 4765 4766 4747
4747 4766 4767 4748
4748 4767 4768 4749
4749 4768 4769 4750
4750 4769 4770 4751
4751 4770 4771 4752
4752 4771 4772 4753
4753 4772 4773 4754
4754 4773 4774 4755
4755 4774 4775 4756
4756 4775 422 421
150 151 4776 4757
4757 4776 4777 4758
4758 4777 4778 4759
4759 4778 4779 4760
4760 4779 4780 4761
4761 4780 4781 4762
4762 4781 4782 4763
4763 4782 4783 4764
4764 4783 4784 4765
4765 4784 4785 4766
4766 4785 4786 4767
4767 4786 4787 4768
4768 4787 4788 4769
4769 4788 4789 4770
4770 4789 4790 4771
4771 4790 4791 4772
4772 4791 4792 4773
4773 4792 4793 4774
4774 4793 4794 4775
4775 4794 423 422
151 152 4795 4776
4776 4795 4796 4777
4777 4796 4797 4778
4778 4797 4798 4779
4779 4798 4799 4780
4780 4799 4800 4781
4781 4800 4801 4782
4782 4801 4802 4783
4783 4802 4803 4784
4784 4803 4804 4785
4785 4804 4805 4786
4786 4805 4806 4787
4787 4806 4807 4788
4788 4807 4808 4789
4789 4808 4809 4790
4790 4809 4810 4791
4791 4810 4811 4792
4792 4811 4812 4793
4793 4812 4813 4794
4794 4813 424 423
152 153 4814 4795
4795 4814 4815 4796
4796 4815 4816 4797
4797 4816 4817 4798
4798 4817 4818 4799
4799 4818 4819 4800
4800 4819 4820 4801
4801 4820 4821 4802
4802 4821 4822 4803
4803 4822 4823 4804
4804 4823 4824 4805
4805 4824 4825 4806
4806 4825 4826 4807
4807 4826 4827 4808
4808 4827 4828 4809
4809 4828 4829 4810
4810 4829 4830 4811
4811 4830 4831 4812
4812 4831 4832 4813
4813 4832 425 424
153 154 4833 4814
4814 4833 4834 4815
4815 4834 4835 4816
4816 4835 4836 4817
4817 4836 4837 4818
4818 4837 4838 4819
4819 4838 4839 4820
4820 4839 4840 4821
4821 4840 4841 4822
4822 4841 4842 4823
4823 4842 4843 4824
4824 4843 4844 4825
4825 4844 4845 4826
4826 4845 4846 4827
4827 4846 4847 4828
4828 4847 4848 4829
4829 4848 4849 4830
4830 4849 4850 4831
4831 4850 4851 4832
4832 4851 426 425
154 155 4852 4833
4833 4852 4853 4834
4834 4853 4854 4835
4835 4854 4855 4836
4836 4855 4856 4837
4837 4856 4857 4838
4838 4857 4858 4839
4839 4858 4859 4840
4840 4859 4860 4841
4841 4860 4861 4842
4842 4861 4862 4843
4843 4862 4863 4844
4844 4863 4864 4845
4845 4864 4865 4846
4846 4865 4866 4847
4847 4866 4867 4848
4848 4867 4868 4849
4849 4868 4869 4850
4850 4869 4870 4851
4851 4870 427 426
155 156 4871 4852
4852 4871 4872 4853
4853 4872 4873 4854
4854 4873 4874 4855
4855 4874 4875 4856
4856 4875 4876 4857
4857 4876 4877 4858
4858 4877 4878 4859
4859 4878 4879 4860
4860 4879 4880 4861
4861 4880 4881 4862
4862 4881 4882 4863
4863 4882 4883 4864
4864 4883 4884 4865
4865 4884 4885 4866
4866 4885 4886 4867
4867 4886 4887 4868
4868 4887 4888 4869
4869 4888 4889 4870
4870 4889 428 427
156 157 4890 4871
4871 4890 4891 4872
4872 4891 4892 4873
4873 4892 4893 4874
4874 4893 4894 4875
4875 4894 4895 4876
4876 4895 4896 4877
4877 4896 4897 4878
4878 4897 4898 4879
4879 4898 4899 4880
4880 4899 4900 4881
4881 4900 4901 4882
4882 4901 4902 4883
4883 4902 4903 4884
4884 4903 4904 4885
4885 4904 4905 4886
4886 4905 4906 4887
4887 4906 4907 4888
4888 4907 4908 4889
4889 4908 429 428
157 158 4909 4890
4890 4909 4910 4891
4891 4910 4911 4892
4892 4911 4912 4893
4893 4912 4913 4894
4894 4913 4914 4895
4895 4914 4915 4896
4896 4915 4916 4897
4897 4916 4917 4898
4898 4917 4918 4899
4899 4918 4919 4900
4900 4919 4920 4901
4901 4920 4921 4902
4902 4921 4922 4903
4903 4922 4923 4904
4904 4923 4924 4905
4905 4924 4925 4906
4906 4925 4926 4907
4907 4926 4927 4908
4908 4927 430 429
158 159 4928 4909
4909 4928 4929 4910
4910 4929 4930 4911
4911 4930 4931 4912
4912 4931 4932 4913
4913 4932 4933 4914
4914 4933 4934 4915
4915 4934 4935 4916
4916 4935 4936 4917
4917 4936 4937 4918
4918 4937 4938 4919
4919 4938 4939 4920
4920 4939 4940 4921
4921 4940 4941 4922
4922 4941 4942 4923
4923 4942 4943 4924
4924 4943 4944 4925
4925 4944 4945 4926
4926 4945 4946 4927
4927 4946 431 430
159 160 4947 4928
4928 4947 4948 4929
4929 4948 4949 4930
4930 4949 4950 4931
4931 4950 4951 4932
4932 4951 4952 4933
4933 4952 4953 4934
4934 4953 4954 4935
4935 4954 4955 4936
4936 4955 4956 4937
4937 4956 4957 4938
4938 4957 4958 4939
4939 4958 4959 4940
4940 4959 4960 4941
4941 4960 4961 4942
4942 4961 4962 4943
4943 4962 4963 4944
4944 4963 4964 4945
4945 4964 4965 4946
4946 4965 432 431
160 161 4966 4947
4947 4966 4967 4948
4948 4967 4968 4949
4949 4968 4969 4950
4950 4969 4970 4951
4951 4970 4971 4952
4952 4971 4972 4953
4953 4972 4973 4954
4954 4973 4974 4955
4955 4974 4975 4956
4956 4975 4976 4957
4957 4976 4977 4958
4958 4977 4978 4959
4959 4978 4979 4960
4960 4979 4980 4961
4961 4980 4981 4962
4962 4981 4982 4963
4963 4982 4983 4964
4964 4983 4984 4965
4965 4984 433 432
161 162 4985 4966
4966 4985 4986 4967
4967 4986 4987 4968
4968 4987 4988 4969
4969 4988 4989 4970
4970 4989 4990 4971
4971 4990 4991 4972
4972 4991 4992 4973
4973 4992 4993 4974
4974 4993 4994 4975
4975 4994 4995 4976
4976 4995 4996 4977
4977 4996 4997 4978
4978 4997 4998 4979
4979 4998 4999 4980
4980 4999 5000 4981
4981 5000 5001 4982
4982 5001 5002 4983
4983 5002 5003 4984
4984 5003 434 433
162 163 5004 4985
4985 5004 5005 4986
4986 5005 5006 4987
4987 5006 5007 4988
4988 5007 5008 4989
4989 5008 5009 4990
4990 5009 5010 4991
4991 5010 5011 4992
4992 5011 5012 4993
4993 5012 5013 4994
4994 5013 5014 4995
4995 5014 5015 4996
4996 5015 5016 4997
4997 5016 5017 4998
4998 5017 5018 4999
4999 5018 5019 5000
5000 5019 5020 5001
5001 5020 5021 5002
5002 5021 5022 5003
5003 5022 435 434
163 164 5023 5004
5004 5023 5024 5005
5005 5024 5025 5006
5006 5025 5026 5007
5007 5026 5027 5008
5008 5027 5028 5009
5009 5028 5029 5010
5010 5029 5030 5011
5011 5030 5031 5012
5012 5031 5032 5013
5013 5032 5033 5014
5014 5033 5034 5015
5015 5034 5035 5016
5016 5035 5036 5017
5017 5036 5037 5018
5018 5037 5038 5019
5019 5038 5039 5020
5020 5039 5040 5021
5021 5040 5041 5022
5022 5041 436 435
164 165 5042 5023
5023 5042 5043 5024
5024 5043 5044 5025
5025 5044 5045 5026
5026 5045 5046 5027
5027 5046 5047 5028
5028 5047 5048 5029
5029 5048 5049 5030
5030 5049 5050 5031
5031 5050 5051 5032
5032 5051 5052 5033
5033 5052 5053 5034
5034 5053 5054 5035
5035 5054 5055 5036
5036 5055 5056 5037
5037 5056 5057 5038
5038 5057 5058 5039
5039 5058 5059 5040
5040 5059 5060 5041
5041 5060 437 436
165 6 242 5042
5042 242 241 5043
5043 241 240 5044
5044 240 239 5045
5045 239 238 5046
5046 238 237 5047
5047 237 236 5048
5048 236 235 5049
5049 235 234 5050
5050 234 233 5051
5051 233 232 5052
5052 232 231 5053
5053 231 230 5054
5054 230 229 5055
5055 229 228 5056
5056 228 227 5057
5057 227 226 5058
5058 226 225 5059
5059 225 224 5060
5060 224 8 437
9 323 5061 400
400 5061 5062 401
401 5062 5063 402
402 5063 5064 403
403 5064 5065 404
404 5065 5066 405
405 5066 5067 406
406 5067 5068 407
407 5068 5069 408
408 5069 5070 409
409 5070 5071 410
410 5071 5072 411
411 5072 5073 412
412 5073 5074 413
413 5074 5075 414
414 5075 5076 415
415 5076 5077 416
416 5077 5078 417
417 5078 5079 418
418 5079 185 7
323 324 5080 5061
5061 5080 5081 5062
5062 5081 5082 5063
5063 5082 5083 5064
5064 5083 5084 5065
5065 5084 5085 5066
5066 5085 5086 5067
5067 5086 5087 5068
5068 5087 5088 5069
5069 5088 5089 5070
5070 5089 5090 5071
5071 5090 5091 5072
5072 5091 5092 5073
5073 5092 5093 5074
5074 5093 5094 5075
5075 5094 5095 5076
5076 5095 5096 5077
5077 5096 5097 5078
5078 5097 5098 5079
5079 5098 186 185
324 325 5099 5080
5080 5099 5100 5081
5081 5100 5101 5082
5082 5101 5102 5083
5083 5102 5103 5084
5084 5103 5104 5085
5085 5104 5105 5086
5086 5105 5106 5087
5087 5106 5107 5088
5088 5107 5108 5089
5089 5108 5109 5090
5090 5109 5110 5091
5091 5110 5111 5092
5092 5111 5112 5093
5093 5112 5113 5094
5094 5113 5114 5095
5095 5114 5115 5096
5096 5115 5116 5097
5097 5116 5117 5098
5098 5117 187 186
325 326 5118 5099
5099 5118 5119 5100
5100 5119 5120 5101
5101 5120 5121 5102
5102 5121 5122 5103
5103 5122 5123 5104
5104 5123 5124 5105
5105 5124 5125 5106
5106 5125 5126 5107
5107 5126 5127 5108
5108 5127 5128 5109
5109 5128 5129 5110
5110 5129 5130 5111
5111 5130 5131 5112
5112 5131 5132 5113
5113 5132 5133 5114
5114 5133 5134 5115
5115 5134 5135 5116
5116 5135 5136 5117
5117 5136 188 187
326 327 5137 5118
5118 5137 5138 5119
5119 5138 5139 5120
5120 5139 5140 5121
5121 5140 5141 5122
5122 5141 5142 5123
5123 5142 5143 5124
5124 5143 5144 5125
5125 5144 5145 5126
5126 5145 5146 5127
5127 5146 5147 5128
5128 5147 5148 5129
5129 5148 5149 5130
5130 5149 5150 5131
5131 5150 5151 5132
5132 5151 5152 5133
5133 5152 5153 5134
5134 5153 5154 5135
5135 5154 5155 5136
5136 5155 189 188
327 328 5156 5137
5137 5156 5157 5138
5138 5157 5158 5139
5139 5158 5159 5140
5140 5159 5160 5141
5141 5160 5161 5142
5142 5161 5162 5143
5143 5162 5163 5144
5144 5163 5164 5145
5145 5164 5165 5146
5146 5165 5166 5147
5147 5166 5167 5148
5148 5167 5168 5149
5149 5168 5169 5150
5150 5169 5170 5151
5151 5170 5171 5152
5152 5171 5172 5153
5153 5172 5173 5154
5154 5173 5174 5155
5155 5174 190 189
328 329 5175 5156
5156 5175 5176 5157
5157 5176 5177 5158
5158 5177 5178 5159
5159 5178 5179 5160
5160 5179 5180 5161
5161 5180 5181 5162
5162 5181 5182 5163
5163 5182 5183 5164
5164 5183 5184 5165
5165 5184 5185 5166
5166 5185 5186 5167
5167 5186 5187 5168
5168 5187 5188 5169
5169 5188 5189 5170
5170 5189 5190 5171
5171 5190 5191 5172
5172 5191 5192 5173
5173 5192 5193 5174
5174 5193 191 190
329 330 5194 5175
5175 5194 5195 5176
5176 5195 5196 5177
5177 5196 5197 5178
5178 5197 5198 5179
5179 5198 5199 5180
5180 5199 5200 5181
5181 5200 5201 5182
5182 5201 5202 5183
5183 5202 5203 5184
5184 5203 5204 5185
5185 5204 5205 5186
5186 5205 5206 5187
5187 5206 5207 5188
5188 5207 5208 5189
5189 5208 5209 5190
5190 5209 5210 5191
5191 5210 5211 5192
5192 5211 5212 5193
5193 5212 192 191
330 331 5213 5194
5194 5213 5214 5195
5195 5214 5215 5196
5196 5215 5216 5197
5197 5216 5217 5198
5198 5217 5218 5199
5199 5218 5219 5200
5200 5219 5220 5201
5201 5220 5221 5202
5202 5221 5222 5203
5203 5222 5223 5204
5204 5223 5224 5205
5205 5224 5225 5206
5206 5225 5226 5207
5207 5226 5227 5208
5208 5227 5228 5209
5209 5228 5229 5210
5210 5229 5230 5211
5211 5230 5231 5212
5212 5231 193 192
331 332 5232 5213
5213 5232 5233 5214
5214 5233 5234 5215
5215 5234 5235 5216
5216 5235 5236 5217
5217 5236 5237 5218
5218 5237 5238 5219
5219 5238 5239 5220
5220 5239 5240 5221
5221 5240 5241 5222
5222 5241 5242 5223
5223 5242 5243 5224
5224 5243 5244 5225
5225 5244 5245 5226
5226 5245 5246 5227
5227 5246 5247 5228
5228 5247 5248 5229
5229 5248 5249 5230
5230 5249 5250 5231
5231 5250 194 193
332 333 5251 5232
5232 5251 5252 5233
5233 5252 5253 5234
5234 5253 5254 5235
5235 5254 5255 5236
5236 5255 5256 5237
5237 5256 5257 5238
5238 5257 5258 5239
5239 5258 5259 5240
5240 5259 5260 5241
5241 5260 5261 5242
5242 5261 5262 5243
5243 5262 5263 5244
5244 5263 5264 5245
5245 5264 5265 5246
5246 5265 5266 5247
5247 5266 5267 5248
5248 5267 5268 5249
5249 5268 5269 5250
5250 5269 195 194
333 334 5270 5251
5251 5270 5271 5252
5252 5271 5272 5253
5253 5272 5273 5254
5254 5273 5274 5255
5255 5274 5275 5256
5256 5275 5276 5257
5257 5276 5277 5258
5258 5277 5278 5259
5259 5278 5279 5260
5260 5279 5280 5261
5261 5280 5281 5262
5262 5281 5282 5263
5263 5282 5283 5264
5264 5283 5284 5265
5265 5284 5285 5266
5266 5285 5286 5267
5267 5286 5287 5268
5268 5287 5288 5269
5269 5288 196 195
334 335 5289 5270
5270 5289 5290 5271
5271 5290 5291 5272
5272 5291 5292 5273
5273 5292 5293 5274
5274 5293 5294 5275
5275 5294 5295 5276
5276 5295 5296 5277
5277 5296 5297 5278
5278 5297 5298 5279
5279 5298 5299 5280
5280 5299 5300 5281
5281 5300 5301 5282
5282 5301 5302 5283
5283 5302 5303 5284
5284 5303 5304 5285
5285 5304 5305 5286
5286 5305 5306 5287
5287 5306 5307 5288
5288 5307 197 196
335 336 5308 5289
5289 5308 5309 5290
5290 5309 5310 5291
5291 5310 5311 5292
5292 5311 5312 5293
5293 5312 5313 5294
5294 5313 5314 5295
5295 5314 5315 5296
5296 5315 5316 5297
5297 5316 5317 5298
5298 5317 5318 5299
5299 5318 5319 5300
5300 5319 5320 5301
5301 5320 5321 5302
5302 5321 5322 5303
5303 5322 5323 5304
5304 5323 5324 5305
5305 5324 5325 5306
5306 5325 5326 5307
5307 5326 198 197
336 337 5327 5308
5308 5327 5328 5309
5309 5328 5329 5310
5310 5329 5330 5311
5311 5330 5331 5312
5312 5331 5332 5313
5313 5332 5333 5314
5314 5333 5334 5315
5315 5334 5335 5316
5316 5335 5336 5317
5317 5336 5337 5318
5318 5337 5338 5319
5319 5338 5339 5320
5320 5339 5340 5321
5321 5340 5341 5322
5322 5341 5342 5323
5323 5342 5343 5324
5324 5343 5344 5325
5325 5344 5345 5326
5326 5345 199 198
337 338 5346 5327
5327 5346 5347 5328
5328 5347 5348 5329
5329 5348 5349 5330
5330 5349 5350 5331
5331 5350 5351 5332
5332 5351 5352 5333
5333 5352 5353 5334
5334 5353 5354 5335
5335 5354 5355 5336
5336 5355 5356 5337
5337 5356 5357 5338
5338 5357 5358 5339
5339 5358 5359 5340
5340 5359 5360 5341
5341 5360 5361 5342
5342 5361 5362 5343
5343 5362 5363 5344
5344 5363 5364 5345
5345 5364 200 199
338 339 5365 5346
5346 5365 5366 5347
5347 5366 5367 5348
5348 5367 5368 5349
5349 5368 5369 5350
5350 5369 5370 5351
5351 5370 5371 5352
5352 5371 5372 5353
5353 5372 5373 5354
5354 5373 5374 5355
5355 5374 5375 5356
5356 5375 5376 5357
5357 5376 5377 5358
5358 5377 5378 5359
5359 5378 5379 5360
5360 5379 5380 5361
5361 5380 5381 5362
5362 5381 5382 5363
5363 5382 5383 5364
5364 5383 201 200
339 340 5384 5365
5365 5384 5385 5366
5366 5385 5386 5367
5367 5386 5387 5368
5368 5387 5388 5369
5369 5388 5389 5370
5370 5389 5390 5371
5371 5390 5391 5372
5372 5391 5392 5373
5373 5392 5393 5374
5374 5393 5394 5375
5375 5394 5395 5376
5376 5395 5396 5377
5377 5396 5397 5378
5378 5397 5398 5379
5379 5398 5399 5380
5380 5399 5400 5381
5381 5400 5401 5382
5382 5401 5402 5383
5383 5402 202 201
340 341 5403 5384
5384 5403 5404 5385
5385 5404 5405 5386
5386 5405 5406 5387
5387 5406 5407 5388
5388 5407 5408 5389
5389 5408 5409 5390
5390 5409 5410 5391
5391 5410 5411 5392
5392 5411 5412 5393
5393 5412 5413 5394
5394 5413 5414 5395
5395 5414 5415 5396
5396 5415 5416 5397
5397 5416 5417 5398
5398 5417 5418 5399
5399 5418 5419 5400
5400 5419 5420 5401
5401 5420 5421 5402
5402 5421 203 202
341 342 5422 5403
5403 5422 5423 5404
5404 5423 5424 5405
5405 5424 5425 5406
5406 5425 5426 5407
5407 5426 5427 5408
5408 5427 5428 5409
5409 5428 5429 5410
5410 5429 5430 5411
5411 5430 5431 5412
5412 5431 5432 5413
5413 5432 5433 5414
5414 5433 5434 5415
5415 5434 5435 5416
5416 5435 5436 5417
5417 5436 5437 5418
5418 5437 5438 5419
5419 5438 5439 5420
5420 5439 5440 5421
5421 5440 204 203
342 343 5441 5422
5422 5441 5442 5423
5423 5442 5443 5424
5424 5443 5444 5425
5425 5444 5445 5426
5426 5445 5446 5427
5427 5446 5447 5428
5428 5447 5448 5429
5429 5448 5449 5430
5430 5449 5450 5431
5431 5450 5451 5432
5432 5451 5452 5433
5433 5452 5453 5434
5434 5453 5454 5435
5435 5454 5455 5436
5436 5455 5456 5437
5437 5456 5457 5438
5438 5457 5458 5439
5439 5458 5459 5440
5440 5459 205 204
343 344 5460 5441
5441 5460 5461 5442
5442 5461 5462 5443
5443 5462 5463 5444
5444 5463 5464 5445
5445 5464 5465 5446
5446 5465 5466 5447
5447 5466 5467 5448
5448 5467 5468 5449
5449 5468 5469 5450
5450 5469 5470 5451
5451 5470 5471 5452
5452 5471 5472 5453
5453 5472 5473 5454
5454 5473 5474 5455
5455 5474 5475 5456
5456 5475 5476 5457
5457 5476 5477 5458
5458 5477 5478 5459
5459 5478 206 205
344 345 5479 5460
5460 5479 5480 5461
5461 5480 5481 5462
5462 5481 5482 5463
5463 5482 5483 5464
5464 5483 5484 5465
5465 5484 5485 5466
5466 5485 5486 5467
5467 5486 5487 5468
5468 5487 5488 5469
5469 5488 5489 5470
5470 5489 5490 5471
5471 5490 5491 5472
5472 5491 5492 5473
5473 5492 5493 5474
5474 5493 5494 5475
5475 5494 5495 5476
5476 5495 5496 5477
5477 5496 5497 5478
5478 5497 207 206
345 346 5498 5479
5479 5498 5499 5480
5480 5499 5500 5481
5481 5500 5501 5482
5482 5501 5502 5483
5483 5502 5503 5484
5484 5503 5504 5485
5485 5504 5505 5486
5486 5505 5506 5487
5487 5506 5507 5488
5488 5507 5508 5489
5489 5508 5509 5490
5490 5509 5510 5491
5491 5510 5511 5492
5492 5511 5512 5493
5493 5512 5513 5494
5494 5513 5514 5495
5495 5514 5515 5496
5496 5515 5516 5497
5497 5516 208 207
346 347 5517 5498
5498 5517 5518 5499
5499 5518 5519 5500
5500 5519 5520 5501
5501 5520 5521 5502
5502 5521 5522 5503
5503 5522 5523 5504
5504 5523 5524 5505
5505 5524 5525 5506
5506 5525 5526 5507
5507 5526 5527 5508
5508 5527 5528 5509
5509 5528 5529 5510
5510 5529 5530 5511
5511 5530 5531 5512
5512 5531 5532 5513
5513 5532 5533 5514
5514 5533 5534 5515
5515 5534 5535 5516
5516 5535 209 208
347 348 5536 5517
5517 5536 5537 5518
5518 5537 5538 5519
5519 5538 5539 5520
5520 5539 5540 5521
5521 5540 5541 5522
5522 5541 5542 5523
5523 5542 5543 5524
5524 5543 5544 5525
5525 5544 5545 5526
5526 5545 5546 5527
5527 5546 5547 5528
5528 5547 5548 5529
5529 5548 5549 5530
5530 5549 5550 5531
5531 5550 5551 5532
5532 5551 5552 5533
5533 5552 5553 5534
5534 5553 5554 5535
5535 5554 210 209
348 349 5555 5536
5536 5555 5556 5537
5537 5556 5557 5538
5538 5557 5558 5539
5539 5558 5559 5540
5540 5559 5560 5541
5541 5560 5561 5542
5542 5561 5562 5543
5543 5562 5563 5544
5544 5563 5564 5545
5545 5564 5565 5546
5546 5565 5566 5547
5547 5566 5567 5548
5548 5567 5568 5549
5549 5568 5569 5550
5550 5569 5570 5551
5551 5570 5571 5552
5552 5571 5572 5553
5553 5572 5573 5554
5554 5573 211 210
349 350 5574 5555
5555 5574 5575 5556
5556 5575 5576 5557
5557 5576 5577 5558
5558 5577 5578 5559
5559 5578 5579 5560
5560 5579 5580 5561
5561 5580 5581 5562
5562 5581 5582 5563
5563 5582 5583 5564
5564 5583 5584 5565
5565 5584 5585 5566
5566 5585 5586 5567
5567 5586 5587 5568
5568 5587 5588 5569
5569 5588 5589 5570
5570 5589 5590 5571
5571 5590 5591 5572
5572 5591 5592 5573
5573 5592 212 211
350 351 5593 5574
5574 5593 5594 5575
5575 5594 5595 5576
5576 5595 5596 5577
5577 5596 5597 5578
5578 5597 5598 5579
5579 5598 5599 5580
5580 5599 5600 5581
5581 5600 5601 5582
5582 5601 5602 5583
5583 5602 5603 5584
5584 5603 5604 5585
5585 5604 5605 5586
5586 5605 5606 5587
5587 5606 5607 5588
5588 5607 5608 5589
5589 5608 5609 5590
5590 5609 5610 5591
5591 5610 5611 5592
5592 5611 213 212
351 352 5612 5593
5593 5612 5613 5594
5594 5613 5614 5595
5595 5614 5615 5596
5596 5615 5616 5597
5597 5616 5617 5598
5598 5617 5618 5599
5599 5618 5619 5600
5600 5619 5620 5601
5601 5620 5621 5602
5602 5621 5622 5603
5603 5622 5623 5604
5604 5623 5624 5605
5605 5624 5625 5606
5606 5625 5626 5607
5607 5626 5627 5608
5608 5627 5628 5609
5609 5628 5629 5610
5610 5629 5630 5611
5611 5630 214 213
352 353 5631 5612
5612 5631 5632 5613
5613 5632 5633 5614
5614 5633 5634 5615
5615 5634 5635 5616
5616 5635 5636 5617
5617 5636 5637 5618
5618 5637 5638 5619
5619 5638 5639 5620
5620 5639 5640 5621
5621 5640 5641 5622
5622 5641 5642 5623
5623 5642 5643 5624
5624 5643 5644 5625
5625 5644 5645 5626
5626 5645 5646 5627
5627 5646 5647 5628
5628 5647 5648 5629
5629 5648 5649 5630
5630 5649 215 214
353 354 5650 5631
5631 5650 5651 5632
5632 5651 5652 5633
5633 5652 5653 5634
5634 5653 5654 5635
5635 5654 5655 5636
5636 5655 5656 5637
5637 5656 5657 5638
5638 5657 5658 5639
5639 5658 5659 5640
5640 5659 5660 5641
5641 5660 5661 5642
5642 5661 5662 5643
5643 5662 5663 5644
5644 5663 5664 5645
5645 5664 5665 5646
5646 5665 5666 5647
5647 5666 5667 5648
5648 5667 5668 5649
5649 5668 216 215
354 355 5669 5650
5650 5669 5670 5651
5651 5670 5671 5652
5652 5671 5672 5653
5653 5672 5673 5654
5654 5673 5674 5655
5655 5674 5675 5656
5656 5675 5676 5657
5657 5676 5677 5658
5658 5677 5678 5659
5659 5678 5679 5660
5660 5679 5680 5661
5661 5680 5681 5662
5662 5681 5682 5663
5663 5682 5683 5664
5664 5683 5684 5665
5665 5684 5685 5666
5666 5685 5686 5667
5667 5686 5687 5668
5668 5687 217 216
355 356 5688 5669
5669 5688 5689 5670
5670 5689 5690 5671
5671 5690 5691 5672
5672 5691 5692 5673
5673 5692 5693 5674
5674 5693 5694 5675
5675 5694 5695 5676
5676 5695 5696 5677
5677 5696 5697 5678
5678 5697 5698 5679
5679 5698 5699 5680
5680 5699 5700 5681
5681 5700 5701 5682
5682 5701 5702 5683
5683 5702 5703 5684
5684 5703 5704 5685
5685 5704 5705 5686
5686 5705 5706 5687
5687 5706 218 217
356 357 5707 5688
5688 5707 5708 5689
5689 5708 5709 5690
5690 5709 5710 5691
5691 5710 5711 5692
5692 5711 5712 5693
5693 5712 5713 5694
5694 5713 5714 5695
5695 5714 5715 5696
5696 5715 5716 5697
5697 5716 5717 5698
5698 5717 5718 5699
5699 5718 5719 5700
5700 5719 5720 5701
5701 5720 5721 5702
5702 5721 5722 5703
5703 5722 5723 5704
5704 5723 5724 5705
5705 5724 5725 5706
5706 5725 219 218
357 358 5726 5707
5707 5726 5727 5708
5708 5727 5728 5709
5709 5728 5729 5710
5710 5729 5730 5711
5711 5730 5731 5712
5712 5731 5732 5713
5713 5732 5733 5714
5714 5733 5734 5715
5715 5734 5735 5716
5716 5735 5736 5717
5717 5736 5737 5718
5718 5737 5738 5719
5719 5738 5739 5720
5720 5739 5740 5721
5721 5740 5741 5722
5722 5741 5742 5723
5723 5742 5743 5724
5724 5743 5744 5725
5725 5744 220 219
358 359 5745 5726
5726 5745 5746 5727
5727 5746 5747 5728
5728 5747 5748 5729
5729 5748 5749 5730
5730 5749 5750 5731
5731 5750 5751 5732
5732 5751 5752 5733
5733 5752 5753 5734
5734 5753 5754 5735
5735 5754 5755 5736
5736 5755 5756 5737
5737 5756 5757 5738
5738 5757 5758 5739
5739 5758 5759 5740
5740 5759 5760 5741
5741 5760 5761 5742
5742 5761 5762 5743
5743 5762 5763 5744
5744 5763 221 220
359 360 5764 5745
5745 5764 5765 5746
5746 5765 5766 5747
5747 5766 5767 5748
5748 5767 5768 5749
5749 5768 5769 5750
5750 5769 5770 5751
5751 5770 5771 5752
5752 5771 5772 5753
5753 5772 5773 5754
5754 5773 5774 5755
5755 5774 5775 5756
5756 5775 5776 5757
5757 5776 5777 5758
5758 5777 5778 5759
5759 5778 5779 5760
5760 5779 5780 5761
5761 5780 5781 5762
5762 5781 5782 5763
5763 5782 222 221
360 361 5783 5764
5764 5783 5784 5765
5765 5784 5785 5766
5766 5785 5786 5767
5767 5786 5787 5768
5768 5787 5788 5769
5769 5788 5789 5770
5770 5789 5790 5771
5771 5790 5791 5772
5772 5791 5792 5773
5773 5792 5793 5774
5774 5793 5794 5775
5775 5794 5795 5776
5776 5795 5796 5777
5777 5796 5797 5778
5778 5797 5798 5779
5779 5798 5799 5780
5780 5799 5800 5781
5781 5800 5801 5782
5782 5801 223 222
361 10 419 5783
5783 419 420 5784
5784 420 421 5785
5785 421 422 5786
5786 422 423 5787
5787 423 424 5788
5788 424 425 5789
5789 425 426 5790
5790 426 427 5791
5791 427 428 5792
5792 428 429 5793
5793 429 430 5794
5794 430 431 5795
5795 431 432 5796
5796 432 433 5797
5797 433 434 5798
5798 434 435 5799
5799 435 436 5800
5800 436 437 5801
5801 437 8 223
</DataArray>
<DataArray type="Int64" Name="offsets" format="ascii">
4
8
12
16
20
24
28
32
36
40
44
48
52
56
60
64
68
72
76
80
84
88
92
96
100
104
108
112
116
120
124
128
132
136
140
144
148
152
156
160
164
168
172
176
180
184
188
192
196
200
204
208
212
216
220
224
228
232
236
240
244
248
252
256
260
264
268
272
276
280
284
288
292
296
300
304
308
312
316
320
324
328
332
336
340
344
348
352
356
360
364
368
372
376
380
384
388
392
396
400
404
408
412
416
420
424
428
432
436
440
444
448
452
456
460
464
468
472
476
480
484
488
492
496
500
504
508
512
516
520
524
528
532
536
540
544
548
552
556
560
564
568
572
576
580
584
588
592
596
600
604
608
612
616
620
624
628
632
636
640
644
648
652
656
660
664
668
672
676
680
684
688
692
696
700
704
708
712
716
720
724
728
732
736
740
744
748
752
756
760
764
768
772
776
780
784
788
792
796
800
804
808
812
816
820
824
828
832
836
840
844
848
852
856
860
864
868
872
876
880
884
888
892
896
900
904
908
912
916
920
924
928
932
936
940
944
948
952
956
960
964
968
972
976
980
984
988
992
996
1000
1004
1008
1012
1016
1020
1024
1028
1032
1036
1040
1044
1048
1052
1056
1060
1064
1068
1072
1076
1080
1084
1088
1092
1096
1100
1104
1108
1112
1116
1120
1124
1128
1132
1136
1140
1144
1148
1152
1156
1160
1164
1168
1172
1176
1180
1184
1188
1192
1196
1200
1204
1208
1212
1216
1220
1224
1228
1232
1236
1240
1244
1248
1252
1256
1260
1264
1268
1272
1276
1280
1284
1288
1292
1296
1300
1304
1308
1312
1316
1320
1324
1328
1332
1336
1340
1344
1348
1352
1356
1360
1364
1368
1372
1376
1380
1384
1388
1392
1396
1400
1404
1408
1412
1416
1420
1424
1428
1432
1436
1440
1444
1448
1452
1456
1460
1464
1468
1472
1476
1480
1484
1488
1492
1496
1500
1504
1508
1512
1516
1520
1524
1528
1532
1536
1540
1544
1548
1552
1556
1560
1564
1568
1572
1576
1580
1584
1588
1592
1596
1600
1604
1608
1612
1616
1620
1624
1628
1632
1636
1640
1644
1648
1652
1656
1660
1664
1668
1672
1676
1680
1684
1688
1692
1696
1700
1704
1708
1712
1716
1720
1724
1728
1732
1736
1740
1744
1748
1752
1756
1760
1764
1768
1772
1776
1780
1784
1788
1792
1796
1800
1804
1808
1812
1816
1820
1824
1828
1832
1836
1840
1844
1848
1852
1856
1860
1864
1868
1872
1876
1880
1884
1888
1892
1896
1900
1904
1908
1912
1916
1920
1924
1928
1932
1936
1940
1944
1948
1952
1956
1960
1964
1968
1972
1976
1980
1984
1988
1992
1996
2000
2004
2008
2012
2016
2020
2024
2028
2032
2036
2040
2044
2048
2052
2056
2060
2064
2068
2072
2076
2080
2084
2088
2092
2096
2100
2104
2108
2112
2116
2120
2124
2128
2132
2136
2140
2144
2148
2152
2156
2160
2164
2168
2172
2176
2180
2184
2188
2192
2196
2200
2204
2208
2212
2216
2220
2224
2228
2232
2236
2240
2244
2248
2252
2256
2260
2264
2268
2272
2276
2280
2284
2288
2292
2296
2300
2304
2308
2312
2316
2320
2324
2328
2332
2336
2340
2344
2348
2352
2356
2360
2364
2368
2372
2376
2380
2384
2388
2392
2396
2400
2404
2408
2412
2416
2420
2424
2428
2432
2436
2440
2444
2448
2452
2456
2460
2464
2468
2472
2476
2480
2484
2488
2492
2496
2500
2504
2508
2512
2516
2520
2524
2528
2532
2536
2540
2544
2548
2552
2556
2560
2564
2568
2572
2576
2580
2584
2588
2592
2596
2600
2604
2608
2612
2616
2620
2624
2628
2632
2636
2640
2644
2648
2652
2656
2660
2664
2668
2672
2676
2680
2684
2688
2692
2696
2700
2704
2708
2712
2716
2720
2724
2728
2732
2736
2740
2744
2748
2752
2756
2760
2764
2768
2772
2776
2780
2784
2788
2792
2796
2800
2804
2808
2812
2816
2820
2824
2828
2832
2836
2840
2844
2848
2852
2856
2860
2864
2868
2872
2876
2880
2884
2888
2892
2896
2900
2904
2908
2912
2916
2920
2924
2928
2932
2936
2940
2944
2948
2952
2956
2960
2964
2968
2972
2976
2980
2984
2988
2992
2996
3000
3004
3008
3012
3016
3020
3024
3028
3032
3036
3040
3044
3048
3052
3056
3060
3064
3068
3072
3076
3080
3084
3088
3092
3096
3100
3104
3108
3112
3116
3120
3124
3128
3132
3136
3140
3144
3148
3152
3156
3160
3164
3168
3172
3176
3180
3184
3188
3192
3196
3200
3204
3208
3212
3216
3220
3224
3228
3232
3236
3240
3244
3248
3252
3256
3260
3264
3268
3272
3276
3280
3284
3288
3292
3296
3300
3304
3308
3312
3316
3320
3324
3328
3332
3336
3340
3344
3348
3352
3356
3360
3364
3368
3372
3376
3380
3384
3388
3392
3396
3400
3404
3408
3412
3416
3420
3424
3428
3432
3436
3440
3444
3448
3452
3456
3460
3464
3468
3472
3476
3480
3484
3488
3492
3496
3500
3504
3508
3512
3516
3520
3524
3528
3532
3536
3540
3544
3548
3552
3556
3560
3564
3568
3572
3576
3580
3584
3588
3592
3596
3600
3604
3608
3612
3616
3620
3624
3628
3632
3636
3640
3644
3648
3652
3656
3660
3664
3668
3672
3676
3680
3684
3688
3692
3696
3700
3704
3708
3712
3716
3720
3724
3728
3732
3736
3740
3744
3748
3752
3756
3760
3764
3768
3772
3776
3780
3784
3788
3792
3796
3800
3804
3808
3812
3816
3820
3824
3828
3832
3836
3840
3844
3848
3852
3856
3860
3864
3868
3872
3876
3880
3884
3888
3892
3896
3900
3904
3908
3912
3916
3920
3924
3928
3932
3936
3940
3944
3948
3952
3956
3960
3964
3968
3972
3976
3980
3984
3988
3992
3996
4000
4004
4008
4012
4016
4020
4024
4028
4032
4036
4040
4044
4048
4052
4056
4060
4064
4068
4072
4076
4080
4084
4088
4092
4096
4100
4104
4108
4112
4116
4120
4124
4128
4132
4136
4140
4144
4148
4152
4156
4160
4164
4168
4172
4176
4180
4184
4188
4192
4196
4200
4204
4208
4212
4216
4220
4224
4228
4232
4236
4240
4244
4248
4252
4256
4260
4264
4268
4272
4276
4280
4284
4288
4292
4296
4300
4304
4308
4312
4316
4320
4324
4328
4332
4336
4340
4344
4348
4352
4356
4360
4364
4368
4372
4376
4380
4384
4388
4392
4396
4400
4404
4408
4412
4416
4420
4424
4428
4432
4436
4440
4444
4448
4452
4456
4460
4464
4468
4472
4476
4480
4484
4488
4492
4496
4500
4504
4508
4512
4516
4520
4524
4528
4532
4536
4540
4544
4548
4552
4556
4560
4564
4568
4572
4576
4580
4584
4588
4592
4596
4600
4604
4608
4612
4616
4620
4624
4628
4632
4636
4640
4644
4648
4652
4656
4660
4664
4668
4672
4676
4680
4684
4688
4692
4696
4700
4704
4708
4712
4716
4720
4724
4728
4732
4736
4740
4744
4748
4752
4756
4760
4764
4768
4772
4776
4780
4784
4788
4792
4796
4800
4804
4808
4812
4816
4820
4824
4828
4832
4836
4840
4844
4848
4852
4856
4860
4864
4868
4872
4876
4880
4884
4888
4892
4896
4900
4904
4908
4912
4916
4920
4924
4928
4932
4936
4940
4944
4948
4952
4956
4960
4964
4968
4972
4976
4980
4984
4988
4992
4996
5000
5004
5008
5012
5016
5020
5024
5028
5032
5036
5040
5044
5048
5052
5056
5060
5064
5068
5072
5076
5080
5084
5088
5092
5096
5100
5104
5108
5112
5116
5120
5124
5128
5132
5136
5140
5144
5148
5152
5156
5160
5164
5168
5172
5176
5180
5184
5188
5192
5196
5200
5204
5208
5212
5216
5220
5224
5228
5232
5236
5240
5244
5248
5252
5256
5260
5264
5268
5272
5276
5280
5284
5288
5292
5296
5300
5304
5308
5312
5316
5320
5324
5328
5332
5336
5340
5344
5348
5352
5356
5360
5364
5368
5372
5376
5380
5384
5388
5392
5396
5400
5404
5408
5412
5416
5420
5424
5428
5432
5436
5440
5444
5448
5452
5456
5460
5464
5468
5472
5476
5480
5484
5488
5492
5496
5500
5504
5508
5512
5516
5520
5524
5528
5532
5536
5540
5544
5548
5552
5556
5560
5564
5568
5572
5576
5580
5584
5588
5592
5596
5600
5604
5608
5612
5616
5620
5624
5628
5632
5636
5640
5644
5648
5652
5656
5660
5664
5668
5672
5676
5680
5684
5688
5692
5696
5700
5704
5708
5712
5716
5720
5724
5728
5732
5736
5740
5744
5748
5752
5756
5760
5764
5768
5772
5776
5780
5784
5788
5792
5796
5800
5804
5808
5812
5816
5820
5824
5828
5832
5836
5840
5844
5848
5852
5856
5860
5864
5868
5872
5876
5880
5884
5888
5892
5896
5900
5904
5908
5912
5916
5920
5924
5928
5932
5936
5940
5944
5948
5952
5956
5960
5964
5968
5972
5976
5980
5984
5988
5992
5996
6000
6004
6008
6012
6016
6020
6024
6028
6032
6036
6040
6044
6048
6052
6056
6060
6064
6068
6072
6076
6080
6084
6088
6092
6096
6100
6104
6108
6112
6116
6120
6124
6128
6132
6136
6140
6144
6148
6152
6156
6160
6164
6168
6172
6176
6180
6184
6188
6192
6196
6200
6204
6208
6212
6216
6220
6224
6228
6232
6236
6240
6244
6248
6252
6256
6260
6264
6268
6272
6276
6280
6284
6288
6292
6296
6300
6304
6308
6312
6316
6320
6324
6328
6332
6336
6340
6344
6348
6352
6356
6360
6364
6368
6372
6376
6380
6384
6388
6392
6396
6400
6404
6408
6412
6416
6420
6424
6428
6432
6436
6440
6444
6448
6452
6456
6460
6464
6468
6472
6476
6480
6484
6488
6492
6496
6500
6504
6508
6512
6516
6520
6524
6528
6532
6536
6540
6544
6548
6552
6556
6560
6564
6568
6572
6576
6580
6584
6588
6592
6596
6600
6604
6608
6612
6616
6620
6624
6628
6632
6636
6640
6644
6648
6652
6656
6660
6664
6668
6672
6676
6680
6684
6688
6692
6696
6700
6704
6708
6712
6716
6720
6724
6728
6732
6736
6740
6744
6748
6752
6756
6760
6764
6768
6772
6776
6780
6784
6788
6792
6796
6800
6804
6808
6812
6816
6820
6824
6828
6832
6836
6840
6844
6848
6852
6856
6860
6864
6868
6872
6876
6880
6884
6888
6892
6896
6900
6904
6908
6912
6916
6920
6924
6928
6932
6936
6940
6944
6948
6952
6956
6960
6964
6968
6972
6976
6980
6984
6988
6992
6996
7000
7004
7008
7012
7016
7020
7024
7028
7032
7036
7040
7044
7048
7052
7056
7060
7064
7068
7072
7076
7080
7084
7088
7092
7096
7100
7104
7108
7112
7116
7120
7124
7128
7132
7136
7140
7144
7148
7152
7156
7160
7164
7168
7172
7176
7180
7184
7188
7192
7196
7200
7204
7208
7212
7216
7220
7224
7228
7232
7236
7240
7244
7248
7252
7256
7260
7264
7268
7272
7276
7280
7284
7288
7292
7296
7300
7304
7308
7312
7316
7320
7324
7328
7332
7336
7340
7344
7348
7352
7356
7360
7364
7368
7372
7376
7380
7384
7388
7392
7396
7400
7404
7408
7412
7416
7420
7424
7428
7432
7436
7440
7444
7448
7452
7456
7460
7464
7468
7472
7476
7480
7484
7488
7492
7496
7500
7504
7508
7512
7516
7520
7524
7528
7532
7536
7540
7544
7548
7552
7556
7560
7564
7568
7572
7576
7580
7584
7588
7592
7596
7600
7604
7608
7612
7616
7620
7624
7628
7632
7636
7640
7644
7648
7652
7656
7660
7664
7668
7672
7676
7680
7684
7688
7692
7696
7700
7704
7708
7712
7716
7720
7724
7728
7732
7736
7740
7744
7748
7752
7756
7760
7764
7768
7772
7776
7780
7784
7788
7792
7796
7800
7804
7808
7812
7816
7820
7824
7828
7832
7836
7840
7844
7848
7852
7856
7860
7864
7868
7872
7876
7880
7884
7888
7892
7896
7900
7904
7908
7912
7916
7920
7924
7928
7932
7936
7940
7944
7948
7952
7956
7960
7964
7968
7972
7976
7980
7984
7988
7992
7996
8000
8004
8008
8012
8016
8020
8024
8028
8032
8036
8040
8044
8048
8052
8056
8060
8064
8068
8072
8076
8080
8084
8088
8092
8096
8100
8104
8108
8112
8116
8120
8124
8128
8132
8136
8140
8144
8148
8152
8156
8160
8164
8168
8172
8176
8180
8184
8188
8192
8196
8200
8204
8208
8212
8216
8220
8224
8228
8232
8236
8240
8244
8248
8252
8256
8260
8264
8268
8272
8276
8280
8284
8288
8292
8296
8300
8304
8308
8312
8316
8320
8324
8328
8332
8336
8340
8344
8348
8352
8356
8360
8364
8368
8372
8376
8380
8384
8388
8392
8396
8400
8404
8408
8412
8416
8420
8424
8428
8432
8436
8440
8444
8448
8452
8456
8460
8464
8468
8472
8476
8480
8484
8488
8492
8496
8500
8504
8508
8512
8516
8520
8524
8528
8532
8536
8540
8544
8548
8552
8556
8560
8564
8568
8572
8576
8580
8584
8588
8592
8596
8600
8604
8608
8612
8616
8620
8624
8628
8632
8636
8640
8644
8648
8652
8656
8660
8664
8668
8672
8676
8680
8684
8688
8692
8696
8700
8704
8708
8712
8716
8720
8724
8728
8732
8736
8740
8744
8748
8752
8756
8760
8764
8768
8772
8776
8780
8784
8788
8792
8796
8800
8804
8808
8812
8816
8820
8824
8828
8832
8836
8840
8844
8848
8852
8856
8860
8864
8868
8872
8876
8880
8884
8888
8892
8896
8900
8904
8908
8912
8916
8920
8924
8928
8932
8936
8940
8944
8948
8952
8956
8960
8964
8968
8972
8976
8980
8984
8988
8992
8996
9000
9004
9008
9012
9016
9020
9024
9028
9032
9036
9040
9044
9048
9052
9056
9060
9064
9068
9072
9076
9080
9084
9088
9092
9096
9100
9104
9108
9112
9116
9120
9124
9128
9132
9136
9140
9144
9148
9152
9156
9160
9164
9168
9172
9176
9180
9184
9188
9192
9196
9200
9204
9208
9212
9216
9220
9224
9228
9232
9236
9240
9244
9248
9252
9256
9260
9264
9268
9272
9276
9280
9284
9288
9292
9296
9300
9304
9308
9312
9316
9320
9324
9328
9332
9336
9340
9344
9348
9352
9356
9360
9364
9368
9372
9376
9380
9384
9388
9392
9396
9400
9404
9408
9412
9416
9420
9424
9428
9432
9436
9440
9444
9448
9452
9456
9460
9464
9468
9472
9476
9480
9484
9488
9492
9496
9500
9504
9508
9512
9516
9520
9524
9528
9532
9536
9540
9544
9548
9552
9556
9560
9564
9568
9572
9576
9580
9584
9588
9592
9596
9600
9604
9608
9612
9616
9620
9624
9628
9632
9636
9640
9644
9648
9652
9656
9660
9664
9668
9672
9676
9680
9684
9688
9692
9696
9700
9704
9708
9712
9716
9720
9724
9728
9732
9736
9740
9744
9748
9752
9756
9760
9764
9768
9772
9776
9780
9784
9788
9792
9796
9800
9804
9808
9812
9816
9820
9824
9828
9832
9836
9840
9844
9848
9852
9856
9860
9864
9868
9872
9876
9880
9884
9888
9892
9896
9900
9904
9908
9912
9916
9920
9924
9928
9932
9936
9940
9944
9948
9952
9956
9960
9964
9968
9972
9976
9980
9984
9988
9992
9996
10000
10004
10008
10012
10016
10020
10024
10028
10032
10036
10040
10044
10048
10052
10056
10060
10064
10068
10072
10076
10080
10084
10088
10092
10096
10100
10104
10108
10112
10116
10120
10124
10128
10132
10136
10140
10144
10148
10152
10156
10160
10164
10168
10172
10176
10180
10184
10188
10192
10196
10200
10204
10208
10212
10216
10220
10224
10228
10232
10236
10240
10244
10248
10252
10256
10260
10264
10268
10272
10276
10280
10284
10288
10292
10296
10300
10304
10308
10312
10316
10320
10324
10328
10332
10336
10340
10344
10348
10352
10356
10360
10364
10368
10372
10376
10380
10384
10388
10392
10396
10400
10404
10408
10412
10416
10420
10424
10428
10432
10436
10440
10444
10448
10452
10456
10460
10464
10468
10472
10476
10480
10484
10488
10492
10496
10500
10504
10508
10512
10516
10520
10524
10528
10532
10536
10540
10544
10548
10552
10556
10560
10564
10568
10572
10576
10580
10584
10588
10592
10596
10600
10604
10608
10612
10616
10620
10624
10628
10632
10636
10640
10644
10648
10652
10656
10660
10664
10668
10672
10676
10680
10684
10688
10692
10696
10700
10704
10708
10712
10716
10720
10724
10728
10732
10736
10740
10744
10748
10752
10756
10760
10764
10768
10772
10776
10780
10784
10788
10792
10796
10800
10804
10808
10812
10816
10820
10824
10828
10832
10836
10840
10844
10848
10852
10856
10860
10864
10868
10872
10876
10880
10884
10888
10892
10896
10900
10904
10908
10912
10916
10920
10924
10928
10932
10936
10940
10944
10948
10952
10956
10960
10964
10968
10972
10976
10980
10984
10988
10992
10996
11000
11004
11008
11012
11016
11020
11024
11028
11032
11036
11040
11044
11048
11052
11056
11060
11064
11068
11072
11076
11080
11084
11088
11092
11096
11100
11104
11108
11112
11116
11120
11124
11128
11132
11136
11140
11144
11148
11152
11156
11160
11164
11168
11172
11176
11180
11184
11188
11192
11196
11200
11204
11208
11212
11216
11220
11224
11228
11232
11236
11240
11244
11248
11252
11256
11260
11264
11268
11272
11276
11280
11284
11288
11292
11296
11300
11304
11308
11312
11316
11320
11324
11328
11332
11336
11340
11344
11348
11352
11356
11360
11364
11368
11372
11376
11380
11384
11388
11392
11396
11400
11404
11408
11412
11416
11420
11424
11428
11432
11436
11440
11444
11448
11452
11456
11460
11464
11468
11472
11476
11480
11484
11488
11492
11496
11500
11504
11508
11512
11516
11520
11524
11528
11532
11536
11540
11544
11548
11552
11556
11560
11564
11568
11572
11576
11580
11584
11588
11592
11596
11600
11604
11608
11612
11616
11620
11624
11628
11632
11636
11640
11644
11648
11652
11656
11660
11664
11668
11672
11676
11680
11684
11688
11692
11696
11700
11704
11708
11712
11716
11720
11724
11728
11732
11736
11740
11744
11748
11752
11756
11760
11764
11768
11772
11776
11780
11784
11788
11792
11796
11800
11804
11808
11812
11816
11820
11824
11828
11832
11836
11840
11844
11848
11852
11856
11860
11864
11868
11872
11876
11880
11884
11888
11892
11896
11900
11904
11908
11912
11916
11920
11924
11928
11932
11936
11940
11944
11948
11952
11956
11960
11964
11968
11972
11976
11980
11984
11988
11992
11996
12000
12004
12008
12012
12016
12020
12024
12028
12032
12036
12040
12044
12048
12052
12056
12060
12064
12068
12072
12076
12080
12084
12088
12092
12096
12100
12104
12108
12112
12116
12120
12124
12128
12132
12136
12140
12144
12148
12152
12156
12160
12164
12168
12172
12176
12180
12184
12188
12192
12196
12200
12204
12208
12212
12216
12220
12224
12228
12232
12236
12240
12244
12248
12252
12256
12260
12264
12268
12272
12276
12280
12284
12288
12292
12296
12300
12304
12308
12312
12316
12320
12324
12328
12332
12336
12340
12344
12348
12352
12356
12360
12364
12368
12372
12376
12380
12384
12388
12392
12396
12400
12404
12408
12412
12416
12420
12424
12428
12432
12436
12440
12444
12448
12452
12456
12460
12464
12468
12472
12476
12480
12484
12488
12492
12496
12500
12504
12508
12512
12516
12520
12524
12528
12532
12536
12540
12544
12548
12552
12556
12560
12564
12568
12572
12576
12580
12584
12588
12592
12596
12600
12604
12608
12612
12616
12620
12624
12628
12632
12636
12640
12644
12648
12652
12656
12660
12664
12668
12672
12676
12680
12684
12688
12692
12696
12700
12704
12708
12712
12716
12720
12724
12728
12732
12736
12740
12744
12748
12752
12756
12760
12764
12768
12772
12776
12780
12784
12788
12792
12796
12800
12804
12808
12812
12816
12820
12824
12828
12832
12836
12840
12844
12848
12852
12856
12860
12864
12868
12872
12876
12880
12884
12888
12892
12896
12900
12904
12908
12912
12916
12920
12924
12928
12932
12936
12940
12944
12948
12952
12956
12960
12964
12968
12972
12976
12980
12984
12988
12992
12996
13000
13004
13008
13012
13016
13020
13024
13028
13032
13036
13040
13044
13048
13052
13056
13060
13064
13068
13072
13076
13080
13084
13088
13092
13096
13100
13104
13108
13112
13116
13120
13124
13128
13132
13136
13140
13144
13148
13152
13156
13160
13164
13168
13172
13176
13180
13184
13188
13192
13196
13200
13204
13208
13212
13216
13220
13224
13228
13232
13236
13240
13244
13248
13252
13256
13260
13264
13268
13272
13276
13280
13284
13288
13292
13296
13300
13304
13308
13312
13316
13320
13324
13328
13332
13336
13340
13344
13348
13352
13356
13360
13364
13368
13372
13376
13380
13384
13388
13392
13396
13400
13404
13408
13412
13416
13420
13424
13428
13432
13436
13440
13444
13448
13452
13456
13460
13464
13468
13472
13476
13480
13484
13488
13492
13496
13500
13504
13508
13512
13516
13520
13524
13528
13532
13536
13540
13544
13548
13552
13556
13560
13564
13568
13572
13576
13580
13584
13588
13592
13596
13600
13604
13608
13612
13616
13620
13624
13628
13632
13636
13640
13644
13648
13652
13656
13660
13664
13668
13672
13676
13680
13684
13688
13692
13696
13700
13704
13708
13712
13716
13720
13724
13728
13732
13736
13740
13744
13748
13752
13756
13760
13764
13768
13772
13776
13780
13784
13788
13792
13796
13800
13804
13808
13812
13816
13820
13824
13828
13832
13836
13840
13844
13848
13852
13856
13860
13864
13868
13872
13876
13880
13884
13888
13892
13896
13900
13904
13908
13912
13916
13920
13924
13928
13932
13936
13940
13944
13948
13952
13956
13960
13964
13968
13972
13976
13980
13984
13988
13992
13996
14000
14004
14008
14012
14016
14020
14024
14028
14032
14036
14040
14044
14048
14052
14056
14060
14064
14068
14072
14076
14080
14084
14088
14092
14096
14100
14104
14108
14112
14116
14120
14124
14128
14132
14136
14140
14144
14148
14152
14156
14160
14164
14168
14172
14176
14180
14184
14188
14192
14196
14200
14204
14208
14212
14216
14220
14224
14228
14232
14236
14240
14244
14248
14252
14256
14260
14264
14268
14272
14276
14280
14284
14288
14292
14296
14300
14304
14308
14312
14316
14320
14324
14328
14332
14336
14340
14344
14348
14352
14356
14360
14364
14368
14372
14376
14380
14384
14388
14392
14396
14400
14404
14408
14412
14416
14420
14424
14428
14432
14436
14440
14444
14448
14452
14456
14460
14464
14468
14472
14476
14480
14484
14488
14492
14496
14500
14504
14508
14512
14516
14520
14524
14528
14532
14536
14540
14544
14548
14552
14556
14560
14564
14568
14572
14576
14580
14584
14588
14592
14596
14600
14604
14608
14612
14616
14620
14624
14628
14632
14636
14640
14644
14648
14652
14656
14660
14664
14668
14672
14676
14680
14684
14688
14692
14696
14700
14704
14708
14712
14716
14720
14724
14728
14732
14736
14740
14744
14748
14752
14756
14760
14764
14768
14772
14776
14780
14784
14788
14792
14796
14800
14804
14808
14812
14816
14820
14824
14828
14832
14836
14840
14844
14848
14852
14856
14860
14864
14868
14872
14876
14880
14884
14888
14892
14896
14900
14904
14908
14912
14916
14920
14924
14928
14932
14936
14940
14944
14948
14952
14956
14960
14964
14968
14972
14976
14980
14984
14988
14992
14996
15000
15004
15008
15012
15016
15020
15024
15028
15032
15036
15040
15044
15048
15052
15056
15060
15064
15068
15072
15076
15080
15084
15088
15092
15096
15100
15104
15108
15112
15116
15120
15124
15128
15132
15136
15140
15144
15148
15152
15156
15160
15164
15168
15172
15176
15180
15184
15188
15192
15196
15200
15204
15208
15212
15216
15220
15224
15228
15232
15236
15240
15244
15248
15252
15256
15260
15264
15268
15272
15276
15280
15284
15288
15292
15296
15300
15304
15308
15312
15316
15320
15324
15328
15332
15336
15340
15344
15348
15352
15356
15360
15364
15368
15372
15376
15380
15384
15388
15392
15396
15400
15404
15408
15412
15416
15420
15424
15428
15432
15436
15440
15444
15448
15452
15456
15460
15464
15468
15472
15476
15480
15484
15488
15492
15496
15500
15504
15508
15512
15516
15520
15524
15528
15532
15536
15540
15544
15548
15552
15556
15560
15564
15568
15572
15576
15580
15584
15588
15592
15596
15600
15604
15608
15612
15616
15620
15624
15628
15632
15636
15640
15644
15648
15652
15656
15660
15664
15668
15672
15676
15680
15684
15688
15692
15696
15700
15704
15708
15712
15716
15720
15724
15728
15732
15736
15740
15744
15748
15752
15756
15760
15764
15768
15772
15776
15780
15784
15788
15792
15796
15800
15804
15808
15812
15816
15820
15824
15828
15832
15836
15840
15844
15848
15852
15856
15860
15864
15868
15872
15876
15880
15884
15888
15892
15896
15900
15904
15908
15912
15916
15920
15924
15928
15932
15936
15940
15944
15948
15952
15956
15960
15964
15968
15972
15976
15980
15984
15988
15992
15996
16000
16004
16008
16012
16016
16020
16024
16028
16032
16036
16040
16044
16048
16052
16056
16060
16064
16068
16072
16076
16080
16084
16088
16092
16096
16100
16104
16108
16112
16116
16120
16124
16128
16132
16136
16140
16144
16148
16152
16156
16160
16164
16168
16172
16176
16180
16184
16188
16192
16196
16200
16204
16208
16212
16216
16220
16224
16228
16232
16236
16240
16244
16248
16252
16256
16260
16264
16268
16272
16276
16280
16284
16288
16292
16296
16300
16304
16308
16312
16316
16320
16324
16328
16332
16336
16340
16344
16348
16352
16356
16360
16364
16368
16372
16376
16380
16384
16388
16392
16396
16400
16404
16408
16412
16416
16420
16424
16428
16432
16436
16440
16444
16448
16452
16456
16460
16464
16468
16472
16476
16480
16484
16488
16492
16496
16500
16504
16508
16512
16516
16520
16524
16528
16532
16536
16540
16544
16548
16552
16556
16560
16564
16568
16572
16576
16580
16584
16588
16592
16596
16600
16604
16608
16612
16616
16620
16624
16628
16632
16636
16640
16644
16648
16652
16656
16660
16664
16668
16672
16676
16680
16684
16688
16692
16696
16700
16704
16708
16712
16716
16720
16724
16728
16732
16736
16740
16744
16748
16752
16756
16760
16764
16768
16772
16776
16780
16784
16788
16792
16796
16800
16804
16808
16812
16816
16820
16824
16828
16832
16836
16840
16844
16848
16852
16856
16860
16864
16868
16872
16876
16880
16884
16888
16892
16896
16900
16904
16908
16912
16916
16920
16924
16928
16932
16936
16940
16944
16948
16952
16956
16960
16964
16968
16972
16976
16980
16984
16988
16992
16996
17000
17004
17008
17012
17016
17020
17024
17028
17032
17036
17040
17044
17048
17052
17056
17060
17064
17068
17072
17076
17080
17084
17088
17092
17096
17100
17104
17108
17112
17116
17120
17124
17128
17132
17136
17140
17144
17148
17152
17156
17160
17164
17168
17172
17176
17180
17184
17188
17192
17196
17200
17204
17208
17212
17216
17220
17224
17228
17232
17236
17240
17244
17248
17252
17256
17260
17264
17268
17272
17276
17280
17284
17288
17292
17296
17300
17304
17308
17312
17316
17320
17324
17328
17332
17336
17340
17344
17348
17352
17356
17360
17364
17368
17372
17376
17380
17384
17388
17392
17396
17400
17404
17408
17412
17416
17420
17424
17428
17432
17436
17440
17444
17448
17452
17456
17460
17464
17468
17472
17476
17480
17484
17488
17492
17496
17500
17504
17508
17512
17516
17520
17524
17528
17532
17536
17540
17544
17548
17552
17556
17560
17564
17568
17572
17576
17580
17584
17588
17592
17596
17600
17604
17608
17612
17616
17620
17624
17628
17632
17636
17640
17644
17648
17652
17656
17660
17664
17668
17672
17676
17680
17684
17688
17692
17696
17700
17704
17708
17712
17716
17720
17724
17728
17732
17736
17740
17744
17748
17752
17756
17760
17764
17768
17772
17776
17780
17784
17788
17792
17796
17800
17804
17808
17812
17816
17820
17824
17828
17832
17836
17840
17844
17848
17852
17856
17860
17864
17868
17872
17876
17880
17884
17888
17892
17896
17900
17904
17908
17912
17916
17920
17924
17928
17932
17936
17940
17944
17948
17952
17956
17960
17964
17968
17972
17976
17980
17984
17988
17992
17996
18000
18004
18008
18012
18016
18020
18024
18028
18032
18036
18040
18044
18048
18052
18056
18060
18064
18068
18072
18076
18080
18084
18088
18092
18096
18100
18104
18108
18112
18116
18120
18124
18128
18132
18136
18140
18144
18148
18152
18156
18160
18164
18168
18172
18176
18180
18184
18188
18192
18196
18200
18204
18208
18212
18216
18220
18224
18228
18232
18236
18240
18244
18248
18252
18256
18260
18264
18268
18272
18276
18280
18284
18288
18292
18296
18300
18304
18308
18312
18316
18320
18324
18328
18332
18336
18340
18344
18348
18352
18356
18360
18364
18368
18372
18376
18380
18384
18388
18392
18396
18400
18404
18408
18412
18416
18420
18424
18428
18432
18436
18440
18444
18448
18452
18456
18460
18464
18468
18472
18476
18480
18484
18488
18492
18496
18500
18504
18508
18512
18516
18520
18524
18528
18532
18536
18540
18544
18548
18552
18556
18560
18564
18568
18572
18576
18580
18584
18588
18592
18596
18600
18604
18608
18612
18616
18620
18624
18628
18632
18636
18640
18644
18648
18652
18656
18660
18664
18668
18672
18676
18680
18684
18688
18692
18696
18700
18704
18708
18712
18716
18720
18724
18728
18732
18736
18740
18744
18748
18752
18756
18760
18764
18768
18772
18776
18780
18784
18788
18792
18796
18800
18804
18808
18812
18816
18820
18824
18828
18832
18836
18840
18844
18848
18852
18856
18860
18864
18868
18872
18876
18880
18884
18888
18892
18896
18900
18904
18908
18912
18916
18920
18924
18928
18932
18936
18940
18944
18948
18952
18956
18960
18964
18968
18972
18976
18980
18984
18988
18992
18996
19000
19004
19008
19012
19016
19020
19024
19028
19032
19036
19040
19044
19048
19052
19056
19060
19064
19068
19072
19076
19080
19084
19088
19092
19096
19100
19104
19108
19112
19116
19120
19124
19128
19132
19136
19140
19144
19148
19152
19156
19160
19164
19168
19172
19176
19180
19184
19188
19192
19196
19200
19204
19208
19212
19216
19220
19224
19228
19232
19236
19240
19244
19248
19252
19256
19260
19264
19268
19272
19276
19280
19284
19288
19292
19296
19300
19304
19308
19312
19316
19320
19324
19328
19332
19336
19340
19344
19348
19352
19356
19360
19364
19368
19372
19376
19380
19384
19388
19392
19396
19400
19404
19408
19412
19416
19420
19424
19428
19432
19436
19440
19444
19448
19452
19456
19460
19464
19468
19472
19476
19480
19484
19488
19492
19496
19500
19504
19508
19512
19516
19520
19524
19528
19532
19536
19540
19544
19548
19552
19556
19560
19564
19568
19572
19576
19580
19584
19588
19592
19596
19600
19604
19608
19612
19616
19620
19624
19628
19632
19636
19640
19644
19648
19652
19656
19660
19664
19668
19672
19676
19680
19684
19688
19692
19696
19700
19704
19708
19712
19716
19720
19724
19728
19732
19736
19740
19744
19748
19752
19756
19760
19764
19768
19772
19776
19780
19784
19788
19792
19796
19800
19804
19808
19812
19816
19820
19824
19828
19832
19836
19840
19844
19848
19852
19856
19860
19864
19868
19872
19876
19880
19884
19888
19892
19896
19900
19904
19908
19912
19916
19920
19924
19928
19932
19936
19940
19944
19948
19952
19956
19960
19964
19968
19972
19976
19980
19984
19988
19992
19996
20000
20004
20008
20012
20016
20020
20024
20028
20032
20036
20040
20044
20048
20052
20056
20060
20064
20068
20072
20076
20080
20084
20088
20092
20096
20100
20104
20108
20112
20116
20120
20124
20128
20132
20136
20140
20144
20148
20152
20156
20160
20164
20168
20172
20176
20180
20184
20188
20192
20196
20200
20204
20208
20212
20216
20220
20224
20228
20232
20236
20240
20244
20248
20252
20256
20260
20264
20268
20272
20276
20280
20284
20288
20292
20296
20300
20304
20308
20312
20316
20320
20324
20328
20332
20336
20340
20344
20348
20352
20356
20360
20364
20368
20372
20376
20380
20384
20388
20392
20396
20400
20404
20408
20412
20416
20420
20424
20428
20432
20436
20440
20444
20448
20452
20456
20460
20464
20468
20472
20476
20480
20484
20488
20492
20496
20500
20504
20508
20512
20516
20520
20524
20528
20532
20536
20540
20544
20548
20552
20556
20560
20564
20568
20572
20576
20580
20584
20588
20592
20596
20600
20604
20608
20612
20616
20620
20624
20628
20632
20636
20640
20644
20648
20652
20656
20660
20664
20668
20672
20676
20680
20684
20688
20692
20696
20700
20704
20708
20712
20716
20720
20724
20728
20732
20736
20740
20744
20748
20752
20756
20760
20764
20768
20772
20776
20780
20784
20788
20792
20796
20800
20804
20808
20812
20816
20820
20824
20828
20832
20836
20840
20844
20848
20852
20856
20860
20864
20868
20872
20876
20880
20884
20888
20892
20896
20900
20904
20908
20912
20916
20920
20924
20928
20932
20936
20940
20944
20948
20952
20956
20960
20964
20968
20972
20976
20980
20984
20988
20992
20996
21000
21004
21008
21012
21016
21020
21024
21028
21032
21036
21040
21044
21048
21052
21056
21060
21064
21068
21072
21076
21080
21084
21088
21092
21096
21100
21104
21108
21112
21116
21120
21124
21128
21132
21136
21140
21144
21148
21152
21156
21160
21164
21168
21172
21176
21180
21184
21188
21192
21196
21200
21204
21208
21212
21216
21220
21224
21228
21232
21236
21240
21244
21248
21252
21256
21260
21264
21268
21272
21276
21280
21284
21288
21292
21296
21300
21304
21308
21312
21316
21320
21324
21328
21332
21336
21340
21344
21348
21352
21356
21360
21364
21368
21372
21376
21380
21384
21388
21392
21396
21400
21404
21408
21412
21416
21420
21424
21428
21432
21436
21440
21444
21448
21452
21456
21460
21464
21468
21472
21476
21480
21484
21488
21492
21496
21500
21504
21508
21512
21516
21520
21524
21528
21532
21536
21540
21544
21548
21552
21556
21560
21564
21568
21572
21576
21580
21584
21588
21592
21596
21600
21604
21608
21612
21616
21620
21624
21628
21632
21636
21640
21644
21648
21652
21656
21660
21664
21668
21672
21676
21680
21684
21688
21692
21696
21700
21704
21708
21712
21716
21720
21724
21728
21732
21736
21740
21744
21748
21752
21756
21760
21764
21768
21772
21776
21780
21784
21788
21792
21796
21800
21804
21808
21812
21816
21820
21824
21828
21832
21836
21840
21844
21848
21852
21856
21860
21864
21868
21872
21876
21880
21884
21888
21892
21896
21900
21904
21908
21912
21916
21920
21924
21928
21932
21936
21940
21944
21948
21952
21956
21960
21964
21968
21972
21976
21980
21984
21988
21992
21996
22000
22004
22008
22012
22016
22020
22024
22028
22032
22036
22040
22044
22048
22052
22056
22060
22064
22068
22072
22076
22080
22084
22088
22092
22096
22100
22104
22108
22112
22116
22120
22124
22128
22132
22136
22140
22144
22148
22152
22156
22160
22164
22168
22172
22176
22180
22184
22188
22192
22196
22200
22204
22208
22212
22216
22220
22224
22228
22232
22236
22240
22244
22248
22252
22256
22260
22264
22268
22272
22276
22280
22284
22288
22292
22296
22300
22304
22308
22312
22316
22320
22324
22328
22332
22336
22340
22344
22348
22352
22356
22360
22364
22368
22372
22376
22380
22384
22388
22392
22396
22400
22404
22408
22412
22416
22420
22424
22428
22432
22436
22440
22444
22448
22452
22456
22460
22464
22468
22472
22476
22480
22484
22488
22492
22496
22500
22504
22508
22512
22516
22520
22524
22528
22532
22536
22540
22544
22548
22552
22556
22560
22564
22568
22572
22576
22580
22584
22588
22592
22596
22600
22604
22608
22612
22616
22620
22624
22628
22632
22636
22640
22644
22648
22652
22656
22660
22664
22668
22672
22676
22680
22684
22688
22692
22696
22700
22704
22708
22712
22716
22720
</DataArray>
<DataArray type="Int64" Name="types" format="ascii">
9
9
9
9
9
9
9
9
9
9
9
9
9
9
9
9
9
9
9
9
9
9
9
9
9
9
9
9
9
9
9
9
9
9
9
9
9
9
9
9
9
9
9
9
9
9
9
9
9
9
9
9
9
9
9
9
9
9
9
9
9
9
9
9
9
9
9
9
9
9
9
9
9
9
9
9
9
9
9
9
9
9
9
9
9
9
9
9
9
9
9
9
9
9
9
9
9
9
9
9
9
9
9
9
9
9
9
9
9
9
9
9
9
9
9
9
9
9
9
9
9
9
9
9
9
9
9
9
9
9
9
9
9
9
9
9
9
9
9
9
9
9
9
9
9
9
9
9
9
9
9
9
9
9
9
9
9
9
9
9
9
9
9
9
9
9
9
9
9
9
9
9
9
9
9
9
9
9
9
9
9
9
9
9
9
9
9
9
9
9
9
9
9
9
9
9
9
9
9
9
9
9
9
9
9
9
9
9
9
9
9
9
9
9
9
9
9
9
9
9
9
9
9
9
9
9
9
9
9
9
9
9
9
9
9
9
9
9
9
9
9
9
9
9
9
9
9
9
9
9
9
9
9
9
9
9
9
9
9
9
9
9
9
9
9
9
9
9
9
9
9
9
9
9
9
9
9
9
9
9
9
9
9
9
9
9
9
9
9
9
9
9
9
9
9
9
9
9
9
9
9
9
9
9
9
9
9
9
9
9
9
9
9
9
9
9
9
9
9
9
9
9
9
9
9
9
9
9
9
9
9
9
9
9
9
9
9
9
9
9
9
9
9
9
9
9
9
9
9
9
9
9
9
9
9
9
9
9
9
9
9
9
9
9
9
9
9
9
9
9
9
9
9
9
9
9
9
9
9
9
9
9
9
9
9
9
9
9
9
9
9
9
9
9
9
9
9
9
9
9
9
9
9
9
9
9
9
9
9
9
9
9
9
9
9
9
9
9
9
9
9
9
9
9
9
9
9
9
9
9
9
9
9
9
9
9
9
9
9
9
9
9
9
9
9
9
9
9
9
9
9
9
9
9
9
9
9
9
9
9
9
9
9
9
9
9
9
9
9
9
9
9
9
9
9
9
9
9
9
9
9
9
9
9
9
9
9
9
9
9
9
9
9
9
9
9
9
9
9
9
9
9
9
9
9
9
9
9
9
9
9
9
9
9
9
9
9
9
9
9
9
9
9
9
9
9
9
9
9
9
9
9
9
9
9
9
9
9
9
9
9
9
9
9
9
9
9
9
9
9
9
9
9
9
9
9
9
9
9
9
9
9
9
9
9
9
9
9
9
9
9
9
9
9
9
9
9
9
9
9
9
9
9
9
9
9
9
9
9
9
9
9
9
9
9
9
9
9
9
9
9
9
9
9
9
9
9
9
9
9
9
9
9
9
9
9
9
9
9
9
9
9
9
9
9
9
9
9
9
9
9
9
9
9
9
9
9
9
9
9
9
9
9
9
9
9
9
9
9
9
9
9
9
9
9
9
9
9
9
9
9
9
9
9
9
9
9
9
9
9
9
9
9
9
9
9
9
9
9
9
9
9
9
9
9
9
9
9
9
9
9
9
9
9
9
9
9
9
9
9
9
9
9
9
9
9
9
9
9
9
9
9
9
9
9
9
9
9
9
9
9
9
9
9
9
9
9
9
9
9
9
9
9
9
9
9
9
9
9
9
9
9
9
9
9
9
9
9
9
9
9
9
9
9
9
9
9
9
9
9
9
9
9
9
9
9
9
9
9
9
9
9
9
9
9
9
9
9
9
9
9
9
9
9
9
9
9
9
9
9
9
9
9
9
9
9
9
9
9
9
9
9
9
9
9
9
9
9
9
9
9
9
9
9
9
9
9
9
9
9
9
9
9
9
9
9
9
9
9
9
9
9
9
9
9
9
9
9
9
9
9
9
9
9
9
9
9
9
9
9
9
9
9
9
9
9
9
9
9
9
9
9
9
9
9
9
9
9
9
9
9
9
9
9
9
9
9
9
9
9
9
9
9
9
9
9
9
9
9
9
9
9
9
9
9
9
9
9
9
9
9
9
9
9
9
9
9
9
9
9
9
9
9
9
9
9
9
9
9
9
9
9
9
9
9
9
9
9
9
9
9
9
9
9
9
9
9
9
9
9
9
9
9
9
9
9
9
9
9
9
9
9
9
9
9
9
9
9
9
9
9
9
9
9
9
9
9
9
9
9
9
9
9
9
9
9
9
9
9
9
9
9
9
9
9
9
9
9
9
9
9
9
9
9
9
9
9
9
9
9
9
9
9
9
9
9
9
9
9
9
9
9
9
9
9
9
9
9
9
9
9
9
9
9
9
9
9
9
9
9
9
9
9
9
9
9
9
9
9
9
9
9
9
9
9
9
9
9
9
9
9
9
9
9
9
9
9
9
9
9
9
9
9
9
9
9
9
9
9
9
9
9
9
9
9
9
9
9
9
9
9
9
9
9
9
9
9
9
9
9
9
9
9
9
9
9
9
9
9
9
9
9
9
9
9
9
9
9
9
9
9
9
9
9
9
9
9
9
9
9
9
9
9
9
9
9
9
9
9
9
9
9
9
9
9
9
9
9
9
9
9
9
9
9
9
9
9
9
9
9
9
9
9
9
9
9
9
9
9
9
9
9
9
9
9
9
9
9
9
9
9
9
9
9
9
9
9
9
9
9
9
9
9
9
9
9
9
9
9
9
9
9
9
9
9
9
9
9
9
9
9
9
9
9
9
9
9
9
9
9
9
9
9
9
9
9
9
9
9
9
9
9
9
9
9
9
9
9
9
9
9
9
9
9
9
9
9
9
9
9
9
9
9
9
9
9
9
9
9
9
9
9
9
9
9
9
9
9
9
9
9
9
9
9
9
9
9
9
9
9
9
9
9
9
9
9
9
9
9
9
9
9
9
9
9
9
9
9
9
9
9
9
9
9
9
9
9
9
9
9
9
9
9
9
9
9
9
9
9
9
9
9
9
9
9
9
9
9
9
9
9
9
9
9
9
9
9
9
9
9
9
9
9
9
9
9
9
9
9
9
9
9
9
9
9
9
9
9
9
9
9
9
9
9
9
9
9
9
9
9
9
9
9
9
9
9
9
9
9
9
9
9
9
9
9
9
9
9
9
9
9
9
9
9
9
9
9
9
9
9
9
9
9
9
9
9
9
9
9
9
9
9
9
9
9
9
9
9
9
9
9
9
9
9
9
9
9
9
9
9
9
9
9
9
9
9
9
9
9
9
9
9
9
9
9
9
9
9
9
9
9
9
9
9
9
9
9
9
9
9
9
9
9
9
9
9
9
9
9
9
9
9
9
9
9
9
9
9
9
9
9
9
9
9
9
9
9
9
9
9
9
9
9
9
9
9
9
9
9
9
9
9
9
9
9
9
9
9
9
9
9
9
9
9
9
9
9
9
9
9
9
9
9
9
9
9
9
9
9
9
9
9
9
9
9
9
9
9
9
9
9
9
9
9
9
9
9
9
9
9
9
9
9
9
9
9
9
9
9
9
9
9
9
9
9
9
9
9
9
9
9
9
9
9
9
9
9
9
9
9
9
9
9
9
9
9
9
9
9
9
9
9
9
9
9
9
9
9
9
9
9
9
9
9
9
9
9
9
9
9
9
9
9
9
9
9
9
9
9
9
9
9
9
9
9
9
9
9
9
9
9
9
9
9
9
9
9
9
9
9
9
9
9
9
9
9
9
9
9
9
9
9
9
9
9
9
9
9
9
9
9
9
9
9
9
9
9
9
9
9
9
9
9
9
9
9
9
9
9
9
9
9
9
9
9
9
9
9
9
9
9
9
9
9
9
9
9
9
9
9
9
9
9
9
9
9
9
9
9
9
9
9
9
9
9
9
9
9
9
9
9
9
9
9
9
9
9
9
9
9
9
9
9
9
9
9
9
9
9
9
9
9
9
9
9
9
9
9
9
9
9
9
9
9
9
9
9
9
9
9
9
9
9
9
9
9
9
9
9
9
9
9
9
9
9
9
9
9
9
9
9
9
9
9
9
9
9
9
9
9
9
9
9
9
9
9
9
9
9
9
9
9
9
9
9
9
9
9
9
9
9
9
9
9
9
9
9
9
9
9
9
9
9
9
9
9
9
9
9
9
9
9
9
9
9
9
9
9
9
9
9
9
9
9
9
9
9
9
9
9
9
9
9
9
9
9
9
9
9
9
9
9
9
9
9
9
9
9
9
9
9
9
9
9
9
9
9
9
9
9
9
9
9
9
9
9
9
9
9
9
9
9
9
9
9
9
9
9
9
9
9
9
9
9
9
9
9
9
9
9
9
9
9
9
9
9
9
9
9
9
9
9
9
9
9
9
9
9
9
9
9
9
9
9
9
9
9
9
9
9
9
9
9
9
9
9
9
9
9
9
9
9
9
9
9
9
9
9
9
9
9
9
9
9
9
9
9
9
9
9
9
9
9
9
9
9
9
9
9
9
9
9
9
9
9
9
9
9
9
9
9
9
9
9
9
9
9
9
9
9
9
9
9
9
9
9
9
9
9
9
9
9
9
9
9
9
9
9
9
9
9
9
9
9
9
9
9
9
9
9
9
9
9
9
9
9
9
9
9
9
9
9
9
9
9
9
9
9
9
9
9
9
9
9
9
9
9
9
9
9
9
9
9
9
9
9
9
9
9
9
9
9
9
9
9
9
9
9
9
9
9
9
9
9
9
9
9
9
9
9
9
9
9
9
9
9
9
9
9
9
9
9
9
9
9
9
9
9
9
9
9
9
9
9
9
9
9
9
9
9
9
9
9
9
9
9
9
9
9
9
9
9
9
9
9
9
9
9
9
9
9
9
9
9
9
9
9
9
9
9
9
9
9
9
9
9
9
9
9
9
9
9
9
9
9
9
9
9
9
9
9
9
9
9
9
9
9
9
9
9
9
9
9
9
9
9
9
9
9
9
9
9
9
9
9
9
9
9
9
9
9
9
9
9
9
9
9
9
9
9
9
9
9
9
9
9
9
9
9
9
9
9
9
9
9
9
9
9
9
9
9
9
9
9
9
9
9
9
9
9
9
9
9
9
9
9
9
9
9
9
9
9
9
9
9
9
9
9
9
9
9
9
9
9
9
9
9
9
9
9
9
9
9
9
9
9
9
9
9
9
9
9
9
9
9
9
9
9
9
9
9
9
9
9
9
9
9
9
9
9
9
9
9
9
9
9
9
9
9
9
9
9
9
9
9
9
9
9
9
9
9
9
9
9
9
9
9
9
9
9
9
9
9
9
9
9
9
9
9
9
9
9
9
9
9
9
9
9
9
9
9
9
9
9
9
9
9
9
9
9
9
9
9
9
9
9
9
9
9
9
9
9
9
9
9
9
9
9
9
9
9
9
9
9
9
9
9
9
9
9
9
9
9
9
9
9
9
9
9
9
9
9
9
9
9
9
9
9
9
9
9
9
9
9
9
9
9
9
9
9
9
9
9
9
9
9
9
9
9
9
9
9
9
9
9
9
9
9
9
9
9
9
9
9
9
9
9
9
9
9
9
9
9
9
9
9
9
9
9
9
9
9
9
9
9
9
9
9
9
9
9
9
9
9
9
9
9
9
9
9
9
9
9
9
9
9
9
9
9
9
9
9
9
9
9
9
9
9
9
9
9
9
9
9
9
9
9
9
9
9
9
9
9
9
9
9
9
9
9
9
9
9
9
9
9
9
9
9
9
9
9
9
9
9
9
9
9
9
9
9
9
9
9
9
9
9
9
9
9
9
9
9
9
9
9
9
9
9
9
9
9
9
9
9
9
9
9
9
9
9
9
9
9
9
9
9
9
9
9
9
9
9
9
9
9
9
9
9
9
9
9
9
9
9
9
9
9
9
9
9
9
9
9
9
9
9
9
9
9
9
9
9
9
9
9
9
9
9
9
9
9
9
9
9
9
9
9
9
9
9
9
9
9
9
9
9
9
9
9
9
9
9
9
9
9
9
9
9
9
9
9
9
9
9
9
9
9
9
9
9
9
9
9
9
9
9
9
9
9
9
9
9
9
9
9
9
9
9
9
9
9
9
9
9
9
9
9
9
9
9
9
9
9
9
9
9
9
9
9
9
9
9
9
9
9
9
9
9
9
9
9
9
9
9
9
9
9
9
9
9
9
9
9
9
9
9
9
9
9
9
9
9
9
9
9
9
9
9
9
9
9
9
9
9
9
9
9
9
9
9
9
9
9
9
9
9
9
9
9
9
9
9
9
9
9
9
9
9
9
9
9
9
9
9
9
9
9
9
9
9
9
9
9
9
9
9
9
9
9
9
9
9
9
9
9
9
9
9
9
9
9
9
9
9
9
9
9
9
9
9
9
9
9
9
9
9
9
9
9
9
9
9
9
9
9
9
9
9
9
9
9
9
9
9
9
9
9
9
9
9
9
9
9
9
9
9
9
9
9
9
9
9
9
9
9
9
9
9
9
9
9
9
9
9
9
9
9
9
9
9
9
9
9
9
9
9
9
9
9
9
9
9
9
9
9
9
9
9
9
9
9
9
9
9
9
9
9
9
9
9
9
9
9
9
9
9
9
9
9
9
9
9
9
9
9
9
9
9
9
9
9
9
9
9
9
9
9
9
9
9
9
9
9
9
9
9
9
9
9
9
9
9
9
9
9
9
9
9
9
9
9
9
9
9
9
9
9
9
9
9
9
9
9
9
9
9
9
9
9
9
9
9
9
9
9
9
9
9
9
9
9
9
9
9
9
9
9
9
9
9
9
9
9
9
9
9
9
9
9
9
9
9
9
9
9
9
9
9
9
9
9
9
9
9
9
9
9
9
9
9
9
9
9
9
9
9
9
9
9
9
9
9
9
9
9
9
9
9
9
9
9
9
9
9
9
9
9
9
9
9
9
9
9
9
9
9
9
9
9
9
9
9
9
9
9
9
9
9
9
9
9
9
9
9
9
9
9
9
9
9
9
9
9
9
9
9
9
9
9
9
9
9
9
9
9
9
9
9
9
9
9
9
9
9
9
9
9
9
9
9
9
9
9
9
9
9
9
9
9
9
9
9
9
9
9
9
9
9
9
9
9
9
9
9
9
9
9
9
9
9
9
9
9
9
9
9
9
9
9
9
9
9
9
9
9
9
9
9
9
9
9
9
9
9
9
9
9
9
9
9
9
9
9
9
9
9
9
9
9
9
9
9
9
9
9
9
9
9
9
9
9
9
9
9
9
9
9
9
9
9
9
9
9
9
9
9
9
9
9
9
9
9
9
9
9
9
9
9
9
9
9
9
9
9
9
9
9
9
9
9
9
9
9
9
9
9
9
9
9
9
9
9
9
9
9
9
9
9
9
9
9
9
9
9
9
9
9
9
9
9
9
9
9
9
9
9
9
9
9
9
9
9
9
9
9
9
9
9
9
9
9
9
9
9
9
9
9
9
9
9
9
9
9
9
9
9
9
9
9
9
9
9
9
9
9
9
9
9
9
9
9
9
9
9
9
9
9
9
9
9
9
9
9
9
9
9
9
9
9
9
9
9
9
9
9
9
9
9
9
9
9
9
9
9
9
9
9
9
9
9
9
9
9
9
9
9
9
9
9
9
9
9
9
9
9
9
9
9
9
9
9
9
9
9
9
9
9
9
9
9
9
9
9
9
9
9
9
9
9
9
9
9
9
9
9
9
9
9
9
9
9
9
9
9
9
9
9
9
9
9
9
9
9
9
9
9
9
9
9
9
9
9
9
9
9
9
9
9
9
9
9
9
9
9
9
9
9
9
9
9
9
9
9
9
9
9
9
9
9
9
9
9
9
9
9
9
9
9
9
9
9
9
9
9
9
9
9
9
9
9
9
9
9
9
9
9
9
9
9
9
9
9
9
9
9
9
9
9
9
9
9
9
9
9
9
9
9
9
9
9
9
9
9
9
9
9
9
9
9
9
9
9
9
9
9
9
9
9
9
9
9
9
9
9
9
9
9
9
9
9
9
9
9
9
9
9
9
9
9
9
9
9
9
9
9
9
9
9
9
9
9
9
9
9
9
9
9
9
9
9
9
9
9
9
9
9
9
9
9
9
9
9
9
9
9
9
9
9
9
9
9
9
9
9
9
9
9
9
9
9
9
9
9
9
9
9
9
9
9
9
9
9
9
9
9
9
9
9
9
9
9
9
9
9
9
9
9
9
9
9
9
9
9
9
9
9
9
9
9
9
9
9
9
9
9
9
9
9
9
9
9
9
9
9
9
9
9
9
9
9
9
9
9
9
9
9
9
9
9
9
9
9
9
9
9
9
9
9
9
9
9
9
9
9
9
9
9
9
9
9
9
9
9
9
9
9
9
9
9
9
9
9
9
9
9
9
9
9
9
9
9
9
9
9
9
9
9
9
9
9
9
9
9
9
9
9
9
9
9
9
9
9
9
9
9
9
9
9
9
9
9
9
9
9
9
9
9
9
9
9
9
9
9
9
9
9
9
9
9
9
9
9
9
9
9
9
9
9
9
9
9
9
9
9
9
9
9
9
9
9
9
9
9
9
9
9
9
9
9
9
9
9
9
9
9
9
9
9
9
9
9
9
9
9
9
9
9
9
9
9
9
9
9
9
9
9
9
9
9
9
9
9
9
9
9
9
9
9
9
9
9
9
9
9
9
9
9
9
9
9
9
9
9
9
9
9
9
9
9
9
9
9
9
9
9
9
9
9
9
9
9
9
9
9
9
9
9
9
9
9
9
9
9
9
9
9
9
9
9
9
9
9
9
9
9
9
9
9
9
9
9
9
9
9
9
9
9
9
9
9
9
9
9
9
9
9
9
9
9
9
9
9
9
9
9
9
9
9
9
9
9
9
9
9
9
9
9
9
9
9
9
9
9
9
9
9
9
9
9
9
9
9
9
9
9
9
9
9
9
9
9
9
9
9
9
9
9
9
9
9
9
9
9
9
9
9
9
9
9
9
9
9
9
9
9
9
9
9
9
9
9
9
9
9
9
9
9
9
9
9
9
9
9
9
9
9
9
9
9
9
9
9
9
9
9
9
9
9
9
9
9
9
9
9
9
9
9
9
9
9
9
9
9
9
9
9
9
9
9
9
9
9
9
9
9
9
9
9
9
9
9
9
9
9
9
9
9
9
9
9
9
9
9
9
9
9
9
9
9
9
9
9
9
9
9
9
9
9
9
9
9
9
9
9
9
9
9
9
9
9
9
9
9
9
9
9
9
9
9
9
9
9
9
9
9
9
9
9
9
9
9
9
9
9
9
9
9
9
9
9
9
9
9
9
9
9
9
9
9
9
9
9
9
9
9
9
9
9
9
9
9
9
9
9
9
9
9
9
9
9
9
9
9
9
9
9
9
9
9
9
9
9
9
9
9
9
9
9
9
9
9
9
9
9
9
9
9
9
9
9
9
9
9
9
9
9
9
9
9
9
9
9
9
9
9
9
9
9
9
9
9
9
9
9
9
9
9
9
9
9
9
9
9
9
9
9
9
9
9
9
9
9
9
9
9
9
9
9
9
9
9
9
9
9
9
9
9
9
9
9
9
9
9
9
9
9
9
9
9
9
9
9
9
9
9
9
9
9
9
9
9
9
9
9
9
9
9
9
9
9
9
9
9
9
9
9
9
9
9
9
9
9
9
9
9
9
9
9
9
9
9
9
9
9
9
9
9
9
9
9
9
9
9
9
9
9
9
9
9
9
9
9
9
9
9
9
9
9
9
9
9
9
9
9
9
9
9
9
9
9
9
9
9
9
9
9
9
9
9
9
9
9
9
9
9
9
9
9
9
9
9
9
9
9
9
9
9
9
9
9
9
9
9
9
9
9
9
9
9
9
9
9
9
9
9
9
9
9
9
9
9
9
9
9
9
9
9
9
9
9
9
9
9
9
9
9
9
9
9
9
9
9
9
9
9
9
9
9
9
9
9
9
9
9
9
9
9
9
9
9
9
9
9
9
9
9
9
9
9
9
9
9
9
9
9
9
9
9
9
9
9
9
9
9
9
9
9
9
9
9
9
9
9
9
9
9
9
9
9
9
9
9
9
9
9
9
9
9
9
9
9
9
9
9
9
9
9
9
9
9
9
9
9
9
9
9
9
9
9
9
9
9
9
9
9
9
9
9
9
9
9
9
9
9
9
9
9
9
9
9
9
9
9
9
9
9
9
9
9
9
9
9
9
9
9
9
9
9
9
9
9
9
9
9
9
9
9
9
9
9
9
9
9
9
9
9
9
9
9
9
9
9
9
9
9
9
9
9
9
9
9
9
9
9
9
9
9
9
9
9
9
9
9
9
9
9
9
9
9
9
9
9
9
9
9
9
9
9
9
9
9
9
9
9
9
9
9
9
9
9
9
9
9
9
9
9
9
9
9
9
9
9
9
9
9
9
9
9
9
9
9
9
9
9
9
9
9
9
9
9
9
9
9
9
9
9
9
9
9
9
9
9
9
9
9
9
9
9
9
9
9
9
9
9
9
9
9
9
9
9
9
9
9
9
9
9
9
9
9
9
9
9
9
9
9
9
9
9
9
9
9
9
9
9
9
9
9
9
9
9
9
9
9
9
9
9
9
9
9
9
9
9
9
9
9
9
9
9
9
9
9
9
9
9
9
9
9
9
9
9
9
9
9
9
9
9
9
9
9
9
9
9
9
9
9
9
9
9
9
9
9
9
9
9
9
9
9
9
9
9
9
9
9
9
9
9
9
9
9
9
9
9
9
9
9
9
9
9
9
9
9
9
9
9
9
9
9
9
9
9
9
9
9
9
9
9
9
9
9
9
9
9
9
9
9
9
9
9
9
9
9
9
9
9
9
9
9
9
9
9
9
9
9
9
9
9
9
9
9
9
9
9
9
9
9
9
9
9
9
9
9
9
9
9
9
9
9
9
9
9
9
9
9
9
9
9
9
9
9
9
9
9
9
9
9
9
9
9
9
9
9
9
9
9
9
9
9
9
9
9
9
9
9
9
9
9
9
9
9
9
9
9
9
9
9
9
9
9
9
9
9
9
9
9
9
9
9
9
9
9
9
9
9
9
9
9
9
9
9
9
9
9
9
9
9
9
9
9
9
9
9
9
9
9
9
9
9
9
9
9
9
9
9
9
9
9
9
9
9
9
9
9
9
9
9
9
9
9
9
9
9
9
9
9
9
9
9
9
9
9
9
9
9
9
9
9
9
9
9
9
9
9
9
9
9
9
9
9
9
9
9
9
9
9
9
9
9
9
9
9
9
9
9
9
9
9
9
9
9
9
9
9
9
9
9
9
9
9
9
9
9
9
9
9
9
9
9
9
9
9
9
9
9
9
9
9
9
9
9
9
9
9
9
9
9
9
9
9
9
9
9
9
9
9
9
9
9
9
9
9
9
9
9
9
9
9
9
9
9
9
9
9
9
9
9
9
9
9
9
9
9
9
9
9
9
9
9
9
9
9
9
9
9
9
9
9
9
9
9
9
9
9
9
9
9
9
9
9
9
9
9
9
9
9
9
9
9
9
9
9
9
9
9
9
9
9
9
9
9
9
9
9
9
9
9
9
9
9
9
9
9
9
9
9
9
9
9
9
9
9
9
9
9
9
9
9
9
9
9
9
9
9
9
9
9
9
9
9
9
9
9
9
9
9
9
9
9
9
9
9
9
9
9
9
9
9
9
9
9
9
9
9
9
9
9
9
9
9
9
9
9
9
9
9
9
9
9
9
9
9
9
9
9
9
9
9
9
9
9
9
9
9
9
9
9
9
9
9
9
9
9
9
9
9
9
9
9
9
9
9
9
9
9
9
9
9
9
9
9
9
9
9
9
9
9
9
9
9
9
9
9
9
9
9
9
9
9
9
9
9
9
9
9
9
9
9
9
9
9
9
9
9
9
9
9
9
9
9
9
9
9
9
9
9
9
9
9
9
9
9
9
9
9
9
9
9
9
9
9
9
9
9
9
9
9
9
9
9
9
9
9
9
9
9
9
9
9
9
9
9
9
9
9
9
9
9
9
9
9
9
9
9
9
9
9
9
9
9
9
9
9
9
9
9
9
9
9
9
9
9
9
9
9
9
9
9
9
9
9
9
9
9
9
9
9
9
9
9
9
9
9
9
9
9
9
9
9
9
9
9
9
9
9
9
9
9
9
9
9
9
9
9
9
9
9
9
9
9
9
9
9
9
9
9
9
9
9
9
9
9
9
9
9
9
9
9
9
9
9
9
9
9
9
9
9
9
9
9
9
9
9
9
9
9
9
9
9
9
9
9
9
9
9
9
9
9
9
9
9
9
9
9
9
9
9
9
9
9
9
9
9
9
9
9
9
9
9
9
9
9
9
9
9
9
9
9
9
9
9
9
9
9
9
9
9
9
9
9
9
9
9
9
9
9
9
9
9
9
9
9
9
9
9
9
9
9
9
9
9
9
9
9
9
9
9
9
9
9
9
9
9
9
9
9
9
9
9
9
9
9
9
9
9
9
9
9
9
9
9
9
9
9
9
9
9
9
9
9
9
9
9
9
9
9
9
9
9
9
9
9
9
9
9
9
9
9
9
9
9
9
9
9
9
9
9
9
9
9
9
9
9
9
9
9
9
9
9
9
9
9
9
9
9
9
9
9
9
9
9
9
9
9
9
9
9
9
9
9
9
9
9
9
9
9
9
9
9
9
9
9
9
9
9
9
9
9
9
9
9
9
9
9
9
9
9
9
9
9
9
9
9
9
9
9
9
9
9
9
9
9
9
9
9
9
9
9
9
9
9
9
9
9
9
9
9
9
9
9
9
9
9
9
9
9
9
9
9
9
9
9
9
9
9
9
9
9
9
9
9
9
9
9
9
9
9
9
9
9
9
9
9
9
9
9
9
9
9
9
9
9
</DataArray>
</Cells>
<PointData Vectors="'U'">
<DataArray type="Float64" Name="U" NumberOfComponents="2" ComponentName0="U1" ComponentName1="U2" format="ascii">
 0.1438248040619E-36  0.3588106477474E-36
 0.2193314178905E-37 -0.2403195045717E-37
 0.1652701420891E-36 -0.4118001785741E-36
 0.1155533608673E+00  0.6489278060745E-01
 0.1076745925323E+00  0.2271865498766E-01
 0.1110133728583E+00 -0.3275461448282E-01
 0.1245798676267E+00 -0.8331947706804E-01
 0.1630347648891E+01  0.7855792460693E-01
 0.1455183591617E+01 -0.2900377872076E+00
 0.1310946449902E+01  0.6216799005887E-03
 0.1219144744975E+01 -0.1225977743217E+00
 0.5611049010799E-37  0.4595380371030E-36
 0.6015258939090E-37  0.4030159391680E-36
 0.5665530121235E-37  0.3695285999085E-36
 0.5239882089204E-37  0.3450182620537E-36
 0.4852246867271E-37  0.3250675847441E-36
 0.4516694639861E-37  0.3078356511286E-36
 0.4228290061891E-37  0.2923977990613E-36
 0.3979477605870E-37  0.2782286858224E-36
 0.3763481065449E-37  0.2650032024482E-36
 0.3574799123175E-37  0.2525071025036E-36
 0.3409062752762E-37  0.2405921656371E-36
 0.3262797710854E-37  0.2291517598124E-36
 0.3133216037532E-37  0.2181066429472E-36
 0.3018054881346E-37  0.2073962832829E-36
 0.2915456319644E-37  0.1969733277746E-36
 0.2823878307908E-37  0.1867999514451E-36
 0.2742028340925E-37  0.1768453751009E-36
 0.2668813536472E-37  0.1670841331872E-36
 0.2603302637571E-37  0.1574948372704E-36
 0.2544696744056E-37  0.1480592753240E-36
 0.2492306510243E-37  0.1387617436544E-36
 0.2445534191152E-37  0.1295885432410E-36
 0.2403859366876E-37  0.1205275943505E-36
 0.2366827490287E-37  0.1115681376348E-36
 0.2334040625744E-37  0.1027004993811E-36
 0.2305149905616E-37  0.9391590498792E-37
 0.2279849347051E-37  0.8520632912647E-37
 0.2257870755981E-37  0.7656437411089E-37
 0.2238979508034E-37  0.6798317016637E-37
 0.2222971043005E-37  0.5945629283890E-37
 0.2209667945085E-37  0.5097769391804E-37
 0.2198917508297E-37  0.4254164307182E-37
 0.2190589707615E-37  0.3414267800599E-37
 0.2184575512720E-37  0.2577556141796E-37
 0.2180785494335E-37  0.1743524335976E-37
 0.2179148683525E-37  0.9116827884186E-38
 0.2179611652761E-37  0.8155430443608E-39
 0.2182137794551E-37 -0.7473286535830E-38
 0.2186706779270E-37 -0.1575426519377E-37
 0.2201971247853E-37 -0.3231087651135E-37
 0.2212704856056E-37 -0.4059557741397E-37
 0.2225557573574E-37 -0.4889061055463E-37
 0.2240587909623E-37 -0.5720058086302E-37
 0.2257870712966E-37 -0.6553016629546E-37
 0.2277497744879E-37 -0.7388414517608E-37
 0.2299578440518E-37 -0.8226742603863E-37
 0.2324240879941E-37 -0.9068508071343E-37
 0.2351632996300E-37 -0.9914238153564E-37
 0.2381924056250E-37 -0.1076448437274E-36
 0.2415306456791E-37 -0.1161982742377E-36
 0.2451997894109E-37 -0.1248088286299E-36
 0.2492243974183E-37 -0.1334830780092E-36
 0.2536321352897E-37 -0.1422280885195E-36
 0.2584541516471E-37 -0.1510515166541E-36
 0.2637255342791E-37 -0.1599617245921E-36
 0.2694858623231E-37 -0.1689679210887E-36
 0.2757798775985E-37 -0.1780803352623E-36
 0.2826583050653E-37 -0.1873104331492E-36
 0.2901788616593E-37 -0.1966711904739E-36
 0.2984075053956E-37 -0.2061774402072E-36
 0.3074199941229E-37 -0.2158463209451E-36
 0.3173038477658E-37 -0.2256978632286E-36
 0.3281608422201E-37 -0.2357557676214E-36
 0.3401102124056E-37 -0.2460484541961E-36
 0.3532928123988E-37 -0.2566105038410E-36
 0.3678765817967E-37 -0.2674846779346E-36
 0.3840638104597E-37 -0.2787248134158E-36
 0.4021008862872E-37 -0.2904000812155E-36
 0.4222914346666E-37 -0.3026014392070E-36
 0.4450138900591E-37 -0.3154517568123E-36
 0.4707440717061E-37 -0.3291223733372E-36
 0.5000803837008E-37 -0.3438615856910E-36
 0.5337568680261E-37 -0.3600468812010E-36
 0.5725805221133E-37 -0.3782889550517E-36
 0.6170295209823E-37 -0.3996631362879E-36
 0.6653443186164E-37 -0.4263093828178E-36
 0.7041571064980E-37 -0.4633559566678E-36
 0.6548132923221E-37 -0.5270916457016E-36
 0.1144833660363E+00  0.6051136165909E-01
 0.1136667329932E+00  0.5719845073025E-01
 0.1129874762496E+00  0.5439995657349E-01
 0.1124135226084E+00  0.5188896745291E-01
 0.1119161380998E+00  0.4956311759929E-01
 0.1114748674655E+00  0.4736823385243E-01
 0.1110756344316E+00  0.4527297268426E-01
 0.1107089350571E+00  0.4325777349379E-01
 0.1103683384241E+00  0.4130962575176E-01
 0.1100494474589E+00  0.3941938430107E-01
 0.1097492138830E+00  0.3758030821569E-01
 0.1094654958533E+00  0.3578722136830E-01
 0.1091967722222E+00  0.3403600610055E-01
 0.1089419558380E+00  0.3232328413357E-01
 0.1087002692676E+00  0.3064620770559E-01
 0.1084711602363E+00  0.2900231864357E-01
 0.1082542428010E+00  0.2738945137249E-01
 0.1080492574838E+00  0.2580566755074E-01
 0.1078560426570E+00  0.2424921337386E-01
 0.1075042540266E+00  0.2121201576864E-01
 0.1073461697790E+00  0.1972750462324E-01
 0.1072000857850E+00  0.1826400455472E-01
 0.1070659996045E+00  0.1682016819032E-01
 0.1069439672877E+00  0.1539467584179E-01
 0.1068340768984E+00  0.1398622731389E-01
 0.1067364330746E+00  0.1259354048828E-01
 0.1066511498223E+00  0.1121534843274E-01
 0.1065783461875E+00  0.9850396757685E-02
 0.1065181434137E+00  0.8497441150393E-02
 0.1064706628909E+00  0.7155245152719E-02
 0.1064360245860E+00  0.5822578179034E-02
 0.1064143457983E+00  0.4498213746458E-02
 0.1064057401566E+00  0.3180927881312E-02
 0.1064103168053E+00  0.1869497661212E-02
 0.1064281797467E+00  0.5626998526210E-03
 0.1064594273189E+00 -0.7406903933946E-03
 0.1065041517920E+00 -0.2041900821437E-02
 0.1065624390719E+00 -0.3342163360381E-02
 0.1066343685059E+00 -0.4642715450693E-02
 0.1067200127849E+00 -0.5944801440007E-02
 0.1068194379420E+00 -0.7249674076632E-02
 0.1069327034480E+00 -0.8558596131710E-02
 0.1070598624086E+00 -0.9872842182902E-02
 0.1072009618693E+00 -0.1119370059573E-01
 0.1073560432364E+00 -0.1252247574323E-01
 0.1075251428258E+00 -0.1386049051028E-01
 0.1077082925522E+00 -0.1520908913635E-01
 0.1079055207758E+00 -0.1656964045873E-01
 0.1081168533225E+00 -0.1794354162800E-01
 0.1083423146982E+00 -0.1933222237665E-01
 0.1085819295166E+00 -0.2073714992866E-01
 0.1088357241661E+00 -0.2215983463544E-01
 0.1091037287523E+00 -0.2360183639783E-01
 0.1093859794045E+00 -0.2506477185914E-01
 0.1096825212379E+00 -0.2655032212102E-01
 0.1099934126748E+00 -0.2806024040033E-01
 0.1103187352279E+00 -0.2959635616259E-01
 0.1106586112867E+00 -0.3116057685853E-01
 0.1113825978985E+00 -0.3438124200458E-01
 0.1117675396275E+00 -0.3604314058972E-01
 0.1121683211081E+00 -0.3774281051322E-01
 0.1125853632026E+00 -0.3948321047761E-01
 0.1130192625768E+00 -0.4126766208727E-01
 0.1134708183406E+00 -0.4309994550917E-01
 0.1139410827381E+00 -0.4498442145007E-01
 0.1144314430778E+00 -0.4692620172817E-01
 0.1149437434512E+00 -0.4893139112567E-01
 0.1154804661327E+00 -0.5100744033002E-01
 0.1160450057735E+00 -0.5316367879588E-01
 0.1166420899576E+00 -0.5541215192976E-01
 0.1172784298072E+00 -0.5776899708052E-01
 0.1179637237898E+00 -0.6025682044099E-01
 0.1187121678458E+00 -0.6290903561694E-01
 0.1195446005095E+00 -0.6577827402042E-01
 0.1204909736440E+00 -0.6895407719020E-01
 0.1215928057440E+00 -0.7260344523922E-01
 0.1228944125456E+00 -0.7709378403752E-01
 0.2113225110224E+00  0.1168405336320E+00
 0.2780396561705E+00  0.1653370997625E+00
 0.3437336324967E+00  0.2017067964006E+00
 0.4111613975272E+00  0.2311845901251E+00
 0.4814906225002E+00  0.2553299603947E+00
 0.5552622209152E+00  0.2750111264123E+00
 0.6330628279842E+00  0.2906589373540E+00
 0.7158673200932E+00  0.3026094204967E+00
 0.8055979156578E+00  0.3108472275881E+00
 0.9062932430823E+00  0.3143195203774E+00
 0.1016644454914E+01  0.3128591573055E+00
 0.1128850934786E+01  0.3081203719246E+00
 0.1236699682503E+01  0.2960094944588E+00
 0.1335325013759E+01  0.2735319101746E+00
 0.1421148780115E+01  0.2424742650619E+00
 0.1491895068749E+01  0.2059278237383E+00
 0.1547269703763E+01  0.1682226536748E+00
 0.1588156921718E+01  0.1330470846725E+00
 0.1615552721147E+01  0.1026888015789E+00
 0.1632582882753E+01  0.6998628968415E-01
 0.1632880610499E+01  0.6358391023659E-01
 0.1631482677080E+01  0.5957552026416E-01
 0.1628695537613E+01  0.5794796973304E-01
 0.1624853252102E+01  0.5861941038188E-01
 0.1620284154192E+01  0.6141599413524E-01
 0.1615291912356E+01  0.6605869394823E-01
 0.1610146573859E+01  0.7215065291157E-01
 0.1605113214191E+01  0.7918392356506E-01
 0.1600573074261E+01  0.8652402332522E-01
 0.1596893092621E+01  0.9315272049805E-01
 0.1594545012043E+01  0.9718188540459E-01
 0.1593725852814E+01  0.9725144342184E-01
 0.1593966425399E+01  0.9400848969183E-01
 0.1594688941193E+01  0.8849970772304E-01
 0.1595557220889E+01  0.8120292793660E-01
 0.1596371485231E+01  0.7242451361399E-01
 0.1596991667111E+01  0.6238218873401E-01
 0.1597303668116E+01  0.5124144613650E-01
 0.1597200821226E+01  0.3913493811257E-01
 0.1596585524132E+01  0.2617566973181E-01
 0.1595410022407E+01  0.1246675771561E-01
 0.1593640788638E+01 -0.1902722916286E-02
 0.1591242629342E+01 -0.1685396134183E-01
 0.1588176232863E+01 -0.3231412943062E-01
 0.1584396713880E+01 -0.4821368954060E-01
 0.1579854241571E+01 -0.6448232342039E-01
 0.1574496688391E+01 -0.8105024973500E-01
 0.1568280227986E+01 -0.9784758747784E-01
 0.1561193501673E+01 -0.1148140425308E+00
 0.1553307673404E+01 -0.1319240194631E+00
 0.1544856421280E+01 -0.1492304248402E+00
 0.1536137703985E+01 -0.1668318367555E+00
 0.1527036946423E+01 -0.1846662720211E+00
 0.1517339489987E+01 -0.2026169356774E+00
 0.1506868212267E+01 -0.2205648163654E+00
 0.1495495130780E+01 -0.2383953936293E+00
 0.1483131365321E+01 -0.2559977283719E+00
 0.1469712311268E+01 -0.2732608164585E+00
 0.1422222323592E+01 -0.3211091541108E+00
 0.1385146008269E+01 -0.3496208952346E+00
 0.1344610231852E+01 -0.3757033242976E+00
 0.1300655378147E+01 -0.3988539240852E+00
 0.1253034076102E+01 -0.4178936888977E+00
 0.1201713246602E+01 -0.4315601419788E+00
 0.1147101628410E+01 -0.4392498435167E+00
 0.1089620706070E+01 -0.4405502842354E+00
 0.1029838704150E+01 -0.4371030016681E+00
 0.9680835271455E+00 -0.4312318399507E+00
 0.9042435277382E+00 -0.4223661330789E+00
 0.8382728602140E+00 -0.4101394004901E+00
 0.7701026003195E+00 -0.3942273614905E+00
 0.6995825863475E+00 -0.3741449312212E+00
 0.6264302361231E+00 -0.3492239877831E+00
 0.5501080835029E+00 -0.3185859519249E+00
 0.4695260003254E+00 -0.2805577634702E+00
 0.3820594932259E+00 -0.2320419698584E+00
 0.2822370178906E+00 -0.1629820938297E+00
 0.1493918119819E-02  0.2711106052856E-02
 0.2587848045724E-02  0.4740102618964E-02
 0.3669220723432E-02  0.6658525798929E-02
 0.4792788075261E-02  0.8496463955603E-02
 0.5992345911266E-02  0.1027749487393E-01
 0.7282121136456E-02  0.1201186173843E-01
 0.8670917727256E-02  0.1370473969073E-01
 0.1016340419145E-01  0.1535893306793E-01
 0.1176206403881E-01  0.1697591880106E-01
 0.1346786724067E-01  0.1855646737934E-01
 0.1528074742932E-01  0.2010095696601E-01
 0.1719990228964E-01  0.2160961216227E-01
 0.1922396625895E-01  0.2308266219743E-01
 0.2135113376252E-01  0.2452052801883E-01
 0.2357922412320E-01  0.2592418222224E-01
 0.2590622189327E-01  0.2729672960561E-01
 0.2833207427729E-01  0.2864679005236E-01
 0.3085786692414E-01  0.2998311479791E-01
 0.3348242214390E-01  0.3130584928929E-01
 0.3620206019082E-01  0.3261187230931E-01
 0.3901190751549E-01  0.3389830157117E-01
 0.4190680551588E-01  0.3516359500523E-01
 0.4488153731796E-01  0.3640760596668E-01
 0.4793101939636E-01  0.3763154557217E-01
 0.5105039460640E-01  0.3883799358944E-01
 0.5423505562589E-01  0.4003098031252E-01
 0.5748067798324E-01  0.4121586871886E-01
 0.6078316958978E-01  0.4239737519379E-01
 0.6413891280993E-01  0.4358039626811E-01
 0.6754527210808E-01  0.4477271874503E-01
 0.7100115459868E-01  0.4598505805113E-01
 0.7450752405449E-01  0.4723149610410E-01
 0.7806838445489E-01  0.4853017116694E-01
 0.8169209957540E-01  0.4990369321736E-01
 0.8539370051703E-01  0.5137776459966E-01
 0.8919806771021E-01  0.5297349428245E-01
 0.9314928074523E-01  0.5469445171545E-01
 0.9731174341463E-01  0.5656991988060E-01
 0.1018425223355E+00  0.5867918299675E-01
 0.1068963553309E+00  0.6138488864485E-01
 0.1125199579083E+00 -0.7799827993420E-01
 0.1062149592676E+00 -0.7395577782745E-01
 0.1007797729798E+00 -0.7086091395671E-01
 0.9595671549031E-01 -0.6813933757317E-01
 0.9149346389975E-01 -0.6566365542608E-01
 0.8728839238823E-01 -0.6337775221911E-01
 0.8327176063264E-01 -0.6126820110580E-01
 0.7940046017771E-01 -0.5930675861505E-01
 0.7564554512453E-01 -0.5746069870143E-01
 0.7198821053355E-01 -0.5570135962810E-01
 0.6841640765388E-01 -0.5400570174361E-01
 0.6492281881881E-01 -0.5235571412401E-01
 0.6150340726806E-01 -0.5073749613675E-01
 0.5815661523758E-01 -0.4914068397324E-01
 0.5488254187982E-01 -0.4755843775895E-01
 0.5168216455415E-01 -0.4598447509479E-01
 0.4855708158430E-01 -0.4441181514503E-01
 0.4550965481825E-01 -0.4283480440198E-01
 0.4254291574196E-01 -0.4124943620161E-01
 0.3966045794555E-01 -0.3965332084533E-01
 0.3686627836347E-01 -0.3804571372345E-01
 0.3416451418430E-01 -0.3642761119127E-01
 0.3155910755721E-01 -0.3480178671062E-01
 0.2905271732791E-01 -0.3317167035360E-01
 0.2664518472337E-01 -0.3153744236456E-01
 0.2433389466877E-01 -0.2988958391282E-01
 0.2211785254366E-01 -0.2821765231900E-01
 0.1999852936636E-01 -0.2651704025971E-01
 0.1797763077346E-01 -0.2478583109134E-01
 0.1605643031060E-01 -0.2302285664059E-01
 0.1423569184012E-01 -0.2122723501867E-01
 0.1251551700087E-01 -0.1939812451075E-01
 0.1089513502521E-01 -0.1753451558237E-01
 0.9372550849099E-02 -0.1563492974115E-01
 0.7943984737268E-02 -0.1369702754094E-01
 0.6603090962789E-02 -0.1171685242980E-01
 0.5338709877690E-02 -0.9687565906612E-02
 0.4133384804267E-02 -0.7596222868821E-02
 0.2947204404239E-02 -0.5414048979910E-02
 0.1716083274244E-02 -0.3103372730162E-02
 0.1312523058770E+01 -0.1658409342796E-03
 0.1313799960493E+01 -0.8078898235913E-03
 0.1314739728106E+01 -0.1388313905318E-02
 0.1315345012147E+01 -0.1955252824851E-02
 0.1315627271434E+01 -0.2543659796461E-02
 0.1315601197263E+01 -0.3182307653804E-02
 0.1315282769741E+01 -0.3896063220065E-02
 0.1314688413362E+01 -0.4706846677600E-02
 0.1313834597467E+01 -0.5634130519939E-02
 0.1312737712340E+01 -0.6695327753236E-02
 0.1311413960682E+01 -0.7905588850148E-02
 0.1309879159207E+01 -0.9277806471183E-02
 0.1308148545956E+01 -0.1082275049014E-01
 0.1306236629796E+01 -0.1254921086667E-01
 0.1304157077503E+01 -0.1446414087235E-01
 0.1301922629511E+01 -0.1657280493916E-01
 0.1299545045886E+01 -0.1887892484649E-01
 0.1297035074835E+01 -0.2138482696490E-01
 0.1294402442510E+01 -0.2409159095814E-01
 0.1291655860630E+01 -0.2699920038441E-01
 0.1288803050211E+01 -0.3010668895145E-01
 0.1285850780272E+01 -0.3341223952480E-01
 0.1282804899357E+01 -0.3691330408219E-01
 0.1279670391755E+01 -0.4060673914904E-01
 0.1276451440821E+01 -0.4448892227658E-01
 0.1273151490850E+01 -0.4855585387908E-01
 0.1269773305037E+01 -0.5280324428127E-01
 0.1266319020106E+01 -0.5722659444188E-01
 0.1262790192970E+01 -0.6182127028336E-01
 0.1259187850787E+01 -0.6658257942450E-01
 0.1255512551460E+01 -0.7150588324611E-01
 0.1251764473860E+01 -0.7658679544527E-01
 0.1247943504572E+01 -0.8182131459440E-01
 0.1244049230571E+01 -0.8720550769462E-01
 0.1240080896720E+01 -0.9273584203818E-01
 0.1236037542229E+01 -0.9840955098955E-01
 0.1231918305089E+01 -0.1042254538717E+00
 0.1227723417259E+01 -0.1101855383458E+00
 0.1223457128619E+01 -0.1162993930460E+00
 0.1253207492901E+01 -0.6253572475132E-02
 0.1192040160195E+01 -0.1173286011852E-01
 0.1128101759403E+01 -0.1586234129054E-01
 0.1062049804886E+01 -0.1861495486101E-01
 0.9944882612950E+00 -0.1998554657241E-01
 0.9259926158142E+00 -0.2001303035204E-01
 0.8571158559092E+00 -0.1878346434614E-01
 0.7883781969372E+00 -0.1643838775878E-01
 0.7202407695188E+00 -0.1318044880296E-01
 0.6530859487282E+00 -0.9270394363599E-02
 0.5872263220958E+00 -0.5003074555957E-02
 0.5229357555425E+00 -0.6562807385529E-03
 0.4604935729602E+00  0.3560006452042E-02
 0.4002124256603E+00  0.7524153131885E-02
 0.3424460487342E+00  0.1118913867968E-01
 0.2875993502013E+00  0.1454512911023E-01
 0.2361403475565E+00  0.1756777162528E-01
 0.1886061243418E+00  0.2015431593829E-01
 0.1455905382274E+00  0.2204381603093E-01
 0.1173658199574E+01 -0.1228157458253E+00
 0.1126065256882E+01 -0.1225829195959E+00
 0.1076517248067E+01 -0.1217412376424E+00
 0.1025214247347E+01 -0.1202320348881E+00
 0.9723651508227E+00 -0.1180350507258E+00
 0.9181871044113E+00 -0.1151519548840E+00
 0.8628978252502E+00 -0.1115996285543E+00
 0.8066989126663E+00 -0.1073971237548E+00
 0.7497427342587E+00 -0.1025477264499E+00
 0.6921033140342E+00 -0.9703150074937E-01
 0.6337771674437E+00 -0.9082831932250E-01
 0.5747442133044E+00 -0.8396738079916E-01
 0.5150527183684E+00 -0.7657429325757E-01
 0.4548731340161E+00 -0.6888160940283E-01
 0.3945151983794E+00 -0.6120256855949E-01
 0.3344318273150E+00 -0.5388480140775E-01
 0.2752236259301E+00 -0.4725334193406E-01
 0.2176431170733E+00 -0.4154028415517E-01
 0.1625851006612E+00 -0.3679296659461E-01
 0.1332206342672E+01  0.4361597130726E-02
 0.1353352789290E+01  0.8111494782943E-02
 0.1374281940253E+01  0.1192088280252E-01
 0.1394936893590E+01  0.1578691697685E-01
 0.1415262328445E+01  0.1969912452517E-01
 0.1435199798521E+01  0.2364471562195E-01
 0.1454685901874E+01  0.2761045892571E-01
 0.1473651766020E+01  0.3158344110759E-01
 0.1492022974157E+01  0.3555162907909E-01
 0.1509719805690E+01  0.3950444894522E-01
 0.1526657773080E+01  0.4343346142028E-01
 0.1542748483667E+01  0.4733315215442E-01
 0.1557900853203E+01  0.5120182317558E-01
 0.1572022673722E+01  0.5504254738142E-01
 0.1585022474965E+01  0.5886409786390E-01
 0.1596811647234E+01  0.6268186541026E-01
 0.1607306366702E+01  0.6651832698954E-01
 0.1616431053769E+01  0.7040559782097E-01
 0.1624114366183E+01  0.7438041072379E-01
 0.1232859854689E+01 -0.1288364100967E+00
 0.1246356729884E+01 -0.1352891437330E+00
 0.1259607350852E+01 -0.1419940229515E+00
 0.1272615189395E+01 -0.1489570629979E+00
 0.1285388505463E+01 -0.1561769816655E+00
 0.1297936969664E+01 -0.1636492501455E+00
 0.1310270449487E+01 -0.1713675790542E+00
 0.1322398670695E+01 -0.1793245196260E+00
 0.1334331120690E+01 -0.1875117673806E+00
 0.1346077041510E+01 -0.1959203493980E+00
 0.1357645452887E+01 -0.2045407688276E+00
 0.1369045185698E+01 -0.2133631379007E+00
 0.1380284917824E+01 -0.2223773152033E+00
 0.1391373207040E+01 -0.2315730581105E+00
 0.1402318509433E+01 -0.2409401970173E+00
 0.1413129174248E+01 -0.2504688553991E+00
 0.1423813338195E+01 -0.2601496784147E+00
 0.1434378904726E+01 -0.2699744495117E+00
 0.1444832186804E+01 -0.2799357638946E+00
 0.1249677154887E-02  0.2261520206969E-02
 0.2412768403147E-02  0.4365823945715E-02
 0.3493908309990E-02  0.6260434619558E-02
 0.4625716617204E-02  0.8072234939112E-02
 0.5829720369082E-02  0.9820020478241E-02
 0.7123751304120E-02  0.1151783388173E-01
 0.8516296185270E-02  0.1317217586227E-01
 0.1001234697171E-01  0.1478675665739E-01
 0.1161444788426E-01  0.1636363945065E-01
 0.1332363094796E-01  0.1790399914815E-01
 0.1513985551638E-01  0.1940850408050E-01
 0.1706232966723E-01  0.2087759168995E-01
 0.1908968221140E-01  0.2231164638619E-01
 0.2122008156652E-01  0.2371119123500E-01
 0.2345128613459E-01  0.2507723972577E-01
 0.2578124652753E-01  0.2641153042323E-01
 0.2821006691725E-01  0.2771996509160E-01
 0.3073913585790E-01  0.2901133964841E-01
 0.3336742189343E-01  0.3028845808283E-01
 0.3609117463948E-01  0.3154999725673E-01
 0.3890537886659E-01  0.3279377305003E-01
 0.4180474817380E-01  0.3401833105114E-01
 0.4478396968047E-01  0.3522334562436E-01
 0.4783789058725E-01  0.3640972969744E-01
 0.5096160409549E-01  0.3757968318729E-01
 0.5415047514578E-01  0.3873676667864E-01
 0.5740013604046E-01  0.3988608597923E-01
 0.6070638857137E-01  0.4103232938456E-01
 0.6406549489255E-01  0.4217989364810E-01
 0.6747472499553E-01  0.4333548263480E-01
 0.7093290572094E-01  0.4450838398613E-01
 0.7444094196005E-01  0.4571075178122E-01
 0.7800280136070E-01  0.4695809598480E-01
 0.8162686935256E-01  0.4826955113239E-01
 0.8532797429554E-01  0.4966689170503E-01
 0.8913074256926E-01  0.5116806731606E-01
 0.9307555046401E-01  0.5277058136136E-01
 0.9723744577684E-01  0.5447436545036E-01
 0.1017179530759E+00  0.5634258604549E-01
 0.1069646759948E+00  0.5829510965705E-01
 0.1079932917449E-02  0.2012024677587E-02
 0.2228283043098E-02  0.4018623601441E-02
 0.3325960757638E-02  0.5891800563175E-02
 0.4461703245039E-02  0.7666746810464E-02
 0.5671017308217E-02  0.9378114369053E-02
 0.6969130497494E-02  0.1103732594720E-01
 0.8365490515097E-02  0.1265205356103E-01
 0.9865100703772E-02  0.1422640279381E-01
 0.1147063404646E-01  0.1576283430973E-01
 0.1318317068627E-01  0.1726280499099E-01
 0.1500270299996E-01  0.1872719792761E-01
 0.1692845281689E-01  0.2015660587635E-01
 0.1895905178120E-01  0.2155151117856E-01
 0.2109265090851E-01  0.2291246332842E-01
 0.2332705802576E-01  0.2424021630054E-01
 0.2566040112206E-01  0.2553554229969E-01
 0.2809279316559E-01  0.2680307570726E-01
 0.3062544995243E-01  0.2805151154652E-01
 0.3325735898200E-01  0.2928495514839E-01
 0.3598488477167E-01  0.3050340736581E-01
 0.3880302723970E-01  0.3170538644776E-01
 0.4170645791140E-01  0.3288964577657E-01
 0.4468980724705E-01  0.3405578703053E-01
 0.4774787117083E-01  0.3520449723934E-01
 0.5087570508682E-01  0.3633764950016E-01
 0.5406862755744E-01  0.3745843042780E-01
 0.5732219429829E-01  0.3857161221807E-01
 0.6063215038858E-01  0.3968158617647E-01
 0.6399473560504E-01  0.4079221779262E-01
 0.6740718815129E-01  0.4190924493246E-01
 0.7086830937155E-01  0.4304058876916E-01
 0.7437901000879E-01  0.4419658421529E-01
 0.7794329431569E-01  0.4539033536372E-01
 0.8156953042788E-01  0.4663792160307E-01
 0.8527238513943E-01  0.4795745260659E-01
 0.8907565527814E-01  0.4936269350919E-01
 0.9302172541946E-01  0.5084148201016E-01
 0.9718020853274E-01  0.5238107909425E-01
 0.1016820665290E+00  0.5396646873626E-01
 0.1069618857470E+00  0.5550587970708E-01
 0.9574943950289E-03  0.1842997077876E-02
 0.2060215540349E-02  0.3729702349649E-02
 0.3162829547054E-02  0.5548616815242E-02
 0.4303312380234E-02  0.7282298418844E-02
 0.5516624284914E-02  0.8952314214943E-02
 0.6818710952839E-02  0.1057082294673E-01
 0.8218704053826E-02  0.1214460735096E-01
 0.9721796633657E-02  0.1367797118552E-01
 0.1133069615747E-01  0.1517349756183E-01
 0.1304653229119E-01  0.1663280306057E-01
 0.1486932267373E-01  0.1805690027496E-01
 0.1679830574512E-01  0.1944647663738E-01
 0.1883212206978E-01  0.2080205935930E-01
 0.2096893999985E-01  0.2212413967441E-01
 0.2320668563625E-01  0.2341316541692E-01
 0.2554367567648E-01  0.2466930922195E-01
 0.2797993750751E-01  0.2589655534387E-01
 0.3051636632684E-01  0.2710345030553E-01
 0.3315186913090E-01  0.2829474964612E-01
 0.3588295466712E-01  0.2947133523326E-01
 0.3870473369043E-01  0.3063233823947E-01
 0.4161190792041E-01  0.3177676776294E-01
 0.4459909410364E-01  0.3290422434648E-01
 0.4766106076941E-01  0.3401522870197E-01
 0.5079283387344E-01  0.3511138049379E-01
 0.5398968276540E-01  0.3619553027216E-01
 0.5724709456965E-01  0.3727206710784E-01
 0.6056078928867E-01  0.3834497038626E-01
 0.6392703278136E-01  0.3941754220997E-01
 0.6734308521056E-01  0.4049462486492E-01
 0.7080776890599E-01  0.4158287556472E-01
 0.7432204040688E-01  0.4269095862437E-01
 0.7788995376418E-01  0.4382983037113E-01
 0.8151986718080E-01  0.4501286664898E-01
 0.8522617351335E-01  0.4625487543929E-01
 0.8903271478058E-01  0.4756487901327E-01
 0.9298228830613E-01  0.4892438213237E-01
 0.9714649031257E-01  0.5030463307842E-01
 0.1016691204148E+00  0.5166659152922E-01
 0.1068824649488E+00  0.5297058791349E-01
 0.8652389579786E-03  0.1714520179972E-02
 0.1913975878032E-02  0.3487492494493E-02
 0.3008603568571E-02  0.5234634488077E-02
 0.4151215934327E-02  0.6918307974438E-02
 0.5367458444771E-02  0.8543239258236E-02
 0.6672861787943E-02  0.1011852339371E-01
 0.8076199366517E-02  0.1164998140364E-01
 0.9582582215576E-02  0.1314149430954E-01
 0.1119472737124E-01  0.1459558772634E-01
 0.1291377456406E-01  0.1601389207794E-01
 0.1473975711272E-01  0.1739746614557E-01
 0.1667192696545E-01  0.1874703132737E-01
 0.1870894195635E-01  0.2006310819672E-01
 0.2084901837864E-01  0.2134608377683E-01
 0.2309022072283E-01  0.2259614417826E-01
 0.2543101059788E-01  0.2381311085388E-01
 0.2787127876006E-01  0.2500060645377E-01
 0.3041157001132E-01  0.2616700008712E-01
 0.3305065778879E-01  0.2731735699013E-01
 0.3578517247414E-01  0.2845312233751E-01
 0.3861037656513E-01  0.2957391276925E-01
 0.4152105504497E-01  0.3067899278120E-01
 0.4451185064760E-01  0.3176800291338E-01
 0.4757752925837E-01  0.3284134386085E-01
 0.5071309872835E-01  0.3390038298978E-01
 0.5391378819537E-01  0.3494765482968E-01
 0.5717503579171E-01  0.3598714201263E-01
 0.6049256023895E-01  0.3702236469215E-01
 0.6386268000302E-01  0.3805605314610E-01
 0.6728271247379E-01  0.3909221442778E-01
 0.7075153316654E-01  0.4013635687473E-01
 0.7427015825926E-01  0.4119565031143E-01
 0.7784268538784E-01  0.4227916571998E-01
 0.8147741424783E-01  0.4339795083257E-01
 0.8518854627874E-01  0.4456384755446E-01
 0.8899989254127E-01  0.4578205480382E-01
 0.9295461477483E-01  0.4702922914987E-01
 0.9712590740498E-01  0.4826866049297E-01
 0.1016486396651E+00  0.4946615704206E-01
 0.1067462613526E+00  0.5062477998699E-01
 0.7930924555949E-03  0.1609514595196E-02
 0.1788448930261E-02  0.3279454523295E-02
 0.2866059882398E-02  0.4948464304705E-02
 0.4006552821913E-02  0.6574744934068E-02
 0.5224176701135E-02  0.8150777393827E-02
 0.6532026775525E-02  0.9680512772920E-02
 0.7938231620132E-02  0.1116818215230E-01
 0.9447623155414E-02  0.1261694040808E-01
 0.1106283107113E-01  0.1402902141416E-01
 0.1278496584369E-01  0.1540594819011E-01
 0.1461405489389E-01  0.1674874077121E-01
 0.1654935736478E-01  0.1805809760621E-01
 0.1858955421735E-01  0.1933448968017E-01
 0.2073292591617E-01  0.2057818442889E-01
 0.2297766618066E-01  0.2178916873750E-01
 0.2532233016888E-01  0.2296706886276E-01
 0.2776664835137E-01  0.2411528623021E-01
 0.3031082902657E-01  0.2524198885681E-01
 0.3295349090514E-01  0.2635236052116E-01
 0.3569135302216E-01  0.2744819453358E-01
 0.3851983739018E-01  0.2852946980760E-01
 0.4143384511938E-01  0.2959567729774E-01
 0.4442807763698E-01  0.3064651550568E-01
 0.4749732171340E-01  0.3168229738691E-01
 0.5063658175572E-01  0.3270418840452E-01
 0.5384106188175E-01  0.3371442278701E-01
 0.5710617279294E-01  0.3471657228117E-01
 0.6042765042358E-01  0.3571368652366E-01
 0.6380188037051E-01  0.3670793741530E-01
 0.6722625602593E-01  0.3770256047049E-01
 0.7069972045171E-01  0.3870203615387E-01
 0.7422334464864E-01  0.3971222500271E-01
 0.7780123522445E-01  0.4074058367291E-01
 0.8144158533916E-01  0.4179619205031E-01
 0.8515835850205E-01  0.4288846831069E-01
 0.8897511650921E-01  0.4401978809591E-01
 0.9293482569801E-01  0.4516424613920E-01
 0.9710848406442E-01  0.4628482781076E-01
 0.1016098186831E+00  0.4736085196717E-01
 0.1065756465887E+00  0.4841818225326E-01
 0.7349709090873E-03  0.1519410717265E-02
 0.1680836452496E-02  0.3096370834911E-02
 0.2736187302653E-02  0.4686581724426E-02
 0.3870346676595E-02  0.6250849768412E-02
 0.5087359546720E-02  0.7774579940498E-02
 0.6396604674643E-02  0.9256635584293E-02
 0.7805058396416E-02  0.1069911188162E-01
 0.9317085540515E-02  0.1210420272842E-01
 0.1093511660683E-01  0.1347367272425E-01
 0.1266017914922E-01  0.1480882195946E-01
 0.1449226764850E-01  0.1611055662427E-01
 0.1643063717367E-01  0.1737950024168E-01
 0.1847399233162E-01  0.1861604201296E-01
 0.2062067985892E-01  0.1982033029621E-01
 0.2286899976100E-01  0.2099220791036E-01
 0.2521755608976E-01  0.2213120023699E-01
 0.2766591145159E-01  0.2324055567015E-01
 0.3021396638767E-01  0.2432822058576E-01
 0.3286018217640E-01  0.2539938350485E-01
 0.3560133718336E-01  0.2645604148816E-01
 0.3843300423460E-01  0.2749843198946E-01
 0.4135021704360E-01  0.2852623132646E-01
 0.4434776004558E-01  0.2953919761089E-01
 0.4742046193460E-01  0.3053757621051E-01
 0.5056334001255E-01  0.3152235325967E-01
 0.5377159080496E-01  0.3249547833446E-01
 0.5704061758684E-01  0.3346012077962E-01
 0.6036618740557E-01  0.3441886977753E-01
 0.6374475949585E-01  0.3537336874170E-01
 0.6717380848419E-01  0.3632615170455E-01
 0.7065234320571E-01  0.3728079419524E-01
 0.7418146670863E-01  0.3824203401383E-01
 0.7776524254225E-01  0.3921597784404E-01
 0.8141167901355E-01  0.4021010929761E-01
 0.8513436365218E-01  0.4123200628776E-01
 0.8895625892573E-01  0.4228225141670E-01
 0.9291901833711E-01  0.4333467345676E-01
 0.9708776615095E-01  0.4435626312524E-01
 0.1015516401919E+00  0.4533914356261E-01
 0.1063861463793E+00  0.4631788385382E-01
 0.6870432511837E-03  0.1439425795365E-02
 0.1588239686160E-02  0.2931836468882E-02
 0.2618821739560E-02  0.4445172993066E-02
 0.3743205647604E-02  0.5945189489229E-02
 0.4957486787859E-02  0.7414039821826E-02
 0.6266933905712E-02  0.8846556679484E-02
 0.7676916692921E-02  0.1024255771167E-01
 0.9191129268677E-02  0.1160310544325E-01
 0.1081169220278E-01  0.1292937104469E-01
 0.1253948836737E-01  0.1422233707469E-01
 0.1437444704648E-01  0.1548273098161E-01
 0.1631580359417E-01  0.1671105752694E-01
 0.1836228031406E-01  0.1790760095464E-01
 0.2051228186713E-01  0.1907239715958E-01
 0.2276418687018E-01  0.2020518641361E-01
 0.2511661316409E-01  0.2130544814236E-01
 0.2756895687241E-01  0.2237630910040E-01
 0.3012084275684E-01  0.2342547641193E-01
 0.3277058166105E-01  0.2445807222658E-01
 0.3551498902242E-01  0.2547619986087E-01
 0.3834977325042E-01  0.2648027321955E-01
 0.4127010574142E-01  0.2747011099573E-01
 0.4427087028290E-01  0.2844552255449E-01
 0.4734695520354E-01  0.2940669661291E-01
 0.5049340694095E-01  0.3035445712453E-01
 0.5370543160962E-01  0.3129048562397E-01
 0.5697844213449E-01  0.3221756620310E-01
 0.6030824627696E-01  0.3313785087648E-01
 0.6369137718223E-01  0.3405249578670E-01
 0.6712538527724E-01  0.3496340858163E-01
 0.7060932962847E-01  0.3587338204764E-01
 0.7414430811512E-01  0.3678621175614E-01
 0.7773427337163E-01  0.3770690764371E-01
 0.8138694001381E-01  0.3864171814510E-01
 0.8511532168351E-01  0.3959693565205E-01
 0.8894132383813E-01  0.4057229171183E-01
 0.9290407079588E-01  0.4154301994697E-01
 0.9706054544144E-01  0.4248161509709E-01
 0.1014767567226E+00  0.4338955172621E-01
 0.1061875428536E+00  0.4430227105830E-01
 0.6467927754797E-03  0.1366677785959E-02
 0.1508120370562E-02  0.2781398492865E-02
 0.2513201554759E-02  0.4220812617907E-02
 0.3625313787707E-02  0.5656004872352E-02
 0.4834883001627E-02  0.7068308509848E-02
 0.6143282520883E-02  0.8449794333706E-02
 0.7554008810720E-02  0.9798203652243E-02
 0.9069899523632E-02  0.1111340617066E-01
 0.1069265960965E-01  0.1239590246149E-01
 0.1242296438431E-01  0.1364628950453E-01
 0.1426064220299E-01  0.1486506422101E-01
 0.1620488923498E-01  0.1605257779056E-01
 0.1825443378282E-01  0.1720899342437E-01
 0.2040772339830E-01  0.1833424216104E-01
 0.2266318757150E-01  0.1942799024415E-01
 0.2501943152305E-01  0.2048970134022E-01
 0.2747569093922E-01  0.2152239282323E-01
 0.3003134538218E-01  0.2253351787991E-01
 0.3268456678399E-01  0.2352808609347E-01
 0.3543219214149E-01  0.2450824046715E-01
 0.3827004891306E-01  0.2547450839335E-01
 0.4119344416977E-01  0.2642681134054E-01
 0.4419737075195E-01  0.2736499656089E-01
 0.4727679063358E-01  0.2828920081567E-01
 0.5042679417400E-01  0.2920009936880E-01
 0.5364261253548E-01  0.3009912326362E-01
 0.5691968193683E-01  0.3098869410054E-01
 0.6025385639541E-01  0.3187055816143E-01
 0.6364173808441E-01  0.3274543258747E-01
 0.6708093948925E-01  0.3361467626227E-01
 0.7057054356270E-01  0.3448041774490E-01
 0.7411159460404E-01  0.3534568026520E-01
 0.7770785365159E-01  0.3621461209204E-01
 0.8136661186655E-01  0.3709255617216E-01
 0.8510007834151E-01  0.3798500441955E-01
 0.8892862054939E-01  0.3889157722176E-01
 0.9288786256743E-01  0.3978983731970E-01
 0.9702578558995E-01  0.4065767627043E-01
 0.1013887586239E+00  0.4150243913178E-01
 0.1059857933103E+00  0.4235675885157E-01
 0.6125001655468E-03  0.1299324444133E-02
 0.1438381214929E-02  0.2641912460564E-02
 0.2418314856568E-02  0.4010628467141E-02
 0.3516528346684E-02  0.5381478457904E-02
 0.4719699702779E-02  0.6736373951914E-02
 0.6025836607251E-02  0.8065746706789E-02
 0.7436494157265E-02  0.9365647058853E-02
 0.8953519651943E-02  0.1063480186937E-01
 0.1057810941756E-01  0.1187301209773E-01
 0.1231067177575E-01  0.1308044780922E-01
 0.1415089747203E-01  0.1425733864113E-01
 0.1609792120145E-01  0.1540385664215E-01
 0.1815046127530E-01  0.1652003341886E-01
 0.2030698944112E-01  0.1760570174330E-01
 0.2256596038522E-01  0.1866047202328E-01
 0.2492594723375E-01  0.1968380710325E-01
 0.2738603341041E-01  0.2067861737033E-01
 0.2994538079146E-01  0.2165209021455E-01
 0.3260203553025E-01  0.2260909177848E-01
 0.3535284605609E-01  0.2355175878404E-01
 0.3819374347177E-01  0.2448068464851E-01
 0.4112016456883E-01  0.2539585959376E-01
 0.4412721584654E-01  0.2629715385650E-01
 0.4720994326722E-01  0.2718465323395E-01
 0.5036349359946E-01  0.2805889543638E-01
 0.5358313598458E-01  0.2892107919026E-01
 0.5686434004671E-01  0.2977328976643E-01
 0.6020300784857E-01  0.3061690384604E-01
 0.6359580140901E-01  0.3145225148816E-01
 0.6704037524786E-01  0.3228022026728E-01
 0.7053580197726E-01  0.3310238672584E-01
 0.7408301603650E-01  0.3392115750462E-01
 0.7768549821778E-01  0.3474002949322E-01
 0.8134997724703E-01  0.3556372449721E-01
 0.8508762351108E-01  0.3639732290445E-01
 0.8891684614491E-01  0.3724082962076E-01
 0.9286916769464E-01  0.3807446804947E-01
 0.9698370632096E-01  0.3888072353676E-01
 0.1012910923687E+00  0.3967012082848E-01
 0.1057845199951E+00  0.4047113241657E-01
 0.5829488903945E-03  0.1236130788010E-02
 0.1377325916750E-02  0.2511113446248E-02
 0.2333091984894E-02  0.3812278935376E-02
 0.3416489510127E-02  0.5119885869908E-02
 0.4611929930321E-02  0.6417147255648E-02
 0.5914695118090E-02  0.7693724208938E-02
 0.7324484189867E-02  0.8944415373743E-02
 0.8842086262489E-02  0.1016693709773E-01
 0.1046811722440E-01  0.1136040761106E-01
 0.1220266608641E-01  0.1252455427609E-01
 0.1404525070062E-01  0.1365931794872E-01
 0.1599492058689E-01  0.1476467514294E-01
 0.1805036541409E-01  0.1584051976034E-01
 0.2021006095597E-01  0.1688659150428E-01
 0.2247246427204E-01  0.1790245571236E-01
 0.2483610214031E-01  0.1888758016250E-01
 0.2729991456895E-01  0.1984476582401E-01
 0.2986286979730E-01  0.2078092508297E-01
 0.3252290136939E-01  0.2170075965964E-01
 0.3527686297431E-01  0.2260636798146E-01
 0.3812077600924E-01  0.2349837412305E-01
 0.4105019915941E-01  0.2437680912735E-01
 0.4406035350706E-01  0.2524155194029E-01
 0.4714637598311E-01  0.2609263661175E-01
 0.5030347955602E-01  0.2693047302753E-01
 0.5352698139599E-01  0.2775604605095E-01
 0.5681239123589E-01  0.2857113256579E-01
 0.6015565761057E-01  0.2937677801806E-01
 0.6355348971085E-01  0.3017297829411E-01
 0.6700355956891E-01  0.3096022457334E-01
 0.7050489005127E-01  0.3173964510872E-01
 0.7405824504582E-01  0.3251316889073E-01
 0.7766673402336E-01  0.3328382238400E-01
 0.8133638671955E-01  0.3405593771240E-01
 0.8507712380200E-01  0.3483446712825E-01
 0.8890508569758E-01  0.3562007241177E-01
 0.9284744399691E-01  0.3639558957427E-01
 0.9693516928313E-01  0.3714711993994E-01
 0.1011867183856E+00  0.3788653067068E-01
 0.1055859631420E+00  0.3863795438376E-01
 0.5572511053615E-03  0.1176235465609E-02
 0.1323590256984E-02  0.2387336111848E-02
 0.2256503216222E-02  0.3623874112545E-02
 0.3324710709621E-02  0.4869664601241E-02
 0.4511438539686E-02  0.6109531847912E-02
 0.5809873194703E-02  0.7332984173634E-02
 0.7218040439804E-02  0.8533983411467E-02
 0.8735666312290E-02  0.9709413266607E-02
 0.1036274087720E-01  0.1085776369337E-01
 0.1209899172912E-01  0.1197832674930E-01
 0.1394373192939E-01  0.1307074740975E-01
 0.1589590220263E-01  0.1413479888650E-01
 0.1795414380470E-01  0.1517023515823E-01
 0.2011691638988E-01  0.1617670702867E-01
 0.2238265957135E-01  0.1715374061219E-01
 0.2474984335387E-01  0.1810080910912E-01
 0.2721727304785E-01  0.1902059962546E-01
 0.2978374397578E-01  0.1991974277705E-01
 0.3244708948039E-01  0.2080276157301E-01
 0.3520416509329E-01  0.2167169378024E-01
 0.3805107137667E-01  0.2252716805206E-01
 0.4098348047655E-01  0.2336923410349E-01
 0.4399672644377E-01  0.2419776713511E-01
 0.4708604124065E-01  0.2501274822163E-01
 0.5024671106146E-01  0.2581446841208E-01
 0.5347410822553E-01  0.2660371713987E-01
 0.5676378613485E-01  0.2738199143263E-01
 0.6011173532306E-01  0.2815004430346E-01
 0.6351469679429E-01  0.2890758933363E-01
 0.6697033266235E-01  0.2965479178135E-01
 0.7047757391704E-01  0.3039242520620E-01
 0.7403695215878E-01  0.3112206137119E-01
 0.7765111739136E-01  0.3184640580155E-01
 0.8132527635385E-01  0.3256957776994E-01
 0.8506793056263E-01  0.3329658529449E-01
 0.8889276522195E-01  0.3402884708940E-01
 0.9282262507845E-01  0.3475156226892E-01
 0.9688130968661E-01  0.3545354210208E-01
 0.1010780683312E+00  0.3614684294879E-01
 0.1053915530693E+00  0.3685160252681E-01
 0.5347410684085E-03  0.1119017123015E-02
 0.1276075064298E-02  0.2269331158144E-02
 0.2187602782248E-02  0.3443890410108E-02
 0.3240643965712E-02  0.4629434740671E-02
 0.4417995930922E-02  0.5812469873838E-02
 0.5711311852159E-02  0.6982762247356E-02
 0.7117175690436E-02  0.8133790582225E-02
 0.8634295964262E-02  0.9261798219837E-02
 0.1026201880105E-01  0.1036472718621E-01
 0.1199968053072E-01  0.1144146103684E-01
 0.1384636250023E-01  0.1249135460172E-01
 0.1580087445763E-01  0.1351397786116E-01
 0.1786178967486E-01  0.1450894617668E-01
 0.2002753256158E-01  0.1547582519827E-01
 0.2229650833990E-01  0.1641410471685E-01
 0.2466712260421E-01  0.1732326110380E-01
 0.2713805415120E-01  0.1820586272802E-01
 0.2970794311884E-01  0.1906825389040E-01
 0.3237453393779E-01  0.1991476933197E-01
 0.3513468240567E-01  0.2074737061303E-01
 0.3798455916196E-01  0.2156667198828E-01
 0.4091994148966E-01  0.2237272483130E-01
 0.4393627311878E-01  0.2316539050293E-01
 0.4702888267788E-01  0.2394459626258E-01
 0.5019313399946E-01  0.2471052300401E-01
 0.5342445889820E-01  0.2546378289801E-01
 0.5671845521981E-01  0.2620562135965E-01
 0.6007114863622E-01  0.2693653689601E-01
 0.6347929472128E-01  0.2765601010637E-01
 0.6694051674812E-01  0.2836394496770E-01
 0.7045361114207E-01  0.2906084274575E-01
 0.7401881747197E-01  0.2974801920602E-01
 0.7763824565191E-01  0.3042797702724E-01
 0.8131617538781E-01  0.3110474797015E-01
 0.8505956989817E-01  0.3178349613251E-01
 0.8887958658796E-01  0.3246638063702E-01
 0.9279495215439E-01  0.3314063418659E-01
 0.9682333153063E-01  0.3379703360710E-01
 0.1009671074299E+00  0.3444715580563E-01
 0.1052022445267E+00  0.3510767623061E-01
 0.5149076848778E-03  0.1064014290579E-02
 0.1233889766306E-02  0.2156143334481E-02
 0.2125543969166E-02  0.3271095087430E-02
 0.3163723680941E-02  0.4397994745426E-02
 0.4331308795773E-02  0.5524969210974E-02
 0.5618890967814E-02  0.6642297458619E-02
 0.7021857805353E-02  0.7743256858218E-02
 0.8537981030990E-02  0.8823635671280E-02
 0.1016596933676E-01  0.9880922466743E-02
 0.1190475090863E-01  0.1091363373607E-01
 0.1375315453287E-01  0.1192085066940E-01
 0.1570983934662E-01  0.1290194693198E-01
 0.1777329231266E-01  0.1385640380996E-01
 0.1994188513655E-01  0.1478370571555E-01
 0.2221397435562E-01  0.1568330753042E-01
 0.2458789556475E-01  0.1655468542918E-01
 0.2706220853095E-01  0.1740028463385E-01
 0.2963541335291E-01  0.1822616059306E-01
 0.3230517560772E-01  0.1903645370642E-01
 0.3506835095996E-01  0.1983303871624E-01
 0.3792117277394E-01  0.2061650193924E-01
 0.4085951561757E-01  0.2138688378569E-01
 0.4387892855907E-01  0.2214402417165E-01
 0.4697483657487E-01  0.2288779654474E-01
 0.5014268321542E-01  0.2361828027149E-01
 0.5337796164651E-01  0.2433592796140E-01
 0.5667631256164E-01  0.2504176073690E-01
 0.6003378806235E-01  0.2573605870961E-01
 0.6344713993707E-01  0.2641811521689E-01
 0.6691392345292E-01  0.2708763084533E-01
 0.7043275908027E-01  0.2774490528378E-01
 0.7400353913727E-01  0.2839108060594E-01
 0.7762776381943E-01  0.2902854523186E-01
 0.8130870597810E-01  0.2966132376195E-01
 0.8505172221246E-01  0.3029477277121E-01
 0.8886546195200E-01  0.3093170618444E-01
 0.9276485067850E-01  0.3156105293055E-01
 0.9676240217763E-01  0.3217498489521E-01
 0.1008554213861E+00  0.3278425040156E-01
 0.1050187106073E+00  0.3340262032883E-01
 0.4973504814777E-03  0.1010875406367E-02
 0.1196307466039E-02  0.2047029008279E-02
 0.2069579439855E-02  0.3104484434166E-02
 0.3093394232827E-02  0.4174305807774E-02
 0.4251045412944E-02  0.5246116445842E-02
 0.5532443080401E-02  0.6310850343919E-02
 0.6932015354987E-02  0.7361796507605E-02
 0.8446698744538E-02  0.8394454054731E-02
 0.1007459096920E-01  0.9405956826635E-02
 0.1181420762673E-01  0.1039450530883E-01
 0.1366411073368E-01  0.1135893196366E-01
 0.1562279253331E-01  0.1229842678386E-01
 0.1768863736951E-01  0.1321234445346E-01
 0.1985994884950E-01  0.1410009269815E-01
 0.2213502294755E-01  0.1496109245059E-01
 0.2451212121019E-01  0.1579481623378E-01
 0.2698969113322E-01  0.1660358266267E-01
 0.2956610572952E-01  0.1739315760015E-01
 0.3223896057183E-01  0.1816748368880E-01
 0.3500511150601E-01  0.1892834189514E-01
 0.3786084867754E-01  0.1967628124293E-01
 0.4080213671016E-01  0.2041132222666E-01
 0.4382462505444E-01  0.2113327809189E-01
 0.4692383319395E-01  0.2184196951277E-01
 0.5009528448875E-01  0.2253738301929E-01
 0.5333453317819E-01  0.2321982873049E-01
 0.5663725928152E-01  0.2389012941936E-01
 0.5999953131439E-01  0.2454838044829E-01
 0.6341807853799E-01  0.2519372932171E-01
 0.6689035987943E-01  0.2582572388983E-01
 0.7041478127310E-01  0.2644452133791E-01
 0.7399083902441E-01  0.2705115448298E-01
 0.7761936717746E-01  0.2764795974645E-01
 0.8130257742331E-01  0.2823899813020E-01
 0.8504419735165E-01  0.2882981029758E-01
 0.8885045607656E-01  0.2942374558660E-01
 0.9273284509266E-01  0.3001112125287E-01
 0.9669960384776E-01  0.3058508728557E-01
 0.1007442978972E+00  0.3115541407949E-01
 0.1048414554854E+00  0.3173347973513E-01
 0.4817500487545E-03  0.9593265522657E-03
 0.1162730041912E-02  0.1941399491070E-02
 0.2019054595639E-02  0.2943234835264E-02
 0.3029126222453E-02  0.3957472194434E-02
 0.4176855148336E-02  0.4975080610064E-02
 0.5451766408856E-02  0.5987714855121E-02
 0.6847544166451E-02  0.6988829125168E-02
 0.8360400518575E-02  0.7973774421966E-02
 0.9987863300241E-02  0.8939425615095E-02
 0.1172804205793E-01  0.9883723248214E-02
 0.1357922449909E-01  0.1080528193767E-01
 0.1553972352716E-01  0.1170312518544E-01
 0.1760780708760E-01  0.1257649111975E-01
 0.1978169758445E-01  0.1342471626781E-01
 0.2205962075056E-01  0.1424718880765E-01
 0.2443976123752E-01  0.1504337470030E-01
 0.2692046035654E-01  0.1581546368397E-01
 0.2949997516046E-01  0.1656893291408E-01
 0.3217583894793E-01  0.1730752594864E-01
 0.3494490845863E-01  0.1803292578460E-01
 0.3780352578740E-01  0.1874563803749E-01
 0.4074773903975E-01  0.1944565735166E-01
 0.4377329277844E-01  0.2013276721917E-01
 0.4687579800671E-01  0.2080673763161E-01
 0.5005085636292E-01  0.2146747105553E-01
 0.5329408113838E-01  0.2211515142411E-01
 0.5660118668103E-01  0.2275042741814E-01
 0.5996824712117E-01  0.2337324041762E-01
 0.6339195072069E-01  0.2398262884972E-01
 0.6686963345736E-01  0.2457803112088E-01
 0.7039945211890E-01  0.2515950981904E-01
 0.7398046599651E-01  0.2572803670348E-01
 0.7761280073078E-01  0.2628593604190E-01
 0.8129757706806E-01  0.2683732050061E-01
 0.8503690940942E-01  0.2738787795270E-01
 0.8883473931224E-01  0.2794136367445E-01
 0.9269950247838E-01  0.2848922021623E-01
 0.9663591616104E-01  0.2902528226759E-01
 0.1006347939542E+00  0.2955831188681E-01
 0.1046708805377E+00  0.3009773489863E-01
 0.4678476799817E-03  0.9091499904915E-03
 0.1132661281617E-02  0.1838781397465E-02
 0.1973398173509E-02  0.2786664626224E-02
 0.2970425135337E-02  0.3746721320349E-02
 0.4108382776753E-02  0.4711111288334E-02
 0.5376636266971E-02  0.5672225281093E-02
 0.6768314081437E-02  0.6623787934138E-02
 0.8279015348716E-02  0.7561117160360E-02
 0.9905748601332E-02  0.8480916966164E-02
 0.1164623286996E-01  0.9380925200187E-02
 0.1349848027435E-01  0.1025957318252E-01
 0.1546061595465E-01  0.1111573845460E-01
 0.1753078049869E-01  0.1194855479219E-01
 0.1970710438774E-01  0.1275729409206E-01
 0.2198773544582E-01  0.1354131362870E-01
 0.2437077956535E-01  0.1430007079747E-01
 0.2685447738270E-01  0.1503562547019E-01
 0.2943697961246E-01  0.1575316840259E-01
 0.3211576401244E-01  0.1645624441874E-01
 0.3488768912068E-01  0.1714643648333E-01
 0.3774914501179E-01  0.1782420321125E-01
 0.4069625732560E-01  0.1848950991542E-01
 0.4372486035772E-01  0.1914210910262E-01
 0.4683065281695E-01  0.1978172313761E-01
 0.5000931182334E-01  0.2040817923683E-01
 0.5325650634751E-01  0.2102155057654E-01
 0.5656797903231E-01  0.2162233412016E-01
 0.5993979852693E-01  0.2221034492466E-01
 0.6336859446523E-01  0.2278454428718E-01
 0.6685155570006E-01  0.2334429727068E-01
 0.7038656005049E-01  0.2388960941543E-01
 0.7397219726033E-01  0.2442142538342E-01
 0.7760785645174E-01  0.2494207887433E-01
 0.8129355965035E-01  0.2545572901820E-01
 0.8502985350669E-01  0.2596815820462E-01
 0.8881855111167E-01  0.2648340256030E-01
 0.9266539681080E-01  0.2699381458464E-01
 0.9657221471561E-01  0.2749371448604E-01
 0.1005277882594E+00  0.2799089298072E-01
 0.1045073235970E+00  0.2849318874821E-01
 0.4554310141061E-03  0.8601695011224E-03
 0.1105686229439E-02  0.1738788453502E-02
 0.1932112248320E-02  0.2634204532640E-02
 0.2916835111164E-02  0.3541385305356E-02
 0.4045278562190E-02  0.4453533588821E-02
 0.5306814576327E-02  0.5363759455559E-02
 0.6694175421752E-02  0.6266125616100E-02
 0.8202453528111E-02  0.7156007445435E-02
 0.9828193775751E-02  0.8030015984886E-02
 0.1156874704550E-01  0.8885741927613E-02
 0.1342185412691E-01  0.9721469499630E-02
 0.1538544792379E-01  0.1053595302803E-01
 0.1745753362861E-01  0.1132823583880E-01
 0.1963614146441E-01  0.1209753285592E-01
 0.2191933552376E-01  0.1284317318132E-01
 0.2430514191720E-01  0.1356460472567E-01
 0.2679170565114E-01  0.1426375777886E-01
 0.2937707950185E-01  0.1494554026049E-01
 0.3205869155548E-01  0.1561329998025E-01
 0.3483340311600E-01  0.1626851947623E-01
 0.3769764893145E-01  0.1691160874418E-01
 0.4064762680112E-01  0.1754250225714E-01
 0.4367925540557E-01  0.1816092185232E-01
 0.4678831678743E-01  0.1876654614379E-01
 0.4997055982030E-01  0.1935913587455E-01
 0.5322170480768E-01  0.1993866793267E-01
 0.5653751602784E-01  0.2050550795070E-01
 0.5991404569649E-01  0.2105936913418E-01
 0.6334784851523E-01  0.2159916284854E-01
 0.6683594499958E-01  0.2212421011469E-01
 0.7037590946699E-01  0.2263448765477E-01
 0.7396583824079E-01  0.2313093491956E-01
 0.7760436912701E-01  0.2361590237780E-01
 0.8129043634585E-01  0.2409357665859E-01
 0.8502308562147E-01  0.2456977526231E-01
 0.8880217267588E-01  0.2504870240150E-01
 0.9263108734560E-01  0.2552344922396E-01
 0.9650927742765E-01  0.2598869107204E-01
 0.1004240206856E+00  0.2645132132611E-01
 0.1043510824774E+00  0.2691788762299E-01
 0.4443236966655E-03  0.8122401260354E-03
 0.1081455264518E-02  0.1641101127339E-02
 0.1894762695616E-02  0.2485374773979E-02
 0.2867939675757E-02  0.3340884686872E-02
 0.3987205044148E-02  0.4201741596970E-02
 0.5242057494556E-02  0.5061739355274E-02
 0.6624964860274E-02  0.5915318059272E-02
 0.8130610416281E-02  0.6757979460004E-02
 0.9755132570584E-02  0.7586308323356E-02
 0.1149554114837E-01  0.8397800032186E-02
 0.1334931449262E-01  0.9190627925944E-02
 0.1531419247642E-01  0.9963447056955E-02
 0.1738803972929E-01  0.1071522542982E-01
 0.1956878018981E-01  0.1144512965079E-01
 0.2185439009095E-01  0.1215246433762E-01
 0.2424281548909E-01  0.1283666813397E-01
 0.2673211045492E-01  0.1349954323968E-01
 0.2932023724709E-01  0.1414571939067E-01
 0.3200457941722E-01  0.1477835022685E-01
 0.3478200199131E-01  0.1539881878536E-01
 0.3764898159501E-01  0.1600748637195E-01
 0.4060178332531E-01  0.1660425668130E-01
 0.4363640502871E-01  0.1718882245291E-01
 0.4674870737674E-01  0.1776082307855E-01
 0.4993450663867E-01  0.1831996147629E-01
 0.5318956947881E-01  0.1886613169525E-01
 0.5650967489932E-01  0.1939958640123E-01
 0.5989084825667E-01  0.1991995826709E-01
 0.6332955472567E-01  0.2042613138361E-01
 0.6682262859535E-01  0.2091740578377E-01
 0.7036732166028E-01  0.2139374944596E-01
 0.7396122138516E-01  0.2185610858133E-01
 0.7760221145938E-01  0.2230684715320E-01
 0.8128816429263E-01  0.2275015188563E-01
 0.8501670579383E-01  0.2319181555482E-01
 0.8878590696433E-01  0.2363611298925E-01
 0.9259710632564E-01  0.2407674181567E-01
 0.9644779448808E-01  0.2450864785680E-01
 0.1003241214379E+00  0.2493792217013E-01
 0.1042024280414E+00  0.2537006465010E-01
 0.4343777913773E-03  0.7652408413866E-03
 0.1059671761897E-02  0.1545451689354E-02
 0.1860970570780E-02  0.2339767282851E-02
 0.2823360671937E-02  0.3144714413778E-02
 0.3933841358995E-02  0.3955191317906E-02
 0.5182121339256E-02  0.4765629963884E-02
 0.6560510549557E-02  0.5570866446369E-02
 0.8063370069174E-02  0.6366579488682E-02
 0.9686487899794E-02  0.7149383127650E-02
 0.1142656275293E-01  0.7916724377569E-02
 0.1328082305358E-01  0.8666700646924E-02
 0.1524681811896E-01  0.9397891969115E-02
 0.1732226955083E-01  0.1010920691817E-01
 0.1950499115569E-01  0.1079977327345E-01
 0.2179286873186E-01  0.1146887578913E-01
 0.2418376869818E-01  0.1211594516339E-01
 0.2667565864052E-01  0.1274265809989E-01
 0.2926641694783E-01  0.1335337173112E-01
 0.3195338716710E-01  0.1395104929607E-01
 0.3473343895363E-01  0.1453697630618E-01
 0.3760308841257E-01  0.1511146651866E-01
 0.4055866353450E-01  0.1567439414526E-01
 0.4359623631168E-01  0.1622542538978E-01
 0.4671174119231E-01  0.1676416543170E-01
 0.4990105711937E-01  0.1729026779297E-01
 0.5315999183245E-01  0.1780355607852E-01
 0.5648433222327E-01  0.1830418635272E-01
 0.5987006721213E-01  0.1879172904407E-01
 0.6331355985287E-01  0.1926505939833E-01
 0.6681144385002E-01  0.1972347391911E-01
 0.7036063495625E-01  0.2016694496703E-01
 0.7395820425064E-01  0.2059642961182E-01
 0.7760128888866E-01  0.2101429452976E-01
 0.8128673710801E-01  0.2142469480191E-01
 0.8501084437731E-01  0.2183334189323E-01
 0.8877006486424E-01  0.2224450038711E-01
 0.9256395176924E-01  0.2265237179105E-01
 0.9638838058284E-01  0.2305212806625E-01
 0.1002286331830E+00  0.2344913141680E-01
 0.1040616085370E+00  0.2384810078967E-01
 0.4254681144704E-03  0.7190692214723E-03
 0.1040082467626E-02  0.1451613098368E-02
 0.1830404546298E-02  0.2197031834774E-02
 0.2782756195090E-02  0.2952431987254E-02
 0.3884885769956E-02  0.3713393699191E-02
 0.5126767054951E-02  0.4474937056574E-02
 0.6500636467985E-02  0.5232298075660E-02
 0.8000608603929E-02  0.5981368037356E-02
 0.9622174166670E-02  0.6718835375733E-02
 0.1136175196263E-01  0.7442140182870E-02
 0.1321633570800E-01  0.8149336751019E-02
 0.1518328941867E-01  0.8838953952091E-02
 0.1726019165812E-01  0.9509857153228E-02
 0.1944474426027E-01  0.1016114543120E-01
 0.2173474142983E-01  0.1079208913563E-01
 0.2412797100752E-01  0.1140211335566E-01
 0.2662231839703E-01  0.1199277286561E-01
 0.2921558416698E-01  0.1256815854711E-01
 0.3190507589633E-01  0.1313104775968E-01
 0.3468766871620E-01  0.1368263129765E-01
 0.3755991612974E-01  0.1422317745563E-01
 0.4051820502860E-01  0.1475253321278E-01
 0.4355867678050E-01  0.1527034155422E-01
 0.4667733476433E-01  0.1577617877889E-01
 0.4987011573994E-01  0.1626965713891E-01
 0.5313286319511E-01  0.1675054112435E-01
 0.5646136543575E-01  0.1721890463280E-01
 0.5985156647793E-01  0.1767427129283E-01
 0.6329971686213E-01  0.1811552209167E-01
 0.6680223895754E-01  0.1854196256849E-01
 0.7035570427052E-01  0.1895357682723E-01
 0.7395666714929E-01  0.1935133085749E-01
 0.7760153450143E-01  0.1973757832337E-01
 0.8128617647490E-01  0.2011640949387E-01
 0.8500565142229E-01  0.2049340347533E-01
 0.8875495460015E-01  0.2087274869523E-01
 0.9253208761625E-01  0.2124907441487E-01
 0.9633157618300E-01  0.2161774840026E-01
 0.1001380531622E+00  0.2198351076393E-01
 0.1039288083301E+00  0.2235036691018E-01
 0.4174879389255E-03  0.6736374849961E-03
 0.1022469937124E-02  0.1359390623350E-02
 0.1802774392350E-02  0.2056865167441E-02
 0.2745818046710E-02  0.2763647508630E-02
 0.3840056929004E-02  0.3475908058482E-02
 0.5075763481774E-02  0.4189204375632E-02
 0.6445166011631E-02  0.4899166254726E-02
 0.7942197226250E-02  0.5601921141353E-02
 0.9562099502135E-02  0.6294267654150E-02
 0.1130104295559E-01  0.6973674778733E-02
 0.1315580359580E-01  0.7638183797217E-02
 0.1512356765105E-01  0.8286295328262E-02
 0.1720177279120E-01  0.8916847709341E-02
 0.1938800884562E-01  0.9528921853399E-02
 0.2167997854700E-01  0.1012177986725E-01
 0.2407539282044E-01  0.1069484445843E-01
 0.2657205912245E-01  0.1124955286966E-01
 0.2916770579725E-01  0.1178973670622E-01
 0.3185960810111E-01  0.1231799257144E-01
 0.3464464743076E-01  0.1283542000648E-01
 0.3751941286682E-01  0.1334224465694E-01
 0.4048034658449E-01  0.1383828924326E-01
 0.4352365484565E-01  0.1432317740118E-01
 0.4664540524575E-01  0.1479646206047E-01
 0.4984158756326E-01  0.1525772195889E-01
 0.5310807589652E-01  0.1570667274624E-01
 0.5644065408243E-01  0.1614331875992E-01
 0.5983521407331E-01  0.1656714965936E-01
 0.6328788582636E-01  0.1697706334184E-01
 0.6679487319988E-01  0.1737238276519E-01
 0.7035240024377E-01  0.1775310648397E-01
 0.7395651058253E-01  0.1812020302898E-01
 0.7760290419300E-01  0.1847599439762E-01
 0.8128652504507E-01  0.1882447347561E-01
 0.8500128795755E-01  0.1917104235343E-01
 0.8874087627865E-01  0.1951976111704E-01
 0.9250193852575E-01  0.1986562915929E-01
 0.9627787617720E-01  0.2020419755469E-01
 0.1000527721608E+00  0.2053966023207E-01
 0.1038044175421E+00  0.2087545980574E-01
 0.4103456919416E-03  0.6288695190837E-03
 0.1006646550666E-02  0.1268615447548E-02
 0.1777825414571E-02  0.1919002390712E-02
 0.2712269024186E-02  0.2578015365927E-02
 0.3799094264734E-02  0.3242336071244E-02
 0.5028889666202E-02  0.3908010519439E-02
 0.6393924897807E-02  0.4571049540449E-02
 0.7888004888993E-02  0.5227831016804E-02
 0.9506167860530E-02  0.5875291431092E-02
 0.1124436550641E-01  0.6510959028205E-02
 0.1309917414684E-01  0.7132889173048E-02
 0.1506761148146E-01  0.7739575792498E-02
 0.1714697826347E-01  0.8329846005883E-02
 0.1933475387993E-01  0.8902773298231E-02
 0.2162855085884E-01  0.9457618240225E-02
 0.2402600543659E-01  0.9993805133232E-02
 0.2652485135497E-01  0.1051265876886E-01
 0.2912274999615E-01  0.1101775892845E-01
 0.3181694763715E-01  0.1151152704824E-01
 0.3460433268728E-01  0.1199497538576E-01
 0.3748152820810E-01  0.1246829030062E-01
 0.4044502838863E-01  0.1293127376071E-01
 0.4349110022269E-01  0.1338353430228E-01
 0.4661587104170E-01  0.1382460705600E-01
 0.4981537906340E-01  0.1425404457828E-01
 0.5308552423876E-01  0.1467152292891E-01
 0.5642208083106E-01  0.1507698779123E-01
 0.5982088302080E-01  0.1546990533013E-01
 0.6327793448497E-01  0.1584919854518E-01
 0.6678921685344E-01  0.1621421270557E-01
 0.7035060810022E-01  0.1656495987839E-01
 0.7395765261062E-01  0.1690240165893E-01
 0.7760537227293E-01  0.1722880833013E-01
 0.8128784032652E-01  0.1754804470269E-01
 0.8499791987992E-01  0.1786529775532E-01
 0.8872811598513E-01  0.1818445879135E-01
 0.9247389750674E-01  0.1850085364721E-01
 0.9622770838047E-01  0.1881021572658E-01
 0.9997321350899E-01  0.1911624333404E-01
 0.1036884706807E+00  0.1942199669004E-01
 0.4039623841768E-03  0.5846986068270E-03
 0.9924497425388E-03  0.1179139728473E-02
 0.1755333736878E-02  0.1783210160364E-02
 0.2681860238179E-02  0.2395227304192E-02
 0.3761757787313E-02  0.3012316376623E-02
 0.4985936424655E-02  0.3630965765482E-02
 0.6346743465661E-02  0.4247550547879E-02
 0.7837900581704E-02  0.4858706206249E-02
 0.9454280938687E-02  0.5461527904515E-02
 0.1119164644810E-01  0.6053628444474E-02
 0.1304639212597E-01  0.6633101253144E-02
 0.1501537766751E-01  0.7198453518058E-02
 0.1709577239231E-01  0.7748516330451E-02
 0.1928494818209E-01  0.8282366477817E-02
 0.2158042963987E-01  0.8799270081700E-02
 0.2397978106399E-01  0.9298657609480E-02
 0.2648066676174E-01  0.9781747016880E-02
 0.2908068617934E-01  0.1025187405355E-01
 0.3177705973316E-01  0.1071129091990E-01
 0.3456668356836E-01  0.1116092693584E-01
 0.3744621333166E-01  0.1160093293966E-01
 0.4041219228406E-01  0.1203109402683E-01
 0.4346094433145E-01  0.1245100812194E-01
 0.4658865237523E-01  0.1286019808595E-01
 0.4979139884081E-01  0.1325819717045E-01
 0.5306510530604E-01  0.1364465011782E-01
 0.5640553227621E-01  0.1401945330780E-01
 0.5980845199532E-01  0.1438205780020E-01
 0.6326973852758E-01  0.1473141735201E-01
 0.6678515083593E-01  0.1506690159533E-01
 0.7035022633656E-01  0.1538853241564E-01
 0.7396002628950E-01  0.1569725299308E-01
 0.7760892749356E-01  0.1599526158450E-01
 0.8129018977455E-01  0.1628626683004E-01
 0.8499571268409E-01  0.1657520885559E-01
 0.8871694463844E-01  0.1686577903724E-01
 0.9244832049267E-01  0.1715359850337E-01
 0.9618147140477E-01  0.1743457901202E-01
 0.9989969612088E-01  0.1771200056356E-01
 0.1035813161634E+00  0.1798851508693E-01
 0.3982695861026E-03  0.5410656688153E-03
 0.9797381708040E-03  0.1090832739369E-02
 0.1735102313626E-02  0.1649281215032E-02
 0.2654368565835E-02  0.2215006647630E-02
 0.3727827520178E-02  0.2785519794610E-02
 0.4946707334943E-02  0.3357708960910E-02
 0.6303458461778E-02  0.3928294486543E-02
 0.7791755267605E-02  0.4494171334446E-02
 0.9406339898837E-02  0.5052608484740E-02
 0.1114281104577E-01  0.5601324021370E-02
 0.1299740065106E-01  0.6138470348720E-02
 0.1496682176561E-01  0.6662586109689E-02
 0.1704811895146E-01  0.7172520742276E-02
 0.1923856068047E-01  0.7667364881452E-02
 0.2153558679191E-01  0.8146397505868E-02
 0.2393669287737E-01  0.8609060266989E-02
 0.2643947817382E-01  0.9056470290230E-02
 0.2904148505953E-01  0.9491727294842E-02
 0.3173991104907E-01  0.9916920404852E-02
 0.3453166074402E-01  0.1033290061239E-01
 0.3741342116740E-01  0.1073978727660E-01
 0.4038178202383E-01  0.1113735274402E-01
 0.4343312067108E-01  0.1152518893632E-01
 0.4656367179171E-01  0.1190281185523E-01
 0.4976955823584E-01  0.1226974184945E-01
 0.5304671963140E-01  0.1262559969933E-01
 0.5639089956271E-01  0.1297024043072E-01
 0.5979780576286E-01  0.1330310657661E-01
 0.6326318165940E-01  0.1362318619188E-01
 0.6678256616692E-01  0.1392987307581E-01
 0.7035116533205E-01  0.1422319324637E-01
 0.7396357723101E-01  0.1450405885898E-01
 0.7761356959437E-01  0.1477457634962E-01
 0.8129364662228E-01  0.1503827306849E-01
 0.8499482812253E-01  0.1529981617834E-01
 0.8870761499181E-01  0.1556267416071E-01
 0.9242553405977E-01  0.1582273877795E-01
 0.9613951504123E-01  0.1607610566255E-01
 0.9983254375122E-01  0.1632567608425E-01
 0.1034831711046E+00  0.1657375223192E-01
 0.3932078190219E-03  0.4979178856140E-03
 0.9683886217263E-03  0.1003577823679E-02
 0.1716957563307E-02  0.1517029973706E-02
 0.2629594296527E-02  0.2037103476058E-02
 0.3697102708440E-02  0.2561645120038E-02
 0.4911019299055E-02  0.3087904565582E-02
 0.6263914397038E-02  0.3612927548511E-02
 0.7749443497829E-02  0.4133866581202E-02
 0.9362246891445E-02  0.4648174981531E-02
 0.1109778426573E-01  0.5153692814445E-02
 0.1295214216744E-01  0.5648649466022E-02
 0.1492189882974E-01  0.6131631413955E-02
 0.1700398163699E-01  0.6601519865889E-02
 0.1919556069925E-01  0.7057429511257E-02
 0.2149399500866E-01  0.7498659560998E-02
 0.2389671511611E-01  0.7924668169645E-02
 0.2640125966034E-01  0.8336477890657E-02
 0.2900511872301E-01  0.8736960500086E-02
 0.3170546977004E-01  0.9128048328046E-02
 0.3449922659788E-01  0.9510518812897E-02
 0.3738310657598E-01  0.9884464049307E-02
 0.4035374352685E-01  0.1024964789401E-01
 0.4340756517135E-01  0.1060566090092E-01
 0.4654085460793E-01  0.1095201744473E-01
 0.4974977185237E-01  0.1128823089537E-01
 0.5303027173933E-01  0.1161390457971E-01
 0.5637807885554E-01  0.1192885887820E-01
 0.5978883544762E-01  0.1223253283221E-01
 0.6325815549916E-01  0.1252395061700E-01
 0.6678136330565E-01  0.1280252828620E-01
 0.7035334594112E-01  0.1306828895665E-01
 0.7396826134938E-01  0.1332210069169E-01
 0.7761930627352E-01  0.1356595935886E-01
 0.8129828661848E-01  0.1380318891714E-01
 0.8499542126702E-01  0.1403816253728E-01
 0.8870036168749E-01  0.1427410880372E-01
 0.9240583387276E-01  0.1450717235226E-01
 0.9610215725805E-01  0.1473363644894E-01
 0.9977204453742E-01  0.1495606286864E-01
 0.1033942283130E+00  0.1517646371005E-01
 0.3887252643378E-03  0.4552076062120E-03
 0.9582934924276E-03  0.9172699670117E-03
 0.1700746527908E-02  0.1386288962609E-02
 0.2607358994096E-02  0.1861290588053E-02
 0.3669400908810E-02  0.2340415441594E-02
 0.4878702791174E-02  0.2821239891978E-02
 0.6227964552762E-02  0.3301115234546E-02
 0.7710844737705E-02  0.3777446953628E-02
 0.9321906382541E-02  0.4247879553328E-02
 0.1105649193049E-01  0.4710388304449E-02
 0.1291055936613E-01  0.5163294887266E-02
 0.1488056409100E-01  0.5605248190699E-02
 0.1696332453793E-01  0.6035173576074E-02
 0.1915591826471E-01  0.6452219531962E-02
 0.2145562796901E-01  0.6855712810428E-02
 0.2385982321407E-01  0.7245133553752E-02
 0.2636598663419E-01  0.7621416125837E-02
 0.2897156073586E-01  0.7987212417658E-02
 0.3167370572776E-01  0.8344304273858E-02
 0.3446934537621E-01  0.8693400428411E-02
 0.3735522654159E-01  0.9034570009227E-02
 0.4032802513185E-01  0.9367572689285E-02
 0.4338421652012E-01  0.9692002241230E-02
 0.4652012931056E-01  0.1000737642391E-01
 0.4973195800187E-01  0.1031320708384E-01
 0.5301567058149E-01  0.1060908583348E-01
 0.5636697168127E-01  0.1089480403480E-01
 0.5978143866179E-01  0.1116980098592E-01
 0.6325455935342E-01  0.1143313745112E-01
 0.6678145141544E-01  0.1168424857360E-01
 0.7035669811871E-01  0.1192314671798E-01
 0.7397404280366E-01  0.1215064283917E-01
 0.7762615060995E-01  0.1236860484797E-01
 0.8130418532198E-01  0.1258013415268E-01
 0.8499763865363E-01  0.1278929316391E-01
 0.8869540051158E-01  0.1299905850270E-01
 0.9238948785120E-01  0.1320581413193E-01
 0.9606968435749E-01  0.1340603513693E-01
 0.9971845684699E-01  0.1360198083802E-01
 0.1033146681420E+00  0.1379542304088E-01
 0.3847767199582E-03  0.4128914736661E-03
 0.9493587322160E-03  0.8318138427008E-03
 0.1686334475209E-02  0.1256905894482E-02
 0.2587503580063E-02  0.1687360111484E-02
 0.3644557033223E-02  0.2121574928658E-02
 0.4849601880284E-02  0.2557422561408E-02
 0.6195471704912E-02  0.2992540678582E-02
 0.7675844441817E-02  0.3424581423357E-02
 0.9285226296627E-02  0.3851384469700E-02
 0.1101886175645E-01  0.4271070575367E-02
 0.1287259603702E-01  0.4682066591302E-02
 0.1484277360900E-01  0.5083096654216E-02
 0.1692611260306E-01  0.5473141579154E-02
 0.1911960442372E-01  0.5851392839473E-02
 0.2142046055170E-01  0.6217211852727E-02
 0.2382599395437E-01  0.6570106276218E-02
 0.2633363598207E-01  0.6910928672088E-02
 0.2894078627264E-01  0.7242118968965E-02
 0.3164459054178E-01  0.7565314770974E-02
 0.3444198335286E-01  0.7881160953015E-02
 0.3732974037261E-01  0.8189707980369E-02
 0.4030457784633E-01  0.8490715622293E-02
 0.4336301646726E-01  0.8783785349156E-02
 0.4650142790885E-01  0.9068443065632E-02
 0.4971603907830E-01  0.9344204100316E-02
 0.5300282988185E-01  0.9610653402519E-02
 0.5635748516447E-01  0.9867558016439E-02
 0.5977551952870E-01  0.1011436019900E-01
 0.6325229990453E-01  0.1035015674677E-01
 0.6678274759506E-01  0.1057439787652E-01
 0.7036115960889E-01  0.1078707696208E-01
 0.7398089215325E-01  0.1098893525333E-01
 0.7763411885790E-01  0.1118169684591E-01
 0.8131141597736E-01  0.1136822415947E-01
 0.8500161682528E-01  0.1155225566399E-01
 0.8869292849716E-01  0.1173650766556E-01
 0.9237673782354E-01  0.1191759304413E-01
 0.9604235346707E-01  0.1209218326085E-01
 0.9967201393891E-01  0.1226226810003E-01
 0.1032446628597E+00  0.1242941788664E-01
 0.3813227507467E-03  0.3709297174648E-03
 0.9415021506119E-03  0.7471222238977E-03
 0.1673602873890E-02  0.1128741263870E-02
 0.2569886630931E-02  0.1515120646321E-02
 0.3622422394845E-02  0.1904886028793E-02
 0.4823574096492E-02  0.2296178179375E-02
 0.6166308625253E-02  0.2686903010628E-02
 0.7644334913835E-02  0.3074951979180E-02
 0.9252118989961E-02  0.3458361730350E-02
 0.1098482427544E-01  0.3835406337121E-02
 0.1283819785222E-01  0.4204628532175E-02
 0.1480848488779E-01  0.4564838894471E-02
 0.1689231209670E-01  0.4915083897166E-02
 0.1908659156717E-01  0.5254606553450E-02
 0.2138846906414E-01  0.5582809785886E-02
 0.2379520564208E-01  0.5899234226776E-02
 0.2630418621271E-01  0.6204656921921E-02
 0.2891277226160E-01  0.6501313527404E-02
 0.3161809777491E-01  0.6790703506232E-02
 0.3441710900433E-01  0.7073412644214E-02
 0.3730660990565E-01  0.7349476988613E-02
 0.4028335558777E-01  0.7618660599131E-02
 0.4334391010593E-01  0.7880576970044E-02
 0.4648468624663E-01  0.8134764647055E-02
 0.4970194187371E-01  0.8380747022955E-02
 0.5299166840682E-01  0.8618106830342E-02
 0.5634953218033E-01  0.8846590719113E-02
 0.5977098862638E-01  0.9065645782081E-02
 0.6325129084329E-01  0.9274403558238E-02
 0.6678517610766E-01  0.9472324811059E-02
 0.7036667471970E-01  0.9659375639150E-02
 0.7398878471905E-01  0.9836215670808E-02
 0.7764322858765E-01  0.1000441091566E-01
 0.8132004781165E-01  0.1016657082263E-01
 0.8500748133302E-01  0.1032609967030E-01
 0.8869312416612E-01  0.1048544786130E-01
 0.9236780108260E-01  0.1064144911585E-01
 0.9602039521024E-01  0.1079097563226E-01
 0.9963292753814E-01  0.1093577564686E-01
 0.1031843774383E+00  0.1107724756647E-01
 0.3783289929405E-03  0.3292855750760E-03
 0.9346520208600E-03  0.6631146816160E-03
 0.1662447682641E-02  0.1001666352651E-02
 0.2554382876698E-02  0.1344394845057E-02
 0.3602863788408E-02  0.1690127021864E-02
 0.4800490193956E-02  0.2037248222582E-02
 0.6140358409023E-02  0.2383915783153E-02
 0.7616215984799E-02  0.2728252632972E-02
 0.9222502070977E-02  0.3068492576531E-02
 0.1095431364463E-01  0.3403068820131E-02
 0.1280731307686E-01  0.3730648793642E-02
 0.1477765745092E-01  0.4050139189743E-02
 0.1686189103682E-01  0.4360661262421E-02
 0.1905685375167E-01  0.4661517439559E-02
 0.2135963147904E-01  0.4952158620192E-02
 0.2376743828872E-01  0.5232163707936E-02
 0.2627761761735E-01  0.5502240318568E-02
 0.2888749754080E-01  0.5764427203882E-02
 0.3159420309721E-01  0.6020091564674E-02
 0.3439469319014E-01  0.6269764728379E-02
 0.3728579970917E-01  0.6513472452460E-02
 0.4026431541550E-01  0.6750987146238E-02
 0.4332684613214E-01  0.6981938467007E-02
 0.4646984427842E-01  0.7205881822470E-02
 0.4968959784377E-01  0.7422352860059E-02
 0.5298211017431E-01  0.7630936019626E-02
 0.5634303144262E-01  0.7831360842883E-02
 0.5976776287504E-01  0.8023080511991E-02
 0.6325145247220E-01  0.8205259541541E-02
 0.6678866763096E-01  0.8377364489561E-02
 0.7037319319657E-01  0.8539326116522E-02
 0.7399769914283E-01  0.8691711366625E-02
 0.7765349712178E-01  0.8835915464733E-02
 0.8133014468568E-01  0.8974283070612E-02
 0.8501534604754E-01  0.9109876358165E-02
 0.8869614788100E-01  0.9244876240754E-02
 0.9236287187564E-01  0.9376330853778E-02
 0.9600401612534E-01  0.9501316798512E-02
 0.9960139030535E-01  0.9621363855395E-02
 0.1031339694321E+00  0.9737720778194E-02
 0.3757655819810E-03  0.2879248144301E-03
 0.9287459234463E-03  0.5797165074732E-03
 0.1652777904340E-02  0.8755615632219E-03
 0.2540881884899E-02  0.1175017352996E-02
 0.3585762625065E-02  0.1477089881296E-02
 0.4780233850438E-02  0.1780388123872E-02
 0.6117514670131E-02  0.2083305475095E-02
 0.7591395540404E-02  0.2384188406578E-02
 0.9196299085143E-02  0.2681466923964E-02
 0.1092726835141E-01  0.2973737565703E-02
 0.1277989320738E-01  0.3259799636913E-02
 0.1475025337208E-01  0.3538664222401E-02
 0.1683481961035E-01  0.3809535430503E-02
 0.1903036701354E-01  0.4071782267309E-02
 0.2133392767243E-01  0.4324909644339E-02
 0.2374267380269E-01  0.4568539785927E-02
 0.2625391243707E-01  0.4803316679261E-02
 0.2886494302014E-01  0.5031089138696E-02
 0.3157288445418E-01  0.5253097693217E-02
 0.3437470933431E-01  0.5469823646048E-02
 0.3726727728350E-01  0.5681286427458E-02
 0.4024741775188E-01  0.5887270680240E-02
 0.4331177708419E-01  0.6087426151299E-02
 0.4645684631439E-01  0.6281329056290E-02
 0.4967894333201E-01  0.6468531130896E-02
 0.5297408461486E-01  0.6648622003470E-02
 0.5633790754405E-01  0.6821316885879E-02
 0.5976576538853E-01  0.6986075860031E-02
 0.6325271130021E-01  0.7142094394755E-02
 0.6679315854599E-01  0.7288840101919E-02
 0.7038066920127E-01  0.7426200768348E-02
 0.7400761613118E-01  0.7554640554894E-02
 0.7766494022667E-01  0.7675372711618E-02
 0.8134176402863E-01  0.7790467159790E-02
 0.8502531269355E-01  0.7902637874881E-02
 0.8870214226598E-01  0.8013794076099E-02
 0.9236212277728E-01  0.8121192986335E-02
 0.9599340068898E-01  0.8222118287476E-02
 0.9957757755172E-01  0.8317899911240E-02
 0.1030935885940E+00  0.8409653565021E-02
 0.3736066802573E-03  0.2468153358210E-03
 0.9237297861647E-03  0.4968578140737E-03
 0.1644514364767E-02  0.7503150144215E-03
 0.2529286913799E-02  0.1006833044459E-02
 0.3571014133802E-02  0.1265578398099E-02
 0.4762701333531E-02  0.1525365538086E-02
 0.6097681637479E-02  0.1784810079742E-02
 0.7569789924328E-02  0.2042474319191E-02
 0.9173440081184E-02  0.2296982740360E-02
 0.1090363182100E-01  0.2547098132907E-02
 0.1275589353860E-01  0.2791757457610E-02
 0.1472623775863E-01  0.3030083209374E-02
 0.1681107056119E-01  0.3261369419994E-02
 0.1900710966982E-01  0.3485058109536E-02
 0.2131133965785E-01  0.3700713749212E-02
 0.2372089618029E-01  0.3908006615654E-02
 0.2623305503211E-01  0.4107522508718E-02
 0.2884509184498E-01  0.4300926799458E-02
 0.3155412223500E-01  0.4489338585602E-02
 0.3435713360470E-01  0.4673193332514E-02
 0.3725101325494E-01  0.4852507897587E-02
 0.4023262659194E-01  0.5027082832448E-02
 0.4329865956327E-01  0.5196591669075E-02
 0.4644564123873E-01  0.5360635106208E-02
 0.4966991976061E-01  0.5518784480721E-02
 0.5296752669628E-01  0.5670637723586E-02
 0.5633409096374E-01  0.5815898105701E-02
 0.5976492530688E-01  0.5954033136230E-02
 0.6325499964592E-01  0.6084267153400E-02
 0.6679859027714E-01  0.6206064288275E-02
 0.7038906039868E-01  0.6319262302145E-02
 0.7401851736891E-01  0.6424213498324E-02
 0.7767757102170E-01  0.6521939379340E-02
 0.8135495599649E-01  0.6614226766939E-02
 0.8503747054379E-01  0.6703436717498E-02
 0.8871123265246E-01  0.6791205423783E-02
 0.9236570590123E-01  0.6874994545590E-02
 0.9598871295196E-01  0.6952296419406E-02
 0.9956164844313E-01  0.7024255779453E-02
 0.1030633764660E+00  0.7091867489469E-02
 0.3718300865545E-03  0.2059268366481E-03
 0.9195570865264E-03  0.4144727765069E-03
 0.1637588682429E-02  0.6258213487242E-03
 0.2519513918763E-02  0.8396955022632E-03
 0.3558526635921E-02  0.1055406528323E-02
 0.4747801155845E-02  0.1271958770262E-02
 0.6080774179581E-02  0.1488177777228E-02
 0.7551324241139E-02  0.1702834388339E-02
 0.9153862074635E-02  0.1914745385518E-02
 0.1088335293506E-01  0.2122841739407E-02
 0.1273527366196E-01  0.2326202666454E-02
 0.1470557918699E-01  0.2524067958414E-02
 0.1679061954730E-01  0.2715827687150E-02
 0.1898706260155E-01  0.2901002589584E-02
 0.2129185181154E-01  0.3079221713722E-02
 0.2370209169259E-01  0.3250207742530E-02
 0.2621503204886E-01  0.3414493304204E-02
 0.2882792955744E-01  0.3573566284784E-02
 0.3153789943748E-01  0.3728429186490E-02
 0.3434194508719E-01  0.3879475529696E-02
 0.3723698156195E-01  0.4026723107819E-02
 0.4021990970102E-01  0.4169991820750E-02
 0.4328745443711E-01  0.4308982436422E-02
 0.4643618270572E-01  0.4443323548390E-02
 0.4966247379526E-01  0.4572609322883E-02
 0.5296237702214E-01  0.4696448810735E-02
 0.5633151805502E-01  0.4814535447791E-02
 0.5976517762437E-01  0.4926344555635E-02
 0.6325825526283E-01  0.5031127356369E-02
 0.6680490869240E-01  0.5128340330507E-02
 0.7039832715085E-01  0.5217764862760E-02
 0.7403038458658E-01  0.5299633378473E-02
 0.7769139907273E-01  0.5374767172858E-02
 0.8136976280633E-01  0.5444662937874E-02
 0.8505189622327E-01  0.5511325083483E-02
 0.8872352751143E-01  0.5576115907502E-02
 0.9237375393401E-01  0.5636697231939E-02
 0.9599009783661E-01  0.5690770519875E-02
 0.9955374685753E-01  0.5739306524174E-02
 0.1030434660077E+00  0.5783187996146E-02
 0.3704169130085E-03  0.1652305260787E-03
 0.9161881894891E-03  0.3324989863124E-03
 0.1631942401973E-02  0.5019807096041E-03
 0.2511490697016E-02  0.6734656969032E-03
 0.3548220895407E-02  0.8463969293501E-03
 0.4735453735562E-02  0.1019955347295E-02
 0.6066717779352E-02  0.1193165688559E-02
 0.7535932578893E-02  0.1365000652647E-02
 0.9137509423313E-02  0.1534466927580E-02
 0.1086638646976E-01  0.1700664850763E-02
 0.1271799789831E-01  0.1862819506543E-02
 0.1468825008908E-01  0.2020292860556E-02
 0.1677344546438E-01  0.2172576243534E-02
 0.1897020951569E-01  0.2319274082189E-02
 0.2127545108447E-01  0.2460084456974E-02
 0.2368624906384E-01  0.2594786383945E-02
 0.2619983258048E-01  0.2723863853410E-02
 0.2881344425172E-01  0.2848632633437E-02
 0.3152420182656E-01  0.2969983012852E-02
 0.3432912595223E-01  0.3088270125801E-02
 0.3722515963174E-01  0.3203515932862E-02
 0.4020923880026E-01  0.3315562862755E-02
 0.4327812702801E-01  0.3424142115914E-02
 0.4642842931740E-01  0.3528913338172E-02
 0.4965655749047E-01  0.3629496502716E-02
 0.5295858191350E-01  0.3725514364607E-02
 0.5633013102460E-01  0.3816652442122E-02
 0.5976646302516E-01  0.3902394234099E-02
 0.6326242099726E-01  0.3982016097990E-02
 0.6681206357004E-01  0.4054963187984E-02
 0.7040843181570E-01  0.4120954949418E-02
 0.7404319876701E-01  0.4180096970140E-02
 0.7770642964101E-01  0.4233003084995E-02
 0.8138621820716E-01  0.4280873927711E-02
 0.8506865358451E-01  0.4325354210097E-02
 0.8873911884512E-01  0.4367531607769E-02
 0.9238638099066E-01  0.4405264000481E-02
 0.9599768214965E-01  0.4436461415057E-02
 0.9955400199906E-01  0.4461928864990E-02
 0.1030339812707E+00  0.4482442938266E-02
 0.3693513184531E-03  0.1246988794365E-03
 0.9135897991053E-03  0.2508768951904E-03
 0.1627526268684E-02  0.3786978559216E-03
 0.2505156157416E-02  0.5080108291974E-03
 0.3540029545631E-02  0.6383796546381E-03
 0.4725591074313E-02  0.7691507145517E-03
 0.6055448476440E-02  0.8995387055013E-03
 0.7523558168438E-02  0.1028712220701E-02
 0.9124334127782E-02  0.1155865445475E-02
 0.1085269346129E-01  0.1280268730033E-02
 0.1270403566845E-01  0.1401295818486E-02
 0.1467422709029E-01  0.1518434828354E-02
 0.1675953073396E-01  0.1631282724262E-02
 0.1895653718217E-01  0.1739531873888E-02
 0.2126212719727E-01  0.1842953260964E-02
 0.2367335963768E-01  0.1941385693043E-02
 0.2618744831771E-01  0.2035268526377E-02
 0.2880162672048E-01  0.2125750138758E-02
 0.3151301808382E-01  0.2213612491003E-02
 0.3431866161187E-01  0.2299175519766E-02
 0.3721552854628E-01  0.2382468277831E-02
 0.4020058973968E-01  0.2463358625039E-02
 0.4327064728710E-01  0.2541611129187E-02
 0.4642234478653E-01  0.2616919401099E-02
 0.4965212842126E-01  0.2688931979440E-02
 0.5295609348163E-01  0.2757287731952E-02
 0.5632987791283E-01  0.2821666071017E-02
 0.5976872773658E-01  0.2881559121968E-02
 0.6326744448754E-01  0.2936266981735E-02
 0.6682000813575E-01  0.2985220401137E-02
 0.7041933814701E-01  0.3028072177060E-02
 0.7405693947714E-01  0.3064795156035E-02
 0.7772266306286E-01  0.3095789566096E-02
 0.8140434705613E-01  0.3121954958708E-02
 0.8508779362348E-01  0.3144573710523E-02
 0.8875808252015E-01  0.3164458039484E-02
 0.9240368330132E-01  0.3179657814525E-02
 0.9601157535815E-01  0.3188290125062E-02
 0.9956252883335E-01  0.3190999898839E-02
 0.1030350371131E+00  0.3188461237874E-02
 0.3686202894380E-03  0.8430542416976E-04
 0.9117345071409E-03  0.1695493302166E-03
 0.1624299625671E-02  0.2558813863313E-03
 0.2500459703522E-02  0.3432033060599E-03
 0.3533896591436E-02  0.4311909802591E-03
 0.4718156460972E-02  0.5193470396317E-03
 0.6046912790873E-02  0.6070683890085E-03
 0.7514153493595E-02  0.6937143474760E-03
 0.9114296068235E-02  0.7786643245834E-03
 0.1084224150616E-01  0.8613589571964E-03
 0.1269336180531E-01  0.9413227631412E-03
 0.1466349129928E-01  0.1018173188619E-02
 0.1674886155430E-01  0.1091616414089E-02
 0.1894603564344E-01  0.1161436288574E-02
 0.2125187281487E-01  0.1227479967876E-02
 0.2366341752763E-01  0.1289649007415E-02
 0.2617787368666E-01  0.1348341562713E-02
 0.2879247058943E-01  0.1404542668253E-02
 0.3150433994556E-01  0.1458929307898E-02
 0.3431054086516E-01  0.1511789007858E-02
 0.3720807319630E-01  0.1563160507228E-02
 0.4019394265912E-01  0.1612939704174E-02
 0.4326498995616E-01  0.1660927201059E-02
 0.4641789808802E-01  0.1706853250460E-02
 0.4964914980644E-01  0.1750397523691E-02
 0.5295486969882E-01  0.1791217283170E-02
 0.5633071258320E-01  0.1828987612097E-02
 0.5977192340825E-01  0.1863209884725E-02
 0.6327327791110E-01  0.1893206990755E-02
 0.6682869867313E-01  0.1918392884567E-02
 0.7043101079190E-01  0.1938349909292E-02
 0.7407158431291E-01  0.1952913311766E-02
 0.7774009423962E-01  0.1962264585088E-02
 0.8142416497451E-01  0.1966997914182E-02
 0.8510935441325E-01  0.1968030909079E-02
 0.8878047853122E-01  0.1965899197194E-02
 0.9242573974053E-01  0.1958840520261E-02
 0.9603187016692E-01  0.1945176694048E-02
 0.9957942838517E-01  0.1925395936877E-02
 0.1030467389465E+00  0.1900071648458E-02
 0.3682134620794E-03  0.4402455079898E-04
 0.9106004252708E-03  0.8846106572543E-04
 0.1622229918872E-02  0.1334430514537E-03
 0.2497360719880E-02  0.1789198237295E-03
 0.3529776984860E-02  0.2246723397262E-03
 0.4713104207490E-02  0.2703521064508E-03
 0.6041067638772E-02  0.3155319277907E-03
 0.7507680363892E-02  0.3597575376064E-03
 0.9107363187616E-02  0.4025915502805E-03
 0.1083500500319E-01  0.4436449258917E-03
 0.1268595681100E-01  0.4825945102464E-03
 0.1465602855048E-01  0.5191895375243E-03
 0.1674142811324E-01  0.5532482380861E-03
 0.1893869839426E-01  0.5846487836060E-03
 0.2124468369813E-01  0.6133171559634E-03
 0.2365641974926E-01  0.6392200853065E-03
 0.2617110597098E-01  0.6627173553143E-03
 0.2878597243779E-01  0.6846339883283E-03
 0.3149816232749E-01  0.7055447754810E-03
 0.3430475603076E-01  0.7257071902168E-03
 0.3720278242285E-01  0.7451718991510E-03
 0.4018928213701E-01  0.7638651359921E-03
 0.4326113471844E-01  0.7816259316761E-03
 0.4641506360177E-01  0.7982236285014E-03
 0.4964759062788E-01  0.8133714294613E-03
 0.5295487447311E-01  0.8267471887000E-03
 0.5633259472792E-01  0.8380234613199E-03
 0.5977600702416E-01  0.8467117401339E-03
 0.6327987778484E-01  0.8521572900157E-03
 0.6683809420923E-01  0.8537556296346E-03
 0.7044341488209E-01  0.8510157868824E-03
 0.7408710844672E-01  0.8436315862374E-03
 0.7775871222119E-01  0.8315616036231E-03
 0.8144567806371E-01  0.8150909812827E-03
 0.8513336103848E-01  0.7947701738793E-03
 0.8880635118943E-01  0.7708566479246E-03
 0.9245261221154E-01  0.7417718045109E-03
 0.9605864292625E-01  0.7060391107206E-03
 0.9960478792520E-01  0.6639914170900E-03
 0.1030691825071E+00  0.6161015888038E-03
 0.3681229794149E-03  0.3831343406767E-05
 0.9101708903419E-03  0.7558439601494E-05
 0.1621292297980E-02  0.1129713519987E-04
 0.2495828153056E-02  0.1504053651052E-04
 0.3527636272461E-02  0.1866934625040E-04
 0.4710399421073E-02  0.2197828372921E-04
 0.6037880248477E-02  0.2471114801482E-04
 0.7504109959271E-02  0.2659667315957E-04
 0.9103511629198E-02  0.2737900212153E-04
 0.1083096534278E-01  0.2683932328483E-04
 0.1268180706206E-01  0.2480790004663E-04
 0.1465182960027E-01  0.2116756513785E-04
 0.1673722476199E-01  0.1585072320675E-04
 0.1893452252990E-01  0.8832021610980E-05
 0.2124055882991E-01  0.1182978473439E-06
 0.2365236633131E-01 -0.1025666815866E-04
 0.2616714541599E-01 -0.2196926813084E-04
 0.2878213190244E-01 -0.3435190576473E-04
 0.3149448343432E-01 -0.4692979289363E-04
 0.3430130306510E-01 -0.5947360460180E-04
 0.3719964914532E-01 -0.7191887785659E-04
 0.4018659732704E-01 -0.8430706983055E-04
 0.4325906633943E-01 -0.9675860602731E-04
 0.4641382124918E-01 -0.1094628305465E-03
 0.4964742574954E-01 -0.1226707597605E-03
 0.5295607773210E-01 -0.1366818024781E-03
 0.5633548989555E-01 -0.1518240581573E-03
 0.5978094085318E-01 -0.1685747382403E-03
 0.6328720482325E-01 -0.1875660256056E-03
 0.6684815627674E-01 -0.2094216649656E-03
 0.7045651571592E-01 -0.2347078270392E-03
 0.7410348426908E-01 -0.2638749014966E-03
 0.7777849986978E-01 -0.2971905196442E-03
 0.8146888266620E-01 -0.3346817489028E-03
 0.8515982551848E-01 -0.3761677572270E-03
 0.8883572923225E-01 -0.4216713474364E-03
 0.9248434589629E-01 -0.4725917962978E-03
 0.9609195389219E-01 -0.5302077174491E-03
 0.9963868106346E-01 -0.5943421398557E-03
 0.1031024536464E+00 -0.6646239817705E-03
 0.3683433801556E-03 -0.3629857489292E-04
 0.9104342345688E-03 -0.7321099633421E-04
 0.1621469303886E-02 -0.1106401105743E-03
 0.2495840180499E-02 -0.1485517080234E-03
 0.3527450312199E-02 -0.1869691162716E-03
 0.4710017815698E-02 -0.2259584471089E-03
 0.6037328083454E-02 -0.2656084352393E-03
 0.7503422854276E-02 -0.3060098376130E-03
 0.9102725835348E-02 -0.3472382500825E-03
 0.1083011104843E-01 -0.3893424025216E-03
 0.1268090496551E-01 -0.4323379161078E-03
 0.1465089027755E-01 -0.4762071442715E-03
 0.1673625014941E-01 -0.5209020633856E-03
 0.1893350886126E-01 -0.5663500771151E-03
 0.2123950051376E-01 -0.6124620950271E-03
 0.2365126040369E-01 -0.6591359822463E-03
 0.2616599531264E-01 -0.7060827646019E-03
 0.2878095176403E-01 -0.7527904546158E-03
 0.3149330485258E-01 -0.7988826948302E-03
 0.3430018166515E-01 -0.8441568787117E-03
 0.3719867047545E-01 -0.8885332675324E-03
 0.4018588208274E-01 -0.9320193722674E-03
 0.4325877479880E-01 -0.9746932456374E-03
 0.4641415662542E-01 -0.1016700916717E-02
 0.4964863603939E-01 -0.1058255510033E-02
 0.5295845551971E-01 -0.1099631579075E-02
 0.5633936954517E-01 -0.1141155894911E-02
 0.5978669244286E-01 -0.1183292840973E-02
 0.6329522385760E-01 -0.1226651223236E-02
 0.6685884875387E-01 -0.1271874017414E-02
 0.7047027852874E-01 -0.1319603466174E-02
 0.7412068111777E-01 -0.1370435930969E-02
 0.7779943359398E-01 -0.1424867681188E-02
 0.8149376515970E-01 -0.1483240718591E-02
 0.8518874671018E-01 -0.1545746463223E-02
 0.8886862585376E-01 -0.1612690701987E-02
 0.9252096938010E-01 -0.1685297863089E-02
 0.9613184735496E-01 -0.1764652966739E-02
 0.9968116776130E-01 -0.1850737159855E-02
 0.1031466281372E+00 -0.1943283675076E-02
 0.3688715157443E-03 -0.7638918542026E-04
 0.9113836145178E-03 -0.1538988007101E-03
 0.1622750635495E-02 -0.2324509918143E-03
 0.2497383961816E-02 -0.3119720841864E-03
 0.3529205058070E-02 -0.3923917505235E-03
 0.4711945564985E-02 -0.4736394188419E-03
 0.6039398776726E-02 -0.5556385343095E-03
 0.7505609027463E-02 -0.6383008949269E-03
 0.9104998612764E-02 -0.7215226481866E-03
 0.1083243787449E-01 -0.8051825842237E-03
 0.1268324906817E-01 -0.8891418510726E-03
 0.1465321158957E-01 -0.9732473304383E-03
 0.1673850731631E-01 -0.1057334593765E-02
 0.1893566199569E-01 -0.1141232296902E-02
 0.2124151444367E-01 -0.1224768338162E-02
 0.2365310826078E-01 -0.1307771506925E-02
 0.2616766205987E-01 -0.1389986594879E-02
 0.2878243801339E-01 -0.1471056193769E-02
 0.3149463162547E-01 -0.1550701440747E-02
 0.3430139535465E-01 -0.1628745509067E-02
 0.3719984781670E-01 -0.1705092310077E-02
 0.4018713506996E-01 -0.1779714120458E-02
 0.4326025541377E-01 -0.1852645084841E-02
 0.4641606112900E-01 -0.1923986140294E-02
 0.4965120849672E-01 -0.1993910539869E-02
 0.5296199010958E-01 -0.2062665874669E-02
 0.5634421113123E-01 -0.2130575469060E-02
 0.5979323466038E-01 -0.2198088955804E-02
 0.6330390381969E-01 -0.2265790250194E-02
 0.6687013778344E-01 -0.2334340625430E-02
 0.7048466835038E-01 -0.2404458227436E-02
 0.7413866509021E-01 -0.2476886099085E-02
 0.7782148314574E-01 -0.2552350730311E-02
 0.8152030177703E-01 -0.2631511374823E-02
 0.8522011018531E-01 -0.2714934545750E-02
 0.8890503865503E-01 -0.2803212376551E-02
 0.9256249465780E-01 -0.2897399060931E-02
 0.9617835164678E-01 -0.2998390902823E-02
 0.9973229426956E-01 -0.3106331055397E-02
 0.1032017714924E+00 -0.3221060799286E-02
 0.3697064934959E-03 -0.1164642097771E-03
 0.9130168944460E-03 -0.2345559495821E-03
 0.1625132990688E-02 -0.3542168706154E-03
 0.2500455468404E-02 -0.4753344688793E-03
 0.3532896411034E-02 -0.5977456669785E-03
 0.4716179197813E-02 -0.7212441737499E-03
 0.6044090080228E-02 -0.8455889826994E-03
 0.7510667860257E-02 -0.9705135305171E-03
 0.9110331168089E-02 -0.1095734846382E-02
 0.1083794886300E-01 -0.1220961883746E-02
 0.1268884412072E-01 -0.1345901268726E-02
 0.1465879978352E-01 -0.1470264288591E-02
 0.1674400374951E-01 -0.1593769971299E-02
 0.1894099038260E-01 -0.1716148099198E-02
 0.2124660974336E-01 -0.1837143446477E-02
 0.2365791939843E-01 -0.1956515601828E-02
 0.2617215520367E-01 -0.2074042941077E-02
 0.2878659989708E-01 -0.2189522407014E-02
 0.3149847230853E-01 -0.2302772345852E-02
 0.3430495155293E-01 -0.2413641277995E-02
 0.3720318694826E-01 -0.2522016109449E-02
 0.4019035986704E-01 -0.2627832955884E-02
 0.4326350895470E-01 -0.2731080822386E-02
 0.4641953208958E-01 -0.2831814007488E-02
 0.4965513638652E-01 -0.2930164045147E-02
 0.5296667013721E-01 -0.3026349461468E-02
 0.5634999822208E-01 -0.3120687865567E-02
 0.5980054578392E-01 -0.3213611803093E-02
 0.6331321779269E-01 -0.3305678064801E-02
 0.6688199177268E-01 -0.3397564351704E-02
 0.7049964994942E-01 -0.3490063468495E-02
 0.7415739893649E-01 -0.3584064775050E-02
 0.7784461147632E-01 -0.3680525703439E-02
 0.8154845844631E-01 -0.3780424673741E-02
 0.8525388807806E-01 -0.3884706361558E-02
 0.8894494951451E-01 -0.3994253275120E-02
 0.9260891702576E-01 -0.4109954127381E-02
 0.9623147903609E-01 -0.4232521913534E-02
 0.9979209299755E-01 -0.4362267300474E-02
 0.1032679387949E+00 -0.4499144523455E-02
 0.3708496443505E-03 -0.1565472412065E-03
 0.9153365810752E-03 -0.3152331331116E-03
 0.1628619977991E-02 -0.4760186473316E-03
 0.2505059388794E-02 -0.6387521018768E-03
 0.3538530135280E-02 -0.8031771838267E-03
 0.4722725537564E-02 -0.9689513404279E-03
 0.6051409831342E-02 -0.1135668615910E-02
 0.7518608128047E-02 -0.1302883724503E-02
 0.9118733116537E-02 -0.1470134411973E-02
 0.1084665436154E-01 -0.1636959845527E-02
 0.1269770109781E-01 -0.1802912378397E-02
 0.1466766636415E-01 -0.1967568109378E-02
 0.1675275139515E-01 -0.2130530030398E-02
 0.1894950632304E-01 -0.2291429600897E-02
 0.2125479897438E-01 -0.2449929010039E-02
 0.2366570652360E-01 -0.2605719125502E-02
 0.2617948745197E-01 -0.2758612421301E-02
 0.2879344994099E-01 -0.2908560773573E-02
 0.3150483900523E-01 -0.3055480112806E-02
 0.3431086162549E-01 -0.3199244391274E-02
 0.3720869809314E-01 -0.3339723285271E-02
 0.4019556505222E-01 -0.3476816196611E-02
 0.4326854175252E-01 -0.3610466075221E-02
 0.4642457289471E-01 -0.3740679275400E-02
 0.4966041938233E-01 -0.3867543903733E-02
 0.5297249075306E-01 -0.3991247325862E-02
 0.5635672065439E-01 -0.4112099013263E-02
 0.5980860964694E-01 -0.4230511662796E-02
 0.6332314313170E-01 -0.4347011966119E-02
 0.6689438147585E-01 -0.4462291216663E-02
 0.7051518786534E-01 -0.4577214521130E-02
 0.7417684203272E-01 -0.4692816078534E-02
 0.7786877464909E-01 -0.4810284087197E-02
 0.8157819064933E-01 -0.4930917617062E-02
 0.8529003890140E-01 -0.5056042789298E-02
 0.8898832437852E-01 -0.5186837177322E-02
 0.9266021486257E-01 -0.5324028902862E-02
 0.9629122551204E-01 -0.5468153591395E-02
 0.9986058231492E-01 -0.5619696563744E-02
 0.1033451745363E+00 -0.5778731106608E-02
 0.3723045144612E-03 -0.1966618744031E-03
 0.9183498082657E-03 -0.3959810486211E-03
 0.1633222097151E-02 -0.5979372369719E-03
 0.2511209108315E-02 -0.8023382390599E-03
 0.3546121839350E-02 -0.1008832619847E-02
 0.4731601685524E-02 -0.1216939504968E-02
 0.6061375937844E-02 -0.1426086149053E-02
 0.7529447985028E-02 -0.1635647221748E-02
 0.9130222464861E-02 -0.1844980527985E-02
 0.1085857200315E-01 -0.2053455453201E-02
 0.1270983717456E-01 -0.2260470633329E-02
 0.1467982806756E-01 -0.2465467922619E-02
 0.1676476663113E-01 -0.2667935439199E-02
 0.1896122594281E-01 -0.2867407554221E-02
 0.2126609811215E-01 -0.3063465069659E-02
 0.2367648553603E-01 -0.3255731222609E-02
 0.2618967466444E-01 -0.3444053800192E-02
 0.2880300395107E-01 -0.3628541008951E-02
 0.3151374738164E-01 -0.3809207405638E-02
 0.3431914091560E-01 -0.3985952984917E-02
 0.3721639596974E-01 -0.4158630410765E-02
 0.4020276427796E-01 -0.4327102204874E-02
 0.4327536579820E-01 -0.4491264676440E-02
 0.4643119311546E-01 -0.4651075185616E-02
 0.4966706371776E-01 -0.4806576857243E-02
 0.5297945379727E-01 -0.4957923820628E-02
 0.5636437472521E-01 -0.5105414841454E-02
 0.5981741583776E-01 -0.5249439581729E-02
 0.6333366165657E-01 -0.5390490908712E-02
 0.6690728016232E-01 -0.5529269883107E-02
 0.7053124653086E-01 -0.5666710405196E-02
 0.7419695043651E-01 -0.5803988868589E-02
 0.7789392181039E-01 -0.5942523102997E-02
 0.8160944329800E-01 -0.6083933820737E-02
 0.8532850733183E-01 -0.6229932038651E-02
 0.8903511297174E-01 -0.6381995723011E-02
 0.9271634929868E-01 -0.6540697423043E-02
 0.9635757045981E-01 -0.6706401888221E-02
 0.9993776628647E-01 -0.6879777923383E-02
 0.1034335124637E+00 -0.7061025216951E-02
 0.3740768804877E-03 -0.2368318366429E-03
 0.9220683713688E-03 -0.4768506965444E-03
 0.1638956788426E-02 -0.7200540501714E-03
 0.2518926763037E-02 -0.9662068116998E-03
 0.3555697022262E-02 -0.1214859094258E-02
 0.4742835048707E-02 -0.1465388089278E-02
 0.6074016381569E-02 -0.1717051060988E-02
 0.7543214943028E-02 -0.1969040353521E-02
 0.9144825568793E-02 -0.2220532699534E-02
 0.1087372664820E-01 -0.2470727688403E-02
 0.1272527565930E-01 -0.2718871129748E-02
 0.1469530679074E-01 -0.2964272140366E-02
 0.1678007019821E-01 -0.3206305800495E-02
 0.1897616912847E-01 -0.3444411323957E-02
 0.2128052648950E-01 -0.3678089989014E-02
 0.2369027548115E-01 -0.3906899106799E-02
 0.2620273581670E-01 -0.4130723694121E-02
 0.2881528099084E-01 -0.4349830499183E-02
 0.3152521665963E-01 -0.4564334415493E-02
 0.3432980875619E-01 -0.4774162621806E-02
 0.3722629982604E-01 -0.4979151438137E-02
 0.4021197633138E-01 -0.5179126739271E-02
 0.4328399883321E-01 -0.5373937954599E-02
 0.4643940863067E-01 -0.5563492675683E-02
 0.4967508234692E-01 -0.5747787667188E-02
 0.5298756799654E-01 -0.5926941788425E-02
 0.5637296342242E-01 -0.6101240405657E-02
 0.5982695995565E-01 -0.6271046549464E-02
 0.6334475991936E-01 -0.6436814788073E-02
 0.6692066387309E-01 -0.6599251116806E-02
 0.7054779048812E-01 -0.6759353527659E-02
 0.7421767702827E-01 -0.6918436730577E-02
 0.7791999522178E-01 -0.7078146005796E-02
 0.8164215063155E-01 -0.7240424115821E-02
 0.8536922396347E-01 -0.7407370509950E-02
 0.8908524842730E-01 -0.7580769464319E-02
 0.9277726377359E-01 -0.7761043093428E-02
 0.9643047622487E-01 -0.7948392364476E-02
 0.1000236343375E+00 -0.8143680187848E-02
 0.1035329754333E+00 -0.8347241367800E-02
 0.3761747891157E-03 -0.2770811231333E-03
 0.9265088123417E-03 -0.5578936858624E-03
 0.1645848551956E-02 -0.8424514891477E-03
 0.2528243369181E-02 -0.1130473105042E-02
 0.3567291185292E-02 -0.1421405347715E-02
 0.4756463412075E-02 -0.1714478249427E-02
 0.6089369240157E-02 -0.2008774494798E-02
 0.7559945843296E-02 -0.2303300870300E-02
 0.9162577063802E-02 -0.2597051465820E-02
 0.1089215028715E-01 -0.2889056090354E-02
 0.1274404588177E-01 -0.3178409003052E-02
 0.1471412947631E-01 -0.3464288694708E-02
 0.1679868708932E-01 -0.3745959746175E-02
 0.1899435942625E-01 -0.4022768857798E-02
 0.2129810670763E-01 -0.4294140319942E-02
 0.2370709847438E-01 -0.4559567836969E-02
 0.2621869293873E-01 -0.4818976269892E-02
 0.2883030333512E-01 -0.5072793928345E-02
 0.3153926958800E-01 -0.5321238418889E-02
 0.3434288846154E-01 -0.5564265779454E-02
 0.3723843345582E-01 -0.5801697112938E-02
 0.4022322517995E-01 -0.6033322292896E-02
 0.4329446443036E-01 -0.6258943995020E-02
 0.4644924174873E-01 -0.6478419567728E-02
 0.4968449511250E-01 -0.6691698242698E-02
 0.5299684918256E-01 -0.6898861651031E-02
 0.5638249669373E-01 -0.7100178973719E-02
 0.5983724392477E-01 -0.7295982630816E-02
 0.6335642954860E-01 -0.7486683681741E-02
 0.6693451176961E-01 -0.7672987206375E-02
 0.7056478470394E-01 -0.7855949350270E-02
 0.7423897174468E-01 -0.8037017947564E-02
 0.7794693035993E-01 -0.8218062389076E-02
 0.8167623613941E-01 -0.8401347181351E-02
 0.8541210503430E-01 -0.8589363712542E-02
 0.8913864683592E-01 -0.8784209000936E-02
 0.9284288347700E-01 -0.8986159967174E-02
 0.9650988756101E-01 -0.9195261557262E-02
 0.1001181608458E+00 -0.9412583348305E-02
 0.1036435752691E+00 -0.9638605498722E-02
 0.3786086219836E-03 -0.3174341396388E-03
 0.9316925580570E-03 -0.6391625559594E-03
 0.1653929140230E-02 -0.9652134695558E-03
 0.2539199030575E-02 -0.1295254470020E-02
 0.3580950010679E-02 -0.1628622599159E-02
 0.4772535054845E-02 -0.1964393807226E-02
 0.6107482725276E-02 -0.2301470184498E-02
 0.7579686818950E-02 -0.2638668791434E-02
 0.9183519766785E-02 -0.2974799119424E-02
 0.1091388190223E-01 -0.3308721314646E-02
 0.1276618303523E-01 -0.3639379817388E-02
 0.1473632795170E-01 -0.3965825265589E-02
 0.1682064639692E-01 -0.4287215020339E-02
 0.1901582390370E-01 -0.4602806645499E-02
 0.2131886451454E-01 -0.4911950657568E-02
 0.2372697959670E-01 -0.5214080084699E-02
 0.2623757102749E-01 -0.5509162935822E-02
 0.2884809640002E-01 -0.5797792899239E-02
 0.3155593239138E-01 -0.6080293329259E-02
 0.3435840729817E-01 -0.6356651330277E-02
 0.3725282519614E-01 -0.6626674379068E-02
 0.4023654000144E-01 -0.6890117418967E-02
 0.4330679206352E-01 -0.7146736883921E-02
 0.4646072132532E-01 -0.7396339733647E-02
 0.4969532892038E-01 -0.7638826737127E-02
 0.5300732053068E-01 -0.7874240458776E-02
 0.5639299175349E-01 -0.8102831063352E-02
 0.5984827636625E-01 -0.8324896042301E-02
 0.6336866767261E-01 -0.8540797030307E-02
 0.6694880657916E-01 -0.8751231324577E-02
 0.7058219499063E-01 -0.8957306008065E-02
 0.7426078191253E-01 -0.9160595441113E-02
 0.7797465609313E-01 -0.9363188486776E-02
 0.8171161251753E-01 -0.9567670208241E-02
 0.8545705212858E-01 -0.9776927250245E-02
 0.8919520671326E-01 -0.9993376215335E-02
 0.9291311466848E-01 -0.1021715414866E-01
 0.9659573095458E-01 -0.1044815849267E-01
 0.1002213046537E+00 -0.1068768019072E-01
 0.1037653126261E+00 -0.1093635673311E-01
 0.3813911879229E-03 -0.3579158557055E-03
 0.9376461156856E-03 -0.7207111224353E-03
 0.1663237828354E-02 -0.1088425980056E-02
 0.2551843228017E-02 -0.1460671082928E-02
 0.3596729609018E-02 -0.1836665454025E-02
 0.4791108910164E-02 -0.2215322228749E-02
 0.6128415234632E-02 -0.2595355417975E-02
 0.7602493244400E-02 -0.2975387277147E-02
 0.9207704544975E-02 -0.3354040434114E-02
 0.1093896728491E-01 -0.3730005689124E-02
 0.1279172797037E-01 -0.4102079944454E-02
 0.1476193872133E-01 -0.4469189493550E-02
 0.1684598111774E-01 -0.4830388546033E-02
 0.1904059297415E-01 -0.5184849662450E-02
 0.2134282865129E-01 -0.5531853481864E-02
 0.2374994676213E-01 -0.5870775890616E-02
 0.2625939793414E-01 -0.6201632024172E-02
 0.2886868864928E-01 -0.6525185547286E-02
 0.3157523469677E-01 -0.6841869242726E-02
 0.3437639643442E-01 -0.7151704015992E-02
 0.3726950790503E-01 -0.7454485776378E-02
 0.4025195519681E-01 -0.7749936045752E-02
 0.4332101716463E-01 -0.8037765936489E-02
 0.4647388287530E-01 -0.8317732236588E-02
 0.4970761791802E-01 -0.8589686611056E-02
 0.5301901281651E-01 -0.8853630894660E-02
 0.5640447342571E-01 -0.9109793421897E-02
 0.5986007302807E-01 -0.9358432159411E-02
 0.6338147742362E-01 -0.9599852741444E-02
 0.6696353514152E-01 -0.9834736811640E-02
 0.7059998854043E-01 -0.1006423385881E-01
 0.7428305269397E-01 -0.1029003666425E-01
 0.7800309494681E-01 -0.1051444746101E-01
 0.8174818166904E-01 -0.1074036959202E-01
 0.8550395186191E-01 -0.1097108788218E-01
 0.8925480838469E-01 -0.1120934562587E-01
 0.9298784386782E-01 -0.1145514534750E-01
 0.9668791381375E-01 -0.1170824637094E-01
 0.1003330084924E+00 -0.1197017809865E-01
 0.1038981768562E+00 -0.1224174934717E-01
 0.3845378452179E-03 -0.3985519722205E-03
 0.9444013306486E-03 -0.8025948553314E-03
 0.1673821768767E-02 -0.1212177692766E-02
 0.2566235195903E-02 -0.1626846769391E-02
 0.3614696837597E-02 -0.2045692880638E-02
 0.4812254766887E-02 -0.2467455664241E-02
 0.6152235413828E-02 -0.2890652046244E-02
 0.7628429666549E-02 -0.3313703527941E-02
 0.9235190146963E-02 -0.3735043401705E-02
 0.1096745880506E-01 -0.4153193764062E-02
 0.1282072693839E-01 -0.4566806926738E-02
 0.1479100271074E-01 -0.4974689171869E-02
 0.1687472791483E-01 -0.5375796470237E-02
 0.1906870018453E-01 -0.5769221293082E-02
 0.2137003066702E-01 -0.6154178982196E-02
 0.2377603055786E-01 -0.6529992407515E-02
 0.2628420422660E-01 -0.6896728463965E-02
 0.2889211147745E-01 -0.7255326147817E-02
 0.3159720943765E-01 -0.7606331979247E-02
 0.3439689086857E-01 -0.7949803918017E-02
 0.3728851891888E-01 -0.8285528833156E-02
 0.4026951038472E-01 -0.8613196783052E-02
 0.4333718116581E-01 -0.8932474910493E-02
 0.4648876867570E-01 -0.9243070448931E-02
 0.4972140367384E-01 -0.9544785659573E-02
 0.5303196468743E-01 -0.9837580227872E-02
 0.5641697452063E-01 -0.1012165793905E-01
 0.5987265727178E-01 -0.1039723244097E-01
 0.6339486852420E-01 -0.1066454619888E-01
 0.6697868906197E-01 -0.1092425635922E-01
 0.7061813458308E-01 -0.1117754494099E-01
 0.7430572765661E-01 -0.1142621342634E-01
 0.7803216347360E-01 -0.1167276966150E-01
 0.8178583476378E-01 -0.1192043165039E-01
 0.8555267555760E-01 -0.1217288466706E-01
 0.8931731328700E-01 -0.1243320587732E-01
 0.9306693690603E-01 -0.1270126861087E-01
 0.9678632350816E-01 -0.1297670445630E-01
 0.1004531983062E+00 -0.1326130108165E-01
 0.1040421458758E+00 -0.1355605498982E-01
 0.3880666575296E-03 -0.4393691076140E-03
 0.9519957144899E-03 -0.8848712995061E-03
 0.1685736439113E-02 -0.1336560639638E-02
 0.2582444392950E-02 -0.1793909911011E-02
 0.3634929692273E-02 -0.2255869273233E-02
 0.4836053511432E-02 -0.2720992064684E-02
 0.6179022222634E-02 -0.3187587549111E-02
 0.7657569710895E-02 -0.3653869715829E-02
 0.9266042989289E-02 -0.4118079977521E-02
 0.1099941512674E-01 -0.4578572852810E-02
 0.1285323127981E-01 -0.5033859819565E-02
 0.1482356496082E-01 -0.5482632411944E-02
 0.1690692683655E-01 -0.5923754181378E-02
 0.1910018196710E-01 -0.6356243229344E-02
 0.2140050470363E-01 -0.6779254861342E-02
 0.2380526405827E-01 -0.7192063628060E-02
 0.2631202302834E-01 -0.7594793443343E-02
 0.2891839907049E-01 -0.7988564717098E-02
 0.3162189273614E-01 -0.8374042620536E-02
 0.3441992933504E-01 -0.8751325926087E-02
 0.3730989998840E-01 -0.9120195456216E-02
 0.4028925037592E-01 -0.9480312223017E-02
 0.4335533152431E-01 -0.9831301207643E-02
 0.4650542785683E-01 -0.1017282114754E-01
 0.4973673535344E-01 -0.1050462500232E-01
 0.5304622294449E-01 -0.1082662921177E-01
 0.5643053624100E-01 -0.1113901048321E-01
 0.5988606061346E-01 -0.1144193325621E-01
 0.6340885795677E-01 -0.1173556915683E-01
 0.6699426547602E-01 -0.1202054107124E-01
 0.7063660517714E-01 -0.1229805231446E-01
 0.7432874948472E-01 -0.1257000162577E-01
 0.7806177274782E-01 -0.1283909283906E-01
 0.8182445237550E-01 -0.1310885335898E-01
 0.8560307892657E-01 -0.1338337019872E-01
 0.8938256318709E-01 -0.1366606139079E-01
 0.9315023782416E-01 -0.1395667626586E-01
 0.9689082624001E-01 -0.1425473020822E-01
 0.1005817824641E+00 -0.1456229206860E-01
 0.1041971860336E+00 -0.1488056519882E-01
 0.3919985882306E-03 -0.4803950077913E-03
 0.9604728522062E-03 -0.9676005486288E-03
 0.1699046194444E-02 -0.1461670972330E-02
 0.2600551075452E-02 -0.1961994455759E-02
 0.3657517775707E-02 -0.2467365622170E-02
 0.4862597406572E-02 -0.2976136391403E-02
 0.6208864998418E-02 -0.3486396167249E-02
 0.7689995953738E-02 -0.3996143950892E-02
 0.9300336890473E-02 -0.4503426832748E-02
 0.1103490086442E-01 -0.5006433557824E-02
 0.1288929705533E-01 -0.5503539505282E-02
 0.1485967427076E-01 -0.5993327775080E-02
 0.1694262099262E-01 -0.6474576293190E-02
 0.1913507735629E-01 -0.6946235339256E-02
 0.2143428725191E-01 -0.7407406115380E-02
 0.2383768261446E-01 -0.7857320094898E-02
 0.2634288983499E-01 -0.8296164060696E-02
 0.2894758824502E-01 -0.8725246607635E-02
 0.3164932376357E-01 -0.9145357046431E-02
 0.3444555418880E-01 -0.9556639207720E-02
 0.3733369719257E-01 -0.9958871321839E-02
 0.4031122512603E-01 -0.1035168823870E-01
 0.4337552172740E-01 -0.1073467506562E-01
 0.4652391647738E-01 -0.1110744358788E-01
 0.4975366988766E-01 -0.1146969803546E-01
 0.5306184282934E-01 -0.1182131092193E-01
 0.5644520861289E-01 -0.1216242965237E-01
 0.5990032331578E-01 -0.1249316459961E-01
 0.6342347071590E-01 -0.1281360849876E-01
 0.6701026793097E-01 -0.1312433937516E-01
 0.7065537614732E-01 -0.1342656925412E-01
 0.7435206085064E-01 -0.1372228086131E-01
 0.7809182900846E-01 -0.1401436229021E-01
 0.8186390472108E-01 -0.1430664309490E-01
 0.8565500176745E-01 -0.1460361193936E-01
 0.8945037931915E-01 -0.1490903419732E-01
 0.9323756760410E-01 -0.1522254010950E-01
 0.9700126572177E-01 -0.1554354169651E-01
 0.1007186508415E+00 -0.1587441551074E-01
 0.1043632519797E+00 -0.1621659426449E-01
 0.3963577392496E-03 -0.5216587859136E-03
 0.9698829012045E-03 -0.1050845786553E-02
 0.1713824937710E-02 -0.1587609826412E-02
 0.2620646983218E-02 -0.2131241056641E-02
 0.3682562844732E-02 -0.2680360814558E-02
 0.4891990402533E-02 -0.3233101936176E-02
 0.6241863507228E-02 -0.3787320110385E-02
 0.7725799749505E-02 -0.4340791285361E-02
 0.9338152742713E-02 -0.4891366110240E-02
 0.1107398617244E-01 -0.5437070275396E-02
 0.1292898461463E-01 -0.5976148971704E-02
 0.1489938278792E-01 -0.6507084362964E-02
 0.1698185618742E-01 -0.7028576588256E-02
 0.1917342767187E-01 -0.7539515500291E-02
 0.2147141688087E-01 -0.8038954785756E-02
 0.2387332362131E-01 -0.8526088591074E-02
 0.2637684231043E-01 -0.9001172963918E-02
 0.2897971826726E-01 -0.9465712098481E-02
 0.3167954458032E-01 -0.9920625471696E-02
 0.3447381126791E-01 -0.1036610668158E-01
 0.3735996082960E-01 -0.1080193527145E-01
 0.4033548966458E-01 -0.1122772328458E-01
 0.4339781127406E-01 -0.1164301874463E-01
 0.4654429757908E-01 -0.1204738855971E-01
 0.4977227212668E-01 -0.1244048934578E-01
 0.5307888830935E-01 -0.1282214953062E-01
 0.5646105093425E-01 -0.1319248543054E-01
 0.5991549502559E-01 -0.1355154867817E-01
 0.6343874064199E-01 -0.1389934483795E-01
 0.6702670738877E-01 -0.1423639575385E-01
 0.7067442818057E-01 -0.1456390826181E-01
 0.7437560546858E-01 -0.1488393388702E-01
 0.7812223448007E-01 -0.1519953090387E-01
 0.8190405203231E-01 -0.1551482137274E-01
 0.8570826770920E-01 -0.1583469365600E-01
 0.8952056144431E-01 -0.1616326598320E-01
 0.9332872271227E-01 -0.1650005389121E-01
 0.9711746162849E-01 -0.1684438035124E-01
 0.1008636737489E+00 -0.1719896034526E-01
 0.1045402865375E+00 -0.1756548249910E-01
 0.4011716421909E-03 -0.5631911995150E-03
 0.9802831972792E-03 -0.1134673912844E-02
 0.1730156925841E-02 -0.1714484315028E-02
 0.2642836150138E-02 -0.2301798367531E-02
 0.3710179439223E-02 -0.2895043091602E-02
 0.4924348473638E-02 -0.3492111770582E-02
 0.6278127970291E-02 -0.4090610850647E-02
 0.7765080999724E-02 -0.4688084755621E-02
 0.9379578109733E-02 -0.5282186178213E-02
 0.1111674625986E-01 -0.5870781670474E-02
 0.1297235809852E-01 -0.6451993545469E-02
 0.1494274554332E-01 -0.7024211858239E-02
 0.1702468051141E-01 -0.7586067914063E-02
 0.1921527617078E-01 -0.8136399392080E-02
 0.2151193394309E-01 -0.8674219679756E-02
 0.2391222626476E-01 -0.9198691808608E-02
 0.2641392006468E-01 -0.9710147977260E-02
 0.2901483065376E-01 -0.1021029598151E-01
 0.3171259995609E-01 -0.1070019198562E-01
 0.3450474973470E-01 -0.1118008449834E-01
 0.3738874528450E-01 -0.1164975871657E-01
 0.4036210399875E-01 -0.1210880770412E-01
 0.4342226563008E-01 -0.1255674571351E-01
 0.4656664121550E-01 -0.1299309742785E-01
 0.4979261497315E-01 -0.1341747358818E-01
 0.5309743235255E-01 -0.1382965901509E-01
 0.5647813223258E-01 -0.1422973774149E-01
 0.5993163544999E-01 -0.1461769835533E-01
 0.6345471133301E-01 -0.1499345093520E-01
 0.6704360335411E-01 -0.1535744926493E-01
 0.7069374809465E-01 -0.1571087985630E-01
 0.7439932935593E-01 -0.1605584586786E-01
 0.7815288840666E-01 -0.1639555907247E-01
 0.8194474509898E-01 -0.1673442155048E-01
 0.8576268402688E-01 -0.1707771696184E-01
 0.8959288684055E-01 -0.1742992037848E-01
 0.9342347343318E-01 -0.1779043614344E-01
 0.9723920778195E-01 -0.1815851410976E-01
 0.1010167006811E+00 -0.1853724337682E-01
 0.1047282205864E+00 -0.1892859997567E-01
 0.4064716115906E-03 -0.6050249742382E-03
 0.9917389869917E-03 -0.1219156273187E-02
 0.1748137732639E-02 -0.1842408682667E-02
 0.2667235853138E-02 -0.2473824530547E-02
 0.3740495593957E-02 -0.3111611692784E-02
 0.4959799970903E-02 -0.3753400344443E-02
 0.6317779050236E-02 -0.4396530509010E-02
 0.7807947847312E-02 -0.5038306460086E-02
 0.9424706737441E-02 -0.5676182373518E-02
 0.1116326082160E-01 -0.6307871110660E-02
 0.1301948487003E-01 -0.6931381069383E-02
 0.1498981993168E-01 -0.7545020505605E-02
 0.1707114389172E-01 -0.8147362023877E-02
 0.1926066766983E-01 -0.8737200242749E-02
 0.2155588025900E-01 -0.9313516055526E-02
 0.2395443125227E-01 -0.9875447993161E-02
 0.2645416441624E-01 -0.1042341171533E-01
 0.2905296895572E-01 -0.1095932714480E-01
 0.3174853717189E-01 -0.1148439409710E-01
 0.3453842189614E-01 -0.1199892153328E-01
 0.3742010887266E-01 -0.1250270505854E-01
 0.4039113298968E-01 -0.1299532305064E-01
 0.4344895615278E-01 -0.1347625984140E-01
 0.4659102444934E-01 -0.1394500116365E-01
 0.4981477948616E-01 -0.1440111432953E-01
 0.5311755718260E-01 -0.1484434179838E-01
 0.5649653172101E-01 -0.1527473489235E-01
 0.5994881506134E-01 -0.1569221543577E-01
 0.6347143712863E-01 -0.1609658990792E-01
 0.6706098512959E-01 -0.1648823181040E-01
 0.7071333029292E-01 -0.1686829109433E-01
 0.7442318233007E-01 -0.1723890338428E-01
 0.7818368834001E-01 -0.1760341441959E-01
 0.8198582603144E-01 -0.1796649047334E-01
 0.8581804157158E-01 -0.1833380295991E-01
 0.8966710923804E-01 -0.1871018552425E-01
 0.9352156196665E-01 -0.1909493343011E-01
 0.9736627000944E-01 -0.1948724104084E-01
 0.1011775588459E+00 -0.1989061314280E-01
 0.1049269729730E+00 -0.2030735080180E-01
 0.4122931728464E-03 -0.6471951858575E-03
 0.1004324310857E-02 -0.1304369520607E-02
 0.1767875394405E-02 -0.1971505656803E-02
 0.2693977715132E-02 -0.2647488896210E-02
 0.3773653633245E-02 -0.3330278721313E-02
 0.4998485977153E-02 -0.4017215254170E-02
 0.6360947777228E-02 -0.4705353340879E-02
 0.7854516276638E-02 -0.5391748667609E-02
 0.9473637962288E-02 -0.6073657722830E-02
 0.1121361337657E-01 -0.6748647045823E-02
 0.1307043487012E-01 -0.7414622011094E-02
 0.1504066513535E-01 -0.8069821022907E-02
 0.1712129760397E-01 -0.8712769354312E-02
 0.1930964814285E-01 -0.9342228522949E-02
 0.2160329878391E-01 -0.9957155267735E-02
 0.2399998053018E-01 -0.1055667056268E-01
 0.2649761814212E-01 -0.1114128118391E-01
 0.2909417852961E-01 -0.1171312815457E-01
 0.3178740580573E-01 -0.1227356228839E-01
 0.3457488300431E-01 -0.1282295889528E-01
 0.3745411365930E-01 -0.1336112912917E-01
 0.4042264619963E-01 -0.1388764142871E-01
 0.4347795998139E-01 -0.1440195460294E-01
 0.4661753131140E-01 -0.1490351937361E-01
 0.4983885494690E-01 -0.1539186286325E-01
 0.5313935450197E-01 -0.1586668732293E-01
 0.5651633923978E-01 -0.1632801190072E-01
 0.5996711581852E-01 -0.1677568877557E-01
 0.6348898415796E-01 -0.1720941320294E-01
 0.6707889319763E-01 -0.1762946611554E-01
 0.7073317841818E-01 -0.1803694376862E-01
 0.7444711977147E-01 -0.1843399312279E-01
 0.7821453173127E-01 -0.1882407128264E-01
 0.8202712930219E-01 -0.1921208901073E-01
 0.8587411486913E-01 -0.1960409397783E-01
 0.8974295772562E-01 -0.2000527695655E-01
 0.9362270026104E-01 -0.2041482410252E-01
 0.9749838359872E-01 -0.2083189355487E-01
 0.1013460514141E+00 -0.2126045434018E-01
 0.1051364504826E+00 -0.2170317798854E-01
 0.4186765808048E-03 -0.6897397154203E-03
 0.1018123068098E-02 -0.1390396640283E-02
 0.1789491769901E-02 -0.2101908044401E-02
 0.2723208979222E-02 -0.2822974026123E-02
 0.3809811045450E-02 -0.3551271270257E-02
 0.5040560646052E-02 -0.4283819202335E-02
 0.6407775390038E-02 -0.5017367323978E-02
 0.7904909596268E-02 -0.5748714946741E-02
 0.9526476000438E-02 -0.6474923625948E-02
 0.1126789050304E-01 -0.7193423316713E-02
 0.1312527989411E-01 -0.7902029488563E-02
 0.1509534149250E-01 -0.8598924430790E-02
 0.1717519374798E-01 -0.9282598731093E-02
 0.1936226429609E-01 -0.9951791581570E-02
 0.2165423326231E-01 -0.1060544436990E-01
 0.2404891699220E-01 -0.1124266769789E-01
 0.2654432521924E-01 -0.1186406736724E-01
 0.2913850629717E-01 -0.1247201483711E-01
 0.3182925750423E-01 -0.1306801958093E-01
 0.3461419103859E-01 -0.1365252945792E-01
 0.3749082525504E-01 -0.1422537665981E-01
 0.4045671770829E-01 -0.1478612486494E-01
 0.4350935988895E-01 -0.1533421230610E-01
 0.4664625271436E-01 -0.1586905933423E-01
 0.4986493887548E-01 -0.1639015700149E-01
 0.5316292566983E-01 -0.1689717055952E-01
 0.5653765566720E-01 -0.1739008870091E-01
 0.5998663188870E-01 -0.1786869220292E-01
 0.6350743143859E-01 -0.1833255830460E-01
 0.6709738072522E-01 -0.1878186337159E-01
 0.7075330721715E-01 -0.1921763222018E-01
 0.7447110468561E-01 -0.1964200017702E-01
 0.7824531788170E-01 -0.2005850987301E-01
 0.8206848313985E-01 -0.2047229242489E-01
 0.8593066245996E-01 -0.2088975537011E-01
 0.8982013567122E-01 -0.2131644084390E-01
 0.9372656755891E-01 -0.2175142267656E-01
 0.9763525024294E-01 -0.2219384335779E-01
 0.1015219553894E+00 -0.2264819291563E-01
 0.1053565479342E+00 -0.2311756895090E-01
 0.4256674494940E-03 -0.7326997965760E-03
 0.1033230301877E-02 -0.1477328179849E-02
 0.1813124152959E-02 -0.2233760632267E-02
 0.2755093972676E-02 -0.3000478038509E-02
 0.3849141430205E-02 -0.3774833854306E-02
 0.5086191499709E-02 -0.4553492169459E-02
 0.6458413060973E-02 -0.5332875847346E-02
 0.7959257777424E-02 -0.6109521300447E-02
 0.9583329099435E-02 -0.6880300480420E-02
 0.1132618096145E-01 -0.7642519372569E-02
 0.1318409278572E-01 -0.8393919196040E-02
 0.1515390981074E-01 -0.9132641788735E-02
 0.1723288469109E-01 -0.9857156994312E-02
 0.1941856312681E-01 -0.1056619321706E-01
 0.2170872787445E-01 -0.1125868566937E-01
 0.2410128418394E-01 -0.1193374190254E-01
 0.2659433056148E-01 -0.1259207480152E-01
 0.2918600049823E-01 -0.1323629586250E-01
 0.3187414574312E-01 -0.1386808111729E-01
 0.3465640647122E-01 -0.1448795741875E-01
 0.3753031258795E-01 -0.1509578378726E-01
 0.4049342589691E-01 -0.1569112471838E-01
 0.4354324409162E-01 -0.1627340335393E-01
 0.4667728631333E-01 -0.1684201504403E-01
 0.4989313698724E-01 -0.1739641985384E-01
 0.5318838181907E-01 -0.1793625045632E-01
 0.5656059328155E-01 -0.1846146822684E-01
 0.6000747034971E-01 -0.1897178223601E-01
 0.6352687200956E-01 -0.1946664614897E-01
 0.6711651518310E-01 -0.1994612049323E-01
 0.7077374462369E-01 -0.2041114069338E-01
 0.7449511009735E-01 -0.2086380586814E-01
 0.7827595031694E-01 -0.2130771501472E-01
 0.8210971136474E-01 -0.2174819048724E-01
 0.8598742757348E-01 -0.2219197734727E-01
 0.8989831972255E-01 -0.2264495760617E-01
 0.9383280764781E-01 -0.2310608496816E-01
 0.9777653433825E-01 -0.2357450739027E-01
 0.1017050189160E+00 -0.2405530198261E-01
 0.1055871484911E+00 -0.2455206161725E-01
 0.4333175194347E-03 -0.7761206798835E-03
 0.1049753754420E-02 -0.1565263739242E-02
 0.1838927184216E-02 -0.2367222465782E-02
 0.2789815779745E-02 -0.3180217369958E-02
 0.3891835504804E-02 -0.4001231198002E-02
 0.5135559650577E-02 -0.4826533817334E-02
 0.6513021466224E-02 -0.5652199493880E-02
 0.8017696617154E-02 -0.6474497283525E-02
 0.9644308532919E-02 -0.7290118220774E-02
 0.1138857469584E-01 -0.8096260374082E-02
 0.1324694654731E-01 -0.8890609212505E-02
 0.1521643062887E-01 -0.9671283824806E-02
 0.1729442248388E-01 -0.1043674853451E-01
 0.1947859147079E-01 -0.1118573317838E-01
 0.2176682688123E-01 -0.1191717623096E-01
 0.2415712600896E-01 -0.1263018953100E-01
 0.2664767975723E-01 -0.1332560113417E-01
 0.2923671044063E-01 -0.1400627233188E-01
 0.3192212557988E-01 -0.1467405376338E-01
 0.3470159201919E-01 -0.1532955789389E-01
 0.3757264765362E-01 -0.1597267660617E-01
 0.4053285319909E-01 -0.1660298114246E-01
 0.4357970601093E-01 -0.1721988555365E-01
 0.4671073630523E-01 -0.1782276630596E-01
 0.4992356307560E-01 -0.1841105860444E-01
 0.5321584389459E-01 -0.1898436833603E-01
 0.5658527605184E-01 -0.1954263437240E-01
 0.6002975184869E-01 -0.2008549558688E-01
 0.6354741407551E-01 -0.2061227821525E-01
 0.6713638006448E-01 -0.2112291693801E-01
 0.7079453406414E-01 -0.2161824015270E-01
 0.7451912181089E-01 -0.2210028497683E-01
 0.7830633965598E-01 -0.2257267433824E-01
 0.8215063577422E-01 -0.2304088722909E-01
 0.8604413925663E-01 -0.2351197676892E-01
 0.8997715898155E-01 -0.2399214592541E-01
 0.9394102584942E-01 -0.2448021412211E-01
 0.9792185848257E-01 -0.2497535513253E-01
 0.1018949576855E+00 -0.2548330889296E-01
 0.1058281242792E+00 -0.2600825102192E-01
 0.4416855969052E-03 -0.8200524466926E-03
 0.1067815755132E-02 -0.1654313790590E-02
 0.1867075118034E-02 -0.2502469601003E-02
 0.2827578141513E-02 -0.3362430042843E-02
 0.3938102146858E-02 -0.4230751437276E-02
 0.5188859901855E-02 -0.5103266139406E-02
 0.6571770154602E-02 -0.5975677899846E-02
 0.8080366691217E-02 -0.6843987070547E-02
 0.9709527418617E-02 -0.7704716738741E-02
 0.1145516170641E-01 -0.8554977154255E-02
 0.1331391336625E-01 -0.9392419673164E-02
 0.1528296343090E-01 -0.1021516044637E-01
 0.1735985825422E-01 -0.1102167473123E-01
 0.1954239554528E-01 -0.1181070658986E-01
 0.2182857427380E-01 -0.1258120732518E-01
 0.2421648644244E-01 -0.1333230028077E-01
 0.2670441881291E-01 -0.1406493666813E-01
 0.2929068625196E-01 -0.1478223736994E-01
 0.3197325340299E-01 -0.1548623573580E-01
 0.3474981238550E-01 -0.1617763655588E-01
 0.3761790524487E-01 -0.1685637077925E-01
 0.4057508581783E-01 -0.1752202261233E-01
 0.4361884398526E-01 -0.1817400348855E-01
 0.4674671315806E-01 -0.1881167785672E-01
 0.4995633880755E-01 -0.1943446330252E-01
 0.5324544259323E-01 -0.2004194625254E-01
 0.5661183983211E-01 -0.2063404983345E-01
 0.6005361118759E-01 -0.2121034644320E-01
 0.6356918213215E-01 -0.2177003326720E-01
 0.6715707668075E-01 -0.2231291103248E-01
 0.7081573698065E-01 -0.2283968447072E-01
 0.7454314156563E-01 -0.2335230225788E-01
 0.7833640705233E-01 -0.2385437577677E-01
 0.8219107920797E-01 -0.2435150017040E-01
 0.8610051411305E-01 -0.2485099880784E-01
 0.9005627446715E-01 -0.2535936715154E-01
 0.9405078583648E-01 -0.2587526759776E-01
 0.9807079811980E-01 -0.2639791778537E-01
 0.1020914497759E+00 -0.2693380435308E-01
 0.1060793373012E+00 -0.2748779593516E-01
 0.4508387102685E-03 -0.8645510159451E-03
 0.1087555522744E-02 -0.1744601920923E-02
 0.1897764512020E-02 -0.2639698451940E-02
 0.2868607597860E-02 -0.3547379547440E-02
 0.3988169436757E-02 -0.4463709796473E-02
 0.5246300665779E-02 -0.5384036366649E-02
 0.6634836657845E-02 -0.6303671662100E-02
 0.8147412058095E-02 -0.7218350430381E-02
 0.9779099340540E-02 -0.8124446143008E-02
 0.1152603078809E-01 -0.9019006006011E-02
 0.1338506356050E-01 -0.9899672283722E-02
 0.1535356581846E-01 -0.1076458011953E-01
 0.1742924158691E-01 -0.1161223328645E-01
 0.1961002049489E-01 -0.1244140329460E-01
 0.2189401343525E-01 -0.1325106381688E-01
 0.2427940925927E-01 -0.1404035664699E-01
 0.2676459390850E-01 -0.1481036389028E-01
 0.2934797863864E-01 -0.1556447572426E-01
 0.3202758668262E-01 -0.1630491625907E-01
 0.3480113399439E-01 -0.1703248932366E-01
 0.3766616266415E-01 -0.1774717121787E-01
 0.4062021340890E-01 -0.1844856553359E-01
 0.4366076092635E-01 -0.1913608797108E-01
 0.4678533326129E-01 -0.1980909856182E-01
 0.4999159341633E-01 -0.2046700568486E-01
 0.5327731818307E-01 -0.2110938532251E-01
 0.5664043243015E-01 -0.2173615384037E-01
 0.6007919780059E-01 -0.2234682352440E-01
 0.6359231803579E-01 -0.2294046371972E-01
 0.6717872600139E-01 -0.2351673574869E-01
 0.7083743555871E-01 -0.2407620588700E-01
 0.7456719061014E-01 -0.2462070809013E-01
 0.7836608829527E-01 -0.2515380416690E-01
 0.8223086942966E-01 -0.2568115884987E-01
 0.8615625888600E-01 -0.2621031826864E-01
 0.9013525898055E-01 -0.2674803024308E-01
 0.9416160638047E-01 -0.2729276493041E-01
 0.9822287561345E-01 -0.2784379974732E-01
 0.1022941280476E+00 -0.2840845572798E-01
 0.1063406391593E+00 -0.2899242563750E-01
 0.4608535431659E-03 -0.9096794022471E-03
 0.1109131986237E-02 -0.1836267621194E-02
 0.1931217419603E-02 -0.2779129890256E-02
 0.2913155879685E-02 -0.3735359471552E-02
 0.4042285644242E-02 -0.4700452806811E-02
 0.5308103620417E-02 -0.5669220125433E-02
 0.6702405274819E-02 -0.6636564246433E-02
 0.8218978672925E-02 -0.7597963548729E-02
 0.9853136758606E-02 -0.8549666808428E-02
 0.1160126813425E-01 -0.9488688262099E-02
 0.1346046444936E-01 -0.1041268965711E-01
 0.1542829265010E-01 -0.1131984910623E-01
 0.1750261989728E-01 -0.1220871744647E-01
 0.1968150994840E-01 -0.1307810711165E-01
 0.2196318682205E-01 -0.1392702349011E-01
 0.2434593778374E-01 -0.1475463333536E-01
 0.2682825117189E-01 -0.1556215698200E-01
 0.2940863865878E-01 -0.1635326337264E-01
 0.3208518372896E-01 -0.1713037525831E-01
 0.3485562472588E-01 -0.1789440211464E-01
 0.3771749942241E-01 -0.1864537184768E-01
 0.4066832873153E-01 -0.1938291395077E-01
 0.4370556391763E-01 -0.2010645559797E-01
 0.4682671848788E-01 -0.2081536069898E-01
 0.5002946327547E-01 -0.2150903805242E-01
 0.5331162017814E-01 -0.2218706405210E-01
 0.5667121351815E-01 -0.2284935979530E-01
 0.6010667608241E-01 -0.2349538691433E-01
 0.6361698196998E-01 -0.2412409161127E-01
 0.6720147049337E-01 -0.2473499387548E-01
 0.7085973562940E-01 -0.2532850963141E-01
 0.7459131371100E-01 -0.2590633308524E-01
 0.7839533863992E-01 -0.2647193673422E-01
 0.8226984405100E-01 -0.2703100233609E-01
 0.8621107397233E-01 -0.2759124054833E-01
 0.9021367809593E-01 -0.2815959648203E-01
 0.9427295690234E-01 -0.2873429852322E-01
 0.9837755614274E-01 -0.2931468701314E-01
 0.1025025681370E+00 -0.2990903584836E-01
 0.1066118667626E+00 -0.3052394154262E-01
 0.4718182247467E-03 -0.9555093047582E-03
 0.1132727260803E-02 -0.1929469787638E-02
 0.1967685180626E-02 -0.2921014301705E-02
 0.2961502546598E-02 -0.3926699038617E-02
 0.4100720076259E-02 -0.4941363132362E-02
 0.5374503002227E-02 -0.5959224824782E-02
 0.6774665450579E-02 -0.6974763827057E-02
 0.8295212469312E-02 -0.7983219622621E-02
 0.9931749193376E-02 -0.8980749155563E-02
 0.1168095580937E-01 -0.9964369630415E-02
 0.1354017915964E-01 -0.1093179445349E-01
 0.1550719515782E-01 -0.1188127055035E-01
 0.1758003780827E-01 -0.1281141510786E-01
 0.1975690559518E-01 -0.1372109500301E-01
 0.2203613567352E-01 -0.1460935630449E-01
 0.2441611466879E-01 -0.1547539662905E-01
 0.2689543647937E-01 -0.1632058130914E-01
 0.2947271751589E-01 -0.1714886713906E-01
 0.3214610346558E-01 -0.1796288309249E-01
 0.3491335365674E-01 -0.1876365066998E-01
 0.3777199692991E-01 -0.1955125547579E-01
 0.4071952726839E-01 -0.2032535937645E-01
 0.4375336375127E-01 -0.2108540843148E-01
 0.4687099565895E-01 -0.2183077935555E-01
 0.5007009133700E-01 -0.2256089222766E-01
 0.5334850684264E-01 -0.2327533668398E-01
 0.5670435434885E-01 -0.2397405283491E-01
 0.6013622552044E-01 -0.2465646468025E-01
 0.6364335325300E-01 -0.2532140416958E-01
 0.6722547590004E-01 -0.2596825253341E-01
 0.7088276970166E-01 -0.2659726759762E-01
 0.7461558358383E-01 -0.2720998146538E-01
 0.7842413847531E-01 -0.2780973715500E-01
 0.8230785658269E-01 -0.2840217547578E-01
 0.8626465859606E-01 -0.2899510154239E-01
 0.9029107113159E-01 -0.2959558533776E-01
 0.9438425694817E-01 -0.3020154187807E-01
 0.9853423002676E-01 -0.3081237307679E-01
 0.1027163130684E+00 -0.3143740218929E-01
 0.1068927514835E+00 -0.3208438568102E-01
 0.4838345857410E-03 -0.1002123136812E-02
 0.1158550957340E-02 -0.2024391161169E-02
 0.2007452920134E-02 -0.3065637866175E-02
 0.3013957842759E-02 -0.4121769747831E-02
 0.4163763665476E-02 -0.5186865063012E-02
 0.5445744402974E-02 -0.6254493220606E-02
 0.6851809660210E-02 -0.7318704955711E-02
 0.8376257068973E-02 -0.8374529129478E-02
 0.1001504118077E-01 -0.9418073091652E-02
 0.1176517010225E-01 -0.1044639924572E-01
 0.1362426538207E-01 -0.1145730830568E-01
 0.1559032005392E-01 -0.1244914340574E-01
 0.1766153654085E-01 -0.1342060780329E-01
 0.1983624678949E-01 -0.1437063614513E-01
 0.2211289975699E-01 -0.1529832357555E-01
 0.2448998171246E-01 -0.1620290370051E-01
 0.2696619529011E-01 -0.1708589288355E-01
 0.2954026638181E-01 -0.1795154431401E-01
 0.3221040522631E-01 -0.1880270033026E-01
 0.3497439081605E-01 -0.1964050046139E-01
 0.3782973818521E-01 -0.2046509377367E-01
 0.4077390681755E-01 -0.2127618075970E-01
 0.4380427440125E-01 -0.2207323382815E-01
 0.4691829590124E-01 -0.2285565196314E-01
 0.5011362641613E-01 -0.2362287861645E-01
 0.5338814449679E-01 -0.2437453158844E-01
 0.5674003723746E-01 -0.2511058733916E-01
 0.6016804057697E-01 -0.2583044928891E-01
 0.6367163091811E-01 -0.2653284895984E-01
 0.6725093288321E-01 -0.2721703698022E-01
 0.7090670005090E-01 -0.2788311094482E-01
 0.7464010572841E-01 -0.2853242297549E-01
 0.7845249984540E-01 -0.2916814786947E-01
 0.8234478402346E-01 -0.2979582330464E-01
 0.8631671726193E-01 -0.3042326657303E-01
 0.9036695554068E-01 -0.3105757897971E-01
 0.9449486839438E-01 -0.3169626487474E-01
 0.9869222364711E-01 -0.3233876341635E-01
 0.1029347853979E+00 -0.3299558229653E-01
 0.1071832202515E+00 -0.3367579715368E-01
 0.4970210300557E-03 -0.1049616650430E-02
 0.1186845560874E-02 -0.2121244015635E-02
 0.2050844879720E-02 -0.3213330412536E-02
 0.3070865706594E-02 -0.4320993347248E-02
 0.4231729127594E-02 -0.5437430717916E-02
 0.5522082906616E-02 -0.6555507063342E-02
 0.6934030699393E-02 -0.7668849922542E-02
 0.8462251086824E-02 -0.8772319655056E-02
 0.1010311000385E-01 -0.9862027042449E-02
 0.1185397978095E-01 -0.1093512840746E-01
 0.1371277409954E-01 -0.1198955052567E-01
 0.1567770864449E-01 -0.1302376121454E-01
 0.1774715332982E-01 -0.1403656957894E-01
 0.1991957019239E-01 -0.1502699091453E-01
 0.2219351715846E-01 -0.1599417708583E-01
 0.2456757972161E-01 -0.1693740187486E-01
 0.2704057252509E-01 -0.1785833780576E-01
 0.2961133626001E-01 -0.1876154229585E-01
 0.3227814858805E-01 -0.1965007759405E-01
 0.3503880696791E-01 -0.2052520671587E-01
 0.3789080747288E-01 -0.2138714742210E-01
 0.4083156706230E-01 -0.2223564464759E-01
 0.4385841243223E-01 -0.2307020447443E-01
 0.4696875388996E-01 -0.2389025803323E-01
 0.5016022230596E-01 -0.2469528544309E-01
 0.5343070659694E-01 -0.2548494977146E-01
 0.5677845476830E-01 -0.2625928446128E-01
 0.6020233026317E-01 -0.2701769389157E-01
 0.6370203398921E-01 -0.2775882867096E-01
 0.6727805843234E-01 -0.2848182372357E-01
 0.7093172176933E-01 -0.2918662156731E-01
 0.7466502358646E-01 -0.2987438315364E-01
 0.7848047392481E-01 -0.3054808027562E-01
 0.8238053595025E-01 -0.3121308322658E-01
 0.8636696906241E-01 -0.3187712729395E-01
 0.9044083078231E-01 -0.3254722739900E-01
 0.9460409957525E-01 -0.3322034571995E-01
 0.9885076180887E-01 -0.3389590718424E-01
 0.1031573958673E+00 -0.3458575003199E-01
 0.1074828703728E+00 -0.3530049339859E-01
 0.5115162307676E-03 -0.1098102375131E-02
 0.1217893190002E-02 -0.2220277526913E-02
 0.2098230714474E-02 -0.3364475309787E-02
 0.3132606809285E-02 -0.4524851405056E-02
 0.4304950444312E-02 -0.5693586961533E-02
 0.5603780362075E-02 -0.6862790664848E-02
 0.7021518277770E-02 -0.8025689611614E-02
 0.8553325009998E-02 -0.9177035128522E-02
 0.1019604322144E-01 -0.1031300648474E-01
 0.1194744427960E-01 -0.1143090895974E-01
 0.1380574831153E-01 -0.1252883657359E-01
 0.1576939596457E-01 -0.1360541072514E-01
 0.1783692087220E-01 -0.1465956574931E-01
 0.2000690945537E-01 -0.1569040976424E-01
 0.2227802412281E-01 -0.1669715809338E-01
 0.2464894842830E-01 -0.1767912780417E-01
 0.2711861249726E-01 -0.1863815164596E-01
 0.2968597789787E-01 -0.1957909821260E-01
 0.3234939324987E-01 -0.2050525543822E-01
 0.3510667343164E-01 -0.2141801453105E-01
 0.3795529007753E-01 -0.2231766639530E-01
 0.4089260912136E-01 -0.2320400551820E-01
 0.4391589634014E-01 -0.2407657860588E-01
 0.4702250696528E-01 -0.2493485906833E-01
 0.5021003670178E-01 -0.2577837813110E-01
 0.5347637255842E-01 -0.2660686347124E-01
 0.5681980867923E-01 -0.2742042964850E-01
 0.6023931733812E-01 -0.2821850844001E-01
 0.6373480135906E-01 -0.2899969548149E-01
 0.6730709692248E-01 -0.2976303283710E-01
 0.7095806563702E-01 -0.3050832223988E-01
 0.7469052392338E-01 -0.3123653161011E-01
 0.7850815936146E-01 -0.3195040224359E-01
 0.8241506563456E-01 -0.3265507407854E-01
 0.8641515909511E-01 -0.3335809589965E-01
 0.9051218802327E-01 -0.3406625198028E-01
 0.9471119823511E-01 -0.3477578626512E-01
 0.9900898378377E-01 -0.3548602349782E-01
 0.1033834005738E+00 -0.3621025611092E-01
 0.1077915640295E+00 -0.3696109422064E-01
 0.5274839467649E-03 -0.1147714189076E-02
 0.1252024153919E-02 -0.2321787433247E-02
 0.2150032885789E-02 -0.3519522007492E-02
 0.3199601403138E-02 -0.4733896779768E-02
 0.4383781337367E-02 -0.5955922972494E-02
 0.5691101550087E-02 -0.7176914138369E-02
 0.7114454819011E-02 -0.8389743605046E-02
 0.8649597654783E-02 -0.9589134305428E-02
 0.1029391603775E-01 -0.1077141190906E-01
 0.1204561186370E-01 -0.1193409130262E-01
 0.1390322178955E-01 -0.1307547630947E-01
 0.1586540995557E-01 -0.1419437038195E-01
 0.1793086681945E-01 -0.1528985156063E-01
 0.2009829495352E-01 -0.1636113201486E-01
 0.2236645495224E-01 -0.1740749625383E-01
 0.2473412646998E-01 -0.1842830656588E-01
 0.2720035890669E-01 -0.1942555878101E-01
 0.2976424176480E-01 -0.2040443855391E-01
 0.3242419897788E-01 -0.2136846430775E-01
 0.3517806195927E-01 -0.2231915914493E-01
 0.3802327203026E-01 -0.2325689046263E-01
 0.4095713508921E-01 -0.2418150637319E-01
 0.4397684582648E-01 -0.2509260050475E-01
 0.4707969411678E-01 -0.2598969874947E-01
 0.5026322992022E-01 -0.2687239893918E-01
 0.5352532629444E-01 -0.2774051496422E-01
 0.5686430838092E-01 -0.2859427028673E-01
 0.6027923706576E-01 -0.2943315577511E-01
 0.6377019117162E-01 -0.3025574514369E-01
 0.6733832068192E-01 -0.3106101958835E-01
 0.7098600064443E-01 -0.3184866546805E-01
 0.7471684224021E-01 -0.3261946818075E-01
 0.7853571147599E-01 -0.3337592254740E-01
 0.8244838306334E-01 -0.3412288130613E-01
 0.8646107394295E-01 -0.3486759566144E-01
 0.9058052123094E-01 -0.3561644649712E-01
 0.9481535833085E-01 -0.3636473112850E-01
 0.9916590781854E-01 -0.3711152246719E-01
 0.1036119717128E+00 -0.3787171551770E-01
 0.1081090296041E+00 -0.3866032606533E-01
 0.5451193873903E-03 -0.1198613491641E-02
 0.1289627864536E-02 -0.2426128858462E-02
 0.2206735250360E-02 -0.3679002035105E-02
 0.3272311613048E-02 -0.4948767300541E-02
 0.4468592277582E-02 -0.6225098283850E-02
 0.5784308964874E-02 -0.7498495932944E-02
 0.7213010390153E-02 -0.8761559211086E-02
 0.8751172237206E-02 -0.1000908830991E-01
 0.1039678858023E-01 -0.1123764613478E-01
 0.1214851783226E-01 -0.1244502201977E-01
 0.1400521790108E-01 -0.1362977204039E-01
 0.1596577070291E-01 -0.1479090870458E-01
 0.1802901331807E-01 -0.1592767077164E-01
 0.2019375356790E-01 -0.1703938455190E-01
 0.2245884196495E-01 -0.1812540843018E-01
 0.2482315143971E-01 -0.1918515064860E-01
 0.2728585491134E-01 -0.2022077164970E-01
 0.2984617811152E-01 -0.2123777878442E-01
 0.3250262563528E-01 -0.2223992456392E-01
 0.3525304468963E-01 -0.2322886636242E-01
 0.3809483990204E-01 -0.2420504991997E-01
 0.4102524757270E-01 -0.2516837960461E-01
 0.4404138100445E-01 -0.2611850128829E-01
 0.4714045482636E-01 -0.2705500341080E-01
 0.5031996339584E-01 -0.2797756686553E-01
 0.5357775444263E-01 -0.2888611560052E-01
 0.5691216906490E-01 -0.2978101349872E-01
 0.6032233545768E-01 -0.3066184772538E-01
 0.6380847959688E-01 -0.3152721081937E-01
 0.6737202990727E-01 -0.3237606538359E-01
 0.7101583594137E-01 -0.3320802096486E-01
 0.7474426797464E-01 -0.3402370669778E-01
 0.7856335205729E-01 -0.3482537159082E-01
 0.8248057022667E-01 -0.3561753721794E-01
 0.8650456080803E-01 -0.3640704581796E-01
 0.9064534578130E-01 -0.3719967557024E-01
 0.9491572263513E-01 -0.3798948254558E-01
 0.9932042733323E-01 -0.3877505671323E-01
 0.1038421290526E+00 -0.3957300336695E-01
 0.1084349283500E+00 -0.4040123003865E-01
 0.5646577532696E-03 -0.1250997683789E-02
 0.1331166851334E-02 -0.2533733561924E-02
 0.2268892864545E-02 -0.3843549530086E-02
 0.3351242579616E-02 -0.5170201939972E-02
 0.4559765423539E-02 -0.6501850921252E-02
 0.5883655910641E-02 -0.7828204117610E-02
 0.7317336727845E-02 -0.9141709021809E-02
 0.8858132142034E-02 -0.1043737704612E-01
 0.1050470318436E-01 -0.1171211092352E-01
 0.1225618283122E-01 -0.1296404113463E-01
 0.1411174854594E-01 -0.1419201640058E-01
 0.1607048975201E-01 -0.1539528259738E-01
 0.1813137659992E-01 -0.1657325418045E-01
 0.2029330851338E-01 -0.1772538043669E-01
 0.2255521551382E-01 -0.1885109737528E-01
 0.2491606001336E-01 -0.1994985879648E-01
 0.2737514328757E-01 -0.2102398989850E-01
 0.2993183713225E-01 -0.2207932292634E-01
 0.3258473332451E-01 -0.2311984658905E-01
 0.3533169420535E-01 -0.2414735317331E-01
 0.3817008066246E-01 -0.2516236659946E-01
 0.4109704923210E-01 -0.2616484818762E-01
 0.4410962153595E-01 -0.2715450003750E-01
 0.4720492776205E-01 -0.2813098285052E-01
 0.5038039794083E-01 -0.2909407787530E-01
 0.5363384425423E-01 -0.3004384513724E-01
 0.5696360935806E-01 -0.3098082418317E-01
 0.6036886692995E-01 -0.3190474132151E-01
 0.6384995888151E-01 -0.3281425678476E-01
 0.6740855174275E-01 -0.3370836813330E-01
 0.7104792194830E-01 -0.3458666179336E-01
 0.7477314912991E-01 -0.3544965622880E-01
 0.7859137946255E-01 -0.3629937791821E-01
 0.8251179840205E-01 -0.3713999497382E-01
 0.8654555182970E-01 -0.3797783932234E-01
 0.9070622321080E-01 -0.3881786584786E-01
 0.9501139625449E-01 -0.3965252027343E-01
 0.9947129200293E-01 -0.4047956071109E-01
 0.1040726998493E+00 -0.4131733864236E-01
 0.1087688493578E+00 -0.4218723807984E-01
 0.5863858955641E-03 -0.1305112043524E-02
 0.1377194878591E-02 -0.2645133474228E-02
 0.2337142843840E-02 -0.4013927696146E-02
 0.3436941524004E-02 -0.5399059640961E-02
 0.4657686709351E-02 -0.6787004955641E-02
 0.5989377625016E-02 -0.8166755654426E-02
 0.7427560407789E-02 -0.9530786541024E-02
 0.8970536538092E-02 -0.1087448430299E-01
 0.1061768181686E-01 -0.1219520286649E-01
 0.1236861136570E-01 -0.1349147903111E-01
 0.1422281325291E-01 -0.1476249012008E-01
 0.1617956951846E-01 -0.1600773564443E-01
 0.1823796661719E-01 -0.1722681813594E-01
 0.2039697919999E-01 -0.1841931743930E-01
 0.2265560405899E-01 -0.1958475026307E-01
 0.2501288815851E-01 -0.2072261466782E-01
 0.2746826669649E-01 -0.2183539937386E-01
 0.3002126925675E-01 -0.2292926308844E-01
 0.3267058267615E-01 -0.2400843098035E-01
 0.3541408372514E-01 -0.2507482860129E-01
 0.3824908162490E-01 -0.2612905521160E-01
 0.4117264233375E-01 -0.2717112725295E-01
 0.4418168569651E-01 -0.2820080531242E-01
 0.4727324931470E-01 -0.2921783151995E-01
 0.5044469175559E-01 -0.3022210549948E-01
 0.5369378112558E-01 -0.3121385143531E-01
 0.5701884848584E-01 -0.3219382338607E-01
 0.6041909130513E-01 -0.3316193524723E-01
 0.6389493455452E-01 -0.3411697214718E-01
 0.6744823832429E-01 -0.3505803218570E-01
 0.7108265031471E-01 -0.3598474927598E-01
 0.7480389588935E-01 -0.3689759973213E-01
 0.7862017844747E-01 -0.3779843999518E-01
 0.8254234723915E-01 -0.3869109506669E-01
 0.8658409367375E-01 -0.3958131026246E-01
 0.9076279618873E-01 -0.4047298851318E-01
 0.9510146900955E-01 -0.4135651581896E-01
 0.9961709244467E-01 -0.4222830917505E-01
 0.1043022696322E+00 -0.4310837850993E-01
 0.1091102866739E+00 -0.4402227765721E-01
 0.6106585382107E-03 -0.1361266711511E-02
 0.1428380488485E-02 -0.2760993294667E-02
 0.2412215756579E-02 -0.4191062995386E-02
 0.3529993305564E-02 -0.5636340661542E-02
 0.4762734119314E-02 -0.7081476307588E-02
 0.6101680218164E-02 -0.8514912642246E-02
 0.7543775328446E-02 -0.9929399389466E-02
 0.9088416064097E-02 -0.1132089142308E-01
 0.1073572380067E-01 -0.1268730856652E-01
 0.1248579061020E-01 -0.1402765310516E-01
 0.1433839848669E-01 -0.1534145975961E-01
 0.1629300280483E-01 -0.1662849646352E-01
 0.1834878670762E-01 -0.1788856308581E-01
 0.2050478110450E-01 -0.1912137650629E-01
 0.2276003428005E-01 -0.2032653703598E-01
 0.2511367142720E-01 -0.2150358524466E-01
 0.2756526807551E-01 -0.2265517089777E-01
 0.3011452560857E-01 -0.2378777890953E-01
 0.3276023533025E-01 -0.2490586884715E-01
 0.3550028747140E-01 -0.2601149483688E-01
 0.3833193050070E-01 -0.2710532508786E-01
 0.4125212831865E-01 -0.2818742610037E-01
 0.4425768936264E-01 -0.2925761710106E-01
 0.4734555196970E-01 -0.3031573013039E-01
 0.5051299818177E-01 -0.3136180185168E-01
 0.5375774575748E-01 -0.3239625058912E-01
 0.5707810291356E-01 -0.3342008710837E-01
 0.6047327009648E-01 -0.3443346667051E-01
 0.6394372166820E-01 -0.3543536475574E-01
 0.6749146357702E-01 -0.3642505803451E-01
 0.7112045237409E-01 -0.3740231686837E-01
 0.7483698265460E-01 -0.3836767020183E-01
 0.7865022897103E-01 -0.3932289295019E-01
 0.8257262484120E-01 -0.4027152281006E-01
 0.8662038284554E-01 -0.4121868800254E-01
 0.9081483579407E-01 -0.4216702663652E-01
 0.9518505343341E-01 -0.4310434024575E-01
 0.9975625178769E-01 -0.4402498719467E-01
 0.1045291178217E+00 -0.4495033958552E-01
 0.1094585966230E+00 -0.4591091256802E-01
 0.6379213306873E-03 -0.1419861566363E-02
 0.1485537682407E-02 -0.2882156360630E-02
 0.2494946340045E-02 -0.4376089315008E-02
 0.3631010327980E-02 -0.5883209670110E-02
 0.4875261047184E-02 -0.7386274925502E-02
 0.6220727404251E-02 -0.8873474245059E-02
 0.7666034859330E-02 -0.1033815962830E-01
 0.9211768891084E-02 -0.1177706949483E-01
 0.1085880403008E-01 -0.1318879919341E-01
 0.1260768962222E-01 -0.1457286424576E-01
 0.1445847721656E-01 -0.1592917551123E-01
 0.1641077243223E-01 -0.1725777721362E-01
 0.1846383326479E-01 -0.1855867223288E-01
 0.2061672561369E-01 -0.1983172018401E-01
 0.2286853120049E-01 -0.2107660852455E-01
 0.2521844533004E-01 -0.2229291890363E-01
 0.2766619117923E-01 -0.2348345873657E-01
 0.3021165867858E-01 -0.2465503687208E-01
 0.3285375467109E-01 -0.2581234223418E-01
 0.3559038126317E-01 -0.2695754872699E-01
 0.3841871558538E-01 -0.2809138241012E-01
 0.4133560738612E-01 -0.2921395072330E-01
 0.4433774491039E-01 -0.3032512924759E-01
 0.4742196250486E-01 -0.3142484771028E-01
 0.5058546319393E-01 -0.3251329910353E-01
 0.5382591093730E-01 -0.3359112755940E-01
 0.5714158244651E-01 -0.3465964566611E-01
 0.6053166202165E-01 -0.3571930862512E-01
 0.6399663996038E-01 -0.3676935552964E-01
 0.6753861855119E-01 -0.3780933207351E-01
 0.7116179571569E-01 -0.3883925329965E-01
 0.7487294786117E-01 -0.3985982456908E-01
 0.7868211292495E-01 -0.4087287020014E-01
 0.8260318756501E-01 -0.4188175566677E-01
 0.8665480618615E-01 -0.4289103400097E-01
 0.9086230393558E-01 -0.4390192021497E-01
 0.9526134635237E-01 -0.4489905695444E-01
 0.9988703130803E-01 -0.4587377052049E-01
 0.1047511336615E+00 -0.4684815864652E-01
 0.1098129274302E+00 -0.4785853916233E-01
 0.6687443819172E-03 -0.1481423632630E-02
 0.1549665848938E-02 -0.3009710273559E-02
 0.2586281042336E-02 -0.4570404691303E-02
 0.3740613669769E-02 -0.6141018581263E-02
 0.4995573645637E-02 -0.7702500448411E-02
 0.6346625365361E-02 -0.9243262819520E-02
 0.7794344234757E-02 -0.1075767089438E-01
 0.9340557539165E-02 -0.1224347016231E-01
 0.1098687187701E-01 -0.1370002455647E-01
 0.1273425906605E-01 -0.1512739327564E-01
 0.1458300879753E-01 -0.1652586918625E-01
 0.1653285099095E-01 -0.1789577237442E-01
 0.1858309537442E-01 -0.1923731039698E-01
 0.2073281977899E-01 -0.2055049103164E-01
 0.2298111827852E-01 -0.2183509428121E-01
 0.2532724578154E-01 -0.2309074301967E-01
 0.2777108130146E-01 -0.2432039863253E-01
 0.3031272328290E-01 -0.2553118942605E-01
 0.3295120689874E-01 -0.2672802470758E-01
 0.3568444339543E-01 -0.2791318372356E-01
 0.3850952609724E-01 -0.2908743303736E-01
 0.4142317808162E-01 -0.3025090692356E-01
 0.4442196000618E-01 -0.3140353240084E-01
 0.4750260000488E-01 -0.3254534413399E-01
 0.5066222263297E-01 -0.3367671144987E-01
 0.5389843795059E-01 -0.3479853737881E-01
 0.5720948578444E-01 -0.3591248373147E-01
 0.6059451770800E-01 -0.3701936814006E-01
 0.6405400783530E-01 -0.3811877347250E-01
 0.6759010508665E-01 -0.3921061673793E-01
 0.7120717848479E-01 -0.4029528539961E-01
 0.7491239085714E-01 -0.4137381584145E-01
 0.7871651749397E-01 -0.4244826031221E-01
 0.8263475750731E-01 -0.4352199969941E-01
 0.8668798477950E-01 -0.4459915719041E-01
 0.9090543313324E-01 -0.4567947853750E-01
 0.9532972459443E-01 -0.4674388495938E-01
 0.1000075637891E+00 -0.4777941077327E-01
 0.1049657098400E+00 -0.4880770916621E-01
 0.1101721037124E+00 -0.4987166689290E-01
 0.7038723137637E-03 -0.1546665047044E-02
 0.1622001252537E-02 -0.3145082418269E-02
 0.2687277552189E-02 -0.4775743058645E-02
 0.3859401079833E-02 -0.6411324792653E-02
 0.5123901436843E-02 -0.8031327156235E-02
 0.6479406697587E-02 -0.9625102794970E-02
 0.7928654024685E-02 -0.1118851236617E-01
 0.9474706863752E-02 -0.1272051531333E-01
 0.1111985098398E-01 -0.1422130690200E-01
 0.1286543154798E-01 -0.1569149751103E-01
 0.1471193921406E-01 -0.1713175252926E-01
 0.1665920071249E-01 -0.1854265794135E-01
 0.1870655436306E-01 -0.1992462321658E-01
 0.2085306589246E-01 -0.2127781008281E-01
 0.2309781738871E-01 -0.2260210005312E-01
 0.2544010959481E-01 -0.2389716091650E-01
 0.2787998622137E-01 -0.2516610520872E-01
 0.3041777790550E-01 -0.2641637384277E-01
 0.3305266255184E-01 -0.2765308216738E-01
 0.3578255587824E-01 -0.2887859243803E-01
 0.3860445268113E-01 -0.3009368607144E-01
 0.4151493686263E-01 -0.3129850410296E-01
 0.4451043625950E-01 -0.3249301751425E-01
 0.4758757368137E-01 -0.3367737312615E-01
 0.5074339919362E-01 -0.3485213757896E-01
 0.5397547264595E-01 -0.3601850699541E-01
 0.5728199554583E-01 -0.3717854119655E-01
 0.6066207357122E-01 -0.3833348534519E-01
 0.6411613507719E-01 -0.3948335168730E-01
 0.6764632761057E-01 -0.4062854144129E-01
 0.7125712103545E-01 -0.4176996114932E-01
 0.7495596511702E-01 -0.4290916420533E-01
 0.7875423366452E-01 -0.4404865998391E-01
 0.8266823482853E-01 -0.4519211541483E-01
 0.8672081749087E-01 -0.4634350437609E-01
 0.9094482377133E-01 -0.4750124636255E-01
 0.9538988813950E-01 -0.4864210860823E-01
 0.1001159391012E+00 -0.4974731088845E-01
 0.1051696160542E+00 -0.5083609442084E-01
 0.1105344346899E+00 -0.5195833080872E-01
 0.7443011133708E-03 -0.1616576009603E-02
 0.1704081851950E-02 -0.3290181423734E-02
 0.2799087289765E-02 -0.4994261988890E-02
 0.3987896191422E-02 -0.6695896290578E-02
 0.5260361559475E-02 -0.8373972622025E-02
 0.6619015279470E-02 -0.1001979143965E-01
 0.8068855702986E-02 -0.1163122009495E-01
 0.9614103604263E-02 -0.1320858606596E-01
 0.1125764011818E-01 -0.1475293469977E-01
 0.1300112265181E-01 -0.1626540762303E-01
 0.1484520173529E-01 -0.1774701600547E-01
 0.1678977347013E-01 -0.1919859120522E-01
 0.1883418319234E-01 -0.2062073687680E-01
 0.2097746075306E-01 -0.2201377545916E-01
 0.2321864857253E-01 -0.2337770480065E-01
 0.2555707498216E-01 -0.2471224789079E-01
 0.2799295743618E-01 -0.2602066846614E-01
 0.3052688657460E-01 -0.2731071069457E-01
 0.3315819864062E-01 -0.2858767399684E-01
 0.3588480612087E-01 -0.2985397001381E-01
 0.3870358807307E-01 -0.3111035834173E-01
 0.4161097759204E-01 -0.3235695982283E-01
 0.4460326769089E-01 -0.3359377991180E-01
 0.4767698048580E-01 -0.3482108571929E-01
 0.5082909919075E-01 -0.3603966363969E-01
 0.5405714119861E-01 -0.3725103781088E-01
 0.5735927280383E-01 -0.3845771501565E-01
 0.6073454487410E-01 -0.3966143381570E-01
 0.6418331423134E-01 -0.4086272475447E-01
 0.6770768289593E-01 -0.4206259477922E-01
 0.7131215459683E-01 -0.4326263359981E-01
 0.7500436711053E-01 -0.4446512805353E-01
 0.7879614835783E-01 -0.4567332462964E-01
 0.8270470135390E-01 -0.4689153479003E-01
 0.8675451753632E-01 -0.4812402423768E-01
 0.9098155416705E-01 -0.4936830828619E-01
 0.9544206525775E-01 -0.5059689498758E-01
 0.1002103838702E+00 -0.5178355533741E-01
 0.1053588686230E+00 -0.5294204051738E-01
 0.1108973919568E+00 -0.5412871633370E-01
 0.7913998205403E-03 -0.1692579866911E-02
 0.1797824429370E-02 -0.3447610156568E-02
 0.2922904502703E-02 -0.5228642177519E-02
 0.4126472709021E-02 -0.6996687929842E-02
 0.5404919485149E-02 -0.8731643815721E-02
 0.6765294953602E-02 -0.1042806219890E-01
 0.8214780310900E-02 -0.1208626682276E-01
 0.9758597804041E-02 -0.1370801156717E-01
 0.1140011522821E-01 -0.1529515674078E-01
 0.1314123273908E-01 -0.1684932499615E-01
 0.1498271803070E-01 -0.1837182820115E-01
 0.1692451093089E-01 -0.1986371130495E-01
 0.1896594562632E-01 -0.2132575862491E-01
 0.2110599443696E-01 -0.2275846132195E-01
 0.2334362936070E-01 -0.2416195715437E-01
 0.2567818198141E-01 -0.2553604590108E-01
 0.2811005177494E-01 -0.2688414894911E-01
 0.3064012150271E-01 -0.2821430183025E-01
 0.3326790161243E-01 -0.2953195474528E-01
 0.3599128915119E-01 -0.3083951862555E-01
 0.3880702789004E-01 -0.3213768003123E-01
 0.4171139087551E-01 -0.3342650521910E-01
 0.4470053894882E-01 -0.3470602390978E-01
 0.4777090250031E-01 -0.3597663410735E-01
 0.5091940914638E-01 -0.3723936666255E-01
 0.5414354564887E-01 -0.3849610895585E-01
 0.5744145120935E-01 -0.3974986220087E-01
 0.6081211800157E-01 -0.4100292246015E-01
 0.6425581061122E-01 -0.4225642788481E-01
 0.6777454763744E-01 -0.4351211852720E-01
 0.7137280667532E-01 -0.4477244638812E-01
 0.7505832026452E-01 -0.4604067610526E-01
 0.7884322882897E-01 -0.4732111864036E-01
 0.8274541162473E-01 -0.4861917315771E-01
 0.8679063223604E-01 -0.4994000809273E-01
 0.9101728971173E-01 -0.5128101744894E-01
 0.9548728974776E-01 -0.5261095999017E-01
 0.1002896033162E+00 -0.5389481671156E-01
 0.1055286471369E+00 -0.5513640479066E-01
 0.1112570649509E+00 -0.5639613451652E-01
 0.8471097088018E-03 -0.1776804292661E-02
 0.1905604071657E-02 -0.3620990789943E-02
 0.3059853283192E-02 -0.5482179789018E-02
 0.4275249516463E-02 -0.7315762079919E-02
 0.5557353608279E-02 -0.9105456649476E-02
 0.6917985585389E-02 -0.1085054408637E-01
 0.8366200815965E-02 -0.1255404167010E-01
 0.9908006324676E-02 -0.1421905815144E-01
 0.1154713280002E-01 -0.1584817694647E-01
 0.1328564953731E-01 -0.1744341976695E-01
 0.1512439979728E-01 -0.1900633594855E-01
 0.1706334491664E-01 -0.2053814074512E-01
 0.1910179511330E-01 -0.2203977843682E-01
 0.2123864831329E-01 -0.2351191750047E-01
 0.2347277334424E-01 -0.2495487120694E-01
 0.2580347265973E-01 -0.2636855629221E-01
 0.2823133354641E-01 -0.2775657092279E-01
 0.3075756685386E-01 -0.2912722769913E-01
 0.3338187145779E-01 -0.3048607669521E-01
 0.3610211044946E-01 -0.3183545355096E-01
 0.3891487145486E-01 -0.3317590170550E-01
 0.4181626311468E-01 -0.3450739134246E-01
 0.4480232318444E-01 -0.3582996795065E-01
 0.4786940408761E-01 -0.3714417579169E-01
 0.5101439226108E-01 -0.3845131833938E-01
 0.5423475933353E-01 -0.3975368132215E-01
 0.5752863082201E-01 -0.4105480417384E-01
 0.6089494202095E-01 -0.4235759931077E-01
 0.6433385091277E-01 -0.4366389830633E-01
 0.6784726373138E-01 -0.4497630400439E-01
 0.7143958299498E-01 -0.4629832162951E-01
 0.7511855365014E-01 -0.4763446192525E-01
 0.7889649834397E-01 -0.4899046785252E-01
 0.8279176814943E-01 -0.5037334138111E-01
 0.8683103380374E-01 -0.5178991788690E-01
 0.9105436254716E-01 -0.5323864610457E-01
 0.9552774119307E-01 -0.5468600247943E-01
 0.1003533873538E+00 -0.5608797506313E-01
 0.1056733910421E+00 -0.5743277093045E-01
 0.1116072455199E+00 -0.5877858776913E-01
 0.9142820043323E-03 -0.1872583354267E-02
 0.2030300607972E-02 -0.3815463316089E-02
 0.3210764836701E-02 -0.5758814600127E-02
 0.4433962959198E-02 -0.7655113540168E-02
 0.5717237913309E-02 -0.9496334866982E-02
 0.7076729004755E-02 -0.1128772358338E-01
 0.8522838100367E-02 -0.1303483040752E-01
 0.1006211870990E-01 -0.1474191963451E-01
 0.1169853449935E-01 -0.1641215033961E-01
 0.1343425148878E-01 -0.1804782967704E-01
 0.1527015095097E-01 -0.1965066524268E-01
 0.1720619809165E-01 -0.2122198802530E-01
 0.1924167338544E-01 -0.2276287232726E-01
 0.2137539196031E-01 -0.2427417042134E-01
 0.2360608745299E-01 -0.2575642159552E-01
 0.2593299081784E-01 -0.2720972955317E-01
 0.2835687748490E-01 -0.2863791251472E-01
 0.3087932423211E-01 -0.3004954389740E-01
 0.3350022737650E-01 -0.3145019394771E-01
 0.3621738942294E-01 -0.3284201144583E-01
 0.3902722247870E-01 -0.3422530301993E-01
 0.4192567509778E-01 -0.3559989645281E-01
 0.4490867946702E-01 -0.3696585016932E-01
 0.4797252877174E-01 -0.3832387786011E-01
 0.5111408486117E-01 -0.3967558898675E-01
 0.5433082239054E-01 -0.4102370233293E-01
 0.5762087182984E-01 -0.4237233272601E-01
 0.6098311962631E-01 -0.4372505765412E-01
 0.6441761043447E-01 -0.4508447937952E-01
 0.6792612117898E-01 -0.4645419140781E-01
 0.7151294585087E-01 -0.4783895099145E-01
 0.7518577531274E-01 -0.4924480212290E-01
 0.7895700268128E-01 -0.5067931715719E-01
 0.8284527905378E-01 -0.5215166471216E-01
 0.8687787054487E-01 -0.5367121980469E-01
 0.9109577461878E-01 -0.5523898506226E-01
 0.9556708729216E-01 -0.5682182281513E-01
 0.1004036097023E+00 -0.5836912710522E-01
 0.1057873915742E+00 -0.5984794913575E-01
 0.1119379284300E+00 -0.6130133771280E-01
 0.9972716261204E-03 -0.1985456681697E-02
 0.2175206496197E-02 -0.4038434180789E-02
 0.3375775194614E-02 -0.6062941386315E-02
 0.4601852970101E-02 -0.8016358736248E-02
 0.5883962146459E-02 -0.9904918517124E-02
 0.7241082513126E-02 -0.1173991325301E-01
 0.8684370660321E-02 -0.1352879602597E-01
 0.1022070567918E-01 -0.1527671033227E-01
 0.1185415285263E-01 -0.1698718036227E-01
 0.1358691182627E-01 -0.1866265988948E-01
 0.1541987040455E-01 -0.2030492294574E-01
 0.1735298518284E-01 -0.2191535138687E-01
 0.1938550893933E-01 -0.2349510791884E-01
 0.2151617856063E-01 -0.2504522649697E-01
 0.2374356701022E-01 -0.2656653804450E-01
 0.2606678065998E-01 -0.2805945043519E-01
 0.2848677298406E-01 -0.2952809108292E-01
 0.3100552089156E-01 -0.3098127695726E-01
 0.3362311554237E-01 -0.3242446917365E-01
 0.3633726341020E-01 -0.3385946166890E-01
 0.3914418929669E-01 -0.3528620333194E-01
 0.4203969990347E-01 -0.3670433422577E-01
 0.4501964959686E-01 -0.3811393428350E-01
 0.4808029579762E-01 -0.3951592118080E-01
 0.5121849294312E-01 -0.4091225138551E-01
 0.5443173761511E-01 -0.4230611136226E-01
 0.5771818842619E-01 -0.4370221793866E-01
 0.6107669757970E-01 -0.4510484506736E-01
 0.6450719889602E-01 -0.4651742793914E-01
 0.6801133859415E-01 -0.4794467270300E-01
 0.7159328877184E-01 -0.4939279086965E-01
 0.7526064046197E-01 -0.5086965917005E-01
 0.7902576796508E-01 -0.5238509625752E-01
 0.8290749753037E-01 -0.5395101575557E-01
 0.8693347641223E-01 -0.5558024334188E-01
 0.9114506774118E-01 -0.5727797028738E-01
 0.9561065579606E-01 -0.5901511628505E-01
 0.1004457026440E+00 -0.6074140349499E-01
 0.1058665846469E+00 -0.6240172536058E-01
 0.1122330123098E+00 -0.6400115298903E-01
 0.1103016961551E-02 -0.2125357730884E-02
 0.2343495863777E-02 -0.4300579586879E-02
 0.3553680882210E-02 -0.6398628907892E-02
 0.4777671002702E-02 -0.8400331515307E-02
 0.6056794721925E-02 -0.1033154242382E-01
 0.7410530761536E-02 -0.1220721271542E-01
 0.8850451225029E-02 -0.1403596435936E-01
 0.1038352931199E-01 -0.1582346199247E-01
 0.1201381774233E-01 -0.1757331728298E-01
 0.1374350334049E-01 -0.1928798415242E-01
 0.1557345534901E-01 -0.2096919910314E-01
 0.1750361504460E-01 -0.2261832343095E-01
 0.1953321590540E-01 -0.2423655283109E-01
 0.2166093838556E-01 -0.2582508014118E-01
 0.2388518689843E-01 -0.2738510018955E-01
 0.2620488335135E-01 -0.2891751545391E-01
 0.2862113060827E-01 -0.3042694079461E-01
 0.3113632239948E-01 -0.3192241993239E-01
 0.3375071955708E-01 -0.3340908509296E-01
 0.3646189180290E-01 -0.3488812165855E-01
 0.3926588419414E-01 -0.3635897427943E-01
 0.4215839987363E-01 -0.3782106272554E-01
 0.4513525415657E-01 -0.3927451570132E-01
 0.4819269625740E-01 -0.4072050426010E-01
 0.5132758895617E-01 -0.4216138395572E-01
 0.5453746711858E-01 -0.4360084556942E-01
 0.5782054324197E-01 -0.4504421864133E-01
 0.6117565673272E-01 -0.4649647612182E-01
 0.6460264478245E-01 -0.4796192531794E-01
 0.6810304142785E-01 -0.4944649846768E-01
 0.7168090744767E-01 -0.5095806292808E-01
 0.7534371449835E-01 -0.5250662953703E-01
 0.7910375263283E-01 -0.5410469424793E-01
 0.8297994267968E-01 -0.5576747394881E-01
 0.8700024629545E-01 -0.5751207606198E-01
 0.9120604652282E-01 -0.5934944722159E-01
 0.9566507892799E-01 -0.6125822735594E-01
 0.1004903655765E+00 -0.6320073590401E-01
 0.1059129884928E+00 -0.6511385547753E-01
 0.1124674447058E+00 -0.6693305490071E-01
 0.1243041571316E-02 -0.2312089577043E-02
 0.2536398190571E-02 -0.4616449671958E-02
 0.3741198612573E-02 -0.6767485403337E-02
 0.4960024928987E-02 -0.8807012813700E-02
 0.6234911392378E-02 -0.1077625970629E-01
 0.7584503848472E-02 -0.1268943694334E-01
 0.9020733757257E-02 -0.1455623632992E-01
 0.1055035105150E-01 -0.1638211685229E-01
 0.1217736496060E-01 -0.1817056077996E-01
 0.1390390313094E-01 -0.1992384648623E-01
 0.1573080507490E-01 -0.2164357010570E-01
 0.1765799375624E-01 -0.2333099581975E-01
 0.1968469452078E-01 -0.2498728577191E-01
 0.2180957043580E-01 -0.2661373040035E-01
 0.2403088573713E-01 -0.2821193548514E-01
 0.2634732914108E-01 -0.2978359697746E-01
 0.2876009308938E-01 -0.3133417689144E-01
 0.3127195280805E-01 -0.3287293006819E-01
 0.3388327390424E-01 -0.3440426421775E-01
 0.3659145932516E-01 -0.3592837717222E-01
 0.3939242122546E-01 -0.3744405410908E-01
 0.4228182243417E-01 -0.3895049384941E-01
 0.4525548766389E-01 -0.4044792778267E-01
 0.4830968853169E-01 -0.4193784661209E-01
 0.5144130892237E-01 -0.4342307227498E-01
 0.5464793058342E-01 -0.4490784556109E-01
 0.5792784296642E-01 -0.4639809653710E-01
 0.6127990148024E-01 -0.4789944991470E-01
 0.6470387814306E-01 -0.4941709202448E-01
 0.6820123789117E-01 -0.5095828936500E-01
 0.7177596791825E-01 -0.5253276013933E-01
 0.7543542846071E-01 -0.5415294202517E-01
 0.7919179977847E-01 -0.5583443228700E-01
 0.8306400832337E-01 -0.5759633315449E-01
 0.8708046540808E-01 -0.5946051548949E-01
 0.9128247220891E-01 -0.6144506570182E-01
 0.9573701006452E-01 -0.6353872940871E-01
 0.1005539602225E+00 -0.6572937896593E-01
 0.1059445073964E+00 -0.6799220209675E-01
 0.1126059263013E+00 -0.7017973029051E-01
 0.1436982739458E-02 -0.2591920544166E-02
 0.2747604041216E-02 -0.4999536278244E-02
 0.3933502596820E-02 -0.7165171081919E-02
 0.5148052705580E-02 -0.9237001423765E-02
 0.6417184194245E-02 -0.1123827030767E-01
 0.7762515865141E-02 -0.1318626244022E-01
 0.9194862814617E-02 -0.1508934901304E-01
 0.1072095277132E-01 -0.1695253992347E-01
 0.1234464155705E-01 -0.1877886073016E-01
 0.1406799860087E-01 -0.2057026485656E-01
 0.1589182476533E-01 -0.2232810246682E-01
 0.1781602855823E-01 -0.2405346348027E-01
 0.1983983537816E-01 -0.2574740734521E-01
 0.2196193436027E-01 -0.2741121290251E-01
 0.2418053700036E-01 -0.2904682954055E-01
 0.2649411956222E-01 -0.3065718095107E-01
 0.2890385637945E-01 -0.3224933592033E-01
 0.3141272764919E-01 -0.3383273655684E-01
 0.3402107929596E-01 -0.3541030180037E-01
 0.3672617682565E-01 -0.3698070717656E-01
 0.3952391190673E-01 -0.3854196338944E-01
 0.4240999456814E-01 -0.4009310265549E-01
 0.4538031286930E-01 -0.4163454821170E-01
 0.4843119249754E-01 -0.4316819209033E-01
 0.5155954968344E-01 -0.4469740704926E-01
 0.5476300672238E-01 -0.4622705921641E-01
 0.5803993618134E-01 -0.4776363678933E-01
 0.6138924788717E-01 -0.4931327402689E-01
 0.6481071139346E-01 -0.5088200517537E-01
 0.6830579398393E-01 -0.5247855193088E-01
 0.7187846982869E-01 -0.5411466248688E-01
 0.7553603517628E-01 -0.5580545886305E-01
 0.7929056038852E-01 -0.5757006666646E-01
 0.8316096233801E-01 -0.5943202729446E-01
 0.8717591793793E-01 -0.6141846893873E-01
 0.9137805748482E-01 -0.6355356929665E-01
 0.9583116017679E-01 -0.6584136611061E-01
 0.1006535364657E+00 -0.6829048397349E-01
 0.1060103726552E+00 -0.7100032719554E-01
 0.1126190479189E+00 -0.7384501083899E-01
 0.1462216221055E+00  0.2035599586178E-01
 0.1897902578035E+00  0.1825198007926E-01
 0.2377304322497E+00  0.1540559949561E-01
 0.2895219537294E+00  0.1210190413350E-01
 0.3446688801860E+00  0.8476033704000E-02
 0.4027215780305E+00  0.4584493560455E-02
 0.4632770191400E+00  0.4635753510055E-03
 0.5259723778777E+00 -0.3822890314073E-02
 0.5904800629791E+00 -0.8149262951462E-02
 0.6565041570963E+00 -0.1231492454107E-01
 0.7237576499236E+00 -0.1606209601895E-01
 0.7919217182992E+00 -0.1911895906112E-01
 0.8606130109204E+00 -0.2124095416255E-01
 0.9293727096618E+00 -0.2223364995550E-01
 0.9976844665154E+00 -0.2195784991790E-01
 0.1064999068651E+01 -0.2032399208084E-01
 0.1130742205126E+01 -0.1728439720691E-01
 0.1194314188450E+01 -0.1282208622844E-01
 0.1255038793229E+01 -0.6972812771926E-02
 0.1468716668523E+00  0.1871536426279E-01
 0.1910039335490E+00  0.1642409395105E-01
 0.2393586229464E+00  0.1335709867095E-01
 0.2914812132632E+00  0.9814231369415E-02
 0.3469160988717E+00  0.5957795199726E-02
 0.4052328039889E+00  0.1872530634321E-02
 0.4660321237446E+00 -0.2381386182125E-02
 0.5289446495202E+00 -0.6724757051092E-02
 0.5936306150912E+00 -0.1102796045699E-01
 0.6597804385895E+00 -0.1509868003441E-01
 0.7270965687723E+00 -0.1869648992635E-01
 0.7952550075891E+00 -0.2156858551332E-01
 0.8638711441123E+00 -0.2348496245779E-01
 0.9324879832276E+00 -0.2425907168286E-01
 0.1000592511944E+01 -0.2375355875302E-01
 0.1067637900555E+01 -0.2187611039940E-01
 0.1133052361601E+01 -0.1857353470215E-01
 0.1196234925962E+01 -0.1383573096259E-01
 0.1256586177390E+01 -0.7816437257696E-02
 0.1475324105686E+00  0.1711172335978E-01
 0.1922353703675E+00  0.1466254853031E-01
 0.2410092013915E+00  0.1141017953919E-01
 0.2934602799686E+00  0.7666705589375E-02
 0.3491711584714E+00  0.3616160373484E-02
 0.4077309828414E+00 -0.6322331106932E-03
 0.4687459251086E+00 -0.4997034016161E-02
 0.5318422378981E+00 -0.9385058894452E-02
 0.5966705367562E+00 -0.1366286034326E-01
 0.6629102658052E+00 -0.1764516450188E-01
 0.7302554373466E+00 -0.2110632259508E-01
 0.7983778189446E+00 -0.2380987200193E-01
 0.8668916722729E+00 -0.2553857645133E-01
 0.9353414662724E+00 -0.2611307199455E-01
 0.1003216852473E+01 -0.2539804315103E-01
 0.1069973638731E+01 -0.2330054010085E-01
 0.1135042973017E+01 -0.1977044424086E-01
 0.1197845295396E+01 -0.1483192685186E-01
 0.1257839229417E+01 -0.8636256455477E-02
 0.1481973630970E+00  0.1554131741343E-01
 0.1934733880517E+00  0.1295931548414E-01
 0.2426682441476E+00  0.9554163282985E-02
 0.2954439003851E+00  0.5645169780797E-02
 0.3514190716005E+00  0.1434032948666E-02
 0.4102024425492E+00 -0.2949273810663E-02
 0.4714068038604E+00 -0.7404591016226E-02
 0.5346560327961E+00 -0.1182615002184E-01
 0.5995934563295E+00 -0.1607680827949E-01
 0.6658899284719E+00 -0.1997712065111E-01
 0.7332328626360E+00 -0.2331403418955E-01
 0.8012907079962E+00 -0.2586516392472E-01
 0.8696768654248E+00 -0.2742445727208E-01
 0.9379370479625E+00 -0.2781913102910E-01
 0.1005563455490E+01 -0.2691667673275E-01
 0.1072015140686E+01 -0.2462659252709E-01
 0.1136732287628E+01 -0.2090982379733E-01
 0.1199159042597E+01 -0.1580229824923E-01
 0.1258792253977E+01 -0.9435879472295E-02
 0.1488612546904E+00  0.1400096451345E-01
 0.1947082527453E+00  0.1130809439635E-01
 0.2443232566513E+00  0.7779246145724E-02
 0.2974184386850E+00  0.3736602883576E-02
 0.3536463763407E+00 -0.6046226227357E-03
 0.4126349493292E+00 -0.5097078566746E-02
 0.4740044661415E+00 -0.9624379535061E-02
 0.5373781225847E+00 -0.1406953876973E-01
 0.6023940343038E+00 -0.1829186628456E-01
 0.6687165874149E+00 -0.2211667545187E-01
 0.7360282440397E+00 -0.2534161206592E-01
 0.8039950273259E+00 -0.2775641211599E-01
 0.8722298251646E+00 -0.2916483724719E-01
 0.9402796387010E+00 -0.2940032599073E-01
 0.1007639454750E+01 -0.2833415152508E-01
 0.1073773507323E+01 -0.2588095118689E-01
 0.1138133526085E+01 -0.2200926859506E-01
 0.1200184436284E+01 -0.1675663699149E-01
 0.1259448287518E+01 -0.1023283363805E-01
 0.1495196899064E+00  0.1248793388308E-01
 0.1959315535391E+00  0.9703392797527E-02
 0.2459632215170E+00  0.6076648301304E-02
 0.2993717644522E+00  0.1928931515818E-02
 0.3558410986849E+00 -0.2514851619931E-02
 0.4150176626231E+00 -0.7093191213388E-02
 0.4765298993243E+00 -0.1167583141023E-01
 0.5400017424971E+00 -0.1613590090294E-01
 0.6050679296337E+00 -0.2032934702531E-01
 0.6713882701121E+00 -0.2408531742762E-01
 0.7386417688114E+00 -0.2721050296427E-01
 0.8064928932520E+00 -0.2950505881902E-01
 0.8745544645539E+00 -0.3078141474176E-01
 0.9423750324844E+00 -0.3087899559962E-01
 0.1009453054832E+01 -0.2967363875698E-01
 0.1075259311584E+01 -0.2708494639112E-01
 0.1139257427330E+01 -0.2308566264775E-01
 0.1200929562611E+01 -0.1771008031063E-01
 0.1259814692607E+01 -0.1104869190020E-01
 0.1501689759661E+00  0.1099973361713E-01
 0.1971360528944E+00  0.8140302090770E-02
 0.2475785080507E+00  0.4438380387179E-02
 0.3012931888424E+00  0.2109732484960E-03
 0.3579926740748E+00 -0.4310791072646E-02
 0.4173410703930E+00 -0.8954247570052E-02
 0.4789753031667E+00 -0.1357750418201E-01
 0.5425212071651E+00 -0.1804508773942E-01
 0.6076117410030E+00 -0.2220980697425E-01
 0.6739038212992E+00 -0.2590385595233E-01
 0.7410743580283E+00 -0.2894153021965E-01
 0.8087871218457E+00 -0.3113192842757E-01
 0.8766553988972E+00 -0.3229516488225E-01
 0.9442297421863E+00 -0.3227639916132E-01
 0.1011012760433E+01 -0.3095603391474E-01
 0.1076482466760E+01 -0.2825769988991E-01
 0.1140113827344E+01 -0.2415590244224E-01
 0.1201403224933E+01 -0.1868003445959E-01
 0.1259901361846E+01 -0.1190504915621E-01
 0.1508060101770E+00  0.9534037333114E-02
 0.1983155607186E+00  0.6614333991633E-02
 0.2491607794785E+00  0.2857098551437E-02
 0.3031733999392E+00 -0.1427676680437E-02
 0.3600918995406E+00 -0.6005738111736E-02
 0.4195969491447E+00 -0.1069602942930E-01
 0.4813340590144E+00 -0.1534711551128E-01
 0.5449318869783E+00 -0.1981614773957E-01
 0.6100229926011E+00 -0.2395305038285E-01
 0.6762628948333E+00 -0.2759239853317E-01
 0.7433276564265E+00 -0.3055484141607E-01
 0.8108811988594E+00 -0.3265713314606E-01
 0.8785378736126E+00 -0.3372618790518E-01
 0.9458507570912E+00 -0.3361247141589E-01
 0.1012327139431E+01 -0.3220054466450E-01
 0.1077452510442E+01 -0.2941705981616E-01
 0.1140712373887E+01 -0.2523686919184E-01
 0.1201615040676E+01 -0.1968432277961E-01
 0.1259719711743E+01 -0.1282242774224E-01
 0.1514281985762E+00  0.8088639917203E-02
 0.1994648220080E+00  0.5121327325314E-02
 0.2507028887293E+00  0.1325994660914E-02
 0.3050043771676E+00 -0.2996734548726E-02
 0.3621308611284E+00 -0.7612214216606E-02
 0.4217782987206E+00 -0.1233350530670E-01
 0.4836006685707E+00 -0.1700156679193E-01
 0.5472301502444E+00 -0.2146733256781E-01
 0.6123000788973E+00 -0.2557811589612E-01
 0.6784658983208E+00 -0.2917031407281E-01
 0.7454039682481E+00 -0.3206984338236E-01
 0.8127791930911E+00 -0.3409997722481E-01
 0.8802076179758E+00 -0.3509358594897E-01
 0.9472453532623E+00 -0.3490589108139E-01
 0.1013404755049E+01 -0.3342505612006E-01
 0.1078178809868E+01 -0.3057994706109E-01
 0.1141062792973E+01 -0.2634507043890E-01
 0.1201575295735E+01 -0.2074029740456E-01
 0.1259282078105E+01 -0.1381981967720E-01
 0.1520333957768E+00  0.6661430272806E-02
 0.2005794258235E+00  0.3657384008193E-02
 0.2521987875293E+00 -0.1612866041818E-03
 0.3067793147925E+00 -0.4505308016401E-02
 0.3641028724437E+00 -0.9142029239063E-02
 0.4238792917676E+00 -0.1388087720086E-01
 0.4857707108263E+00 -0.1855697348974E-01
 0.5494133252186E+00 -0.2301611149740E-01
 0.6144422298565E+00 -0.2710327340741E-01
 0.6805139571793E+00 -0.3065620980127E-01
 0.7473062118483E+00 -0.3350515848787E-01
 0.8144856865452E+00 -0.3547889829535E-01
 0.8816707450658E+00 -0.3641545001316E-01
 0.9484210072875E+00 -0.3617419670101E-01
 0.1014254182285E+01 -0.3464635326422E-01
 0.1078670694293E+01 -0.3176243114006E-01
 0.1141174971066E+01 -0.2749635886900E-01
 0.1201294763596E+01 -0.2186437993442E-01
 0.1258601323558E+01 -0.1491452336717E-01
 0.1526198562734E+00  0.5250373558255E-02
 0.2016557249855E+00  0.2218825638067E-02
 0.2536434384506E+00 -0.1610709003392E-02
 0.3084925405922E+00 -0.5961959778867E-02
 0.3660024034904E+00 -0.1060633595388E-01
 0.4258952108245E+00 -0.1535162091011E-01
 0.4878407843311E+00 -0.2002869014790E-01
 0.5514796450074E+00 -0.2447918075591E-01
 0.6164494560931E+00 -0.2854601712976E-01
 0.6824088561128E+00 -0.3206790802740E-01
 0.7490378506371E+00 -0.3487858871806E-01
 0.8160056894265E+00 -0.3681143907217E-01
 0.8829336606869E+00 -0.3770887906486E-01
 0.9493853358128E+00 -0.3743387799301E-01
 0.1014884014956E+01 -0.3588022299458E-01
 0.1078937503511E+01 -0.3297970880357E-01
 0.1141058938347E+01 -0.2870572699889E-01
 0.1200784525029E+01 -0.2307182460359E-01
 0.1257690559230E+01 -0.1612209206550E-01
 0.1531861951174E+00  0.3853498304977E-02
 0.2026907685437E+00  0.8021610981558E-03
 0.2550327380709E+00 -0.3027893484841E-02
 0.3101394428714E+00 -0.7374762382429E-02
 0.3678250164184E+00 -0.1201568099216E-01
 0.4278223923400E+00 -0.1675852705344E-01
 0.4898084570249E+00 -0.2143133885345E-01
 0.5534282005000E+00 -0.2587247856219E-01
 0.6183225022106E+00 -0.2992306722273E-01
 0.6841529891625E+00 -0.3342243624968E-01
 0.7506028357754E+00 -0.3620710229966E-01
 0.8173445760769E+00 -0.3811424834054E-01
 0.8840030046980E+00 -0.3899001600310E-01
 0.9501460641042E+00 -0.3870044276932E-01
 0.1015302870619E+01 -0.3714150157753E-01
 0.1078988597441E+01 -0.3424606482197E-01
 0.1140724816911E+01 -0.2998717903328E-01
 0.1200055810699E+01 -0.2437660354086E-01
 0.1256562913845E+01 -0.1745632504138E-01
 0.1537313545460E+00  0.2468886913573E-02
 0.2036822424902E+00 -0.5959378996833E-03
 0.2563634466758E+00 -0.4418156911026E-02
 0.3117164007060E+00 -0.8751344262465E-02
 0.3695673015719E+00 -0.1338005005326E-01
 0.4296581690510E+00 -0.1811373940698E-01
 0.4916722131991E+00 -0.2277883739945E-01
 0.5552588895613E+00 -0.2721120195062E-01
 0.6200627958598E+00 -0.3125037589576E-01
 0.6857493061433E+00 -0.3473602602330E-01
 0.7520055487229E+00 -0.3750683362983E-01
 0.8185080270302E+00 -0.3940309422840E-01
 0.8848856023910E+00 -0.4027408170351E-01
 0.9507109975148E+00 -0.3998845998637E-01
 0.1015519379561E+01 -0.3844409271511E-01
 0.1078833335898E+01 -0.3557483507142E-01
 0.1140182751592E+01 -0.3135365339242E-01
 0.1199119859694E+01 -0.2579135079106E-01
 0.1255231342524E+01 -0.1892929564737E-01
 0.1542545752132E+00  0.1094668246995E-02
 0.2046284176366E+00 -0.1978656132631E-02
 0.2576331246760E+00 -0.5786543947330E-02
 0.3132207188513E+00 -0.1009892953268E-01
 0.3712268160384E+00 -0.1470890904597E-01
 0.4314008132921E+00 -0.1942879180259E-01
 0.4934314004671E+00 -0.2408442845830E-01
 0.5569723658199E+00 -0.2850982694137E-01
 0.6216723965881E+00 -0.3254313953500E-01
 0.6872012602687E+00 -0.3602412078804E-01
 0.7532507480246E+00 -0.3879309351363E-01
 0.8195019787055E+00 -0.4069288389268E-01
 0.8855884234516E+00 -0.4157540504174E-01
 0.9510879935766E+00 -0.4131158859007E-01
 0.1015542163387E+01 -0.3980097484743E-01
 0.1078481043449E+01 -0.3697838103137E-01
 0.1139442836255E+01 -0.3281698083311E-01
 0.1197987795006E+01 -0.2732734720593E-01
 0.1253708471350E+01 -0.2055140532605E-01
 0.1547553710659E+00 -0.2709884275808E-03
 0.2055281036225E+00 -0.3349050776744E-02
 0.2588400753431E+00 -0.7137854231110E-02
 0.3146505676662E+00 -0.1142437332670E-01
 0.3728020255514E+00 -0.1601124237676E-01
 0.4330494823214E+00 -0.2071464437158E-01
 0.4950861779636E+00 -0.2536071037199E-01
 0.5585699884817E+00 -0.2978213254561E-01
 0.6231539461931E+00 -0.3381581682732E-01
 0.6885127586650E+00 -0.3730139128657E-01
 0.7543435210687E+00 -0.4008038654043E-01
 0.8203325794391E+00 -0.4199768634803E-01
 0.8861185457152E+00 -0.4290744952682E-01
 0.9512849336047E+00 -0.4268259924836E-01
 0.1015379807214E+01 -0.4122420692348E-01
 0.1077940967403E+01 -0.3846807732610E-01
 0.1138515041901E+01 -0.3438786957031E-01
 0.1196670516254E+01 -0.2899453457678E-01
 0.1252006472405E+01 -0.2233145580715E-01
 0.1552335072786E+00 -0.1629878700921E-02
 0.2063806084332E+00 -0.4710065215551E-02
 0.2599832937467E+00 -0.8476666560908E-02
 0.3160049286049E+00 -0.1273419439485E-01
 0.3742922508396E+00 -0.1729558978606E-01
 0.4346041671087E+00 -0.2198172023048E-01
 0.4966374674477E+00 -0.2661967044369E-01
 0.5600537750177E+00 -0.3104122923717E-01
 0.6245106224804E+00 -0.3508215297335E-01
 0.6896881173326E+00 -0.3858175779094E-01
 0.7552892413896E+00 -0.4138243424368E-01
 0.8210061511342E+00 -0.4333075803817E-01
 0.8864831225160E+00 -0.4428283918889E-01
 0.9513096940431E+00 -0.4411339490763E-01
 0.1015040828391E+01 -0.4272493847527E-01
 0.1077222233261E+01 -0.4005431356666E-01
 0.1137409149010E+01 -0.3607591320919E-01
 0.1195178607443E+01 -0.3080155325891E-01
 0.1250136963003E+01 -0.2427673679977E-01
 0.1556889805690E+00 -0.2983767650078E-02
 0.2071857022520E+00 -0.6064541212432E-02
 0.2610624205323E+00 -0.9807360713746E-02
 0.3172835438495E+00 -0.1403460539966E-01
 0.3756976168784E+00 -0.1857008178730E-01
 0.4360656428246E+00 -0.2323994220167E-01
 0.4980869052908E+00 -0.2787271985395E-01
 0.5614263544431E+00 -0.3229959047939E-01
 0.6257460938390E+00 -0.3635520789994E-01
 0.6907320175214E+00 -0.3987841635990E-01
 0.7560935279078E+00 -0.4271220105653E-01
 0.8215291526137E+00 -0.4470456898433E-01
 0.8866893503748E+00 -0.4571338324443E-01
 0.9511701162657E+00 -0.4561503084419E-01
 0.1014533643050E+01 -0.4431342355237E-01
 0.1076333800670E+01 -0.4174650655838E-01
 0.1136134687167E+01 -0.3788961383724E-01
 0.1193522261367E+01 -0.3275579431063E-01
 0.1248110929339E+01 -0.2639312202214E-01
 0.1561220017422E+00 -0.4334394176057E-02
 0.2079435855843E+00 -0.7415230247327E-02
 0.2620777008775E+00 -0.1113413806704E-01
 0.3184868709628E+00 -0.1533154223870E-01
 0.3770190064420E+00 -0.1984247498584E-01
 0.4374354228485E+00 -0.2449877067808E-01
 0.4994367974524E+00 -0.2913073108436E-01
 0.5626909234364E+00 -0.3356908790928E-01
 0.6268644768423E+00 -0.3764738876790E-01
 0.6916494654495E+00 -0.4120386925573E-01
 0.7567622076091E+00 -0.4408192346723E-01
 0.8219081458914E+00 -0.4613083080932E-01
 0.8867444384300E+00 -0.4721010201590E-01
 0.9508739769170E+00 -0.4719773725537E-01
 0.1013866533193E+01 -0.4599904073277E-01
 0.1075284422333E+01 -0.4355312302499E-01
 0.1134700882806E+01 -0.3983641844909E-01
 0.1191711218843E+01 -0.3486346412174E-01
 0.1245938670391E+01 -0.2868517319788E-01
 0.1565329802248E+00 -0.5683475198397E-02
 0.2086548612632E+00 -0.8764804409096E-02
 0.2630299482621E+00 -0.1246104161880E-01
 0.3196160423134E+00 -0.1663069303117E-01
 0.3782580178183E+00 -0.2112018778389E-01
 0.4387157161956E+00 -0.2576724288675E-01
 0.5006900773102E+00 -0.3040407778524E-01
 0.5638512050422E+00 -0.3486102977639E-01
 0.6278702964064E+00 -0.3897048608254E-01
 0.6924457546295E+00 -0.4256995872353E-01
 0.7573012807074E+00 -0.4550314180457E-01
 0.8221497644431E+00 -0.4762052661652E-01
 0.8866555791456E+00 -0.4878325463254E-01
 0.9504289591143E+00 -0.4887094492016E-01
 0.1013047615365E+01 -0.4779031882906E-01
 0.1074082607081E+01 -0.4548171096228E-01
 0.1133116615667E+01 -0.4192276527767E-01
 0.1189754722342E+01 -0.3712965762817E-01
 0.1243629760313E+01 -0.3115624955817E-01
 0.1569225104711E+00 -0.7032709847328E-02
 0.2093205101592E+00 -0.1011586719641E-01
 0.2639205129405E+00 -0.1379197595850E-01
 0.3206728292984E+00 -0.1793752739676E-01
 0.3794169268326E+00 -0.2241033702546E-01
 0.4399093885843E+00 -0.2705401391175E-01
 0.5018502665585E+00 -0.3170267719251E-01
 0.5649114100905E+00 -0.3618620248694E-01
 0.6287684484932E+00 -0.4033571308315E-01
 0.6931264306128E+00 -0.4398790380432E-01
 0.7577168879924E+00 -0.4698673454204E-01
 0.8222606832630E+00 -0.4918394297255E-01
 0.8864299204145E+00 -0.5044236901029E-01
 0.9498426251060E+00 -0.5064331424252E-01
 0.1012084811854E+01 -0.4969496786292E-01
 0.1072736587945E+01 -0.4753893808094E-01
 0.1131390383972E+01 -0.4415413789885E-01
 0.1187661483073E+01 -0.3955843665614E-01
 0.1241193028402E+01 -0.3380862045518E-01
 0.1572913601858E+00 -0.8383783770108E-02
 0.2099418705153E+00 -0.1147096452089E-01
 0.2647512550934E+00 -0.1513072765886E-01
 0.3216596114219E+00 -0.1925732657438E-01
 0.3804986533177E+00 -0.2371977607188E-01
 0.4410199273078E+00 -0.2836739980068E-01
 0.5029214393172E+00 -0.3303603519777E-01
 0.5658762013958E+00 -0.3755491515350E-01
 0.6295641653035E+00 -0.4175374819307E-01
 0.6936972579874E+00 -0.4546833998461E-01
 0.7580152801614E+00 -0.4854295508218E-01
 0.8222475906065E+00 -0.5083070415306E-01
 0.8860745392114E+00 -0.5219627432022E-01
 0.9491223908425E+00 -0.5252276760961E-01
 0.1010985825039E+01 -0.5171991459240E-01
 0.1071254295689E+01 -0.4973063588179E-01
 0.1129530278390E+01 -0.4653512488880E-01
 0.1185439659832E+01 -0.4215291256769E-01
 0.1238636555308E+01 -0.3664357277378E-01
 0.1576404603606E+00 -0.9738373662872E-02
 0.2105206209248E+00 -0.1283259618819E-01
 0.2655245227204E+00 -0.1648098653521E-01
 0.3225793503533E+00 -0.2059521491217E-01
 0.3815067321874E+00 -0.2505513480101E-01
 0.4420514100756E+00 -0.2971542310795E-01
 0.5039081895815E+00 -0.3441329424082E-01
 0.5667506607976E+00 -0.3897704715858E-01
 0.6302629829381E+00 -0.4323478046152E-01
 0.6941641895339E+00 -0.4702136164643E-01
 0.7582027890197E+00 -0.5018147110000E-01
 0.8221171613758E+00 -0.5256980883261E-01
 0.8855964168974E+00 -0.5405313608019E-01
 0.9482755027183E+00 -0.5451652490049E-01
 0.1009758115181E+01 -0.5387134190902E-01
 0.1069643337912E+01 -0.5206184808053E-01
 0.1127543964147E+01 -0.4906948353491E-01
 0.1183096849117E+01 -0.4491533077831E-01
 0.1235967678222E+01 -0.3966151730434E-01
 0.1579708971663E+00 -0.1109815212884E-01
 0.2110587670399E+00 -0.1420322810917E-01
 0.2662431343987E+00 -0.1784636818578E-01
 0.3234355690945E+00 -0.2195619322226E-01
 0.3824452892306E+00 -0.2642286198553E-01
 0.4430084779026E+00 -0.3110586119480E-01
 0.5048156020377E+00 -0.3584328416897E-01
 0.5675402590076E+00 -0.4046209872843E-01
 0.6308707114346E+00 -0.4478855792115E-01
 0.6945333374098E+00 -0.4865656725746E-01
 0.7582858004259E+00 -0.5191140644842E-01
 0.8218760320817E+00 -0.5440966924314E-01
 0.8850024162083E+00 -0.5602049376907E-01
 0.9473090165990E+00 -0.5663114171650E-01
 0.1008408881795E+01 -0.5615473118668E-01
 0.1067910983665E+01 -0.5453688198950E-01
 0.1125438671068E+01 -0.5176020587582E-01
 0.1180640084344E+01 -0.4784715542997E-01
 0.1233193007089E+01 -0.4286209147275E-01
 0.1582839057950E+00 -0.1246479296961E-01
 0.2115586321958E+00 -0.1558530550596E-01
 0.2669103671238E+00 -0.1923043824625E-01
 0.3242323364554E+00 -0.2334517451756E-01
 0.3833190217746E+00 -0.2782927052920E-01
 0.4438963121377E+00 -0.3254629762892E-01
 0.5056492262835E+00 -0.3733457623259E-01
 0.5682508282557E+00 -0.4201924454011E-01
 0.6313934071419E+00 -0.4642443881157E-01
 0.6948109463164E+00 -0.5038310725662E-01
 0.7582707289439E+00 -0.5374138561952E-01
 0.8215307773671E+00 -0.5635815278117E-01
 0.8842992599360E+00 -0.5810530078736E-01
 0.9462297791576E+00 -0.5887254981865E-01
 0.1006945048554E+01 -0.5857490660168E-01
 0.1066064153459E+01 -0.5715936145266E-01
 0.1123221190917E+01 -0.5460958537608E-01
 0.1178075844073E+01 -0.5094915353323E-01
 0.1230318447388E+01 -0.4624425942412E-01
 0.1585808663964E+00 -0.1383997703760E-01
 0.2120228522271E+00 -0.1698126742750E-01
 0.2675299495438E+00 -0.2063673886586E-01
 0.3249742570976E+00 -0.2476702273327E-01
 0.3841331843899E+00 -0.2928058612610E-01
 0.4447206157207E+00 -0.3404417710822E-01
 0.5064150544781E+00 -0.3889554046410E-01
 0.5688885377315E+00 -0.4365739046445E-01
 0.6318373474213E+00 -0.4815144570349E-01
 0.6950033686338E+00 -0.5220973468404E-01
 0.7581639941805E+00 -0.5567958086449E-01
 0.8210878880380E+00 -0.5842262617500E-01
 0.8834935111794E+00 -0.6031396674366E-01
 0.9450444112928E+00 -0.6124609943528E-01
 0.1005373251412E+01 -0.6113608066122E-01
 0.1064109414150E+01 -0.5993228015597E-01
 0.1120897881496E+01 -0.5761928317979E-01
 0.1175410067830E+01 -0.5422147776517E-01
 0.1227349232720E+01 -0.4980641561036E-01
 0.1588633023173E+00 -0.1522539879539E-01
 0.2124543748573E+00 -0.1839356293631E-01
 0.2681060609812E+00 -0.2206881798094E-01
 0.3256664674383E+00 -0.2622659510291E-01
 0.3848935797906E+00 -0.3078299995259E-01
 0.4454875986993E+00 -0.3560686434606E-01
 0.5071195023855E+00 -0.4053440666807E-01
 0.5694598717587E+00 -0.4538523349645E-01
 0.6322090076293E+00 -0.4997832248198E-01
 0.6951170415143E+00 -0.5414485851604E-01
 0.7579719988039E+00 -0.5773376199472E-01
 0.8205537505425E+00 -0.6061000226786E-01
 0.8825915549814E+00 -0.6265240200975E-01
 0.9437592932959E+00 -0.6375660305226E-01
 0.1003699829484E+01 -0.6384190005469E-01
 0.1062052978218E+01 -0.6285805405479E-01
 0.1118474676927E+01 -0.6079039248012E-01
 0.1172648179791E+01 -0.5766374782725E-01
 0.1224289964997E+01 -0.5354648324472E-01
 0.1591328809287E+00 -0.1662277376665E-01
 0.2128564641661E+00 -0.1982466942445E-01
 0.2686433367480E+00 -0.2353026209831E-01
 0.3263146377678E+00 -0.2772878899720E-01
 0.3856065550899E+00 -0.3234272611165E-01
 0.4462039680172E+00 -0.3724170742510E-01
 0.5077693937387E+00 -0.4225932928095E-01
 0.5699716106263E+00 -0.4721132492331E-01
 0.6325150403501E+00 -0.5191359412076E-01
 0.6951584659604E+00 -0.5619659963408E-01
 0.7577011082959E+00 -0.5991134889131E-01
 0.8199346278729E+00 -0.6292678955897E-01
 0.8815995811225E+00 -0.6512606465997E-01
 0.9423805512691E+00 -0.6640838048645E-01
 0.1001930817982E+01 -0.6669549107134E-01
 0.1059900706718E+01 -0.6593857161209E-01
 0.1115957103656E+01 -0.6412349973350E-01
 0.1169795119684E+01 -0.6127512769761E-01
 0.1221144659720E+01 -0.5746200554538E-01
 0.1593914174598E+00 -0.1803384709596E-01
 0.2132327108526E+00 -0.2127711360775E-01
 0.2691468804577E+00 -0.2502473341848E-01
 0.3269249810715E+00 -0.2927859411741E-01
 0.3862790036575E+00 -0.3396606455215E-01
 0.4468769216440E+00 -0.3895610603334E-01
 0.5083719479277E+00 -0.4407845617209E-01
 0.5704308141058E+00 -0.4914413649993E-01
 0.6327622570166E+00 -0.5396562880131E-01
 0.6951341881826E+00 -0.5837284889241E-01
 0.7573576328599E+00 -0.6221946624983E-01
 0.8192366423166E+00 -0.6537914418135E-01
 0.8805235683037E+00 -0.6774000950957E-01
 0.9409140447210E+00 -0.6920530460330E-01
 0.1000071942968E+01 -0.6969950310614E-01
 0.1057658115840E+01 -0.6917523945245E-01
 0.1113350302494E+01 -0.6761873964636E-01
 0.1166855381144E+01 -0.6505439565596E-01
 0.1217916796603E+01 -0.6155022792504E-01
 0.1596408822621E+00 -0.1946040363381E-01
 0.2135870489547E+00 -0.2275349618956E-01
 0.2696222838375E+00 -0.2655601276405E-01
 0.3275042686902E+00 -0.3088115168404E-01
 0.3869183723412E+00 -0.3565947101080E-01
 0.4475141465423E+00 -0.4075758591835E-01
 0.5089347703483E+00 -0.4600000253086E-01
 0.5708448069072E+00 -0.5119213067273E-01
 0.6329576111267E+00 -0.5614270342485E-01
 0.6950507824057E+00 -0.6068132850411E-01
 0.7569478105487E+00 -0.6466500221732E-01
 0.8184657587836E+00 -0.6797292670286E-01
 0.8793692677243E+00 -0.7049894242951E-01
 0.9393653522837E+00 -0.7215085124382E-01
 0.9981286138277E+00 -0.7285615346251E-01
 0.1055330382462E+01 -0.7256902583262E-01
 0.1110659052060E+01 -0.7127584628952E-01
 0.1163833052743E+01 -0.6900001152125E-01
 0.1214609369926E+01 -0.6580817848636E-01
 0.1598834123946E+00 -0.2090427984468E-01
 0.2139237804184E+00 -0.2425652098953E-01
 0.2700756553338E+00 -0.2812804939737E-01
 0.3280598537102E+00 -0.3254182153938E-01
 0.3875326745612E+00 -0.3742963435629E-01
 0.4481238207788E+00 -0.4265387925017E-01
 0.5094658457136E+00 -0.4803232885893E-01
 0.5712211665341E+00 -0.5336383325217E-01
 0.6331081838283E+00 -0.5845307030663E-01
 0.6949148363939E+00 -0.6312965395240E-01
 0.7564777935422E+00 -0.6725466775598E-01
 0.8176277712617E+00 -0.7071376061901E-01
 0.8781421888608E+00 -0.7340727705232E-01
 0.9377397581701E+00 -0.7524815015007E-01
 0.9961059159009E+00 -0.7616726853570E-01
 0.1052922351803E+01 -0.7612049392554E-01
 0.1107887798761E+01 -0.7509418971972E-01
 0.1160731869242E+01 -0.7311017126876E-01
 0.1211224947113E+01 -0.7023274079400E-01
 0.1601213285128E+00 -0.2236737825755E-01
 0.2142476088970E+00 -0.2578903025779E-01
 0.2705136585381E+00 -0.2974502006761E-01
 0.3285997024718E+00 -0.3426625947121E-01
 0.3881305091480E+00 -0.3928356317711E-01
 0.4487146193862E+00 -0.4465301220497E-01
 0.5099735338579E+00 -0.5018402402122E-01
 0.5715677130489E+00 -0.5566790930780E-01
 0.6332211713717E+00 -0.6090502568466E-01
 0.6947329392541E+00 -0.6572539687717E-01
 0.7559536373446E+00 -0.6999505722904E-01
 0.8167282923271E+00 -0.7360709386522E-01
 0.8768475868908E+00 -0.7646919696017E-01
 0.9360422372437E+00 -0.7850004156540E-01
 0.9940085990496E+00 -0.7963432566802E-01
 0.1050438541690E+01 -0.7982982665186E-01
 0.1105040688793E+01 -0.7907279655012E-01
 0.1157555271623E+01 -0.7738284887814E-01
 0.1207765735460E+01 -0.7482073086158E-01
 0.1603571584960E+00 -0.2385168542695E-01
 0.2145636845958E+00 -0.2735404848558E-01
 0.2709435615846E+00 -0.3141140023640E-01
 0.3291324343996E+00 -0.3606050736636E-01
 0.3887210844541E+00 -0.4122868337109E-01
 0.4492957232320E+00 -0.4676340072583E-01
 0.5104665672626E+00 -0.5246399384150E-01
 0.5718925000035E+00 -0.5811324259380E-01
 0.6333038736618E+00 -0.6350698019251E-01
 0.6945116707977E+00 -0.6847614864126E-01
 0.7553812926009E+00 -0.7289270931588E-01
 0.8157727462083E+00 -0.7665826278108E-01
 0.8754904525546E+00 -0.7968872507006E-01
 0.9342774380409E+00 -0.8190914338208E-01
 0.9918410584955E+00 -0.8325850085045E-01
 0.1047883137921E+01 -0.8369684371078E-01
 0.1102121597810E+01 -0.8321034999280E-01
 0.1154306477334E+01 -0.8181581630254E-01
 0.1204233666978E+01 -0.7956898327675E-01
 0.1605936698043E+00 -0.2535929495719E-01
 0.2148776623000E+00 -0.2895483830986E-01
 0.2713732984014E+00 -0.3313205178031E-01
 0.3296673696189E+00 -0.3793109976047E-01
 0.3893142463481E+00 -0.4327294904012E-01
 0.4498768292324E+00 -0.4899395585604E-01
 0.5109540486521E+00 -0.5488155629451E-01
 0.5722038048890E+00 -0.6070901967649E-01
 0.6333636820666E+00 -0.6626753276793E-01
 0.6942575902698E+00 -0.7138958585428E-01
 0.7547665974022E+00 -0.7595416847517E-01
 0.8147663643901E+00 -0.7987255800742E-01
 0.8740755047602E+00 -0.8306980252064E-01
 0.9324496628165E+00 -0.8547793767779E-01
 0.9896073019276E+00 -0.8704073509325E-01
 0.1045259969784E+01 -0.8772101726680E-01
 0.1099134149140E+01 -0.8750516487191E-01
 0.1150988556507E+01 -0.8640663746795E-01
 0.1200630511305E+01 -0.8447442338675E-01
 0.1608339147782E+00 -0.2689243763223E-01
 0.2151957776505E+00 -0.3059497300317E-01
 0.2718115456694E+00 -0.3491233156974E-01
 0.3302145870416E+00 -0.3988518861630E-01
 0.3899205125733E+00 -0.4542496567628E-01
 0.4504681649493E+00 -0.5135419535960E-01
 0.5114454525942E+00 -0.5744653849427E-01
 0.5725101240016E+00 -0.6346481273930E-01
 0.6334080723120E+00 -0.6919554095940E-01
 0.6939772309219E+00 -0.7447352963328E-01
 0.7541152774786E+00 -0.7918603513689E-01
 0.8137141941381E+00 -0.8325527509155E-01
 0.8726072019045E+00 -0.8661635769696E-01
 0.9305628640622E+00 -0.8920886577091E-01
 0.9873109176947E+00 -0.9098181759753E-01
 0.1042572472183E+01 -0.9190147533611E-01
 0.1096081729366E+01 -0.9195509581591E-01
 0.1147604541321E+01 -0.9115258228301E-01
 0.1196958029959E+01 -0.8953406904520E-01
 0.1610812924591E+00 -0.2845352371435E-01
 0.2155249426358E+00 -0.3227843660257E-01
 0.2722678116175E+00 -0.3675823193447E-01
 0.3307849855803E+00 -0.4193069512356E-01
 0.3905511046595E+00 -0.4769413238794E-01
 0.4510804982542E+00 -0.5385436922620E-01
 0.5119506211054E+00 -0.6016938457327E-01
 0.5728201607927E+00 -0.6639067258839E-01
 0.6334445899603E+00 -0.7230020227392E-01
 0.6936770854846E+00 -0.7773601713769E-01
 0.7534329349902E+00 -0.8259502724626E-01
 0.8126210972897E+00 -0.8681176766769E-01
 0.8710897518777E+00 -0.9033238082143E-01
 0.9286206419745E+00 -0.9310446212462E-01
 0.9849550179473E+00 -0.9508255602269E-01
 0.1039823580471E+01 -0.9623707042228E-01
 0.1092967432657E+01 -0.9655741476282E-01
 0.1144157521274E+01 -0.9605044492784E-01
 0.1193218139493E+01 -0.9474502531735E-01
 0.1613396384664E+00 -0.3004520604704E-01
 0.2158728711569E+00 -0.3400976398640E-01
 0.2727525434546E+00 -0.3867656229581E-01
 0.3313903544115E+00 -0.4407648508958E-01
 0.3912179858950E+00 -0.5009079579845E-01
 0.4517251528607E+00 -0.5650558717254E-01
 0.5124797664609E+00 -0.6306126037102E-01
 0.5731428232698E+00 -0.6949721305329E-01
 0.6334808474556E+00 -0.7559112451166E-01
 0.6933636045118E+00 -0.8118536090495E-01
 0.7527250507640E+00 -0.8618802551393E-01
 0.8114917626021E+00 -0.9054747327970E-01
 0.8695271531615E+00 -0.9422193029317E-01
 0.9266263036246E+00 -0.9716745397549E-01
 0.9825422307644E+00 -0.9934400711439E-01
 0.1037015593405E+01 -0.1007265507344E+00
 0.1089793933470E+01 -0.1013085752322E+00
 0.1140650769036E+01 -0.1010960613783E+00
 0.1189413253628E+01 -0.1001043257180E+00
 0.1616133563179E+00 -0.3167047833003E-01
 0.2162482325552E+00 -0.3579426519427E-01
 0.2732772360073E+00 -0.4067518534216E-01
 0.3320434328040E+00 -0.4633258290611E-01
 0.3919338855715E+00 -0.5262642012296E-01
 0.4524140106781E+00 -0.5931996828478E-01
 0.5130434577365E+00 -0.6613417408319E-01
 0.5734872053292E+00 -0.7279571152261E-01
 0.6335245046319E+00 -0.7907841511591E-01
 0.6930431760503E+00 -0.8483023485906E-01
 0.7519969607743E+00 -0.8997215324379E-01
 0.8103306852089E+00 -0.9446797188773E-01
 0.8679231888528E+00 -0.9828915814678E-01
 0.9245829360685E+00 -0.1014007429599E+00
 0.9800747499163E+00 -0.1037678951129E+00
 0.1034149939099E+01 -0.1053690992387E+00
 0.1086563067711E+01 -0.1062041547310E+00
 0.1137087719176E+01 -0.1062833180220E+00
 0.1185546832064E+01 -0.1056085338833E+00
 0.1619076244251E+00 -0.3333291495338E-01
 0.2166608443045E+00 -0.3763834294671E-01
 0.2738545416355E+00 -0.4276336426499E-01
 0.3327579634877E+00 -0.4871035317205E-01
 0.3927123409076E+00 -0.5531377983397E-01
 0.4531595223233E+00 -0.6231078529070E-01
 0.5136526202736E+00 -0.6940108713087E-01
 0.5738625843354E+00 -0.7629818535713E-01
 0.6335832731687E+00 -0.8277274304230E-01
 0.6927221345587E+00 -0.8867973293178E-01
 0.7512538641390E+00 -0.9395483281251E-01
 0.8091421694510E+00 -0.9857901913930E-01
 0.8662814504695E+00 -0.1025382818810E+00
 0.9224934611931E+00 -0.1058072941621E+00
 0.9775546946633E+00 -0.1083563068603E+00
 0.1031227158496E+01 -0.1101660487029E+00
 0.1083274948426E+01 -0.1112390611690E+00
 0.1133471608210E+01 -0.1116022532933E+00
 0.1181624529603E+01 -0.1112516671511E+00
 0.1622287998994E+00 -0.3503687796770E-01
 0.2171218632962E+00 -0.3955050301445E-01
 0.2744982549614E+00 -0.4495181316213E-01
 0.3335487880706E+00 -0.5122280321825E-01
 0.3935677104306E+00 -0.5816715363041E-01
 0.4539747081649E+00 -0.6549263268602E-01
 0.5143185181208E+00 -0.7287603929115E-01
 0.5742784002776E+00 -0.8001748073811E-01
 0.6336649084700E+00 -0.8668539051352E-01
 0.6924067658476E+00 -0.9274345349997E-01
 0.7505008161111E+00 -0.9814387400846E-01
 0.8079303104742E+00 -0.1028866242522E+00
 0.8646052996297E+00 -0.1069736144638E+00
 0.9203606711987E+00 -0.1103900392615E+00
 0.9749841175668E+00 -0.1131113827573E+00
 0.1028248253194E+01 -0.1151196675565E+00
 0.1079926399169E+01 -0.1164162075958E+00
 0.1129802701917E+01 -0.1170315901988E+00
 0.1177656931667E+01 -0.1170198065178E+00
 0.1983277785584E+00  0.9427852810114E-01
 0.2677177927589E+00  0.1412039801735E+00
 0.3344043639849E+00  0.1778495377792E+00
 0.4022077431468E+00  0.2066972655986E+00
 0.4724959366603E+00  0.2298697131999E+00
 0.5459434338994E+00  0.2482941894953E+00
 0.6231584268705E+00  0.2623559401123E+00
 0.7050885386977E+00  0.2721984787597E+00
 0.7935872252876E+00  0.2775744210874E+00
 0.8921914135319E+00  0.2780314025296E+00
 0.9999994117629E+00  0.2746721014933E+00
 0.1110323102311E+01  0.2696544070752E+00
 0.1217157527159E+01  0.2591248280323E+00
 0.1315665452485E+01  0.2400096705701E+00
 0.1402241040971E+01  0.2136022265276E+00
 0.1474551324083E+01  0.1824523575272E+00
 0.1532144453101E+01  0.1502985086037E+00
 0.1575718179095E+01  0.1203649318791E+00
 0.1606109840107E+01  0.9463526051289E-01
 0.1875484908640E+00  0.8259876157459E-01
 0.2568654230274E+00  0.1208676340441E+00
 0.3247596353417E+00  0.1557390185500E+00
 0.3930652894815E+00  0.1836479237220E+00
 0.4634325036547E+00  0.2057375035533E+00
 0.5366638084709E+00  0.2228979810228E+00
 0.6134319655210E+00  0.2354663365877E+00
 0.6946855183447E+00  0.2435003533330E+00
 0.7821322010849E+00  0.2468266035689E+00
 0.8787094881442E+00  0.2454320370810E+00
 0.9837823419603E+00  0.2408155572598E+00
 0.1091834959315E+01  0.2352725908829E+00
 0.1197316105271E+01  0.2257379094747E+00
 0.1295431993956E+01  0.2093743555034E+00
 0.1382530521812E+01  0.1870208900354E+00
 0.1456206961653E+01  0.1607043885041E+00
 0.1515853042605E+01  0.1335898525227E+00
 0.1561986572358E+01  0.1084535636071E+00
 0.1595295713552E+01  0.8701402065972E-01
 0.1790609355529E+00  0.7418951513085E-01
 0.2467823102921E+00  0.1052331641351E+00
 0.3150230273832E+00  0.1360596557747E+00
 0.3838229359650E+00  0.1622468435872E+00
 0.4543258064376E+00  0.1830492418641E+00
 0.5274198261780E+00  0.1989184700645E+00
 0.6038346899849E+00  0.2100971631653E+00
 0.6845115117052E+00  0.2166324174334E+00
 0.7709757416479E+00  0.2184819118391E+00
 0.8656138609680E+00  0.2159103037146E+00
 0.9679686848532E+00  0.2105117666299E+00
 0.1073550546406E+01  0.2045487680027E+00
 0.1177375567144E+01  0.1956933752869E+00
 0.1274803352918E+01  0.1815596786683E+00
 0.1362166657287E+01  0.1626934364804E+00
 0.1436985654863E+01  0.1406575948920E+00
 0.1498497332359E+01  0.1180753912560E+00
 0.1547043251111E+01  0.9729933033553E-01
 0.1583154803973E+01  0.7979688114821E-01
 0.1723131914485E+00  0.6761772097504E-01
 0.2378411870039E+00  0.9269237347400E-01
 0.3056566995592E+00  0.1191394951469E+00
 0.3746246234036E+00  0.1427564759287E+00
 0.4452311166705E+00  0.1619386480419E+00
 0.5182161067097E+00  0.1764479003113E+00
 0.5943232000466E+00  0.1863292628736E+00
 0.6744606699973E+00  0.1916196115745E+00
 0.7599662815136E+00  0.1923914668505E+00
 0.8527543328816E+00  0.1890789200637E+00
 0.9524830849518E+00  0.1832461885854E+00
 0.1055517393001E+01  0.1770347197586E+00
 0.1157465857107E+01  0.1687306610921E+00
 0.1253930752162E+01  0.1564357414675E+00
 0.1341290301968E+01  0.1405497541362E+00
 0.1417010070307E+01  0.1222675948564E+00
 0.1480180875544E+01  0.1037235254046E+00
 0.1530970080916E+01  0.8687386162780E-01
 0.1569747460150E+01  0.7293735247076E-01
 0.1669222650862E+00  0.6219560631769E-01
 0.2300560060176E+00  0.8238098827726E-01
 0.2969237925936E+00  0.1046233648564E+00
 0.3656764635597E+00  0.1253121211321E+00
 0.4362316089332E+00  0.1425318572428E+00
 0.5090738650452E+00  0.1555714770886E+00
 0.5848707137786E+00  0.1642137167368E+00
 0.6644649837140E+00  0.1684481967203E+00
 0.7490107027167E+00  0.1684204165409E+00
 0.8400283002901E+00  0.1646591888109E+00
 0.9372484286949E+00  0.1586424694133E+00
 0.1037731328548E+01  0.1523506522645E+00
 0.1137656188992E+01  0.1445590055714E+00
 0.1232926569414E+01  0.1338227888195E+00
 0.1320024769560E+01  0.1204857483763E+00
 0.1396397185731E+01  0.1054705156586E+00
 0.1461007254011E+01  0.9049034057075E-01
 0.1513855077682E+01  0.7713931491387E-01
 0.1555151044160E+01  0.6640040793712E-01
 0.1626003288935E+00  0.5756731645292E-01
 0.2233444884054E+00  0.7373085357173E-01
 0.2889368239842E+00  0.9213926820842E-01
 0.3571369454858E+00  0.1098323335348E+00
 0.4274308697704E+00  0.1248934859342E+00
 0.5000319539753E+00  0.1363517651117E+00
 0.5754710281266E+00  0.1437790741427E+00
 0.6544865436413E+00  0.1470875022972E+00
 0.7380536743853E+00  0.1464503570309E+00
 0.8273663591956E+00  0.1424362059096E+00
 0.9221978384947E+00  0.1364115144405E+00
 0.1020167037367E+01  0.1301802314996E+00
 0.1117978245838E+01  0.1229002198027E+00
 0.1211868242542E+01  0.1135186990254E+00
 0.1298471640249E+01  0.1023709255433E+00
 0.1375254359089E+01  0.9018406673312E-01
 0.1441078840802E+01  0.7832091987692E-01
 0.1495791663202E+01  0.6805566978816E-01
 0.1539451047584E+01  0.6015473916919E-01
 0.1591290988748E+00  0.5351867828186E-01
 0.2175945914170E+00  0.6636002414997E-01
 0.2817238880669E+00  0.8135769430765E-01
 0.3491044287317E+00  0.9615943169968E-01
 0.4189204975098E+00  0.1090000920393E+00
 0.4911416105350E+00  0.1188114075901E+00
 0.5661363764527E+00  0.1250313533523E+00
 0.6445114878453E+00  0.1274972926840E+00
 0.7270667224159E+00  0.1263762571383E+00
 0.8147240375054E+00  0.1222365723727E+00
 0.9072781409380E+00  0.1163225703012E+00
 0.1002793003616E+01  0.1102595311198E+00
 0.1098442318334E+01  0.1035012334586E+00
 0.1190807711141E+01  0.9531918340084E-01
 0.1276712172041E+01  0.8606008251028E-01
 0.1353677536887E+01  0.7631194585116E-01
 0.1420494725901E+01  0.6715228652471E-01
 0.1476875645765E+01  0.5958116823296E-01
 0.1522738453339E+01  0.5417311333920E-01
 0.1563392945957E+00  0.4991107424824E-01
 0.2126902218335E+00  0.5999840255888E-01
 0.2752659456211E+00  0.7200543320381E-01
 0.3416286640216E+00  0.8411211584995E-01
 0.4107683426912E+00  0.9477205289466E-01
 0.4824542214333E+00  0.1029263364015E+00
 0.5568919499692E+00  0.1079509261317E+00
 0.6345442798597E+00  0.1096281544692E+00
 0.7160413655135E+00  0.1081022232425E+00
 0.8020763794476E+00  0.1039148714147E+00
 0.8924502579395E+00  0.9818572600136E-01
 0.9855790917371E+00  0.9236616778955E-01
 0.1079047760433E+01  0.8613662880664E-01
 0.1169779794231E+01  0.7902845963940E-01
 0.1254811240210E+01  0.7140351392617E-01
 0.1331751401255E+01  0.6374982475671E-01
 0.1399348976071E+01  0.5691601349569E-01
 0.1457202847063E+01  0.5167330538767E-01
 0.1505107020819E+01  0.4843187579627E-01
 0.1540975190111E+00  0.4664948347903E-01
 0.2085207199986E+00  0.5444816430310E-01
 0.2695184254677E+00  0.6385840475862E-01
 0.3347241881339E+00  0.7351078689261E-01
 0.4030175840055E+00  0.8209820328026E-01
 0.4740136119258E+00  0.8863534463625E-01
 0.5477686074173E+00  0.9249181403504E-01
 0.6246019486825E+00  0.9341977742581E-01
 0.7049838444862E+00  0.9153697224427E-01
 0.7894138614900E+00  0.8734450466655E-01
 0.8776883294303E+00  0.8184022898176E-01
 0.9685003162392E+00  0.7631040336040E-01
 0.1059789539144E+01  0.7060715526739E-01
 0.1148808586917E+01  0.6446437258802E-01
 0.1232821423208E+01  0.5825413517453E-01
 0.1309550621154E+01  0.5239079195691E-01
 0.1377729780056E+01  0.4754112320496E-01
 0.1436867151269E+01  0.4428971494773E-01
 0.1486651013218E+01  0.4291073072095E-01
 0.1522972794966E+00  0.4366596518767E-01
 0.2049843735403E+00  0.4956009241905E-01
 0.2644236804706E+00  0.5673253957851E-01
 0.3283813464133E+00  0.6418755705901E-01
 0.3956899446721E+00  0.7085290573566E-01
 0.4658526734924E+00  0.7585160373899E-01
 0.5387971070601E+00  0.7858561649778E-01
 0.6147085345541E+00  0.7880005472710E-01
 0.6939105487739E+00  0.7658999629803E-01
 0.7767388831907E+00  0.7241099803397E-01
 0.8629782034880E+00  0.6714617784861E-01
 0.9515384661438E+00  0.6192798108712E-01
 0.1040662207199E+01  0.5673685621097E-01
 0.1127911984550E+01  0.5146031687642E-01
 0.1210786462782E+01  0.4647194847076E-01
 0.1287141440428E+01  0.4212963028714E-01
 0.1355719248132E+01  0.3895675370995E-01
 0.1415959126814E+01  0.3738913403004E-01
 0.1467463271937E+01  0.3759247808183E-01
 0.1508526898406E+00  0.4091027690029E-01
 0.2019894066204E+00  0.4521891114827E-01
 0.2599183425865E+00  0.5047561978494E-01
 0.3225744849376E+00  0.5598968922979E-01
 0.3887899688410E+00  0.6090653698242E-01
 0.4579927488365E+00  0.6447273640383E-01
 0.5300044294331E+00  0.6614704556146E-01
 0.6048905647549E+00  0.6568602949581E-01
 0.6828439813958E+00  0.6316907480280E-01
 0.7640625633037E+00  0.5900714796475E-01
 0.8483155639090E+00  0.5397838120483E-01
 0.9346824342313E+00  0.4907435236045E-01
 0.1021662138896E+01  0.4436981176272E-01
 0.1107104700434E+01  0.3986537460601E-01
 0.1188743898911E+01  0.3592655783852E-01
 0.1264583179675E+01  0.3286586502987E-01
 0.1333393593027E+01  0.3109437140794E-01
 0.1394565155687E+01  0.3093228940789E-01
 0.1447633731454E+01  0.3246275321895E-01
 0.1496939237071E+00  0.3834422851542E-01
 0.1994538902769E+00  0.4133377433493E-01
 0.2559377244546E+00  0.4496075919672E-01
 0.3172678389269E+00  0.4878007237449E-01
 0.3823091179404E+00  0.5213167490774E-01
 0.4504444638191E+00  0.5438846578709E-01
 0.5214118559730E+00  0.5507948243680E-01
 0.5951737976484E+00  0.5398602055464E-01
 0.6718094307020E+00  0.5117925852574E-01
 0.7514018390978E+00  0.4702975097098E-01
 0.8337038872556E+00  0.4222182083711E-01
 0.9179277386307E+00  0.3762001873336E-01
 0.1002788574086E+01  0.3336691255799E-01
 0.1086400117126E+01  0.2954345410446E-01
 0.1166726903611E+01  0.2649832582016E-01
 0.1241929453776E+01  0.2450576408550E-01
 0.1310823478475E+01  0.2388946411180E-01
 0.1372766983566E+01  0.2488263631639E-01
 0.1427248394735E+01  0.2750975333024E-01
 0.1487638584858E+00  0.3593811375459E-01
 0.1973051940799E+00  0.3783188047881E-01
 0.2524184654825E+00  0.4008134837906E-01
 0.3124197097670E+00  0.4243645157451E-01
 0.3762292822804E+00  0.4440658302641E-01
 0.4432091918024E+00  0.4548606997784E-01
 0.5130342729753E+00  0.4527979095460E-01
 0.5855811311876E+00  0.4360223914674E-01
 0.6608324294281E+00  0.4052297675995E-01
 0.7387769730820E+00  0.3637767965588E-01
 0.8191524096877E+00  0.3176841611060E-01
 0.9012755707779E+00  0.2744681646022E-01
 0.9840438481868E+00  0.2360283507364E-01
 0.1065811248169E+01  0.2037186285036E-01
 0.1144765398504E+01  0.1807859127556E-01
 0.1219229018077E+01  0.1696351794615E-01
 0.1288074388933E+01  0.1728277612419E-01
 0.1350641601513E+01  0.1920694569571E-01
 0.1406388764715E+01  0.2272395051150E-01
 0.1480155505145E+00  0.3366836421092E-01
 0.1954792619588E+00  0.3465405406723E-01
 0.2493001045322E+00  0.3574716344787E-01
 0.3079854110302E+00  0.3685019162013E-01
 0.3705256417619E+00  0.3761704548439E-01
 0.4362806996282E+00  0.3765411396379E-01
 0.5048802442292E+00  0.3664218127429E-01
 0.5761314349607E+00  0.3443341193189E-01
 0.6499369653731E+00  0.3110085193597E-01
 0.7262095409606E+00  0.2695100567618E-01
 0.8046742654087E+00  0.2251486877132E-01
 0.8847316324242E+00  0.1844502475303E-01
 0.9654331051063E+00  0.1496328514101E-01
 0.1045351037952E+01  0.1223953062418E-01
 0.1122886543868E+01  0.1056920415407E-01
 0.1196526188531E+01  0.1016179436900E-01
 0.1265206901653E+01  0.1122121616050E-01
 0.1328261377741E+01  0.1387581226764E-01
 0.1385131725589E+01  0.1809780258867E-01
 0.1474103057194E+00  0.3151595440880E-01
 0.1939198435483E+00  0.3175160468904E-01
 0.2465259803080E+00  0.3188135843573E-01
 0.3039193359083E+00  0.3192492882853E-01
 0.3651689341351E+00  0.3165720569058E-01
 0.4296467462065E+00  0.3078491568217E-01
 0.4969525214639E+00  0.2906116409569E-01
 0.5668390516139E+00  0.2637714994067E-01
 0.6391443336709E+00  0.2281287465072E-01
 0.7137209125306E+00  0.1865087526070E-01
 0.7902849098791E+00  0.1436139334073E-01
 0.8683049830177E+00  0.1051122146985E-01
 0.9469637598627E+00  0.7342524440609E-02
 0.1025032221200E+01  0.5044961128635E-02
 0.1101114672531E+01  0.3881441356149E-02
 0.1173860761426E+01  0.4031786717005E-02
 0.1242276713610E+01  0.5658591087878E-02
 0.1305694350907E+01  0.8864260353749E-02
 0.1363549896839E+01  0.1362549754873E-01
 0.1469161865930E+00  0.2946528307197E-01
 0.1925777419196E+00  0.2908403952927E-01
 0.2440437014903E+00  0.2841811777335E-01
 0.3001763959857E+00  0.2757526734373E-01
 0.3601272242678E+00  0.2642980803013E-01
 0.4232905294269E+00  0.2477611010119E-01
 0.4892487724650E+00  0.2243372705033E-01
 0.5577137498290E+00  0.1933195364915E-01
 0.6284724929251E+00  0.1555969503768E-01
 0.7013311805363E+00  0.1137988281068E-01
 0.7760008787326E+00  0.7211164754723E-02
 0.8520070596938E+00  0.3546856575113E-02
 0.9286450039676E+00  0.6412711504367E-03
 0.1004867009368E+01 -0.1306155872441E-02
 0.1079470790050E+01 -0.2065804997759E-02
 0.1151267268644E+01 -0.1487428711567E-02
 0.1219334170718E+01  0.5563936558656E-03
 0.1283004536057E+01  0.4152741706385E-02
 0.1341712549994E+01  0.9302882442363E-02
 0.1465068481614E+00  0.2750336812803E-01
 0.1914101034929E+00  0.2661734687230E-01
 0.2418053346605E+00  0.2530081088146E-01
 0.2967130075922E+00  0.2372557747297E-01
 0.3553672678625E+00  0.2184609157786E-01
 0.4171919445968E+00  0.1953157638291E-01
 0.4817623874089E+00  0.1666088273005E-01
 0.5487609605763E+00  0.1319883109795E-01
 0.6179357893600E+00  0.9243873535222E-02
 0.6890584574836E+00  0.5042735713146E-02
 0.7618388608821E+00  0.9703228470963E-03
 0.8358509511258E+00 -0.2542442740521E-02
 0.9104875750887E+00 -0.5234779577175E-02
 0.9848671811327E+00 -0.6903374775762E-02
 0.1057971870603E+01 -0.7349394380434E-02
 0.1128773420150E+01 -0.6450584570739E-02
 0.1196422651922E+01 -0.4115755201957E-02
 0.1260251911276E+01 -0.2704177370796E-03
 0.1319687333418E+01  0.5127839190822E-02
 0.1461606280193E+00  0.2561918752738E-01
 0.1903797544430E+00  0.2432270858920E-01
 0.2397674004165E+00  0.2248048811638E-01
 0.2934877477438E+00  0.2030896191991E-01
 0.3508555594650E+00  0.1782545889368E-01
 0.4113286462810E+00  0.1496192498163E-01
 0.4744832810264E+00  0.1164872280153E-01
 0.5399821735911E+00  0.7882549360026E-02
 0.6075449324760E+00  0.3770999903502E-02
 0.6769184463759E+00 -0.4529567200492E-03
 0.7478150158500E+00 -0.4451637968243E-02
 0.8198508591027E+00 -0.7846886850123E-02
 0.8925038753147E+00 -0.1037543205437E-01
 0.9650449220409E+00 -0.1183304117931E-01
 0.1036631826886E+01 -0.1204600168378E-01
 0.1106397249108E+01 -0.1091373017156E-01
 0.1173574637883E+01 -0.8378985226142E-02
 0.1237490862170E+01 -0.4405128388458E-02
 0.1297543226571E+01  0.1103815954864E-02
 0.1458598977026E+00  0.2380333713780E-01
 0.1894545514297E+00  0.2217510546937E-01
 0.2378906836090E+00  0.1991499793534E-01
 0.2904618335166E+00  0.1726624263960E-01
 0.3465591109114E+00  0.1429503763491E-01
 0.4056769276790E+00  0.1098466451314E-01
 0.4673986393820E+00  0.7309100793675E-02
 0.5313754154503E+00  0.3292562154356E-02
 0.5973071249763E+00 -0.9493824438601E-03
 0.6649242012038E+00 -0.5195878356274E-02
 0.7339444464993E+00 -0.9141285951287E-02
 0.8040216165039E+00 -0.1245206728372E-01
 0.8747080797402E+00 -0.1486540959550E-01
 0.9454144209522E+00 -0.1617762608500E-01
 0.1015464521296E+01 -0.1623342758861E-01
 0.1084151071225E+01 -0.1494369161779E-01
 0.1150799456143E+01 -0.1226924652038E-01
 0.1214762221684E+01 -0.8216109339958E-02
 0.1275356938029E+01 -0.2752640079010E-02
 0.1642037553924E+00 -0.3876914496037E-01
 0.2208810354417E+00 -0.4401638198267E-01
 0.2802285618946E+00 -0.5039648644872E-01
 0.3412044225481E+00 -0.5782317330556E-01
 0.4029635420102E+00 -0.6600577704236E-01
 0.4648545658993E+00 -0.7455952961272E-01
 0.5264023213240E+00 -0.8308582293630E-01
 0.5872927512451E+00 -0.9123501572829E-01
 0.6473591874920E+00 -0.9875296685660E-01
 0.7065578906144E+00 -0.1055044772037E+00
 0.7649119225112E+00 -0.1114614761584E+00
 0.8224286256719E+00 -0.1166560489844E+00
 0.8790163658902E+00 -0.1210670401431E+00
 0.9344968358136E+00 -0.1246458742081E+00
 0.9886557605943E+00 -0.1273645923845E+00
 0.1041268922967E+01 -0.1292053957589E+00
 0.1092143584094E+01 -0.1301894015816E+00
 0.1141114592648E+01 -0.1303676571344E+00
 0.1188016457783E+01 -0.1298446490782E+00
 0.1659151844986E+00 -0.4080824217090E-01
 0.2243040671389E+00 -0.4663344350455E-01
 0.2855020072629E+00 -0.5378367106118E-01
 0.3483008336943E+00 -0.6212045078715E-01
 0.4117590483210E+00 -0.7128018940855E-01
 0.4751770977317E+00 -0.8080803363766E-01
 0.5380632821259E+00 -0.9024843458997E-01
 0.6001056350329E+00 -0.9921366456308E-01
 0.6611469661523E+00 -0.1074293319908E+00
 0.7211526274564E+00 -0.1147535095345E+00
 0.7801525141215E+00 -0.1211631239277E+00
 0.8381615460940E+00 -0.1267068886556E+00
 0.8950726624778E+00 -0.1313143772585E+00
 0.9506844778703E+00 -0.1348851131414E+00
 0.1004773501941E+01 -0.1373843678702E+00
 0.1057111747274E+01 -0.1387990575407E+00
 0.1107535596127E+01 -0.1391853943555E+00
 0.1155928387499E+01 -0.1386470829592E+00
 0.1202201362056E+01 -0.1373297456302E+00
 0.1677347609302E+00 -0.4292712746769E-01
 0.2279442336446E+00 -0.4941607111298E-01
 0.2910818872022E+00 -0.5745553598871E-01
 0.3557578524565E+00 -0.6683140547401E-01
 0.4209315639638E+00 -0.7709018963774E-01
 0.4858604428427E+00 -0.8769552660444E-01
 0.5500441887085E+00 -0.9812950789398E-01
 0.6131811028290E+00 -0.1079660168450E+00
 0.6751303725096E+00 -0.1169133056381E+00
 0.7358717126362E+00 -0.1248267539354E+00
 0.7954459388683E+00 -0.1316926373331E+00
 0.8538787095378E+00 -0.1375808300051E+00
 0.9110494209851E+00 -0.1423642730676E+00
 0.9667364440517E+00 -0.1458848716079E+00
 0.1020710293111E+01 -0.1481048118755E+00
 0.1072743131157E+01 -0.1490223371070E+00
 0.1122704004423E+01 -0.1487387235044E+00
 0.1170533848577E+01 -0.1474082882174E+00
 0.1216183497254E+01 -0.1451611315642E+00
 0.1696823018207E+00 -0.4513815388602E-01
 0.2318372699803E+00 -0.5239463655411E-01
 0.2970100799962E+00 -0.6146000626575E-01
 0.3636138242248E+00 -0.7201927431163E-01
 0.4305098171631E+00 -0.8350813547955E-01
 0.4969207450918E+00 -0.9529670307514E-01
 0.5623483690524E+00 -0.1068002526676E+00
 0.6265113261399E+00 -0.1175558404401E+00
 0.6892931762194E+00 -0.1272591388258E+00
 0.7506936986961E+00 -0.1357682287977E+00
 0.8107685766427E+00 -0.1430838419471E+00
 0.8695569770954E+00 -0.1493021813599E+00
 0.9269264628096E+00 -0.1542322676237E+00
 0.9826376944091E+00 -0.1576534086029E+00
 0.1036458157139E+01 -0.1595287862239E+00
 0.1088162920280E+01 -0.1598728342060E+00
 0.1137655624216E+01 -0.1588352060182E+00
 0.1184925280945E+01 -0.1566106306097E+00
 0.1229944699423E+01 -0.1533262763316E+00
 0.1717826039265E+00 -0.4745578918792E-01
 0.2360245367648E+00 -0.5560444229336E-01
 0.3033323285499E+00 -0.6585397408706E-01
 0.3719081940165E+00 -0.7775709002944E-01
 0.4405203796066E+00 -0.9061521340599E-01
 0.5083693206072E+00 -0.1036925963133E+00
 0.5749726414795E+00 -0.1163349810948E+00
 0.6400813514557E+00 -0.1280466813542E+00
 0.7036122674152E+00 -0.1385179053591E+00
 0.7655910383633E+00 -0.1476164474543E+00
 0.8260917856221E+00 -0.1553635658417E+00
 0.8851693850743E+00 -0.1618874397046E+00
 0.9426810016326E+00 -0.1669258409753E+00
 0.9983715923499E+00 -0.1701906915614E+00
 0.1052007401485E+01 -0.1716497880964E+00
 0.1103367438135E+01 -0.1713368624271E+00
 0.1152386773845E+01 -0.1694518069956E+00
 0.1199095042925E+01 -0.1662338033343E+00
 0.1243478029925E+01 -0.1618182594136E+00
 0.1740662855358E+00 -0.4989733574130E-01
 0.2405539364216E+00 -0.5908803188404E-01
 0.3100985063310E+00 -0.7070483048013E-01
 0.3806807163138E+00 -0.8412930255332E-01
 0.4509863382302E+00 -0.9850221493873E-01
 0.5202111105042E+00 -0.1129703701616E+00
 0.5879059088029E+00 -0.1268100181193E+00
 0.6538680530839E+00 -0.1395002416023E+00
 0.7180570585185E+00 -0.1507357680856E+00
 0.7805299495438E+00 -0.1604029384673E+00
 0.8413821295746E+00 -0.1685504941738E+00
 0.9006855379052E+00 -0.1753444554614E+00
 0.9582879115456E+00 -0.1804437729645E+00
 0.1013919616401E+01 -0.1834881429634E+00
 0.1067345995383E+01 -0.1844532038074E+00
 0.1118348946295E+01 -0.1833948181006E+00
 0.1166891265413E+01 -0.1805679023503E+00
 0.1213037629443E+01 -0.1762620846008E+00
 0.1256782576662E+01 -0.1706305901294E+00
 0.1765710640830E+00 -0.5248401758192E-01
 0.2454808559614E+00 -0.6289731107741E-01
 0.3173625833039E+00 -0.7609293266153E-01
 0.3899703839701E+00 -0.9123354591704E-01
 0.4619255545993E+00 -0.1072702198154E+00
 0.5324428351264E+00 -0.1232227179559E+00
 0.6011276366861E+00 -0.1383021241493E+00
 0.6678391799672E+00 -0.1519743404962E+00
 0.7325891445886E+00 -0.1639519926365E+00
 0.7954705839023E+00 -0.1741506429049E+00
 0.8566018589869E+00 -0.1826540780487E+00
 0.9160721753359E+00 -0.1896718262808E+00
 0.9737201436310E+00 -0.1947760693787E+00
 0.1029261631785E+01 -0.1975294070881E+00
 0.1082460012009E+01 -0.1979184482295E+00
 0.1133098119568E+01 -0.1960246258807E+00
 0.1181162891290E+01 -0.1921633690254E+00
 0.1226750015110E+01 -0.1866810033317E+00
 0.1269860895605E+01 -0.1797551900238E+00
 0.1793434457938E+00 -0.5524227772972E-01
 0.2508692021769E+00 -0.6709630300162E-01
 0.3251823060620E+00 -0.8211462536502E-01
 0.3998138527703E+00 -0.9918272226259E-01
 0.4733484352652E+00 -0.1170310296059E+00
 0.5450508276375E+00 -0.1345466884678E+00
 0.6146062867821E+00 -0.1508862647122E+00
 0.6819526061873E+00 -0.1655203812449E+00
 0.7471623109042E+00 -0.1781967227769E+00
 0.8103675612101E+00 -0.1888723274678E+00
 0.8717096928792E+00 -0.1976736520550E+00
 0.9312939705863E+00 -0.2048586657788E+00
 0.9889494290823E+00 -0.2099043747198E+00
 0.1044376576833E+01 -0.2122914195475E+00
 0.1097334766808E+01 -0.2120204849219E+00
 0.1147605414424E+01 -0.2092021263943E+00
 0.1195196354219E+01 -0.2042176833933E+00
 0.1240231245454E+01 -0.1974756006405E+00
 0.1282717539664E+01 -0.1891823063275E+00
 0.1824409354810E+00 -0.5820555742712E-01
 0.2567925278784E+00 -0.7176479039238E-01
 0.3336184642244E+00 -0.8888606357820E-01
 0.4102431821404E+00 -0.1081073034623E+00
 0.4852550802357E+00 -0.1279071579722E+00
 0.5580085588349E+00 -0.1470416559878E+00
 0.6282978211503E+00 -0.1646325397038E+00
 0.6961559397567E+00 -0.1801802884522E+00
 0.7617230118421E+00 -0.1934886250640E+00
 0.8251709345132E+00 -0.2045691833483E+00
 0.8866619182984E+00 -0.2135979173488E+00
 0.9463145568916E+00 -0.2208847899182E+00
 0.1003947173190E+01 -0.2258026819363E+00
 0.1059243336599E+01 -0.2277454005928E+00
 0.1111955715886E+01 -0.2267305688339E+00
 0.1161861839611E+01 -0.2229011910414E+00
 0.1208987522164E+01 -0.2167093085688E+00
 0.1253481968217E+01 -0.2086298628049E+00
 0.1295358217108E+01 -0.1989006881363E+00
 0.1859349308073E+00 -0.6141682194139E-01
 0.2633352110399E+00 -0.7700329690293E-01
 0.3427335181733E+00 -0.9654808777752E-01
 0.4212826270956E+00 -0.1181577534357E+00
 0.4976316753980E+00 -0.1400309939261E+00
 0.5712739151527E+00 -0.1608060471990E+00
 0.6421444776649E+00 -0.1796020792134E+00
 0.7103867038452E+00 -0.1959829737734E+00
 0.7762114583470E+00 -0.2098326127132E+00
 0.8398276227767E+00 -0.2212298379093E+00
 0.9014137709729E+00 -0.2304049295581E+00
 0.9610976918516E+00 -0.2377213192279E+00
 0.1018685400524E+01 -0.2424382281034E+00
 0.1073841525613E+01 -0.2438577093990E+00
 0.1126309095820E+01 -0.2420167814885E+00
 0.1175859348750E+01 -0.2370937869178E+00
 0.1222533439357E+01 -0.2296154621405E+00
 0.1266504040731E+01 -0.2201265808353E+00
 0.1307789304905E+01 -0.2088978410374E+00
 0.1899145487680E+00 -0.6493227275296E-01
 0.2705935913972E+00 -0.8294008412859E-01
 0.3525892104804E+00 -0.1052724982414E+00
 0.4329441007443E+00 -0.1295068106447E+00
 0.5104460026734E+00 -0.1535425114994E+00
 0.5847864055969E+00 -0.1759322958366E+00
 0.6560741402677E+00 -0.1958417716010E+00
 0.7245733640254E+00 -0.2129405513865E+00
 0.7905634304490E+00 -0.2272179986041E+00
 0.8542832819662E+00 -0.2388300508191E+00
 0.9159209875920E+00 -0.2480627007538E+00
 0.9756084260556E+00 -0.2553316719127E+00
 0.1033137604634E+01 -0.2597725131250E+00
 0.1088152098773E+01 -0.2605906421875E+00
 0.1140382331898E+01 -0.2578444793199E+00
 0.1189591021904E+01 -0.2517501013618E+00
 0.1235832248899E+01 -0.2429120860358E+00
 0.1279300240250E+01 -0.2319474154966E+00
 0.1320017574134E+01 -0.2191602797961E+00
 0.1944917558644E+00 -0.6882700313290E-01
 0.2786768536495E+00 -0.8974126512705E-01
 0.3632425249192E+00 -0.1152701578159E+00
 0.4452207663330E+00 -0.1423510351239E+00
 0.5236420112599E+00 -0.1685844867889E+00
 0.5984646857105E+00 -0.1924993709534E+00
 0.6700008001256E+00 -0.2133778849863E+00
 0.7386375040429E+00 -0.2310448069025E+00
 0.8047128477290E+00 -0.2456175843762E+00
 0.8684844771032E+00 -0.2573333602415E+00
 0.9301413512173E+00 -0.2665304496230E+00
 0.9898141255136E+00 -0.2736728683367E+00
 0.1047279406300E+01 -0.2777623803906E+00
 0.1102157758629E+01 -0.2779031691709E+00
 0.1154164260935E+01 -0.2741766891039E+00
 0.1203051124014E+01 -0.2668386977284E+00
 0.1248883099519E+01 -0.2565739271042E+00
 0.1291874073096E+01 -0.2440730552180E+00
 0.1332050049448E+01 -0.2296737729652E+00
 0.1998083730278E+00 -0.7320397720675E-01
 0.2877071976525E+00 -0.9762590414795E-01
 0.3747388974484E+00 -0.1268013746835E+00
 0.4580780176568E+00 -0.1569103110008E+00
 0.5371336170867E+00 -0.1852935242274E+00
 0.6122051663161E+00 -0.2105622348254E+00
 0.6838268002993E+00 -0.2322091192044E+00
 0.7524973842233E+00 -0.2502648491537E+00
 0.8185949453011E+00 -0.2649882812989E+00
 0.8823808802171E+00 -0.2766928196746E+00
 0.9440360076919E+00 -0.2857603875510E+00
 0.1003685221199E+01 -0.2926969989845E+00
 0.1061088965013E+01 -0.2963610649337E+00
 0.1115843157805E+01 -0.2957515744608E+00
 0.1167645206788E+01 -0.2909744284779E+00
 0.1216235095184E+01 -0.2823266645163E+00
 0.1261686074555E+01 -0.2705746678888E+00
 0.1304229677050E+01 -0.2564834229437E+00
 0.1343893960700E+01 -0.2404235886203E+00
 0.2060458579645E+00 -0.7820902830663E-01
 0.2978182808735E+00 -0.1068893990359E+00
 0.3871007341741E+00 -0.1401887967463E+00
 0.4714409337039E+00 -0.1734224212909E+00
 0.5507984835617E+00 -0.2037842857657E+00
 0.6258831024660E+00 -0.2301380308305E+00
 0.6974476698555E+00 -0.2523006544702E+00
 0.7660728186741E+00 -0.2705473095574E+00
 0.8321496028926E+00 -0.2852737118796E+00
 0.8959271042968E+00 -0.2968536350562E+00
 0.9575703598645E+00 -0.3056997667541E+00
 0.1017195615172E+01 -0.3123526707620E+00
 0.1074547130911E+01 -0.3155191188227E+00
 0.1129194910774E+01 -0.3140899538473E+00
 0.1180816940417E+01 -0.3081969148617E+00
 0.1229139511351E+01 -0.2981797185321E+00
 0.1274242171404E+01 -0.2848870737597E+00
 0.1316371818183E+01 -0.2691579204287E+00
 0.1355556766118E+01 -0.2513947591839E+00
 0.2134393799085E+00 -0.8405743456487E-01
 0.3091495567770E+00 -0.1179414517727E+00
 0.4003077196788E+00 -0.1558316283269E+00
 0.4851774116825E+00 -0.1921266568557E+00
 0.5644739551231E+00 -0.2241231434206E+00
 0.6393584290865E+00 -0.2511908405325E+00
 0.7107600333438E+00 -0.2735822840889E+00
 0.7792906328025E+00 -0.2918206123001E+00
 0.8453240367867E+00 -0.3064084203159E+00
 0.9090838439683E+00 -0.3177561418961E+00
 0.9707144538281E+00 -0.3262928501483E+00
 0.1030322748742E+01 -0.3325862932565E+00
 0.1087637354262E+01 -0.3351851614293E+00
 0.1142201431727E+01 -0.3328705275900E+00
 0.1193672548165E+01 -0.3258016146569E+00
 0.1241762047794E+01 -0.3143622219266E+00
 0.1286553362499E+01 -0.2994831411828E+00
 0.1328305994181E+01 -0.2820757193761E+00
 0.1367046240669E+01 -0.2625723926480E+00
 0.2222985933312E+00 -0.9108575305675E-01
 0.3218308266426E+00 -0.1313700242142E+00
 0.4142622472046E+00 -0.1742163023667E+00
 0.4990778156249E+00 -0.2132218737954E+00
 0.5779604038863E+00 -0.2462895708665E+00
 0.6524891500078E+00 -0.2736208177240E+00
 0.7236716384583E+00 -0.2959563569552E+00
 0.7920888276457E+00 -0.3140024506454E+00
 0.8580742454963E+00 -0.3283224408040E+00
 0.9218182157220E+00 -0.3393384268523E+00
 0.9834429294020E+00 -0.3474825884335E+00
 0.1043047389441E+01 -0.3533431847067E+00
 0.1100345371592E+01 -0.3553064447521E+00
 0.1154852600038E+01 -0.3520437148913E+00
 0.1206206221453E+01 -0.3437440573153E+00
 0.1254101482485E+01 -0.3308370738263E+00
 0.1298622779394E+01 -0.3143342425988E+00
 0.1340038673768E+01 -0.2952161346653E+00
 0.1378370629199E+01 -0.2739420599005E+00
 0.2330405833927E+00 -0.9985986070538E-01
 0.3359400019806E+00 -0.1480626567665E+00
 0.4287291608689E+00 -0.1958918703291E+00
 0.5128382502892E+00 -0.2367791131293E+00
 0.5910432478350E+00 -0.2701256000029E+00
 0.6651529289070E+00 -0.2972816230962E+00
 0.7361081593898E+00 -0.3193128295353E+00
 0.8044183394289E+00 -0.3370074533871E+00
 0.8703650445631E+00 -0.3509447261887E+00
 0.9341035405622E+00 -0.3615382210959E+00
 0.9957346984044E+00 -0.3692120414917E+00
 0.1055353197640E+01 -0.3745686046212E+00
 0.1112658647538E+01 -0.3758292553962E+00
 0.1167139216040E+01 -0.3715578392972E+00
 0.1218412982723E+01 -0.3619773085731E+00
 0.1266157792346E+01 -0.3475654298700E+00
 0.1310455085592E+01 -0.3294113027442E+00
 0.1351577704377E+01 -0.3085590951659E+00
 0.1389538900957E+01 -0.2854903517979E+00
 0.2462311114437E+00 -0.1114891285496E+00
 0.3513933479234E+00 -0.1693860829251E+00
 0.4432279047872E+00 -0.2213694757538E+00
 0.5260843864978E+00 -0.2625079228321E+00
 0.6035498569207E+00 -0.2953828132146E+00
 0.6772582404246E+00 -0.3220150026468E+00
 0.7480152927565E+00 -0.3435433076313E+00
 0.8162420498805E+00 -0.3607517737595E+00
 0.8821693458784E+00 -0.3742049264564E+00
 0.9459189065924E+00 -0.3842941390778E+00
 0.1007572566368E+01 -0.3914257411665E+00
 0.1067226076103E+01 -0.3962090825248E+00
 0.1124565425138E+01 -0.3966990501120E+00
 0.1179052166267E+01 -0.3913581853927E+00
 0.1230288398473E+01 -0.3804508977231E+00
 0.1277932475096E+01 -0.3645063596711E+00
 0.1322057059305E+01 -0.3446849554838E+00
 0.1362932975329E+01 -0.3220858207798E+00
 0.1400561105256E+01 -0.2972055542797E+00
 0.2627065967849E+00 -0.1283109910754E+00
 0.3675086310040E+00 -0.1979306222660E+00
 0.4569556562433E+00 -0.2500057860614E+00
 0.5385583148481E+00 -0.2899102670950E+00
 0.6153639490564E+00 -0.3218153713582E+00
 0.6887469565334E+00 -0.3476772651275E+00
 0.7593550463361E+00 -0.3685466916059E+00
 0.8275330260232E+00 -0.3851546579570E+00
 0.8934670565676E+00 -0.3980340642210E+00
 0.9572489463152E+00 -0.4075459735377E+00
 0.1018943075640E+01 -0.4140717784769E+00
 0.1078653174922E+01 -0.4182144721551E+00
 0.1136052968489E+01 -0.4178605459610E+00
 0.1190580944639E+01 -0.4113839030263E+00
 0.1241828811554E+01 -0.3991092229709E+00
 0.1289429438202E+01 -0.3816172092289E+00
 0.1333438020272E+01 -0.3601255535630E+00
 0.1374117210572E+01 -0.3357788048358E+00
 0.1411449835877E+01 -0.3090799257079E+00
 0.1334632060507E+01  0.3640725359692E-02
 0.1356493950259E+01  0.7515555339300E-02
 0.1378093968194E+01  0.1143488987547E-01
 0.1399380012853E+01  0.1538916693336E-01
 0.1420292910662E+01  0.1936435099468E-01
 0.1440768119121E+01  0.2334302344127E-01
 0.1460735351839E+01  0.2730544977921E-01
 0.1480118183224E+01  0.3123055578903E-01
 0.1498833875721E+01  0.3509670615846E-01
 0.1516793484992E+01  0.3888247639477E-01
 0.1533902271607E+01  0.4256753396113E-01
 0.1550060457597E+01  0.4613369987778E-01
 0.1565164364246E+01  0.4956621764809E-01
 0.1579107943389E+01  0.5285520547720E-01
 0.1591784689471E+01  0.5599722499493E-01
 0.1603089745738E+01  0.5899676572880E-01
 0.1612922332317E+01  0.6186778483726E-01
 0.1621185559823E+01  0.6463356322644E-01
 0.1627793289087E+01  0.6733370803234E-01
 0.1336527500134E+01  0.3056133650595E-02
 0.1358993373856E+01  0.7044705040392E-02
 0.1381149061577E+01  0.1109461221306E-01
 0.1402944271484E+01  0.1517682563174E-01
 0.1424318469890E+01  0.1926820697358E-01
 0.1445204006592E+01  0.2334459103154E-01
 0.1465526250281E+01  0.2737933545389E-01
 0.1485203542573E+01  0.3134335851625E-01
 0.1504147061711E+01  0.3520565064633E-01
 0.1522260803883E+01  0.3893400738739E-01
 0.1539441770520E+01  0.4249598619414E-01
 0.1555580436959E+01  0.4586014157886E-01
 0.1570561571600E+01  0.4899758366866E-01
 0.1584265478441E+01  0.5188386739589E-01
 0.1596569696058E+01  0.5450113331827E-01
 0.1607351242877E+01  0.5684037275798E-01
 0.1616488757883E+01  0.5890319346083E-01
 0.1623866043436E+01  0.6070336775656E-01
 0.1629362987366E+01  0.6226086559137E-01
 0.1337951411430E+01  0.2572991074804E-02
 0.1360894304465E+01  0.6677578737544E-02
 0.1383491449759E+01  0.1086971866883E-01
 0.1405682057966E+01  0.1510697161274E-01
 0.1427402887276E+01  0.1935606157884E-01
 0.1448584050450E+01  0.2358505457932E-01
 0.1469148401354E+01  0.2776018514698E-01
 0.1489011189983E+01  0.3184475464501E-01
 0.1508079811252E+01  0.3579902986890E-01
 0.1526253578285E+01  0.3958066427097E-01
 0.1543423582551E+01  0.4314550876667E-01
 0.1559472713030E+01  0.4644881918061E-01
 0.1574275929561E+01  0.4944691407781E-01
 0.1587700912904E+01  0.5209932897583E-01
 0.1599609278300E+01  0.5437147033686E-01
 0.1609858471402E+01  0.5623761851004E-01
 0.1618304907928E+01  0.5768403495130E-01
 0.1624806847066E+01  0.5871084669602E-01
 0.1629234536028E+01  0.5933134059776E-01
 0.1338942975796E+01  0.2129726081527E-02
 0.1362248905362E+01  0.6368538706904E-02
 0.1385176413393E+01  0.1071595044116E-01
 0.1407655169985E+01  0.1512845436049E-01
 0.1429617021475E+01  0.1956649551726E-01
 0.1450989742815E+01  0.2399184186206E-01
 0.1471694609381E+01  0.2836457613328E-01
 0.1491645417932E+01  0.3264148203926E-01
 0.1510747853751E+01  0.3677537827645E-01
 0.1528898934770E+01  0.4071509342521E-01
 0.1545986449249E+01  0.4440592905987E-01
 0.1561888404128E+01  0.4779059883147E-01
 0.1576472555805E+01  0.5081071061800E-01
 0.1589596171435E+01  0.5340890101237E-01
 0.1601106259559E+01  0.5553173284290E-01
 0.1610840740474E+01  0.5713343256247E-01
 0.1618630945493E+01  0.5818035950955E-01
 0.1624307404598E+01  0.5865590951121E-01
 0.1627708949314E+01  0.5856659762760E-01
 0.1339530006812E+01  0.1679454103512E-02
 0.1363105017727E+01  0.6066370813391E-02
 0.1386265392419E+01  0.1058154482123E-01
 0.1408935804753E+01  0.1518422094342E-01
 0.1431044037137E+01  0.1983333867246E-01
 0.1452515623789E+01  0.2448719919353E-01
 0.1473270896512E+01  0.2910181374426E-01
 0.1493223387165E+01  0.3362935038764E-01
 0.1512278783854E+01  0.3801715753652E-01
 0.1530333998410E+01  0.4220730319093E-01
 0.1547276158953E+01  0.4613656820560E-01
 0.1562981450097E+01  0.4973689793068E-01
 0.1577313801309E+01  0.5293640068921E-01
 0.1590123507992E+01  0.5566106245370E-01
 0.1601246023944E+01  0.5783743024920E-01
 0.1610501365125E+01  0.5939659412102E-01
 0.1617695098812E+01  0.6027982592283E-01
 0.1622622007206E+01  0.6044645497457E-01
 0.1625074062106E+01  0.5988395695018E-01
 0.1339742791582E+01  0.1183478050672E-02
 0.1363512782562E+01  0.5725603706498E-02
 0.1386827444675E+01  0.1041575505080E-01
 0.1409609688429E+01  0.1521746143017E-01
 0.1431784930907E+01  0.2009088427244E-01
 0.1453277215817E+01  0.2499370551908E-01
 0.1474006522443E+01  0.2988032645783E-01
 0.1493886985901E+01  0.3470066809520E-01
 0.1512825579678E+01  0.3939908444604E-01
 0.1530720896716E+01  0.4391355432408E-01
 0.1547461781560E+01  0.4817517017656E-01
 0.1562925652659E+01  0.5210795358348E-01
 0.1576976405873E+01  0.5562909010191E-01
 0.1589461849961E+01  0.5864977757029E-01
 0.1600210725232E+01  0.6107703050559E-01
 0.1609029595116E+01  0.6281699138349E-01
 0.1615700287215E+01  0.6378061675200E-01
 0.1619979123308E+01  0.6389265856241E-01
 0.1621599888562E+01  0.6310521020105E-01
 0.1339616763482E+01  0.6101566667590E-03
 0.1363530298158E+01  0.5308074078779E-02
 0.1386943539268E+01  0.1017457119461E-01
 0.1409779489868E+01  0.1517759680339E-01
 0.1431962567175E+01  0.2028005267098E-01
 0.1453416129564E+01  0.2544101621601E-01
 0.1474060329536E+01  0.3061546876350E-01
 0.1493810454607E+01  0.3575338880243E-01
 0.1512575557669E+01  0.4079868150709E-01
 0.1530257116531E+01  0.4568813263230E-01
 0.1546747481128E+01  0.5035044610685E-01
 0.1561927888378E+01  0.5470538828301E-01
 0.1575665828197E+01  0.5866309461181E-01
 0.1587811530501E+01  0.6212368185714E-01
 0.1598193339056E+01  0.6497747069722E-01
 0.1606611788222E+01  0.6710641921925E-01
 0.1612832417270E+01  0.6838783277617E-01
 0.1616578244252E+01  0.6870219657320E-01
 0.1617523430469E+01  0.6794668897469E-01
 0.1339192204550E+01 -0.6635714781792E-04
 0.1363223373276E+01  0.4783271153478E-02
 0.1386705373202E+01  0.9822591912851E-02
 0.1409562007923E+01  0.1502355591213E-01
 0.1431717489700E+01  0.2035235906809E-01
 0.1453095020999E+01  0.2577062845500E-01
 0.1473615225119E+01  0.3123541334562E-01
 0.1493194754571E+01  0.3669851483375E-01
 0.1511745034671E+01  0.4210549306998E-01
 0.1529170972703E+01  0.4739451124807E-01
 0.1545369422134E+01  0.5249505616143E-01
 0.1560227163955E+01  0.5732651877776E-01
 0.1573618117720E+01  0.6179660733313E-01
 0.1585399403609E+01  0.6579959832392E-01
 0.1595405726631E+01  0.6921452865072E-01
 0.1603441333550E+01  0.7190365312980E-01
 0.1609268589464E+01  0.7371200401766E-01
 0.1612592169318E+01  0.7446997662541E-01
 0.1613040849251E+01  0.7400334715432E-01
 0.1338500862138E+01 -0.8694892725458E-03
 0.1362640065161E+01  0.4122610911354E-02
 0.1386177957947E+01  0.9325315451183E-02
 0.1409039239934E+01  0.1471390419518E-01
 0.1431148286985E+01  0.2025778727461E-01
 0.1452428446726E+01  0.2592151996273E-01
 0.1472800963800E+01  0.3166492373733E-01
 0.1492183897253E+01  0.3744260618832E-01
 0.1510491070156E+01  0.4320310192993E-01
 0.1527630953574E+01  0.4888773855008E-01
 0.1543505321518E+01  0.5442923157366E-01
 0.1558007461521E+01  0.5974993748307E-01
 0.1571019648706E+01  0.6475963701237E-01
 0.1582409453646E+01  0.6935267292575E-01
 0.1592024203913E+01  0.7340422651929E-01
 0.1599682474361E+01  0.7676551269374E-01
 0.1605160663049E+01  0.7925781036757E-01
 0.1608171477442E+01  0.8066593738317E-01
 0.1608329278529E+01  0.8073495835731E-01
 0.1337534396354E+01 -0.1827988959553E-02
 0.1361749597147E+01  0.3284192755684E-02
 0.1385310813791E+01  0.8626159283169E-02
 0.1408143823099E+01  0.1417581082328E-01
 0.1430173650882E+01  0.1990538222295E-01
 0.1451324323132E+01  0.2578226636449E-01
 0.1471518185332E+01  0.3176919942330E-01
 0.1490675119912E+01  0.3782394659615E-01
 0.1508711743697E+01  0.4389862027459E-01
 0.1525540544571E+01  0.4993868931455E-01
 0.1541068852090E+01  0.5588165483673E-01
 0.1555197486707E+01  0.6165528582336E-01
 0.1567818863715E+01  0.6717521729062E-01
 0.1578814204768E+01  0.7234159477638E-01
 0.1588049272879E+01  0.7703426956462E-01
 0.1595367566656E+01  0.8110575894648E-01
 0.1600578904823E+01  0.8437071032005E-01
 0.1603438969220E+01  0.8658993452812E-01
 0.1603609112900E+01  0.8744626592779E-01
 0.1336289418967E+01 -0.2966969683828E-02
 0.1360531187070E+01  0.2231268926899E-02
 0.1384068429123E+01  0.7675158684121E-02
 0.1406828409207E+01  0.1334445336541E-01
 0.1428737499746E+01  0.1921356078964E-01
 0.1449721218354E+01  0.2525218731078E-01
 0.1469703853499E+01  0.3142554281738E-01
 0.1488607956578E+01  0.3769415567370E-01
 0.1506353799698E+01  0.4401337084756E-01
 0.1522858803231E+01  0.5033256296135E-01
 0.1538036888153E+01  0.5659403358545E-01
 0.1551797678065E+01  0.6273148845286E-01
 0.1564045444267E+01  0.6866789592533E-01
 0.1574677634343E+01  0.7431238712428E-01
 0.1583582717570E+01  0.7955561933675E-01
 0.1590636850793E+01  0.8426258220706E-01
 0.1595698312745E+01  0.8826093909734E-01
 0.1598597101162E+01  0.9132101469142E-01
 0.1599112395536E+01  0.9311864160599E-01
 0.1334777227558E+01 -0.4305398578970E-02
 0.1358993171355E+01  0.9375685474687E-03
 0.1382458054059E+01  0.6437525716153E-02
 0.1405101212398E+01  0.1217523701459E-01
 0.1426851217482E+01  0.1812640748487E-01
 0.1447636098053E+01  0.2426215517807E-01
 0.1467383215842E+01  0.3054918275957E-01
 0.1486019018803E+01  0.3694964780040E-01
 0.1503468778406E+01  0.4342076620881E-01
 0.1519656351960E+01  0.4991416266945E-01
 0.1534503984244E+01  0.5637493881594E-01
 0.1547932162084E+01  0.6274037295341E-01
 0.1559859555945E+01  0.6893808793377E-01
 0.1570203128550E+01  0.7488340534802E-01
 0.1578878581259E+01  0.8047540071332E-01
 0.1585801488222E+01  0.8559079035433E-01
 0.1590889854876E+01  0.9007399149229E-01
 0.1594069732279E+01  0.9371983017256E-01
 0.1595287576058E+01  0.9624042107178E-01
 0.1333016161278E+01 -0.5857498431927E-02
 0.1357158064482E+01 -0.6153744071270E-03
 0.1380507667532E+01  0.4889784493695E-02
 0.1402997090255E+01  0.1063889594727E-01
 0.1424558059187E+01  0.1660799448529E-01
 0.1445122271898E+01  0.2276853211172E-01
 0.1464621498849E+01  0.2908746301324E-01
 0.1482987607642E+01  0.3552708277945E-01
 0.1500152621750E+01  0.4204462726572E-01
 0.1516048889561E+01  0.4859162647829E-01
 0.1530609437756E+01  0.5511297881859E-01
 0.1543768614333E+01  0.6154566918704E-01
 0.1555463198981E+01  0.6781699966108E-01
 0.1565634297198E+01  0.7384212576915E-01
 0.1574230597891E+01  0.7952057990291E-01
 0.1581214102368E+01  0.8473129334812E-01
 0.1586570560249E+01  0.8932536052723E-01
 0.1590329639445E+01  0.9311545357764E-01
 0.1592607528965E+01  0.9586019087879E-01
 0.1331026611350E+01 -0.7633859911534E-02
 0.1355052871826E+01 -0.2440352894787E-02
 0.1378251756367E+01  0.3016605797828E-02
 0.1400558948625E+01  0.8717311748186E-02
 0.1421910326749E+01  0.1463723564634E-01
 0.1442242455457E+01  0.2074716468145E-01
 0.1461492908835E+01  0.2701317693024E-01
 0.1479600580247E+01  0.3339640664690E-01
 0.1496506097649E+01  0.3985258877268E-01
 0.1512152450314E+01  0.4633136891981E-01
 0.1526485951334E+01  0.5277534864669E-01
 0.1539457714006E+01  0.5911881467398E-01
 0.1551025922601E+01  0.6528608104410E-01
 0.1561159358506E+01  0.7118936384924E-01
 0.1569842963403E+01  0.7672613043919E-01
 0.1577086807949E+01  0.8177597752578E-01
 0.1582940987183E+01  0.8619747294217E-01
 0.1587521248670E+01  0.8982658572538E-01
 0.1591056102130E+01  0.9248277086424E-01
 0.1328828454940E+01 -0.9642170884273E-02
 0.1352704164234E+01 -0.4545870514823E-02
 0.1375724134073E+01  0.8087030762170E-03
 0.1397828401128E+01  0.6400609369926E-02
 0.1418957953483E+01  0.1220406538277E-01
 0.1439055347267E+01  0.1818845974234E-01
 0.1458065242031E+01  0.2431823405386E-01
 0.1475934990560E+01  0.3055259171919E-01
 0.1492615403557E+01  0.3684502195088E-01
 0.1508061812090E+01  0.4314263372088E-01
 0.1522235577696E+01  0.4938529530860E-01
 0.1535106256703E+01  0.5550458122798E-01
 0.1546654720903E+01  0.6142255214480E-01
 0.1556877688317E+01  0.6705045581829E-01
 0.1565794351986E+01  0.7228758077177E-01
 0.1573456149955E+01  0.7702081356481E-01
 0.1579961193663E+01  0.8112616748184E-01
 0.1585475331525E+01  0.8447519732908E-01
 0.1590259825742E+01  0.8695332484354E-01
 0.1326439863645E+01 -0.1188767094962E-01
 0.1350135851362E+01 -0.6936974491921E-02
 0.1372954756290E+01 -0.1738462616207E-02
 0.1394841703319E+01  0.3685284308479E-02
 0.1415743634470E+01  0.9306811109897E-02
 0.1435610042222E+01  0.1509372192864E-01
 0.1454393693092E+01  0.2100851449948E-01
 0.1472051459154E+01  0.2700828782393E-01
 0.1488545371598E+01  0.3304432276862E-01
 0.1503844017397E+01  0.3906155083483E-01
 0.1517924422932E+01  0.4499794308425E-01
 0.1530774608593E+01  0.5078388015189E-01
 0.1542397056348E+01  0.5634161922156E-01
 0.1552813404904E+01  0.6158507643393E-01
 0.1562070758489E+01  0.6642033083871E-01
 0.1570250004460E+01  0.7074759507568E-01
 0.1577476289850E+01  0.7446598777858E-01
 0.1583930631552E+01  0.7748340290599E-01
 0.1589857379814E+01  0.7973415002970E-01
 0.1323876776330E+01 -0.1437352143500E-01
 0.1347368214009E+01 -0.9615916196006E-02
 0.1369968355715E+01 -0.4625718158147E-02
 0.1391628040965E+01  0.5726744765810E-03
 0.1412300833527E+01  0.5950000796167E-02
 0.1431943851793E+01  0.1147204442760E-01
 0.1450518637102E+01  0.1709947704180E-01
 0.1467992158804E+01  0.2278762973583E-01
 0.1484338054425E+01  0.2848620885397E-01
 0.1499538206650E+01  0.3413899386512E-01
 0.1513584768321E+01  0.3968358093836E-01
 0.1526482759866E+01  0.4505127544918E-01
 0.1538253372390E+01  0.5016729986074E-01
 0.1548938096399E+01  0.5495158310723E-01
 0.1558603720034E+01  0.5932054920818E-01
 0.1567348009912E+01  0.6319053454528E-01
 0.1575305303310E+01  0.6648370103776E-01
 0.1582649891428E+01  0.6913729608234E-01
 0.1589593369107E+01  0.7111597219235E-01
 0.1321152653949E+01 -0.1710106733176E-01
 0.1344417488988E+01 -0.1258258523176E-01
 0.1366783911052E+01 -0.7850859225728E-02
 0.1388208949793E+01 -0.2932068314525E-02
 0.1408653240197E+01  0.2142847466955E-02
 0.1428081918859E+01  0.7338116042880E-02
 0.1446465578872E+01  0.1261303611473E-01
 0.1463781361850E+01  0.1792186466595E-01
 0.1480014263058E+01  0.2321372100379E-01
 0.1495158720657E+01  0.2843256087424E-01
 0.1509220553664E+01  0.3351730132171E-01
 0.1522219299779E+01  0.3840221423767E-01
 0.1534190972368E+01  0.4301775783019E-01
 0.1545191184232E+01  0.4729208204309E-01
 0.1555298436491E+01  0.5115351946305E-01
 0.1564617082754E+01  0.5453442692697E-01
 0.1573278969465E+01  0.5737667712765E-01
 0.1581442122484E+01  0.5963868603381E-01
 0.1589284497544E+01  0.6130298705458E-01
 0.1318278332145E+01 -0.2007008026593E-01
 0.1341295618578E+01 -0.1583489414545E-01
 0.1363414340591E+01 -0.1140923886589E-01
 0.1384598014419E+01 -0.6820851285105E-02
 0.1404814556606E+01 -0.2102010352813E-02
 0.1424037207894E+01  0.2710448013101E-02
 0.1442245509597E+01  0.7575126484977E-02
 0.1459426392178E+01  0.1244609815167E-01
 0.1475575427208E+01  0.1727301580823E-01
 0.1490698280173E+01  0.2200135768614E-01
 0.1504812381750E+01  0.2657289033806E-01
 0.1517948803581E+01  0.3092645567615E-01
 0.1530154271158E+01  0.3499921842906E-01
 0.1541493155972E+01  0.3872853596238E-01
 0.1552049142694E+01  0.4205461726379E-01
 0.1561926049965E+01  0.4492408366544E-01
 0.1571247032927E+01  0.4729436011438E-01
 0.1580151249725E+01  0.4913845960225E-01
 0.1588787320479E+01  0.5044919496164E-01
 0.1315261862685E+01 -0.2327896326547E-01
 0.1338009969441E+01 -0.1936907394794E-01
 0.1359866149509E+01 -0.1529420429191E-01
 0.1380800506805E+01 -0.1108327466898E-01
 0.1400788209103E+01 -0.6769404132661E-02
 0.1419810397048E+01 -0.2389851847916E-02
 0.1437855119019E+01  0.2014083526627E-02
 0.1454918334753E+01  0.6397241656017E-02
 0.1471005016909E+01  0.1071089851142E-01
 0.1486130358867E+01  0.1490323867086E-01
 0.1500321069383E+01  0.1892006911356E-01
 0.1513616696051E+01  0.2270585422879E-01
 0.1526070864104E+01  0.2620515920730E-01
 0.1537752239146E+01  0.2936458224987E-01
 0.1548744921396E+01  0.3213521888784E-01
 0.1559147873039E+01  0.3447560931476E-01
 0.1569072923717E+01  0.3635495103988E-01
 0.1578640995574E+01  0.3775611883228E-01
 0.1587976543203E+01  0.3867780359398E-01
 0.1312109950881E+01 -0.2672465022146E-01
 0.1334566107149E+01 -0.2317935753362E-01
 0.1356143456315E+01 -0.1949658227711E-01
 0.1376818591078E+01 -0.1570594727831E-01
 0.1396573669043E+01 -0.1184081646302E-01
 0.1415397268518E+01 -0.7938163201052E-02
 0.1433285227659E+01 -0.4038372075004E-02
 0.1450241499790E+01 -0.1849356263034E-03
 0.1466279037975E+01  0.3575992034157E-02
 0.1481420697101E+01  0.7196226638954E-02
 0.1495700111950E+01  0.1062641625770E-01
 0.1509162473313E+01  0.1381718166938E-01
 0.1521865079763E+01  0.1672057349517E-01
 0.1533877491786E+01  0.1929186089518E-01
 0.1545281067267E+01  0.2149161663415E-01
 0.1556167636183E+01  0.2328797934968E-01
 0.1566637118627E+01  0.2465885795350E-01
 0.1576794051137E+01  0.2559372375635E-01
 0.1586743277534E+01  0.2609456750779E-01
 0.1308832771234E+01 -0.3040211886356E-01
 0.1330977021109E+01 -0.2725688561506E-01
 0.1352261291198E+01 -0.2400298318101E-01
 0.1372668362394E+01 -0.2067021404624E-01
 0.1392186912674E+01 -0.1729157560921E-01
 0.1410812287606E+01 -0.1390306997077E-01
 0.1428547204484E+01 -0.1054343013260E-01
 0.1445402418783E+01 -0.7253725539858E-02
 0.1461397358337E+01 -0.4076818071030E-02
 0.1476560704026E+01 -0.1056642653912E-02
 0.1490930868023E+01  0.1762710594905E-02
 0.1504556291702E+01  0.4338129004086E-02
 0.1517495456606E+01  0.6628825800754E-02
 0.1529816478219E+01  0.8597877317482E-02
 0.1541596144459E+01  0.1021387776703E-01
 0.1552918286180E+01  0.1145258154398E-01
 0.1563871445588E+01  0.1229834066606E-01
 0.1574545949284E+01  0.1274510376118E-01
 0.1585030686292E+01  0.1279676030290E-01
 0.1305439127904E+01 -0.3430555211623E-01
 0.1327253831437E+01 -0.3159199074269E-01
 0.1348232280672E+01 -0.2879929159937E-01
 0.1368362978032E+01 -0.2595691040478E-01
 0.1387640493419E+01 -0.2309689210681E-01
 0.1406066129065E+01 -0.2025364707088E-01
 0.1423648464401E+01 -0.1746363314207E-01
 0.1440403814636E+01 -0.1476490997088E-01
 0.1456356609130E+01 -0.1219654843419E-01
 0.1471539668614E+01 -0.9797886295423E-02
 0.1485994336230E+01 -0.7607628023006E-02
 0.1499770397161E+01 -0.5662796487834E-02
 0.1512925707286E+01 -0.3997560258183E-02
 0.1525525447414E+01 -0.2641984034391E-02
 0.1537640933856E+01 -0.1620780566884E-02
 0.1549347957110E+01 -0.9521750624761E-03
 0.1560724693244E+01 -0.6470167910161E-03
 0.1571849331160E+01 -0.7082716758022E-03
 0.1582797648047E+01 -0.1130984624139E-02
 0.1301935292500E+01 -0.3842867649743E-01
 0.1323403528521E+01 -0.3617477378772E-01
 0.1344063422025E+01 -0.3387148925684E-01
 0.1363908598856E+01 -0.3154742587325E-01
 0.1382938781720E+01 -0.2923313675354E-01
 0.1401160338444E+01 -0.2696090198643E-01
 0.1418586656545E+01 -0.2476440252644E-01
 0.1435238391720E+01 -0.2267826304426E-01
 0.1451143604961E+01 -0.2073745947017E-01
 0.1466337774872E+01 -0.1897659868979E-01
 0.1480863651035E+01 -0.1742908572712E-01
 0.1494770901268E+01 -0.1612620283015E-01
 0.1508115501372E+01 -0.1509613748380E-01
 0.1520958822986E+01 -0.1436301249062E-01
 0.1533366396725E+01 -0.1394598828580E-01
 0.1545406366140E+01 -0.1385852012675E-01
 0.1557147701292E+01 -0.1410785310907E-01
 0.1568658298028E+01 -0.1469481863239E-01
 0.1580003130416E+01 -0.1561395856381E-01
 0.1298325416943E+01 -0.4276479899802E-01
 0.1319429729648E+01 -0.4099505354836E-01
 0.1339757174479E+01 -0.3920550746888E-01
 0.1359305802107E+01 -0.3742343827224E-01
 0.1378079678967E+01 -0.3567742545860E-01
 0.1396089315474E+01 -0.3399716807229E-01
 0.1413351868142E+01 -0.3241318731496E-01
 0.1429891186822E+01 -0.3095639301292E-01
 0.1445737736783E+01 -0.2965752381036E-01
 0.1460928394138E+01 -0.2854648388420E-01
 0.1475506093984E+01 -0.2765160526645E-01
 0.1489519302118E+01 -0.2699887058240E-01
 0.1503021282525E+01 -0.2661113830715E-01
 0.1516069143602E+01 -0.2650742085348E-01
 0.1528722666208E+01 -0.2670227207984E-01
 0.1541042944222E+01 -0.2720534057406E-01
 0.1553090899535E+01 -0.2802113326412E-01
 0.1564925762449E+01 -0.2914900865570E-01
 0.1576603630639E+01 -0.3058338585340E-01
 0.1294611852530E+01 -0.4730685389807E-01
 0.1315333250243E+01 -0.4604235117913E-01
 0.1335312270214E+01 -0.4478713670171E-01
 0.1354550615645E+01 -0.4356672846401E-01
 0.1373055852854E+01 -0.4240731058972E-01
 0.1390841719241E+01 -0.4133563638322E-01
 0.1407928154567E+01 -0.4037879423259E-01
 0.1424341160852E+01 -0.3956382509030E-01
 0.1440112540229E+01 -0.3891721785569E-01
 0.1455279522590E+01 -0.3846432055276E-01
 0.1469884274975E+01 -0.3822870731636E-01
 0.1483973278181E+01 -0.3823154176001E-01
 0.1497596559470E+01 -0.3849097875785E-01
 0.1510806780802E+01 -0.3902164837943E-01
 0.1523658197108E+01 -0.3983426523793E-01
 0.1536205514672E+01 -0.4093540045040E-01
 0.1548502691336E+01 -0.4232743786349E-01
 0.1560601726335E+01 -0.4400870843565E-01
 0.1572551495663E+01 -0.4597376000412E-01
 0.1290795562798E+01 -0.5204737157570E-01
 0.1311112855616E+01 -0.5130573116742E-01
 0.1330724781780E+01 -0.5060172150991E-01
 0.1349635873796E+01 -0.4995870325806E-01
 0.1367856350214E+01 -0.4940010002565E-01
 0.1385402299516E+01 -0.4894943524998E-01
 0.1402295540146E+01 -0.4863019067198E-01
 0.1418563306857E+01 -0.4846549204467E-01
 0.1434237834518E+01 -0.4847766958741E-01
 0.1449355862935E+01 -0.4868774726619E-01
 0.1463958063553E+01 -0.4911491010649E-01
 0.1478088382776E+01 -0.4977599273499E-01
 0.1491793300428E+01 -0.5068502809538E-01
 0.1505121011008E+01 -0.5185289225131E-01
 0.1518120545642E+01 -0.5328707751476E-01
 0.1530840859602E+01 -0.5499161961183E-01
 0.1543329907511E+01 -0.5696719267633E-01
 0.1555633710926E+01 -0.5921136193565E-01
 0.1567795401847E+01 -0.6171893884365E-01
 0.1286876550256E+01 -0.5697858691869E-01
 0.1306766031222E+01 -0.5677394301016E-01
 0.1325989201708E+01 -0.5663433123246E-01
 0.1344552573041E+01 -0.5658058339525E-01
 0.1362468196261E+01 -0.5663304722449E-01
 0.1379753704871E+01 -0.5681180664274E-01
 0.1396431995307E+01 -0.5713665288031E-01
 0.1412530749518E+01 -0.5762684289866E-01
 0.1428081891338E+01 -0.5830072200967E-01
 0.1443121006916E+01 -0.5917528339279E-01
 0.1457686733157E+01 -0.6026572194220E-01
 0.1471820111887E+01 -0.6158502598869E-01
 0.1485563911648E+01 -0.6314364075709E-01
 0.1498961927273E+01 -0.6494923111729E-01
 0.1512058275464E+01 -0.6700656665092E-01
 0.1524896708131E+01 -0.6931754820995E-01
 0.1537519959386E+01 -0.7188139171628E-01
 0.1549969110514E+01 -0.7469498014811E-01
 0.1562282881728E+01 -0.7775336021246E-01
 0.1282854892467E+01 -0.6209245054443E-01
 0.1302290939039E+01 -0.6243537396810E-01
 0.1321101248688E+01 -0.6286964165998E-01
 0.1339293463301E+01 -0.6341319464097E-01
 0.1356880710457E+01 -0.6408303301240E-01
 0.1373881462720E+01 -0.6489566407237E-01
 0.1390319017436E+01 -0.6586719052343E-01
 0.1406220859784E+01 -0.6701313039841E-01
 0.1421618014144E+01 -0.6834808625003E-01
 0.1436544412236E+01 -0.6988535799910E-01
 0.1451036277263E+01 -0.7163656416908E-01
 0.1465131518213E+01 -0.7361131317894E-01
 0.1478869134185E+01 -0.7581695161649E-01
 0.1492288637535E+01 -0.7825840791086E-01
 0.1505429513067E+01 -0.8093814538873E-01
 0.1518330736219E+01 -0.8385623782920E-01
 0.1531030373329E+01 -0.8701058538513E-01
 0.1543565278855E+01 -0.9039730723503E-01
 0.1555970814394E+01 -0.9401138871147E-01
 0.1278732606729E+01 -0.6738093284947E-01
 0.1297689969264E+01 -0.6827860972108E-01
 0.1316062990128E+01 -0.6929276061646E-01
 0.1333859642631E+01 -0.7043806448256E-01
 0.1351093485790E+01 -0.7172794644227E-01
 0.1367783260824E+01 -0.7317527819477E-01
 0.1383952134623E+01 -0.7479256403668E-01
 0.1399626902761E+01 -0.7659179222927E-01
 0.1414837255886E+01 -0.7858412278629E-01
 0.1429615123379E+01 -0.8077953034285E-01
 0.1443994079434E+01 -0.8318647200231E-01
 0.1458008795746E+01 -0.8581161695173E-01
 0.1471694534226E+01 -0.8865965555488E-01
 0.1485086684421E+01 -0.9173319601318E-01
 0.1498220360396E+01 -0.9503275266588E-01
 0.1511130081084E+01 -0.9855682994042E-01
 0.1523849570794E+01 -0.1023021129017E+00
 0.1536411735770E+01 -0.1062637982989E+00
 0.1548848946676E+01 -0.1104361983566E+00
 0.1274517128134E+01 -0.7283683160633E-01
 0.1292976422704E+01 -0.7429399177415E-01
 0.1310892551333E+01 -0.7589157032411E-01
 0.1328273141667E+01 -0.7764059565812E-01
 0.1345131711724E+01 -0.7955074674775E-01
 0.1361486881509E+01 -0.8163129334995E-01
 0.1377361330351E+01 -0.8389132822829E-01
 0.1392780838196E+01 -0.8633959743948E-01
 0.1407773488484E+01 -0.8898416732790E-01
 0.1422369014254E+01 -0.9183207067602E-01
 0.1436598248050E+01 -0.9488900224038E-01
 0.1450492644194E+01 -0.9815909061330E-01
 0.1464083857663E+01 -0.1016447519005E+00
 0.1477403378372E+01 -0.1053466217838E+00
 0.1490482231311E+01 -0.1092635595654E+00
 0.1503350763225E+01 -0.1133927171594E+00
 0.1516038551973E+01 -0.1177296656810E+00
 0.1528574516336E+01 -0.1222685793263E+00
 0.1540987417209E+01 -0.1270024904639E+00
 0.1270226440919E+01 -0.7845539014064E-01
 0.1288184443061E+01 -0.8047670909371E-01
 0.1305638648475E+01 -0.8266137783665E-01
 0.1322595876411E+01 -0.8501637132327E-01
 0.1339069384531E+01 -0.8754752625605E-01
 0.1355077518357E+01 -0.9026065937222E-01
 0.1370642321431E+01 -0.9316174771266E-01
 0.1385788419484E+01 -0.9625665942170E-01
 0.1400542189075E+01 -0.9955075109267E-01
 0.1414931136451E+01 -0.1030484916719E+00
 0.1428983411799E+01 -0.1067531722555E+00
 0.1442727408476E+01 -0.1106667109844E+00
 0.1456191421879E+01 -0.1147895420773E+00
 0.1469403361447E+01 -0.1191205729343E+00
 0.1482390521130E+01 -0.1236571933265E+00
 0.1495179421171E+01 -0.1283953198446E+00
 0.1507795739587E+01 -0.1333294524348E+00
 0.1520264368400E+01 -0.1384526931140E+00
 0.1532609680360E+01 -0.1437566130965E+00
 0.1265881016983E+01 -0.8423446528046E-01
 0.1283353401540E+01 -0.8682685492679E-01
 0.1300357966563E+01 -0.8960470769655E-01
 0.1316900574681E+01 -0.9257050126505E-01
 0.1332994316075E+01 -0.9572623331453E-01
 0.1348657349115E+01 -0.9907455768352E-01
 0.1363911109467E+01 -0.1026187486096E+00
 0.1378779067286E+01 -0.1063622241825E+00
 0.1393285910862E+01 -0.1103080251725E+00
 0.1407456997383E+01 -0.1144584013152E+00
 0.1421317952887E+01 -0.1188145341086E+00
 0.1434894353077E+01 -0.1233763749084E+00
 0.1448211453853E+01 -0.1281425665343E+00
 0.1461293962322E+01 -0.1331104192260E+00
 0.1474165851178E+01 -0.1382759166952E+00
 0.1486850221136E+01 -0.1436337312713E+00
 0.1499369210021E+01 -0.1491772207216E+00
 0.1511743911265E+01 -0.1548983524063E+00
 0.1523994202164E+01 -0.1607873983624E+00
 0.1261470434089E+01 -0.9016928460126E-01
 0.1278462710581E+01 -0.9333867131926E-01
 0.1295019829471E+01 -0.9671425283851E-01
 0.1311146982246E+01 -0.1002935436633E+00
 0.1326857445292E+01 -0.1040748859015E+00
 0.1342169352956E+01 -0.1080582620454E+00
 0.1357103525996E+01 -0.1122447806016E+00
 0.1371682198608E+01 -0.1166358780367E+00
 0.1385928302542E+01 -0.1212326523185E+00
 0.1399865040422E+01 -0.1260354273455E+00
 0.1413515590780E+01 -0.1310435093836E+00
 0.1426902870432E+01 -0.1362550731362E+00
 0.1440049324396E+01 -0.1416671241315E+00
 0.1452976735963E+01 -0.1472754982725E+00
 0.1465706058140E+01 -0.1530748701152E+00
 0.1478257273558E+01 -0.1590587489090E+00
 0.1490649270784E+01 -0.1652194522987E+00
 0.1502899689867E+01 -0.1715480451396E+00
 0.1515024505797E+01 -0.1780342164523E+00
 0.1256978012351E+01 -0.9625412905507E-01
 0.1273479239273E+01 -0.1000036345749E+00
 0.1289574933204E+01 -0.1039775554458E+00
 0.1305270573118E+01 -0.1081681941373E+00
 0.1320580198167E+01 -0.1125708632376E+00
 0.1335522023593E+01 -0.1171836820755E+00
 0.1350116087395E+01 -0.1220062755841E+00
 0.1364383150335E+01 -0.1270385708136E+00
 0.1378344198736E+01 -0.1322800394505E+00
 0.1392020181977E+01 -0.1377293031742E+00
 0.1405431828720E+01 -0.1433839679180E+00
 0.1418599481307E+01 -0.1492405830270E+00
 0.1431542929856E+01 -0.1552946590415E+00
 0.1444281242433E+01 -0.1615407026109E+00
 0.1456832595258E+01 -0.1679722409357E+00
 0.1469214104063E+01 -0.1745818165850E+00
 0.1481441690326E+01 -0.1813609493291E+00
 0.1493529957154E+01 -0.1883001302996E+00
 0.1505492056952E+01 -0.1953889839999E+00
 0.1252390708535E+01 -0.1024839921004E+00
 0.1268376236768E+01 -0.1068130594633E+00
 0.1283983139044E+01 -0.1113804879952E+00
 0.1299218985942E+01 -0.1161739967965E+00
 0.1314099186899E+01 -0.1211872513306E+00
 0.1328641841473E+01 -0.1264177359719E+00
 0.1342865757736E+01 -0.1318643047157E+00
 0.1356789832730E+01 -0.1375257429884E+00
 0.1370432846855E+01 -0.1434000898193E+00
 0.1383813366034E+01 -0.1494843909681E+00
 0.1396949648091E+01 -0.1557746615927E+00
 0.1409859529258E+01 -0.1622659392018E+00
 0.1422560287484E+01 -0.1689523665455E+00
 0.1435068483302E+01 -0.1758272719341E+00
 0.1447399776006E+01 -0.1828832242039E+00
 0.1459568727737E+01 -0.1901120450470E+00
 0.1471588583019E+01 -0.1975047576499E+00
 0.1483471265225E+01 -0.2050514962352E+00
 0.1495227625088E+01 -0.2127417048442E+00
 0.1247698837242E+01 -0.1088559226639E+00
 0.1263132856932E+01 -0.1137588503022E+00
 0.1278213547264E+01 -0.1189075684074E+00
 0.1292953112590E+01 -0.1242875742232E+00
 0.1307368201512E+01 -0.1298936185573E+00
 0.1321475898644E+01 -0.1357238165545E+00
 0.1335293073016E+01 -0.1417766801082E+00
 0.1348836315890E+01 -0.1480499428531E+00
 0.1362121974580E+01 -0.1545402188804E+00
 0.1375166148757E+01 -0.1612429983555E+00
 0.1387984641745E+01 -0.1681527596609E+00
 0.1400592876156E+01 -0.1752631123656E+00
 0.1413005779763E+01 -0.1825669388554E+00
 0.1425237639334E+01 -0.1900565199173E+00
 0.1437301917229E+01 -0.1977236326873E+00
 0.1449211008218E+01 -0.2055595966634E+00
 0.1460975987521E+01 -0.2135552480142E+00
 0.1472606153993E+01 -0.2217006894216E+00
 0.1484109701955E+01 -0.2299847417805E+00
 0.1242893615147E+01 -0.1153701616207E+00
 0.1257729727846E+01 -0.1208331351424E+00
 0.1272240708501E+01 -0.1265397123545E+00
 0.1286443754452E+01 -0.1324809304985E+00
 0.1300354338231E+01 -0.1386552380000E+00
 0.1313987160615E+01 -0.1450617173141E+00
 0.1327356488808E+01 -0.1516982618010E+00
 0.1340476354751E+01 -0.1585612627466E+00
 0.1353360611546E+01 -0.1656457520915E+00
 0.1366022922402E+01 -0.1729456297464E+00
 0.1378476716290E+01 -0.1804538818730E+00
 0.1390735123598E+01 -0.1881627747386E+00
 0.1402810892069E+01 -0.1960640285305E+00
 0.1414716275062E+01 -0.2041489761412E+00
 0.1426462872159E+01 -0.2124087035302E+00
 0.1438061407911E+01 -0.2208341658720E+00
 0.1449521333793E+01 -0.2294162019654E+00
 0.1460850467949E+01 -0.2381454800769E+00
 0.1472052698849E+01 -0.2470111768423E+00
 0.1237958252608E+01 -0.1220335830593E+00
 0.1252143907366E+01 -0.1280216121377E+00
 0.1266043067955E+01 -0.1342490534200E+00
 0.1279669180542E+01 -0.1407187117184E+00
 0.1293033769450E+01 -0.1474317922182E+00
 0.1306148432860E+01 -0.1543868349524E+00
 0.1319024828756E+01 -0.1615800941705E+00
 0.1331674592679E+01 -0.1690061317678E+00
 0.1344109252978E+01 -0.1766582490303E+00
 0.1356340179040E+01 -0.1845287900065E+00
 0.1368378546256E+01 -0.1926093658506E+00
 0.1380235307335E+01 -0.2008910397847E+00
 0.1391921159558E+01 -0.2093644969314E+00
 0.1403446494805E+01 -0.2180202128962E+00
 0.1414821314972E+01 -0.2268486299918E+00
 0.1426055068703E+01 -0.2358403323616E+00
 0.1437156401913E+01 -0.2449862550035E+00
 0.1448132346103E+01 -0.2542776551358E+00
 0.1458988113145E+01 -0.2637069656459E+00
</DataArray>
</PointData>
   <DataArray type="Float64" Name="Load" NumberOfComponents="1"    ComponentName0="Load" format="ascii">
 0.1510182769257E+02
 0.1358276979960E+02
 0.1234847292314E+02
 0.1185429087710E+02
 0.1145487512737E+02
 0.1114280821198E+02
 0.1086669001694E+02
 0.1061213070567E+02
 0.1036894460539E+02
 0.1013206855572E+02
 0.9898622288329E+01
 0.9667301850228E+01
 0.9437965798494E+01
 0.9211715831100E+01
 0.8991801935067E+01
 0.8786146573863E+01
 0.8593743296475E+01
 0.8388575984898E+01
 0.8146950393717E+01
 0.7869459098656E+01
 0.7567229311897E+01
 0.7251618152591E+01
 0.6931425221146E+01
 0.6613139310721E+01
 0.6301688126141E+01
 0.6000767185381E+01
 0.5712616480832E+01
 0.5441369917110E+01
 0.5195918629921E+01
 0.4985968581659E+01
 0.4819714227006E+01
 0.4704925064447E+01
 0.4648878875679E+01
 0.4657277479732E+01
 0.4734415503769E+01
 0.4888036730711E+01
 0.5176714046251E+01
 0.5632745988426E+01
 0.6606974712923E+01
 0.7050384963552E+01
 0.1262047044587E+02
 0.1280186461856E+02
 0.1319745951787E+02
 0.1223263563344E+02
 0.1162732403368E+02
 0.1122640142821E+02
 0.1089562504727E+02
 0.1061170073958E+02
 0.1035212079756E+02
 0.1010702596897E+02
 0.9870257696442E+01
 0.9638462165071E+01
 0.9409903367516E+01
 0.9184060676552E+01
 0.8961603839723E+01
 0.8744229110001E+01
 0.8532400700430E+01
 0.8321174402399E+01
 0.8099820362134E+01
 0.7858377637061E+01
 0.7593963660551E+01
 0.7310545013532E+01
 0.7014871139749E+01
 0.6713492536214E+01
 0.6411877764920E+01
 0.6114393950365E+01
 0.5824571012279E+01
 0.5545792286663E+01
 0.5282334720838E+01
 0.5039797653883E+01
 0.4824404783399E+01
 0.4641988568255E+01
 0.4497437507920E+01
 0.4394382628520E+01
 0.4335201504529E+01
 0.4322291274946E+01
 0.4364924789552E+01
 0.4466846164602E+01
 0.4647603772342E+01
 0.4772830080683E+01
 0.4103354587429E+01
 0.8543510822729E+01
 0.1141643096384E+02
 0.1228200157643E+02
 0.1191695469478E+02
 0.1135821511066E+02
 0.1096074550622E+02
 0.1063273367674E+02
 0.1034676269684E+02
 0.1008663171841E+02
 0.9841859055037E+01
 0.9606528959162E+01
 0.9377046477088E+01
 0.9151438962288E+01
 0.8928842702006E+01
 0.8709238366079E+01
 0.8492325550065E+01
 0.8275407436410E+01
 0.8053947463061E+01
 0.7824263399789E+01
 0.7583219390173E+01
 0.7328204700662E+01
 0.7059506304649E+01
 0.6780375460277E+01
 0.6495193166385E+01
 0.6208229469674E+01
 0.5923207705246E+01
 0.5643479419370E+01
 0.5372548328925E+01
 0.5114134043012E+01
 0.4871918952345E+01
 0.4649639804979E+01
 0.4450820087899E+01
 0.4278005910951E+01
 0.4132342309888E+01
 0.4013819397529E+01
 0.3923098645527E+01
 0.3859825741801E+01
 0.3810589050399E+01
 0.3735011507136E+01
 0.3394516022072E+01
 0.2987111927415E+01
 0.7141646770346E+01
 0.1044828366927E+02
 0.1138221918067E+02
 0.1141510603311E+02
 0.1102904347033E+02
 0.1066313024444E+02
 0.1035061190455E+02
 0.1007114886639E+02
 0.9814604245424E+01
 0.9572767541420E+01
 0.9340343368137E+01
 0.9113983958337E+01
 0.8891649918551E+01
 0.8672199460924E+01
 0.8454860996008E+01
 0.8237957324124E+01
 0.8017863448860E+01
 0.7791307924409E+01
 0.7558081767124E+01
 0.7318455602584E+01
 0.7070794998543E+01
 0.6813821604292E+01
 0.6548427934398E+01
 0.6277127417949E+01
 0.6002984152340E+01
 0.5729022683407E+01
 0.5458229091907E+01
 0.5193754923120E+01
 0.4938574220799E+01
 0.4695034515207E+01
 0.4465102212025E+01
 0.4250425354998E+01
 0.4051766090064E+01
 0.3868615764576E+01
 0.3699570170830E+01
 0.3542901727902E+01
 0.3392595297325E+01
 0.3227023579902E+01
 0.2981761478085E+01
 0.2561494218397E+01
 0.2675980744457E+01
 0.6387667589846E+01
 0.9704475419864E+01
 0.1058500914584E+02
 0.1083972860652E+02
 0.1063587891419E+02
 0.1033568571484E+02
 0.1004957234765E+02
 0.9784159529804E+01
 0.9535569224367E+01
 0.9299261370110E+01
 0.9071324145943E+01
 0.8848990028866E+01
 0.8630368883815E+01
 0.8414133522540E+01
 0.8198936008494E+01
 0.7982407125886E+01
 0.7761003467799E+01
 0.7532674416271E+01
 0.7298957264858E+01
 0.7061788965444E+01
 0.6820420309449E+01
 0.6573061129866E+01
 0.6319161093407E+01
 0.6059759699334E+01
 0.5796812000822E+01
 0.5532610980988E+01
 0.5269627523585E+01
 0.5010455973619E+01
 0.4757308734025E+01
 0.4511525987818E+01
 0.4273813663294E+01
 0.4044450220177E+01
 0.3822968404442E+01
 0.3607938368247E+01
 0.3397259577513E+01
 0.3187964851912E+01
 0.2972649875053E+01
 0.2729625355236E+01
 0.2418545091833E+01
 0.2104535793883E+01
 0.2659129344763E+01
 0.5859623849534E+01
 0.9094896752340E+01
 0.9888782116340E+01
 0.1025459173705E+02
 0.1019972872743E+02
 0.9980327541837E+01
 0.9731321596296E+01
 0.9485953523221E+01
 0.9249384030925E+01
 0.9021113148583E+01
 0.8799240826691E+01
 0.8581890157835E+01
 0.8367513748414E+01
 0.8154743799396E+01
 0.7941920314504E+01
 0.7726489223858E+01
 0.7505392099072E+01
 0.7277553325328E+01
 0.7045368283569E+01
 0.6811532932728E+01
 0.6575935239905E+01
 0.6336743285588E+01
 0.6092594154443E+01
 0.5843440137223E+01
 0.5590276338391E+01
 0.5334669239666E+01
 0.5078495966904E+01
 0.4823725577489E+01
 0.4571862808830E+01
 0.4323471890819E+01
 0.4078383850493E+01
 0.3835974926565E+01
 0.3595075074145E+01
 0.3353946222037E+01
 0.3110537460022E+01
 0.2862260137433E+01
 0.2603640056896E+01
 0.2322164626717E+01
 0.2019873049439E+01
 0.1875774676906E+01
 0.2710306724588E+01
 0.5439622418198E+01
 0.8572058034479E+01
 0.9276177146097E+01
 0.9688560611862E+01
 0.9742683393918E+01
 0.9603093548003E+01
 0.9397970536470E+01
 0.9177440947274E+01
 0.8956262748234E+01
 0.8738321792864E+01
 0.8524013938463E+01
 0.8312611950688E+01
 0.8103080888913E+01
 0.7894178351911E+01
 0.7684189981865E+01
 0.7470701177369E+01
 0.7251260051058E+01
 0.7025517852492E+01
 0.6796255013811E+01
 0.6566447622016E+01
 0.6336391387474E+01
 0.6104393345707E+01
 0.5868675191480E+01
 0.5628427565967E+01
 0.5383852021300E+01
 0.5135830874782E+01
 0.4885630935684E+01
 0.4634602307400E+01
 0.4383627472098E+01
 0.4132683105331E+01
 0.3881030981698E+01
 0.3627546871356E+01
 0.3370820446187E+01
 0.3109329926627E+01
 0.2841811985804E+01
 0.2567427440106E+01
 0.2285264613327E+01
 0.1997148120679E+01
 0.1745772076821E+01
 0.1773868117157E+01
 0.2751146862199E+01
 0.5084720010401E+01
 0.8108695523839E+01
 0.8729944333810E+01
 0.9152539132543E+01
 0.9280993355035E+01
 0.9211701835969E+01
 0.9052429966160E+01
 0.8859951937436E+01
 0.8656761994151E+01
 0.8451087771242E+01
 0.8245702857385E+01
 0.8041177738263E+01
 0.7837130894611E+01
 0.7632602040347E+01
 0.7426032714356E+01
 0.7215336344919E+01
 0.6998666009014E+01
 0.6776199132141E+01
 0.6550845870671E+01
 0.6325610805155E+01
 0.6101023744830E+01
 0.5875577381789E+01
 0.5647313519783E+01
 0.5414911568959E+01
 0.5177940648694E+01
 0.4936668639531E+01
 0.4691780364386E+01
 0.4444054989266E+01
 0.4193851906918E+01
 0.3940723669839E+01
 0.3683611324590E+01
 0.3421221731234E+01
 0.3152287977322E+01
 0.2875941590749E+01
 0.2592307276281E+01
 0.2303263920796E+01
 0.2013973415246E+01
 0.1741347747427E+01
 0.1559786847489E+01
 0.1734310746911E+01
 0.2761980753093E+01
 0.4774443214596E+01
 0.7688100484936E+01
 0.8236028548221E+01
 0.8648955921367E+01
 0.8824982356950E+01
 0.8813394865389E+01
 0.8698134368629E+01
 0.8535127428416E+01
 0.8351688239937E+01
 0.8159789702491E+01
 0.7964487772306E+01
 0.7767693321627E+01
 0.7569774030074E+01
 0.7370180250911E+01
 0.7167662225276E+01
 0.6960559564739E+01
 0.6747580666270E+01
 0.6529279803778E+01
 0.6308560272525E+01
 0.6088326817033E+01
 0.5869222863475E+01
 0.5649916809918E+01
 0.5428402746620E+01
 0.5203031095327E+01
 0.4972882388450E+01
 0.4737695193515E+01
 0.4497629556280E+01
 0.4252964478934E+01
 0.4003639473081E+01
 0.3748927095463E+01
 0.3487650547634E+01
 0.3218611902070E+01
 0.2940989115349E+01
 0.2654898396069E+01
 0.2362256519398E+01
 0.2068170532595E+01
 0.1784191568554E+01
 0.1540474294903E+01
 0.1433203762169E+01
 0.1719332871264E+01
 0.2742684791978E+01
 0.4496827733900E+01
 0.7299479585929E+01
 0.7783590145621E+01
 0.8176500859795E+01
 0.8380553488685E+01
 0.8414014225992E+01
 0.8338553461301E+01
 0.8204799201266E+01
 0.8042017712613E+01
 0.7864945728465E+01
 0.7680650213639E+01
 0.7492333986297E+01
 0.7301157893410E+01
 0.7107072770305E+01
 0.6909236893012E+01
 0.6706456725871E+01
 0.6497932368449E+01
 0.6284488227803E+01
 0.6068950517076E+01
 0.5854063648773E+01
 0.5640505638688E+01
 0.5427090927871E+01
 0.5211835506036E+01
 0.4992888896598E+01
 0.4768965201311E+01
 0.4539363968198E+01
 0.4303793682822E+01
 0.4062114783418E+01
 0.3813948028140E+01
 0.3558412079848E+01
 0.3294375670250E+01
 0.3020937997493E+01
 0.2737941348918E+01
 0.2446702139843E+01
 0.2151124083013E+01
 0.1859615072192E+01
 0.1589553802067E+01
 0.1381570911526E+01
 0.1344664708576E+01
 0.1708822008628E+01
 0.2698313401589E+01
 0.4243884093084E+01
 0.6935548036615E+01
 0.7364389639522E+01
 0.7732406756691E+01
 0.7950666928997E+01
 0.8017848232453E+01
 0.7976825659118E+01
 0.7870839954265E+01
 0.7728824864793E+01
 0.7567171645194E+01
 0.7394550551992E+01
 0.7215329906784E+01
 0.7031457352558E+01
 0.6843432697214E+01
 0.6650876475812E+01
 0.6453066889214E+01
 0.6249632480956E+01
 0.6041593067860E+01
 0.5831665016697E+01
 0.5622409319583E+01
 0.5414489404714E+01
 0.5206833089404E+01
 0.4997511688579E+01
 0.4784561956742E+01
 0.4566432092750E+01
 0.4342070832445E+01
 0.4110814736179E+01
 0.3872190144787E+01
 0.3625593958289E+01
 0.3370098955101E+01
 0.3104747191120E+01
 0.2829080414151E+01
 0.2543746466939E+01
 0.2251363857679E+01
 0.1957825646088E+01
 0.1674570265046E+01
 0.1423785902061E+01
 0.1253815651266E+01
 0.1278887585554E+01
 0.1693084929007E+01
 0.2634345379555E+01
 0.4009873834910E+01
 0.6591201953069E+01
 0.6972157669777E+01
 0.7313518035822E+01
 0.7536442357367E+01
 0.7627818188970E+01
 0.7615573543388E+01
 0.7535028194796E+01
 0.7413214027586E+01
 0.7267140880197E+01
 0.7106604330296E+01
 0.6936951595672E+01
 0.6760866308273E+01
 0.6579407216155E+01
 0.6392675181828E+01
 0.6200402885290E+01
 0.6002589490104E+01
 0.5800398236617E+01
 0.5596423858845E+01
 0.5393041181653E+01
 0.5190870461524E+01
 0.4988924045293E+01
 0.4785342095461E+01
 0.4578108549462E+01
 0.4365486822695E+01
 0.4146156493206E+01
 0.3919161532162E+01
 0.3683776106619E+01
 0.3439259084201E+01
 0.3184727089027E+01
 0.2919490867338E+01
 0.2643629621461E+01
 0.2358666950299E+01
 0.2068523860663E+01
 0.1780929752416E+01
 0.1509867405628E+01
 0.1281194438432E+01
 0.1148554453761E+01
 0.1225359846436E+01
 0.1668069655784E+01
 0.2555360410946E+01
 0.3790511245917E+01
 0.6262748205860E+01
 0.6602086598610E+01
 0.6916767600422E+01
 0.7137903398890E+01
 0.7245763451363E+01
 0.7256857323585E+01
 0.7198954342190E+01
 0.7096258856443E+01
 0.6965547793556E+01
 0.6817259387583E+01
 0.6657495929093E+01
 0.6489590677767E+01
 0.6315138605658E+01
 0.6134711077418E+01
 0.5948464289550E+01
 0.5756716602025E+01
 0.5560738222442E+01
 0.5363001823912E+01
 0.5165703921789E+01
 0.4969406796299E+01
 0.4773184435084E+01
 0.4575249144404E+01
 0.4373572700507E+01
 0.4166298398061E+01
 0.3951909423128E+01
 0.3729231790731E+01
 0.3497363272788E+01
 0.3255499636931E+01
 0.3002872958734E+01
 0.2739128655049E+01
 0.2464934118490E+01
 0.2182697790988E+01
 0.1897560825224E+01
 0.1618827566752E+01
 0.1362441998019E+01
 0.1156867580701E+01
 0.1059051915746E+01
 0.1177141942405E+01
 0.1632589863459E+01
 0.2464863413296E+01
 0.3582523251679E+01
 0.5947438189207E+01
 0.6250449332105E+01
 0.6539367784955E+01
 0.6754455889113E+01
 0.6872718409298E+01
 0.6902208899673E+01
 0.6863970910104E+01
 0.6778955146953E+01
 0.6663075692565E+01
 0.6526974976696E+01
 0.6377273228200E+01
 0.6217842172338E+01
 0.6050764772029E+01
 0.5877052384292E+01
 0.5697245329180E+01
 0.5511935484723E+01
 0.5322473796385E+01
 0.5131216109750E+01
 0.4940193478212E+01
 0.4749904350167E+01
 0.4559467454745E+01
 0.4367165838230E+01
 0.4170986791011E+01
 0.3969004620825E+01
 0.3759569109329E+01
 0.3541355599686E+01
 0.3313352855096E+01
 0.3074756592935E+01
 0.2824968453055E+01
 0.2564008328310E+01
 0.2293145097323E+01
 0.2015631580831E+01
 0.1737685803791E+01
 0.1469864084834E+01
 0.1229480321985E+01
 0.1046703479673E+01
 0.9801756348707E+00
 0.1129845788873E+01
 0.1586825897291E+01
 0.2365443083471E+01
 0.3383373400184E+01
 0.5643174955172E+01
 0.5914320908101E+01
 0.6178865941496E+01
 0.6385185476171E+01
 0.6509143694465E+01
 0.6552703278821E+01
 0.6531177930411E+01
 0.6462189238865E+01
 0.6360370905725E+01
 0.6236203622850E+01
 0.6096595732638E+01
 0.5945832668938E+01
 0.5786419104867E+01
 0.5619761335359E+01
 0.5446739408781E+01
 0.5268177683519E+01
 0.5085488084885E+01
 0.4900917143520E+01
 0.4716345044300E+01
 0.4532206140182E+01
 0.4347652175905E+01
 0.4161033829503E+01
 0.3970372913514E+01
 0.3773714926221E+01
 0.3569329461625E+01
 0.3355799757417E+01
 0.3132063347201E+01
 0.2897366768283E+01
 0.2651318944177E+01
 0.2394331317042E+01
 0.2128257047231E+01
 0.1857115467136E+01
 0.1588019105130E+01
 0.1332431148278E+01
 0.1108490348544E+01
 0.9473518716767E+00
 0.9080910184909E+00
 0.1080830374243E+01
 0.1531551185440E+01
 0.2258988381260E+01
 0.3191075188271E+01
 0.5348323180322E+01
 0.5591376595913E+01
 0.5833138725091E+01
 0.6029037880884E+01
 0.6155105191402E+01
 0.6209040743043E+01
 0.6201432059606E+01
 0.6146720994123E+01
 0.6058023616241E+01
 0.5945376191808E+01
 0.5815767674347E+01
 0.5673769128336E+01
 0.5522229708212E+01
 0.5362896212236E+01
 0.5196941385484E+01
 0.5025384627560E+01
 0.4849682987711E+01
 0.4671981493320E+01
 0.4494023947489E+01
 0.4316183633036E+01
 0.4137637693604E+01
 0.3956801121693E+01
 0.3771743448906E+01
 0.3580512706863E+01
 0.3381342265209E+01
 0.3172772625545E+01
 0.2953737827274E+01
 0.2723574181773E+01
 0.2482120715486E+01
 0.2230178375777E+01
 0.1970143794060E+01
 0.1706699317811E+01
 0.1447649990835E+01
 0.1205027449725E+01
 0.9973218403021E+00
 0.8561207555668E+00
 0.8399897338225E+00
 0.1028610942665E+01
 0.1467748813182E+01
 0.2146880907002E+01
 0.3004060782686E+01
 0.5061582257635E+01
 0.5279745227351E+01
 0.5500361270660E+01
 0.5684924846409E+01
 0.5810406583658E+01
 0.5871625581444E+01
 0.5875369282899E+01
 0.5833178563902E+01
 0.5756555330579E+01
 0.5654890369604E+01
 0.5535077064349E+01
 0.5401849089899E+01
 0.5258318172717E+01
 0.5106512090276E+01
 0.4947848362557E+01
 0.4783506795749E+01
 0.4614975920196E+01
 0.4444306258577E+01
 0.4273118590775E+01
 0.4101729881962E+01
 0.3929338125444E+01
 0.3754419738395E+01
 0.3575101201583E+01
 0.3389457278373E+01
 0.3195720599765E+01
 0.2992429220614E+01
 0.2778551513146E+01
 0.2553541297936E+01
 0.2317477407450E+01
 0.2071532802263E+01
 0.1818589741853E+01
 0.1563875127030E+01
 0.1315680678961E+01
 0.1086292862933E+01
 0.8941559416104E+00
 0.7708756705284E+00
 0.7738585630931E+00
 0.9724454464952E+00
 0.1396430757285E+01
 0.2030149918585E+01
 0.2821087990342E+01
 0.4781899339538E+01
 0.4977901983957E+01
 0.5178968605276E+01
 0.5351783851110E+01
 0.5474684575623E+01
 0.5540635024511E+01
 0.5553433822776E+01
 0.5522061670539E+01
 0.5456412218050E+01
 0.5365102488967E+01
 0.5254789221188E+01
 0.5130256798571E+01
 0.4994798083883E+01
 0.4850660713962E+01
 0.4699459532100E+01
 0.4542502404402E+01
 0.4381296860954E+01
 0.4217804538035E+01
 0.4053534904825E+01
 0.3888754045235E+01
 0.3722678411196E+01
 0.3553843550566E+01
 0.3380439323236E+01
 0.3200585603365E+01
 0.3012542172741E+01
 0.2814876346668E+01
 0.2606619287330E+01
 0.2387359851785E+01
 0.2157415229028E+01
 0.1918301048011E+01
 0.1673316342683E+01
 0.1428108248212E+01
 0.1191257142862E+01
 0.9750244363462E+00
 0.7974793634120E+00
 0.6899433472683E+00
 0.7082920200968E+00
 0.9120531966851E+00
 0.1318553286368E+01
 0.1909601556664E+01
 0.2641175169359E+01
 0.4508408366663E+01
 0.4684589352112E+01
 0.4867617253445E+01
 0.5028609497438E+01
 0.5147475728264E+01
 0.5216076450065E+01
 0.5235908417859E+01
 0.5213750396026E+01
 0.5157963216042E+01
 0.5076322415580E+01
 0.4975141989476E+01
 0.4859160012997E+01
 0.4731773448411E+01
 0.4595389832066E+01
 0.4451775437174E+01
 0.4302335853271E+01
 0.4148585689235E+01
 0.3992401709895E+01
 0.3835191930483E+01
 0.3677176993087E+01
 0.3517590831431E+01
 0.3355026359580E+01
 0.3187741174265E+01
 0.3013913856534E+01
 0.2831852531190E+01
 0.2640177624920E+01
 0.2438002983389E+01
 0.2225061037082E+01
 0.2001896769242E+01
 0.1770330683165E+01
 0.1534004049566E+01
 0.1298861437525E+01
 0.1073589619891E+01
 0.8701807258956E+00
 0.7060526256359E+00
 0.6120271326486E+00
 0.6423390134089E+00
 0.8474500914436E+00
 0.1234936575574E+01
 0.1785949449995E+01
 0.2463589116843E+01
 0.4240386420553E+01
 0.4398758275847E+01
 0.4565150353101E+01
 0.4714467850876E+01
 0.4828262412644E+01
 0.4897833198959E+01
 0.4922943124663E+01
 0.4908517053711E+01
 0.4861501712320E+01
 0.4788811061239E+01
 0.4696342525767E+01
 0.4588707519536E+01
 0.4469337188557E+01
 0.4340742242339E+01
 0.4204796913560E+01
 0.4062976087439E+01
 0.3916789798784E+01
 0.3768032344601E+01
 0.3618018266113E+01
 0.3466927779249E+01
 0.3314012155671E+01
 0.3157920275945E+01
 0.2996980212863E+01
 0.2829438885579E+01
 0.2653668127054E+01
 0.2468358317816E+01
 0.2272718284580E+01
 0.2066624909754E+01
 0.1850833322954E+01
 0.1627425793215E+01
 0.1400310173597E+01
 0.1175612990268E+01
 0.9619657429110E+00
 0.7708803833520E+00
 0.6188784936882E+00
 0.5361365177773E+00
 0.5753804949904E+00
 0.7788554505244E+00
 0.1146266406168E+01
 0.1659657871582E+01
 0.2288144763988E+01
 0.3977221886243E+01
 0.4119523895893E+01
 0.4270567352287E+01
 0.4408500754100E+01
 0.4516503739989E+01
 0.4585700341289E+01
 0.4614581177395E+01
 0.4606539360921E+01
 0.4567249702197E+01
 0.4502780024476E+01
 0.4418565475434E+01
 0.4319027346417E+01
 0.4207569816249E+01
 0.4086754730335E+01
 0.3958523894559E+01
 0.3824394981597E+01
 0.3685861977739E+01
 0.3544637626805E+01
 0.3401949192146E+01
 0.3257940806917E+01
 0.3111881334185E+01
 0.2962474399291E+01
 0.2808119961368E+01
 0.2647139601773E+01
 0.2477979218241E+01
 0.2299409876561E+01
 0.2110741134282E+01
 0.1911988917283E+01
 0.1704095718727E+01
 0.1489359973713E+01
 0.1271883231172E+01
 0.1057870330034E+01
 0.8557595343101E+00
 0.6763994770541E+00
 0.5351784147899E+00
 0.4615204576358E+00
 0.5070754026701E+00
 0.7065205838180E+00
 0.1053473959325E+01
 0.1530035320236E+01
 0.2117002557501E+01
 0.3718390830231E+01
 0.3846131913038E+01
 0.3982998313100E+01
 0.4109924453012E+01
 0.4211655858022E+01
 0.4279412045796E+01
 0.4310781328178E+01
 0.4307913697270E+01
 0.4275363488820E+01
 0.4218392855405E+01
 0.4141952330104E+01
 0.4050225640746E+01
 0.3946538359052E+01
 0.3833457031930E+01
 0.3712954204683E+01
 0.3586565816357E+01
 0.3455758543248E+01
 0.3322163197333E+01
 0.3186924335793E+01
 0.3050153556632E+01
 0.2911137653159E+01
 0.2768633783035E+01
 0.2621114069746E+01
 0.2466978315888E+01
 0.2304752590006E+01
 0.2133294162737E+01
 0.1952013593482E+01
 0.1761055512437E+01
 0.1561523692445E+01
 0.1355887177859E+01
 0.1148374442126E+01
 0.9451807216275E+00
 0.7544392319080E+00
 0.5861747110507E+00
 0.4543780515408E+00
 0.3876289174690E+00
 0.4372547724742E+00
 0.6309548396799E+00
 0.9567513783915E+00
 0.1399324384276E+01
 0.1939480304848E+01
 0.3463439199518E+01
 0.3577932762528E+01
 0.3701682409038E+01
 0.3818025184750E+01
 0.3913184821547E+01
 0.3978662174376E+01
 0.4011436622343E+01
 0.4012667687675E+01
 0.3985940196434E+01
 0.3935767486059E+01
 0.3866611747423E+01
 0.3782386150973E+01
 0.3686295580806E+01
 0.3580870911066E+01
 0.3468082432069E+01
 0.3349461896770E+01
 0.3226437724924E+01
 0.3100557355215E+01
 0.2972885780396E+01
 0.2843504778844E+01
 0.2711719287897E+01
 0.2576338662288E+01
 0.2435906484022E+01
 0.2288902029844E+01
 0.2133934090074E+01
 0.1969947318148E+01
 0.1796449116275E+01
 0.1613698854104E+01
 0.1422933910340E+01
 0.1226750738024E+01
 0.1029447228544E+01
 0.8371409067267E+00
 0.6575786980755E+00
 0.4998199692619E+00
 0.3761230664683E+00
 0.3140618580798E+00
 0.3659758810478E+00
 0.5526161709157E+00
 0.8571163000884E+00
 0.1265993322060E+01
 0.1762860568680E+01
 0.3211969214913E+01
 0.3314361586175E+01
 0.3425950054464E+01
 0.3532153323180E+01
 0.3620574340314E+01
 0.3683119538386E+01
 0.3716389850847E+01
 0.3720771681141E+01
 0.3699024555055E+01
 0.3654979431339E+01
 0.3592620619692E+01
 0.3515570240217E+01
 0.3426879511415E+01
 0.3329009409998E+01
 0.3223898938216E+01
 0.3113055344585E+01
 0.2997858290053E+01
 0.2879769574901E+01
 0.2759776548135E+01
 0.2637933075269E+01
 0.2513562197218E+01
 0.2385523918174E+01
 0.2252431715673E+01
 0.2112843686156E+01
 0.1965450972195E+01
 0.1809283269139E+01
 0.1643937235709E+01
 0.1469770629666E+01
 0.1288126786647E+01
 0.1101690982712E+01
 0.9147857325384E+00
 0.7334084538927E+00
 0.5648790718051E+00
 0.4171773630484E+00
 0.3003522063123E+00
 0.2405569209263E+00
 0.2935070217324E+00
 0.4723009431585E+00
 0.7551184659340E+00
 0.1130921818091E+01
 0.1587108893529E+01
 0.2963628832842E+01
 0.3054922548572E+01
 0.3155208095091E+01
 0.3251717021786E+01
 0.3333330036725E+01
 0.3392439019862E+01
 0.3425446055644E+01
 0.3432148927126E+01
 0.3414615577673E+01
 0.3376065438313E+01
 0.3320025695058E+01
 0.3249817346950E+01
 0.3168313278922E+01
 0.3077876303214E+01
 0.2980389040692E+01
 0.2877316082500E+01
 0.2769978402610E+01
 0.2659749304511E+01
 0.2547539402461E+01
 0.2433375810036E+01
 0.2316599311111E+01
 0.2196118750972E+01
 0.2070615202073E+01
 0.1938723372551E+01
 0.1799214044140E+01
 0.1651196860319E+01
 0.1494347668562E+01
 0.1329105058114E+01
 0.1156892295344E+01
 0.9804519943477E+00
 0.8041039134762E+00
 0.6337192396246E+00
 0.4762156894734E+00
 0.3384490690512E+00
 0.2275589790834E+00
 0.1669828950674E+00
 0.2206098932560E+00
 0.3911641634571E+00
 0.6516972394891E+00
 0.9949369962751E+00
 0.1412094361233E+01
 0.2718103483642E+01
 0.2799176439013E+01
 0.2888927538981E+01
 0.2976175890814E+01
 0.3050981361663E+01
 0.3106269533602E+01
 0.3138382509064E+01
 0.3146684407171E+01
 0.3132672886886E+01
 0.3099027338303E+01
 0.3048845585309E+01
 0.2985145813981E+01
 0.2910605228921E+01
 0.2827465773998E+01
 0.2737532395064E+01
 0.2642211026895E+01
 0.2542754715707E+01
 0.2440445027117E+01
 0.2336115938468E+01
 0.2229768313973E+01
 0.2120759981470E+01
 0.2008046545760E+01
 0.1890373754983E+01
 0.1766449485963E+01
 0.1635119625876E+01
 0.1495566626614E+01
 0.1347533866921E+01
 0.1191523167099E+01
 0.1029015056005E+01
 0.8627883557297E+00
 0.6971578583244E+00
 0.5379203511697E+00
 0.3917446003775E+00
 0.2645500619042E+00
 0.1597403801277E+00
 0.9348767370568E-01
 0.1495349035982E+00
 0.3113342237150E+00
 0.5482779462793E+00
 0.8589209506739E+00
 0.1237942456201E+01
 0.2475109520238E+01
 0.2546730780611E+01
 0.2626633376879E+01
 0.2705034997350E+01
 0.2773081967871E+01
 0.2824259601485E+01
 0.2854956578423E+01
 0.2864232373550E+01
 0.2853122549096E+01
 0.2823835921918E+01
 0.2779073023794E+01
 0.2721554012498E+01
 0.2653749309689E+01
 0.2577762321844E+01
 0.2495302593501E+01
 0.2407703502440E+01
 0.2316141701093E+01
 0.2221803577679E+01
 0.2125445944729E+01
 0.2027043361916E+01
 0.1925969679679E+01
 0.1821224923644E+01
 0.1711616099638E+01
 0.1595919863750E+01
 0.1473051327187E+01
 0.1342257216865E+01
 0.1203336053640E+01
 0.1056836470658E+01
 0.9042791258906E+00
 0.7484733622235E+00
 0.5937667422529E+00
 0.4460399218740E+00
 0.3121620817256E+00
 0.1981182394638E+00
 0.1044914092483E+00
 0.2388978361225E-01
 0.8969818385595E-01
 0.2374811038400E+00
 0.4472636263734E+00
 0.7241572484803E+00
 0.1065124021326E+01
 0.2234388966765E+01
 0.2297231868789E+01
 0.2367896112335E+01
 0.2437839327603E+01
 0.2499209093965E+01
 0.2546061140410E+01
 0.2574911853211E+01
 0.2584622702904E+01
 0.2575862352179E+01
 0.2550434717400E+01
 0.2510677271476E+01
 0.2459021702903E+01
 0.2397725705694E+01
 0.2328740909618E+01
 0.2253667000130E+01
 0.2173752899712E+01
 0.2090091233154E+01
 0.2003769728029E+01
 0.1915467044561E+01
 0.1825130929549E+01
 0.1732149950622E+01
 0.1635565994331E+01
 0.1534243525651E+01
 0.1427022904544E+01
 0.1312881664073E+01
 0.1191121488430E+01
 0.1061583790227E+01
 0.9248502416570E+00
 0.7824732709745E+00
 0.6373117741801E+00
 0.4938552281718E+00
 0.3584515292817E+00
 0.2393916081993E+00
 0.1464249820725E+00
 0.8725527089065E-01
 0.5953046910634E-01
 0.8056295982008E-01
 0.1811619747944E+00
 0.3533965447888E+00
 0.5929174786861E+00
 0.8946803092839E+00
 0.1995705265454E+01
 0.2050358306184E+01
 0.2112324687554E+01
 0.2174168762185E+01
 0.2228962339113E+01
 0.2271331928633E+01
 0.2297982869299E+01
 0.2307666204075E+01
 0.2300766521912E+01
 0.2278743607070E+01
 0.2243606607277E+01
 0.2197511597970E+01
 0.2142501717682E+01
 0.2080367373003E+01
 0.2012586859565E+01
 0.1940314618820E+01
 0.1864552473531E+01
 0.1786286087693E+01
 0.1706114665937E+01
 0.1623958281420E+01
 0.1539218678680E+01
 0.1450976869469E+01
 0.1358150709242E+01
 0.1259638730830E+01
 0.1154473550771E+01
 0.1042002297395E+01
 0.9220981407955E+00
 0.7953667216145E+00
 0.6633983523956E+00
 0.5291645096703E+00
 0.3975520855204E+00
 0.2763076219990E+00
 0.1784932590619E+00
 0.1257439085031E+00
 0.1237321626056E+00
 0.1335417492191E+00
 0.1355930723137E+00
 0.1656366093643E+00
 0.2770951386793E+00
 0.4698157439840E+00
 0.7287909218658E+00
 0.1758839797235E+01
 0.1805815706459E+01
 0.1859560547428E+01
 0.1913633564914E+01
 0.1961962088938E+01
 0.1999737110462E+01
 0.2023898724296E+01
 0.2033159039760E+01
 0.2027689923668E+01
 0.2008662272730E+01
 0.1977790887967E+01
 0.1936971135207E+01
 0.1888032925354E+01
 0.1832599154128E+01
 0.1772017760395E+01
 0.1707340396321E+01
 0.1639472167011E+01
 0.1569293443663E+01
 0.1497322474675E+01
 0.1423450534999E+01
 0.1347090818438E+01
 0.1267360591688E+01
 0.1183226852745E+01
 0.1093640512917E+01
 0.9976817421663E+00
 0.8947340154000E+00
 0.7846935259457E+00
 0.6681889997889E+00
 0.5468809045105E+00
 0.4240060687441E+00
 0.3054553797741E+00
 0.2028296438416E+00
 0.1417353702538E+00
 0.1474464055748E+00
 0.1837558959937E+00
 0.2087992859627E+00
 0.2105572176649E+00
 0.2032795778258E+00
 0.2390842403714E+00
 0.3651875853585E+00
 0.5722473370518E+00
 0.1523589006849E+01
 0.1563332317021E+01
 0.1609272631714E+01
 0.1655870359557E+01
 0.1697847774133E+01
 0.1730950025926E+01
 0.1752385852612E+01
 0.1760886448380E+01
 0.1756471857238E+01
 0.1740073537365E+01
 0.1713144243850E+01
 0.1677334548983E+01
 0.1634264758202E+01
 0.1585386521642E+01
 0.1531910651350E+01
 0.1474779247925E+01
 0.1414795616512E+01
 0.1352731842476E+01
 0.1289023608217E+01
 0.1223532067472E+01
 0.1155679976601E+01
 0.1084617867907E+01
 0.1009357502463E+01
 0.9288962448130E+00
 0.8423543973540E+00
 0.7491438164953E+00
 0.6491794420080E+00
 0.5431274619922E+00
 0.4328049709883E+00
 0.3220846410995E+00
 0.2194850098017E+00
 0.1472493445629E+00
 0.1453772397274E+00
 0.1967060171946E+00
 0.2505421655185E+00
 0.2845359234591E+00
 0.2912817235686E+00
 0.2745964689407E+00
 0.2593963036619E+00
 0.3013121546416E+00
 0.4364606503535E+00
 0.1289762003529E+01
 0.1322655367984E+01
 0.1361153124666E+01
 0.1400538560210E+01
 0.1436276100199E+01
 0.1464652618618E+01
 0.1483170241226E+01
 0.1490626021192E+01
 0.1486939668527E+01
 0.1472846820638E+01
 0.1449568153157E+01
 0.1418525535311E+01
 0.1381134832319E+01
 0.1338674708566E+01
 0.1292213921348E+01
 0.1242579624776E+01
 0.1190469028207E+01
 0.1136543203033E+01
 0.1081153594016E+01
 0.1024129733480E+01
 0.9649018715350E+00
 0.9026506436361E+00
 0.8364280129476E+00
 0.7652717540162E+00
 0.6883352174004E+00
 0.6050528125995E+00
 0.5153624879341E+00
 0.4200148815290E+00
 0.3212063193397E+00
 0.2244843227499E+00
 0.1462325030970E+00
 0.1302255555618E+00
 0.1850915609361E+00
 0.2573014088879E+00
 0.3195695749398E+00
 0.3605627444141E+00
 0.3746005052933E+00
 0.3611776411686E+00
 0.3290127702017E+00
 0.3069895716573E+00
 0.3483682769553E+00
 0.1057178537980E+01
 0.1083547997578E+01
 0.1114913824670E+01
 0.1147317230810E+01
 0.1176919393243E+01
 0.1200535720999E+01
 0.1215979490369E+01
 0.1222151006985E+01
 0.1218912713847E+01
 0.1206842327538E+01
 0.1186955628414E+01
 0.1160461386615E+01
 0.1128577101505E+01
 0.1092408212525E+01
 0.1052878010636E+01
 0.1010694501110E+01
 0.9664452221816E+00
 0.9206777522346E+00
 0.8736575432497E+00
 0.8251807570225E+00
 0.7746827367826E+00
 0.7213706531948E+00
 0.6643316308959E+00
 0.6026373961125E+00
 0.5354676056229E+00
 0.4622772456225E+00
 0.3830502277574E+00
 0.2987553211904E+00
 0.2126477696567E+00
 0.1358888873831E+00
 0.1088400160390E+00
 0.1615663052235E+00
 0.2425409796831E+00
 0.3222685443906E+00
 0.3893894263577E+00
 0.4367608796821E+00
 0.4594347956661E+00
 0.4550671861759E+00
 0.4254221754583E+00
 0.3805999127088E+00
 0.3481788529531E+00
 0.8256672789618E+00
 0.8457866367242E+00
 0.8702830280620E+00
 0.8959024027788E+00
 0.9194643444682E+00
 0.9382998151916E+00
 0.9505456468211E+00
 0.9552349044264E+00
 0.9522082853638E+00
 0.9419179632562E+00
 0.9251989446950E+00
 0.9030615277649E+00
 0.8765313314961E+00
 0.8465414341130E+00
 0.8138674988651E+00
 0.7790952237330E+00
 0.7426995387845E+00
 0.7051122062944E+00
 0.6665106754422E+00
 0.6266554361606E+00
 0.5849836980460E+00
 0.5407244496820E+00
 0.4929934046531E+00
 0.4408880188373E+00
 0.3836068058834E+00
 0.3206305835733E+00
 0.2520645297722E+00
 0.1795635037931E+00
 0.1107017120225E+00
 0.8292289590572E-01
 0.1365385557394E+00
 0.2199619689800E+00
 0.3070599744041E+00
 0.3889387669038E+00
 0.4594081003911E+00
 0.5130238243727E+00
 0.5452594754218E+00
 0.5529872046226E+00
 0.5350421484521E+00
 0.4936165428763E+00
 0.4373648551383E+00
 0.5950643322877E+00
 0.6091587616538E+00
 0.6270028698168E+00
 0.6460051239900E+00
 0.6636121532193E+00
 0.6776583332038E+00
 0.6866121669379E+00
 0.6896621465822E+00
 0.6866558835651E+00
 0.6779470975490E+00
 0.6642109756026E+00
 0.6462727337902E+00
 0.6249727442110E+00
 0.6010735075999E+00
 0.5752020639551E+00
 0.5478196710600E+00
 0.5192862989538E+00
 0.4899154726937E+00
 0.4597937965923E+00
 0.4286422412963E+00
 0.3958942341927E+00
 0.3607922030220E+00
 0.3224683626346E+00
 0.2800296086754E+00
 0.2326766516789E+00
 0.1799324834888E+00
 0.1223361399440E+00
 0.6578125394154E-01
 0.5733582630043E-01
 0.1213719478296E+00
 0.2025139421577E+00
 0.2884094852411E+00
 0.3743796565202E+00
 0.4561807302465E+00
 0.5293267570731E+00
 0.5892454391514E+00
 0.6317423545532E+00
 0.6533857423461E+00
 0.6517166871325E+00
 0.6257475106431E+00
 0.5768118855504E+00
 0.3652119788450E+00
 0.3734609548721E+00
 0.3848272679937E+00
 0.3973521172118E+00
 0.4090858957288E+00
 0.4183553322392E+00
 0.4239644206537E+00
 0.4252730494635E+00
 0.4221578481912E+00
 0.4148962744023E+00
 0.4040219467375E+00
 0.3901877419238E+00
 0.3740563433452E+00
 0.3562233660302E+00
 0.3371685615615E+00
 0.3172288781853E+00
 0.2966485182350E+00
 0.2756202674389E+00
 0.2541349631676E+00
 0.2318661476152E+00
 0.2082311023445E+00
 0.1824660683249E+00
 0.1536869393888E+00
 0.1209498049311E+00
 0.8333474299710E-01
 0.4019585407213E-01
 0.1345674106402E-01
 0.6836420196920E-01
 0.1323790890639E+00
 0.2032582560035E+00
 0.2798851777971E+00
 0.3605300752740E+00
 0.4427574905221E+00
 0.5234564007015E+00
 0.5989655331607E+00
 0.6653168741651E+00
 0.7186316636078E+00
 0.7554030459930E+00
 0.7725613177020E+00
 0.7676970013552E+00
 0.7393505925021E+00
 0.1359579658610E+00
 0.1384974414265E+00
 0.1435236603285E+00
 0.1497163280059E+00
 0.1557265105085E+00
 0.1603607470038E+00
 0.1627512119984E+00
 0.1624350903624E+00
 0.1593361515723E+00
 0.1536814325759E+00
 0.1458929078284E+00
 0.1364840006856E+00
 0.1259769249224E+00
 0.1148453185608E+00
 0.1034794510352E+00
 0.9217066911498E-01
 0.8115535821873E-01
 0.7065253756496E-01
 0.6079127296103E-01
 0.5166577489028E-01
 0.4373618663091E-01
 0.3866488793653E-01
 0.4000581740527E-01
 0.5087622104850E-01
 0.7115574954191E-01
 0.9975760102654E-01
 0.1362740871253E+00
 0.1807295171103E+00
 0.2331704986491E+00
 0.2933886213026E+00
 0.3607382994418E+00
 0.4340211078242E+00
 0.5114191354259E+00
 0.5904845149080E+00
 0.6681981339230E+00
 0.7411258058403E+00
 0.8057132041205E+00
 0.8584897950025E+00
 0.8960670353075E+00
 0.9152707230988E+00
 0.9133221636300E+00
 0.9285168290822E-01
 0.9592518638569E-01
 0.9718272169831E-01
 0.9754953383923E-01
 0.9793151354412E-01
 0.9903103901392E-01
 0.1012639822854E+00
 0.1047678181801E+00
 0.1094640621924E+00
 0.1151350160393E+00
 0.1214917715117E+00
 0.1282276545259E+00
 0.1350583391599E+00
 0.1417505881039E+00
 0.1481415324899E+00
 0.1541496698305E+00
 0.1597456608715E+00
 0.1649288477032E+00
 0.1698099529883E+00
 0.1746786602384E+00
 0.1799834931447E+00
 0.1863147281177E+00
 0.1944067461846E+00
 0.2051472463463E+00
 0.2195733747421E+00
 0.2388333437735E+00
 0.2641014469533E+00
 0.2964611148239E+00
 0.3367722135824E+00
 0.3855340981534E+00
 0.4427743359898E+00
 0.5079711286141E+00
 0.5799998151741E+00
 0.6571069337761E+00
 0.7369243798355E+00
 0.8165563541126E+00
 0.8927913811561E+00
 0.9622495679757E+00
 0.1021345446835E+01
 0.1066385093857E+01
 0.1093749122951E+01
 0.3213535312873E+00
 0.3299872918317E+00
 0.3374345713309E+00
 0.3439809268694E+00
 0.3499239846068E+00
 0.3554976478072E+00
 0.3608289361820E+00
 0.3659291790219E+00
 0.3707121520880E+00
 0.3750275397889E+00
 0.3786985468633E+00
 0.3815557803527E+00
 0.3834634213171E+00
 0.3843370338709E+00
 0.3841545007124E+00
 0.3829618039837E+00
 0.3808544032455E+00
 0.3779632926561E+00
 0.3745074972913E+00
 0.3708359667224E+00
 0.3674142942974E+00
 0.3648123107603E+00
 0.3637043887957E+00
 0.3648786831190E+00
 0.3692488619712E+00
 0.3778590465900E+00
 0.3918681862823E+00
 0.4125031038570E+00
 0.4409669421573E+00
 0.4783003244965E+00
 0.5252256107518E+00
 0.5820051453959E+00
 0.6483277564490E+00
 0.7232301737280E+00
 0.8050577390346E+00
 0.8914892075912E+00
 0.9796797097350E+00
 0.1066366587625E+01
 0.1147812106971E+01
 0.1219884159976E+01
 0.1278268850599E+01
 0.5496976351518E+00
 0.5638755599106E+00
 0.5775075517766E+00
 0.5903126655084E+00
 0.6020349289421E+00
 0.6124384236727E+00
 0.6213080701207E+00
 0.6284549460395E+00
 0.6337238316612E+00
 0.6370005124762E+00
 0.6382171221846E+00
 0.6373549457089E+00
 0.6344449949774E+00
 0.6295672570867E+00
 0.6228496236359E+00
 0.6144672919734E+00
 0.6046358449311E+00
 0.5936083452138E+00
 0.5816969046229E+00
 0.5692906870016E+00
 0.5568570253812E+00
 0.5449445556875E+00
 0.5341928599860E+00
 0.5253475680414E+00
 0.5192790584973E+00
 0.5170022906157E+00
 0.5196906896816E+00
 0.5286729881646E+00
 0.5453956325526E+00
 0.5713329411309E+00
 0.6078429098101E+00
 0.6559853582373E+00
 0.7163318507265E+00
 0.7887979283289E+00
 0.8725194628698E+00
 0.9658018177124E+00
 0.1066195523351E+01
 0.1170569365581E+01
 0.1275042095056E+01
 0.1375055848463E+01
 0.1465627736023E+01
 0.7780255391980E+00
 0.7977705599886E+00
 0.8176110382140E+00
 0.8367082436060E+00
 0.8542583985305E+00
 0.8695553638276E+00
 0.8820369486262E+00
 0.8913075368079E+00
 0.8971376029271E+00
 0.8994459978390E+00
 0.8982729488912E+00
 0.8937510627965E+00
 0.8860794290969E+00
 0.8755035406174E+00
 0.8623016324883E+00
 0.8467772763452E+00
 0.8292639820979E+00
 0.8101332833072E+00
 0.7897850988803E+00
 0.7686418949753E+00
 0.7471653241025E+00
 0.7258771775195E+00
 0.7053817781135E+00
 0.6863907414499E+00
 0.6697507203729E+00
 0.6564750984467E+00
 0.6477765057056E+00
 0.6450907013783E+00
 0.6500803251487E+00
 0.6645996049885E+00
 0.6905899122508E+00
 0.7298928013726E+00
 0.7839991306373E+00
 0.8537776289445E+00
 0.9392359216680E+00
 0.1039368633505E+01
 0.1152156722093E+01
 0.1274610848194E+01
 0.1402698557179E+01
 0.1531417344296E+01
 0.1655091478124E+01
 0.1006479378988E+01
 0.1031852924215E+01
 0.1057962469170E+01
 0.1083408848274E+01
 0.1106837801324E+01
 0.1127070536411E+01
 0.1143196524407E+01
 0.1154614002706E+01
 0.1161021305253E+01
 0.1162373466449E+01
 0.1158822089525E+01
 0.1150653919176E+01
 0.1138238108014E+01
 0.1121986679195E+01
 0.1102328284703E+01
 0.1079694043331E+01
 0.1054533772395E+01
 0.1027335149983E+01
 0.9985826957999E+00
 0.9687279568897E+00
 0.9382219679439E+00
 0.9075547963131E+00
 0.8772920261540E+00
 0.8481110061348E+00
 0.8208393658732E+00
 0.7964988480497E+00
 0.7763533432510E+00
 0.7619521079796E+00
 0.7551648608999E+00
 0.7581965252025E+00
 0.7735331061249E+00
 0.8037757543635E+00
 0.8513542114982E+00
 0.9181539248765E+00
 0.1005137648189E+01
 0.1112061390051E+01
 0.1237379591239E+01
 0.1378256722934E+01
 0.1530494648531E+01
 0.1688611764120E+01
 0.1846191314342E+01
 0.1235201804257E+01
 0.1266304039806E+01
 0.1298780876747E+01
 0.1330662412428E+01
 0.1360035342880E+01
 0.1385243544112E+01
 0.1405028336908E+01
 0.1418586295660E+01
 0.1425550734553E+01
 0.1425920697583E+01
 0.1419966141100E+01
 0.1408133188548E+01
 0.1390964309422E+01
 0.1369039509201E+01
 0.1342937888015E+01
 0.1313217105475E+01
 0.1280441596638E+01
 0.1245213041198E+01
 0.1208097826404E+01
 0.1169573039839E+01
 0.1130074802301E+01
 0.1090056707291E+01
 0.1050041019246E+01
 0.1010667383349E+01
 0.9727432620529E+00
 0.9373006389487E+00
 0.9056587841888E+00
 0.8794831862922E+00
 0.8608455533839E+00
 0.8522829432971E+00
 0.8567968170744E+00
 0.8777257867961E+00
 0.9184492806586E+00
 0.9819258642580E+00
 0.1070159402876E+01
 0.1183749482215E+01
 0.1321677225805E+01
 0.1481278009158E+01
 0.1658171856853E+01
 0.1846354687948E+01
 0.2038604864854E+01
 0.1464336770943E+01
 0.1501307272619E+01
 0.1540287969288E+01
 0.1578720816109E+01
 0.1614119433517E+01
 0.1644343432776E+01
 0.1667787291730E+01
 0.1683453976323E+01
 0.1690923571054E+01
 0.1690251500952E+01
 0.1681836689517E+01
 0.1666292307213E+01
 0.1644338684437E+01
 0.1616725694857E+01
 0.1584182838020E+01
 0.1547393017777E+01
 0.1507033321524E+01
 0.1463817153927E+01
 0.1418390053134E+01
 0.1371251201601E+01
 0.1322817552432E+01
 0.1273501244400E+01
 0.1223775805035E+01
 0.1174237874392E+01
 0.1125670326722E+01
 0.1079112553642E+01
 0.1035937980033E+01
 0.9979270108244E+00
 0.9673479254861E+00
 0.9470555910498E+00
 0.9405433827580E+00
 0.9518664187592E+00
 0.9853595705169E+00
 0.1045106237941E+01
 0.1134240945488E+01
 0.1254300466590E+01
 0.1404858328422E+01
 0.1583446006101E+01
 0.1785486840653E+01
 0.2004404710258E+01
 0.2232096014816E+01
 0.1694030417095E+01
 0.1737049274637E+01
 0.1782709691157E+01
 0.1827840786822E+01
 0.1869363558601E+01
 0.1904644241583E+01
 0.1931733076033E+01
 0.1949451267643E+01
 0.1957342318951E+01
 0.1955535056103E+01
 0.1944571629996E+01
 0.1925242292156E+01
 0.1898450968832E+01
 0.1865119612978E+01
 0.1826127891897E+01
 0.1782282270442E+01
 0.1734370147702E+01
 0.1683214125465E+01
 0.1629536039086E+01
 0.1573853618459E+01
 0.1516560227398E+01
 0.1458021195287E+01
 0.1398655123361E+01
 0.1339008927336E+01
 0.1279834155784E+01
 0.1222171449088E+01
 0.1167443131181E+01
 0.1117539455024E+01
 0.1074917944360E+01
 0.1042738013294E+01
 0.1024964245442E+01
 0.1026348059508E+01
 0.1052181920391E+01
 0.1107722327611E+01
 0.1197328382790E+01
 0.1323580745133E+01
 0.1486726263238E+01
 0.1684528581106E+01
 0.1912202903603E+01
 0.2162546311319E+01
 0.2426482849697E+01
 0.1924432004720E+01
 0.1973721384209E+01
 0.2026277955489E+01
 0.2078285495386E+01
 0.2126047085391E+01
 0.2166424440759E+01
 0.2197127894708E+01
 0.2216813043162E+01
 0.2225008718837E+01
 0.2221939029836E+01
 0.2208307280494E+01
 0.2185093088896E+01
 0.2153390726807E+01
 0.2114296582630E+01
 0.2068839926928E+01
 0.2017948607625E+01
 0.1962517547763E+01
 0.1903475716250E+01
 0.1841618207602E+01
 0.1777477593770E+01
 0.1711418998729E+01
 0.1643755178219E+01
 0.1574842895122E+01
 0.1505171420182E+01
 0.1435452375333E+01
 0.1366718841468E+01
 0.1300433457867E+01
 0.1238587785533E+01
 0.1183818681631E+01
 0.1139576178916E+01
 0.1110276266108E+01
 0.1101346333423E+01
 0.1119035238597E+01
 0.1169817685106E+01
 0.1259376063942E+01
 0.1391456496485E+01
 0.1567078311297E+01
 0.1784287230692E+01
 0.2038084077302E+01
 0.2320579391920E+01
 0.2621619885934E+01
 0.2155694944926E+01
 0.2211521151126E+01
 0.2271232540215E+01
 0.2330326430275E+01
 0.2384456610649E+01
 0.2429967336587E+01
 0.2464235733775E+01
 0.2485772979773E+01
 0.2494120981245E+01
 0.2489626146584E+01
 0.2473174530467E+01
 0.2445949480517E+01
 0.2409243129292E+01
 0.2364328557384E+01
 0.2312383547357E+01
 0.2254454530573E+01
 0.2191540653264E+01
 0.2124674096638E+01
 0.2054719992768E+01
 0.1982221899903E+01
 0.1907511831198E+01
 0.1830843816850E+01
 0.1752505212410E+01
 0.1672918672839E+01
 0.1592745701901E+01
 0.1513000754610E+01
 0.1435175284565E+01
 0.1361350340149E+01
 0.1294329258117E+01
 0.1237837029207E+01
 0.1196720754780E+01
 0.1177062389370E+01
 0.1186062256846E+01
 0.1231454773839E+01
 0.1320349059168E+01
 0.1457794937572E+01
 0.1645705111444E+01
 0.1882474579286E+01
 0.2162890691232E+01
 0.2478312574992E+01
 0.2817388056246E+01
 0.2387977931509E+01
 0.2450654026303E+01
 0.2517823182035E+01
 0.2584245482796E+01
 0.2644887537093E+01
 0.2695561760166E+01
 0.2733322020717E+01
 0.2756562280405E+01
 0.2764871806745E+01
 0.2758751781731E+01
 0.2739296247233E+01
 0.2707908473652E+01
 0.2666086407767E+01
 0.2615281670589E+01
 0.2556818701677E+01
 0.2491858947221E+01
 0.2421501897042E+01
 0.2346879458541E+01
 0.2268923425113E+01
 0.2188184378803E+01
 0.2104956178270E+01
 0.2019427646357E+01
 0.1931808592217E+01
 0.1842445174421E+01
 0.1751937208079E+01
 0.1661267472045E+01
 0.1571942088524E+01
 0.1486116613298E+01
 0.1406744818619E+01
 0.1337808505407E+01
 0.1284564026524E+01
 0.1253724477177E+01
 0.1253432264692E+01
 0.1292718418679E+01
 0.1380226304480E+01
 0.1522466020729E+01
 0.1722390299327E+01
 0.1978832103664E+01
 0.2286375771516E+01
 0.2635558716099E+01
 0.3013689159230E+01
 0.2621446213553E+01
 0.2691335263345E+01
 0.2766311918215E+01
 0.2840337251477E+01
 0.2907645791558E+01
 0.2963502818175E+01
 0.3004653311166E+01
 0.3029408453144E+01
 0.3037446551786E+01
 0.3029461826132E+01
 0.3006785090072E+01
 0.2971057221759E+01
 0.2923989959081E+01
 0.2867214527399E+01
 0.2802199125613E+01
 0.2730215711008E+01
 0.2652459592590E+01
 0.2570158593164E+01
 0.2484307686623E+01
 0.2395460477941E+01
 0.2303867528372E+01
 0.2209645724344E+01
 0.2112918727332E+01
 0.2013945559718E+01
 0.1913251599507E+01
 0.1811773151258E+01
 0.1711014431403E+01
 0.1613187447987E+01
 0.1521376967962E+01
 0.1439800357096E+01
 0.1374098877009E+01
 0.1331590411264E+01
 0.1321344669577E+01
 0.1353720081266E+01
 0.1439004536464E+01
 0.1585344702696E+01
 0.1796910383620E+01
 0.2073087935767E+01
 0.2408281849607E+01
 0.2792131749356E+01
 0.3210443044997E+01
 0.2856273044021E+01
 0.2933792088637E+01
 0.3016975737381E+01
 0.3098911597630E+01
 0.3173049655665E+01
 0.3234092601802E+01
 0.3278496829778E+01
 0.3304533922435E+01
 0.3312021279107E+01
 0.3301890533171E+01
 0.3275741419018E+01
 0.3235471147597E+01
 0.3183012736036E+01
 0.3120176849251E+01
 0.3048571186475E+01
 0.2969572595254E+01
 0.2884466970727E+01
 0.2794573935924E+01
 0.2700948128845E+01
 0.2604142226256E+01
 0.2504358342000E+01
 0.2401634551160E+01
 0.2295999431844E+01
 0.2187613641712E+01
 0.2076914410967E+01
 0.1964775263446E+01
 0.1852679714480E+01
 0.1742875171416E+01
 0.1638554372966E+01
 0.1544145361497E+01
 0.1465646645980E+01
 0.1410950712881E+01
 0.1390033315552E+01
 0.1414603024375E+01
 0.1496703182203E+01
 0.1646313964794E+01
 0.1869034930275E+01
 0.2164954627211E+01
 0.2528337878053E+01
 0.2947844361870E+01
 0.3407586609318E+01
 0.3092641349396E+01
 0.3178266208871E+01
 0.3270109612811E+01
 0.3360296494581E+01
 0.3441431693567E+01
 0.3507640778147E+01
 0.3555119747249E+01
 0.3582154335324E+01
 0.3588760553420E+01
 0.3576158213133E+01
 0.3546251165729E+01
 0.3501212129980E+01
 0.3443201781517E+01
 0.3374208317733E+01
 0.3295972963028E+01
 0.3209970523904E+01
 0.3117571481980E+01
 0.3020182877195E+01
 0.2918915547798E+01
 0.2814317446154E+01
 0.2706537187857E+01
 0.2595527131420E+01
 0.2481211647842E+01
 0.2363641408185E+01
 0.2243151067244E+01
 0.2120533822234E+01
 0.1997231703427E+01
 0.1875503564690E+01
 0.1758623349819E+01
 0.1651200731553E+01
 0.1559559669364E+01
 0.1492132311138E+01
 0.1459771542986E+01
 0.1475548461735E+01
 0.1553370413100E+01
 0.1705268822620E+01
 0.1938527170583E+01
 0.2254126768565E+01
 0.2646255983836E+01
 0.3102506191589E+01
 0.3605074107115E+01
 0.3330745676225E+01
 0.3425016740990E+01
 0.3526030006733E+01
 0.3624841219547E+01
 0.3713140759012E+01
 0.3784464985356E+01
 0.3834788082498E+01
 0.3862476450167E+01
 0.3867814886395E+01
 0.3852368699164E+01
 0.3818383605401E+01
 0.3768326700278E+01
 0.3704590851403E+01
 0.3629337558654E+01
 0.3544433495276E+01
 0.3451442986046E+01
 0.3351814285401E+01
 0.3247037254188E+01
 0.3138275627833E+01
 0.3026069113627E+01
 0.2910507993876E+01
 0.2791452100726E+01
 0.2668712449359E+01
 0.2542217932470E+01
 0.2412185769916E+01
 0.2279310363456E+01
 0.2144969767898E+01
 0.2011407575939E+01
 0.1881948303417E+01
 0.1761349555774E+01
 0.1656223982472E+01
 0.1575502727017E+01
 0.1530877998508E+01
 0.1536782813257E+01
 0.1609090618379E+01
 0.1762121643476E+01
 0.2005145219955E+01
 0.2340278356629E+01
 0.2761727749024E+01
 0.3255922342652E+01
 0.3802878571476E+01
 0.3570794484508E+01
 0.3674323670626E+01
 0.3785078952828E+01
 0.3892919941640E+01
 0.3988544052247E+01
 0.4064890934254E+01
 0.4117765106617E+01
 0.4145695496851E+01
 0.4149317751547E+01
 0.4130606536954E+01
 0.4092189003228E+01
 0.4036844231988E+01
 0.3967199111058E+01
 0.3885581248316E+01
 0.3793972181807E+01
 0.3694015607293E+01
 0.3587229892860E+01
 0.3475182989895E+01
 0.3359088518414E+01
 0.3239474829930E+01
 0.3116369377216E+01
 0.2989532883281E+01
 0.2858654011437E+01
 0.2723528167783E+01
 0.2584240178240E+01
 0.2441366636186E+01
 0.2296197777865E+01
 0.2150932690015E+01
 0.2008911900748E+01
 0.1875002136555E+01
 0.1756062160052E+01
 0.1661474681908E+01
 0.1603723216509E+01
 0.1598586201559E+01
 0.1663993602194E+01
 0.1816809193803E+01
 0.2068644211610E+01
 0.2423059813582E+01
 0.2874419576908E+01
 0.3407892014976E+01
 0.4000994334272E+01
 0.3813012876759E+01
 0.3926491972921E+01
 0.4047628847516E+01
 0.4164935762026E+01
 0.4268029176700E+01
 0.4349252088749E+01
 0.4404309101393E+01
 0.4431991889645E+01
 0.4433382097240E+01
 0.4410933867865E+01
 0.4367696130507E+01
 0.4306775128533E+01
 0.4231029911075E+01
 0.4142943344142E+01
 0.4044598322694E+01
 0.3937705872488E+01
 0.3823845960567E+01
 0.3704659869034E+01
 0.3581408532932E+01
 0.3454606393508E+01
 0.3324214041404E+01
 0.3189886867245E+01
 0.3051182528507E+01
 0.2907751604732E+01
 0.2759531855781E+01
 0.2606962963367E+01
 0.2451222594221E+01
 0.2294433864433E+01
 0.2139914859706E+01
 0.1992597094440E+01
 0.1859536178534E+01
 0.1750511070894E+01
 0.1678736994269E+01
 0.1661302334780E+01
 0.1718265853760E+01
 0.1869301963787E+01
 0.2128779840782E+01
 0.2502094633343E+01
 0.2983966445253E+01
 0.3558206881467E+01
 0.4199440860274E+01
 0.4057645876718E+01
 0.4181856566444E+01
 0.4314088109754E+01
 0.4441325261606E+01
 0.4552006113796E+01
 0.4637888754460E+01
 0.4694670292923E+01
 0.4721527162008E+01
 0.4720096292185E+01
 0.4693386991053E+01
 0.4644909663412E+01
 0.4578109030363E+01
 0.4496069660864E+01
 0.4401414452680E+01
 0.4296310816073E+01
 0.4182523004609E+01
 0.4061683230925E+01
 0.3935501453505E+01
 0.3805283972150E+01
 0.3671529474963E+01
 0.3534128242517E+01
 0.3392624596934E+01
 0.3246437075957E+01
 0.3095060777806E+01
 0.2938272456800E+01
 0.2776356228974E+01
 0.2610352086691E+01
 0.2442273934227E+01
 0.2275375224962E+01
 0.2114602092020E+01
 0.1967150168346E+01
 0.1843130224419E+01
 0.1756416571872E+01
 0.1725349923339E+01
 0.1772164280490E+01
 0.1919616442457E+01
 0.2185314103169E+01
 0.2576975886281E+01
 0.3089962944248E+01
 0.3706648290372E+01
 0.4398268407041E+01
 0.4304962405743E+01
 0.4440788319937E+01
 0.4584907905347E+01
 0.4722563605331E+01
 0.4840908987622E+01
 0.4931146347310E+01
 0.4989086740764E+01
 0.5014438980330E+01
 0.5009519446842E+01
 0.4977972608549E+01
 0.4923807495791E+01
 0.4850813076308E+01
 0.4762286827815E+01
 0.4660971353999E+01
 0.4549098021344E+01
 0.4428468009810E+01
 0.4300755633838E+01
 0.4167735147040E+01
 0.4030757083299E+01
 0.3890303406960E+01
 0.3746191335447E+01
 0.3597848989211E+01
 0.3444548415388E+01
 0.3285619611112E+01
 0.3120665628434E+01
 0.2949797447900E+01
 0.2773892607992E+01
 0.2594821379851E+01
 0.2415726987411E+01
 0.2241514007383E+01
 0.2079452892192E+01
 0.1939911350826E+01
 0.1837335603874E+01
 0.1791235769401E+01
 0.1826032842476E+01
 0.1967831108794E+01
 0.2238024343972E+01
 0.2647263535080E+01
 0.3191950067537E+01
 0.3852980811552E+01
 0.4597566565291E+01
 0.4555260151244E+01
 0.4703701397446E+01
 0.4860590176479E+01
 0.5009170236448E+01
 0.5135197423249E+01
 0.5229372537717E+01
 0.5287778915674E+01
 0.5310835083804E+01
 0.5301676069656E+01
 0.5264663781079E+01
 0.5204338018012E+01
 0.5124830267538E+01
 0.5029631096618E+01
 0.4921576704406E+01
 0.4802937803507E+01
 0.4675533900526E+01
 0.4541070559803E+01
 0.4401382423506E+01
 0.4257864171990E+01
 0.4110981108102E+01
 0.3960475418509E+01
 0.3805654587956E+01
 0.3645637749350E+01
 0.3479581597563E+01
 0.3306904607039E+01
 0.3127528875114E+01
 0.2942145850321E+01
 0.2752447343691E+01
 0.2561417885601E+01
 0.2373858355300E+01
 0.2197039740120E+01
 0.2041500001399E+01
 0.1922153878670E+01
 0.1859569621722E+01
 0.1880322609210E+01
 0.2014107000406E+01
 0.2286716763094E+01
 0.2712485153933E+01
 0.3289396715351E+01
 0.3996935383110E+01
 0.4797477262359E+01
 0.4808871585345E+01
 0.4971062316278E+01
 0.5141697271676E+01
 0.5301715162045E+01
 0.5435357204487E+01
 0.5532912866821E+01
 0.5590942645566E+01
 0.5610785994356E+01
 0.5596550042735E+01
 0.5553395653931E+01
 0.5486417438067E+01
 0.5400077995968E+01
 0.5298032728186E+01
 0.5183178939607E+01
 0.5057797772117E+01
 0.4923706108372E+01
 0.4782629318755E+01
 0.4636459236913E+01
 0.4486635889531E+01
 0.4333609166307E+01
 0.4177045101265E+01
 0.4016126876277E+01
 0.3849815435981E+01
 0.3677087809296E+01
 0.3497169489945E+01
 0.3309780612265E+01
 0.3115405009092E+01
 0.2915521773306E+01
 0.2712906208488E+01
 0.2512187716237E+01
 0.2320553974286E+01
 0.2148613328619E+01
 0.2011627680419E+01
 0.1931080876878E+01
 0.1935615608644E+01
 0.2058714517927E+01
 0.2331244109050E+01
 0.2772144963409E+01
 0.3381680809460E+01
 0.4138163387524E+01
 0.4998216973639E+01
 0.5066171480939E+01
 0.5243401213381E+01
 0.5428863536717E+01
 0.5600825772762E+01
 0.5741899796099E+01
 0.5842104303726E+01
 0.5898740052312E+01
 0.5914316349609E+01
 0.5894077941972E+01
 0.5844061053404E+01
 0.5769927248999E+01
 0.5676446812023E+01
 0.5567402160250E+01
 0.5445712397794E+01
 0.5313635724700E+01
 0.5172963096581E+01
 0.5025427799224E+01
 0.4872976634599E+01
 0.4717097723948E+01
 0.4558228114183E+01
 0.4395957427167E+01
 0.4229341671614E+01
 0.4057179678118E+01
 0.3878264740675E+01
 0.3691624167388E+01
 0.3496766673334E+01
 0.3293950180180E+01
 0.3084408564820E+01
 0.2870656399911E+01
 0.2657078892971E+01
 0.2450686878640E+01
 0.2262044829233E+01
 0.2106620557031E+01
 0.2006637254248E+01
 0.1992652606649E+01
 0.2102068303106E+01
 0.2371530373916E+01
 0.2825731413022E+01
 0.3468116863164E+01
 0.4276103284706E+01
 0.5200097479611E+01
 0.5327586397822E+01
 0.5521325982247E+01
 0.5722809302666E+01
 0.5907194037688E+01
 0.6055360094401E+01
 0.6157266051487E+01
 0.6211288047140E+01
 0.6221394741166E+01
 0.6194141786751E+01
 0.6136506106852E+01
 0.6054711978159E+01
 0.5953799518800E+01
 0.5837629891229E+01
 0.5709097676016E+01
 0.5570400298005E+01
 0.5423277177867E+01
 0.5269457342311E+01
 0.5110941598673E+01
 0.4949270729617E+01
 0.4784872936836E+01
 0.4617261989906E+01
 0.4445364634227E+01
 0.4267815205144E+01
 0.4083221988556E+01
 0.3890412903761E+01
 0.3688680476328E+01
 0.3478042921709E+01
 0.3259459578706E+01
 0.3035133250827E+01
 0.2809128467132E+01
 0.2588176397218E+01
 0.2382668089741E+01
 0.2208114304250E+01
 0.2087264872795E+01
 0.2052366887351E+01
 0.2144766139916E+01
 0.2407621095558E+01
 0.2872690667233E+01
 0.3548047931102E+01
 0.4409978718196E+01
 0.5403008846092E+01
 0.5593606791258E+01
 0.5805540173028E+01
 0.6024357790248E+01
 0.6221583743352E+01
 0.6376291484388E+01
 0.6478686710229E+01
 0.6528643909540E+01
 0.6531922001425E+01
 0.6496561389905E+01
 0.6430526103737E+01
 0.6340577387091E+01
 0.6231970688941E+01
 0.6108586684071E+01
 0.5973242222461E+01
 0.5828031820013E+01
 0.5674615537182E+01
 0.5514705843854E+01
 0.5350358144889E+01
 0.5183172538305E+01
 0.5013573861748E+01
 0.4841001289927E+01
 0.4664250924028E+01
 0.4481791967913E+01
 0.4292049776647E+01
 0.4093656561691E+01
 0.3885689735302E+01
 0.3667919919529E+01
 0.3441007404737E+01
 0.3206794452982E+01
 0.2968946392246E+01
 0.2733803721199E+01
 0.2511438995339E+01
 0.2317219394510E+01
 0.2174170563816E+01
 0.2115919948771E+01
 0.2187650645288E+01
 0.2439699615456E+01
 0.2912580520487E+01
 0.3620372481396E+01
 0.4540328041415E+01
 0.5603696592142E+01
 0.5864802656407E+01
 0.6096865871392E+01
 0.6334455531718E+01
 0.6544837161663E+01
 0.6705256879537E+01
 0.6806606669323E+01
 0.6850787463478E+01
 0.6845717992237E+01
 0.6801086597612E+01
 0.6725861893140E+01
 0.6627289326691E+01
 0.6510766708193E+01
 0.6380124119211E+01
 0.6238041153918E+01
 0.6086463343761E+01
 0.5926941452881E+01
 0.5761159099795E+01
 0.5591228716884E+01
 0.5418818708342E+01
 0.5244357495510E+01
 0.5067211389777E+01
 0.4886045048086E+01
 0.4699163871498E+01
 0.4504816335869E+01
 0.4301448471482E+01
 0.4087930740983E+01
 0.3863785713058E+01
 0.3629356767557E+01
 0.3386081292252E+01
 0.3137147216994E+01
 0.2888387226480E+01
 0.2649395505034E+01
 0.2435184502766E+01
 0.2268764214734E+01
 0.2184746669931E+01
 0.2231863206292E+01
 0.2468209316659E+01
 0.2944867577971E+01
 0.3684538312121E+01
 0.4664906698757E+01
 0.5812378653640E+01
 0.6141844007305E+01
 0.6396273225563E+01
 0.6654196969414E+01
 0.6877880064492E+01
 0.7042813855522E+01
 0.7141194330382E+01
 0.7177599409638E+01
 0.7162507122352E+01
 0.7107389859559E+01
 0.7022197194902E+01
 0.6914573479359E+01
 0.6789966445647E+01
 0.6652075505863E+01
 0.6503378261649E+01
 0.6345621819973E+01
 0.6180215693692E+01
 0.6008802403890E+01
 0.5833555917584E+01
 0.5656224478908E+01
 0.5477248382941E+01
 0.5295922932128E+01
 0.5110780938801E+01
 0.4919967563629E+01
 0.4721565147119E+01
 0.4513849949025E+01
 0.4295502026646E+01
 0.4065804452444E+01
 0.3824774480491E+01
 0.3573407261565E+01
 0.3314338516274E+01
 0.3052773004566E+01
 0.2797654081041E+01
 0.2563403498904E+01
 0.2372682598241E+01
 0.2260599566722E+01
 0.2278937496520E+01
 0.2493884259748E+01
 0.2969263765657E+01
 0.3739200997857E+01
 0.4784741035230E+01
 0.6023902148210E+01
 0.6425528068475E+01
 0.6704918936945E+01
 0.6984853882591E+01
 0.7221723248201E+01
 0.7389491213340E+01
 0.7482514491141E+01
 0.7508835527655E+01
 0.7481903090618E+01
 0.7415059762329E+01
 0.7319157290366E+01
 0.7202116244324E+01
 0.7069322644504E+01
 0.6924257139736E+01
 0.6769127141515E+01
 0.6605429341149E+01
 0.6434398055513E+01
 0.6257622408190E+01
 0.6077344634825E+01
 0.5895407020543E+01
 0.5712271087881E+01
 0.5527162599088E+01
 0.5338482306311E+01
 0.5144221294707E+01
 0.4942312053696E+01
 0.4730885475393E+01
 0.4508457437197E+01
 0.4274090689070E+01
 0.4027477889773E+01
 0.3769144406048E+01
 0.3501106091880E+01
 0.3227821205218E+01
 0.2957401361556E+01
 0.2703418875098E+01
 0.2487810965840E+01
 0.2345602307410E+01
 0.2330883415166E+01
 0.2517928917242E+01
 0.2985552230180E+01
 0.3783338755876E+01
 0.4898801925660E+01
 0.6238902344375E+01
 0.6716815944562E+01
 0.7024196952823E+01
 0.7327910128698E+01
 0.7577457514870E+01
 0.7745753257563E+01
 0.7830487002229E+01
 0.7844096794935E+01
 0.7803393739793E+01
 0.7723596382290E+01
 0.7616309637665E+01
 0.7489567032748E+01
 0.7348564111908E+01
 0.7196469866375E+01
 0.7035152347471E+01
 0.6865804355823E+01
 0.6689448982537E+01
 0.6507609257850E+01
 0.6322604639294E+01
 0.6136388305814E+01
 0.5949452925352E+01
 0.5760955107008E+01
 0.5569163307897E+01
 0.5371923857086E+01
 0.5167042247610E+01
 0.4952537561690E+01
 0.4726798645276E+01
 0.4488699240380E+01
 0.4237621799915E+01
 0.3973607256710E+01
 0.3697995543911E+01
 0.3414387296646E+01
 0.3129879658174E+01
 0.2856918951771E+01
 0.2616302467206E+01
 0.2442301326706E+01
 0.2390306544355E+01
 0.2542151305456E+01
 0.2993852068860E+01
 0.3815665104221E+01
 0.5005674007302E+01
 0.6458435362817E+01
 0.7016882921392E+01
 0.7355805924848E+01
 0.7685101680976E+01
 0.7946237104779E+01
 0.8111946696607E+01
 0.8184833761087E+01
 0.8182796077678E+01
 0.8126327427959E+01
 0.8032409544131E+01
 0.7913167003435E+01
 0.7776542224486E+01
 0.7627398756527E+01
 0.7468500867583E+01
 0.7301310413804E+01
 0.7126662698392E+01
 0.6945331182157E+01
 0.6758759005872E+01
 0.6569353755650E+01
 0.6379198762541E+01
 0.6188827506668E+01
 0.5997325838901E+01
 0.5802829560993E+01
 0.5603053586216E+01
 0.5395707117397E+01
 0.5178741325055E+01
 0.4950467181116E+01
 0.4709614210521E+01
 0.4455283923371E+01
 0.4187034271896E+01
 0.3905489852030E+01
 0.3613297390259E+01
 0.3316364425619E+01
 0.3025726404986E+01
 0.2760590484650E+01
 0.2553720166284E+01
 0.2460530679259E+01
 0.2569196749834E+01
 0.2994774943751E+01
 0.3834648814386E+01
 0.5103753741772E+01
 0.6683790574362E+01
 0.7327188772895E+01
 0.7701839903491E+01
 0.8058460748767E+01
 0.8329243464466E+01
 0.8488223359487E+01
 0.8545012459865E+01
 0.8524123078291E+01
 0.8449902987891E+01
 0.8340821275558E+01
 0.8209193704306E+01
 0.8062631004663E+01
 0.7905517491977E+01
 0.7740125547678E+01
 0.7567450531284E+01
 0.7387918215095E+01
 0.7202011101518E+01
 0.7011076314516E+01
 0.6817621751860E+01
 0.6623881937664E+01
 0.6430439311319E+01
 0.6236304231151E+01
 0.6039479507212E+01
 0.5837567377101E+01
 0.5628220930378E+01
 0.5409378813683E+01
 0.5179336081643E+01
 0.4936737308479E+01
 0.4680448975019E+01
 0.4409566792808E+01
 0.4123982713304E+01
 0.3825316804956E+01
 0.3518131891848E+01
 0.3211774300852E+01
 0.2923389994906E+01
 0.2683408284125E+01
 0.2545735823840E+01
 0.2602833784734E+01
 0.2989705449930E+01
 0.3838667796447E+01
 0.5191054146265E+01
 0.6916558925955E+01
 0.7649578091382E+01
 0.8064911466534E+01
 0.8450360182178E+01
 0.8727616310975E+01
 0.8874429995591E+01
 0.8910136651101E+01
 0.8867010825240E+01
 0.8773166092858E+01
 0.8648073852469E+01
 0.8503815475978E+01
 0.8347403237138E+01
 0.8182598990319E+01
 0.8011109353094E+01
 0.7833414585138E+01
 0.7649482672690E+01
 0.7459460067911E+01
 0.7264577447722E+01
 0.7067455154666E+01
 0.6870500491782E+01
 0.6674349564835E+01
 0.6477928037375E+01
 0.6279106094124E+01
 0.6075399619844E+01
 0.5864457295852E+01
 0.5644273128910E+01
 0.5413201308645E+01
 0.5169875675492E+01
 0.4912991620319E+01
 0.4641225628474E+01
 0.4353747509652E+01
 0.4051111229247E+01
 0.3736414975502E+01
 0.3417065613574E+01
 0.3107680519076E+01
 0.2835478425253E+01
 0.2651101695364E+01
 0.2648303258373E+01
 0.2981278151103E+01
 0.3826177591847E+01
 0.5265005146685E+01
 0.7158731184834E+01
 0.7986426799030E+01
 0.8448320321356E+01
 0.8863549016818E+01
 0.9142331250560E+01
 0.9269954725808E+01
 0.9278884306993E+01
 0.9210109299202E+01
 0.9095015535104E+01
 0.8953344737405E+01
 0.8796433319766E+01
 0.8630419451080E+01
 0.8458315245108E+01
 0.8281209324654E+01
 0.8099036170254E+01
 0.7911264503657E+01
 0.7717654795671E+01
 0.7519293555899E+01
 0.7318923297778E+01
 0.7119143981979E+01
 0.6920643788994E+01
 0.6722248587310E+01
 0.6521698674351E+01
 0.6316460886361E+01
 0.6104245320511E+01
 0.5883182406659E+01
 0.5651773143104E+01
 0.5408729520304E+01
 0.5152658592157E+01
 0.4881885509742E+01
 0.4594901952066E+01
 0.4291200078296E+01
 0.3972345956161E+01
 0.3643611785904E+01
 0.3316661357593E+01
 0.3014620386192E+01
 0.2782944259145E+01
 0.2712736464446E+01
 0.2974087564965E+01
 0.3796033648054E+01
 0.5322213424199E+01
 0.7412825227892E+01
 0.8340861663233E+01
 0.8856285622385E+01
 0.9301159183019E+01
 0.9573991404927E+01
 0.9673519421311E+01
 0.9649402168819E+01
 0.9551774770454E+01
 0.9414223245693E+01
 0.9255769323021E+01
 0.9086441419204E+01
 0.8911242924966E+01
 0.8732337900232E+01
 0.8550175172438E+01
 0.8364138091807E+01
 0.8173165749200E+01
 0.7976576804972E+01
 0.7775274248612E+01
 0.7572126065968E+01
 0.7369939097309E+01
 0.7169441503158E+01
 0.6969337128819E+01
 0.6767244913593E+01
 0.6560636100246E+01
 0.6347365322221E+01
 0.6125793740509E+01
 0.5894667836656E+01
 0.5652879968124E+01
 0.5399050413635E+01
 0.5131247789822E+01
 0.4847368640172E+01
 0.4545901995883E+01
 0.4226884928531E+01
 0.3893346327610E+01
 0.3553667832514E+01
 0.3226070804792E+01
 0.2948828294248E+01
 0.2805618240819E+01
 0.2975717353565E+01
 0.3748139020925E+01
 0.5358173758108E+01
 0.7682061516417E+01
 0.8717098791260E+01
 0.9294266640933E+01
 0.9766641624999E+01
 0.1002248308935E+02
 0.1008291114689E+02
 0.1001922224526E+02
 0.9890086574268E+01
 0.9729471336521E+01
 0.9554471653132E+01
 0.9373248907511E+01
 0.9189453755041E+01
 0.9004345336194E+01
 0.8817749706668E+01
 0.8628527743815E+01
 0.8435076276113E+01
 0.8236210041446E+01
 0.8032591439224E+01
 0.7827204052938E+01
 0.7623063325939E+01
 0.7420908693963E+01
 0.7219292262529E+01
 0.7015732332589E+01
 0.6807781788777E+01
 0.6593543913763E+01
 0.6371717156602E+01
 0.6141399897668E+01
 0.5901777663868E+01
 0.5651603304334E+01
 0.5388811907744E+01
 0.5110831974426E+01
 0.4815272864292E+01
 0.4500733949707E+01
 0.4168010851501E+01
 0.3822036616461E+01
 0.3475509458047E+01
 0.3157620455968E+01
 0.2939253986618E+01
 0.2998168468051E+01
 0.3684719921429E+01
 0.5366964496623E+01
 0.7970612462507E+01
 0.9120982798670E+01
 0.9769402235422E+01
 0.1026354626739E+02
 0.1048642191177E+02
 0.1049465976829E+02
 0.1038522123562E+02
 0.1022290481740E+02
 0.1003940741274E+02
 0.9848602335138E+01
 0.9656304951601E+01
 0.9464664682588E+01
 0.9274030602336E+01
 0.9083668602506E+01
 0.8891989654704E+01
 0.8696863913059E+01
 0.8496535553067E+01
 0.8291343423082E+01
 0.8084352277216E+01
 0.7878763516478E+01
 0.7675273824374E+01
 0.7472248307737E+01
 0.7267148861066E+01
 0.7057721850943E+01
 0.6842448205746E+01
 0.6620479787382E+01
 0.6391375517698E+01
 0.6154732844601E+01
 0.5909572006287E+01
 0.5653846257604E+01
 0.5384692032730E+01
 0.5099037123469E+01
 0.4794237909177E+01
 0.4469013387432E+01
 0.4124911017721E+01
 0.3768843456271E+01
 0.3419414351522E+01
 0.3129175635593E+01
 0.3059700800545E+01
 0.3612770718506E+01
 0.5341076021130E+01
 0.8283976268767E+01
 0.9560877913021E+01
 0.1029109760144E+02
 0.1079497171030E+02
 0.1096228960485E+02
 0.1090370490878E+02
 0.1074367304211E+02
 0.1054797944485E+02
 0.1034271566816E+02
 0.1013738209815E+02
 0.9935126287129E+01
 0.9736538301149E+01
 0.9541110467974E+01
 0.9347659799271E+01
 0.9154274454221E+01
 0.8958358492375E+01
 0.8757521326109E+01
 0.8551659108698E+01
 0.8343839338653E+01
 0.8137381545706E+01
 0.7932848282087E+01
 0.7728384098843E+01
 0.7521481434513E+01
 0.7310241091522E+01
 0.7093678808537E+01
 0.6871520431380E+01
 0.6643887817830E+01
 0.6410907833398E+01
 0.6172014443406E+01
 0.5925359197252E+01
 0.5668016138866E+01
 0.5396513605534E+01
 0.5107274384642E+01
 0.4797262131095E+01
 0.4464984471701E+01
 0.4111840165051E+01
 0.3745206075420E+01
 0.3394366339356E+01
 0.3186957145509E+01
 0.3548578970151E+01
 0.5271842691803E+01
 0.8629590796448E+01
 0.1004920486099E+02
 0.1087175220304E+02
 0.1136233049572E+02
 0.1144315397828E+02
 0.1130317548836E+02
 0.1109046118155E+02
 0.1086310763837E+02
 0.1063819736518E+02
 0.1042014938185E+02
 0.1020932580059E+02
 0.1000480508736E+02
 0.9805336133095E+01
 0.9609443456565E+01
 0.9415083694738E+01
 0.9219326763912E+01
 0.9019104014763E+01
 0.8813702246520E+01
 0.8606035226258E+01
 0.8399390469928E+01
 0.8194052157722E+01
 0.7987931076120E+01
 0.7778711215495E+01
 0.7565075606747E+01
 0.7346761231790E+01
 0.7124184708475E+01
 0.6898114836684E+01
 0.6669313255038E+01
 0.6437779319199E+01
 0.6202070939079E+01
 0.5959488888578E+01
 0.5706537360474E+01
 0.5439135976894E+01
 0.5152981398950E+01
 0.4844192040491E+01
 0.4509590055395E+01
 0.4146141577540E+01
 0.3757017634802E+01
 0.3417053047326E+01
 0.3525610843420E+01
 0.5151822877209E+01
 0.9017996357521E+01
 0.1060522827388E+02
 0.1152747187147E+02
 0.1196271019042E+02
 0.1191694934181E+02
 0.1168455930152E+02
 0.1142150292396E+02
 0.1116630932038E+02
 0.1092485535159E+02
 0.1069641022557E+02
 0.1047863986649E+02
 0.1026928161814E+02
 0.1006650634260E+02
 0.9868734507348E+01
 0.9674050699548E+01
 0.9479433576584E+01
 0.9281156712383E+01
 0.9077675377971E+01
 0.8871453485088E+01
 0.8665446327900E+01
 0.8459445808758E+01
 0.8251178409917E+01
 0.8038803524841E+01
 0.7821899042113E+01
 0.7601135164513E+01
 0.7377720963521E+01
 0.7153121533000E+01
 0.6928809836199E+01
 0.6705497946854E+01
 0.6482386875099E+01
 0.6257361402286E+01
 0.6027379010190E+01
 0.5788409432831E+01
 0.5535520517354E+01
 0.5263371101462E+01
 0.4965831159265E+01
 0.4632163609359E+01
 0.4241139782330E+01
 0.3799126389491E+01
 0.3606782813334E+01
 0.4982831416195E+01
 0.9465464738757E+01
 0.1126043167177E+02
 0.1227804743811E+02
 0.1258339002967E+02
 0.1236471462188E+02
 0.1203876618693E+02
 0.1173331722973E+02
 0.1145596901235E+02
 0.1120198874781E+02
 0.1096588455366E+02
 0.1074295223659E+02
 0.1052988816800E+02
 0.1032448343930E+02
 0.1012525170296E+02
 0.9930719729755E+01
 0.9738182393260E+01
 0.9543431749309E+01
 0.9343823069826E+01
 0.9140818388966E+01
 0.8936463390433E+01
 0.8729766126492E+01
 0.8518471059540E+01
 0.8301690204326E+01
 0.8080303913078E+01
 0.7856140918654E+01
 0.7631276779604E+01
 0.7407867610730E+01
 0.7188118660316E+01
 0.6973581748455E+01
 0.6764372224245E+01
 0.6559400606846E+01
 0.6356663454209E+01
 0.6152854671965E+01
 0.5943171905077E+01
 0.5721919932961E+01
 0.5482225608409E+01
 0.5210095682063E+01
 0.4868783935940E+01
 0.4393993777347E+01
 0.3900194190821E+01
 0.4799559678399E+01
 0.1000116575986E+02
 0.1206972344319E+02
 0.1314339423697E+02
 0.1319084869669E+02
 0.1276065823453E+02
 0.1235861958060E+02
 0.1202335177765E+02
 0.1173096571209E+02
 0.1146930243509E+02
 0.1122853495564E+02
 0.1100231625484E+02
 0.1078666316383E+02
 0.1057921218781E+02
 0.1037873932923E+02
 0.1018453132426E+02
 0.9994825155863E+01
 0.9805456478299E+01
 0.9612433973835E+01
 0.9415178137018E+01
 0.9213723931018E+01
 0.9005962268200E+01
 0.8790194111399E+01
 0.8567242262208E+01
 0.8339777770479E+01
 0.8111001994771E+01
 0.7883895026762E+01
 0.7661223818863E+01
 0.7445844800563E+01
 0.7240226700379E+01
 0.7045726355399E+01
 0.6862839108092E+01
 0.6691292095854E+01
 0.6529281553905E+01
 0.6373016281327E+01
 0.6217508608146E+01
 0.6057657322457E+01
 0.5881706255239E+01
 0.5652750154518E+01
 0.5266633539442E+01
 0.4575148527410E+01
 0.4733172033217E+01
 0.1068969501995E+02
 0.1313738498571E+02
 0.1412519480433E+02
 0.1371110277547E+02
 0.1308011132459E+02
 0.1264169788182E+02
 0.1228953617078E+02
 0.1199105887308E+02
 0.1172692636745E+02
 0.1148459688237E+02
 0.1125697022703E+02
 0.1103977312941E+02
 0.1083073829851E+02
 0.1062900859652E+02
 0.1043483549347E+02
 0.1024822959889E+02
 0.1006633423734E+02
 0.9883842335033E+01
 0.9696108485462E+01
 0.9499035029543E+01
 0.9289215940594E+01
 0.9066734590322E+01
 0.8835231559700E+01
 0.8599675233466E+01
 0.8364802521400E+01
 0.8134505656857E+01
 0.7912000680315E+01
 0.7700524054879E+01
 0.7503424637817E+01
 0.7323751514829E+01
 0.7164327100460E+01
 0.7027374465558E+01
 0.6913427615552E+01
 0.6820764156613E+01
 0.6746016824822E+01
 0.6687477515119E+01
 0.6642529135095E+01
 0.6587911803236E+01
 0.6457662025525E+01
 0.5872989092071E+01
 0.5156412398282E+01
 0.1171677032130E+02
 0.1468682124699E+02
 0.1512284036429E+02
 0.1401334586204E+02
 0.1332707472956E+02
 0.1288537958758E+02
 0.1253142596116E+02
 0.1223701860035E+02
 0.1197538318556E+02
 0.1173462209202E+02
 0.1150733323688E+02
 0.1128952311270E+02
 0.1107921793675E+02
 0.1087599673418E+02
 0.1068098611941E+02
 0.1049670353102E+02
 0.1032433402813E+02
 0.1015843710903E+02
 0.9986108689930E+01
 0.9794930747625E+01
 0.9580913732510E+01
 0.9348414184309E+01
 0.9105280854091E+01
 0.8859189182516E+01
 0.8616459884443E+01
 0.8381901674519E+01
 0.8158995086990E+01
 0.7950715468079E+01
 0.7760975510755E+01
 0.7595301220552E+01
 0.7459896367034E+01
 0.7360169961253E+01
 0.7299858715208E+01
 0.7280522205982E+01
 0.7301717615352E+01
 0.7363636532318E+01
 0.7478899286162E+01
 0.7653389958002E+01
 0.7918389397131E+01
 0.8061092197475E+01
 0.6904665017569E+01
 0.1376605967684E+02
 0.1729372523073E+02
 0.1550532550956E+02
 0.1408008056223E+02
 0.1352186898613E+02
 0.1308351567799E+02
 0.1275302907717E+02
 0.1246967334043E+02
 0.1221589352664E+02
 0.1197939210857E+02
 0.1175402433607E+02
 0.1153635394516E+02
 0.1132492636375E+02
 0.1111979113273E+02
 0.1092262396335E+02
 0.1073787366149E+02
 0.1057593095105E+02
 0.1043673277842E+02
 0.1028944750456E+02
 0.1010481786354E+02
 0.9882540358652E+01
 0.9635389037559E+01
 0.9376803220099E+01
 0.9117323836042E+01
 0.8864705538867E+01
 0.8624665400632E+01
 0.8401055990909E+01
 0.8195207347372E+01
 0.8010463510797E+01
 0.7856681883601E+01
 0.7744959070349E+01
 0.7684069303811E+01
 0.7681807726694E+01
 0.7744754964145E+01
 0.7876592229603E+01
 0.8078792114629E+01
 0.8360545278629E+01
 0.8818235666463E+01
 0.9511303742911E+01
 0.1099379806028E+02
 0.1160877978512E+02
 0.2017500571444E+02
 0.4990276996305E-01
 0.1541202022184E+00
 0.2104462685424E+00
 0.2387421054615E+00
 0.2523916349577E+00
 0.2586394415189E+00
 0.2602203330110E+00
 0.2566116397518E+00
 0.2451577060374E+00
 0.2221410789750E+00
 0.1841392886622E+00
 0.1298172924989E+00
 0.6437960344795E-01
 0.5913863897479E-01
 0.1503843939627E+00
 0.2599686792602E+00
 0.3767420748587E+00
 0.4960161100059E+00
 0.6148418875237E+00
 0.7090671227046E+00
 0.5962392480170E-01
 0.1667822878825E+00
 0.2272586038097E+00
 0.2587234833318E+00
 0.2735420269593E+00
 0.2788559116283E+00
 0.2776456021689E+00
 0.2698380202324E+00
 0.2533407204566E+00
 0.2250710046411E+00
 0.1822613572369E+00
 0.1241238859011E+00
 0.5755376873144E-01
 0.6768372188807E-01
 0.1637056657075E+00
 0.2757624096347E+00
 0.3949375383966E+00
 0.5171830157550E+00
 0.6306397557782E+00
 0.7139599560983E+00
 0.6793490141216E-01
 0.1770841739491E+00
 0.2408570185930E+00
 0.2749971479232E+00
 0.2909356355115E+00
 0.2955600059988E+00
 0.2920132270264E+00
 0.2806010047959E+00
 0.2597347521758E+00
 0.2269121940670E+00
 0.1799257114080E+00
 0.1184569744914E+00
 0.5169332860295E-01
 0.7653304738186E-01
 0.1761998096502E+00
 0.2902320759543E+00
 0.4110355150406E+00
 0.5323208880587E+00
 0.6409691375517E+00
 0.7286803994160E+00
 0.7521759083200E-01
 0.1852293700326E+00
 0.2515580208053E+00
 0.2879521577068E+00
 0.3049377826910E+00
 0.3090919515805E+00
 0.3036319324722E+00
 0.2891737733511E+00
 0.2645736910068E+00
 0.2278422846388E+00
 0.1772558724342E+00
 0.1129449177497E+00
 0.4703609553334E-01
 0.8518973188672E-01
 0.1876040306855E+00
 0.3030248514091E+00
 0.4240968149577E+00
 0.5435524803157E+00
 0.6512625979067E+00
 0.7442759280599E+00
 0.8164369854322E-01
 0.1915461720964E+00
 0.2596874966414E+00
 0.2979465417587E+00
 0.3159058535106E+00
 0.3197830738304E+00
 0.3128014711686E+00
 0.2958197774844E+00
 0.2680776973712E+00
 0.2280341160046E+00
 0.1743912211079E+00
 0.1077137314122E+00
 0.4372492434428E-01
 0.9328366967273E-01
 0.1976852140225E+00
 0.3137982919225E+00
 0.4344160800768E+00
 0.5526360839584E+00
 0.6607975075989E+00
 0.7583740304444E+00
 0.8734260181615E-01
 0.1962993833804E+00
 0.2655744481712E+00
 0.3053233740425E+00
 0.3241811568413E+00
 0.3279541960930E+00
 0.3198114789566E+00
 0.3007918131360E+00
 0.2704581514247E+00
 0.2276588084771E+00
 0.1714723653471E+00
 0.1028834508939E+00
 0.4174758182210E-01
 0.1005378462671E+00
 0.2062505660176E+00
 0.3225199605617E+00
 0.4424889713507E+00
 0.5599399862296E+00
 0.6689888073050E+00
 0.7700718342908E+00
 0.9241796776223E-01
 0.1997176369150E+00
 0.2695202814700E+00
 0.3104107485284E+00
 0.3300897308978E+00
 0.3339132355332E+00
 0.3249406234887E+00
 0.3043327520520E+00
 0.2719191000947E+00
 0.2268834292997E+00
 0.1686366616833E+00
 0.9856515295793E-01
 0.4090807102034E-01
 0.1067464271384E+00
 0.2132090131277E+00
 0.3292904273888E+00
 0.4485644882335E+00
 0.5655000413965E+00
 0.6754156270220E+00
 0.7789989865008E+00
 0.9695764261485E-01
 0.2020000518030E+00
 0.2717994863987E+00
 0.3135160314697E+00
 0.3339417772825E+00
 0.3379545344311E+00
 0.3284560496477E+00
 0.3066757878073E+00
 0.2726569745488E+00
 0.2258692515010E+00
 0.1660155497243E+00
 0.9485775251377E-01
 0.4087129481591E-01
 0.1117719902630E+00
 0.2185389028983E+00
 0.3341997780962E+00
 0.4527539695425E+00
 0.5692515578877E+00
 0.6798084192233E+00
 0.7850125140860E+00
 0.1010381731529E+00
 0.2033226612933E+00
 0.2726613698464E+00
 0.3149251648011E+00
 0.3360303080319E+00
 0.3403584294109E+00
 0.3306131211786E+00
 0.3080442242609E+00
 0.2728599856699E+00
 0.2247703469564E+00
 0.1637324512640E+00
 0.9184577845735E-01
 0.4125929883199E-01
 0.1155297857080E+00
 0.2222448297438E+00
 0.3373100447328E+00
 0.4550983038014E+00
 0.5711181287424E+00
 0.6820024427268E+00
 0.7880769657953E+00
 0.1047275249557E+00
 0.2038426706462E+00
 0.2723327502642E+00
 0.3149031832323E+00
 0.3366308283142E+00
 0.3413908578167E+00
 0.3316551890809E+00
 0.3086511569426E+00
 0.2727074755922E+00
 0.2237324284287E+00
 0.1619012109798E+00
 0.8959905824813E-01
 0.4173783735327E-01
 0.1179694561067E+00
 0.2243393272166E+00
 0.3386606135248E+00
 0.4556092668840E+00
 0.5710397633854E+00
 0.6819071609047E+00
 0.7882023328739E+00
 0.1080868038068E+00
 0.2037015862953E+00
 0.2710204871607E+00
 0.3136954282435E+00
 0.3360015954146E+00
 0.3413032727373E+00
 0.3318134089945E+00
 0.3086991748242E+00
 0.2723693633542E+00
 0.2228919911113E+00
 0.1606252569355E+00
 0.8817497188337E-01
 0.4206196344413E-01
 0.1190626937501E+00
 0.2248366006277E+00
 0.3382780245688E+00
 0.4542910202758E+00
 0.5689808740047E+00
 0.6794860655682E+00
 0.7854298173106E+00
 0.1111714461019E+00
 0.2030275613146E+00
 0.2689137426761E+00
 0.3115289835460E+00
 0.3343842573081E+00
 0.3403328094663E+00
 0.3313066836914E+00
 0.3083801459173E+00
 0.2720057584929E+00
 0.2223758375260E+00
 0.1599976272249E+00
 0.8762249566140E-01
 0.4208936686164E-01
 0.1187962221986E+00
 0.2237517030693E+00
 0.3361838734774E+00
 0.4511509053635E+00
 0.5649305258459E+00
 0.6747448944508E+00
 0.7798387701137E+00
 0.1140320842525E+00
 0.2019372174232E+00
 0.2661859543936E+00
 0.3086141565443E+00
 0.3320047034360E+00
 0.3387026632406E+00
 0.3303417575462E+00
 0.3078751431135E+00
 0.2717667929925E+00
 0.2223010187083E+00
 0.1601016717814E+00
 0.8798649037771E-01
 0.4178247335601E-01
 0.1171684978462E+00
 0.2211015614015E+00
 0.3324001742534E+00
 0.4462044649086E+00
 0.5589006955050E+00
 0.6677232866352E+00
 0.7715419506022E+00
 0.1167152102397E+00
 0.2005371046550E+00
 0.2629965569875E+00
 0.3051459242780E+00
 0.3290740314959E+00
 0.3366226280569E+00
 0.3291134659006E+00
 0.3073545348132E+00
 0.2717926879872E+00
 0.2227751266033E+00
 0.1610120703122E+00
 0.8931108767820E-01
 0.4121371979415E-01
 0.1141887991248E+00
 0.2169063732653E+00
 0.3269526488282E+00
 0.4394775471310E+00
 0.5509239274167E+00
 0.6584879817949E+00
 0.7606771230862E+00
 0.1192637079876E+00
 0.1989249066595E+00
 0.2594924981877E+00
 0.3013053174504E+00
 0.3257895773013E+00
 0.3342897612543E+00
 0.3278051308862E+00
 0.3069782422071E+00
 0.2722140283730E+00
 0.2238968088663E+00
 0.1627958853989E+00
 0.9164146609139E-01
 0.4057903784322E-01
 0.1098780465222E+00
 0.2111908579102E+00
 0.3198725916440E+00
 0.4310068538088E+00
 0.5410507127679E+00
 0.6471272242412E+00
 0.7474002411204E+00
 0.1217172980923E+00
 0.1971904661091E+00
 0.2558095925481E+00
 0.2972607394208E+00
 0.3223359796272E+00
 0.3318891468778E+00
 0.3265890871800E+00
 0.3068961446808E+00
 0.2731521930600E+00
 0.2257563893246E+00
 0.1655134840280E+00
 0.9502382284435E-01
 0.4021393983593E-01
 0.1042713428328E+00
 0.2039852590369E+00
 0.3111977845287E+00
 0.4208395902972E+00
 0.5293468156015E+00
 0.6337460650849E+00
 0.7318799875274E+00
 0.1241129218531E+00
 0.1954166829826E+00
 0.2520737513706E+00
 0.2931692288700E+00
 0.3188862675342E+00
 0.3295947388882E+00
 0.3256273181725E+00
 0.3072486048634E+00
 0.2747198869240E+00
 0.2284365111744E+00
 0.1692192524704E+00
 0.9950384402907E-01
 0.4059021474466E-01
 0.9742299090789E-01
 0.1953261682081E+00
 0.3009727873847E+00
 0.4090326034534E+00
 0.5158906633210E+00
 0.6184623660767E+00
 0.7142932552828E+00
 0.1264850852992E+00
 0.1936803256661E+00
 0.2484021232304E+00
 0.2891776807593E+00
 0.3156029666962E+00
 0.3275702702077E+00
 0.3250721815616E+00
 0.3081670817525E+00
 0.2770217277652E+00
 0.2320127502334E+00
 0.1739620883801E+00
 0.1051243278028E+00
 0.4225562453874E-01
 0.8941601426825E-01
 0.1852573289526E+00
 0.2892488429851E+00
 0.3956512466937E+00
 0.5007708675268E+00
 0.6014033268844E+00
 0.6948214747767E+00
 0.1288661762926E+00
 0.1920527852445E+00
 0.2449041745293E+00
 0.2854240416753E+00
 0.3126392255810E+00
 0.3259702166602E+00
 0.3250672043851E+00
 0.3097748033053E+00
 0.2801548535476E+00
 0.2365541704139E+00
 0.1797856947323E+00
 0.1119227201222E+00
 0.4570080657598E-01
 0.8038086769817E-01
 0.1738306673169E+00
 0.2760835667551E+00
 0.3807681265796E+00
 0.4840838932838E+00
 0.5827024235179E+00
 0.6736474233434E+00
 0.1312867649501E+00
 0.1906007977923E+00
 0.2416827369676E+00
 0.2820384970487E+00
 0.3101399657130E+00
 0.3249408079184E+00
 0.3257479301253E+00
 0.3121874747380E+00
 0.2842095255732E+00
 0.2421238099364E+00
 0.1867287232112E+00
 0.1199291701968E+00
 0.5121940168785E-01
 0.7053437850993E-01
 0.1611079572840E+00
 0.2615405622629E+00
 0.3644618298796E+00
 0.4659319409798E+00
 0.5624966098788E+00
 0.6509523952610E+00
 0.1337758954869E+00
 0.1893871555553E+00
 0.2388350468225E+00
 0.2791446681421E+00
 0.3082430619297E+00
 0.3246210794755E+00
 0.3272428029660E+00
 0.3155140033520E+00
 0.2892697112491E+00
 0.2487790976712E+00
 0.1948248239995E+00
 0.1291654125258E+00
 0.5886880087672E-01
 0.6026580887434E-01
 0.1471638665092E+00
 0.2456891013922E+00
 0.3468156844222E+00
 0.4464210719276E+00
 0.5409239687486E+00
 0.6269135289031E+00
 0.1363613764009E+00
 0.1884714255878E+00
 0.2364537998508E+00
 0.2768608369258E+00
 0.3070805593642E+00
 0.3251439607821E+00
 0.3296740762521E+00
 0.3198572245348E+00
 0.2954136362447E+00
 0.2565722064030E+00
 0.2041026567927E+00
 0.1396444814077E+00
 0.6854275194124E-01
 0.5033349176965E-01
 0.1320919031463E+00
 0.2286040271185E+00
 0.3279166231268E+00
 0.4256594907289E+00
 0.5181221068894E+00
 0.6017025162294E+00
 0.1390700753753E+00
 0.1879106931443E+00
 0.2346282452155E+00
 0.2753012169245E+00
 0.3067799338262E+00
 0.3266373948518E+00
 0.3331587333399E+00
 0.3253146164449E+00
 0.3027143004913E+00
 0.2655503544932E+00
 0.2145859072026E+00
 0.1513710658035E+00
 0.8007021801112E-01
 0.4227264890868E-01
 0.1160166832524E+00
 0.2103661259454E+00
 0.3078541789487E+00
 0.4037561017547E+00
 0.4942266679583E+00
 0.5754860507690E+00
 0.1419282254257E+00
 0.1877603468217E+00
 0.2334453419022E+00
 0.2745772877403E+00
 0.3074654012924E+00
 0.3292254838190E+00
 0.3378094092803E+00
 0.3319789927983E+00
 0.3112399557973E+00
 0.2757560695739E+00
 0.2262933376022E+00
 0.1643422430903E+00
 0.9327832055252E-01
 0.3878209079888E-01
 0.9912103753155E-01
 0.1910633907972E+00
 0.2867196983928E+00
 0.3808192126591E+00
 0.4693702633820E+00
 0.5484234632484E+00
 0.1449617495167E+00
 0.1880749230639E+00
 0.2329910014162E+00
 0.2747992100281E+00
 0.3092592803373E+00
 0.3330296533003E+00
 0.3437353014366E+00
 0.3399391645206E+00
 0.3210545453200E+00
 0.2872274284714E+00
 0.2392388873260E+00
 0.1785483578561E+00
 0.1080162454353E+00
 0.4241234853128E-01
 0.8171160321200E-01
 0.1707940261663E+00
 0.2646058401212E+00
 0.3569554079884E+00
 0.4436811536528E+00
 0.5206652857479E+00
 0.1481966121716E+00
 0.1889090293539E+00
 0.2333514411631E+00
 0.2760773362835E+00
 0.3122834087447E+00
 0.3381698262135E+00
 0.3510430562972E+00
 0.3492805615742E+00
 0.3322181061856E+00
 0.2999982863338E+00
 0.2534318266885E+00
 0.1939738849984E+00
 0.1241580939825E+00
 0.5278626204081E-01
 0.6439640417214E-01
 0.1496730510430E+00
 0.2416065259408E+00
 0.3322684894202E+00
 0.4172820031264E+00
 0.4923531046860E+00
 0.1516592087811E+00
 0.1903183686505E+00
 0.2346146740723E+00
 0.2785238310652E+00
 0.3166606124456E+00
 0.3447655941166E+00
 0.3598376183946E+00
 0.3600858057048E+00
 0.3447871356280E+00
 0.3140985048777E+00
 0.2688769637105E+00
 0.2105981949708E+00
 0.1415983143340E+00
 0.6768561928925E-01
 0.4861720958476E-01
 0.1278470326344E+00
 0.2178176420636E+00
 0.3068585634440E+00
 0.3902889523809E+00
 0.4636200317363E+00
 0.1553768065911E+00
 0.1923608929218E+00
 0.2368721620192E+00
 0.2822544122514E+00
 0.3225162211272E+00
 0.3529373706938E+00
 0.3702230247081E+00
 0.3724352222107E+00
 0.3588149167892E+00
 0.3295541834692E+00
 0.2855748997683E+00
 0.2283962019831E+00
 0.1602459385026E+00
 0.8541634862655E-01
 0.3808386847428E-01
 0.1055293583868E+00
 0.1933391520679E+00
 0.2808214006027E+00
 0.3628108961186E+00
 0.4345913624427E+00
 0.1593780564285E+00
 0.1950981223154E+00
 0.2402206647067E+00
 0.2873902238708E+00
 0.3299796219899E+00
 0.3628075103579E+00
 0.3823031283419E+00
 0.3864072798966E+00
 0.3743517999203E+00
 0.3463878954895E+00
 0.3035223382775E+00
 0.2473389308038E+00
 0.1800196882039E+00
 0.1050642706808E+00
 0.3903789872700E-01
 0.8309511674493E-01
 0.1682800808639E+00
 0.2542481280867E+00
 0.3349488427668E+00
 0.4053852528789E+00
 0.1636936015196E+00
 0.1985966792183E+00
 0.2447643211727E+00
 0.2940598480837E+00
 0.3391858358056E+00
 0.3745013672339E+00
 0.3961822285103E+00
 0.4020789404537E+00
 0.3914454217060E+00
 0.3646189138728E+00
 0.3227124386919E+00
 0.2673940563520E+00
 0.2008443507575E+00
 0.1261405176009E+00
 0.5189321531662E-01
 0.6138055911860E-01
 0.1427699851684E+00
 0.2272254234391E+00
 0.3067951209336E+00
 0.3761130935130E+00
 0.1683568220706E+00
 0.2029301069738E+00
 0.2506170109510E+00
 0.3024014610547E+00
 0.3502770905517E+00
 0.3881482618114E+00
 0.4119655798342E+00
 0.4195258963568E+00
 0.4101408388149E+00
 0.3842633936305E+00
 0.3431351932060E+00
 0.2885264786392E+00
 0.2226483505490E+00
 0.1483556447199E+00
 0.7110277459452E-01
 0.4278959220800E-01
 0.1169869091262E+00
 0.1998367184080E+00
 0.2784318617285E+00
 0.3468780053128E+00
 0.1734047731001E+00
 0.2081810737821E+00
 0.2579050543700E+00
 0.3125651298108E+00
 0.3634043529511E+00
 0.4038823121324E+00
 0.4297597532053E+00
 0.4388226839578E+00
 0.4304805597846E+00
 0.4053344742762E+00
 0.3647777841582E+00
 0.3106989898304E+00
 0.2453624192337E+00
 0.1715146951974E+00
 0.9326333173380E-01
 0.3447160732307E-01
 0.9123374129903E-01
 0.1721659576234E+00
 0.2499277949525E+00
 0.3177688863813E+00
 0.1788794060347E+00
 0.2144441111625E+00
 0.2667703255392E+00
 0.3247152290309E+00
 0.3787287515018E+00
 0.4218430705375E+00
 0.4496728178503E+00
 0.4600426672045E+00
 0.4525044755181E+00
 0.4278422657058E+00
 0.3876248344615E+00
 0.3338730114964E+00
 0.2689193322864E+00
 0.1954697765983E+00
 0.1170094184732E+00
 0.4379670833457E-01
 0.6618710300725E-01
 0.1443079566478E+00
 0.2213336225349E+00
 0.2888549978727E+00
 0.1848292235973E+00
 0.2218291093746E+00
 0.2773738553632E+00
 0.3390328992173E+00
 0.3964227650604E+00
 0.4421758644512E+00
 0.4718142866829E+00
 0.4832578626802E+00
 0.4762496757026E+00
 0.4517936774199E+00
 0.4116583758495E+00
 0.3580091563090E+00
 0.2932545648453E+00
 0.2200987951313E+00
 0.1417322504801E+00
 0.6388273794713E-01
 0.4391699453279E-01
 0.1163965155883E+00
 0.1926787161814E+00
 0.2601993065330E+00
 0.1913116294823E+00
 0.2304659320293E+00
 0.2898999731534E+00
 0.3557183841190E+00
 0.4166709901586E+00
 0.4650317626849E+00
 0.4962948056156E+00
 0.5085386296188E+00
 0.5017502143033E+00
 0.4771921907942E+00
 0.4368575358962E+00
 0.3830671850135E+00
 0.3183074348239E+00
 0.2452975880839E+00
 0.1670958152223E+00
 0.8782921590118E-01
 0.3199469465764E-01
 0.8869025653552E-01
 0.1639677059770E+00
 0.2318583401572E+00
 0.1983965010076E+00
 0.2405106512656E+00
 0.3045609472588E+00
 0.3749927514524E+00
 0.4396702238352E+00
 0.4905670359971E+00
 0.5232255451479E+00
 0.5359531470712E+00
 0.5290368143341E+00
 0.5040376480427E+00
 0.4631980625973E+00
 0.4090050564119E+00
 0.3440208541623E+00
 0.2709798830935E+00
 0.1928795185278E+00
 0.1132406801065E+00
 0.4122877579564E-01
 0.6188576657918E-01
 0.1351750265454E+00
 0.2038502778739E+00
 0.2061719726488E+00
 0.2521546884568E+00
 0.3216011335075E+00
 0.3970983717449E+00
 0.4656283659452E+00
 0.5189423795093E+00
 0.5527172506484E+00
 0.5655666307956E+00
 0.5581365605820E+00
 0.5323262944633E+00
 0.4906520254544E+00
 0.4357776043695E+00
 0.3703384466465E+00
 0.2970763451905E+00
 0.2189383564956E+00
 0.1392075421331E+00
 0.6287044048539E-01
 0.3859830587843E-01
 0.1062524118607E+00
 0.1760910455330E+00
 0.2147562050843E+00
 0.2656356477815E+00
 0.3413003578579E+00
 0.4222941919589E+00
 0.4947636191132E+00
 0.5503218714804E+00
 0.5848787109125E+00
 0.5974400303323E+00
 0.5890724439249E+00
 0.5620511180856E+00
 0.5191881395438E+00
 0.4633350973709E+00
 0.3972008227110E+00
 0.3235249833801E+00
 0.2451922475247E+00
 0.1653208211235E+00
 0.8776908892774E-01
 0.2964701579613E-01
 0.7724779797817E-01
 0.1482299853666E+00
 0.2243177228661E+00
 0.2812696015794E+00
 0.3639478158872E+00
 0.4508545431942E+00
 0.5273046283676E+00
 0.5848707066641E+00
 0.6198150887722E+00
 0.6316279417658E+00
 0.6218618450924E+00
 0.5932032697616E+00
 0.5487728762196E+00
 0.4916227384456E+00
 0.4245406156733E+00
 0.3502631502528E+00
 0.2715861420738E+00
 0.1914665194564E+00
 0.1131977136506E+00
 0.4376817673173E-01
 0.4900027487956E-01
 0.1191616235060E+00
 0.2352425236276E+00
 0.2992913981506E+00
 0.3898333388876E+00
 0.4830784138632E+00
 0.5634846884351E+00
 0.6227542687131E+00
 0.6576254592965E+00
 0.6681765705508E+00
 0.6565134559766E+00
 0.6257708142761E+00
 0.5793802200544E+00
 0.5205766700394E+00
 0.4522795853169E+00
 0.3772180611356E+00
 0.2980744091213E+00
 0.2176027041659E+00
 0.1387089668624E+00
 0.6551179026344E-01
 0.2852171805013E-01
 0.8466029950174E-01
 0.1879094950715E+01
 0.2302334433325E+01
 0.1670925599570E+01
 0.1282849991090E+01
 0.9924116156157E+00
 0.7579449901508E+00
 0.5567582824815E+00
 0.3755062999009E+00
 0.1938985921004E+00
 0.8874990420526E-02
 0.1350998614093E+00
 0.1550524956084E+00
 0.1513992332534E+00
 0.1537541134425E+00
 0.1615375152363E+00
 0.1703049668245E+00
 0.1782453143740E+00
 0.1837360011206E+00
 0.1860882870289E+00
 0.1849260675073E+00
 0.1429771144188E+01
 0.2178452149245E+01
 0.1746932713663E+01
 0.1319810089423E+01
 0.1003069467362E+01
 0.7465797387878E+00
 0.5226435239590E+00
 0.3118453361388E+00
 0.9892243287519E-01
 0.1037576025549E+00
 0.1986851591967E+00
 0.1676540696637E+00
 0.1264998095212E+00
 0.1235408423464E+00
 0.1420169393287E+00
 0.1645246085629E+00
 0.1845479715324E+00
 0.1999398683303E+00
 0.2098261284218E+00
 0.2131204719888E+00
 0.1117040352303E+01
 0.1832695502845E+01
 0.1678754810448E+01
 0.1324649536790E+01
 0.1001454203243E+01
 0.7313033051005E+00
 0.4912747523783E+00
 0.2633035043811E+00
 0.3997913607912E-01
 0.1559274995101E+00
 0.2365469648768E+00
 0.1878661981350E+00
 0.1189193138863E+00
 0.1111370073492E+00
 0.1458123712493E+00
 0.1839333880247E+00
 0.2160761911853E+00
 0.2408338692760E+00
 0.2575041449536E+00
 0.2667625771889E+00
 0.8874836869770E+00
 0.1513527302907E+01
 0.1512214188260E+01
 0.1271384967713E+01
 0.9797041852477E+00
 0.7092370559403E+00
 0.4621100695363E+00
 0.2275071071393E+00
 0.6946313568580E-02
 0.1812836610459E+00
 0.2549482228620E+00
 0.2033653228780E+00
 0.1186132735785E+00
 0.1042652311149E+00
 0.1558816543540E+00
 0.2103327967747E+00
 0.2553535101345E+00
 0.2904239041540E+00
 0.3154893794889E+00
 0.3319301540149E+00
 0.7114191494766E+00
 0.1236888115669E+01
 0.1317529232635E+01
 0.1169804276567E+01
 0.9303290657429E+00
 0.6767940855710E+00
 0.4329557993896E+00
 0.2003745340838E+00
 0.1741077229673E-01
 0.1899563876993E+00
 0.2593355522056E+00
 0.2113135861339E+00
 0.1201444014626E+00
 0.9837775110139E-01
 0.1645702336228E+00
 0.2349451443517E+00
 0.2937083092247E+00
 0.3404988683610E+00
 0.3754887430913E+00
 0.4002929873896E+00
 0.5727926622697E+00
 0.1001881633106E+01
 0.1121282391563E+01
 0.1042000754814E+01
 0.8558952498992E+00
 0.6312236787904E+00
 0.4009939576256E+00
 0.1778533420025E+00
 0.2834301887659E-01
 0.1884156500972E+00
 0.2540789504966E+00
 0.2119040682736E+00
 0.1205666001854E+00
 0.9281408162657E-01
 0.1705855326363E+00
 0.2553961473084E+00
 0.3279803236585E+00
 0.3873196601908E+00
 0.4332936304095E+00
 0.4672894349744E+00
 0.4615696202296E+00
 0.8031909906986E+00
 0.9353623783435E+00
 0.9031245101202E+00
 0.7642153162768E+00
 0.5730392288498E+00
 0.3640277219176E+00
 0.1565097218981E+00
 0.3482163123885E-01
 0.1811708168352E+00
 0.2426501470880E+00
 0.2064670669810E+00
 0.1185597638571E+00
 0.8781144710579E-01
 0.1745866564556E+00
 0.2717124148461E+00
 0.3573207701889E+00
 0.4292647729089E+00
 0.4866735527218E+00
 0.5303044909189E+00
 0.3710773293768E+00
 0.6354031565683E+00
 0.7646933680392E+00
 0.7629227721366E+00
 0.6627816736472E+00
 0.5050354948942E+00
 0.3213512490678E+00
 0.1338788571985E+00
 0.3985370491548E-01
 0.1714987073534E+00
 0.2278208680083E+00
 0.1966788374693E+00
 0.1139232224234E+00
 0.8363574530760E-01
 0.1774318713771E+00
 0.2845241191459E+00
 0.3817517238040E+00
 0.4656851525079E+00
 0.5344140775515E+00
 0.5877237449839E+00
 0.2966555559949E+00
 0.4937441301862E+00
 0.6109644712664E+00
 0.6273448644534E+00
 0.5576003533948E+00
 0.4306304217856E+00
 0.2735395451459E+00
 0.1086206452148E+00
 0.4561108794529E-01
 0.1617720524902E+00
 0.2117832988342E+00
 0.1842202307847E+00
 0.1071159889591E+00
 0.8046274379006E-01
 0.1796956090121E+00
 0.2944353372567E+00
 0.4015490070458E+00
 0.4963875837515E+00
 0.5758715816938E+00
 0.6385562918492E+00
 0.2349320108924E+00
 0.3741877330138E+00
 0.4742725794830E+00
 0.4998829229398E+00
 0.4530916362462E+00
 0.3530663779020E+00
 0.2218716356460E+00
 0.8036441504260E-01
 0.5342487589529E-01
 0.1536201615026E+00
 0.1962172895534E+00
 0.1706111037604E+00
 0.9891635084918E-01
 0.7836534485302E-01
 0.1816106968702E+00
 0.3018466160951E+00
 0.4169966192557E+00
 0.5213835589545E+00
 0.6107538763068E+00
 0.6822465675405E+00
 0.1833963170914E+00
 0.2733804159043E+00
 0.3539298781136E+00
 0.3824487943205E+00
 0.3523464827412E+00
 0.2750845459207E+00
 0.1678879730254E+00
 0.4945806564188E-01
 0.6393280584192E-01
 0.1480433284191E+00
 0.1823348596746E+00
 0.1571252507356E+00
 0.9018814424262E-01
 0.7726999597098E-01
 0.1831365872956E+00
 0.3069460559507E+00
 0.4283026664769E+00
 0.5407662771132E+00
 0.6389955495490E+00
 0.7185664905810E+00
 0.1401358703848E+00
 0.1885415076783E+00
 0.2488788414665E+00
 0.2759408962887E+00
 0.2574260316747E+00
 0.1988511384624E+00
 0.1131173147783E+00
 0.1731151021462E-01
 0.7724531083609E-01
 0.1455321736185E+00
 0.1709283090419E+00
 0.1447516539218E+00
 0.8172424375859E-01
 0.7692395232502E-01
 0.1840574899470E+00
 0.3097591219840E+00
 0.4355863275137E+00
 0.5546489956344E+00
 0.6606781136588E+00
 0.7475412206032E+00
 0.1036651159544E+00
 0.1173964762334E+00
 0.1579278245262E+00
 0.1806139222745E+00
 0.1696239459635E+00
 0.1259923105216E+00
 0.5894581233926E-01
 0.2032984583013E-01
 0.9310765692811E-01
 0.1461929651401E+00
 0.1624331706384E+00
 0.1341909739701E+00
 0.7414767530720E-01
 0.7692674368226E-01
 0.1840802353822E+00
 0.3102165859938E+00
 0.4388955395885E+00
 0.5631322907613E+00
 0.6759703584531E+00
 0.7693941643074E+00
 0.7281208763496E-01
 0.5830212462163E-01
 0.7997786407590E-01
 0.9635291398432E-01
 0.8968460578722E-01
 0.5766908248406E-01
 0.7184332633094E-02
 0.5447735722976E-01
 0.1110462865628E+00
 0.1498649011903E+00
 0.1570031288359E+00
 0.1258816535645E+00
 0.6786573468971E-01
 0.7682133232115E-01
 0.1829228529616E+00
 0.3082281666055E+00
 0.4382405365465E+00
 0.5662841288787E+00
 0.6850738937392E+00
 0.7845050931088E+00
 0.4664368837933E-01
 0.1471062931473E-01
 0.1672130144995E-01
 0.2353432258288E-01
 0.1826102957235E-01
 0.5376764430106E-02
 0.4367286502174E-01
 0.8899173345733E-01
 0.1304850684678E+00
 0.1562190921306E+00
 0.1545878024231E+00
 0.1200490258254E+00
 0.6308213790059E-01
 0.7619638688379E-01
 0.1803907524295E+00
 0.3037633890243E+00
 0.4336440429873E+00
 0.5641280105835E+00
 0.6881600836257E+00
 0.7933771584807E+00
 0.2443420497952E-01
 0.3694024391782E-01
 0.4565447888083E-01
 0.4259406496772E-01
 0.4615290333317E-01
 0.6258412601981E-01
 0.9018977587045E-01
 0.1225911277647E+00
 0.1508271064470E+00
 0.1648357190802E+00
 0.1550038648111E+00
 0.1167672957277E+00
 0.5986752821665E-01
 0.7475097629528E-01
 0.1764347342761E+00
 0.2969472484057E+00
 0.4252287976681E+00
 0.5566455010241E+00
 0.6852824044907E+00
 0.7966021384252E+00
 0.6077864892307E-02
 0.7003191274147E-01
 0.9231595016783E-01
 0.9690326935477E-01
 0.1017463935358E+00
 0.1138110147536E+00
 0.1329703690734E+00
 0.1546216447516E+00
 0.1715066075430E+00
 0.1752603269455E+00
 0.1579921420909E+00
 0.1160205675124E+00
 0.5826676488029E-01
 0.7228825736893E-01
 0.1711577646214E+00
 0.2881827336915E+00
 0.4133832209774E+00
 0.5438467209522E+00
 0.6762271918753E+00
 0.7947984459283E+00
 0.1156004387860E-01
 0.9774191169057E-01
 0.1313712780879E+00
 0.1430403691173E+00
 0.1497806656198E+00
 0.1589929802701E+00
 0.1716700238627E+00
 0.1846051606526E+00
 0.1920180933798E+00
 0.1870419958931E+00
 0.1632574985161E+00
 0.1177473503045E+00
 0.5839960430046E-01
 0.6865809207203E-01
 0.1646575216076E+00
 0.2781961615345E+00
 0.3991836106177E+00
 0.5260003392647E+00
 0.6603331936823E+00
 0.7883645098034E+00
 0.2533700021866E-01
 0.1203860268333E+00
 0.1633498422600E+00
 0.1814946620761E+00
 0.1906217995868E+00
 0.1982312441350E+00
 0.2061179310835E+00
 0.2121929938258E+00
 0.2119300104198E+00
 0.1997560356235E+00
 0.1704931628231E+00
 0.1218609558459E+00
 0.6050402306535E-01
 0.6371806335445E-01
 0.1567817642587E+00
 0.2674396788862E+00
 0.3847464919285E+00
 0.5053196930726E+00
 0.6359195275486E+00
 0.7767583768031E+00
 0.3750049512603E-01
 0.1385189529303E+00
 0.1890300223950E+00
 0.2129880827883E+00
 0.2247538238597E+00
 0.2317318283332E+00
 0.2362626882512E+00
 0.2371446353397E+00
 0.2308923468163E+00
 0.2130143789169E+00
 0.1793861544632E+00
 0.1282584304728E+00
 0.6489531122475E-01
 0.5746069873524E-01
 0.1470039534286E+00
 0.2554530734622E+00
 0.3706672783644E+00
 0.4878450941512E+00
 0.6073273702712E+00
 0.7508972043768E+00
 0.2499093695905E+00
 0.3229910295024E+00
 0.4242495357548E+00
 0.5257300084396E+00
 0.6109288705287E+00
 0.6716418015571E+00
 0.7052685847153E+00
 0.7127095356459E+00
 0.6968588874421E+00
 0.6615001284915E+00
 0.6105477864879E+00
 0.5475966982708E+00
 0.4758134637745E+00
 0.3978755438370E+00
 0.3164292469757E+00
 0.2341007653931E+00
 0.1535723908860E+00
 0.7839252744406E-01
 0.2626365667066E-01
 0.4686983953995E-01
 0.2656983953328E+00
 0.3524459557011E+00
 0.4674745564309E+00
 0.5793711392732E+00
 0.6702039959295E+00
 0.7320272397745E+00
 0.7631777866813E+00
 0.7656870510515E+00
 0.7435005033345E+00
 0.7012479076788E+00
 0.6434747480049E+00
 0.5742563265979E+00
 0.4970213516651E+00
 0.4144257501804E+00
 0.3291105370866E+00
 0.2437133742250E+00
 0.1611115884398E+00
 0.8524510458290E-01
 0.2893976508330E-01
 0.4106741500341E-01
 0.2832113912111E+00
 0.3868044151637E+00
 0.5175342015047E+00
 0.6402909240792E+00
 0.7361165752325E+00
 0.7976959687076E+00
 0.8247047588802E+00
 0.8206257282280E+00
 0.7906790356222E+00
 0.7404643099240E+00
 0.6751950113198E+00
 0.5993733643514E+00
 0.5165619954713E+00
 0.4293943411624E+00
 0.3405386087870E+00
 0.2527351170615E+00
 0.1691087311000E+00
 0.9394145243873E-01
 0.3443491951667E-01
 0.3966726773023E-01
 0.3031138887867E+00
 0.4267938714965E+00
 0.5752445579323E+00
 0.7091017086859E+00
 0.8088468511222E+00
 0.8683858520362E+00
 0.8892294957630E+00
 0.8766796607498E+00
 0.8374492497122E+00
 0.7781949827401E+00
 0.7047860446850E+00
 0.6220848336666E+00
 0.5337024022950E+00
 0.4422233509339E+00
 0.3503399478018E+00
 0.2608149859401E+00
 0.1767630688231E+00
 0.1014436747774E+00
 0.3834260333199E-01
 0.3804566837378E-01
 0.3259796933095E+00
 0.4735143957548E+00
 0.6415751096147E+00
 0.7863952739203E+00
 0.8884561272168E+00
 0.9436405009495E+00
 0.9559085126248E+00
 0.9327858013577E+00
 0.8826794574573E+00
 0.8133448620738E+00
 0.7312509275026E+00
 0.6415253658304E+00
 0.5477262100310E+00
 0.4523405861608E+00
 0.3579936098884E+00
 0.2672706938874E+00
 0.1828281449034E+00
 0.1068345687531E+00
 0.4101138923229E-01
 0.3575914191910E-01
 0.3524818309633E+00
 0.5282472793980E+00
 0.7176507575008E+00
 0.8727340421285E+00
 0.9748323479949E+00
 0.1022751103847E+01
 0.1023627645755E+01
 0.9876418346383E+00
 0.9250588004022E+00
 0.8447121407898E+00
 0.7535558625388E+00
 0.6568406478044E+00
 0.5579431377633E+00
 0.4591689484530E+00
 0.3629378881370E+00
 0.2714421479575E+00
 0.1867603789298E+00
 0.1102733721360E+00
 0.4284102275783E-01
 0.3290585543191E-01
 0.3834391691429E+00
 0.5925171802730E+00
 0.8047146773105E+00
 0.9686084224510E+00
 0.1067621821890E+01
 0.1104685373564E+01
 0.1090954041900E+01
 0.1039692059194E+01
 0.9631160383971E+00
 0.8710270560515E+00
 0.7706711560080E+00
 0.6672228660373E+00
 0.5637218759547E+00
 0.4621910587905E+00
 0.3647056420514E+00
 0.2729444959917E+00
 0.1884295456293E+00
 0.1119840377345E+00
 0.4406579271434E-01
 0.2970432147041E-01
 0.4198700194898E+00
 0.6681480446530E+00
 0.9041167658279E+00
 0.1074362273104E+01
 0.1166133875109E+01
 0.1188002591628E+01
 0.1156088882344E+01
 0.1087126113509E+01
 0.9952545349735E+00
 0.8910043905274E+00
 0.7816245504906E+00
 0.6719572718652E+00
 0.5645370712680E+00
 0.4610076769031E+00
 0.3629929652859E+00
 0.2716022675999E+00
 0.1878462280156E+00
 0.1121454923983E+00
 0.4476676469065E-01
 0.2636062041179E-01
 0.4630577392011E+00
 0.7573347880400E+00
 0.1017289581955E+01
 0.1190088969934E+01
 0.1269210288154E+01
 0.1270752668553E+01
 0.1216826795743E+01
 0.1127899167405E+01
 0.1019811570950E+01
 0.9034147773033E+00
 0.7855651222588E+00
 0.6704726499331E+00
 0.5600089879194E+00
 0.4553667639582E+00
 0.3576462263892E+00
 0.2673666332706E+00
 0.1850721379280E+00
 0.1108753103400E+00
 0.4494245880769E-01
 0.2304220445125E-01
 0.5146392635358E+00
 0.8627316786707E+00
 0.1145700181792E+01
 0.1315476886964E+01
 0.1375050546866E+01
 0.1350360922783E+01
 0.1270533787337E+01
 0.1159787289533E+01
 0.1035150510008E+01
 0.9071755091150E+00
 0.7818321639222E+00
 0.6623849876736E+00
 0.5499260152683E+00
 0.4451628085978E+00
 0.3486320669550E+00
 0.2602672831475E+00
 0.1801851106893E+00
 0.1082470779435E+00
 0.4455353251527E-01
 0.1987534032392E-01
 0.5767292142388E+00
 0.9875623432118E+00
 0.1290755883323E+01
 0.1449575376185E+01
 0.1480978633605E+01
 0.1423507788374E+01
 0.1314165526317E+01
 0.1180496898903E+01
 0.1039792383580E+01
 0.9014559493547E+00
 0.7700186195687E+00
 0.6475248973912E+00
 0.5342467732077E+00
 0.4304203736748E+00
 0.3360084846383E+00
 0.2503831100901E+00
 0.1732680143268E+00
 0.1043085310431E+00
 0.4355020536986E-01
 0.1694853159868E-01
 0.6520996598431E+00
 0.1135755256446E+01
 0.1453624867985E+01
 0.1590434446129E+01
 0.1583136949765E+01
 0.1486027620796E+01
 0.1344363483835E+01
 0.1187850947799E+01
 0.1032586506970E+01
 0.8857834040542E+00
 0.7500143655507E+00
 0.6259408012085E+00
 0.5130831903603E+00
 0.4112685874128E+00
 0.3198981757843E+00
 0.2378232815793E+00
 0.1644058991776E+00
 0.9909656903835E-01
 0.4188851458155E-01
 0.1431578764953E-01
 0.7444491971876E+00
 0.1312104677759E+01
 0.1634895619257E+01
 0.1734542517644E+01
 0.1676101150452E+01
 0.1532883211016E+01
 0.1357688054763E+01
 0.1180071096724E+01
 0.1012902493925E+01
 0.8601226600879E+00
 0.7220124271719E+00
 0.5978739455365E+00
 0.4866679621416E+00
 0.3879103535867E+00
 0.3004639668411E+00
 0.2227135941976E+00
 0.1536863961919E+00
 0.9264925423526E-01
 0.3954094270999E-01
 0.1199901408796E-01
 0.8588209508402E+00
 0.1522441571566E+01
 0.1833921466830E+01
 0.1875939580055E+01
 0.1752446405424E+01
 0.1558336152521E+01
 0.1351071393796E+01
 0.1156148552616E+01
 0.9807941863751E+00
 0.8248907741579E+00
 0.6864673275443E+00
 0.5637092000592E+00
 0.4553126532099E+00
 0.3605897602455E+00
 0.2778860233372E+00
 0.2051858053121E+00
 0.1412017942254E+00
 0.8501658428413E-01
 0.3650512824329E-01
 0.9990712934586E-02
 0.1002282177656E+01
 0.1773752454829E+01
 0.2047514751470E+01
 0.2004825780260E+01
 0.1802404011376E+01
 0.1556559249186E+01
 0.1322559718621E+01
 0.1116224121082E+01
 0.9370397652988E+00
 0.7808783277885E+00
 0.6440141456974E+00
 0.5239143946352E+00
 0.4193641568773E+00
 0.3295598886831E+00
 0.2523400577472E+00
 0.1853686107216E+00
 0.1270529157162E+00
 0.7627224677304E-01
 0.3281353038694E-01
 0.8258834940567E-02
 0.1185092308119E+01
 0.2073991084573E+01
 0.2267260670023E+01
 0.2105410558165E+01
 0.1814130509958E+01
 0.1523070178634E+01
 0.1272307240623E+01
 0.1061715081688E+01
 0.8829727079066E+00
 0.7291000744838E+00
 0.5953768296505E+00
 0.4789847432280E+00
 0.3791642761628E+00
 0.2950502617988E+00
 0.2239743493662E+00
 0.1633795776168E+00
 0.1113558786458E+00
 0.6652918834575E-01
 0.2854638062890E-01
 0.6753909610516E-02
 0.1422906173480E+01
 0.2430856184148E+01
 0.2473371673901E+01
 0.2153335404283E+01
 0.1775764337496E+01
 0.1457641278737E+01
 0.1203030437680E+01
 0.9949044695753E+00
 0.8201785263572E+00
 0.6706396402738E+00
 0.5413015602489E+00
 0.4294023862834E+00
 0.3350111351882E+00
 0.2572277768668E+00
 0.1928824253915E+00
 0.1393184761570E+00
 0.9425473955429E-01
 0.5596085937287E-01
 0.2385185301585E-01
 0.5415157759034E-02
 0.1741171906496E+01
 0.2844596799509E+01
 0.2621910313481E+01
 0.2113217156807E+01
 0.1684805954913E+01
 0.1366101524394E+01
 0.1118841126290E+01
 0.9182970942299E+00
 0.7502052527408E+00
 0.6065602701258E+00
 0.4825319282936E+00
 0.3756167365376E+00
 0.2871080165256E+00
 0.2161375995795E+00
 0.1590682935671E+00
 0.1132707257607E+00
 0.7594163042501E-01
 0.4483010067389E-01
 0.1897234179885E-01
 0.4157998790647E-02
 0.2187874898637E+01
 0.3287376272412E+01
 0.2596581751681E+01
 0.1971037980452E+01
 0.1556098775941E+01
 0.1256318490606E+01
 0.1023864632046E+01
 0.8340824106580E+00
 0.6744380652308E+00
 0.5378701957309E+00
 0.4198524520603E+00
 0.3180425985972E+00
 0.2354774243906E+00
 0.1715676833665E+00
 0.1224165951199E+00
 0.8537354481806E-01
 0.5668115363499E-01
 0.3346885469407E-01
 0.1433819271099E-01
 0.2832664493500E-02
 0.2851099279681E+01
 0.3342233151654E+01
 0.2323315859249E+01
 0.1773406210770E+01
 0.1405418074807E+01
 0.1135410343565E+01
 0.9211530361796E+00
 0.7441380236935E+00
 0.5940719168515E+00
 0.4654080775566E+00
 0.3542584745468E+00
 0.2573205963871E+00
 0.1794367901239E+00
 0.1227609221840E+00
 0.8294079833667E-01
 0.5595164293994E-01
 0.3678771931406E-01
 0.2221413635694E-01
 0.1047055260572E-01
 0.1145361784140E-02
 0.7618677195864E+00
 0.7771186297581E+00
 0.7981791387618E+00
 0.8142006575918E+00
 0.8240674548337E+00
 0.8275161806796E+00
 0.8243270696515E+00
 0.8142140862222E+00
 0.7968572056918E+00
 0.7719557672240E+00
 0.7392867355084E+00
 0.6987680012294E+00
 0.6505289893992E+00
 0.5949905399925E+00
 0.5329576183683E+00
 0.4657411185431E+00
 0.3953493781652E+00
 0.3249315757580E+00
 0.2595817098926E+00
 0.2100112251339E+00
 0.7871903270019E+00
 0.8131775263562E+00
 0.8350692841139E+00
 0.8534436854811E+00
 0.8666838663287E+00
 0.8738523586043E+00
 0.8742414370450E+00
 0.8672320209016E+00
 0.8522438052655E+00
 0.8287488802877E+00
 0.7963157887180E+00
 0.7546733499869E+00
 0.7037898973100E+00
 0.6439661543512E+00
 0.5759426303304E+00
 0.5010279536381E+00
 0.4212951984603E+00
 0.3398795718082E+00
 0.2622855360552E+00
 0.1957063471787E+00
 0.8058553098977E+00
 0.8420017886194E+00
 0.8688415561576E+00
 0.8905844175694E+00
 0.9072650471782E+00
 0.9180617452226E+00
 0.9220873091092E+00
 0.9184806640923E+00
 0.9064216894465E+00
 0.8851463049720E+00
 0.8539841318322E+00
 0.8124188369422E+00
 0.7601702452706E+00
 0.6972982824962E+00
 0.6243294021293E+00
 0.5424168326773E+00
 0.4535379547429E+00
 0.3609539420289E+00
 0.2697472429215E+00
 0.1930429576214E+00
 0.8213892732951E+00
 0.8635805045909E+00
 0.8967280823267E+00
 0.9232700648792E+00
 0.9440982088428E+00
 0.9588889808558E+00
 0.9668635348696E+00
 0.9670930992489E+00
 0.9586060252029E+00
 0.9404390478339E+00
 0.9116820268640E+00
 0.8715364146760E+00
 0.8193963203579E+00
 0.7549589318207E+00
 0.6783738377585E+00
 0.5904410276999E+00
 0.4929138497361E+00
 0.3889457254121E+00
 0.2847358446794E+00
 0.1946662233634E+00
 0.8349290266255E+00
 0.8807125638504E+00
 0.9190057744967E+00
 0.9505707213521E+00
 0.9759790292964E+00
 0.9951282195946E+00
 0.1007402535688E+01
 0.1011910977855E+01
 0.1007621960277E+01
 0.9934354556052E+00
 0.9682332522477E+00
 0.9309318204446E+00
 0.8805541855307E+00
 0.8163360757627E+00
 0.7378847781583E+00
 0.6454236913821E+00
 0.5401646570563E+00
 0.4250266405722E+00
 0.3062279537113E+00
 0.1982964377589E+00
 0.8462591593640E+00
 0.8943182945242E+00
 0.9365092194894E+00
 0.9724867653707E+00
 0.1002342501242E+01
 0.1025901286091E+01
 0.1042623934120E+01
 0.1051680446910E+01
 0.1052040242193E+01
 0.1042533067279E+01
 0.1021889534052E+01
 0.9887775360742E+00
 0.9418510986258E+00
 0.8798309381298E+00
 0.8016453646192E+00
 0.7066753720922E+00
 0.5951913935429E+00
 0.4691335544490E+00
 0.3337573237548E+00
 0.2029789488121E+00
 0.8550755981296E+00
 0.9046780013518E+00
 0.9497091038625E+00
 0.9892597434142E+00
 0.1023018499175E+01
 0.1050662171876E+01
 0.1071651292110E+01
 0.1085205183094E+01
 0.1090329323513E+01
 0.1085844473587E+01
 0.1070403544181E+01
 0.1042500163716E+01
 0.1000479498652E+01
 0.9425683287303E+00
 0.8669530363405E+00
 0.7719590507404E+00
 0.6564294599144E+00
 0.5204850550617E+00
 0.3671338834237E+00
 0.2079916717825E+00
 0.8611414037467E+00
 0.9118261682264E+00
 0.9588575169185E+00
 0.1001111218382E+01
 0.1038018235335E+01
 0.1069117573512E+01
 0.1093844491082E+01
 0.1111455775627E+01
 0.1121012993317E+01
 0.1121378507197E+01
 0.1111204661896E+01
 0.1088910149840E+01
 0.1052645126928E+01
 0.1000252537626E+01
 0.9292433055140E+00
 0.8368252212690E+00
 0.7200748192165E+00
 0.5764759058631E+00
 0.4053447088232E+00
 0.2129771197901E+00
 0.8642971113236E+00
 0.9156969477274E+00
 0.9640339773426E+00
 0.1008156394415E+01
 0.1047355497165E+01
 0.1081071356385E+01
 0.1108711908100E+01
 0.1129564260454E+01
 0.1142753496517E+01
 0.1147215782082E+01
 0.1141665543717E+01
 0.1124545142749E+01
 0.1093949555218E+01
 0.1047520278081E+01
 0.9823047807272E+00
 0.8945856763298E+00
 0.7797165954246E+00
 0.6321068856808E+00
 0.4460306554003E+00
 0.2198185794535E+00
 0.8643620519888E+00
 0.9160625708205E+00
 0.9650476579857E+00
 0.1010211743159E+01
 0.1050780752495E+01
 0.1086129679853E+01
 0.1115642451314E+01
 0.1138627614298E+01
 0.1154268509423E+01
 0.1161585125380E+01
 0.1159389942484E+01
 0.1146223730735E+01
 0.1120257577069E+01
 0.1079143741353E+01
 0.1019789626256E+01
 0.9380158368912E+00
 0.8280416734368E+00
 0.6817542186833E+00
 0.4879080188184E+00
 0.2345158149857E+00
 0.8612609231736E+00
 0.9127904600655E+00
 0.9617646315268E+00
 0.1007144626494E+01
 0.1048129720329E+01
 0.1084049048427E+01
 0.1114258953112E+01
 0.1138070874252E+01
 0.1154702272099E+01
 0.1163236292975E+01
 0.1162576325835E+01
 0.1151382221396E+01
 0.1127972869584E+01
 0.1090172993367E+01
 0.1035067126782E+01
 0.9585932778840E+00
 0.8548464774883E+00
 0.7148260284238E+00
 0.5240298800646E+00
 0.2583679694457E+00
 0.8550175124191E+00
 0.9058824822829E+00
 0.9542029876141E+00
 0.9990029884845E+00
 0.1039469029077E+01
 0.1074888641813E+01
 0.1104576742881E+01
 0.1127816007233E+01
 0.1143810994855E+01
 0.1151647713762E+01
 0.1150248543892E+01
 0.1138311571721E+01
 0.1114220671899E+01
 0.1075905819242E+01
 0.1020618217482E+01
 0.9445532118446E+00
 0.8421822593741E+00
 0.7049686248527E+00
 0.5186191873284E+00
 0.2545992683707E+00
 0.8457232061346E+00
 0.8954399055568E+00
 0.9425073181960E+00
 0.9859969790421E+00
 0.1025083259089E+01
 0.1059008854547E+01
 0.1087031213697E+01
 0.1108372365781E+01
 0.1122175061792E+01
 0.1127460552130E+01
 0.1123080774962E+01
 0.1107656404627E+01
 0.1079490112446E+01
 0.1036440051646E+01
 0.9757301092727E+00
 0.8936569434183E+00
 0.7851203888358E+00
 0.6428293188019E+00
 0.4558141299618E+00
 0.2063198268076E+00
 0.8335189582523E+00
 0.8816374359430E+00
 0.9269176781786E+00
 0.9684619664441E+00
 0.1005429762100E+01
 0.1037017759758E+01
 0.1062419662321E+01
 0.1080783470851E+01
 0.1091170268357E+01
 0.1092512336412E+01
 0.1083566199815E+01
 0.1062855532248E+01
 0.1028598771254E+01
 0.9786167786847E+00
 0.9102181064234E+00
 0.8200675701514E+00
 0.7040699711131E+00
 0.5573960638054E+00
 0.3751115018171E+00
 0.1566536374440E+00
 0.8185813829368E+00
 0.8647020647186E+00
 0.9077412456362E+00
 0.9468192590366E+00
 0.9810809829355E+00
 0.1009683410852E+01
 0.1031765141290E+01
 0.1046411307912E+01
 0.1052618323583E+01
 0.1049258507557E+01
 0.1035043457591E+01
 0.1008485753431E+01
 0.9678611297148E+00
 0.9111787902677E+00
 0.8361794672926E+00
 0.7404074536133E+00
 0.6214676553276E+00
 0.4777393687186E+00
 0.3103571902695E+00
 0.1282432031194E+00
 0.8011119073193E+00
 0.8448962960304E+00
 0.8853287581462E+00
 0.9215416902897E+00
 0.9526712465091E+00
 0.9778491368505E+00
 0.9961803293670E+00
 0.1006716851325E+01
 0.1008432231948E+01
 0.1000198582682E+01
 0.9807682235470E+00
 0.9487637047559E+00
 0.9026843722032E+00
 0.8409457227545E+00
 0.7619829148283E+00
 0.6644788266547E+00
 0.5478323925325E+00
 0.4130912119969E+00
 0.2646860844182E+00
 0.1125409749081E+00
 0.7813279453130E+00
 0.8225038391826E+00
 0.8600540658216E+00
 0.8931238832674E+00
 0.9208519733246E+00
 0.9423651879448E+00
 0.9567639424303E+00
 0.9631059027240E+00
 0.9603924622393E+00
 0.9475612938377E+00
 0.9234889271869E+00
 0.8870096966147E+00
 0.8369618221646E+00
 0.7722786612422E+00
 0.6921546864839E+00
 0.5963327451703E+00
 0.4855793107483E+00
 0.3624123418528E+00
 0.2319568904591E+00
 0.1023550882531E+00
 0.7594556802639E+00
 0.7978181965605E+00
 0.8322978179763E+00
 0.8620591261895E+00
 0.8862584326254E+00
 0.9040410291350E+00
 0.9145338247698E+00
 0.9168390322748E+00
 0.9100329576485E+00
 0.8931736212226E+00
 0.8653218622109E+00
 0.8255826226509E+00
 0.7731762710329E+00
 0.7075540468922E+00
 0.6285762892175E+00
 0.5367739175540E+00
 0.4337023858030E+00
 0.3223375547470E+00
 0.2073324139054E+00
 0.9483037623353E-01
 0.7357241750962E+00
 0.7711334640390E+00
 0.8024345915525E+00
 0.8288219453746E+00
 0.8494865554135E+00
 0.8636152488885E+00
 0.8703898326295E+00
 0.8689898971637E+00
 0.8586023772765E+00
 0.8384412554590E+00
 0.8077815735930E+00
 0.7660131346875E+00
 0.7127206243227E+00
 0.6477976673434E+00
 0.5716008137349E+00
 0.4851416429851E+00
 0.3902921558175E+00
 0.2899336672654E+00
 0.1879275457320E+00
 0.8878237831800E-01
 0.7103611063244E+00
 0.7427377022834E+00
 0.7708233588031E+00
 0.7938559551315E+00
 0.8110785017533E+00
 0.8217397608839E+00
 0.8250991525391E+00
 0.8204370325050E+00
 0.8070723611886E+00
 0.7843902286535E+00
 0.7518821892248E+00
 0.7092026760226E+00
 0.6562445207371E+00
 0.5932349547641E+00
 0.5208488622741E+00
 0.4403258973494E+00
 0.3535604109394E+00
 0.2631116158884E+00
 0.1720703123570E+00
 0.8373643453011E-01
 0.6835920174699E+00
 0.7129091150234E+00
 0.7378017345328E+00
 0.7575669549543E+00
 0.7715152167893E+00
 0.7789732340500E+00
 0.7792935021277E+00
 0.7718701115014E+00
 0.7561615062377E+00
 0.7317215148952E+00
 0.6982401694638E+00
 0.6555954908247E+00
 0.6039162211857E+00
 0.5436528405336E+00
 0.4756492909444E+00
 0.4012001154488E+00
 0.3220684007553E+00
 0.2404336559535E+00
 0.1587441702494E+00
 0.7946680073045E-01
 0.6556393533111E+00
 0.6819128869899E+00
 0.7036830341000E+00
 0.7203193282644E+00
 0.7312119395388E+00
 0.7357760891215E+00
 0.7334652042174E+00
 0.7237903782516E+00
 0.7063455176024E+00
 0.6808383541704E+00
 0.6471275842783E+00
 0.6052657487946E+00
 0.5555459917556E+00
 0.4985483108561E+00
 0.4351772500651E+00
 0.3666786918373E+00
 0.2946202276645E+00
 0.2208209565125E+00
 0.1472256381865E+00
 0.7574272085517E-01
 0.6267120594314E+00
 0.6499945613367E+00
 0.6687498503989E+00
 0.6824311838365E+00
 0.6905167185645E+00
 0.6925152109229E+00
 0.6879819225693E+00
 0.6765403154409E+00
 0.6579075952824E+00
 0.6319233542604E+00
 0.5985807135730E+00
 0.5580587311779E+00
 0.5107535404213E+00
 0.4573038389440E+00
 0.3986042550653E+00
 0.3357985170469E+00
 0.2702445965422E+00
 0.2034476732136E+00
 0.1369656897107E+00
 0.7230546451603E-01
 0.5970018528963E+00
 0.6173735672617E+00
 0.6332474019753E+00
 0.6441696986941E+00
 0.6497112973650E+00
 0.6494745856302E+00
 0.6431119061467E+00
 0.6303487324850E+00
 0.6110084796141E+00
 0.5850375719549E+00
 0.5525297976598E+00
 0.5137485325260E+00
 0.4691444884525E+00
 0.4193655504859E+00
 0.3652544330464E+00
 0.3078299200515E+00
 0.2482490462941E+00
 0.1877512430120E+00
 0.1275907206470E+00
 0.6896687749222E-01
 0.5666844918470E+00
 0.5842436909599E+00
 0.5973850760743E+00
 0.6057555415121E+00
 0.6090200625785E+00
 0.6068705132564E+00
 0.5990471320149E+00
 0.5853632164283E+00
 0.5657288746731E+00
 0.5401722322170E+00
 0.5088572408391E+00
 0.4720970209873E+00
 0.4303610800369E+00
 0.3842742210221E+00
 0.3346048895446E+00
 0.2822414957275E+00
 0.2281571439314E+00
 0.1733659372252E+00
 0.1188762822184E+00
 0.6564661924281E-01
 0.5359206281901E+00
 0.5507749664647E+00
 0.5613397882440E+00
 0.5673687974367E+00
 0.5686194266196E+00
 0.5648650697369E+00
 0.5559211828134E+00
 0.5416723133687E+00
 0.5220950985169E+00
 0.4972759140881E+00
 0.4674229312321E+00
 0.4328722457047E+00
 0.3940873238954E+00
 0.3516507514933E+00
 0.3062475032083E+00
 0.2586399124713E+00
 0.2096362901404E+00
 0.1600573165295E+00
 0.1107056797243E+00
 0.6234315411995E-01
 0.5048565270701E+00
 0.5171150561346E+00
 0.5252591514369E+00
 0.5291547763676E+00
 0.5286468040253E+00
 0.5235784077892E+00
 0.5138246934455E+00
 0.4993235449209E+00
 0.4800985224136E+00
 0.4562734818190E+00
 0.4280798028476E+00
 0.3958569106494E+00
 0.3600462733948E+00
 0.3211787762074E+00
 0.2798555466542E+00
 0.2367230422246E+00
 0.1924446119433E+00
 0.1476729752842E+00
 0.1030304952490E+00
 0.5910406741437E-01
 0.4736246847458E+00
 0.4833903488515E+00
 0.4892644448719E+00
 0.4912296093563E+00
 0.4892088684684E+00
 0.4830992848492E+00
 0.4728175165909E+00
 0.4583363472340E+00
 0.4397080834125E+00
 0.4170765124120E+00
 0.3906800222879E+00
 0.3608478066383E+00
 0.3279902157142E+00
 0.2925837752602E+00
 0.2551512809564E+00
 0.2162376598710E+00
 0.1763829309341E+00
 0.1360953223762E+00
 0.9583251031835E-01
 0.5600555574462E-01
 0.4423433740220E+00
 0.4497056597175E+00
 0.4534528409434E+00
 0.4536855263476E+00
 0.4503892738853E+00
 0.4434942468765E+00
 0.4329383850878E+00
 0.4187112509135E+00
 0.4008779400393E+00
 0.3795882046678E+00
 0.3550757327205E+00
 0.3276508884272E+00
 0.2976887284179E+00
 0.2656131630654E+00
 0.2318776687396E+00
 0.1969427154038E+00
 0.1612498312403E+00
 0.1251915953887E+00
 0.8907986089414E-01
 0.5313344868421E-01
 0.4111156662664E+00
 0.4161452408757E+00
 0.4179029097596E+00
 0.4166002222869E+00
 0.4122600363338E+00
 0.4048192697072E+00
 0.3942154490981E+00
 0.3804382737749E+00
 0.3635528516925E+00
 0.3437049278806E+00
 0.3211159861168E+00
 0.2960729189748E+00
 0.2689146052696E+00
 0.2400163491835E+00
 0.2097724143972E+00
 0.1785763748842E+00
 0.1467980123270E+00
 0.1147532206181E+00
 0.8265491605827E-01
 0.5053849623769E-01
 0.3800262133352E+00
 0.3827752352465E+00
 0.3826837822122E+00
 0.3800495527818E+00
 0.3748946383865E+00
 0.3671310030854E+00
 0.3566742137408E+00
 0.3435007489771E+00
 0.3276674790180E+00
 0.3093107919702E+00
 0.2886365645762E+00
 0.2659067993064E+00
 0.2414253613819E+00
 0.2155235243114E+00
 0.1885452907790E+00
 0.1608320786059E+00
 0.1327056685456E+00
 0.1044457312920E+00
 0.7624979524912E-01
 0.4810542060962E-01
 0.3491370043155E+00
 0.3496527449699E+00
 0.3478713277888E+00
 0.3441257457445E+00
 0.3383847075105E+00
 0.3304994483851E+00
 0.3203450504152E+00
 0.3078774411289E+00
 0.2931433865975E+00
 0.2762700489363E+00
 0.2574485050582E+00
 0.2369173297718E+00
 0.2149480250553E+00
 0.1918322731258E+00
 0.1678705446604E+00
 0.1433617337091E+00
 0.1185939273979E+00
 0.9383668820493E-01
 0.6933530213860E-01
 0.4529140072993E-01
 0.3184692212216E+00
 0.3168114000619E+00
 0.3135320691061E+00
 0.3089188672547E+00
 0.3028167241631E+00
 0.2949796465592E+00
 0.2852319062006E+00
 0.2735117171107E+00
 0.2598623998696E+00
 0.2444080945723E+00
 0.2273298590948E+00
 0.2088468033967E+00
 0.1892021566695E+00
 0.1686529718900E+00
 0.1474623074410E+00
 0.1258934855603E+00
 0.1042074477808E+00
 0.8266807458846E-01
 0.6156855377393E-01
 0.4135628139913E-01
 0.2879735644899E+00
 0.2842083177607E+00
 0.2796701990544E+00
 0.2744614271396E+00
 0.2682119935977E+00
 0.2605509892604E+00
 0.2512596350493E+00
 0.2402764716455E+00
 0.2276573861747E+00
 0.2135340637978E+00
 0.1980838752106E+00
 0.1815107947886E+00
 0.1640340112839E+00
 0.1458813698958E+00
 0.1272859237739E+00
 0.1084846091481E+00
 0.8971968599273E-01
 0.7124687638310E-01
 0.5336629266871E-01
 0.3650651356791E-01
 0.2576286598472E+00
 0.2518879086645E+00
 0.2464385239315E+00
 0.2409534257180E+00
 0.2347513570263E+00
 0.2273430615265E+00
 0.2185060121660E+00
 0.2082149949662E+00
 0.1965593259155E+00
 0.1836871846083E+00
 0.1697747971570E+00
 0.1550111699785E+00
 0.1395914424041E+00
 0.1237150142230E+00
 0.1075864972964E+00
 0.9141869566770E-01
 0.7543498966605E-01
 0.5986998152053E-01
 0.4496760787589E-01
 0.3095636965242E-01
 0.2274087277399E+00
 0.2200075258946E+00
 0.2141471944771E+00
 0.2087057458270E+00
 0.2026533057991E+00
 0.1954643002427E+00
 0.1869988461632E+00
 0.1773127256633E+00
 0.1665426480178E+00
 0.1548525339871E+00
 0.1424118306782E+00
 0.1293884991874E+00
 0.1159483557585E+00
 0.1022575427071E+00
 0.8848727129354E-01
 0.7481981933065E-01
 0.6145578297685E-01
 0.4860588436114E-01
 0.3645215124170E-01
 0.2506476242669E-01
 0.1973047446854E+00
 0.1889485789532E+00
 0.1833018161487E+00
 0.1780761456114E+00
 0.1720391248367E+00
 0.1648651709646E+00
 0.1566014480724E+00
 0.1474040906750E+00
 0.1374454776111E+00
 0.1268875185285E+00
 0.1158779324963E+00
 0.1045527588365E+00
 0.9304032202948E-01
 0.8146605543941E-01
 0.6995875942988E-01
 0.5865984987376E-01
 0.4773311961580E-01
 0.3738548865574E-01
 0.2781432303204E-01
 0.1907223033163E-01
 0.1674513352031E+00
 0.1595602189052E+00
 0.1546466752896E+00
 0.1492526687957E+00
 0.1427304894194E+00
 0.1352249768825E+00
 0.1269732103958E+00
 0.1181783567334E+00
 0.1089991828963E+00
 0.9956319626872E-01
 0.8997783318696E-01
 0.8033724079639E-01
 0.7072638289734E-01
 0.6122460385178E-01
 0.5191075853868E-01
 0.4287148522014E-01
 0.3421943323181E-01
 0.2611455374315E-01
 0.1891037177722E-01
 0.1294131983174E-01
 0.1388987995691E+00
 0.1338215716077E+00
 0.1285507507962E+00
 0.1217010254673E+00
 0.1140113341502E+00
 0.1059094827740E+00
 0.9761798797660E-01
 0.8925834613673E-01
 0.8091188513098E-01
 0.7264431822385E-01
 0.6451369876126E-01
 0.5657156955445E-01
 0.4886197813471E-01
 0.4142064574581E-01
 0.3427585020121E-01
 0.2745329215423E-01
 0.2098751548567E-01
 0.1496312118858E-01
 0.9564293469063E-02
 0.6073842234957E-02
 0.1144080211439E+00
 0.1122625428355E+00
 0.1031493920944E+00
 0.9368971195835E-01
 0.8469937834186E-01
 0.7620018716271E-01
 0.6811828804874E-01
 0.6040469086070E-01
 0.5304537369089E-01
 0.4604979166324E-01
 0.3943877104860E-01
 0.3323484474454E-01
 0.2745495622579E-01
 0.2210504559412E-01
 0.1717670125949E-01
 0.1264721462790E-01
 0.8490534982347E-02
 0.4731733858620E-02
 0.2094108941704E-02
 0.3525763053429E-02
</DataArray>
<CellData Tensors="'E_Centroid','S_Centroid'">
<DataArray type="Float64" Name="E_Centroid" NumberOfComponents="4" ComponentName0="E11" ComponentName1="E22" ComponentName2="E33" ComponentName3="E12" format="ascii">
-0.4440744816382E-02  0.3381940278049E-01  0.0000000000000E+00  0.1048521872474E-01
-0.7624011042719E-02  0.2811099037601E-01  0.0000000000000E+00  0.3708727332546E-03
-0.6370764650855E-02  0.2593286583340E-01  0.0000000000000E+00  0.6643995353429E-03
-0.6225161294464E-02  0.2482225408343E-01  0.0000000000000E+00  0.3877700774492E-03
-0.5994490906638E-02  0.2399984973355E-01  0.0000000000000E+00  0.3159025857890E-03
-0.5836279528616E-02  0.2334262015673E-01  0.0000000000000E+00  0.2726974028859E-03
-0.5690752251063E-02  0.2276479432635E-01  0.0000000000000E+00  0.2508921423857E-03
-0.5557795657357E-02  0.2223127882270E-01  0.0000000000000E+00  0.2391717565604E-03
-0.5430424975593E-02  0.2172183596241E-01  0.0000000000000E+00  0.2331515232787E-03
-0.5306408119412E-02  0.2122557923686E-01  0.0000000000000E+00  0.2302197024890E-03
-0.5184149179859E-02  0.2073653309326E-01  0.0000000000000E+00  0.2288128178858E-03
-0.5062991536918E-02  0.2025194836455E-01  0.0000000000000E+00  0.2278156288559E-03
-0.4942848529146E-02  0.1977153713277E-01  0.0000000000000E+00  0.2261943348031E-03
-0.4824295320800E-02  0.1929760854933E-01  0.0000000000000E+00  0.2225968209650E-03
-0.4708912430186E-02  0.1883705203360E-01  0.0000000000000E+00  0.2139856511894E-03
-0.4598417567846E-02  0.1840808509115E-01  0.0000000000000E+00  0.1788504649589E-03
-0.4490254526681E-02  0.1800995047481E-01  0.0000000000000E+00  0.6423678770417E-04
-0.4375181907154E-02  0.1758522402321E-01  0.0000000000000E+00 -0.1615425905201E-03
-0.4244247378434E-02  0.1708196720767E-01  0.0000000000000E+00 -0.4610247074698E-03
-0.4095930717597E-02  0.1650264168546E-01  0.0000000000000E+00 -0.7740550370599E-03
-0.3934358353556E-02  0.1587169036085E-01  0.0000000000000E+00 -0.1065452512916E-02
-0.3764830716919E-02  0.1521333563252E-01  0.0000000000000E+00 -0.1323771680901E-02
-0.3591806889534E-02  0.1454611020290E-01  0.0000000000000E+00 -0.1550180390517E-02
-0.3418616979515E-02  0.1388365137037E-01  0.0000000000000E+00 -0.1751253446241E-02
-0.3247669051425E-02  0.1323639492383E-01  0.0000000000000E+00 -0.1935777226983E-02
-0.3080538653666E-02  0.1261231854523E-01  0.0000000000000E+00 -0.2113396424419E-02
-0.2918600538905E-02  0.1201597689108E-01  0.0000000000000E+00 -0.2290086374524E-02
-0.2764586290105E-02  0.1145565044812E-01  0.0000000000000E+00 -0.2465284744501E-02
-0.2622569435065E-02  0.1095034663786E-01  0.0000000000000E+00 -0.2641479174926E-02
-0.2496296519993E-02  0.1052127410522E-01  0.0000000000000E+00 -0.2831651594270E-02
-0.2388629136418E-02  0.1018652878042E-01  0.0000000000000E+00 -0.3054976314017E-02
-0.2301634422571E-02  0.9963680630608E-02  0.0000000000000E+00 -0.3333733997658E-02
-0.2236457763500E-02  0.9869684658801E-02  0.0000000000000E+00 -0.3693453753864E-02
-0.2192733436249E-02  0.9918608804883E-02  0.0000000000000E+00 -0.4160253187200E-02
-0.2172767739121E-02  0.1011932566800E-01  0.0000000000000E+00 -0.4747361475754E-02
-0.2183327460918E-02  0.1048624339163E-01  0.0000000000000E+00 -0.5429926375303E-02
-0.2288120596825E-02  0.1112101126157E-01  0.0000000000000E+00 -0.6183841930430E-02
-0.2373578289725E-02  0.1217460603441E-01  0.0000000000000E+00 -0.7194452558959E-02
-0.3152893241697E-02  0.1404343273148E-01  0.0000000000000E+00 -0.8436428398179E-02
-0.8821256171707E-03  0.1646260715602E-01  0.0000000000000E+00 -0.1398478767588E-01
-0.1554846671085E-01  0.1935721024029E-01  0.0000000000000E+00 -0.6968832554664E-02
-0.3086258862123E-02  0.2906486999043E-01  0.0000000000000E+00  0.1130766353158E-01
-0.6440538133690E-02  0.2795866176305E-01  0.0000000000000E+00  0.4871328983487E-02
-0.6407871130510E-02  0.2562514128982E-01  0.0000000000000E+00  0.1803209206329E-02
-0.6035653167684E-02  0.2439383950376E-01  0.0000000000000E+00  0.1346901920612E-02
-0.5867571502964E-02  0.2352606194076E-01  0.0000000000000E+00  0.1006058876706E-02
-0.5696797582831E-02  0.2283148112566E-01  0.0000000000000E+00  0.8582812976992E-03
-0.5553208659950E-02  0.2223328566785E-01  0.0000000000000E+00  0.7743581549782E-03
-0.5419126137139E-02  0.2168825035477E-01  0.0000000000000E+00  0.7287859451157E-03
-0.5292001911147E-02  0.2117397825584E-01  0.0000000000000E+00  0.7034762781660E-03
-0.5168619978390E-02  0.2067756167912E-01  0.0000000000000E+00  0.6896195768791E-03
-0.5047505043240E-02  0.2019178733624E-01  0.0000000000000E+00  0.6817056509254E-03
-0.4927806654214E-02  0.1971297933256E-01  0.0000000000000E+00  0.6759666602252E-03
-0.4809223267429E-02  0.1924006626241E-01  0.0000000000000E+00  0.6690988648798E-03
-0.4692019769656E-02  0.1877450840967E-01  0.0000000000000E+00  0.6570569849785E-03
-0.4575613925800E-02  0.1832083943135E-01  0.0000000000000E+00  0.6301820318067E-03
-0.4455875240245E-02  0.1788294519070E-01  0.0000000000000E+00  0.5698373048278E-03
-0.4329110952295E-02  0.1745119571873E-01  0.0000000000000E+00  0.4573902930601E-03
-0.4197462485336E-02  0.1699793917936E-01  0.0000000000000E+00  0.2851978026724E-03
-0.4062978563836E-02  0.1649748172023E-01  0.0000000000000E+00  0.6287076135447E-04
-0.3923070804905E-02  0.1594450979275E-01  0.0000000000000E+00 -0.1844264959998E-03
-0.3775606224040E-02  0.1535013277701E-01  0.0000000000000E+00 -0.4315534249093E-03
-0.3621445258370E-02  0.1473026690065E-01  0.0000000000000E+00 -0.6650507721668E-03
-0.3462757618378E-02  0.1409947208587E-01  0.0000000000000E+00 -0.8816633475014E-03
-0.3301829742649E-02  0.1346958703567E-01  0.0000000000000E+00 -0.1084288260017E-02
-0.3140539579250E-02  0.1285002994732E-01  0.0000000000000E+00 -0.1278999905696E-02
-0.2980601732140E-02  0.1224828076467E-01  0.0000000000000E+00 -0.1472501322016E-02
-0.2824336138044E-02  0.1167105869407E-01  0.0000000000000E+00 -0.1670627234648E-02
-0.2674209352374E-02  0.1112716747449E-01  0.0000000000000E+00 -0.1879088931795E-02
-0.2531748522530E-02  0.1062925733318E-01  0.0000000000000E+00 -0.2104997982728E-02
-0.2398000074296E-02  0.1019180831519E-01  0.0000000000000E+00 -0.2358883974373E-02
-0.2273964799525E-02  0.9828355123679E-02  0.0000000000000E+00 -0.2655832445829E-02
-0.2159903525739E-02  0.9550584977163E-02  0.0000000000000E+00 -0.3013905015912E-02
-0.2054952508780E-02  0.9367807610079E-02  0.0000000000000E+00 -0.3451550494315E-02
-0.1958608423389E-02  0.9285985337531E-02  0.0000000000000E+00 -0.3983156030686E-02
-0.1873649609500E-02  0.9308982197886E-02  0.0000000000000E+00 -0.4612567945080E-02
-0.1816162736576E-02  0.9448991544511E-02  0.0000000000000E+00 -0.5334631543688E-02
-0.1766713782940E-02  0.9727330117818E-02  0.0000000000000E+00 -0.6191837194451E-02
-0.1780846740832E-02  0.1015668988294E-01  0.0000000000000E+00 -0.7144395501929E-02
-0.1476411486052E-02  0.1064500213938E-01  0.0000000000000E+00 -0.8897763942078E-02
-0.6065536568023E-03  0.9530754830589E-02  0.0000000000000E+00 -0.8273459112481E-02
-0.1271948122232E-01  0.1093455280344E-01  0.0000000000000E+00  0.1349078801281E-02
-0.2226154952802E-02  0.2621844608170E-01  0.0000000000000E+00  0.1078354826300E-01
-0.5281927728346E-02  0.2647875274173E-01  0.0000000000000E+00  0.6983418981384E-02
-0.6021794784078E-02  0.2511032298908E-01  0.0000000000000E+00  0.3471609683161E-02
-0.5845855910993E-02  0.2386254592629E-01  0.0000000000000E+00  0.2251171835183E-02
-0.5686979777310E-02  0.2299714178739E-01  0.0000000000000E+00  0.1744740817103E-02
-0.5542046682438E-02  0.2229212168687E-01  0.0000000000000E+00  0.1460539898179E-02
-0.5403745553402E-02  0.2168540513194E-01  0.0000000000000E+00  0.1310123829560E-02
-0.5274373287911E-02  0.2113588521901E-01  0.0000000000000E+00  0.1223920589172E-02
-0.5149853790758E-02  0.2062066470429E-01  0.0000000000000E+00  0.1174998862976E-02
-0.5028659698121E-02  0.2012630475016E-01  0.0000000000000E+00  0.1146878975387E-02
-0.4909431283375E-02  0.1964492597350E-01  0.0000000000000E+00  0.1130010025852E-02
-0.4791407222319E-02  0.1917221481140E-01  0.0000000000000E+00  0.1117781342305E-02
-0.4674123315815E-02  0.1870636978770E-01  0.0000000000000E+00  0.1104695432507E-02
-0.4557102167666E-02  0.1824766178285E-01  0.0000000000000E+00  0.1084122222233E-02
-0.4437878132288E-02  0.1779699926898E-01  0.0000000000000E+00  0.1045155721490E-02
-0.4310863113400E-02  0.1735151047496E-01  0.0000000000000E+00  0.9763409121154E-03
-0.4173885386811E-02  0.1690154261029E-01  0.0000000000000E+00  0.8744174478194E-03
-0.4033526152827E-02  0.1643371130416E-01  0.0000000000000E+00  0.7397290957614E-03
-0.3896366686258E-02  0.1593599381519E-01  0.0000000000000E+00  0.5714480572298E-03
-0.3761094150151E-02  0.1540289917410E-01  0.0000000000000E+00  0.3763090398841E-03
-0.3623275775607E-02  0.1483807353567E-01  0.0000000000000E+00  0.1685300714721E-03
-0.3480690532321E-02  0.1425093069110E-01  0.0000000000000E+00 -0.4012783830953E-04
-0.3333397473451E-02  0.1365213100178E-01  0.0000000000000E+00 -0.2444896473421E-03
-0.3182466246475E-02  0.1305139315344E-01  0.0000000000000E+00 -0.4449388754434E-03
-0.3029198486964E-02  0.1245694512466E-01  0.0000000000000E+00 -0.6452389836211E-03
-0.2875224145256E-02  0.1187588667295E-01  0.0000000000000E+00 -0.8504718534639E-03
-0.2722794477097E-02  0.1131527506340E-01  0.0000000000000E+00 -0.1066830701048E-02
-0.2573709492910E-02  0.1078299070864E-01  0.0000000000000E+00 -0.1302334484249E-02
-0.2428145003968E-02  0.1028788853088E-01  0.0000000000000E+00 -0.1565749237076E-02
-0.2285459678440E-02  0.9839474492453E-02  0.0000000000000E+00 -0.1866415755474E-02
-0.2145068249481E-02  0.9446660572597E-02  0.0000000000000E+00 -0.2215714659963E-02
-0.2005957621629E-02  0.9116200414092E-02  0.0000000000000E+00 -0.2626330779010E-02
-0.1866633729704E-02  0.8851670435220E-02  0.0000000000000E+00 -0.3108940091430E-02
-0.1726581653448E-02  0.8653120532861E-02  0.0000000000000E+00 -0.3667977769879E-02
-0.1590710807987E-02  0.8518756414304E-02  0.0000000000000E+00 -0.4298390685251E-02
-0.1462955930490E-02  0.8445055573410E-02  0.0000000000000E+00 -0.4999409657080E-02
-0.1336282613728E-02  0.8403757839682E-02  0.0000000000000E+00 -0.5752118479069E-02
-0.1173021363410E-02  0.8319768405572E-02  0.0000000000000E+00 -0.6543911778263E-02
-0.7398298371741E-03  0.7751689970075E-02  0.0000000000000E+00 -0.6988474660315E-02
-0.1448555620636E-02  0.6334178832399E-02  0.0000000000000E+00 -0.3471674404925E-02
-0.1177655657930E-01  0.7887152770840E-02  0.0000000000000E+00  0.3724894181842E-02
-0.1677371582522E-02  0.2419508379631E-01  0.0000000000000E+00  0.1006067545360E-01
-0.4336274532300E-02  0.2488983471475E-01  0.0000000000000E+00  0.7892523176151E-02
-0.5463011647448E-02  0.2425314520305E-01  0.0000000000000E+00  0.4831099175155E-02
-0.5569498620355E-02  0.2324179030945E-01  0.0000000000000E+00  0.3200792197584E-02
-0.5477496103784E-02  0.2240927964513E-01  0.0000000000000E+00  0.2467919085997E-02
-0.5363909175069E-02  0.2172132229482E-01  0.0000000000000E+00  0.2072460001301E-02
-0.5242797304215E-02  0.2111907981145E-01  0.0000000000000E+00  0.1848919139833E-02
-0.5122165542849E-02  0.2057250660154E-01  0.0000000000000E+00  0.1720436623816E-02
-0.5003330976676E-02  0.2006067462901E-01  0.0000000000000E+00  0.1645087311667E-02
-0.4885936594745E-02  0.1957088466348E-01  0.0000000000000E+00  0.1600573474171E-02
-0.4769514317106E-02  0.1909526832922E-01  0.0000000000000E+00  0.1573050953671E-02
-0.4653533453267E-02  0.1862919558771E-01  0.0000000000000E+00  0.1553216552702E-02
-0.4537434405692E-02  0.1817024899936E-01  0.0000000000000E+00  0.1533505814686E-02
-0.4420031523907E-02  0.1771733273053E-01  0.0000000000000E+00  0.1505782679777E-02
-0.4297936977491E-02  0.1726860357059E-01  0.0000000000000E+00  0.1460414466453E-02
-0.4165993461865E-02  0.1681863042588E-01  0.0000000000000E+00  0.1391804170382E-02
-0.4023764450218E-02  0.1635969341526E-01  0.0000000000000E+00  0.1303138944775E-02
-0.3879333864027E-02  0.1588589825410E-01  0.0000000000000E+00  0.1196831313642E-02
-0.3740822894729E-02  0.1539252830371E-01  0.0000000000000E+00  0.1067826176157E-02
-0.3608299974805E-02  0.1487556545708E-01  0.0000000000000E+00  0.9135499041107E-03
-0.3476980487572E-02  0.1433506524063E-01  0.0000000000000E+00  0.7397973141774E-03
-0.3342910502475E-02  0.1377582624776E-01  0.0000000000000E+00  0.5549523580013E-03
-0.3204446817336E-02  0.1320507392850E-01  0.0000000000000E+00  0.3643510458861E-03
-0.3061484429921E-02  0.1263035949884E-01  0.0000000000000E+00  0.1690681053729E-03
-0.2914677045617E-02  0.1205863319413E-01  0.0000000000000E+00 -0.3303021359080E-04
-0.2765303181730E-02  0.1149633400385E-01  0.0000000000000E+00 -0.2460388881671E-03
-0.2615130722740E-02  0.1094997675805E-01  0.0000000000000E+00 -0.4761953783015E-03
-0.2465233314043E-02  0.1042609585998E-01  0.0000000000000E+00 -0.7319890007809E-03
-0.2314963472091E-02  0.9930818383133E-02  0.0000000000000E+00 -0.1022207419699E-02
-0.2162690963855E-02  0.9469957278216E-02  0.0000000000000E+00 -0.1354843677822E-02
-0.2006789989238E-02  0.9048491514590E-02  0.0000000000000E+00 -0.1737799555260E-02
-0.1845628244997E-02  0.8669164788005E-02  0.0000000000000E+00 -0.2178120452425E-02
-0.1677793988876E-02  0.8331380996211E-02  0.0000000000000E+00 -0.2678823138854E-02
-0.1503936444116E-02  0.8030953375923E-02  0.0000000000000E+00 -0.3234744132255E-02
-0.1328652481103E-02  0.7760423701259E-02  0.0000000000000E+00 -0.3831940200636E-02
-0.1156051830102E-02  0.7502416330155E-02  0.0000000000000E+00 -0.4447053749636E-02
-0.9813278826671E-03  0.7207423523418E-02  0.0000000000000E+00 -0.5021593015725E-02
-0.7737758962072E-03  0.6737895986266E-02  0.0000000000000E+00 -0.5375998628939E-02
-0.6510350863618E-03  0.5796159541477E-02  0.0000000000000E+00 -0.4606181739277E-02
-0.2457221792613E-02  0.4830941410819E-02  0.0000000000000E+00 -0.3672744722518E-03
-0.1102340114810E-01  0.6483494447556E-02  0.0000000000000E+00  0.4136427701020E-02
-0.1311754588627E-02  0.2260714259360E-01  0.0000000000000E+00  0.9369310113778E-02
-0.3594062728735E-02  0.2341559184840E-01  0.0000000000000E+00  0.8210383399655E-02
-0.4874011523191E-02  0.2323362683268E-01  0.0000000000000E+00  0.5788032952284E-02
-0.5221941787873E-02  0.2251134502254E-01  0.0000000000000E+00  0.4077943619243E-02
-0.5235361013128E-02  0.2177008914796E-01  0.0000000000000E+00  0.3170708845145E-02
-0.5165759193796E-02  0.2111756535732E-01  0.0000000000000E+00  0.2673512527689E-02
-0.5069141060806E-02  0.2053340248408E-01  0.0000000000000E+00  0.2384177282100E-02
-0.4962305564168E-02  0.1999709511471E-01  0.0000000000000E+00  0.2213270494592E-02
-0.4851915631006E-02  0.1949315388632E-01  0.0000000000000E+00  0.2111018581382E-02
-0.4740091270200E-02  0.1901061952665E-01  0.0000000000000E+00  0.2049058687603E-02
-0.4627471609634E-02  0.1854230695059E-01  0.0000000000000E+00  0.2009995216220E-02
-0.4514033068927E-02  0.1808361397562E-01  0.0000000000000E+00  0.1982019899974E-02
-0.4399224343876E-02  0.1763166474638E-01  0.0000000000000E+00  0.1955886570172E-02
-0.4281458194027E-02  0.1718422203747E-01  0.0000000000000E+00  0.1922886564905E-02
-0.4157218251051E-02  0.1673783521520E-01  0.0000000000000E+00  0.1875301108809E-02
-0.4022447848488E-02  0.1628653614926E-01  0.0000000000000E+00  0.1811317864946E-02
-0.3878084799269E-02  0.1582467242534E-01  0.0000000000000E+00  0.1736313066428E-02
-0.3732421195427E-02  0.1535048164986E-01  0.0000000000000E+00  0.1652525585588E-02
-0.3593741580866E-02  0.1486321386286E-01  0.0000000000000E+00  0.1553122357089E-02
-0.3463107430648E-02  0.1436035772309E-01  0.0000000000000E+00  0.1431007209415E-02
-0.3336179987840E-02  0.1384042355272E-01  0.0000000000000E+00  0.1286240273895E-02
-0.3208246491050E-02  0.1330518650599E-01  0.0000000000000E+00  0.1123623097257E-02
-0.3076457112751E-02  0.1275906910543E-01  0.0000000000000E+00  0.9475874815580E-03
-0.2939680951883E-02  0.1220759192473E-01  0.0000000000000E+00  0.7597982699701E-03
-0.2797885157863E-02  0.1165637194183E-01  0.0000000000000E+00  0.5591317097015E-03
-0.2651826060214E-02  0.1111093368887E-01  0.0000000000000E+00  0.3421881441743E-03
-0.2502644015284E-02  0.1057684244100E-01  0.0000000000000E+00  0.1030525398161E-03
-0.2350747056477E-02  0.1005920405465E-01  0.0000000000000E+00 -0.1662878829628E-03
-0.2194967320943E-02  0.9562012661707E-02  0.0000000000000E+00 -0.4737145335495E-03
-0.2033173928070E-02  0.9088304759914E-02  0.0000000000000E+00 -0.8254790435320E-03
-0.1863273399031E-02  0.8639977925470E-02  0.0000000000000E+00 -0.1226075601437E-02
-0.1683602379701E-02  0.8216731596174E-02  0.0000000000000E+00 -0.1677132290208E-02
-0.1493571829671E-02  0.7815113159230E-02  0.0000000000000E+00 -0.2174344739364E-02
-0.1295375800221E-02  0.7428190248518E-02  0.0000000000000E+00 -0.2703765628522E-02
-0.1095317797618E-02  0.7044427776758E-02  0.0000000000000E+00 -0.3239121079882E-02
-0.9019373479431E-03  0.6640502989153E-02  0.0000000000000E+00 -0.3733213092735E-02
-0.7229097750303E-03  0.6159662630714E-02  0.0000000000000E+00 -0.4077731814909E-02
-0.5966886961142E-03  0.5483116349551E-02  0.0000000000000E+00 -0.3955550088410E-02
-0.8917137374029E-03  0.4545644259533E-02  0.0000000000000E+00 -0.2457323142413E-02
-0.3284502199002E-02  0.4070700404287E-02  0.0000000000000E+00  0.1468736235300E-02
-0.1036900500212E-01  0.5638320900527E-02  0.0000000000000E+00  0.4042306493151E-02
-0.1056755390914E-02  0.2128018071057E-01  0.0000000000000E+00  0.8754282263796E-02
-0.3013345894723E-02  0.2208249321710E-01  0.0000000000000E+00  0.8235399195527E-02
-0.4317910133818E-02  0.2216632100185E-01  0.0000000000000E+00  0.6416213823931E-02
-0.4837794996861E-02  0.2169925608894E-01  0.0000000000000E+00  0.4819644440706E-02
-0.4964059989498E-02  0.2108180980562E-01  0.0000000000000E+00  0.3829262428663E-02
-0.4949804634878E-02  0.2048350854933E-01  0.0000000000000E+00  0.3252328969802E-02
-0.4883551348304E-02  0.1992822851215E-01  0.0000000000000E+00  0.2907380214779E-02
-0.4794742511189E-02  0.1940932955303E-01  0.0000000000000E+00  0.2697934349853E-02
-0.4695492338858E-02  0.1891762109643E-01  0.0000000000000E+00  0.2569846443460E-02
-0.4590930148412E-02  0.1844507406683E-01  0.0000000000000E+00  0.2490611067440E-02
-0.4483162531150E-02  0.1798570854794E-01  0.0000000000000E+00  0.2439865785796E-02
-0.4372862469045E-02  0.1753529806677E-01  0.0000000000000E+00  0.2403776974228E-02
-0.4259674110733E-02  0.1709073785055E-01  0.0000000000000E+00  0.2371865029151E-02
-0.4141962585371E-02  0.1664905923517E-01  0.0000000000000E+00  0.2335414382142E-02
-0.4016590474515E-02  0.1620610549985E-01  0.0000000000000E+00  0.2288432561548E-02
-0.3880730386114E-02  0.1575627276998E-01  0.0000000000000E+00  0.2231202193241E-02
-0.3736279937535E-02  0.1529565294911E-01  0.0000000000000E+00  0.2169273617404E-02
-0.3591175450269E-02  0.1482481990135E-01  0.0000000000000E+00  0.2103925895601E-02
-0.3453257098191E-02  0.1434517510933E-01  0.0000000000000E+00  0.2027586302904E-02
-0.3324178507387E-02  0.1385537262075E-01  0.0000000000000E+00  0.1931124137485E-02
-0.3200284607214E-02  0.1335336872444E-01  0.0000000000000E+00  0.1810958416290E-02
-0.3076705568346E-02  0.1283905677156E-01  0.0000000000000E+00  0.1668779194590E-02
-0.2949837130600E-02  0.1231470116278E-01  0.0000000000000E+00  0.1507625011678E-02
-0.2817720183722E-02  0.1178402406463E-01  0.0000000000000E+00  0.1329124306651E-02
-0.2679649788629E-02  0.1125131075489E-01  0.0000000000000E+00  0.1132690117802E-02
-0.2535789613200E-02  0.1072102456183E-01  0.0000000000000E+00  0.9154717183523E-03
-0.2386640016085E-02  0.1019762089230E-01  0.0000000000000E+00  0.6721449967866E-03
-0.2232050797458E-02  0.9684834599092E-02  0.0000000000000E+00  0.3956785646887E-03
-0.2070550572051E-02  0.9184944511987E-02  0.0000000000000E+00  0.7961450130267E-04
-0.1899872883885E-02  0.8698907021230E-02  0.0000000000000E+00 -0.2802491649353E-03
-0.1717948739578E-02  0.8226353498131E-02  0.0000000000000E+00 -0.6850852947127E-03
-0.1523632183355E-02  0.7764871558301E-02  0.0000000000000E+00 -0.1131514856117E-02
-0.1317702183031E-02  0.7309318606658E-02  0.0000000000000E+00 -0.1608639985735E-02
-0.1104619629899E-02  0.6851433510781E-02  0.0000000000000E+00 -0.2094233917395E-02
-0.8943029553805E-03  0.6378473587150E-02  0.0000000000000E+00 -0.2549786370920E-02
-0.7031938102773E-03  0.5867393555303E-02  0.0000000000000E+00 -0.2906597845599E-02
-0.5623149541958E-03  0.5270721055624E-02  0.0000000000000E+00 -0.3015161466092E-02
-0.5856705874372E-03  0.4528253016142E-02  0.0000000000000E+00 -0.2514347730992E-02
-0.1250846391478E-02  0.3744161916974E-02  0.0000000000000E+00 -0.7195407939610E-03
-0.3884252106113E-02  0.3625281928261E-02  0.0000000000000E+00  0.2544406501506E-02
-0.9791127481730E-02  0.5030958411768E-02  0.0000000000000E+00  0.3863388122320E-02
-0.8714119617748E-03  0.2012338723182E-01  0.0000000000000E+00  0.8217010453311E-02
-0.2554989530651E-02  0.2087509893210E-01  0.0000000000000E+00  0.8116248736548E-02
-0.3817496896278E-02  0.2110756992674E-01  0.0000000000000E+00  0.6805877276133E-02
-0.4445574397581E-02  0.2084052047977E-01  0.0000000000000E+00  0.5413880417059E-02
-0.4672977955621E-02  0.2035285295166E-01  0.0000000000000E+00  0.4422750313345E-02
-0.4718973226036E-02  0.1982231512789E-01  0.0000000000000E+00  0.3798747330006E-02
-0.4687499490962E-02  0.1930478245612E-01  0.0000000000000E+00  0.3411517754378E-02
-0.4619963179103E-02  0.1880940045102E-01  0.0000000000000E+00  0.3169931759801E-02
-0.4534194097422E-02  0.1833398150005E-01  0.0000000000000E+00  0.3018764756613E-02
-0.4438457914755E-02  0.1787404944741E-01  0.0000000000000E+00  0.2923448455359E-02
-0.4336570604142E-02  0.1742530648181E-01  0.0000000000000E+00  0.2861601207112E-02
-0.4230076015441E-02  0.1698420237340E-01  0.0000000000000E+00  0.2817917836994E-02
-0.4119010842730E-02  0.1654767847914E-01  0.0000000000000E+00  0.2781143432345E-02
-0.4002000156388E-02  0.1611245971425E-01  0.0000000000000E+00  0.2742824994316E-02
-0.3876561487773E-02  0.1567429235320E-01  0.0000000000000E+00  0.2698257578268E-02
-0.3741009104309E-02  0.1522829330837E-01  0.0000000000000E+00  0.2648655778289E-02
-0.3597863632804E-02  0.1477191742807E-01  0.0000000000000E+00  0.2598838642811E-02
-0.3454482768888E-02  0.1430706641061E-01  0.0000000000000E+00  0.2548938867684E-02
-0.3318025540270E-02  0.1383627880847E-01  0.0000000000000E+00  0.2491113254797E-02
-0.3190433317081E-02  0.1335901425052E-01  0.0000000000000E+00  0.2415486025568E-02
-0.3068728378748E-02  0.1287312070686E-01  0.0000000000000E+00  0.2316298763631E-02
-0.2948213608271E-02  0.1237736227872E-01  0.0000000000000E+00  0.2192801166669E-02
-0.2824884479206E-02  0.1187240610767E-01  0.0000000000000E+00  0.2046535676428E-02
-0.2696159348235E-02  0.1136044553176E-01  0.0000000000000E+00  0.1878710692337E-02
-0.2560723115037E-02  0.1084449531343E-01  0.0000000000000E+00  0.1688949082957E-02
-0.2418152462049E-02  0.1032791163455E-01  0.0000000000000E+00  0.1474862507579E-02
-0.2268362862957E-02  0.9814016597926E-02  0.0000000000000E+00  0.1231878349580E-02
-0.2110770420367E-02  0.9305297202359E-02  0.0000000000000E+00  0.9542009900216E-03
-0.1943778466095E-02  0.8802656056809E-02  0.0000000000000E+00  0.6370527379357E-03
-0.1765267349063E-02  0.8305527531643E-02  0.0000000000000E+00  0.2784285038314E-03
-0.1573594211198E-02  0.7811996183619E-02  0.0000000000000E+00 -0.1196898490714E-03
-0.1368580415454E-02  0.7318386883546E-02  0.0000000000000E+00 -0.5494786508742E-03
-0.1152836602168E-02  0.6818885467972E-02  0.0000000000000E+00 -0.9943329225394E-03
-0.9337976483124E-03  0.6305336699212E-02  0.0000000000000E+00 -0.1424822870164E-02
-0.7263932388175E-03  0.5766433281192E-02  0.0000000000000E+00 -0.1792269679668E-02
-0.5575519006524E-03  0.5184563132215E-02  0.0000000000000E+00 -0.2012170382456E-02
-0.4847389591776E-03  0.4532367242783E-02  0.0000000000000E+00 -0.1915872052751E-02
-0.6761538306896E-03  0.3810655435118E-02  0.0000000000000E+00 -0.1173089320007E-02
-0.1618789147913E-02  0.3210444228791E-02  0.0000000000000E+00  0.6348792798985E-03
-0.4288993902065E-02  0.3314416756669E-02  0.0000000000000E+00  0.3193227217021E-02
-0.9279905732198E-02  0.4543386821928E-02  0.0000000000000E+00  0.3718627238907E-02
-0.7318268308888E-03  0.1908463300991E-01  0.0000000000000E+00  0.7748881057981E-02
-0.2188541659215E-02  0.1977169241023E-01  0.0000000000000E+00  0.7929175889180E-02
-0.3377081823314E-02  0.2008198441927E-01  0.0000000000000E+00  0.7030255819246E-02
-0.4063855354556E-02  0.1996266250092E-01  0.0000000000000E+00  0.5873463108135E-02
-0.4372648106472E-02  0.1959502943886E-01  0.0000000000000E+00  0.4940933755972E-02
-0.4477366740330E-02  0.1913832917163E-01  0.0000000000000E+00  0.4304366541723E-02
-0.4482895756810E-02  0.1866502305461E-01  0.0000000000000E+00  0.3890913174292E-02
-0.4438865941518E-02  0.1819806042524E-01  0.0000000000000E+00  0.3625265082784E-02
-0.4368406139194E-02  0.1774246418097E-01  0.0000000000000E+00  0.3455129297233E-02
-0.4282846829590E-02  0.1729757411974E-01  0.0000000000000E+00  0.3345836095224E-02
-0.4187796835399E-02  0.1686108713093E-01  0.0000000000000E+00  0.3274091060194E-02
-0.4085803673126E-02  0.1643038788165E-01  0.0000000000000E+00  0.3223743398606E-02
-0.3977470722424E-02  0.1600273185956E-01  0.0000000000000E+00  0.3183174628966E-02
-0.3861909078929E-02  0.1557490121441E-01  0.0000000000000E+00  0.3144302423964E-02
-0.3737413940906E-02  0.1514292483929E-01  0.0000000000000E+00  0.3103273192601E-02
-0.3603284283430E-02  0.1470274198487E-01  0.0000000000000E+00  0.3061505743477E-02
-0.3462420618945E-02  0.1425284211958E-01  0.0000000000000E+00  0.3022740534042E-02
-0.3321541683747E-02  0.1379587019034E-01  0.0000000000000E+00  0.2986022761235E-02
-0.3187067204828E-02  0.1333492448858E-01  0.0000000000000E+00  0.2943466852561E-02
-0.3061021363448E-02  0.1286998093689E-01  0.0000000000000E+00  0.2885115466555E-02
-0.2941007128963E-02  0.1239895705617E-01  0.0000000000000E+00  0.2804007168779E-02
-0.2822655880298E-02  0.1191996026449E-01  0.0000000000000E+00  0.2697602868278E-02
-0.2701814592704E-02  0.1143250574222E-01  0.0000000000000E+00  0.2566064695167E-02
-0.2575467678925E-02  0.1093752627903E-01  0.0000000000000E+00  0.2409997251498E-02
-0.2441783115505E-02  0.1043687359289E-01  0.0000000000000E+00  0.2229029809308E-02
-0.2299806831143E-02  0.9932826944910E-02  0.0000000000000E+00  0.2021176261188E-02
-0.2148959069133E-02  0.9427630743883E-02  0.0000000000000E+00  0.1782689118794E-02
-0.1988350303950E-02  0.8922678995971E-02  0.0000000000000E+00  0.1509107200165E-02
-0.1816412481324E-02  0.8417793450505E-02  0.0000000000000E+00  0.1197412885292E-02
-0.1631394604485E-02  0.7911347460544E-02  0.0000000000000E+00  0.8477910127445E-03
-0.1432390305792E-02  0.7400491406112E-02  0.0000000000000E+00  0.4651050578545E-03
-0.1220534752372E-02  0.6881019412259E-02  0.0000000000000E+00  0.6096079677731E-04
-0.1000633942769E-02  0.6347327850994E-02  0.0000000000000E+00 -0.3433859364913E-03
-0.7836022665002E-03  0.5792615105382E-02  0.0000000000000E+00 -0.7129236368870E-03
-0.5901854216035E-03  0.5209060560648E-02  0.0000000000000E+00 -0.9920034631030E-03
-0.4585946751710E-03  0.4587894839683E-02  0.0000000000000E+00 -0.1088370076660E-02
-0.4689861400944E-03  0.3924958922376E-02  0.0000000000000E+00 -0.8368390560215E-03
-0.8172561556326E-03  0.3267344583530E-02  0.0000000000000E+00  0.2372555620245E-04
-0.1946240005792E-02  0.2832695936295E-02  0.0000000000000E+00  0.1686323913479E-02
-0.4544003526488E-02  0.3062264936230E-02  0.0000000000000E+00  0.3610392566375E-02
-0.8823736664187E-02  0.4126704631064E-02  0.0000000000000E+00  0.3631031954709E-02
-0.6235019987006E-03  0.1813178761603E-01  0.0000000000000E+00  0.7339989829141E-02
-0.1891486645928E-02  0.1875273347666E-01  0.0000000000000E+00  0.7714159504082E-02
-0.2993197340366E-02  0.1909840425122E-01  0.0000000000000E+00  0.7142666141119E-02
-0.3703129800623E-02  0.1908418755396E-01  0.0000000000000E+00  0.6219737657131E-02
-0.4072158902101E-02  0.1882001066614E-01  0.0000000000000E+00  0.5382737796711E-02
-0.4229622039211E-02  0.1843683524604E-01  0.0000000000000E+00  0.4763880210893E-02
-0.4272010303665E-02  0.1801143223661E-01  0.0000000000000E+00  0.4341178395612E-02
-0.4252627721832E-02  0.1757648750547E-01  0.0000000000000E+00  0.4060622174763E-02
-0.4198728423323E-02  0.1714359032347E-01  0.0000000000000E+00  0.3876574215241E-02
-0.4124414547255E-02  0.1671587469535E-01  0.0000000000000E+00  0.3756144031600E-02
-0.4037042525784E-02  0.1629317391816E-01  0.0000000000000E+00  0.3676222699586E-02
-0.3940232070062E-02  0.1587399919480E-01  0.0000000000000E+00  0.3620464121326E-02
-0.3835282552446E-02  0.1545614948122E-01  0.0000000000000E+00  0.3577250574481E-02
-0.3721935709246E-02  0.1503674194374E-01  0.0000000000000E+00  0.3538910888267E-02
-0.3599293504397E-02  0.1461230923558E-01  0.0000000000000E+00  0.3502102693905E-02
-0.3467476053044E-02  0.1417960118912E-01  0.0000000000000E+00  0.3468034654856E-02
-0.3329598761069E-02  0.1373788675150E-01  0.0000000000000E+00  0.3439302950271E-02
-0.3191757675146E-02  0.1329020882063E-01  0.0000000000000E+00  0.3414017455468E-02
-0.3059658654951E-02  0.1283989421578E-01  0.0000000000000E+00  0.3384372797875E-02
-0.2935281281752E-02  0.1238722455064E-01  0.0000000000000E+00  0.3340665766071E-02
-0.2816692210660E-02  0.1193023965253E-01  0.0000000000000E+00  0.3275363829926E-02
-0.2699905009109E-02  0.1146667771931E-01  0.0000000000000E+00  0.3184691244712E-02
-0.2580784475497E-02  0.1099523725559E-01  0.0000000000000E+00  0.3067647536063E-02
-0.2456041005959E-02  0.1051583571705E-01  0.0000000000000E+00  0.2924191817440E-02
-0.2323433485401E-02  0.1002929734772E-01  0.0000000000000E+00  0.2753851519869E-02
-0.2181562662293E-02  0.9536905971585E-02  0.0000000000000E+00  0.2554996619894E-02
-0.2029458858565E-02  0.9039929420316E-02  0.0000000000000E+00  0.2324715087022E-02
-0.1866050727493E-02  0.8538836896950E-02  0.0000000000000E+00  0.2059876268612E-02
-0.1689931851302E-02  0.8032632584648E-02  0.0000000000000E+00  0.1759178790373E-02
-0.1499891589392E-02  0.7519013801006E-02  0.0000000000000E+00  0.1424863455078E-02
-0.1295986229407E-02  0.6994704020791E-02  0.0000000000000E+00  0.1064305797318E-02
-0.1080907757359E-02  0.6455571482034E-02  0.0000000000000E+00  0.6921566867359E-03
-0.8618891549761E-03  0.5896941084984E-02  0.0000000000000E+00  0.3331300325992E-03
-0.6535633799178E-03  0.5314309969852E-02  0.0000000000000E+00  0.2587179105673E-04
-0.4826384736534E-03  0.4704660167407E-02  0.0000000000000E+00 -0.1707337266852E-03
-0.3975934780307E-03  0.4069396729861E-02  0.0000000000000E+00 -0.1649413499288E-03
-0.4942552356064E-03  0.3425148999802E-02  0.0000000000000E+00  0.1887169817151E-03
-0.9744930854207E-03  0.2847304865839E-02  0.0000000000000E+00  0.1072130210443E-02
-0.2215565911824E-02  0.2545382611138E-02  0.0000000000000E+00  0.2514100613351E-02
-0.4688157089535E-02  0.2837084450509E-02  0.0000000000000E+00  0.3904799043259E-02
-0.8411165155916E-02  0.3757760552178E-02  0.0000000000000E+00  0.3596229035279E-02
-0.5372959117925E-03  0.1724392247708E-01  0.0000000000000E+00  0.6981410877150E-02
-0.1647392241762E-02  0.1780236097748E-01  0.0000000000000E+00  0.7492398394607E-02
-0.2659603086548E-02  0.1815815995675E-01  0.0000000000000E+00  0.7180389243534E-02
-0.3368394692135E-02  0.1821646641527E-01  0.0000000000000E+00  0.6474781290499E-02
-0.3778338341442E-02  0.1803759628268E-01  0.0000000000000E+00  0.5752858904022E-02
-0.3980204751164E-02  0.1772333894847E-01  0.0000000000000E+00  0.5175251268089E-02
-0.4057299203482E-02  0.1734684081065E-01  0.0000000000000E+00  0.4759350410211E-02
-0.4062606480519E-02  0.1694615562269E-01  0.0000000000000E+00  0.4473432911390E-02
-0.4025919675245E-02  0.1653811664331E-01  0.0000000000000E+00  0.4281099908307E-02
-0.3963597854134E-02  0.1612934609202E-01  0.0000000000000E+00  0.4152900075511E-02
-0.3884590185130E-02  0.1572180595574E-01  0.0000000000000E+00  0.4066922507956E-02
-0.3793588824829E-02  0.1531524487185E-01  0.0000000000000E+00  0.4007246201342E-02
-0.3692663184126E-02  0.1490817719122E-01  0.0000000000000E+00  0.3962578949699E-02
-0.3582260830558E-02  0.1449824865417E-01  0.0000000000000E+00  0.3925688005846E-02
-0.3462265411498E-02  0.1408261245509E-01  0.0000000000000E+00  0.3893516359232E-02
-0.3333471368488E-02  0.1365877174809E-01  0.0000000000000E+00  0.3866860649998E-02
-0.3199101689202E-02  0.1322658540125E-01  0.0000000000000E+00  0.3847246600894E-02
-0.3064679857085E-02  0.1278928874509E-01  0.0000000000000E+00  0.3832028174439E-02
-0.2935259318697E-02  0.1235024800200E-01  0.0000000000000E+00  0.3813555582443E-02
-0.2812702143686E-02  0.1190990520132E-01  0.0000000000000E+00  0.3782544003586E-02
-0.2695430278454E-02  0.1146642128755E-01  0.0000000000000E+00  0.3731293034689E-02
-0.2579838004796E-02  0.1101733612166E-01  0.0000000000000E+00  0.3655228027431E-02
-0.2461910589835E-02  0.1056077653775E-01  0.0000000000000E+00  0.3552434477398E-02
-0.2338213080407E-02  0.1009585763682E-01  0.0000000000000E+00  0.3422273126850E-02
-0.2206204666676E-02  0.9622523507338E-02  0.0000000000000E+00  0.3264128770183E-02
-0.2064139791601E-02  0.9141174546897E-02  0.0000000000000E+00  0.3076690261834E-02
-0.1910767988021E-02  0.8652227439784E-02  0.0000000000000E+00  0.2857847600043E-02
-0.1744950558336E-02  0.8155396593611E-02  0.0000000000000E+00  0.2605727650366E-02
-0.1565554722544E-02  0.7649103044850E-02  0.0000000000000E+00  0.2320614794737E-02
-0.1372037336043E-02  0.7130688001586E-02  0.0000000000000E+00  0.2006576589933E-02
-0.1165567753011E-02  0.6596856190852E-02  0.0000000000000E+00  0.1673057546379E-02
-0.9505361837430E-03  0.6044024848200E-02  0.0000000000000E+00  0.1336968871436E-02
-0.7366887128983E-03  0.5468979629462E-02  0.0000000000000E+00  0.1025224822533E-02
-0.5423398944397E-03  0.4870118731482E-02  0.0000000000000E+00  0.7780568441099E-03
-0.3996938760606E-03  0.4249785926752E-02  0.0000000000000E+00  0.6538982848898E-03
-0.3652815716881E-03  0.3619149756887E-02  0.0000000000000E+00  0.7372059887363E-03
-0.5431607010489E-03  0.3010654304650E-02  0.0000000000000E+00  0.1145063133385E-02
-0.1126607451113E-02  0.2512871870563E-02  0.0000000000000E+00  0.1986061529427E-02
-0.2424295500565E-02  0.2310878233628E-02  0.0000000000000E+00  0.3181658437994E-02
-0.4750750612988E-02  0.2625697887953E-02  0.0000000000000E+00  0.4135871310448E-02
-0.8032073143741E-02  0.3424066379148E-02  0.0000000000000E+00  0.3604004206841E-02
-0.4672324550870E-03  0.1640678018551E-01  0.0000000000000E+00  0.6665625372133E-02
-0.1444244450344E-02  0.1690810217103E-01  0.0000000000000E+00  0.7275084581129E-02
-0.2369535061007E-02  0.1725920268992E-01  0.0000000000000E+00  0.7169076168329E-02
-0.3061228527793E-02  0.1736592362857E-01  0.0000000000000E+00  0.6658271510325E-02
-0.3495821653135E-02  0.1725527714470E-01  0.0000000000000E+00  0.6058890361018E-02
-0.3732969340677E-02  0.1700296293417E-01  0.0000000000000E+00  0.5539117475976E-02
-0.3841194056416E-02  0.1667420394603E-01  0.0000000000000E+00  0.5143907864130E-02
-0.3870249088321E-02  0.1630872229084E-01  0.0000000000000E+00  0.4861891841048E-02
-0.3850841762628E-02  0.1592697067738E-01  0.0000000000000E+00  0.4667117643623E-02
-0.3800921890719E-02  0.1553851731192E-01  0.0000000000000E+00  0.4534832678090E-02
-0.3730784145091E-02  0.1514731541802E-01  0.0000000000000E+00  0.4445192666210E-02
-0.3646130089270E-02  0.1475438119260E-01  0.0000000000000E+00  0.4383255601029E-02
-0.3549818055203E-02  0.1435905219088E-01  0.0000000000000E+00  0.4338342923357E-02
-0.3443021360618E-02  0.1395962300582E-01  0.0000000000000E+00  0.4303699312696E-02
-0.3326350292720E-02  0.1355391665209E-01  0.0000000000000E+00  0.4276429163243E-02
-0.3201149398843E-02  0.1314011803935E-01  0.0000000000000E+00  0.4256853717580E-02
-0.3070681838349E-02  0.1271853796989E-01  0.0000000000000E+00  0.4245567293789E-02
-0.2939960858960E-02  0.1229248224032E-01  0.0000000000000E+00  0.4239346334315E-02
-0.2813461118058E-02  0.1186525086332E-01  0.0000000000000E+00  0.4230750557102E-02
-0.2692890495977E-02  0.1143735006407E-01  0.0000000000000E+00  0.4210989004063E-02
-0.2576936181410E-02  0.1100704121318E-01  0.0000000000000E+00  0.4172447620193E-02
-0.2462345079178E-02  0.1057176574603E-01  0.0000000000000E+00  0.4110087122076E-02
-0.2345281387376E-02  0.1012925528993E-01  0.0000000000000E+00  0.4021319604731E-02
-0.2222264449483E-02  0.9678001938217E-02  0.0000000000000E+00  0.3905002105517E-02
-0.2090556179758E-02  0.9217216605873E-02  0.0000000000000E+00  0.3760379470885E-02
-0.1948165521633E-02  0.8746542944815E-02  0.0000000000000E+00  0.3586428131180E-02
-0.1793666376036E-02  0.8265682005296E-02  0.0000000000000E+00  0.3381777619643E-02
-0.1625954329194E-02  0.7773757400754E-02  0.0000000000000E+00  0.3145693173474E-02
-0.1444260339674E-02  0.7268812835172E-02  0.0000000000000E+00  0.2879855502567E-02
-0.1248795168634E-02  0.6748094853217E-02  0.0000000000000E+00  0.2589864523648E-02
-0.1041923984510E-02  0.6208605968449E-02  0.0000000000000E+00  0.2286744089633E-02
-0.8297811310964E-03  0.5647659979251E-02  0.0000000000000E+00  0.1988866723155E-02
-0.6245712751782E-03  0.5063846344789E-02  0.0000000000000E+00  0.1724103949324E-02
-0.4480062338510E-03  0.4458732833440E-02  0.0000000000000E+00  0.1532321032640E-02
-0.3368678671054E-03  0.3839932193481E-02  0.0000000000000E+00  0.1468332785452E-02
-0.3530327227326E-03  0.3226864874872E-02  0.0000000000000E+00  0.1604732363724E-02
-0.6024540656535E-03  0.2662354602331E-02  0.0000000000000E+00  0.2027647771971E-02
-0.1261583735487E-02  0.2237499054548E-02  0.0000000000000E+00  0.2785213942610E-02
-0.2576474952971E-02  0.2107728273796E-02  0.0000000000000E+00  0.3735693985347E-02
-0.4752778233203E-02  0.2422718282888E-02  0.0000000000000E+00  0.4335562201716E-02
-0.7678095887047E-02  0.3118011851544E-02  0.0000000000000E+00  0.3644616563066E-02
-0.4092733990925E-03  0.1561027668810E-01  0.0000000000000E+00  0.6386430793584E-02
-0.1273185992952E-02  0.1606021834813E-01  0.0000000000000E+00  0.7067958341501E-02
-0.2116647756129E-02  0.1639813963964E-01  0.0000000000000E+00  0.7126269901755E-02
-0.2781221413600E-02  0.1653576306007E-01  0.0000000000000E+00  0.6786588091843E-02
-0.3227442772197E-02  0.1647841245695E-01  0.0000000000000E+00  0.6309411464256E-02
-0.3490980928032E-02  0.1628011029305E-01  0.0000000000000E+00  0.5857970974740E-02
-0.3625928937923E-02  0.1599638657285E-01  0.0000000000000E+00  0.5494616339413E-02
-0.3677001763888E-02  0.1566592199554E-01  0.0000000000000E+00  0.5224940846646E-02
-0.3674407704522E-02  0.1531118808940E-01  0.0000000000000E+00  0.5033464168906E-02
-0.3636968619647E-02  0.1494401486268E-01  0.0000000000000E+00  0.4900898568853E-02
-0.3576011400824E-02  0.1457010487144E-01  0.0000000000000E+00  0.4810141851867E-02
-0.3498130429101E-02  0.1419169882568E-01  0.0000000000000E+00  0.4747695446400E-02
-0.3406943168113E-02  0.1380900362094E-01  0.0000000000000E+00  0.4703744946010E-02
-0.3304326500356E-02  0.1342102273688E-01  0.0000000000000E+00  0.4672069306639E-02
-0.3191546529265E-02  0.1302625466509E-01  0.0000000000000E+00  0.4649890109450E-02
-0.3070394944799E-02  0.1262349354663E-01  0.0000000000000E+00  0.4637076627343E-02
-0.2944133957721E-02  0.1221340220868E-01  0.0000000000000E+00  0.4633456771524E-02
-0.2817330127452E-02  0.1179928552507E-01  0.0000000000000E+00  0.4635395478488E-02
-0.2693953333621E-02  0.1138432127042E-01  0.0000000000000E+00  0.4635705833195E-02
-0.2575543684420E-02  0.1096901876677E-01  0.0000000000000E+00  0.4626121243365E-02
-0.2460983134750E-02  0.1055171551988E-01  0.0000000000000E+00  0.4599272484131E-02
-0.2347332897471E-02  0.1012981248154E-01  0.0000000000000E+00  0.4549904958590E-02
-0.2230965488601E-02  0.9700772799618E-02  0.0000000000000E+00  0.4474971496360E-02
-0.2108429410611E-02  0.9262613865411E-02  0.0000000000000E+00  0.4372938997977E-02
-0.1976879978487E-02  0.8813952288761E-02  0.0000000000000E+00  0.4242939640552E-02
-0.1834175836032E-02  0.8353804912492E-02  0.0000000000000E+00  0.4084209483113E-02
-0.1678811282793E-02  0.7881292941922E-02  0.0000000000000E+00  0.3896036635214E-02
-0.1509802653346E-02  0.7395101732060E-02  0.0000000000000E+00  0.3678676138417E-02
-0.1326812323402E-02  0.6893074506040E-02  0.0000000000000E+00  0.3434978365436E-02
-0.1130854032164E-02  0.6372570980261E-02  0.0000000000000E+00  0.3171742361652E-02
-0.9255119235583E-03  0.5831124382979E-02  0.0000000000000E+00  0.2901062360350E-02
-0.7186254430986E-03  0.5267173536355E-02  0.0000000000000E+00  0.2641994378753E-02
-0.5246809951944E-03  0.4681278465699E-02  0.0000000000000E+00  0.2422210520735E-02
-0.3683133117811E-03  0.4078156469553E-02  0.0000000000000E+00  0.2279509644957E-02
-0.2897151617425E-03  0.3470127689453E-02  0.0000000000000E+00  0.2262702042678E-02
-0.3534525385587E-03  0.2882866588152E-02  0.0000000000000E+00  0.2430107773778E-02
-0.6626706720785E-03  0.2364793771137E-02  0.0000000000000E+00  0.2838310062724E-02
-0.1373386489731E-02  0.2002923104000E-02  0.0000000000000E+00  0.3489277422588E-02
-0.2678408618108E-02  0.1923699959285E-02  0.0000000000000E+00  0.4209228582405E-02
-0.4709012994961E-02  0.2225988081340E-02  0.0000000000000E+00  0.4520768752868E-02
-0.7342545264337E-02  0.2834479522901E-02  0.0000000000000E+00  0.3710175994938E-02
-0.3606069732399E-03  0.1484704757731E-01  0.0000000000000E+00  0.6138730326486E-02
-0.1127612390905E-02  0.1525108053550E-01  0.0000000000000E+00  0.6873744337568E-02
-0.1895347472884E-02  0.1557121809373E-01  0.0000000000000E+00  0.7063946523133E-02
-0.2526892686006E-02  0.1572717405416E-01  0.0000000000000E+00  0.6872879547012E-02
-0.2974680358798E-02  0.1571061684795E-01  0.0000000000000E+00  0.6512877610998E-02
-0.3256509440799E-02  0.1555834924085E-01  0.0000000000000E+00  0.6135406615198E-02
-0.3413432165800E-02  0.1531600512660E-01  0.0000000000000E+00  0.5812270416816E-02
-0.3484233054400E-02  0.1501946980768E-01  0.0000000000000E+00  0.5562204885041E-02
-0.3497534493541E-02  0.1469185475084E-01  0.0000000000000E+00  0.5379392905485E-02
-0.3472347016607E-02  0.1434652692379E-01  0.0000000000000E+00  0.5250295667115E-02
-0.3420683435331E-02  0.1399062534423E-01  0.0000000000000E+00  0.5161007863948E-02
-0.3349874142378E-02  0.1362751151385E-01  0.0000000000000E+00  0.5099835172087E-02
-0.3264226775420E-02  0.1325825391185E-01  0.0000000000000E+00  0.5058037291923E-02
-0.3166268848089E-02  0.1288257724467E-01  0.0000000000000E+00  0.5029998298582E-02
-0.3057843794487E-02  0.1249963270956E-01  0.0000000000000E+00  0.5013069417134E-02
-0.2941105009109E-02  0.1210875508124E-01  0.0000000000000E+00  0.5006742796370E-02
-0.2819289122303E-02  0.1171088632333E-01  0.0000000000000E+00  0.5010249979894E-02
-0.2696575345350E-02  0.1130928966276E-01  0.0000000000000E+00  0.5019694157684E-02
-0.2576497612322E-02  0.1090699406011E-01  0.0000000000000E+00  0.5028180499442E-02
-0.2460428748571E-02  0.1050447526760E-01  0.0000000000000E+00  0.5027975438710E-02
-0.2347392406724E-02  0.1010012571780E-01  0.0000000000000E+00  0.5012052032166E-02
-0.2234724383161E-02  0.9691339722228E-02  0.0000000000000E+00  0.4975123260754E-02
-0.2119016614241E-02  0.9275403537128E-02  0.0000000000000E+00  0.4913863548578E-02
-0.1996901450966E-02  0.8849981273118E-02  0.0000000000000E+00  0.4826463950827E-02
-0.1865504477472E-02  0.8413221633506E-02  0.0000000000000E+00  0.4711982078371E-02
-0.1722619047787E-02  0.7963640100001E-02  0.0000000000000E+00  0.4569886815776E-02
-0.1566743535791E-02  0.7499907387969E-02  0.0000000000000E+00  0.4400032965195E-02
-0.1397084975181E-02  0.7020407966067E-02  0.0000000000000E+00  0.4203499980150E-02
-0.1213782590591E-02  0.6522932413698E-02  0.0000000000000E+00  0.3984061286873E-02
-0.1018668396608E-02  0.6005112269515E-02  0.0000000000000E+00  0.3749365230308E-02
-0.8165175513322E-03  0.5465169498438E-02  0.0000000000000E+00  0.3512073097084E-02
-0.6167645529283E-03  0.4902790184362E-02  0.0000000000000E+00  0.3291200007913E-02
-0.4359054488812E-03  0.4320520096320E-02  0.0000000000000E+00  0.3113204083370E-02
-0.3009042952951E-03  0.3725984879860E-02  0.0000000000000E+00  0.3012463046364E-02
-0.2541340439632E-03  0.3135378623415E-02  0.0000000000000E+00  0.3030239629836E-02
-0.3605583017132E-03  0.2578588677335E-02  0.0000000000000E+00  0.3209917487157E-02
-0.7174107587677E-03  0.2105915345089E-02  0.0000000000000E+00  0.3582090981246E-02
-0.1459648967360E-02  0.1796732158769E-02  0.0000000000000E+00  0.4115604841994E-02
-0.2736694367436E-02  0.1751795775405E-02  0.0000000000000E+00  0.4625145692006E-02
-0.4629823885461E-02  0.2034654213586E-02  0.0000000000000E+00  0.4700171349351E-02
-0.7020158550278E-02  0.2569772238107E-02  0.0000000000000E+00  0.3794578969290E-02
-0.3192218799624E-03  0.1411156333191E-01  0.0000000000000E+00  0.5918322614540E-02
-0.1002536429919E-02  0.1447466396712E-01  0.0000000000000E+00  0.6693487586510E-02
-0.1700851445775E-02  0.1477478199439E-01  0.0000000000000E+00  0.6990277092286E-02
-0.2296254132960E-02  0.1494013008975E-01  0.0000000000000E+00  0.6927484655059E-02
-0.2738051468581E-02  0.1495416742664E-01  0.0000000000000E+00  0.6677053335224E-02
-0.3031114000191E-02  0.1484043491183E-01  0.0000000000000E+00  0.6375541527217E-02
-0.3205278863442E-02  0.1463533576949E-01  0.0000000000000E+00  0.6098408965959E-02
-0.3293177026799E-02  0.1437098375994E-01  0.0000000000000E+00  0.5873891475066E-02
-0.3321102793037E-02  0.1407005558203E-01  0.0000000000000E+00  0.5704545136312E-02
-0.3307666345926E-02  0.1374677026464E-01  0.0000000000000E+00  0.5582463177914E-02
-0.3265219647592E-02  0.1340935588211E-01  0.0000000000000E+00  0.5497171524035E-02
-0.3201647490650E-02  0.1306214607967E-01  0.0000000000000E+00  0.5439031218484E-02
-0.3121850107410E-02  0.1270701960899E-01  0.0000000000000E+00  0.5400542192184E-02
-0.3028931447659E-02  0.1234439827485E-01  0.0000000000000E+00  0.5376770598961E-02
-0.2925230809638E-02  0.1197404453971E-01  0.0000000000000E+00  0.5365246065858E-02
-0.2813191367104E-02  0.1159577023484E-01  0.0000000000000E+00  0.5365185888286E-02
-0.2696009244689E-02  0.1121074216024E-01  0.0000000000000E+00  0.5375389217558E-02
-0.2577528963607E-02  0.1082215954450E-01  0.0000000000000E+00  0.5391830331376E-02
-0.2460909815049E-02  0.1043289322620E-01  0.0000000000000E+00  0.5407941982627E-02
-0.2347365868942E-02  0.1004336533356E-01  0.0000000000000E+00  0.5416522453360E-02
-0.2236023617559E-02  0.9652007307886E-02  0.0000000000000E+00  0.5410945776450E-02
-0.2124456595478E-02  0.9256227276505E-02  0.0000000000000E+00  0.5386024780036E-02
-0.2009476258429E-02  0.8853201708448E-02  0.0000000000000E+00  0.5338302637061E-02
-0.1887837520920E-02  0.8440340358363E-02  0.0000000000000E+00  0.5265799123631E-02
-0.1756698955125E-02  0.8015435990057E-02  0.0000000000000E+00  0.5167536943507E-02
-0.1613861023206E-02  0.7576618786379E-02  0.0000000000000E+00  0.5043190452796E-02
-0.1457895731093E-02  0.7122227491182E-02  0.0000000000000E+00  0.4893083736079E-02
-0.1288253774223E-02  0.6650465618285E-02  0.0000000000000E+00  0.4718948091667E-02
-0.1105575324021E-02  0.6159190509323E-02  0.0000000000000E+00  0.4525227229257E-02
-0.9124961524454E-03  0.5646419555472E-02  0.0000000000000E+00  0.4320070553101E-02
-0.7149122392174E-03  0.5111156014873E-02  0.0000000000000E+00  0.4116229760459E-02
-0.5236879601165E-03  0.4554365355478E-02  0.0000000000000E+00  0.3932033665234E-02
-0.3569926517151E-03  0.3980474282224E-02  0.0000000000000E+00  0.3791889486794E-02
-0.2434758581231E-03  0.3399628589254E-02  0.0000000000000E+00  0.3725778129419E-02
-0.2265310508660E-03  0.2830958435387E-02  0.0000000000000E+00  0.3766636818896E-02
-0.3697216945959E-03  0.2306738501927E-02  0.0000000000000E+00  0.3943470930640E-02
-0.7625931085191E-03  0.1876517845937E-02  0.0000000000000E+00  0.4265285919110E-02
-0.1520149155713E-02  0.1610536445281E-02  0.0000000000000E+00  0.4678565724300E-02
-0.2757406759495E-02  0.1587996077754E-02  0.0000000000000E+00  0.4999141552530E-02
-0.4522533523181E-02  0.1848364232822E-02  0.0000000000000E+00  0.4877972968329E-02
-0.6706821088279E-02  0.2321082838505E-02  0.0000000000000E+00  0.3893128663295E-02
-0.2836442312955E-03  0.1339956999018E-01  0.0000000000000E+00  0.5721723358250E-02
-0.8941428514879E-03  0.1372616134637E-01  0.0000000000000E+00  0.6527301370401E-02
-0.1529132150735E-02  0.1400546476217E-01  0.0000000000000E+00  0.6910830112002E-02
-0.2087142808873E-02  0.1417390198220E-01  0.0000000000000E+00  0.6958434597482E-02
-0.2517423178626E-02  0.1421035748532E-01  0.0000000000000E+00  0.6808777565966E-02
-0.2815762471614E-02  0.1412839995389E-01  0.0000000000000E+00  0.6582611779781E-02
-0.3002688360172E-02  0.1395627855736E-01  0.0000000000000E+00  0.6355053351877E-02
-0.3104898439541E-02  0.1372193032462E-01  0.0000000000000E+00  0.6160672248833E-02
-0.3145925355517E-02  0.1344683220822E-01  0.0000000000000E+00  0.6008905760997E-02
-0.3143513406275E-02  0.1314546113567E-01  0.0000000000000E+00  0.5897070931486E-02
-0.3110032780773E-02  0.1282678513853E-01  0.0000000000000E+00  0.5818162302451E-02
-0.3053731641116E-02  0.1249593339362E-01  0.0000000000000E+00  0.5764739906922E-02
-0.2979987046358E-02  0.1215551123663E-01  0.0000000000000E+00  0.5730663960734E-02
-0.2892391753206E-02  0.1180658669799E-01  0.0000000000000E+00  0.5711757321260E-02
-0.2793699299622E-02  0.1144947987634E-01  0.0000000000000E+00  0.5705796541719E-02
-0.2686580780057E-02  0.1108442070831E-01  0.0000000000000E+00  0.5711837597679E-02
-0.2574182065553E-02  0.1071275895604E-01  0.0000000000000E+00  0.5728399350772E-02
-0.2460058080228E-02  0.1033761817663E-01  0.0000000000000E+00  0.5751443668771E-02
-0.2347046552597E-02  0.9961711562683E-02  0.0000000000000E+00  0.5774763702408E-02
-0.2236215403054E-02  0.9585398587273E-02  0.0000000000000E+00  0.5791684567782E-02
-0.2126766115266E-02  0.9207139205070E-02  0.0000000000000E+00  0.5796015354300E-02
-0.2016477693975E-02  0.8824368658246E-02  0.0000000000000E+00  0.5782762950935E-02
-0.1902374897079E-02  0.8434203728234E-02  0.0000000000000E+00  0.5748455411566E-02
-0.1781361441895E-02  0.8033880231339E-02  0.0000000000000E+00  0.5691030916796E-02
-0.1650678115148E-02  0.7620932098684E-02  0.0000000000000E+00  0.5609512805524E-02
-0.1508191362703E-02  0.7193208101738E-02  0.0000000000000E+00  0.5503751952122E-02
-0.1352601618494E-02  0.6748820051559E-02  0.0000000000000E+00  0.5374442739379E-02
-0.1183639483176E-02  0.6285891894901E-02  0.0000000000000E+00  0.5223795987917E-02
-0.1002450405089E-02  0.5802439988288E-02  0.0000000000000E+00  0.5056677597565E-02
-0.8124339276792E-03  0.5296941884035E-02  0.0000000000000E+00  0.4881405682476E-02
-0.6205035162372E-03  0.4769219207414E-02  0.0000000000000E+00  0.4710388639910E-02
-0.4387495400870E-03  0.4221476577745E-02  0.0000000000000E+00  0.4560719721856E-02
-0.2866444621974E-03  0.3659830570609E-02  0.0000000000000E+00  0.4454110870824E-02
-0.1938863252495E-03  0.3096480274111E-02  0.0000000000000E+00  0.4415534682396E-02
-0.2038816529573E-03  0.2552570268067E-02  0.0000000000000E+00  0.4469441561245E-02
-0.3774993853281E-03  0.2061268076676E-02  0.0000000000000E+00  0.4631759617194E-02
-0.7958132548225E-03  0.1669670632784E-02  0.0000000000000E+00  0.4894342644328E-02
-0.1555848500817E-02  0.1438672413651E-02  0.0000000000000E+00  0.5189649730185E-02
-0.2745830131074E-02  0.1429985426677E-02  0.0000000000000E+00  0.5341925409401E-02
-0.4392372127652E-02  0.1666940217253E-02  0.0000000000000E+00  0.5055947384093E-02
-0.6399320956249E-02  0.2086204947989E-02  0.0000000000000E+00  0.4002170636509E-02
-0.2527703412917E-03  0.1270772374386E-01  0.0000000000000E+00  0.5546022183589E-02
-0.7994750736649E-03  0.1300169320344E-01  0.0000000000000E+00  0.6374792720883E-02
-0.1376821497778E-02  0.1326025210603E-01  0.0000000000000E+00  0.6829388385936E-02
-0.1897409257356E-02  0.1342738088765E-01  0.0000000000000E+00  0.6971922823546E-02
-0.2312244700993E-02  0.1347977827567E-01  0.0000000000000E+00  0.6913917082363E-02
-0.2610954786691E-02  0.1342367004479E-01  0.0000000000000E+00  0.6760715548796E-02
-0.2806549575373E-02  0.1328036086391E-01  0.0000000000000E+00  0.6584491502191E-02
-0.2920277355804E-02  0.1307359233403E-01  0.0000000000000E+00  0.6423563278455E-02
-0.2972724880313E-02  0.1282315068632E-01  0.0000000000000E+00  0.6292749538051E-02
-0.2980434299606E-02  0.1254329090729E-01  0.0000000000000E+00  0.6194000272366E-02
-0.2955516586720E-02  0.1224339534709E-01  0.0000000000000E+00  0.6123656723278E-02
-0.2906396305169E-02  0.1192920019636E-01  0.0000000000000E+00  0.6076523545026E-02
-0.2838802925901E-02  0.1160393221191E-01  0.0000000000000E+00  0.6047895015069E-02
-0.2756723365340E-02  0.1126923632444E-01  0.0000000000000E+00  0.6034415760425E-02
-0.2663245471102E-02  0.1092592898103E-01  0.0000000000000E+00  0.6034184919067E-02
-0.2561213831682E-02  0.1057460310660E-01  0.0000000000000E+00  0.6046211173845E-02
-0.2453716594187E-02  0.1021675762174E-01  0.0000000000000E+00  0.6068870426851E-02
-0.2344056592379E-02  0.9855434577430E-02  0.0000000000000E+00  0.6098213307985E-02
-0.2234794995536E-02  0.9493195144476E-02  0.0000000000000E+00  0.6128423405922E-02
-0.2126867708032E-02  0.9130334188024E-02  0.0000000000000E+00  0.6153346588455E-02
-0.2019531560329E-02  0.8765334364314E-02  0.0000000000000E+00  0.6167245371022E-02
-0.1910743628501E-02  0.8395667657880E-02  0.0000000000000E+00  0.6165386485844E-02
-0.1797732321942E-02  0.8018429363600E-02  0.0000000000000E+00  0.6144371937611E-02
-0.1677566697159E-02  0.7630746639248E-02  0.0000000000000E+00  0.6102131361714E-02
-0.1547606658861E-02  0.7229977309285E-02  0.0000000000000E+00  0.6037717166220E-02
-0.1405830088784E-02  0.6813779158350E-02  0.0000000000000E+00  0.5951125795674E-02
-0.1251106074464E-02  0.6380127317988E-02  0.0000000000000E+00  0.5843324355462E-02
-0.1083465520052E-02  0.5927148865605E-02  0.0000000000000E+00  0.5716836772520E-02
-0.9045457924490E-03  0.5453086174710E-02  0.0000000000000E+00  0.5576716011519E-02
-0.7184493478791E-03  0.4956916749013E-02  0.0000000000000E+00  0.5431143091193E-02
-0.5329795760378E-03  0.4439272331841E-02  0.0000000000000E+00  0.5291803530290E-02
-0.3612258776915E-03  0.3903502012532E-02  0.0000000000000E+00  0.5174110455820E-02
-0.2235864889519E-03  0.3357166848720E-02  0.0000000000000E+00  0.5096625826561E-02
-0.1502187435896E-03  0.2814029053202E-02  0.0000000000000E+00  0.5079020518817E-02
-0.1837233253090E-03  0.2296416639254E-02  0.0000000000000E+00  0.5137546164246E-02
-0.3814278043792E-03  0.1837249330374E-02  0.0000000000000E+00  0.5276724161344E-02
-0.8158384403087E-03  0.1480191583409E-02  0.0000000000000E+00  0.5475293526605E-02
-0.1568304422387E-02  0.1277310636982E-02  0.0000000000000E+00  0.5657849483850E-02
-0.2706440316433E-02  0.1276433120174E-02  0.0000000000000E+00  0.5660774404093E-02
-0.4243132269683E-02  0.1490258041460E-02  0.0000000000000E+00  0.5234570101004E-02
-0.6095149496034E-02  0.1863362062382E-02  0.0000000000000E+00  0.4118818057985E-02
-0.2257575613448E-03  0.1203334524131E-01  0.0000000000000E+00  0.5388770174638E-02
-0.7162130552322E-03  0.1229809225467E-01  0.0000000000000E+00  0.6235307186426E-02
-0.1241108678599E-02  0.1253648289035E-01  0.0000000000000E+00  0.6748504502130E-02
-0.1725017259596E-02  0.1269927781775E-01  0.0000000000000E+00  0.6972704576930E-02
-0.2121713429145E-02  0.1276253288942E-01  0.0000000000000E+00  0.6997417847397E-02
-0.2416834636750E-02  0.1272717985863E-01  0.0000000000000E+00  0.6913664917548E-02
-0.2617460910773E-02  0.1260876460030E-01  0.0000000000000E+00  0.6789113043208E-02
-0.2740008727350E-02  0.1242705563968E-01  0.0000000000000E+00  0.6663815592932E-02
-0.2802120833700E-02  0.1219987935551E-01  0.0000000000000E+00  0.6556583753825E-02
-0.2818920903144E-02  0.1194090683748E-01  0.0000000000000E+00  0.6473319054925E-02
-0.2802035845322E-02  0.1165964887201E-01  0.0000000000000E+00  0.6413470907713E-02
-0.2759894142930E-02  0.1136226180115E-01  0.0000000000000E+00  0.6374050972108E-02
-0.2698452735928E-02  0.1105247702499E-01  0.0000000000000E+00  0.6351817279885E-02
-0.2621996234958E-02  0.1073243557678E-01  0.0000000000000E+00  0.6344286534113E-02
-0.2533869906941E-02  0.1040338465929E-01  0.0000000000000E+00  0.6349954135770E-02
-0.2437042991110E-02  0.1006622818689E-01  0.0000000000000E+00  0.6367888981913E-02
-0.2334538970888E-02  0.9722585530109E-02  0.0000000000000E+00  0.6396445308328E-02
-0.2229438949991E-02  0.9375414213984E-02  0.0000000000000E+00  0.6431849408300E-02
-0.2124065017119E-02  0.9027131288399E-02  0.0000000000000E+00  0.6468702230157E-02
-0.2019235118146E-02  0.8677969377628E-02  0.0000000000000E+00  0.6501364301081E-02
-0.1914247686854E-02  0.8326431691292E-02  0.0000000000000E+00  0.6524559783936E-02
-0.1807214931678E-02  0.7970034754879E-02  0.0000000000000E+00  0.6533859832340E-02
-0.1695557514487E-02  0.7605882097498E-02  0.0000000000000E+00  0.6526006658551E-02
-0.1576518799911E-02  0.7231045094903E-02  0.0000000000000E+00  0.6498978079185E-02
-0.1447603771565E-02  0.6842774781161E-02  0.0000000000000E+00  0.6451875787623E-02
-0.1306934514242E-02  0.6438614658398E-02  0.0000000000000E+00  0.6384809021286E-02
-0.1153575213242E-02  0.6016478337961E-02  0.0000000000000E+00  0.6298923755443E-02
-0.9878629622913E-03  0.5574560643384E-02  0.0000000000000E+00  0.6196900752253E-02
-0.8118984312768E-03  0.5111374111183E-02  0.0000000000000E+00  0.6083763950548E-02
-0.6304098997694E-03  0.4626406830737E-02  0.0000000000000E+00  0.5967285336389E-02
-0.4519472641025E-03  0.4121056994331E-02  0.0000000000000E+00  0.5858108470416E-02
-0.2903627203208E-03  0.3599685842626E-02  0.0000000000000E+00  0.5769627309476E-02
-0.1666167416452E-03  0.3071026635762E-02  0.0000000000000E+00  0.5716972657057E-02
-0.1108094198503E-03  0.2549931423532E-02  0.0000000000000E+00  0.5714477477479E-02
-0.1641099684808E-03  0.2059207840721E-02  0.0000000000000E+00  0.5770776524548E-02
-0.3798232304666E-03  0.1630713748980E-02  0.0000000000000E+00  0.5880763322873E-02
-0.8222302162890E-03  0.1304218642638E-02  0.0000000000000E+00  0.6013508500124E-02
-0.1559319239106E-02  0.1123847013818E-02  0.0000000000000E+00  0.6090105779273E-02
-0.2642987036929E-02  0.1126581915572E-02  0.0000000000000E+00  0.5960592743184E-02
-0.4077618754607E-02  0.1318221923190E-02  0.0000000000000E+00  0.5413647638074E-02
-0.5792346012452E-02  0.1651103287273E-02  0.0000000000000E+00  0.4240769078641E-02
-0.2019512261688E-03  0.1137425011373E-01  0.0000000000000E+00  0.5247892028848E-02
-0.6425142245301E-03  0.1161274260807E-01  0.0000000000000E+00  0.6108070387579E-02
-0.1119645774316E-02  0.1183182263971E-01  0.0000000000000E+00  0.6669880112261E-02
-0.1568090691541E-02  0.1198824419634E-01  0.0000000000000E+00  0.6964420740042E-02
-0.1944890060502E-02  0.1205839373683E-01  0.0000000000000E+00  0.7063400728530E-02
-0.2233283629876E-02  0.1203947767923E-01  0.0000000000000E+00  0.7044912720666E-02
-0.2435775327795E-02  0.1194236547222E-01  0.0000000000000E+00  0.6971291326162E-02
-0.2564612237100E-02  0.1178320974821E-01  0.0000000000000E+00  0.6882821905493E-02
-0.2634623939759E-02  0.1157777585081E-01  0.0000000000000E+00  0.6801092190789E-02
-0.2659401853577E-02  0.1133889795115E-01  0.0000000000000E+00  0.6735253308490E-02
-0.2649918746032E-02  0.1107597740539E-01  0.0000000000000E+00  0.6687548736789E-02
-0.2614456022462E-02  0.1079541575334E-01  0.0000000000000E+00  0.6657093757263E-02
-0.2559079022528E-02  0.1050132896810E-01  0.0000000000000E+00  0.6642100146593E-02
-0.2488275880989E-02  0.1019626768838E-01  0.0000000000000E+00  0.6640989232736E-02
-0.2405576489574E-02  0.9881842580596E-02  0.0000000000000E+00  0.6652718241756E-02
-0.2314030283860E-02  0.9559219191819E-02  0.0000000000000E+00  0.6676512909535E-02
-0.2216588726307E-02  0.9230111778111E-02  0.0000000000000E+00  0.6710810749410E-02
-0.2116135079520E-02  0.8897391286945E-02  0.0000000000000E+00  0.6752087346460E-02
-0.2014783035234E-02  0.8563339068638E-02  0.0000000000000E+00  0.6795384402711E-02
-0.1913245593147E-02  0.8228130282743E-02  0.0000000000000E+00  0.6835571187327E-02
-0.1810853134631E-02  0.7890289186189E-02  0.0000000000000E+00  0.6867835034694E-02
-0.1705853817962E-02  0.7547383701997E-02  0.0000000000000E+00  0.6888080269043E-02
-0.1595848334286E-02  0.7196549092649E-02  0.0000000000000E+00  0.6893236798256E-02
-0.1478257381625E-02  0.6834843601588E-02  0.0000000000000E+00  0.6881372478550E-02
-0.1350747459756E-02  0.6459468581462E-02  0.0000000000000E+00  0.6851650415869E-02
-0.1211606054058E-02  0.6067916660140E-02  0.0000000000000E+00  0.6804258618836E-02
-0.1060106300482E-02  0.5658100406068E-02  0.0000000000000E+00  0.6740433626581E-02
-0.8968845057835E-03  0.5228330093888E-02  0.0000000000000E+00  0.6662869972793E-02
-0.7244633887551E-03  0.4777412441325E-02  0.0000000000000E+00  0.6576369649781E-02
-0.5481082231613E-03  0.4305332928544E-02  0.0000000000000E+00  0.6488061915577E-02
-0.3769636021007E-03  0.3814186357617E-02  0.0000000000000E+00  0.6407291936799E-02
-0.2254104149559E-03  0.3309190950819E-02  0.0000000000000E+00  0.6345195531837E-02
-0.1146363522539E-03  0.2799974763680E-02  0.0000000000000E+00  0.6313340832856E-02
-0.7425235607506E-04  0.2302048770613E-02  0.0000000000000E+00  0.6320879079201E-02
-0.1435479383969E-03  0.1838134908268E-02  0.0000000000000E+00  0.6369578856494E-02
-0.3716055716010E-03  0.1438487116046E-02  0.0000000000000E+00  0.6446417551832E-02
-0.8150738168087E-03  0.1138879566236E-02  0.0000000000000E+00  0.6513629846928E-02
-0.1530732738286E-02  0.9764853295370E-03  0.0000000000000E+00  0.6491736200062E-02
-0.2558599819963E-02  0.9799946746415E-03  0.0000000000000E+00  0.6244604212581E-02
-0.3897974140370E-02  0.1150793275441E-02  0.0000000000000E+00  0.5592637804178E-02
-0.5489365814863E-02  0.1448262543906E-02  0.0000000000000E+00  0.4366237060364E-02
-0.1808346415809E-03  0.1072862938718E-01  0.0000000000000E+00  0.5121617376288E-02
-0.5768983254035E-03  0.1094345920950E-01  0.0000000000000E+00  0.5992269702887E-02
-0.1010465953114E-02  0.1114422703230E-01  0.0000000000000E+00  0.6594626366903E-02
-0.1424929610664E-02  0.1129294247883E-01  0.0000000000000E+00  0.6949853520792E-02
-0.1780776161115E-02  0.1136691605473E-01  0.0000000000000E+00  0.7115271513533E-02
-0.2059997096273E-02  0.1136081426219E-01  0.0000000000000E+00  0.7157528338485E-02
-0.2261644832958E-02  0.1128177633085E-01  0.0000000000000E+00  0.7133304344239E-02
-0.2394448319539E-02  0.1114275787011E-01  0.0000000000000E+00  0.7082041487780E-02
-0.2470636683741E-02  0.1095748172550E-01  0.0000000000000E+00  0.7027083763973E-02
-0.2502237561795E-02  0.1073778566876E-01  0.0000000000000E+00  0.6980157855678E-02
-0.2499451529413E-02  0.1049277375900E-01  0.0000000000000E+00  0.6945947092166E-02
-0.2470287202065E-02  0.1022893652228E-01  0.0000000000000E+00  0.6925519184910E-02
-0.2420809736461E-02  0.9950657689424E-02  0.0000000000000E+00  0.6918495924645E-02
-0.2355622038889E-02  0.9660809954346E-02  0.0000000000000E+00  0.6924217071989E-02
-0.2278370777256E-02  0.9361300537549E-02  0.0000000000000E+00  0.6942155407696E-02
-0.2192144817624E-02  0.9053509681545E-02  0.0000000000000E+00  0.6971776781940E-02
-0.2099815416925E-02  0.8739222899312E-02  0.0000000000000E+00  0.7011690848308E-02
-0.2004086194280E-02  0.8421222403221E-02  0.0000000000000E+00  0.7058683755706E-02
-0.1906887120167E-02  0.8101661745842E-02  0.0000000000000E+00  0.7108257447237E-02
-0.1808837670564E-02  0.7780664502010E-02  0.0000000000000E+00  0.7155783965877E-02
-0.1709293221358E-02  0.7456778209952E-02  0.0000000000000E+00  0.7196910771887E-02
-0.1606621683165E-02  0.7127628458946E-02  0.0000000000000E+00  0.7227892267496E-02
-0.1498591192904E-02  0.6790401007004E-02  0.0000000000000E+00  0.7245878397961E-02
-0.1382798099016E-02  0.6442175111754E-02  0.0000000000000E+00  0.7249056056933E-02
-0.1257078696902E-02  0.6080148626124E-02  0.0000000000000E+00  0.7236654681793E-02
-0.1119896811554E-02  0.5701814269454E-02  0.0000000000000E+00  0.7208906637608E-02
-0.9707372250500E-03  0.5305130271922E-02  0.0000000000000E+00  0.7167057700157E-02
-0.8105174516126E-03  0.4888554716418E-02  0.0000000000000E+00  0.7113688399773E-02
-0.6421310261175E-03  0.4451195293930E-02  0.0000000000000E+00  0.7053211512417E-02
-0.4712837985825E-03  0.3993502951318E-02  0.0000000000000E+00  0.6991919995135E-02
-0.3075612239363E-03  0.3518181364986E-02  0.0000000000000E+00  0.6937665490958E-02
-0.1656495423330E-03  0.3031139996668E-02  0.0000000000000E+00  0.6899177117507E-02
-0.6666645334641E-04  0.2542634946915E-02  0.0000000000000E+00  0.6884450572022E-02
-0.3938732863618E-04  0.2068461501317E-02  0.0000000000000E+00  0.6897745753541E-02
-0.1209290426694E-03  0.1630822422329E-02  0.0000000000000E+00  0.6934783393673E-02
-0.3561473026255E-03  0.1258044056525E-02  0.0000000000000E+00  0.6976191531249E-02
-0.7947958127037E-03  0.9820212883868E-03  0.0000000000000E+00  0.6979562509348E-02
-0.1484304395461E-02  0.8340137560600E-03  0.0000000000000E+00  0.6866877173326E-02
-0.2455863595082E-02  0.8362736710547E-03  0.0000000000000E+00  0.6514774750217E-02
-0.3705925900605E-02  0.9881230970021E-03  0.0000000000000E+00  0.5770697283908E-02
-0.5185041054861E-02  0.1253973332849E-02  0.0000000000000E+00  0.4493996436269E-02
-0.1619941255583E-03  0.1009496335561E-01  0.0000000000000E+00  0.5008426844091E-02
-0.5181631121141E-03  0.1028839677589E-01  0.0000000000000E+00  0.5887100805436E-02
-0.9119148858411E-03  0.1047190383211E-01  0.0000000000000E+00  0.6523443892901E-02
-0.1294009113928E-02  0.1061208550126E-01  0.0000000000000E+00  0.6931125342355E-02
-0.1628364832441E-02  0.1068751836655E-01  0.0000000000000E+00  0.7155829315404E-02
-0.1896543149081E-02  0.1069121549351E-01  0.0000000000000E+00  0.7254203608551E-02
-0.2095061194318E-02  0.1062738975064E-01  0.0000000000000E+00  0.7277285846956E-02
-0.2229737210617E-02  0.1050623259671E-01  0.0000000000000E+00  0.7262942542742E-02
-0.2310458147172E-02  0.1033952293315E-01  0.0000000000000E+00  0.7235447741882E-02
-0.2347718601992E-02  0.1013801858160E-01  0.0000000000000E+00  0.7208487700236E-02
-0.2350875191562E-02  0.9910386089161E-02  0.0000000000000E+00  0.7188819497272E-02
-0.2327564463557E-02  0.9663071269794E-02  0.0000000000000E+00  0.7179281042323E-02
-0.2283756229127E-02  0.9400616805465E-02  0.0000000000000E+00  0.7180833540124E-02
-0.2224087049377E-02  0.9126132438428E-02  0.0000000000000E+00  0.7193730896487E-02
-0.2152258127618E-02  0.8841757083218E-02  0.0000000000000E+00  0.7218001520116E-02
-0.2071360324854E-02  0.8549041141475E-02  0.0000000000000E+00  0.7253420197704E-02
-0.1984175619178E-02  0.8249819005650E-02  0.0000000000000E+00  0.7298842145523E-02
-0.1893241300524E-02  0.7946781324205E-02  0.0000000000000E+00  0.7351413844150E-02
-0.1800323067741E-02  0.7641960660007E-02  0.0000000000000E+00  0.7407112757422E-02
-0.1705956444823E-02  0.7335435115042E-02  0.0000000000000E+00  0.7461807300307E-02
-0.1609516522837E-02  0.7025778742360E-02  0.0000000000000E+00  0.7511598750593E-02
-0.1509477030776E-02  0.6710680555783E-02  0.0000000000000E+00  0.7553099617165E-02
-0.1403760810547E-02  0.6387391816169E-02  0.0000000000000E+00  0.7583700209670E-02
-0.1290134422021E-02  0.6053039812210E-02  0.0000000000000E+00  0.7601724783776E-02
-0.1166605348291E-02  0.5704855423173E-02  0.0000000000000E+00  0.7606468098812E-02
-0.1031815820050E-02  0.5340371087922E-02  0.0000000000000E+00  0.7598173047371E-02
-0.8854553574364E-03  0.4957624860274E-02  0.0000000000000E+00  0.7578021388293E-02
-0.7286955519525E-03  0.4555241442452E-02  0.0000000000000E+00  0.7548368422692E-02
-0.5647421135044E-03  0.4132621993711E-02  0.0000000000000E+00  0.7513097194190E-02
-0.3996411537801E-03  0.3690636983664E-02  0.0000000000000E+00  0.7477510757796E-02
-0.2432682234483E-03  0.3232500429200E-02  0.0000000000000E+00  0.7447829518622E-02
-0.1104084704382E-03  0.2764646313553E-02  0.0000000000000E+00  0.7430305385759E-02
-0.2185416388190E-04  0.2297713129221E-02  0.0000000000000E+00  0.7429446084400E-02
-0.5280468923674E-05  0.1847467038483E-02  0.0000000000000E+00  0.7444993116966E-02
-0.9546082859235E-04  0.1435275462874E-02  0.0000000000000E+00  0.7467442470979E-02
-0.3331688982311E-03  0.1087376036132E-02  0.0000000000000E+00  0.7472426781930E-02
-0.7619921985302E-03  0.8320361176338E-03  0.0000000000000E+00  0.7414625034252E-02
-0.1421770659096E-02  0.6955403684002E-03  0.0000000000000E+00  0.7218499104840E-02
-0.2336675183711E-02  0.6953092345802E-03  0.0000000000000E+00  0.6773007634433E-02
-0.3503188275289E-02  0.8293878641864E-03  0.0000000000000E+00  0.5945098719903E-02
-0.4877944324078E-02  0.1069779431242E-02  0.0000000000000E+00  0.4624824347409E-02
-0.1450941008177E-03  0.9471958399309E-02  0.0000000000000E+00  0.4907009442152E-02
-0.4653219281364E-03  0.9645980408864E-02  0.0000000000000E+00  0.5791793394055E-02
-0.8225942627296E-03  0.9813277122412E-02  0.0000000000000E+00  0.6456747995183E-02
-0.1173969133233E-02  0.9944456472927E-02  0.0000000000000E+00  0.6909852280677E-02
-0.1486672533305E-02  0.1001953867082E-01  0.0000000000000E+00  0.7187365746467E-02
-0.1742407529614E-02  0.1003054026512E-01  0.0000000000000E+00  0.7337275921869E-02
-0.1935891446020E-02  0.9979417166358E-02  0.0000000000000E+00  0.7405198763855E-02
-0.2070578800600E-02  0.9874014349718E-02  0.0000000000000E+00  0.7426960055283E-02
-0.2154291676635E-02  0.9724314498922E-02  0.0000000000000E+00  0.7427116304719E-02
-0.2196066755992E-02  0.9539970648497E-02  0.0000000000000E+00  0.7420771470786E-02
-0.2204383986118E-02  0.9329114308048E-02  0.0000000000000E+00  0.7416399268892E-02
-0.2186434178478E-02  0.9098036695408E-02  0.0000000000000E+00  0.7418409080624E-02
-0.2148011537212E-02  0.8851341750906E-02  0.0000000000000E+00  0.7429011094473E-02
-0.2093714210302E-02  0.8592296437734E-02  0.0000000000000E+00  0.7449352796596E-02
-0.2027241772202E-02  0.8323209858169E-02  0.0000000000000E+00  0.7480044235419E-02
-0.1951652829125E-02  0.8045760553476E-02  0.0000000000000E+00  0.7521223374289E-02
-0.1869630267451E-02  0.7761810341427E-02  0.0000000000000E+00  0.7572049864000E-02
-0.1783554268110E-02  0.7473954573565E-02  0.0000000000000E+00  0.7630069593677E-02
-0.1695041226382E-02  0.7184110267520E-02  0.0000000000000E+00  0.7691746417840E-02
-0.1604550363540E-02  0.6892315835155E-02  0.0000000000000E+00  0.7753437883069E-02
-0.1511472138811E-02  0.6597175502239E-02  0.0000000000000E+00  0.7811690318620E-02
-0.1414373812333E-02  0.6296446907299E-02  0.0000000000000E+00  0.7863475703665E-02
-0.1311320102830E-02  0.5987458731878E-02  0.0000000000000E+00  0.7906435671360E-02
-0.1200239338207E-02  0.5667407294485E-02  0.0000000000000E+00  0.7939041635945E-02
-0.1079305853871E-02  0.5333584589613E-02  0.0000000000000E+00  0.7960648176735E-02
-0.9473348596704E-03  0.4983592298660E-02  0.0000000000000E+00  0.7971476464682E-02
-0.8042056830595E-03  0.4615571331335E-02  0.0000000000000E+00  0.7972579851852E-02
-0.6513096181895E-03  0.4228320187614E-02  0.0000000000000E+00  0.7965994312555E-02
-0.4921008892804E-03  0.3821514526961E-02  0.0000000000000E+00  0.7954959383459E-02
-0.3328647868006E-03  0.3396388578108E-02  0.0000000000000E+00  0.7943672896295E-02
-0.1836231586101E-03  0.2956563201054E-02  0.0000000000000E+00  0.7936638070713E-02
-0.5907412131423E-04  0.2508836240637E-02  0.0000000000000E+00  0.7937623879335E-02
 0.2052811687325E-04  0.2064010001903E-02  0.0000000000000E+00  0.7947802838381E-02
 0.2880203702360E-04  0.1637568126307E-02  0.0000000000000E+00  0.7962814346829E-02
-0.6661324324408E-04  0.1249825407612E-02  0.0000000000000E+00  0.7968708525829E-02
-0.3026234226076E-03  0.9248856819207E-03  0.0000000000000E+00  0.7937273772974E-02
-0.7174318553840E-03  0.6877119626170E-03  0.0000000000000E+00  0.7821525354868E-02
-0.1344492293661E-02  0.5604266646493E-03  0.0000000000000E+00  0.7549110756888E-02
-0.2203445058480E-02  0.5569254030790E-03  0.0000000000000E+00  0.7019561366752E-02
-0.3288204012635E-02  0.6743009769852E-03  0.0000000000000E+00  0.6117808156748E-02
-0.4574929457372E-02  0.8932751986318E-03  0.0000000000000E+00  0.4744659555944E-02
-0.1298590360701E-03  0.8858499855182E-02  0.0000000000000E+00  0.4816228663937E-02
-0.4175569716692E-03  0.9014852244171E-02  0.0000000000000E+00  0.5705624566488E-02
-0.7413157133914E-03  0.9166955364216E-02  0.0000000000000E+00  0.6394756321068E-02
-0.1063600005499E-02  0.9288917173152E-02  0.0000000000000E+00  0.6887261946851E-02
-0.1354757941711E-02  0.9362273078870E-02  0.0000000000000E+00  0.7211751902557E-02
-0.1597026906220E-02  0.9378525697643E-02  0.0000000000000E+00  0.7408759974642E-02
-0.1783907807195E-02  0.9337923350368E-02  0.0000000000000E+00  0.7518824411581E-02
-0.1916971837850E-02  0.9246350600972E-02  0.0000000000000E+00  0.7575466557421E-02
-0.2002254161131E-02  0.9112167935753E-02  0.0000000000000E+00  0.7603034377742E-02
-0.2047438014308E-02  0.8943942062508E-02  0.0000000000000E+00  0.7617587711117E-02
-0.2060125420815E-02  0.8749208375552E-02  0.0000000000000E+00  0.7628983044459E-02
-0.2047011246430E-02  0.8534016910109E-02  0.0000000000000E+00  0.7642997869589E-02
-0.2013649042216E-02  0.8302947984643E-02  0.0000000000000E+00  0.7662987781180E-02
-0.1964536244173E-02  0.8059352918834E-02  0.0000000000000E+00  0.7690959547778E-02
-0.1903320979248E-02  0.7805653821628E-02  0.0000000000000E+00  0.7728117410128E-02
-0.1832998503684E-02  0.7543618053330E-02  0.0000000000000E+00  0.7775002721260E-02
-0.1756142321177E-02  0.7275114229287E-02  0.0000000000000E+00  0.7831124944764E-02
-0.1674981371860E-02  0.7002637746224E-02  0.0000000000000E+00  0.7894458559638E-02
-0.1590993925384E-02  0.6727994085801E-02  0.0000000000000E+00  0.7961960173974E-02
-0.1504568680018E-02  0.6451187085849E-02  0.0000000000000E+00  0.8030468028323E-02
-0.1415107534633E-02  0.6170854803772E-02  0.0000000000000E+00  0.8096962782615E-02
-0.1321260146539E-02  0.5884828058876E-02  0.0000000000000E+00  0.8158772251139E-02
-0.1221220210994E-02  0.5590522254121E-02  0.0000000000000E+00  0.8213793184299E-02
-0.1113066988422E-02  0.5285218637411E-02  0.0000000000000E+00  0.8260647402915E-02
-0.9951326522945E-03  0.4966291114508E-02  0.0000000000000E+00  0.8298740742878E-02
-0.8663937973575E-03  0.4631431303212E-02  0.0000000000000E+00  0.8328242910099E-02
-0.7268981440582E-03  0.4278896363564E-02  0.0000000000000E+00  0.8350023834675E-02
-0.5782168559891E-03  0.3907656061744E-02  0.0000000000000E+00  0.8365723218225E-02
-0.4239861231810E-03  0.3517632770792E-02  0.0000000000000E+00  0.8377849183396E-02
-0.2706311187384E-03  0.3110362517071E-02  0.0000000000000E+00  0.8389414503642E-02
-0.1281858380484E-03  0.2689769125570E-02  0.0000000000000E+00  0.8403164425334E-02
-0.1109780706976E-04  0.2262864473832E-02  0.0000000000000E+00  0.8420430814606E-02
 0.6108911309499E-04  0.1840425652426E-02  0.0000000000000E+00  0.8439249803995E-02
 0.6341787844999E-04  0.1437455787186E-02  0.0000000000000E+00  0.8451587532346E-02
-0.3405902915898E-04  0.1073078835928E-02  0.0000000000000E+00  0.8439759141057E-02
-0.2646610698631E-03  0.7693021376045E-03  0.0000000000000E+00  0.8372654325198E-02
-0.6618556237159E-03  0.5481198291394E-03  0.0000000000000E+00  0.8202534941546E-02
-0.1254052276203E-02  0.4282433884952E-03  0.0000000000000E+00  0.7860513655279E-02
-0.2056720609920E-02  0.4207687120873E-03  0.0000000000000E+00  0.7255253073227E-02
-0.3066039618460E-02  0.5232528255007E-03  0.0000000000000E+00  0.6286835053737E-02
-0.4253642309344E-02  0.7186345958890E-03  0.0000000000000E+00  0.4859023274593E-02
-0.1160601411778E-03  0.8253616321503E-02  0.0000000000000E+00  0.4735095332360E-02
-0.3741839253066E-03  0.8393830050340E-02  0.0000000000000E+00  0.5627924871716E-02
-0.6670633785529E-03  0.8531703645179E-02  0.0000000000000E+00  0.6337550619537E-02
-0.9618266127423E-03  0.8644409128804E-02  0.0000000000000E+00  0.6864283917602E-02
-0.1231732062329E-02  0.8715001908700E-02  0.0000000000000E+00  0.7230512697395E-02
-0.1459813072148E-02  0.8734821951215E-02  0.0000000000000E+00  0.7470382766141E-02
-0.1638812248987E-02  0.8702855907935E-02  0.0000000000000E+00  0.7619762387805E-02
-0.1768831626105E-02  0.8623374562560E-02  0.0000000000000E+00  0.7709753204284E-02
-0.1854385984231E-02  0.8503300250450E-02  0.0000000000000E+00  0.7764136172282E-02
-0.1901926911815E-02  0.8350162089779E-02  0.0000000000000E+00  0.7799544394060E-02
-0.1918201439559E-02  0.8170868149295E-02  0.0000000000000E+00  0.7826915303054E-02
-0.1909378814884E-02  0.7971162259870E-02  0.0000000000000E+00  0.7853195612096E-02
-0.1880721547332E-02  0.7755529627155E-02  0.0000000000000E+00  0.7882775555562E-02
-0.1836573981569E-02  0.7527341079953E-02  0.0000000000000E+00  0.7918476039587E-02
-0.1780489396403E-02  0.7289079542131E-02  0.0000000000000E+00  0.7962095855217E-02
-0.1715371766487E-02  0.7042564763795E-02  0.0000000000000E+00  0.8014606945046E-02
-0.1643674748830E-02  0.6789652397666E-02  0.0000000000000E+00  0.8075901634715E-02
-0.1567479237134E-02  0.6532732411358E-02  0.0000000000000E+00  0.8144403069355E-02
-0.1488133394643E-02  0.6273501379666E-02  0.0000000000000E+00  0.8217562469608E-02
-0.1405959440167E-02  0.6011932838697E-02  0.0000000000000E+00  0.8292688852741E-02
-0.1320366865837E-02  0.5746702045539E-02  0.0000000000000E+00  0.8367184859087E-02
-0.1230077374276E-02  0.5475716834962E-02  0.0000000000000E+00  0.8438726769014E-02
-0.1133400671049E-02  0.5196486374670E-02  0.0000000000000E+00  0.8505464889639E-02
-0.1028554238010E-02  0.4906388421066E-02  0.0000000000000E+00  0.8566169900435E-02
-0.9140153365093E-03  0.4602893356492E-02  0.0000000000000E+00  0.8620288595658E-02
-0.7889054231101E-03  0.4283795862327E-02  0.0000000000000E+00  0.8667912781822E-02
-0.6534141637750E-03  0.3947474599076E-02  0.0000000000000E+00  0.8709683583660E-02
-0.5092489387772E-03  0.3593060211775E-02  0.0000000000000E+00  0.8746784218597E-02
-0.3601603095325E-03  0.3220687572014E-02  0.0000000000000E+00  0.8780927851334E-02
-0.2126177830755E-03  0.2832129362311E-02  0.0000000000000E+00  0.8813894359100E-02
-0.7654471702101E-04  0.2431511539944E-02  0.0000000000000E+00  0.8846668421985E-02
 0.3400302295287E-04  0.2025923878496E-02  0.0000000000000E+00  0.8878229907068E-02
 0.1003269739850E-03  0.1625958845682E-02  0.0000000000000E+00  0.8903704999987E-02
 0.9897589018348E-04  0.1245989531658E-02  0.0000000000000E+00  0.8911806263316E-02
 0.2360181502903E-05  0.9038731384209E-03  0.0000000000000E+00  0.8881744638827E-02
-0.2195373199736E-03  0.6196072833449E-03  0.0000000000000E+00  0.8780266737184E-02
-0.5961109513259E-03  0.4125595215362E-03  0.0000000000000E+00  0.8559543360321E-02
-0.1151513374517E-02  0.2986163466054E-03  0.0000000000000E+00  0.8154060993949E-02
-0.1898620297171E-02  0.2868149475153E-03  0.0000000000000E+00  0.7480910995021E-02
-0.2833409711518E-02  0.3751152434428E-03  0.0000000000000E+00  0.6449818748416E-02
-0.3930889634113E-02  0.5467856336722E-03  0.0000000000000E+00  0.4979097470135E-02
-0.1035054195322E-03  0.7656452243044E-02  0.0000000000000E+00  0.4662745698323E-02
-0.3346249056180E-03  0.7781874803347E-02  0.0000000000000E+00  0.5558080072502E-02
-0.5989635452158E-03  0.7906419938195E-02  0.0000000000000E+00  0.6285120493808E-02
-0.8676926471994E-03  0.8009950769328E-02  0.0000000000000E+00  0.6841619121708E-02
-0.1116762535983E-02  0.8077006894868E-02  0.0000000000000E+00  0.7244889328479E-02
-0.1330170124495E-02  0.8099018684521E-02  0.0000000000000E+00  0.7523618563361E-02
-0.1500256247178E-02  0.8074069975106E-02  0.0000000000000E+00  0.7709437332158E-02
-0.1626005781485E-02  0.8005122570904E-02  0.0000000000000E+00  0.7831018784905E-02
-0.1710660980879E-02  0.7897843663153E-02  0.0000000000000E+00  0.7911327603990E-02
-0.1759571675947E-02  0.7758793267801E-02  0.0000000000000E+00  0.7967261726233E-02
-0.1778670495315E-02  0.7594244469845E-02  0.0000000000000E+00  0.8010574278105E-02
-0.1773588669233E-02  0.7409588990299E-02  0.0000000000000E+00  0.8049193342103E-02
-0.1749260777220E-02  0.7209158558157E-02  0.0000000000000E+00  0.8088430867019E-02
-0.1709835317737E-02  0.6996287136666E-02  0.0000000000000E+00  0.8131868832097E-02
-0.1658733628861E-02  0.6773471648563E-02  0.0000000000000E+00  0.8181890389500E-02
-0.1598743636065E-02  0.6542550857857E-02  0.0000000000000E+00  0.8239913555419E-02
-0.1532188815063E-02  0.6305348674208E-02  0.0000000000000E+00  0.8306235461281E-02
-0.1461003138621E-02  0.6064143525398E-02  0.0000000000000E+00  0.8379739679647E-02
-0.1386410093140E-02  0.5820524461094E-02  0.0000000000000E+00  0.8458369492321E-02
-0.1308667908282E-02  0.5574438081159E-02  0.0000000000000E+00  0.8539893098939E-02
-0.1227189705273E-02  0.5324599737159E-02  0.0000000000000E+00  0.8622121364017E-02
-0.1140759402465E-02  0.5068997346789E-02  0.0000000000000E+00  0.8703068899582E-02
-0.1047789704748E-02  0.4805238925889E-02  0.0000000000000E+00  0.8781134128661E-02
-0.9466221791034E-03  0.4530806674041E-02  0.0000000000000E+00  0.8855231749072E-02
-0.8358635340202E-03  0.4243276763373E-02  0.0000000000000E+00  0.8924838646655E-02
-0.7147597721177E-03  0.3940553711053E-02  0.0000000000000E+00  0.8989946253106E-02
-0.5836123549520E-03  0.3621136224222E-02  0.0000000000000E+00  0.9050931168194E-02
-0.4442188692211E-03  0.3284299314100E-02  0.0000000000000E+00  0.9108475895047E-02
-0.3003771366084E-03  0.2930351805032E-02  0.0000000000000E+00  0.9163457530723E-02
-0.1585106303739E-03  0.2561237143231E-02  0.0000000000000E+00  0.9216403370581E-02
-0.2832145035692E-04  0.2181188030604E-02  0.0000000000000E+00  0.9266566275490E-02
 0.7664554707509E-04  0.1797251072663E-02  0.0000000000000E+00  0.9310687659468E-02
 0.1386400867491E-03  0.1419702652373E-02  0.0000000000000E+00  0.9341223038869E-02
 0.1357570911074E-03  0.1062177473966E-02  0.0000000000000E+00  0.9344028254025E-02
 0.4267816279668E-04  0.7412362080320E-03  0.0000000000000E+00  0.9295753812152E-02
-0.1676116729685E-03  0.4749850980102E-03  0.0000000000000E+00  0.9161607635410E-02
-0.5209687270564E-03  0.2804840210752E-03  0.0000000000000E+00  0.8894075755625E-02
-0.1038129147865E-02  0.1712894169144E-03  0.0000000000000E+00  0.8430994278957E-02
-0.1729841392193E-02  0.1549376444828E-03  0.0000000000000E+00  0.7696306818126E-02
-0.2592297558240E-02  0.2292835587688E-03  0.0000000000000E+00  0.6609114168924E-02
-0.3604804682214E-02  0.3800242442121E-03  0.0000000000000E+00  0.5098845970464E-02
-0.9203212873890E-04  0.7066246582899E-02  0.0000000000000E+00  0.4598423661036E-02
-0.2983875665164E-03  0.7178065059727E-02  0.0000000000000E+00  0.5495530455475E-02
-0.5362599890323E-03  0.7290114960055E-02  0.0000000000000E+00  0.6237394550096E-02
-0.7803458114069E-03  0.7384632422443E-02  0.0000000000000E+00  0.6819793152251E-02
-0.1009074200839E-02  0.7447582156175E-02  0.0000000000000E+00  0.7255891191043E-02
-0.1207506320466E-02  0.7470664931113E-02  0.0000000000000E+00  0.7569721967496E-02
-0.1367856375057E-02  0.7451348559832E-02  0.0000000000000E+00  0.7789109786362E-02
-0.1488287900288E-02  0.7391549758897E-02  0.0000000000000E+00  0.7940364637100E-02
-0.1570995948513E-02  0.7295855408700E-02  0.0000000000000E+00  0.8045473665375E-02
-0.1620359771603E-02  0.7169936451956E-02  0.0000000000000E+00  0.8121358100039E-02
-0.1641550248342E-02  0.7019441177007E-02  0.0000000000000E+00  0.8180359478729E-02
-0.1639662172537E-02  0.6849379625018E-02  0.0000000000000E+00  0.8231214805234E-02
-0.1619277278989E-02  0.6663883966337E-02  0.0000000000000E+00  0.8280046689561E-02
-0.1584314467151E-02  0.6466203383060E-02  0.0000000000000E+00  0.8331139953315E-02
-0.1538032081409E-02  0.6258807500384E-02  0.0000000000000E+00  0.8387443186982E-02
-0.1483080357486E-02  0.6043523879703E-02  0.0000000000000E+00  0.8450825692127E-02
-0.1421642655279E-02  0.5822127023707E-02  0.0000000000000E+00  0.8522001485381E-02
-0.1355505611160E-02  0.5596777284871E-02  0.0000000000000E+00  0.8600318800370E-02
-0.1285771381664E-02  0.5368956498722E-02  0.0000000000000E+00  0.8684206188561E-02
-0.1212635355258E-02  0.5138586804440E-02  0.0000000000000E+00  0.8771877644619E-02
-0.1135510103633E-02  0.4904425975709E-02  0.0000000000000E+00  0.8861537261982E-02
-0.1053232289582E-02  0.4664544307357E-02  0.0000000000000E+00  0.8951525831615E-02
-0.9643046084187E-03  0.4416652052369E-02  0.0000000000000E+00  0.9040481758764E-02
-0.8671775542521E-03  0.4158340743302E-02  0.0000000000000E+00  0.9127456882438E-02
-0.7605695077105E-03  0.3887297300185E-02  0.0000000000000E+00  0.9211947724879E-02
-0.6438279346619E-03  0.3601537630804E-02  0.0000000000000E+00  0.9293827311172E-02
-0.5173334340395E-03  0.3299673681332E-02  0.0000000000000E+00  0.9373181499212E-02
-0.3829266990105E-03  0.2981103762414E-02  0.0000000000000E+00  0.9450162834802E-02
-0.2443874111087E-03  0.2646269565556E-02  0.0000000000000E+00  0.9524791496895E-02
-0.1080087633440E-03  0.2297220537372E-02  0.0000000000000E+00  0.9596346730016E-02
 0.1682668864800E-04  0.1938207722629E-02  0.0000000000000E+00  0.9662403278284E-02
 0.1171844485539E-03  0.1576128812091E-02  0.0000000000000E+00  0.9717596789331E-02
 0.1763374604276E-03  0.1220837965707E-02  0.0000000000000E+00  0.9751953383262E-02
 0.1739370555349E-03  0.8851568498438E-03  0.0000000000000E+00  0.9748836501107E-02
 0.8682580997821E-04  0.5843533388086E-03  0.0000000000000E+00  0.9682799442729E-02
-0.1092909513485E-03  0.3347763409906E-03  0.0000000000000E+00  0.9517969899894E-02
-0.4372241652402E-03  0.1514664622916E-03  0.0000000000000E+00  0.9207435525319E-02
-0.9149055220110E-03  0.4607983843166E-04  0.0000000000000E+00  0.8692117280292E-02
-0.1551453114176E-02  0.2494220070978E-04  0.0000000000000E+00  0.7901947592046E-02
-0.2343642905404E-02  0.8608368134079E-04  0.0000000000000E+00  0.6764189198126E-02
-0.3274856821718E-02  0.2178303443365E-03  0.0000000000000E+00  0.5216514882820E-02
-0.8150099425699E-04  0.6482316030017E-02  0.0000000000000E+00  0.4541466246138E-02
-0.2650487996870E-03  0.6581576522697E-02  0.0000000000000E+00  0.5439768804728E-02
-0.4782939036000E-03  0.6681895154697E-02  0.0000000000000E+00  0.6194262664422E-02
-0.6990243241775E-03  0.6767610296707E-02  0.0000000000000E+00  0.6799197313732E-02
-0.9079473101899E-03  0.6826040815936E-02  0.0000000000000E+00  0.7264338704958E-02
-0.1091241954740E-02  0.6849283857435E-02  0.0000000000000E+00  0.7609758126629E-02
-0.1241206402849E-02  0.6834419077185E-02  0.0000000000000E+00  0.7859889204463E-02
-0.1355429170914E-02  0.6782543868058E-02  0.0000000000000E+00  0.8038793802416E-02
-0.1435259436873E-02  0.6697327198492E-02  0.0000000000000E+00  0.8167389839783E-02
-0.1484233529874E-02  0.6583636312476E-02  0.0000000000000E+00  0.8262438914892E-02
-0.1506820664681E-02  0.6446517795143E-02  0.0000000000000E+00  0.8336680890761E-02
-0.1507591637473E-02  0.6290583934153E-02  0.0000000000000E+00  0.8399507208999E-02
-0.1490760687391E-02  0.6119732327785E-02  0.0000000000000E+00  0.8457745016151E-02
-0.1459991520056E-02  0.5937087558019E-02  0.0000000000000E+00  0.8516321021972E-02
-0.1418354076005E-02  0.5745056116872E-02  0.0000000000000E+00  0.8578723418277E-02
-0.1368342299645E-02  0.5545427343684E-02  0.0000000000000E+00  0.8647269216241E-02
-0.1311990123128E-02  0.5339909917459E-02  0.0000000000000E+00  0.8723092756293E-02
-0.1250935341001E-02  0.5130539371612E-02  0.0000000000000E+00  0.8806004416414E-02
-0.1186160491374E-02  0.4918689764729E-02  0.0000000000000E+00  0.8894907217591E-02
-0.1117798150444E-02  0.4704260432263E-02  0.0000000000000E+00  0.8988445725232E-02
-0.1045255927302E-02  0.4486053306082E-02  0.0000000000000E+00  0.9085201163581E-02
-0.9674140314363E-03  0.4262222612990E-02  0.0000000000000E+00  0.9183826910565E-02
-0.8828522166248E-03  0.4030582788376E-02  0.0000000000000E+00  0.9283191472646E-02
-0.7901140930804E-03  0.3788837083241E-02  0.0000000000000E+00  0.9382475937809E-02
-0.6880104794651E-03  0.3534784587176E-02  0.0000000000000E+00  0.9481187209658E-02
-0.5759653688796E-03  0.3266549985816E-02  0.0000000000000E+00  0.9579066640276E-02
-0.4544043814871E-03  0.2982847540198E-02  0.0000000000000E+00  0.9675892311326E-02
-0.3251641995081E-03  0.2683174632591E-02  0.0000000000000E+00  0.9771271403660E-02
-0.1919436138724E-03  0.2368063684591E-02  0.0000000000000E+00  0.9864364309244E-02
-0.6082795247964E-04  0.2039607901160E-02  0.0000000000000E+00  0.9953227158071E-02
 0.5920611039612E-04  0.1701996097743E-02  0.0000000000000E+00  0.1003382948577E-01
 0.1559158205136E-03  0.1361886075370E-02  0.0000000000000E+00  0.1009884547351E-01
 0.2136496618603E-03  0.1028625808782E-02  0.0000000000000E+00  0.1013610691392E-01
 0.2136027934196E-03  0.7141760603608E-03  0.0000000000000E+00  0.1012681302083E-01
 0.1346583512998E-03  0.4325389837584E-03  0.0000000000000E+00  0.1004380464237E-01
-0.4502464676204E-04  0.1984439395197E-03  0.0000000000000E+00  0.9850479067667E-02
-0.3456332064375E-03  0.2517537890587E-04  0.0000000000000E+00  0.9500676783991E-02
-0.7827951341288E-03 -0.7717651482049E-04  0.0000000000000E+00  0.8938138599847E-02
-0.1364429484049E-02 -0.1032023979239E-03  0.0000000000000E+00  0.8098015725378E-02
-0.2088107959550E-02 -0.5447516421016E-04  0.0000000000000E+00  0.6914396994476E-02
-0.2940742464409E-02  0.5973796180168E-04  0.0000000000000E+00  0.5331071748177E-02
-0.7179171599298E-04  0.5904041628840E-02  0.0000000000000E+00  0.4491291678735E-02
-0.2342419016598E-03  0.5991665606836E-02  0.0000000000000E+00  0.5390337715994E-02
-0.4244875074673E-03  0.6080948333628E-02  0.0000000000000E+00  0.6155591950894E-02
-0.6230448496799E-03  0.6158100139599E-02  0.0000000000000E+00  0.6780120305267E-02
-0.8127143567409E-03  0.6211718621273E-02  0.0000000000000E+00  0.7270898472365E-02
-0.9808142995944E-03  0.6234383578456E-02  0.0000000000000E+00  0.7644629708595E-02
-0.1119886522549E-02  0.6222966642168E-02  0.0000000000000E+00  0.7922747782930E-02
-0.1227148067970E-02  0.6177937210634E-02  0.0000000000000E+00  0.8127213104357E-02
-0.1303279669132E-02  0.6102194076971E-02  0.0000000000000E+00  0.8277836719104E-02
-0.1351095635467E-02  0.5999886978156E-02  0.0000000000000E+00  0.8391087922316E-02
-0.1374427329866E-02  0.5875492662295E-02  0.0000000000000E+00  0.8479949826558E-02
-0.1377342019979E-02  0.5733220369602E-02  0.0000000000000E+00  0.8554332943713E-02
-0.1363680306442E-02  0.5576707770556E-02  0.0000000000000E+00  0.8621669928277E-02
-0.1336832288144E-02  0.5408922519485E-02  0.0000000000000E+00  0.8687467759565E-02
-0.1299659241832E-02  0.5232177380128E-02  0.0000000000000E+00  0.8755723193350E-02
-0.1254483116427E-02  0.5048199614543E-02  0.0000000000000E+00  0.8829190034675E-02
-0.1203179894287E-02  0.4858617014696E-02  0.0000000000000E+00  0.8909418921518E-02
-0.1147236309725E-02  0.4665333546777E-02  0.0000000000000E+00  0.8996673866712E-02
-0.1087515748299E-02  0.4469614256921E-02  0.0000000000000E+00  0.9090317828598E-02
-0.1024087108756E-02  0.4271336621762E-02  0.0000000000000E+00  0.9189408897656E-02
-0.9563484255566E-03  0.4069347904308E-02  0.0000000000000E+00  0.9292888347184E-02
-0.8832145090861E-03  0.3861887148231E-02  0.0000000000000E+00  0.9399707560114E-02
-0.8033294171800E-03  0.3646873716975E-02  0.0000000000000E+00  0.9508954258159E-02
-0.7153137529716E-03  0.3422122954044E-02  0.0000000000000E+00  0.9619930680114E-02
-0.6180506811944E-03  0.3185544747817E-02  0.0000000000000E+00  0.9732146660405E-02
-0.5110147378086E-03  0.2935366736653E-02  0.0000000000000E+00  0.9845203547602E-02
-0.3946418979176E-03  0.2670391568145E-02  0.0000000000000E+00  0.9958563350901E-02
-0.2707185808222E-03  0.2390189516394E-02  0.0000000000000E+00  0.1007128507585E-01
-0.1428032707669E-03  0.2095341748341E-02  0.0000000000000E+00  0.1018168217754E-01
-0.1670270737342E-04  0.1787926479696E-02  0.0000000000000E+00  0.1028662945903E-01
 0.9908742960474E-04  0.1471997858064E-02  0.0000000000000E+00  0.1038057840275E-01
 0.1930818855742E-03  0.1153896526006E-02  0.0000000000000E+00  0.1045439160842E-01
 0.2507387282282E-03  0.8423991559306E-03  0.0000000000000E+00  0.1049393012736E-01
 0.2547687388288E-03  0.5485784914355E-03  0.0000000000000E+00  0.1047851895816E-01
 0.1859715882981E-03  0.2852128086562E-03  0.0000000000000E+00  0.1037960219363E-01
 0.2471552636574E-04  0.6554812346805E-04  0.0000000000000E+00  0.1016010182206E-01
-0.2469232856432E-03 -0.9865700206646E-04  0.0000000000000E+00  0.9774676597450E-02
-0.6426841535130E-03 -0.1985979816074E-03  0.0000000000000E+00  0.9169609702066E-02
-0.1169631124603E-02 -0.2295268789771E-03  0.0000000000000E+00  0.8284539585069E-02
-0.1826213282978E-02 -0.1924997937259E-03  0.0000000000000E+00  0.7059152845605E-02
-0.2602329834399E-02 -0.9469598322281E-04  0.0000000000000E+00  0.5441865099684E-02
-0.6279944020842E-04  0.5330858019992E-02  0.0000000000000E+00  0.4447389539154E-02
-0.2056463784637E-03  0.5407656105528E-02  0.0000000000000E+00  0.5346826658910E-02
-0.3743305985964E-03  0.5486531548948E-02  0.0000000000000E+00  0.6121238237699E-02
-0.5517918263760E-03  0.5555370972112E-02  0.0000000000000E+00  0.6762772742450E-02
-0.7227561365473E-03  0.5603975514145E-02  0.0000000000000E+00  0.7276112046116E-02
-0.8756804030876E-03  0.5625464960169E-02  0.0000000000000E+00  0.7675100589526E-02
-0.1003470244550E-02  0.5616644650944E-02  0.0000000000000E+00  0.7978534233015E-02
-0.1103138320738E-02  0.5577516888087E-02  0.0000000000000E+00  0.8206437134468E-02
-0.1174851539056E-02  0.5510342525855E-02  0.0000000000000E+00  0.8377517090477E-02
-0.1220814321419E-02  0.5418637608359E-02  0.0000000000000E+00  0.8507860725545E-02
-0.1244284832958E-02  0.5306346320415E-02  0.0000000000000E+00  0.8610571322244E-02
-0.1248852836618E-02  0.5177277854830E-02  0.0000000000000E+00  0.8695962306555E-02
-0.1237985955936E-02  0.5034792775692E-02  0.0000000000000E+00  0.8771981305100E-02
-0.1214788416640E-02  0.4881676215098E-02  0.0000000000000E+00  0.8844654934304E-02
-0.1181897165603E-02  0.4720121512785E-02  0.0000000000000E+00  0.8918453813094E-02
-0.1141449159138E-02  0.4551773064304E-02  0.0000000000000E+00  0.8996551639458E-02
-0.1095154809265E-02  0.4378164136814E-02  0.0000000000000E+00  0.9080904962511E-02
-0.1044347166693E-02  0.4201060557548E-02  0.0000000000000E+00  0.9172217654637E-02
-0.9897700212537E-03  0.4021616646279E-02  0.0000000000000E+00  0.9270294653599E-02
-0.9314270537961E-03  0.3839688381110E-02  0.0000000000000E+00  0.9374588769743E-02
-0.8687019872481E-03  0.3654169033128E-02  0.0000000000000E+00  0.9484383368708E-02
-0.8005355659697E-03  0.3463382776251E-02  0.0000000000000E+00  0.9598912613439E-02
-0.7256236966363E-03  0.3265353688764E-02  0.0000000000000E+00  0.9717472121937E-02
-0.6426478568599E-03  0.3058008021683E-02  0.0000000000000E+00  0.9839477600044E-02
-0.5505431414813E-03  0.2839362972214E-02  0.0000000000000E+00  0.9964436602135E-02
-0.4488082982511E-03  0.2607740952966E-02  0.0000000000000E+00  0.1009180711527E-01
-0.3378552123828E-03  0.2362017049742E-02  0.0000000000000E+00  0.1022073498249E-01
-0.2193753623785E-03  0.2101807325936E-02  0.0000000000000E+00  0.1034973955614E-01
-0.9673130594967E-04  0.1827700808093E-02  0.0000000000000E+00  0.1047631375996E-01
 0.2461272379795E-04  0.1541706095664E-02  0.0000000000000E+00  0.1059620651453E-01
 0.1367069065221E-03  0.1247678270638E-02  0.0000000000000E+00  0.1070244848047E-01
 0.2288759752296E-03  0.9515758723098E-03  0.0000000000000E+00  0.1078424161624E-01
 0.2877075012324E-03  0.6615547717662E-03  0.0000000000000E+00  0.1082568489572E-01
 0.2973896074459E-03  0.3877879922718E-03  0.0000000000000E+00  0.1080448179306E-01
 0.2405164917554E-03  0.1418804832901E-03  0.0000000000000E+00  0.1069093385940E-01
 0.9944543258888E-04 -0.6427590056531E-04  0.0000000000000E+00  0.1044766666199E-01
-0.1417926851088E-03 -0.2202475235807E-03  0.0000000000000E+00  0.1003016056098E-01
-0.4953909853780E-03 -0.3182793268529E-03  0.0000000000000E+00  0.9386949965681E-02
-0.9678196457545E-03 -0.3540823509572E-03  0.0000000000000E+00  0.8461477676061E-02
-0.1558411006982E-02 -0.3281501782059E-03  0.0000000000000E+00  0.7197980018128E-02
-0.2259586773608E-02 -0.2458764326563E-03  0.0000000000000E+00  0.5548437580391E-02
-0.5443196011212E-04  0.4762244693446E-02  0.0000000000000E+00  0.4409312603138E-02
-0.1789797737829E-03  0.4828928283520E-02  0.0000000000000E+00  0.5308869028661E-02
-0.3273694727394E-03  0.4897960828290E-02  0.0000000000000E+00  0.6091054322668E-02
-0.4847080996755E-03  0.4958739120260E-02  0.0000000000000E+00  0.6747306188410E-02
-0.6374974667220E-03  0.5002195824327E-02  0.0000000000000E+00  0.7280419419427E-02
-0.7753183449641E-03  0.5022027133629E-02  0.0000000000000E+00  0.7701816407184E-02
-0.8915294321340E-03  0.5015083125260E-02  0.0000000000000E+00  0.8027986941607E-02
-0.9830753684715E-03  0.4981033423535E-02  0.0000000000000E+00  0.8277193381359E-02
-0.1049742691259E-02  0.4921617753962E-02  0.0000000000000E+00  0.8467074869252E-02
-0.1093228178102E-02  0.4839797744410E-02  0.0000000000000E+00  0.8613280070375E-02
-0.1116280112237E-02  0.4739025023490E-02  0.0000000000000E+00  0.8728937938285E-02
-0.1122040222321E-02  0.4622717830566E-02  0.0000000000000E+00  0.8824667210847E-02
-0.1113609031831E-02  0.4493949162462E-02  0.0000000000000E+00  0.8908849199167E-02
-0.1093797734324E-02  0.4355301927731E-02  0.0000000000000E+00  0.8987971761248E-02
-0.1065007283826E-02  0.4208828821176E-02  0.0000000000000E+00  0.9066942335417E-02
-0.1029179123999E-02  0.4056073494821E-02  0.0000000000000E+00  0.9149332851860E-02
-0.9878514374382E-03  0.3898462514301E-02  0.0000000000000E+00  0.9237490039650E-02
-0.9422008083626E-03  0.3737617325062E-02  0.0000000000000E+00  0.9332539275902E-02
-0.8928503658839E-03  0.3574579508742E-02  0.0000000000000E+00  0.9434706415721E-02
-0.8397365646965E-03  0.3409183458055E-02  0.0000000000000E+00  0.9543818519862E-02
-0.7822240538754E-03  0.3240368726961E-02  0.0000000000000E+00  0.9659482314870E-02
-0.7192711863059E-03  0.3066544481636E-02  0.0000000000000E+00  0.9781199140323E-02
-0.6496136984967E-03  0.2885838580435E-02  0.0000000000000E+00  0.9908461187704E-02
-0.5719781236132E-03  0.2696285853839E-02  0.0000000000000E+00  0.1004079081645E-01
-0.4853312190692E-03  0.2496005805128E-02  0.0000000000000E+00  0.1017769061461E-01
-0.3891698726973E-03  0.2283405853847E-02  0.0000000000000E+00  0.1031847674518E-01
-0.2838483024781E-03  0.2057416414081E-02  0.0000000000000E+00  0.1046198639779E-01
-0.1709204952545E-03  0.1817672173985E-02  0.0000000000000E+00  0.1060621788127E-01
-0.5350153666717E-04  0.1564730955026E-02  0.0000000000000E+00  0.1074788154643E-01
 0.6334421093634E-04  0.1300481583756E-02  0.0000000000000E+00  0.1088166674210E-01
 0.1722685086585E-03  0.1028523346401E-02  0.0000000000000E+00  0.1099928723782E-01
 0.2634475973242E-03  0.7543785345766E-03  0.0000000000000E+00  0.1108843304417E-01
 0.3246079843475E-03  0.4855452983537E-03  0.0000000000000E+00  0.1113163304205E-01
 0.3413712975038E-03  0.2312962436214E-03  0.0000000000000E+00  0.1110518652114E-01
 0.2980102328702E-03  0.2117407250063E-05  0.0000000000000E+00  0.1097845327252E-01
 0.1786754129123E-03 -0.1913341662430E-03  0.0000000000000E+00  0.1071388027955E-01
-0.3090980592968E-04 -0.3397754396314E-03  0.0000000000000E+00  0.1026772614043E-01
-0.3416713531812E-03 -0.4363049159382E-03  0.0000000000000E+00  0.9590478953266E-02
-0.7596791501010E-03 -0.4769394068743E-03  0.0000000000000E+00  0.8628765271075E-02
-0.1285116440623E-02 -0.4616069378481E-03  0.0000000000000E+00  0.7330500753158E-02
-0.1912550186851E-02 -0.3941733151218E-03  0.0000000000000E+00  0.5650452485760E-02
-0.4660747199246E-04  0.4197718806757E-02  0.0000000000000E+00  0.4376670054896E-02
-0.1539910613328E-03  0.4254909877403E-02  0.0000000000000E+00  0.5276139325654E-02
-0.2831977402785E-03  0.4314602455325E-02  0.0000000000000E+00  0.6064895910091E-02
-0.4212867290884E-03  0.4367562651714E-02  0.0000000000000E+00  0.6733827961494E-02
-0.5564028207521E-03  0.4405787553026E-02  0.0000000000000E+00  0.7284178176169E-02
-0.6792273974744E-03  0.4423571280289E-02  0.0000000000000E+00  0.7725322227414E-02
-0.7836378619910E-03  0.4417895230916E-02  0.0000000000000E+00  0.8071746193232E-02
-0.8666215143105E-03  0.4388207987367E-02  0.0000000000000E+00  0.8340127938841E-02
-0.9276987314542E-03  0.4335830168604E-02  0.0000000000000E+00  0.8547095364004E-02
-0.9681505281853E-03  0.4263242346583E-02  0.0000000000000E+00  0.8707832588661E-02
-0.9902756853130E-03  0.4173444255819E-02  0.0000000000000E+00  0.8835424797355E-02
-0.9967990603945E-03  0.4069476473059E-02  0.0000000000000E+00  0.8940715827625E-02
-0.9904637328654E-03  0.3954119306738E-02  0.0000000000000E+00  0.9032448876860E-02
-0.9737848106310E-03  0.3829738768755E-02  0.0000000000000E+00  0.9117517767337E-02
-0.9489189951420E-03  0.3698229687823E-02  0.0000000000000E+00  0.9201228458321E-02
-0.9176039161516E-03  0.3561019810575E-02  0.0000000000000E+00  0.9287525766188E-02
-0.8811998441546E-03  0.3419418285728E-02  0.0000000000000E+00  0.9379126438072E-02
-0.8407241446456E-03  0.3274896385471E-02  0.0000000000000E+00  0.9477555058301E-02
-0.7966778415170E-03  0.3128380806326E-02  0.0000000000000E+00  0.9583434557530E-02
-0.7489278798738E-03  0.2979683961159E-02  0.0000000000000E+00  0.9696944230268E-02
-0.6968151616170E-03  0.2827791670182E-02  0.0000000000000E+00  0.9817994749407E-02
-0.6393077515198E-03  0.2671197637208E-02  0.0000000000000E+00  0.9946338846361E-02
-0.5751697797640E-03  0.2508132076357E-02  0.0000000000000E+00  0.1008165426905E-01
-0.5031575890879E-03  0.2336735308579E-02  0.0000000000000E+00  0.1022356440207E-01
-0.4222498968769E-03  0.2155223171081E-02  0.0000000000000E+00  0.1037156686046E-01
-0.3319164379403E-03  0.1962077408424E-02  0.0000000000000E+00  0.1052484224600E-01
-0.2324215865113E-03  0.1756266231185E-02  0.0000000000000E+00  0.1068193358397E-01
-0.1251418326988E-03  0.1537416433983E-02  0.0000000000000E+00  0.1084034564769E-01
-0.1289744969091E-04  0.1306017921975E-02  0.0000000000000E+00  0.1099605392285E-01
 0.9969826458089E-04  0.1063794199858E-02  0.0000000000000E+00  0.1114276299778E-01
 0.2059463914870E-03  0.8140391437219E-03  0.0000000000000E+00  0.1127097773604E-01
 0.2969073882351E-03  0.5617938958280E-03  0.0000000000000E+00  0.1136702041479E-01
 0.3614487839998E-03  0.3138718081449E-03  0.0000000000000E+00  0.1141202456643E-01
 0.3865799143967E-03  0.7865171376153E-04  0.0000000000000E+00  0.1138107008706E-01
 0.3581445803622E-03 -0.1344445777440E-03  0.0000000000000E+00  0.1124273006872E-01
 0.2619150748531E-03 -0.3158868519257E-03  0.0000000000000E+00  0.1095934181659E-01
 0.8508604818358E-04 -0.4573930558004E-03  0.0000000000000E+00  0.1048786417990E-01
-0.1822265240761E-03 -0.5527551377039E-03  0.0000000000000E+00  0.9780443788340E-02
-0.5458344750982E-03 -0.5981824895916E-03  0.0000000000000E+00  0.8786336914748E-02
-0.1006724016813E-02 -0.5930561046116E-03  0.0000000000000E+00  0.7456420491290E-02
-0.1561307068073E-02 -0.5399250691814E-03  0.0000000000000E+00  0.5747656691081E-02
-0.3925275861261E-04  0.3636829229893E-02  0.0000000000000E+00  0.4349121827812E-02
-0.1304552546424E-03  0.3685068605839E-02  0.0000000000000E+00  0.5248350538595E-02
-0.2414486700758E-03  0.3735865529237E-02  0.0000000000000E+00  0.6042625872137E-02
-0.3610638304246E-03  0.3781236257175E-02  0.0000000000000E+00  0.6722412682455E-02
-0.4789720429867E-03  0.3814181072434E-02  0.0000000000000E+00  0.7287679083291E-02
-0.5869274212702E-03  0.3829603117920E-02  0.0000000000000E+00  0.7746077612593E-02
-0.6793736283397E-03  0.3824682317998E-02  0.0000000000000E+00  0.8110365280284E-02
-0.7534299768784E-03  0.3798738398383E-02  0.0000000000000E+00  0.8395811386509E-02
-0.8084476369949E-03  0.3752761062532E-02  0.0000000000000E+00  0.8618106457806E-02
-0.8453733521773E-03  0.3688816465235E-02  0.0000000000000E+00  0.8791966690235E-02
-0.8661127126865E-03  0.3609492183134E-02  0.0000000000000E+00  0.8930385686807E-02
-0.8730051314549E-03  0.3517467016945E-02  0.0000000000000E+00  0.9044368084231E-02
-0.8684484110403E-03  0.3415227545296E-02  0.0000000000000E+00  0.9142956500559E-02
-0.8546616889132E-03  0.3304912389384E-02  0.0000000000000E+00  0.9233399117278E-02
-0.8335519692387E-03  0.3188244792976E-02  0.0000000000000E+00  0.9321361718638E-02
-0.8066467104538E-03  0.3066523923408E-02  0.0000000000000E+00  0.9411133890493E-02
-0.7751235427946E-03  0.2940932227932E-02  0.0000000000000E+00  0.9505778611320E-02
-0.7398380339327E-03  0.2812785558685E-02  0.0000000000000E+00  0.9607194013226E-02
-0.7011674805469E-03  0.2682893587635E-02  0.0000000000000E+00  0.9716373797717E-02
-0.6589069352279E-03  0.2551046181549E-02  0.0000000000000E+00  0.9833826057889E-02
-0.6123690897186E-03  0.2416275238421E-02  0.0000000000000E+00  0.9959745396923E-02
-0.5605243557865E-03  0.2277158371065E-02  0.0000000000000E+00  0.1009412011220E-01
-0.5021545548428E-03  0.2132026459691E-02  0.0000000000000E+00  0.1023680300625E-01
-0.4360314184929E-03  0.1979121815340E-02  0.0000000000000E+00  0.1038751424029E-01
-0.3611268522336E-03  0.1816750151872E-02  0.0000000000000E+00  0.1054574917439E-01
-0.2768593650569E-03  0.1643456532113E-02  0.0000000000000E+00  0.1071056359395E-01
-0.1833731466526E-03  0.1458229640191E-02  0.0000000000000E+00  0.1088022718320E-01
-0.8183003800921E-04  0.1260663079431E-02  0.0000000000000E+00  0.1105178647766E-01
 0.2528761650566E-04  0.1051144858263E-02  0.0000000000000E+00  0.1122053797092E-01
 0.1338630717882E-03  0.8311922007343E-03  0.0000000000000E+00  0.1137928285542E-01
 0.2378876370053E-03  0.6037504211573E-03  0.0000000000000E+00  0.1151742714670E-01
 0.3293318474693E-03  0.3733423466327E-03  0.0000000000000E+00  0.1162006377109E-01
 0.3982016619006E-03  0.1460768845247E-03  0.0000000000000E+00  0.1166708874264E-01
 0.4328491727907E-03 -0.7054990339968E-04  0.0000000000000E+00  0.1163251807202E-01
 0.4205922641041E-03 -0.2681280961548E-03  0.0000000000000E+00  0.1148425451545E-01
 0.3486763176495E-03 -0.4381585398309E-03  0.0000000000000E+00  0.1118455554415E-01
 0.2055824587253E-03 -0.5732334274658E-03  0.0000000000000E+00  0.1069097750408E-01
-0.1771210222334E-04 -0.6677090428939E-03  0.0000000000000E+00  0.9957039384744E-02
-0.3268654294515E-03 -0.7179046735777E-03  0.0000000000000E+00  0.8934136852333E-02
-0.7236157031691E-03 -0.7226817380227E-03  0.0000000000000E+00  0.7575513147496E-02
-0.1205982588719E-02 -0.6834425357283E-03  0.0000000000000E+00  0.5839860932131E-02
-0.3230170368718E-04  0.3079151557592E-02  0.0000000000000E+00  0.4326373878962E-02
-0.1081689698373E-03  0.3118905880160E-02  0.0000000000000E+00  0.5225251767758E-02
-0.2017887632134E-03  0.3161195580075E-02  0.0000000000000E+00  0.6024117296646E-02
-0.3036123158985E-03  0.3199186575121E-02  0.0000000000000E+00  0.6713111293976E-02
-0.4047362348517E-03  0.3226827464857E-02  0.0000000000000E+00  0.7291158768033E-02
-0.4979577375824E-03  0.3239634414311E-02  0.0000000000000E+00  0.7764469386370E-02
-0.5783206469760E-03  0.3235037772559E-02  0.0000000000000E+00  0.8144320430979E-02
-0.6431480197525E-03  0.3212304074891E-02  0.0000000000000E+00  0.8444744556281E-02
-0.6917034497809E-03  0.3172167573634E-02  0.0000000000000E+00  0.8680580375498E-02
-0.7246707725479E-03  0.3116339526147E-02  0.0000000000000E+00  0.8866091337481E-02
-0.7436138650029E-03  0.3047032984704E-02  0.0000000000000E+00  0.9014150056820E-02
-0.7505172414819E-03  0.2966582129442E-02  0.0000000000000E+00  0.9135871932189E-02
-0.7474470098239E-03  0.2877181724169E-02  0.0000000000000E+00  0.9240545414889E-02
-0.7363287666270E-03  0.2780735880254E-02  0.0000000000000E+00  0.9335725386427E-02
-0.7188166286414E-03  0.2678785542772E-02  0.0000000000000E+00  0.9427399001351E-02
-0.6962231890019E-03  0.2572490869239E-02  0.0000000000000E+00  0.9520170482129E-02
-0.6695396138834E-03  0.2462899696528E-02  0.0000000000000E+00  0.9617422322819E-02
-0.6394573696449E-03  0.2351167821383E-02  0.0000000000000E+00  0.9721397702453E-02
-0.6062283925491E-03  0.2237985881661E-02  0.0000000000000E+00  0.9833432626747E-02
-0.5695735178918E-03  0.2123120587930E-02  0.0000000000000E+00  0.9954339265640E-02
-0.5287730966891E-03  0.2005649677522E-02  0.0000000000000E+00  0.1008457560503E-01
-0.4827931656247E-03  0.1884234014258E-02  0.0000000000000E+00  0.1022434973357E-01
-0.4304234190015E-03  0.1757303402826E-02  0.0000000000000E+00  0.1037367964737E-01
-0.3704376131369E-03  0.1623198550406E-02  0.0000000000000E+00  0.1053237950977E-01
-0.3017833205365E-03  0.1480308534085E-02  0.0000000000000E+00  0.1069994782250E-01
-0.2238053455400E-03  0.1327230915440E-02  0.0000000000000E+00  0.1087533048216E-01
-0.1364995393067E-03  0.1162958271130E-02  0.0000000000000E+00  0.1105655035296E-01
-0.4077901094846E-04  0.9870273959685E-03  0.0000000000000E+00  0.1124023780727E-01
 0.6125077745067E-04  0.7996934073364E-03  0.0000000000000E+00  0.1142107302655E-01
 0.1660099218166E-03  0.6022307568005E-03  0.0000000000000E+00  0.1159104017392E-01
 0.2682151351756E-03  0.3971988151427E-03  0.0000000000000E+00  0.1173855715044E-01
 0.3607677972328E-03  0.1885712605980E-03  0.0000000000000E+00  0.1184761944059E-01
 0.4348072605114E-03 -0.1826174393105E-04  0.0000000000000E+00  0.1189702742100E-01
 0.4799864324323E-03 -0.2166739458342E-03  0.0000000000000E+00  0.1185986289562E-01
 0.4850117193764E-03 -0.3992192178653E-03  0.0000000000000E+00  0.1170344222194E-01
 0.4384749225654E-03 -0.5583462629223E-03  0.0000000000000E+00  0.1138994195269E-01
 0.3299907885805E-03 -0.6874156953513E-03  0.0000000000000E+00  0.1087739613210E-01
 0.1512536848645E-03 -0.7812451710499E-03  0.0000000000000E+00  0.1012042269683E-01
-0.1033176603784E-03 -0.8362037045674E-03  0.0000000000000E+00  0.9072123333346E-02
-0.4361658500551E-03 -0.8506624658467E-03  0.0000000000000E+00  0.7687609386697E-02
-0.8467320660999E-03 -0.8250124427814E-03  0.0000000000000E+00  0.5926927997280E-02
-0.2569406447297E-04  0.2524283888622E-02  0.0000000000000E+00  0.4308174243485E-02
-0.8694673787919E-04  0.2555951472707E-02  0.0000000000000E+00  0.5206626102043E-02
-0.1639123180528E-03  0.2590069053701E-02  0.0000000000000E+00  0.6009255654544E-02
-0.2485364036754E-03  0.2620867934974E-02  0.0000000000000E+00  0.6705958111284E-02
-0.3332538592899E-03  0.2643196653031E-02  0.0000000000000E+00  0.7294810003893E-02
-0.4118756508632E-03  0.2653183777019E-02  0.0000000000000E+00  0.7780822374215E-02
-0.4800694638666E-03  0.2648549918316E-02  0.0000000000000E+00  0.8174019549748E-02
-0.5354193177336E-03  0.2628570096526E-02  0.0000000000000E+00  0.8487363988460E-02
-0.5771693375990E-03  0.2593786987357E-02  0.0000000000000E+00  0.8734935778557E-02
-0.6058021203372E-03  0.2545609232824E-02  0.0000000000000E+00  0.8930575475401E-02
-0.6225859809176E-03  0.2485910035101E-02  0.0000000000000E+00  0.9087020755848E-02
-0.6291793011731E-03  0.2416696295912E-02  0.0000000000000E+00  0.9215460291858E-02
-0.6273305604381E-03  0.2339874855312E-02  0.0000000000000E+00  0.9325382990306E-02
-0.6186757958496E-03  0.2257110830757E-02  0.0000000000000E+00  0.9424606759624E-02
-0.6046147804791E-03  0.2169754680898E-02  0.0000000000000E+00  0.9519402351088E-02
-0.5862419356054E-03  0.2078819116070E-02  0.0000000000000E+00  0.9614657076002E-02
-0.5643589738883E-03  0.1985210756229E-02  0.0000000000000E+00  0.9714043886875E-02
-0.5394913022956E-03  0.1889921362639E-02  0.0000000000000E+00  0.9820120125837E-02
-0.5117639873056E-03  0.1793520761879E-02  0.0000000000000E+00  0.9934533753399E-02
-0.4808215195233E-03  0.1695751971569E-02  0.0000000000000E+00  0.1005837513661E-01
-0.4459082292397E-03  0.1595738399046E-02  0.0000000000000E+00  0.1019234462185E-01
-0.4059798119610E-03  0.1492223613377E-02  0.0000000000000E+00  0.1033685441635E-01
-0.3598250465602E-03  0.1383734750112E-02  0.0000000000000E+00  0.1049207854496E-01
-0.3062076167614E-03  0.1268707511606E-02  0.0000000000000E+00  0.1065792388287E-01
-0.2440347706258E-03  0.1145608146015E-02  0.0000000000000E+00  0.1083390002772E-01
-0.1725570377994E-03  0.1013076522990E-02  0.0000000000000E+00  0.1101886175770E-01
-0.9159624534072E-04  0.8700937200225E-03  0.0000000000000E+00  0.1121061671685E-01
-0.1785905108909E-05  0.7161181519849E-03  0.0000000000000E+00  0.1140542705732E-01
 0.9518030639399E-04  0.5512442002809E-03  0.0000000000000E+00  0.1159742499716E-01
 0.1962949247769E-03  0.3764713315811E-03  0.0000000000000E+00  0.1177786785143E-01
 0.2970305286050E-03  0.1939406747328E-03  0.0000000000000E+00  0.1193429592053E-01
 0.3912365442409E-03  0.7050988505050E-05  0.0000000000000E+00  0.1204973260806E-01
 0.4711800857462E-03 -0.1795370307992E-03  0.0000000000000E+00  0.1210200999532E-01
 0.5277775946027E-03 -0.3600539209355E-03  0.0000000000000E+00  0.1206338299462E-01
 0.5510505338346E-03 -0.5279748564663E-03  0.0000000000000E+00  0.1190063862372E-01
 0.5308310510419E-03 -0.6766257592295E-03  0.0000000000000E+00  0.1157584716783E-01
 0.4577426355667E-03 -0.8000487349843E-03  0.0000000000000E+00  0.1104738926608E-01
 0.3240825718704E-03 -0.8934415703643E-03  0.0000000000000E+00  0.1027072251464E-01
 0.1242889785396E-03 -0.9531791981321E-03  0.0000000000000E+00  0.9200269893054E-02
-0.1447442837517E-03 -0.9771699503700E-03  0.0000000000000E+00  0.7792587609490E-02
-0.4837351780691E-03 -0.9649004030758E-03  0.0000000000000E+00  0.6008764800788E-02
-0.1937444646029E-04  0.1971843214734E-02  0.0000000000000E+00  0.4294309746274E-02
-0.6661790798461E-04  0.1995758950741E-02  0.0000000000000E+00  0.5192288750022E-02
-0.1275367940434E-03  0.2021988510709E-02  0.0000000000000E+00  0.5997940328495E-02
-0.1954667797935E-03  0.2045758481004E-02  0.0000000000000E+00  0.6700976330675E-02
-0.2641070795643E-03  0.2062775422390E-02  0.0000000000000E+00  0.7298790029590E-02
-0.3282547459049E-03  0.2069776906621E-02  0.0000000000000E+00  0.7795408373999E-02
-0.3842175301992E-03  0.2064804163372E-02  0.0000000000000E+00  0.8199809804024E-02
-0.4298856975947E-03  0.2047190521217E-02  0.0000000000000E+00  0.8524046946940E-02
-0.4645401088574E-03  0.2017340457457E-02  0.0000000000000E+00  0.8781539988252E-02
-0.4885146183876E-03  0.1976405104422E-02  0.0000000000000E+00  0.8985747926450E-02
-0.5028225152674E-03  0.1925948920596E-02  0.0000000000000E+00  0.9149272359531E-02
-0.5088223390362E-03  0.1867668188536E-02  0.0000000000000E+00  0.9283348582030E-02
-0.5079587129692E-03  0.1803186852154E-02  0.0000000000000E+00  0.9397627972634E-02
-0.5015829808011E-03  0.1733928522002E-02  0.0000000000000E+00  0.9500151630334E-02
-0.4908403768250E-03  0.1661047061029E-02  0.0000000000000E+00  0.9597437074803E-02
-0.4766049682252E-03  0.1585401042558E-02  0.0000000000000E+00  0.9694622202736E-02
-0.4594867770097E-03  0.1507750480947E-02  0.0000000000000E+00  0.9795639511554E-02
-0.4398435820671E-03  0.1428919801986E-02  0.0000000000000E+00  0.9903327636603E-02
-0.4176723026171E-03  0.1349356560132E-02  0.0000000000000E+00  0.1001961451456E-01
-0.3925392755687E-03  0.1268779721297E-02  0.0000000000000E+00  0.1014584179229E-01
-0.3636496918038E-03  0.1186358374808E-02  0.0000000000000E+00  0.1028293072244E-01
-0.3299438060334E-03  0.1100918495714E-02  0.0000000000000E+00  0.1043148207503E-01
-0.2902018615532E-03  0.1011083288765E-02  0.0000000000000E+00  0.1059181743162E-01
-0.2431668285159E-03  0.9153804991845E-03  0.0000000000000E+00  0.1076393651379E-01
-0.1876914108649E-03  0.8123480048091E-03  0.0000000000000E+00  0.1094737034555E-01
-0.1229134671088E-03  0.7006587998849E-03  0.0000000000000E+00  0.1114090483084E-01
-0.4845780873886E-04  0.5792686340614E-03  0.0000000000000E+00  0.1134216847947E-01
 0.3534920007620E-04  0.4475383056181E-03  0.0000000000000E+00  0.1154710823000E-01
 0.1272566614934E-03  0.3053768625464E-03  0.0000000000000E+00  0.1174938142432E-01
 0.2248609492255E-03  0.1534806356898E-03  0.0000000000000E+00  0.1193961166231E-01
 0.3244171688639E-03 -0.6455349574969E-05  0.0000000000000E+00  0.1210457146777E-01
 0.4207377467904E-03 -0.1716290784548E-03  0.0000000000000E+00  0.1222643134762E-01
 0.5072128401704E-03 -0.3381179434212E-03  0.0000000000000E+00  0.1228216960071E-01
 0.5759910572840E-03 -0.5009976967549E-03  0.0000000000000E+00  0.1224330257806E-01
 0.6183478672857E-03 -0.6546288811934E-03  0.0000000000000E+00  0.1207612301104E-01
 0.6252689510868E-03 -0.7931563280126E-03  0.0000000000000E+00  0.1174255069301E-01
 0.5882861378022E-03 -0.9112336572112E-03  0.0000000000000E+00  0.1120117447441E-01
 0.5002097452971E-03 -0.1004375495474E-02  0.0000000000000E+00  0.1040804607512E-01
 0.3554538385147E-03 -0.1068930697844E-02  0.0000000000000E+00  0.9318565156438E-02
 0.1502815235024E-03 -0.1102368305395E-02  0.0000000000000E+00  0.7890366984791E-02
-0.1171916051961E-03 -0.1103353466521E-02  0.0000000000000E+00  0.6085316553750E-02
-0.1329143663890E-04  0.1421462294573E-02  0.0000000000000E+00  0.4284603273306E-02
-0.4702401780902E-04  0.1437901722066E-02  0.0000000000000E+00  0.5182085417795E-02
-0.9239881778493E-04  0.1456478408855E-02  0.0000000000000E+00  0.5990085678647E-02
-0.1440563074134E-03  0.1473356633211E-02  0.0000000000000E+00  0.6698182322182E-02
-0.1968983288891E-03  0.1485065400214E-02  0.0000000000000E+00  0.7303227242372E-02
-0.2466830461116E-03  0.1488946454508E-02  0.0000000000000E+00  0.7808453580721E-02
-0.2903690710539E-03  0.1483384550473E-02  0.0000000000000E+00  0.8221984112627E-02
-0.3261883710786E-03  0.1467811085090E-02  0.0000000000000E+00  0.8555115910703E-02
-0.3535042616205E-03  0.1442536221607E-02  0.0000000000000E+00  0.8820711185309E-02
-0.3725457213928E-03  0.1408491678540E-02  0.0000000000000E+00  0.9031897592520E-02
-0.3841057867575E-03  0.1366960287738E-02  0.0000000000000E+00  0.9201149965709E-02
-0.3892664391937E-03  0.1319342999812E-02  0.0000000000000E+00  0.9339732747310E-02
-0.3891812849723E-03  0.1266986320709E-02  0.0000000000000E+00  0.9457428286045E-02
-0.3849221525214E-03  0.1211071230162E-02  0.0000000000000E+00  0.9562464571918E-02
-0.3773803840836E-03  0.1152550558370E-02  0.0000000000000E+00  0.9661570122809E-02
-0.3672083914663E-03  0.1092123566932E-02  0.0000000000000E+00  0.9760100293282E-02
-0.3548229341102E-03  0.1030399404318E-02  0.0000000000000E+00  0.9862214745834E-02
-0.3404130078831E-03  0.9680325510600E-03  0.0000000000000E+00  0.9970998891146E-02
-0.3238464242022E-03  0.9053472119307E-03  0.0000000000000E+00  0.1008862726045E-01
-0.3046099789351E-03  0.8420382112947E-03  0.0000000000000E+00  0.1021666493462E-01
-0.2818672669659E-03  0.7773206159632E-03  0.0000000000000E+00  0.1035623221430E-01
-0.2545389731138E-03  0.7101028776664E-03  0.0000000000000E+00  0.1050810297732E-01
-0.2213904809086E-03  0.6391035064257E-03  0.0000000000000E+00  0.1067273852998E-01
-0.1811350312292E-03  0.5629400117963E-03  0.0000000000000E+00  0.1085023288289E-01
-0.1325585453648E-03  0.4802172956410E-03  0.0000000000000E+00  0.1104015096278E-01
-0.7467021071372E-04  0.3896336226191E-03  0.0000000000000E+00  0.1124123512857E-01
-0.6877708041975E-05  0.2901074602515E-03  0.0000000000000E+00  0.1145097476446E-01
 0.7082391739055E-04  0.1808853180426E-03  0.0000000000000E+00  0.1166505896149E-01
 0.1576537756542E-03  0.6166961673781E-04  0.0000000000000E+00  0.1187674726910E-01
 0.2518397238966E-03 -0.6717075902824E-04  0.0000000000000E+00  0.1207612507703E-01
 0.3504430548431E-03 -0.2044108941953E-03  0.0000000000000E+00  0.1224930614969E-01
 0.4492530082429E-03 -0.3478643542318E-03  0.0000000000000E+00  0.1237772182218E-01
 0.5427802021483E-03 -0.4943543575361E-03  0.0000000000000E+00  0.1243760019983E-01
 0.6243809031459E-03 -0.6397929083697E-03  0.0000000000000E+00  0.1239979165711E-01
 0.6865360718693E-03 -0.7793972005777E-03  0.0000000000000E+00  0.1223011194419E-01
 0.7213161098694E-03 -0.9080846268239E-03  0.0000000000000E+00  0.1189027155944E-01
 0.7210822978811E-03 -0.1021065542484E-02  0.0000000000000E+00  0.1133892453468E-01
 0.6790881361707E-03 -0.1114123004085E-02  0.0000000000000E+00  0.1053248341276E-01
 0.5896901430347E-03 -0.1183556325807E-02  0.0000000000000E+00  0.9427011920513E-02
 0.4485447944176E-03 -0.1226413985822E-02  0.0000000000000E+00  0.7980901960944E-02
 0.2526824061231E-03 -0.1240602303563E-02  0.0000000000000E+00  0.6156562151965E-02
-0.7396861066279E-05  0.8727869122560E-03  0.0000000000000E+00  0.4278911524867E-02
-0.2801653143195E-04  0.8819695677117E-03  0.0000000000000E+00  0.5175890923038E-02
-0.5825070306376E-04  0.8930813589156E-03  0.0000000000000E+00  0.5985621773740E-02
-0.9397618982157E-04  0.9031778392453E-03  0.0000000000000E+00  0.6697588955700E-02
-0.1312470948644E-03  0.9095810313820E-03  0.0000000000000E+00  0.7308226538430E-02
-0.1667610919740E-03  0.9102315909029E-03  0.0000000000000E+00  0.7820144658167E-02
-0.1981346469801E-03  0.9038748393878E-03  0.0000000000000E+00  0.8240786599894E-02
-0.2239687600779E-03  0.8900713971870E-03  0.0000000000000E+00  0.8580842491938E-02
-0.2437456422197E-03  0.8690723865330E-03  0.0000000000000E+00  0.8852720471889E-02
-0.2576251560843E-03  0.8416214149597E-03  0.0000000000000E+00  0.9069273835673E-02
-0.2662090412897E-03  0.8087425311996E-03  0.0000000000000E+00  0.9242868345310E-02
-0.2703226018638E-03  0.7715547309575E-03  0.0000000000000E+00  0.9384787703395E-02
-0.2708398155394E-03  0.7311323885190E-03  0.0000000000000E+00  0.9504919238599E-02
-0.2685580042977E-03  0.6884136200682E-03  0.0000000000000E+00  0.9611644652306E-02
-0.2641157439570E-03  0.6441471001091E-03  0.0000000000000E+00  0.9711868734428E-02
-0.2579431524578E-03  0.5988689067792E-03  0.0000000000000E+00  0.9811130765824E-02
-0.2502627338190E-03  0.5530341021177E-03  0.0000000000000E+00  0.9913784033085E-02
-0.2410939698930E-03  0.5071253011513E-03  0.0000000000000E+00  0.1002312483999E-01
-0.2301749862349E-03  0.4613427165140E-03  0.0000000000000E+00  0.1014153972663E-01
-0.2169121582257E-03  0.4153572867052E-03  0.0000000000000E+00  0.1027078852964E-01
-0.2004257792068E-03  0.3684307248181E-03  0.0000000000000E+00  0.1041216834876E-01
-0.1796139002314E-03  0.3195545096768E-03  0.0000000000000E+00  0.1056661077208E-01
-0.1532221321795E-03  0.2675423361664E-03  0.0000000000000E+00  0.1073470954529E-01
-0.1199267449329E-03  0.2111000682775E-03  0.0000000000000E+00  0.1091665555439E-01
-0.7843679996677E-04  0.1488962054984E-03  0.0000000000000E+00  0.1111206198178E-01
-0.2761939827101E-04  0.7964803023352E-04  0.0000000000000E+00  0.1131965565282E-01
 0.3335199920262E-04  0.2226907372329E-05  0.0000000000000E+00  0.1153683022406E-01
 0.1048344123604E-03 -0.8424886459524E-04  0.0000000000000E+00  0.1175907805115E-01
 0.1865405602974E-03 -0.1803014486164E-03  0.0000000000000E+00  0.1197934139479E-01
 0.2773540648007E-03 -0.2859100782911E-03  0.0000000000000E+00  0.1218726497324E-01
 0.3751637407792E-03 -0.4003406018698E-03  0.0000000000000E+00  0.1236841217416E-01
 0.4767492304119E-03 -0.5220388110401E-03  0.0000000000000E+00  0.1250358441017E-01
 0.5777421451916E-03 -0.6485815829778E-03  0.0000000000000E+00  0.1256835428772E-01
 0.6726894740063E-03 -0.7767117293534E-03  0.0000000000000E+00  0.1253296612413E-01
 0.7552417015491E-03 -0.9024820429618E-03  0.0000000000000E+00  0.1236276196022E-01
 0.8185020296636E-03 -0.1021547685616E-02  0.0000000000000E+00  0.1201917300463E-01
 0.8556014065244E-03 -0.1129634670990E-02  0.0000000000000E+00  0.1146077235274E-01
 0.8601833765329E-03 -0.1222758548112E-02  0.0000000000000E+00  0.1064411008375E-01
 0.8265205419136E-03 -0.1297151832185E-02  0.0000000000000E+00  0.9525625883893E-02
 0.7496780938130E-03 -0.1349455914615E-02  0.0000000000000E+00  0.8064177838508E-02
 0.6256568568441E-03 -0.1376863111143E-02  0.0000000000000E+00  0.6222510353851E-02
-0.1645139353267E-05  0.3254734387529E-03  0.0000000000000E+00  0.4277123189108E-02
-0.9454865334317E-05  0.3275655592428E-03  0.0000000000000E+00  0.5173608033481E-02
-0.2485737856356E-04  0.3313547603261E-03  0.0000000000000E+00  0.5984494881192E-02
-0.4491250394419E-04  0.3347515715476E-03  0.0000000000000E+00  0.6699208150470E-02
-0.6678689498209E-04  0.3358475728206E-03  0.0000000000000E+00  0.7313873516427E-02
-0.8809997846382E-04  0.3331773620516E-03  0.0000000000000E+00  0.7830633619560E-02
-0.1071304856654E-03  0.3258592258019E-03  0.0000000000000E+00  0.8256417080565E-02
-0.1228689984795E-03  0.3136067266156E-03  0.0000000000000E+00  0.8601450753541E-02
-0.1349447825371E-03  0.2966393538808E-03  0.0000000000000E+00  0.8877793711062E-02
-0.1434767060316E-03  0.2755373404245E-03  0.0000000000000E+00  0.9098086934528E-02
-0.1488983519356E-03  0.2510843350518E-03  0.0000000000000E+00  0.9274611355722E-02
-0.1517945300373E-03  0.2241284320367E-03  0.0000000000000E+00  0.9418666129280E-02
-0.1527691174247E-03  0.1954765586902E-03  0.0000000000000E+00  0.9540222083060E-02
-0.1523493746708E-03  0.1658242119399E-03  0.0000000000000E+00  0.9647784064202E-02
-0.1509224106128E-03  0.1357137962398E-03  0.0000000000000E+00  0.9748399334380E-02
-0.1486958847771E-03  0.1055154512262E-03  0.0000000000000E+00  0.9847757290434E-02
-0.1456975517788E-03  0.7552788881270E-04  0.0000000000000E+00  0.9950370372399E-02
-0.1417770731265E-03  0.4606062001921E-04  0.0000000000000E+00  0.1005970876584E-01
-0.1365427421324E-03  0.1718969647290E-04  0.0000000000000E+00  0.1017833540309E-01
-0.1293202121130E-03 -0.1143716598420E-04  0.0000000000000E+00  0.1030817544872E-01
-0.1191855961519E-03 -0.4051049034841E-04  0.0000000000000E+00  0.1045068016136E-01
-0.1050123959612E-03 -0.7095464681274E-04  0.0000000000000E+00  0.1060692343296E-01
-0.8552304947518E-04 -0.1038601082516E-03  0.0000000000000E+00  0.1077762458187E-01
-0.5935151669034E-04 -0.1404330326646E-03  0.0000000000000E+00  0.1096307489666E-01
-0.2512223769358E-04 -0.1819433653065E-03  0.0000000000000E+00  0.1116295174328E-01
 0.1845044373117E-04 -0.2296592291850E-03  0.0000000000000E+00  0.1137599669431E-01
 0.7244122257766E-04 -0.2847638322262E-03  0.0000000000000E+00  0.1159955395950E-01
 0.1375764655391E-03 -0.3482781050666E-03  0.0000000000000E+00  0.1182898348201E-01
 0.2140825845838E-03 -0.4209633856086E-03  0.0000000000000E+00  0.1205699372148E-01
 0.3015202019119E-03 -0.5031642257474E-03  0.0000000000000E+00  0.1227288815815E-01
 0.3986252147825E-03 -0.5946549438779E-03  0.0000000000000E+00  0.1246178795570E-01
 0.5031817687364E-03 -0.6945286540786E-03  0.0000000000000E+00  0.1260397056611E-01
 0.6119468889032E-03 -0.8011245937246E-03  0.0000000000000E+00  0.1267444100594E-01
 0.7206494671088E-03 -0.9120151472385E-03  0.0000000000000E+00  0.1264288771484E-01
 0.8240860653668E-03 -0.1024075628295E-02  0.0000000000000E+00  0.1247417151962E-01
 0.9163567538490E-03 -0.1133675357106E-02  0.0000000000000E+00  0.1212936580957E-01
 0.9913195934408E-03 -0.1237027427199E-02  0.0000000000000E+00  0.1156681429537E-01
 0.1042969279790E-02 -0.1330354598846E-02  0.0000000000000E+00  0.1074298868873E-01
 0.1065473292117E-02 -0.1409809914459E-02  0.0000000000000E+00  0.9614434201790E-02
 0.1053312167697E-02 -0.1471635734731E-02  0.0000000000000E+00  0.8140207122920E-02
 0.1001490386249E-02 -0.1512339319786E-02  0.0000000000000E+00  0.6283196543476E-02
 0.4007286194219E-05 -0.2208133719589E-03  0.0000000000000E+00  0.4279157487641E-02
 0.8795363046682E-05 -0.2256967248010E-03  0.0000000000000E+00  0.5175166518474E-02
 0.8006366045740E-05 -0.2291322640722E-03  0.0000000000000E+00  0.5986667784200E-02
 0.3436969981167E-05 -0.2323814749437E-03  0.0000000000000E+00  0.6703052791512E-02
-0.3162414880520E-05 -0.2366008835759E-03  0.0000000000000E+00  0.7320237713010E-02
-0.1031937521327E-04 -0.2426661045218E-03  0.0000000000000E+00  0.7840041650124E-02
-0.1697764360324E-04 -0.2510772182069E-03  0.0000000000000E+00  0.8269034635833E-02
-0.2253218215809E-04 -0.2619505327033E-03  0.0000000000000E+00  0.8617119913142E-02
-0.2677997900249E-04 -0.2750780460448E-03  0.0000000000000E+00  0.8896113081543E-02
-0.2981978547015E-04 -0.2900245232529E-03  0.0000000000000E+00  0.9118508534915E-02
-0.3193437992233E-04 -0.3062329132150E-03  0.0000000000000E+00  0.9296531539430E-02
-0.3348035023037E-04 -0.3231176038865E-03  0.0000000000000E+00  0.9441497545356E-02
-0.3479882370105E-04 -0.3401354194310E-03  0.0000000000000E+00  0.9563442890889E-02
-0.3615056775047E-04 -0.3568330930333E-03  0.0000000000000E+00  0.9670967045211E-02
-0.3767245060715E-04 -0.3728758460975E-03  0.0000000000000E+00  0.9771226666631E-02
-0.3934982634263E-04 -0.3880612719551E-03  0.0000000000000E+00  0.9870027226736E-02
-0.4101563488490E-04 -0.4022483886748E-03  0.0000000000000E+00  0.9972005088721E-02
-0.4234983086382E-04 -0.4153013577353E-03  0.0000000000000E+00  0.1008076637364E-01
-0.4283119611925E-04 -0.4272679570222E-03  0.0000000000000E+00  0.1019901390921E-01
-0.4170499261347E-04 -0.4385225752927E-03  0.0000000000000E+00  0.1032880808054E-01
-0.3800316293867E-04 -0.4497063452997E-03  0.0000000000000E+00  0.1047173126088E-01
-0.3057396189965E-04 -0.4616577129827E-03  0.0000000000000E+00  0.1062898414447E-01
-0.1811485272518E-04 -0.4753698023789E-03  0.0000000000000E+00  0.1080140501828E-01
 0.7858412737205E-06 -0.4919600014638E-03  0.0000000000000E+00  0.1098938980606E-01
 0.2759361660576E-04 -0.5126371903523E-03  0.0000000000000E+00  0.1119269723225E-01
 0.6375467628816E-04 -0.5386573026055E-03  0.0000000000000E+00  0.1141011574453E-01
 0.1106025424779E-03 -0.5712630575117E-03  0.0000000000000E+00  0.1163898878432E-01
 0.1692467017234E-03 -0.6116225951750E-03  0.0000000000000E+00  0.1187461094429E-01
 0.2404439002415E-03 -0.6607476195154E-03  0.0000000000000E+00  0.1210954303117E-01
 0.3244501902073E-03 -0.7193618461794E-03  0.0000000000000E+00  0.1233284863614E-01
 0.4208667588019E-03 -0.7877631306867E-03  0.0000000000000E+00  0.1252931520996E-01
 0.5284974367405E-03 -0.8657059429915E-03  0.0000000000000E+00  0.1267880026234E-01
 0.6452335693981E-03 -0.9523020383572E-03  0.0000000000000E+00  0.1275582450513E-01
 0.7679856726228E-03 -0.1045956871356E-02  0.0000000000000E+00  0.1272956373325E-01
 0.8926854499025E-03 -0.1144363398372E-02  0.0000000000000E+00  0.1256438216917E-01
 0.1014409231339E-02 -0.1244592376619E-02  0.0000000000000E+00  0.1222091041366E-01
 0.1127715502348E-02 -0.1343327002767E-02  0.0000000000000E+00  0.1165711219418E-01
 0.1226923718373E-02 -0.1436981322036E-02  0.0000000000000E+00  0.1082916947428E-01
 0.1306078876953E-02 -0.1521619723468E-02  0.0000000000000E+00  0.9693473951112E-02
 0.1359074908978E-02 -0.1593088134198E-02  0.0000000000000E+00  0.8209026473770E-02
 0.1379932355348E-02 -0.1647223160913E-02  0.0000000000000E+00  0.6338679967413E-02
 0.9602465248567E-05 -0.7664024095988E-03  0.0000000000000E+00  0.4284963056018E-02
 0.2686391886756E-04 -0.7781957561435E-03  0.0000000000000E+00  0.5180522403540E-02
 0.4055839195972E-04 -0.7888017047225E-03  0.0000000000000E+00  0.5992119974838E-02
 0.5136568955273E-04 -0.7986720274756E-03  0.0000000000000E+00  0.6709138120043E-02
 0.5997322158344E-04 -0.8082233582737E-03  0.0000000000000E+00  0.7327374999635E-02
 0.6695445740010E-04 -0.8177445027231E-03  0.0000000000000E+00  0.7848461977318E-02
 0.7269895560746E-04 -0.8273483120210E-03  0.0000000000000E+00  0.8278760332982E-02
 0.7739757198860E-04 -0.8369696448072E-03  0.0000000000000E+00  0.8627986429278E-02
 0.8107182914577E-04 -0.8463986496009E-03  0.0000000000000E+00  0.8907818302681E-02
 0.8362915417826E-04 -0.8553329044930E-03  0.0000000000000E+00  0.9130672031876E-02
 0.8492597678339E-04 -0.8634328129435E-03  0.0000000000000E+00  0.9308749845830E-02
 0.8482572148016E-04 -0.8703696860777E-03  0.0000000000000E+00  0.9453387626772E-02
 0.8324507139401E-04 -0.8758616678649E-03  0.0000000000000E+00  0.9574671703460E-02
 0.8018729694875E-04 -0.8796974400697E-03  0.0000000000000E+00  0.9681269065379E-02
 0.7576480612104E-04 -0.8817506400836E-03  0.0000000000000E+00  0.9780413153711E-02
 0.7021420165332E-04 -0.8819875508198E-03  0.0000000000000E+00  0.9877991229956E-02
 0.6389705184695E-04 -0.8804254761719E-03  0.0000000000000E+00  0.9978727712080E-02
 0.5730258305847E-04 -0.8771021616786E-03  0.0000000000000E+00  0.1008632593663E-01
 0.5108071313586E-04 -0.8721883663823E-03  0.0000000000000E+00  0.1020359138147E-01
 0.4606556897968E-04 -0.8660789780734E-03  0.0000000000000E+00  0.1033268892499E-01
 0.4326843345381E-04 -0.8593635610849E-03  0.0000000000000E+00  0.1047530858290E-01
 0.4386572322257E-04 -0.8527921578926E-03  0.0000000000000E+00  0.1063276215258E-01
 0.4918508344787E-04 -0.8472580803736E-03  0.0000000000000E+00  0.1080600036923E-01
 0.6068505239065E-04 -0.8437878809376E-03  0.0000000000000E+00  0.1099552846821E-01
 0.7992382267363E-04 -0.8435281791192E-03  0.0000000000000E+00  0.1120120460342E-01
 0.1085129348157E-03 -0.8477229534638E-03  0.0000000000000E+00  0.1142189764095E-01
 0.1480520410875E-03 -0.8576766893703E-03  0.0000000000000E+00  0.1165500085817E-01
 0.2000439561050E-03 -0.8747095573825E-03  0.0000000000000E+00  0.1189581287228E-01
 0.2657889890278E-03 -0.9000913657098E-03  0.0000000000000E+00  0.1213683540716E-01
 0.3462543980550E-03 -0.9349355427870E-03  0.0000000000000E+00  0.1236699557113E-01
 0.4419238086111E-03 -0.9800761073501E-03  0.0000000000000E+00  0.1257085669872E-01
 0.5526374111420E-03 -0.1035942193307E-02  0.0000000000000E+00  0.1272795989629E-01
 0.6774347136025E-03 -0.1102430108303E-02  0.0000000000000E+00  0.1281242243660E-01
 0.8144164584640E-03 -0.1178786992085E-02  0.0000000000000E+00  0.1279294645366E-01
 0.9606511132534E-03 -0.1263526950156E-02  0.0000000000000E+00  0.1263337891206E-01
 0.1112185580147E-02 -0.1354420170101E-02  0.0000000000000E+00  0.1229381790431E-01
 0.1264267070118E-02 -0.1448613987093E-02  0.0000000000000E+00  0.1173169420705E-01
 0.1411524787283E-02 -0.1542706309966E-02  0.0000000000000E+00  0.1090269019395E-01
 0.1547866923009E-02 -0.1632666504162E-02  0.0000000000000E+00  0.9762790543268E-02
 0.1666590400414E-02 -0.1713941221047E-02  0.0000000000000E+00  0.8270694133094E-02
 0.1760724722587E-02 -0.1781697144167E-02  0.0000000000000E+00  0.6389041369791E-02
 0.1518141366469E-04 -0.1311618107223E-02  0.0000000000000E+00  0.4294517131437E-02
 0.4487741235875E-04 -0.1330304451106E-02  0.0000000000000E+00  0.5189657419665E-02
 0.7301154766806E-04 -0.1348069336357E-02  0.0000000000000E+00  0.6000847757659E-02
 0.9916112331105E-04 -0.1364564763872E-02  0.0000000000000E+00  0.6717482675359E-02
 0.1229610827857E-03 -0.1379473906221E-02  0.0000000000000E+00  0.7335329236379E-02
 0.1440906507795E-03 -0.1392500325409E-02  0.0000000000000E+00  0.7855961869177E-02
 0.1622715696480E-03 -0.1403366684009E-02  0.0000000000000E+00  0.8285679130838E-02
 0.1772752053911E-03 -0.1411820495375E-02  0.0000000000000E+00  0.8634145469495E-02
 0.1889343294376E-03 -0.1417643224769E-02  0.0000000000000E+00  0.8913007497811E-02
 0.1971553424134E-03 -0.1420659157106E-02  0.0000000000000E+00  0.9134672835930E-02
 0.2019280192480E-03 -0.1420741719294E-02  0.0000000000000E+00  0.9311355428338E-02
 0.2033317544506E-03 -0.1417816601228E-02  0.0000000000000E+00  0.9454417712051E-02
 0.2015386752713E-03 -0.1411862287979E-02  0.0000000000000E+00  0.9573981931482E-02
 0.1968149108986E-03 -0.1402909410893E-02  0.0000000000000E+00  0.9678756263624E-02
 0.1895215744169E-03 -0.1391040382472E-02  0.0000000000000E+00  0.9776018471279E-02
 0.1801167666964E-03 -0.1376390380947E-02  0.0000000000000E+00  0.9871703021100E-02
 0.1691559274450E-03 -0.1359134771996E-02  0.0000000000000E+00  0.9970585965698E-02
 0.1572965332173E-03 -0.1339484152245E-02  0.0000000000000E+00  0.1007642850082E-01
 0.1453158849166E-03 -0.1317730889357E-02  0.0000000000000E+00  0.1019210087924E-01
 0.1341257989945E-03 -0.1294288259070E-02  0.0000000000000E+00  0.1031984117693E-01
 0.1247788721136E-03 -0.1269691501711E-02  0.0000000000000E+00  0.1046142311989E-01
 0.1184743048076E-03 -0.1244599035143E-02  0.0000000000000E+00  0.1061825359673E-01
 0.1165632639685E-03 -0.1219800896433E-02  0.0000000000000E+00  0.1079138915658E-01
 0.1205502020506E-03 -0.1196229388353E-02  0.0000000000000E+00  0.1098144918321E-01
 0.1320861224640E-03 -0.1174965889471E-02  0.0000000000000E+00  0.1118840985600E-01
 0.1529495934026E-03 -0.1157240367600E-02  0.0000000000000E+00  0.1141125497454E-01
 0.1850102325560E-03 -0.1144418517848E-02  0.0000000000000E+00  0.1164747971421E-01
 0.2301707511223E-03 -0.1137974086979E-02  0.0000000000000E+00  0.1189245800603E-01
 0.2902848152413E-03 -0.1139439195098E-02  0.0000000000000E+00  0.1213872329957E-01
 0.3670440722643E-03 -0.1150324227393E-02  0.0000000000000E+00  0.1237517190907E-01
 0.4618308381150E-03 -0.1172009637962E-02  0.0000000000000E+00  0.1258625456336E-01
 0.5755400917586E-03 -0.1205611997026E-02  0.0000000000000E+00  0.1275130058045E-01
 0.7083785989430E-03 -0.1251826341923E-02  0.0000000000000E+00  0.1284410448723E-01
 0.8596550981317E-03 -0.1310755503016E-02  0.0000000000000E+00  0.1283293213957E-01
 0.1027589135588E-02 -0.1381746799593E-02  0.0000000000000E+00  0.1268108978147E-01
 0.1209207291884E-02 -0.1463278524527E-02  0.0000000000000E+00  0.1234804995197E-01
 0.1400448380992E-02 -0.1552966913511E-02  0.0000000000000E+00  0.1179055466331E-01
 0.1596247155739E-02 -0.1647594375383E-02  0.0000000000000E+00  0.1096357534013E-01
 0.1790363303058E-02 -0.1743031338584E-02  0.0000000000000E+00  0.9822436097746E-02
 0.1975477998627E-02 -0.1834316939081E-02  0.0000000000000E+00  0.8325287751867E-02
 0.2143603779197E-02 -0.1915935487562E-02  0.0000000000000E+00  0.6434380987981E-02
 0.2078456099373E-04 -0.1856782258529E-02  0.0000000000000E+00  0.4307825028322E-02
 0.6296068152470E-04 -0.1882392458830E-02  0.0000000000000E+00  0.5202578641187E-02
 0.1055758896795E-03 -0.1907347280666E-02  0.0000000000000E+00  0.6012864286889E-02
 0.1471074125949E-03 -0.1930500764526E-02  0.0000000000000E+00  0.6728108841219E-02
 0.1861389933694E-03 -0.1950803522181E-02  0.0000000000000E+00  0.7344133249127E-02
 0.2214557090311E-03 -0.1967373891194E-02  0.0000000000000E+00  0.7862583817526E-02
 0.2521107429997E-03 -0.1979543788302E-02  0.0000000000000E+00  0.8289841001803E-02
 0.2774548891525E-03 -0.1986872675878E-02  0.0000000000000E+00  0.8635651761384E-02
 0.2971312043070E-03 -0.1989132849278E-02  0.0000000000000E+00  0.8911737674075E-02
 0.3110444906750E-03 -0.1986275221793E-02  0.0000000000000E+00  0.9130568490203E-02
 0.3193177387514E-03 -0.1978386563692E-02  0.0000000000000E+00  0.9304405482218E-02
 0.3222465040323E-03 -0.1965647506291E-02  0.0000000000000E+00  0.9444644477640E-02
 0.3202586594416E-03 -0.1948297458822E-02  0.0000000000000E+00  0.9561429981066E-02
 0.3138833833795E-03 -0.1926609384730E-02  0.0000000000000E+00  0.9663485119009E-02
 0.3037303903415E-03 -0.1900874475567E-02  0.0000000000000E+00  0.9758099329982E-02
 0.2904787589726E-03 -0.1871396309349E-02  0.0000000000000E+00  0.9851219317632E-02
 0.2748768573552E-03 -0.1838507336315E-02  0.0000000000000E+00  0.9947635862216E-02
 0.2577490826611E-03 -0.1802589636977E-02  0.0000000000000E+00  0.1005112814919E-01
 0.2399982925164E-03 -0.1764055292032E-02  0.0000000000000E+00  0.1016459281151E-01
 0.2226115859850E-03 -0.1723333345219E-02  0.0000000000000E+00  0.1029030930511E-01
 0.2066799798154E-03 -0.1680901372551E-02  0.0000000000000E+00  0.1043011063612E-01
 0.1934222361828E-03 -0.1637322189722E-02  0.0000000000000E+00  0.1058548233504E-01
 0.1842097025434E-03 -0.1593278070211E-02  0.0000000000000E+00  0.1075757980516E-01
 0.1805895753018E-03 -0.1549602260078E-02  0.0000000000000E+00  0.1094714127476E-01
 0.1843030688731E-03 -0.1507306065812E-02  0.0000000000000E+00  0.1115427968035E-01
 0.1972942815308E-03 -0.1467601011125E-02  0.0000000000000E+00  0.1137812878290E-01
 0.2217030656634E-03 -0.1431910528134E-02  0.0000000000000E+00  0.1161633870106E-01
 0.2598348603455E-03 -0.1401860096371E-02  0.0000000000000E+00  0.1186443149103E-01
 0.3141029694358E-03 -0.1379244716349E-02  0.0000000000000E+00  0.1211506521739E-01
 0.3869339836475E-03 -0.1365975587811E-02  0.0000000000000E+00  0.1235721364374E-01
 0.4806242965061E-03 -0.1363987489224E-02  0.0000000000000E+00  0.1257532921024E-01
 0.5971439724688E-03 -0.1375096705880E-02  0.0000000000000E+00  0.1274863676268E-01
 0.7378915780984E-03 -0.1400813443167E-02  0.0000000000000E+00  0.1285069090169E-01
 0.9034110301611E-03 -0.1442115792325E-02  0.0000000000000E+00  0.1284935963855E-01
 0.1093100199441E-02 -0.1499205091416E-02  0.0000000000000E+00  0.1270738461283E-01
 0.1304989406609E-02 -0.1571287218951E-02  0.0000000000000E+00  0.1238351773311E-01
 0.1535726562344E-02 -0.1656462816717E-02  0.0000000000000E+00  0.1183365296773E-01
 0.1780558519226E-02 -0.1751707412713E-02  0.0000000000000E+00  0.1101183480729E-01
 0.2033087331769E-02 -0.1852790970936E-02  0.0000000000000E+00  0.9872467773418E-02
 0.2285351426695E-02 -0.1954331523352E-02  0.0000000000000E+00  0.8372902560580E-02
 0.2528301799876E-02 -0.2050105535289E-02  0.0000000000000E+00  0.6474816881719E-02
 0.2645218383029E-04 -0.2402215794107E-02  0.0000000000000E+00  0.4324919889943E-02
 0.8123813274905E-04 -0.2434828395870E-02  0.0000000000000E+00  0.5219318308461E-02
 0.1384608427351E-03 -0.2467046514350E-02  0.0000000000000E+00  0.6028199551109E-02
 0.1954879760276E-03 -0.2496919926892E-02  0.0000000000000E+00  0.6741043028691E-02
 0.2498440653076E-03 -0.2522662040145E-02  0.0000000000000E+00  0.7353809170270E-02
 0.2994154914654E-03 -0.2542804399950E-02  0.0000000000000E+00  0.7868345940434E-02
 0.3425864447649E-03 -0.2556289975866E-02  0.0000000000000E+00  0.8291261288900E-02
 0.3782902451403E-03 -0.2562494631935E-02  0.0000000000000E+00  0.8632519826667E-02
 0.4059855510109E-03 -0.2561187347469E-02  0.0000000000000E+00  0.8904024804672E-02
 0.4255816352649E-03 -0.2552451630572E-02  0.0000000000000E+00  0.9118378617240E-02
 0.4373403338519E-03 -0.2536592697358E-02  0.0000000000000E+00  0.9287925101160E-02
 0.4417778210642E-03 -0.2514049825485E-02  0.0000000000000E+00  0.9424099759718E-02
 0.4395807163329E-03 -0.2485325524365E-02  0.0000000000000E+00  0.9537055092588E-02
 0.4315428318879E-03 -0.2450935877322E-02  0.0000000000000E+00  0.9635502347714E-02
 0.4185228642181E-03 -0.2411380520173E-02  0.0000000000000E+00  0.9726709459149E-02
 0.4014202981313E-03 -0.2367130245163E-02  0.0000000000000E+00  0.9816599921767E-02
 0.3811751868336E-03 -0.2318672864915E-02  0.0000000000000E+00  0.9909941906808E-02
 0.3587771235813E-03 -0.2266559949880E-02  0.0000000000000E+00  0.1001049232563E-01
 0.3352521903014E-03 -0.2211320884339E-02  0.0000000000000E+00  0.1012113538569E-01
 0.3116596575240E-03 -0.2153397362733E-02  0.0000000000000E+00  0.1024415962848E-01
 0.2891250872677E-03 -0.2093205383172E-02  0.0000000000000E+00  0.1038143237147E-01
 0.2688822414555E-03 -0.2031207433080E-02  0.0000000000000E+00  0.1053450076950E-01
 0.2523175371307E-03 -0.1967972507283E-02  0.0000000000000E+00  0.1070461157338E-01
 0.2410154912694E-03 -0.1904228581834E-02  0.0000000000000E+00  0.1089262609639E-01
 0.2368021651705E-03 -0.1840910177555E-02  0.0000000000000E+00  0.1109881249267E-01
 0.2417824284678E-03 -0.1779203507403E-02  0.0000000000000E+00  0.1132248954747E-01
 0.2583629729261E-03 -0.1720583267800E-02  0.0000000000000E+00  0.1156151585781E-01
 0.2892509372068E-03 -0.1666821324340E-02  0.0000000000000E+00  0.1181163553221E-01
 0.3374218918719E-03 -0.1619972345537E-02  0.0000000000000E+00  0.1206572605728E-01
 0.4060451599688E-03 -0.1582348659974E-02  0.0000000000000E+00  0.1231294972605E-01
 0.4983456298215E-03 -0.1556444727032E-02  0.0000000000000E+00  0.1253787873599E-01
 0.6173905814846E-03 -0.1544788224029E-02  0.0000000000000E+00  0.1271974515342E-01
 0.7658004480293E-03 -0.1549723194625E-02  0.0000000000000E+00  0.1283195096166E-01
 0.9453911338473E-03 -0.1573128207159E-02  0.0000000000000E+00  0.1284200852648E-01
 0.1156779365985E-02 -0.1616088363726E-02  0.0000000000000E+00  0.1271207300475E-01
 0.1399038680421E-02 -0.1678567705376E-02  0.0000000000000E+00  0.1240007985529E-01
 0.1669558686472E-02 -0.1759177850769E-02  0.0000000000000E+00  0.1186091159395E-01
 0.1963916071006E-02 -0.1855104333765E-02  0.0000000000000E+00  0.1104746200772E-01
 0.2275548971536E-02 -0.1962017702770E-02  0.0000000000000E+00  0.9912946043189E-02
 0.2595817844751E-02 -0.2074095998023E-02  0.0000000000000E+00  0.8413649844765E-02
 0.2914548655466E-02 -0.2184369194776E-02  0.0000000000000E+00  0.6510483577265E-02
 0.3222483684623E-04 -0.2948240556118E-02  0.0000000000000E+00  0.4345862711258E-02
 0.9983507508383E-04 -0.2987982077405E-02  0.0000000000000E+00  0.5239933833901E-02
 0.1718773523162E-03 -0.3027579374394E-02  0.0000000000000E+00  0.6046900311236E-02
 0.2445881090097E-03 -0.3064263380887E-02  0.0000000000000E+00  0.6756315508437E-02
 0.3144152296915E-03 -0.3095500039030E-02  0.0000000000000E+00  0.7364368158660E-02
 0.3783372017207E-03 -0.3119230999084E-02  0.0000000000000E+00  0.7873241616624E-02
 0.4340692164993E-03 -0.3134014577816E-02  0.0000000000000E+00  0.8289920303578E-02
 0.4801345768146E-03 -0.3139052821816E-02  0.0000000000000E+00  0.8624723596411E-02
 0.5158193078615E-03 -0.3134123732528E-02  0.0000000000000E+00  0.8889843506017E-02
 0.5410499815052E-03 -0.3119455510738E-02  0.0000000000000E+00  0.9098084685492E-02
 0.5562387234594E-03 -0.3095581728875E-02  0.0000000000000E+00  0.9261907142842E-02
 0.5621310529867E-03 -0.3063207137019E-02  0.0000000000000E+00  0.9392790515235E-02
 0.5596780045072E-03 -0.3023101067428E-02  0.0000000000000E+00  0.9500879386507E-02
 0.5499409587286E-03 -0.2976023864512E-02  0.0000000000000E+00  0.9594845021730E-02
 0.5340284182575E-03 -0.2922682891429E-02  0.0000000000000E+00  0.9681899789647E-02
 0.5130596232375E-03 -0.2863714251495E-02  0.0000000000000E+00  0.9767907964424E-02
 0.4881647560686E-03 -0.2799758642080E-02  0.0000000000000E+00  0.9857577405552E-02
 0.4604964880195E-03 -0.2731534507351E-02  0.0000000000000E+00  0.9954602216893E-02
 0.4312012989698E-03 -0.2659685629235E-02  0.0000000000000E+00  0.1006181507691E-01
 0.4014068334577E-03 -0.2584662764739E-02  0.0000000000000E+00  0.1018148088916E-01
 0.3722683606043E-03 -0.2506815877901E-02  0.0000000000000E+00  0.1031547573429E-01
 0.3450287535185E-03 -0.2426501683996E-02  0.0000000000000E+00  0.1046539067282E-01
 0.3210826223456E-03 -0.2344169385146E-02  0.0000000000000E+00  0.1063255552249E-01
 0.3020441190273E-03 -0.2260434086904E-02  0.0000000000000E+00  0.1081795814131E-01
 0.2898159940536E-03 -0.2176144931829E-02  0.0000000000000E+00  0.1102203966784E-01
 0.2866558100287E-03 -0.2092453499695E-02  0.0000000000000E+00  0.1124433850836E-01
 0.2952299398962E-03 -0.2010876217355E-02  0.0000000000000E+00  0.1148297523947E-01
 0.3186421866344E-03 -0.1933322373123E-02  0.0000000000000E+00  0.1173399062216E-01
 0.3604291650741E-03 -0.1862099134447E-02  0.0000000000000E+00  0.1199057808992E-01
 0.4245077146072E-03 -0.1799916493802E-02  0.0000000000000E+00  0.1224220263588E-01
 0.5150444203892E-03 -0.1749831142029E-02  0.0000000000000E+00  0.1247367890631E-01
 0.6362275510967E-03 -0.1715092959309E-02  0.0000000000000E+00  0.1266436396428E-01
 0.7919349436716E-03 -0.1698900546741E-02  0.0000000000000E+00  0.1278760141640E-01
 0.9853011055538E-03 -0.1704063795250E-02  0.0000000000000E+00  0.1281059678695E-01
 0.1218215911326E-02 -0.1732590474488E-02  0.0000000000000E+00  0.1269490145092E-01
 0.1490851765250E-02 -0.1785244925619E-02  0.0000000000000E+00  0.1239753927007E-01
 0.1801388642113E-02 -0.1861188015302E-02  0.0000000000000E+00  0.1187221315812E-01
 0.2145762915709E-02 -0.1957841087636E-02  0.0000000000000E+00  0.1107043142766E-01
 0.2517245970935E-02 -0.2070779351820E-02  0.0000000000000E+00  0.9943932887637E-02
 0.2906476867786E-02 -0.2193716722186E-02  0.0000000000000E+00  0.8447655695504E-02
 0.3302073429138E-02 -0.2318884423133E-02  0.0000000000000E+00  0.6541531013860E-02
 0.3814379323541E-04 -0.3495181110658E-02  0.0000000000000E+00  0.4370742634945E-02
 0.1188790836523E-03 -0.3542226794963E-02  0.0000000000000E+00  0.5264507992443E-02
 0.2060400818817E-03 -0.3589362112165E-02  0.0000000000000E+00  0.6069029990126E-02
 0.2946976304613E-03 -0.3632975943688E-02  0.0000000000000E+00  0.6773959887208E-02
 0.3801958031776E-03 -0.3669770767286E-02  0.0000000000000E+00  0.7375809490902E-02
 0.4585913890514E-03 -0.3697093843241E-02  0.0000000000000E+00  0.7877238343201E-02
 0.5269313082873E-03 -0.3713125959471E-02  0.0000000000000E+00  0.8285762156984E-02
 0.5833410701085E-03 -0.3716910831303E-02  0.0000000000000E+00  0.8612195402832E-02
 0.6269526413954E-03 -0.3708254600711E-02  0.0000000000000E+00  0.8869126308287E-02
 0.6577297083452E-03 -0.3687548544729E-02  0.0000000000000E+00  0.9069629596378E-02
 0.6762520258362E-03 -0.3655569326522E-02  0.0000000000000E+00  0.9226312105756E-02
 0.6835074190770E-03 -0.3613297034916E-02  0.0000000000000E+00  0.9350698924853E-02
 0.6807195761977E-03 -0.3561772967961E-02  0.0000000000000E+00  0.9452908118388E-02
 0.6692216163557E-03 -0.3502003096951E-02  0.0000000000000E+00  0.9541540910601E-02
 0.6503730167721E-03 -0.3434901309515E-02  0.0000000000000E+00  0.9623718836071E-02
 0.6255119764488E-03 -0.3361266332943E-02  0.0000000000000E+00  0.9705210303815E-02
 0.5959569078048E-03 -0.3281888487393E-02  0.0000000000000E+00  0.9790624876941E-02
 0.5630210481180E-03 -0.3197649854277E-02  0.0000000000000E+00  0.9883553189737E-02
 0.5279679762406E-03 -0.3109305236703E-02  0.0000000000000E+00  0.9986737114379E-02
 0.4919892598273E-03 -0.3017310437257E-02  0.0000000000000E+00  0.1010238481784E-01
 0.4562641085766E-03 -0.2921944437344E-02  0.0000000000000E+00  0.1023235497929E-01
 0.4220373230364E-03 -0.2823452072586E-02  0.0000000000000E+00  0.1037826401331E-01
 0.3907030890976E-03 -0.2722155294838E-02  0.0000000000000E+00  0.1054151552186E-01
 0.3638952591075E-03 -0.2618547404030E-02  0.0000000000000E+00  0.1072322625575E-01
 0.3435823146163E-03 -0.2513381733506E-02  0.0000000000000E+00  0.1092402697374E-01
 0.3321630715656E-03 -0.2407763464887E-02  0.0000000000000E+00  0.1114370930558E-01
 0.3325525674304E-03 -0.2303238124897E-02  0.0000000000000E+00  0.1138070870820E-01
 0.3482420567196E-03 -0.2201839734783E-02  0.0000000000000E+00  0.1163143736709E-01
 0.3833238642386E-03 -0.2106116627622E-02  0.0000000000000E+00  0.1188950263563E-01
 0.4424637793252E-03 -0.2019168901195E-02  0.0000000000000E+00  0.1214478965399E-01
 0.5307816786531E-03 -0.1944614820496E-02  0.0000000000000E+00  0.1238248372717E-01
 0.6536118791538E-03 -0.1886435983816E-02  0.0000000000000E+00  0.1258219249127E-01
 0.8161304396002E-03 -0.1848707967792E-02  0.0000000000000E+00  0.1271730488328E-01
 0.1022847022909E-02 -0.1835208331610E-02  0.0000000000000E+00  0.1275477802264E-01
 0.1276993288917E-02 -0.1848915800433E-02  0.0000000000000E+00  0.1265554961688E-01
 0.1579913421003E-02 -0.1891449352747E-02  0.0000000000000E+00  0.1237563913038E-01
 0.1930643939287E-02 -0.1962570039524E-02  0.0000000000000E+00  0.1186739652443E-01
 0.2325524348029E-02 -0.2059970777408E-02  0.0000000000000E+00  0.1108069558125E-01
 0.2757660859148E-02 -0.2179139272034E-02  0.0000000000000E+00  0.9965489873726E-02
 0.3216919498858E-02 -0.2313295991966E-02  0.0000000000000E+00  0.8475060010576E-02
 0.3690606074104E-02 -0.2453806793410E-02  0.0000000000000E+00  0.6568123783577E-02
 0.4425150669032E-04 -0.4043366638299E-02  0.0000000000000E+00  0.4399677529483E-02
 0.1385014287868E-03 -0.4097941692166E-02  0.0000000000000E+00  0.5293149299937E-02
 0.2411697088859E-03 -0.4152817549371E-02  0.0000000000000E+00  0.6094668504456E-02
 0.3461136303148E-03 -0.4203508653051E-02  0.0000000000000E+00  0.6794012204904E-02
 0.4475361232824E-03 -0.4245932098513E-02  0.0000000000000E+00  0.7388118992090E-02
 0.5405539664884E-03 -0.4276835128621E-02  0.0000000000000E+00  0.7880275786446E-02
 0.6215477798063E-03 -0.4294031501704E-02  0.0000000000000E+00  0.8278692804402E-02
 0.6882629231474E-03 -0.4296428389446E-02  0.0000000000000E+00  0.8594824340613E-02
 0.7397032479474E-03 -0.4283886423106E-02  0.0000000000000E+00  0.8841762523931E-02
 0.7758966920560E-03 -0.4256984841906E-02  0.0000000000000E+00  0.9032917103806E-02
 0.7976139733732E-03 -0.4216762956191E-02  0.0000000000000E+00  0.9181068031776E-02
 0.8061023425719E-03 -0.4164488951692E-02  0.0000000000000E+00  0.9297782651227E-02
 0.8028687815030E-03 -0.4101482443900E-02  0.0000000000000E+00  0.9393130153506E-02
 0.7895233644991E-03 -0.4028996413028E-02  0.0000000000000E+00  0.9475609052853E-02
 0.7676778974204E-03 -0.3948149417681E-02  0.0000000000000E+00  0.9552213281256E-02
 0.7388884913050E-03 -0.3859899233679E-02  0.0000000000000E+00  0.9628578078610E-02
 0.7046594985586E-03 -0.3765181711616E-02  0.0000000000000E+00  0.9709176564035E-02
 0.6664618156454E-03 -0.3665038714169E-02  0.0000000000000E+00  0.9797455278823E-02
 0.6256723803889E-03 -0.3560332254081E-02  0.0000000000000E+00  0.9896025978829E-02
 0.5835416278455E-03 -0.3451518791538E-02  0.0000000000000E+00  0.1000700668465E-01
 0.5412660660118E-03 -0.3338800954268E-02  0.0000000000000E+00  0.1013221186195E-01
 0.5000839942383E-03 -0.3222305004819E-02  0.0000000000000E+00  0.1027326376866E-01
 0.4613788615512E-03 -0.3102217328075E-02  0.0000000000000E+00  0.1043162928165E-01
 0.4267920742776E-03 -0.2978899236237E-02  0.0000000000000E+00  0.1060855494859E-01
 0.3983441044890E-03 -0.2852996064625E-02  0.0000000000000E+00  0.1080487620380E-01
 0.3785601995573E-03 -0.2725552442201E-02  0.0000000000000E+00  0.1102066995015E-01
 0.3705890977695E-03 -0.2598127263420E-02  0.0000000000000E+00  0.1125473820443E-01
 0.3782959253174E-03 -0.2472862765637E-02  0.0000000000000E+00  0.1150393893804E-01
 0.4063189520922E-03 -0.2352532715255E-02  0.0000000000000E+00  0.1176239247185E-01
 0.4600705480062E-03 -0.2240615271907E-02  0.0000000000000E+00  0.1202052489139E-01
 0.5456333218001E-03 -0.2141285875489E-02  0.0000000000000E+00  0.1226402667466E-01
 0.6695134467321E-03 -0.2059265455466E-02  0.0000000000000E+00  0.1247289110630E-01
 0.8382309478521E-03 -0.1999530143222E-02  0.0000000000000E+00  0.1262066826311E-01
 0.1057737191104E-02 -0.1966866745050E-02  0.0000000000000E+00  0.1267413820813E-01
 0.1332689291237E-02 -0.1965282827390E-02  0.0000000000000E+00  0.1259362572588E-01
 0.1665694784651E-02 -0.1997319353540E-02  0.0000000000000E+00  0.1233405751867E-01
 0.2056732411396E-02 -0.2063402478947E-02  0.0000000000000E+00  0.1184625185420E-01
 0.2502603916906E-02 -0.2161543889390E-02  0.0000000000000E+00  0.1107818128889E-01
 0.2996257716940E-02 -0.2287156435331E-02  0.0000000000000E+00  0.9977676075188E-02
 0.3526726943831E-02 -0.2432932710609E-02  0.0000000000000E+00  0.8496015725870E-02
 0.4079879149168E-02 -0.2589291173506E-02  0.0000000000000E+00  0.6590440656614E-02
 0.5059210798598E-04 -0.4593132946204E-02  0.0000000000000E+00  0.4432814865344E-02
 0.1588386103227E-03 -0.4655514293494E-02  0.0000000000000E+00  0.5325992585406E-02
 0.2774953773199E-03 -0.4718377892057E-02  0.0000000000000E+00  0.6123912021089E-02
 0.3991433739163E-03 -0.4776321419489E-02  0.0000000000000E+00  0.6816509608607E-02
 0.5167962869218E-03 -0.4824448528754E-02  0.0000000000000E+00  0.7401266748632E-02
 0.6246082483299E-03 -0.4858900079469E-02  0.0000000000000E+00  0.7882262973048E-02
 0.7182975395429E-03 -0.4877137461833E-02  0.0000000000000E+00  0.8268577269553E-02
 0.7952533601040E-03 -0.4877960226078E-02  0.0000000000000E+00  0.8572453988873E-02
 0.8543855207118E-03 -0.4861317678304E-02  0.0000000000000E+00  0.8807596725861E-02
 0.8958211066174E-03 -0.4828008677617E-02  0.0000000000000E+00  0.8987811089940E-02
 0.9205512330804E-03 -0.4779359526259E-02  0.0000000000000E+00  0.9126070461643E-02
 0.9301037232072E-03 -0.4716941928801E-02  0.0000000000000E+00  0.9233975277056E-02
 0.9262816446103E-03 -0.4642361074008E-02  0.0000000000000E+00  0.9321518679562E-02
 0.9109780231012E-03 -0.4557118058174E-02  0.0000000000000E+00  0.9397060568923E-02
 0.8860583127676E-03 -0.4462533380916E-02  0.0000000000000E+00  0.9467428768876E-02
 0.8532950972059E-03 -0.4359719261669E-02  0.0000000000000E+00  0.9538087416418E-02
 0.8143759250321E-03 -0.4249752097367E-02  0.0000000000000E+00  0.9613335044220E-02
 0.7709260509682E-03 -0.4133829057703E-02  0.0000000000000E+00  0.9696433719420E-02
 0.7244316344159E-03 -0.4012915164642E-02  0.0000000000000E+00  0.9789825902765E-02
 0.6761963826364E-03 -0.3887462851251E-02  0.0000000000000E+00  0.9895505824844E-02
 0.6274266543944E-03 -0.3757592687668E-02  0.0000000000000E+00  0.1001521625720E-01
 0.5793446434788E-03 -0.3623305185259E-02  0.0000000000000E+00  0.1015056471436E-01
 0.5333111213778E-03 -0.3484642099865E-02  0.0000000000000E+00  0.1030306939726E-01
 0.4909607527073E-03 -0.3341821451358E-02  0.0000000000000E+00  0.1047410578272E-01
 0.4543495233043E-03 -0.3195366754211E-02  0.0000000000000E+00  0.1066472699730E-01
 0.4261109122999E-03 -0.3046245638717E-02  0.0000000000000E+00  0.1087532512305E-01
 0.4096083725615E-03 -0.2896011566302E-02  0.0000000000000E+00  0.1110511850905E-01
 0.4090627530138E-03 -0.2746894563306E-02  0.0000000000000E+00  0.1135148417772E-01
 0.4296437009774E-03 -0.2601873444107E-02  0.0000000000000E+00  0.1160915502648E-01
 0.4775034350231E-03 -0.2464787438191E-02  0.0000000000000E+00  0.1186922215350E-01
 0.5596938724084E-03 -0.2340360349825E-02  0.0000000000000E+00  0.1211802267822E-01
 0.6839188587286E-03 -0.2234057352122E-02  0.0000000000000E+00  0.1233608175358E-01
 0.8580925068040E-03 -0.2151779117837E-02  0.0000000000000E+00  0.1249724124474E-01
 0.1089684376203E-02 -0.2099368069752E-02  0.0000000000000E+00  0.1256819200889E-01
 0.1384876495735E-02 -0.2081928265361E-02  0.0000000000000E+00  0.1250866101068E-01
 0.1747651729078E-02 -0.2103003982270E-02  0.0000000000000E+00  0.1227240093903E-01
 0.2179038778907E-02 -0.2163767088647E-02  0.0000000000000E+00  0.1180851446571E-01
 0.2676379189236E-02 -0.2262608653844E-02  0.0000000000000E+00  0.1106278517346E-01
 0.3232478638199E-02 -0.2394885577542E-02  0.0000000000000E+00  0.9980545782192E-02
 0.3835469271568E-02 -0.2552723142569E-02  0.0000000000000E+00  0.8510688260610E-02
 0.4469629668847E-02 -0.2725493555565E-02  0.0000000000000E+00  0.6608674383392E-02
 0.5721195081863E-04 -0.5144824649815E-02  0.0000000000000E+00  0.4470332913213E-02
 0.1800340410553E-03 -0.5215343246862E-02  0.0000000000000E+00  0.5363199765450E-02
 0.3152573704733E-03 -0.5286487763770E-02  0.0000000000000E+00  0.6156872610035E-02
 0.4541074236210E-03 -0.5351885839383E-02  0.0000000000000E+00  0.6841488537376E-02
 0.5883490266418E-03 -0.5405793223384E-02  0.0000000000000E+00  0.7415204017833E-02
 0.7111470054937E-03 -0.5443737858181E-02  0.0000000000000E+00  0.7883074545474E-02
 0.8175642894318E-03 -0.5462848659201E-02  0.0000000000000E+00  0.8255236002871E-02
 0.9046654789910E-03 -0.5461854706238E-02  0.0000000000000E+00  0.8544879484609E-02
 0.9713095297563E-03 -0.5440836766202E-02  0.0000000000000E+00  0.8766426855851E-02
 0.1017765857031E-02 -0.5400852054301E-02  0.0000000000000E+00  0.8934134734154E-02
 0.1045281603098E-02 -0.5343542911872E-02  0.0000000000000E+00  0.9061182483971E-02
 0.1055690135024E-02 -0.5270802323562E-02  0.0000000000000E+00  0.9159186958446E-02
 0.1051105209021E-02 -0.5184528804062E-02  0.0000000000000E+00  0.9238032184007E-02
 0.1033709226616E-02 -0.5086472020316E-02  0.0000000000000E+00  0.9305899732411E-02
 0.1005622292694E-02 -0.4978150519822E-02  0.0000000000000E+00  0.9369410912351E-02
 0.9688314525967E-03 -0.4860825155550E-02  0.0000000000000E+00  0.9433820299092E-02
 0.9252041780524E-03 -0.4735706921043E-02  0.0000000000000E+00  0.9503213933009E-02
 0.8765163922028E-03 -0.4604143204749E-02  0.0000000000000E+00  0.9580629517597E-02
 0.8243589991980E-03 -0.4467197507102E-02  0.0000000000000E+00  0.9668301362991E-02
 0.7700829270125E-03 -0.4325313343808E-02  0.0000000000000E+00  0.9768066125697E-02
 0.7148962209443E-03 -0.4178523299638E-02  0.0000000000000E+00  0.9881566724978E-02
 0.6599942769669E-03 -0.4026694596338E-02  0.0000000000000E+00  0.1001037416638E-01
 0.6067017093961E-03 -0.3869714696812E-02  0.0000000000000E+00  0.1015604438321E-01
 0.5566300861942E-03 -0.3707646064766E-02  0.0000000000000E+00  0.1032007882579E-01
 0.5118517723974E-03 -0.3540875108246E-02  0.0000000000000E+00  0.1050375882885E-01
 0.4750869378186E-03 -0.3370273871160E-02  0.0000000000000E+00  0.1070781879297E-01
 0.4498906872803E-03 -0.3197368592459E-02  0.0000000000000E+00  0.1093194050482E-01
 0.4408166690364E-03 -0.3024452695374E-02  0.0000000000000E+00  0.1117409139571E-01
 0.4535461194319E-03 -0.2854684741679E-02  0.0000000000000E+00  0.1142971642114E-01
 0.4949593468264E-03 -0.2692242561803E-02  0.0000000000000E+00  0.1169069873735E-01
 0.5730804075619E-03 -0.2542384296761E-02  0.0000000000000E+00  0.1194417098300E-01
 0.6968356760804E-03 -0.2411320568482E-02  0.0000000000000E+00  0.1217134908510E-01
 0.8755870646246E-03 -0.2305899980022E-02  0.0000000000000E+00  0.1234651500883E-01
 0.1118408545567E-02 -0.2233071061232E-02  0.0000000000000E+00  0.1243637871229E-01
 0.1433123097970E-02 -0.2199111842287E-02  0.0000000000000E+00  0.1240010318167E-01
 0.1825223357728E-02 -0.2208666337023E-02  0.0000000000000E+00  0.1219019643087E-01
 0.2296921040134E-02 -0.2263750550002E-02  0.0000000000000E+00  0.1175385731952E-01
 0.2846197116442E-02 -0.2363211558780E-02  0.0000000000000E+00  0.1103436822815E-01
 0.3465739784886E-02 -0.2502377410917E-02  0.0000000000000E+00  0.9974145939954E-02
 0.4142703881495E-02 -0.2672761773314E-02  0.0000000000000E+00  0.8519255166731E-02
 0.4859601106152E-02 -0.2862573081742E-02  0.0000000000000E+00  0.6623031761664E-02
 0.6416022384956E-04 -0.5698797578823E-02  0.0000000000000E+00  0.4512442296982E-02
 0.2022399300561E-03 -0.5777841349018E-02  0.0000000000000E+00  0.5404960831198E-02
 0.3547100761465E-03 -0.5857607526061E-02  0.0000000000000E+00  0.6193677753575E-02
 0.5113430435306E-03 -0.5930688213198E-02  0.0000000000000E+00  0.6868982324747E-02
 0.6625827586032E-03 -0.5990450117250E-02  0.0000000000000E+00  0.7429859216949E-02
 0.8005745312719E-03 -0.6031802361486E-02  0.0000000000000E+00  0.7882545979740E-02
 0.9197373336474E-03 -0.6051567920493E-02  0.0000000000000E+00  0.8238440315957E-02
 0.1016851875504E-02 -0.6048452168786E-02  0.0000000000000E+00  0.8511843940433E-02
 0.1090779757680E-02 -0.6022719639083E-02  0.0000000000000E+00  0.8718001995153E-02
 0.1141984800205E-02 -0.5975732038858E-02  0.0000000000000E+00  0.8871669627360E-02
 0.1172012056309E-02 -0.5909481332851E-02  0.0000000000000E+00  0.8986234932820E-02
 0.1183028936289E-02 -0.5826201444030E-02  0.0000000000000E+00  0.9073305340548E-02
 0.1177475851034E-02 -0.5728091940367E-02  0.0000000000000E+00  0.9142615730192E-02
 0.1157830987239E-02 -0.5617150393424E-02  0.0000000000000E+00  0.9202125320966E-02
 0.1126469439803E-02 -0.5495087995819E-02  0.0000000000000E+00  0.9258206530454E-02
 0.1085589920597E-02 -0.5363307011802E-02  0.0000000000000E+00  0.9315865586803E-02
 0.1037235937272E-02 -0.5223146033383E-02  0.0000000000000E+00  0.9378938677669E-02
 0.9833300160443E-03 -0.5076096975797E-02  0.0000000000000E+00  0.9450200049067E-02
 0.9255630646371E-03 -0.4923317029656E-02  0.0000000000000E+00  0.9531637552647E-02
 0.8653268262959E-03 -0.4765235806098E-02  0.0000000000000E+00  0.9624896457834E-02
 0.8038222583777E-03 -0.4601791880694E-02  0.0000000000000E+00  0.9731491001613E-02
 0.7422062847270E-03 -0.4432711433425E-02  0.0000000000000E+00  0.9852932652141E-02
 0.6817524550158E-03 -0.4257717541923E-02  0.0000000000000E+00  0.9990799666663E-02
 0.6240309457831E-03 -0.4076704094665E-02  0.0000000000000E+00  0.1014671412936E-01
 0.5711088242085E-03 -0.3889903868354E-02  0.0000000000000E+00  0.1032219313987E-01
 0.5257681443173E-03 -0.3698072800560E-02  0.0000000000000E+00  0.1051833713635E-01
 0.4917285020091E-03 -0.3502685267922E-02  0.0000000000000E+00  0.1073533494010E-01
 0.4738484503970E-03 -0.3306069721517E-02  0.0000000000000E+00  0.1097181288574E-01
 0.4782953529927E-03 -0.3111533999676E-02  0.0000000000000E+00  0.1122402643855E-01
 0.5126600580354E-03 -0.2923566006925E-02  0.0000000000000E+00  0.1148478028123E-01
 0.5859367843011E-03 -0.2747938035720E-02  0.0000000000000E+00  0.1174215905064E-01
 0.7082971096082E-03 -0.2591602422601E-02  0.0000000000000E+00  0.1197824241211E-01
 0.8906069710330E-03 -0.2462377193170E-02  0.0000000000000E+00  0.1216792128381E-01
 0.1143640255169E-02 -0.2368370633986E-02  0.0000000000000E+00  0.1227805784518E-01
 0.1476994259899E-02 -0.2317121958674E-02  0.0000000000000E+00  0.1226730886026E-01
 0.1897830700867E-02 -0.2314487639831E-02  0.0000000000000E+00  0.1208688212026E-01
 0.2409706656846E-02 -0.2363446646743E-02  0.0000000000000E+00  0.1168188187871E-01
 0.3011368890505E-02 -0.2463398039941E-02  0.0000000000000E+00  0.1099274925875E-01
 0.3695426920574E-02 -0.2609678901463E-02  0.0000000000000E+00  0.9958513250301E-02
 0.4447973739733E-02 -0.2793142303647E-02  0.0000000000000E+00  0.8521905986991E-02
 0.5249545590324E-02 -0.3000694323958E-02  0.0000000000000E+00  0.6633733950065E-02
 0.7148964910851E-04 -0.6255421471320E-02  0.0000000000000E+00  0.4559387944446E-02
 0.2256194257672E-03 -0.6343438934100E-02  0.0000000000000E+00  0.5451495060023E-02
 0.3961253281268E-03 -0.6432216963861E-02  0.0000000000000E+00  0.6234469654848E-02
 0.5712079605900E-03 -0.6513232815393E-02  0.0000000000000E+00  0.6899018093031E-02
 0.7399048351950E-03 -0.6578916065199E-02  0.0000000000000E+00  0.7445132837238E-02
 0.8933087013494E-03 -0.6623552852479E-02  0.0000000000000E+00  0.7880467636220E-02
 0.1025212198611E-02 -0.6643695206262E-02  0.0000000000000E+00  0.8217906823906E-02
 0.1132163975023E-02 -0.6638082886396E-02  0.0000000000000E+00  0.8473034204909E-02
 0.1213093527758E-02 -0.6607227081356E-02  0.0000000000000E+00  0.8662019844515E-02
 0.1268720706511E-02 -0.6552847830438E-02  0.0000000000000E+00  0.8800154901721E-02
 0.1300936603569E-02 -0.6477324562235E-02  0.0000000000000E+00  0.8901026804541E-02
 0.1312274281164E-02 -0.6383253106947E-02  0.0000000000000E+00  0.8976196793806E-02
 0.1305517563733E-02 -0.6273141138009E-02  0.0000000000000E+00  0.9035202573828E-02
 0.1283446277220E-02 -0.6149231783713E-02  0.0000000000000E+00  0.9085732272105E-02
 0.1248689771934E-02 -0.6013421565692E-02  0.0000000000000E+00  0.9133865121709E-02
 0.1203654602229E-02 -0.5867245291237E-02  0.0000000000000E+00  0.9184320203086E-02
 0.1150555720925E-02 -0.5712161017121E-02  0.0000000000000E+00  0.9240647435782E-02
 0.1091457842649E-02 -0.5549798909783E-02  0.0000000000000E+00  0.9305319676459E-02
 0.1028146968760E-02 -0.5381404893309E-02  0.0000000000000E+00  0.9380040817843E-02
 0.9620490212041E-03 -0.5207389716290E-02  0.0000000000000E+00  0.9466231030902E-02
 0.8943486085641E-03 -0.5027591970652E-02  0.0000000000000E+00  0.9565246390960E-02
 0.8261516488195E-03 -0.4841588996273E-02  0.0000000000000E+00  0.9678514477606E-02
 0.7586644244848E-03 -0.4648929167624E-02  0.0000000000000E+00  0.9807618502996E-02
 0.6933956369098E-03 -0.4449324270416E-02  0.0000000000000E+00  0.9954293196492E-02
 0.6323829934763E-03 -0.4242835966555E-02  0.0000000000000E+00  0.1012029557478E-01
 0.5784424853166E-03 -0.4030081913364E-02  0.0000000000000E+00  0.1030711173347E-01
 0.5354269631802E-03 -0.3812457344935E-02  0.0000000000000E+00  0.1051547669117E-01
 0.5084668469093E-03 -0.3592293442373E-02  0.0000000000000E+00  0.1074474019749E-01
 0.5041840194235E-03 -0.3373011451313E-02  0.0000000000000E+00  0.1099206449600E-01
 0.5308556734167E-03 -0.3159374149274E-02  0.0000000000000E+00  0.1125130680763E-01
 0.5984381600912E-03 -0.2957640568373E-02  0.0000000000000E+00  0.1151166769432E-01
 0.7183672454949E-03 -0.2775494612860E-02  0.0000000000000E+00  0.1175627869920E-01
 0.9030702025354E-03 -0.2621741685038E-02  0.0000000000000E+00  0.1196083196095E-01
 0.1165124848469E-02 -0.2505705299677E-02  0.0000000000000E+00  0.1209250459394E-01
 0.1516054135016E-02 -0.2436282422253E-02  0.0000000000000E+00  0.1210953493271E-01
 0.1964875708217E-02 -0.2420672244054E-02  0.0000000000000E+00  0.1196179598081E-01
 0.2516688507386E-02 -0.2462959013728E-02  0.0000000000000E+00  0.1159210700868E-01
 0.3171164150920E-02 -0.2563213369483E-02  0.0000000000000E+00  0.1093769693307E-01
 0.3920890279332E-02 -0.2716833596927E-02  0.0000000000000E+00  0.9933670867550E-02
 0.4750805346710E-02 -0.2913958814243E-02  0.0000000000000E+00  0.8518842358162E-02
 0.5639226349644E-02 -0.3140029894034E-02  0.0000000000000E+00  0.6641016995113E-02
 0.7925729125453E-04 -0.6815083032355E-02  0.0000000000000E+00  0.4611451490694E-02
 0.2503490912243E-03 -0.6912587720697E-02  0.0000000000000E+00  0.5503052465412E-02
 0.4397962229830E-03 -0.7010819425364E-02  0.0000000000000E+00  0.6279404267638E-02
 0.6340845642187E-03 -0.7100045464896E-02  0.0000000000000E+00  0.6931612772309E-02
 0.8207450325565E-03 -0.7171703030525E-02  0.0000000000000E+00  0.7460891084233E-02
 0.9897829997407E-03 -0.7219454361045E-02  0.0000000000000E+00  0.7876577484111E-02
 0.1134390995854E-02 -0.7239626322444E-02  0.0000000000000E+00  0.8193290818996E-02
 0.1250950992320E-02 -0.7231064551724E-02  0.0000000000000E+00  0.8428075974187E-02
 0.1338539054679E-02 -0.7194601564173E-02  0.0000000000000E+00  0.8598123980814E-02
 0.1398202913910E-02 -0.7132377513616E-02  0.0000000000000E+00  0.8719286466786E-02
 0.1432233951421E-02 -0.7047200946499E-02  0.0000000000000E+00  0.8805325981553E-02
 0.1443565026558E-02 -0.6942051118815E-02  0.0000000000000E+00  0.8867708040563E-02
 0.1435340217444E-02 -0.6819749395521E-02  0.0000000000000E+00  0.8915716167704E-02
 0.1410645643435E-02 -0.6682779776156E-02  0.0000000000000E+00  0.8956713672384E-02
 0.1372362628140E-02 -0.6533214425576E-02  0.0000000000000E+00  0.8996440590751E-02
 0.1323100444016E-02 -0.6372709925216E-02  0.0000000000000E+00  0.9039290482990E-02
 0.1265240106127E-02 -0.6202834441369E-02  0.0000000000000E+00  0.9088492033050E-02
 0.1200983797946E-02 -0.6025349566480E-02  0.0000000000000E+00  0.9146180373531E-02
 0.1132207655734E-02 -0.5841584940672E-02  0.0000000000000E+00  0.9213739042073E-02
 0.1060365057031E-02 -0.5651927664980E-02  0.0000000000000E+00  0.9292329650750E-02
 0.9866146547006E-03 -0.5456110583960E-02  0.0000000000000E+00  0.9383120025115E-02
 0.9119981051907E-03 -0.5253554539141E-02  0.0000000000000E+00  0.9487428152080E-02
 0.8376370798552E-03 -0.5043622889963E-02  0.0000000000000E+00  0.9606822767576E-02
 0.7649571162446E-03 -0.4825831574749E-02  0.0000000000000E+00  0.9743140387393E-02
 0.6959403208748E-03 -0.4600053042392E-02  0.0000000000000E+00  0.9898378273312E-02
 0.6334057181853E-03 -0.4366743199320E-02  0.0000000000000E+00  0.1007442300350E-01
 0.5813041847683E-03 -0.4127188513454E-02  0.0000000000000E+00  0.1027258951073E-01
 0.5449996954732E-03 -0.3883686798400E-02  0.0000000000000E+00  0.1049301019148E-01
 0.5315304265776E-03 -0.3639731262969E-02  0.0000000000000E+00  0.1073384671316E-01
 0.5498281441423E-03 -0.3400317054859E-02  0.0000000000000E+00  0.1099014012075E-01
 0.6107958166270E-03 -0.3172154124033E-02  0.0000000000000E+00  0.1125237768333E-01
 0.7271468700865E-03 -0.2963639656213E-02  0.0000000000000E+00  0.1150494688499E-01
 0.9129264583536E-03 -0.2784578809762E-02  0.0000000000000E+00  0.1172455954231E-01
 0.1182627661435E-02 -0.2645565809539E-02  0.0000000000000E+00  0.1187890520006E-01
 0.1549868776435E-02 -0.2556960529080E-02  0.0000000000000E+00  0.1192592879801E-01
 0.2025740674951E-02 -0.2527453831160E-02  0.0000000000000E+00  0.1181416252683E-01
 0.2617120591093E-02 -0.2562404623602E-02  0.0000000000000E+00  0.1148395546885E-01
 0.3324804367612E-02 -0.2662703762889E-02  0.0000000000000E+00  0.1086892006464E-01
 0.4141438580210E-02 -0.2823881962203E-02  0.0000000000000E+00  0.9899624619262E-02
 0.5050706403435E-02 -0.3035307139246E-02  0.0000000000000E+00  0.8510278460323E-02
 0.6028420468765E-02 -0.3280763487648E-02  0.0000000000000E+00  0.6645132526064E-02
 0.8752550802305E-04 -0.7378189449408E-02  0.0000000000000E+00  0.4668954203637E-02
 0.2766218002898E-03 -0.7485765232591E-02  0.0000000000000E+00  0.5559915498514E-02
 0.4860415310187E-03 -0.7593946521407E-02  0.0000000000000E+00  0.6328649940058E-02
 0.7003846372979E-03 -0.7691677446793E-02  0.0000000000000E+00  0.6966768024582E-02
 0.9055592983917E-03 -0.7769340284935E-02  0.0000000000000E+00  0.7476957992252E-02
 0.1090448465381E-02 -0.7819977762033E-02  0.0000000000000E+00  0.7870552307646E-02
 0.1247682439400E-02 -0.7839751098159E-02  0.0000000000000E+00  0.8164178494888E-02
 0.1373558423309E-02 -0.7827699179840E-02  0.0000000000000E+00  0.8376528280811E-02
 0.1467393040704E-02 -0.7785063596056E-02  0.0000000000000E+00  0.8525900983801E-02
 0.1530644626202E-02 -0.7714474454131E-02  0.0000000000000E+00  0.8628716468014E-02
 0.1566064932876E-02 -0.7619214224335E-02  0.0000000000000E+00  0.8698870368870E-02
 0.1577022532559E-02 -0.7502666686418E-02  0.0000000000000E+00  0.8747668252577E-02
 0.1567037807202E-02 -0.7367970072638E-02  0.0000000000000E+00  0.8784072607951E-02
 0.1539505870893E-02 -0.7217841482427E-02  0.0000000000000E+00  0.8815063110370E-02
 0.1497555656964E-02 -0.7054516166625E-02  0.0000000000000E+00  0.8845993240179E-02
 0.1443992438427E-02 -0.6879759543483E-02  0.0000000000000E+00  0.8880893686062E-02
 0.1381357036454E-02 -0.6695239233557E-02  0.0000000000000E+00  0.8922638993950E-02
 0.1311984147893E-02 -0.6502840932984E-02  0.0000000000000E+00  0.8972992343714E-02
 0.1237835185033E-02 -0.6303973048091E-02  0.0000000000000E+00  0.9032981959874E-02
 0.1160384338859E-02 -0.6098994581028E-02  0.0000000000000E+00  0.9103477852418E-02
 0.1080754508332E-02 -0.5887527250633E-02  0.0000000000000E+00  0.9185428959947E-02
 0.9999092601886E-03 -0.5668828084050E-02  0.0000000000000E+00  0.9280016625661E-02
 0.9188673418380E-03 -0.5442065378695E-02  0.0000000000000E+00  0.9388773569023E-02
 0.8389480527186E-03 -0.5206545601479E-02  0.0000000000000E+00  0.9513624202114E-02
 0.7620497384992E-03 -0.4961933687893E-02  0.0000000000000E+00  0.9656802158082E-02
 0.6909608511156E-03 -0.4708499473180E-02  0.0000000000000E+00  0.9820603827919E-02
 0.6296912306025E-03 -0.4447389093133E-02  0.0000000000000E+00  0.1000695123780E-01
 0.5837947564620E-03 -0.4180827330522E-02  0.0000000000000E+00  0.1021681189888E-01
 0.5606806067515E-03 -0.3912332244034E-02  0.0000000000000E+00  0.1044943416523E-01
 0.5698947901522E-03 -0.3647080940783E-02  0.0000000000000E+00  0.1070117273966E-01
 0.6232622806379E-03 -0.3392188781549E-02  0.0000000000000E+00  0.1096397809468E-01
 0.7347799560473E-03 -0.3156737823199E-02  0.0000000000000E+00  0.1122371388038E-01
 0.9201642757048E-03 -0.2951537298234E-02  0.0000000000000E+00  0.1145835877895E-01
 0.1195940463183E-02 -0.2788505231652E-02  0.0000000000000E+00  0.1163635258319E-01
 0.1578010191077E-02 -0.2679576815672E-02  0.0000000000000E+00  0.1171551752312E-01
 0.2079788299270E-02 -0.2635103139954E-02  0.0000000000000E+00  0.1164307711648E-01
 0.2710213491580E-02 -0.2661918242274E-02  0.0000000000000E+00  0.1135673739870E-01
 0.3471455173973E-02 -0.2761917720500E-02  0.0000000000000E+00  0.1078605559122E-01
 0.4356331917548E-02 -0.2930861618437E-02  0.0000000000000E+00  0.9856358674216E-02
 0.5347163151828E-02 -0.3157286475993E-02  0.0000000000000E+00  0.8496442044871E-02
 0.6416922058592E-02 -0.3423093502847E-02  0.0000000000000E+00  0.6646348556504E-02
 0.9636307999487E-04 -0.7945172478863E-02  0.0000000000000E+00  0.4732260518845E-02
 0.3046501656760E-03 -0.8063479934150E-02  0.0000000000000E+00  0.5622401013375E-02
 0.5352108456319E-03 -0.8182163508523E-02  0.0000000000000E+00  0.6382385525301E-02
 0.7705547235876E-03 -0.8288709836311E-02  0.0000000000000E+00  0.7004463785907E-02
 0.9948337769717E-03 -0.8372376573480E-02  0.0000000000000E+00  0.7493105696649E-02
 0.1195775490890E-02 -0.8425599409726E-02  0.0000000000000E+00  0.7861997167664E-02
 0.1365501403839E-02 -0.8444450882946E-02  0.0000000000000E+00  0.8130077942187E-02
 0.1500325955151E-02 -0.8428269300208E-02  0.0000000000000E+00  0.8317877412028E-02
 0.1599917732663E-02 -0.8378807486407E-02  0.0000000000000E+00  0.8444877560592E-02
 0.1666239808076E-02 -0.8299263298841E-02  0.0000000000000E+00  0.8528053112776E-02
 0.1702569695336E-02 -0.8193440138952E-02  0.0000000000000E+00  0.8581369568389E-02
 0.1712748361236E-02 -0.8065145770935E-02  0.0000000000000E+00  0.8615891709880E-02
 0.1700686703129E-02 -0.7917834953732E-02  0.0000000000000E+00  0.8640183578844E-02
 0.1670088715717E-02 -0.7754446195049E-02  0.0000000000000E+00  0.8660777424480E-02
 0.1624323908372E-02 -0.7577361866746E-02  0.0000000000000E+00  0.8682592040998E-02
 0.1566384937323E-02 -0.7388440846831E-02  0.0000000000000E+00  0.8709259675270E-02
 0.1498965234801E-02 -0.7189438191000E-02  0.0000000000000E+00  0.8743270638153E-02
 0.1424526920353E-02 -0.6982355955287E-02  0.0000000000000E+00  0.8785984619653E-02
 0.1345112105376E-02 -0.6768676580912E-02  0.0000000000000E+00  0.8838041379916E-02
 0.1262209424356E-02 -0.6548727029872E-02  0.0000000000000E+00  0.8899986880721E-02
 0.1176896199669E-02 -0.6322013086691E-02  0.0000000000000E+00  0.8972520066311E-02
 0.1090043664965E-02 -0.6087621204334E-02  0.0000000000000E+00  0.9056657287577E-02
 0.1002548551434E-02 -0.5844515120134E-02  0.0000000000000E+00  0.9153871619846E-02
 0.9155997159042E-03 -0.5591778711522E-02  0.0000000000000E+00  0.9266158367017E-02
 0.8309819855519E-03 -0.5328851385382E-02  0.0000000000000E+00  0.9395979141871E-02
 0.7514172699939E-03 -0.5055792284200E-02  0.0000000000000E+00  0.9546043296426E-02
 0.6809317321824E-03 -0.4773574226796E-02  0.0000000000000E+00  0.9718899429517E-02
 0.6252201929695E-03 -0.4484306101759E-02  0.0000000000000E+00  0.9916394196334E-02
 0.5920100842380E-03 -0.4191478059448E-02  0.0000000000000E+00  0.1013894241061E-01
 0.5914117596011E-03 -0.3900390304825E-02  0.0000000000000E+00  0.1038433856447E-01
 0.6361367153189E-03 -0.3618507086493E-02  0.0000000000000E+00  0.1064617673305E-01
 0.7414608610465E-03 -0.3355554562524E-02  0.0000000000000E+00  0.1091203267195E-01
 0.9248193226259E-03 -0.3123339308317E-02  0.0000000000000E+00  0.1116142995998E-01
 0.1204889400818E-02 -0.2935150721276E-02  0.0000000000000E+00  0.1136384255086E-01
 0.1600061873956E-02 -0.2804616875817E-02  0.0000000000000E+00  0.1147719598843E-01
 0.2126362657197E-02 -0.2743937680586E-02  0.0000000000000E+00  0.1144748751128E-01
 0.2795129655858E-02 -0.2761658191354E-02  0.0000000000000E+00  0.1120963000729E-01
 0.3610217359036E-02 -0.2860907626963E-02  0.0000000000000E+00  0.1068865343333E-01
 0.4564773117798E-02 -0.3037807265156E-02  0.0000000000000E+00  0.9803830532648E-02
 0.5639637365207E-02 -0.3280001202521E-02  0.0000000000000E+00  0.8477576528807E-02
 0.6804546010655E-02 -0.3567237427889E-02  0.0000000000000E+00  0.6644950336344E-02
 0.1058465682874E-03 -0.8516493245948E-02  0.0000000000000E+00  0.4801782292723E-02
 0.3346706385610E-03 -0.8646277255219E-02  0.0000000000000E+00  0.5690862503531E-02
 0.5876906478510E-03 -0.8776075503654E-02  0.0000000000000E+00  0.6440797758242E-02
 0.8450822501974E-03 -0.8891758274061E-02  0.0000000000000E+00  0.7044650051343E-02
 0.1089089114224E-02 -0.8981382169134E-02  0.0000000000000E+00  0.7509042468965E-02
 0.1306255373414E-02 -0.9036800166369E-02  0.0000000000000E+00  0.7850432856619E-02
 0.1488267877113E-02 -0.9054095181832E-02  0.0000000000000E+00  0.8090408847236E-02
 0.1631584660312E-02 -0.9033033292877E-02  0.0000000000000E+00  0.8251530348801E-02
 0.1736357348580E-02 -0.8975996436309E-02  0.0000000000000E+00  0.8354517839316E-02
 0.1805159633091E-02 -0.8886835549248E-02  0.0000000000000E+00  0.8416861042742E-02
 0.1841864637634E-02 -0.8769922849809E-02  0.0000000000000E+00  0.8452507235411E-02
 0.1850821886633E-02 -0.8629506409514E-02  0.0000000000000E+00  0.8472181119333E-02
 0.1836343925780E-02 -0.8469352386045E-02  0.0000000000000E+00  0.8483959854452E-02
 0.1802439732197E-02 -0.8292604176237E-02  0.0000000000000E+00  0.8493859875649E-02
 0.1752709053300E-02 -0.8101771344639E-02  0.0000000000000E+00  0.8506317193361E-02
 0.1690321100252E-02 -0.7898788148935E-02  0.0000000000000E+00  0.8524532762032E-02
 0.1618113740789E-02 -0.7685483655256E-02  0.0000000000000E+00  0.8550586235246E-02
 0.1538671431566E-02 -0.7463968217579E-02  0.0000000000000E+00  0.8585405630071E-02
 0.1454112908729E-02 -0.7235793974012E-02  0.0000000000000E+00  0.8629211296869E-02
 0.1365935367849E-02 -0.7001252605029E-02  0.0000000000000E+00  0.8682193488048E-02
 0.1275160882256E-02 -0.6759729911275E-02  0.0000000000000E+00  0.8744769673474E-02
 0.1182553853604E-02 -0.6510135788851E-02  0.0000000000000E+00  0.8817761666487E-02
 0.1088869327430E-02 -0.6251220772339E-02  0.0000000000000E+00  0.8902557290247E-02
 0.9951406760462E-03 -0.5981833971730E-02  0.0000000000000E+00  0.9001202638928E-02
 0.9030082418934E-03 -0.5701172103157E-02  0.0000000000000E+00  0.9116374163739E-02
 0.8150894930949E-03 -0.5409059354674E-02  0.0000000000000E+00  0.9251190491089E-02
 0.7353810687298E-03 -0.5106261489326E-02  0.0000000000000E+00  0.9408837356113E-02
 0.6696646004609E-03 -0.4794725965498E-02  0.0000000000000E+00  0.9592074289557E-02
 0.6259252729321E-03 -0.4477856807408E-02  0.0000000000000E+00  0.9802552375140E-02
 0.6147773307088E-03 -0.4161009579590E-02  0.0000000000000E+00  0.1003962548498E-01
 0.6497705291932E-03 -0.3851928545975E-02  0.0000000000000E+00  0.1029871298511E-01
 0.7474422722540E-03 -0.3560928375517E-02  0.0000000000000E+00  0.1056935304530E-01
 0.9269840320536E-03 -0.3300791674211E-02  0.0000000000000E+00  0.1083292443977E-01
 0.1209344759049E-02 -0.3086217268487E-02  0.0000000000000E+00  0.1106027109455E-01
 0.1615626241040E-02 -0.2932645712975E-02  0.0000000000000E+00  0.1120971421844E-01
 0.2164791501145E-02 -0.2854334026384E-02  0.0000000000000E+00  0.1122617234733E-01
 0.2870978644527E-02 -0.2861813931519E-02  0.0000000000000E+00  0.1104165244671E-01
 0.3740116159998E-02 -0.2959731680954E-02  0.0000000000000E+00  0.1057615696058E-01
 0.4765896906610E-02 -0.3144749853474E-02  0.0000000000000E+00  0.9741965037634E-02
 0.5927562931904E-02 -0.3403562705393E-02  0.0000000000000E+00  0.8453945113220E-02
 0.7191132653574E-02 -0.3713437260925E-02  0.0000000000000E+00  0.6641241305447E-02
 0.1160619628802E-03 -0.9092647938396E-02  0.0000000000000E+00  0.4877983910459E-02
 0.3669484581704E-03 -0.9234746724584E-02  0.0000000000000E+00  0.5765692608915E-02
 0.6439115043058E-03 -0.9376334707728E-02  0.0000000000000E+00  0.6504077621430E-02
 0.9245025379148E-03 -0.9501478234783E-02  0.0000000000000E+00  0.7087236412396E-02
 0.1188885023538E-02 -0.9596950700544E-02  0.0000000000000E+00  0.7524398025146E-02
 0.1422401474623E-02 -0.9654063608970E-02  0.0000000000000E+00  0.7835281050979E-02
 0.1616405121974E-02 -0.9669037204396E-02  0.0000000000000E+00  0.8044490851076E-02
 0.1767653317079E-02 -0.9642219704073E-02  0.0000000000000E+00  0.8176807872086E-02
 0.1876933777816E-02 -0.9576756871981E-02  0.0000000000000E+00  0.8254221058606E-02
 0.1947548447611E-02 -0.9477244690112E-02  0.0000000000000E+00  0.8294662469880E-02
 0.1984039099133E-02 -0.9348671164262E-02  0.0000000000000E+00  0.8311944280800E-02
 0.1991297838672E-02 -0.9195736039715E-02  0.0000000000000E+00  0.8316331696229E-02
 0.1974045475456E-02 -0.9022505528992E-02  0.0000000000000E+00  0.8315315413749E-02
 0.1936587222615E-02 -0.8832305613329E-02  0.0000000000000E+00  0.8314323771488E-02
 0.1882738756958E-02 -0.8627748603727E-02  0.0000000000000E+00  0.8317262986953E-02
 0.1815832500740E-02 -0.8410823112373E-02  0.0000000000000E+00  0.8326873716636E-02
 0.1738841593064E-02 -0.8183417373437E-02  0.0000000000000E+00  0.8344803210341E-02
 0.1654467935488E-02 -0.7947741793648E-02  0.0000000000000E+00  0.8371523720697E-02
 0.1564903581484E-02 -0.7705414462438E-02  0.0000000000000E+00  0.8406807871220E-02
 0.1471649131976E-02 -0.7456689437048E-02  0.0000000000000E+00  0.8450459517228E-02
 0.1375662066129E-02 -0.7200829431558E-02  0.0000000000000E+00  0.8502582916890E-02
 0.1277585354029E-02 -0.6936562801062E-02  0.0000000000000E+00  0.8563774766397E-02
 0.1178012319553E-02 -0.6662419415506E-02  0.0000000000000E+00  0.8635310260218E-02
 0.1077795301704E-02 -0.6377002863311E-02  0.0000000000000E+00  0.8719263226812E-02
 0.9783984469813E-03 -0.6079251514725E-02  0.0000000000000E+00  0.8818506945482E-02
 0.8822954984521E-03 -0.5768731486680E-02  0.0000000000000E+00  0.8936558204041E-02
 0.7934050286231E-03 -0.5445967819218E-02  0.0000000000000E+00  0.9077240277033E-02
 0.7175364801879E-03 -0.5112699051947E-02  0.0000000000000E+00  0.9244246976657E-02
 0.6628643782185E-03 -0.4772179800276E-02  0.0000000000000E+00  0.9440522659299E-02
 0.6404349302473E-03 -0.4429744130501E-02  0.0000000000000E+00  0.9667090146209E-02
 0.6645731139339E-03 -0.4093333837390E-02  0.0000000000000E+00  0.9921373516518E-02
 0.7530439018493E-03 -0.3773779055362E-02  0.0000000000000E+00  0.1019513553971E-01
 0.9268187394897E-03 -0.3484798429913E-02  0.0000000000000E+00  0.1047195314576E-01
 0.1209232889035E-02 -0.3242523729936E-02  0.0000000000000E+00  0.1072443345483E-01
 0.1624334474735E-02 -0.3064325181647E-02  0.0000000000000E+00  0.1091166425325E-01
 0.2194390444651E-02 -0.2966743441527E-02  0.0000000000000E+00  0.1097771625714E-01
 0.2936812692225E-02 -0.2962616259826E-02  0.0000000000000E+00  0.1085163464061E-01
 0.3860088471200E-02 -0.3058456404593E-02  0.0000000000000E+00  0.1044787705024E-01
 0.4958755802378E-02 -0.3251714230620E-02  0.0000000000000E+00  0.9670646568160E-02
 0.6210341814457E-02 -0.3528090571874E-02  0.0000000000000E+00  0.8425838697845E-02
 0.7576553940796E-02 -0.3861966272498E-02  0.0000000000000E+00  0.6635544624653E-02
 0.1271067034392E-03 -0.9674174624352E-02  0.0000000000000E+00  0.4961388419742E-02
 0.4017836812439E-03 -0.9829530489327E-02  0.0000000000000E+00  0.5847325876261E-02
 0.7043566697731E-03 -0.9983648850859E-02  0.0000000000000E+00  0.6572415318983E-02
 0.1009406845681E-02 -0.1011857081755E-01  0.0000000000000E+00  0.7132078705068E-02
 0.1294825058344E-02 -0.1021970057808E-01  0.0000000000000E+00  0.7538705502300E-02
 0.1544749789305E-02 -0.1027787312838E-01  0.0000000000000E+00  0.7815846836015E-02
 0.1750336810774E-02 -0.1028960805339E-01  0.0000000000000E+00  0.7991530571256E-02
 0.1908833674392E-02 -0.1025602035731E-01  0.0000000000000E+00  0.8092937559868E-02
 0.2021841457331E-02 -0.1018117194258E-01  0.0000000000000E+00  0.8143319948317E-02
 0.2093519225514E-02 -0.1007050087303E-01  0.0000000000000E+00  0.8160939335647E-02
 0.2129151818568E-02 -0.9929654628478E-02  0.0000000000000E+00  0.8159323098799E-02
 0.2134203815550E-02 -0.9763788875893E-02  0.0000000000000E+00  0.8148136112740E-02
 0.2113804751806E-02 -0.9577250758171E-02  0.0000000000000E+00  0.8134172219893E-02
 0.2072541342328E-02 -0.9373519775519E-02  0.0000000000000E+00  0.8122196562822E-02
 0.2014426233901E-02 -0.9155281494034E-02  0.0000000000000E+00  0.8115540967116E-02
 0.1942938914808E-02 -0.8924554703883E-02  0.0000000000000E+00  0.8116461942527E-02
 0.1861177677818E-02 -0.8683270571367E-02  0.0000000000000E+00  0.8126158394002E-02
 0.1771957415635E-02 -0.8433731296711E-02  0.0000000000000E+00  0.8144627617353E-02
 0.1677541272156E-02 -0.8177617990226E-02  0.0000000000000E+00  0.8171169256895E-02
 0.1579429086243E-02 -0.7915145848374E-02  0.0000000000000E+00  0.8205171235956E-02
 0.1478504897346E-02 -0.7645452521199E-02  0.0000000000000E+00  0.8246392738145E-02
 0.1375275684566E-02 -0.7367081051623E-02  0.0000000000000E+00  0.8295173963960E-02
 0.1270152860413E-02 -0.7078334704219E-02  0.0000000000000E+00  0.8352648673654E-02
 0.1163782043178E-02 -0.6777562749481E-02  0.0000000000000E+00  0.8420892715944E-02
 0.1057419272149E-02 -0.6463431808735E-02  0.0000000000000E+00  0.8502953341249E-02
 0.9533545663282E-03 -0.6135228875139E-02  0.0000000000000E+00  0.8602726460562E-02
 0.8553778641280E-03 -0.5793205674191E-02  0.0000000000000E+00  0.8724661888640E-02
 0.7692630349994E-03 -0.5438843330387E-02  0.0000000000000E+00  0.8873394632215E-02
 0.7032976522070E-03 -0.5075179360250E-02  0.0000000000000E+00  0.9053203310101E-02
 0.6688757058031E-03 -0.4707440374426E-02  0.0000000000000E+00  0.9266875079600E-02
 0.6810175773984E-03 -0.4343668510012E-02  0.0000000000000E+00  0.9514011256918E-02
 0.7586618974169E-03 -0.3995116144404E-02  0.0000000000000E+00  0.9788869349751E-02
 0.9245644732483E-03 -0.3676374638657E-02  0.0000000000000E+00  0.1007759899607E-01
 0.1204550706691E-02 -0.3405011467348E-02  0.0000000000000E+00  0.1035502587904E-01
 0.1625859400695E-02 -0.3200435162471E-02  0.0000000000000E+00  0.1058146712224E-01
 0.2214469769839E-02 -0.3081711761017E-02  0.0000000000000E+00  0.1070048156732E-01
 0.2991623228766E-02 -0.3064351310496E-02  0.0000000000000E+00  0.1063817880822E-01
 0.3968967738833E-02 -0.3157160486670E-02  0.0000000000000E+00  0.1030295663530E-01
 0.5142300945587E-02 -0.3358714024278E-02  0.0000000000000E+00  0.9589707073709E-02
 0.6487338632512E-02 -0.3653711332431E-02  0.0000000000000E+00  0.8393590653775E-02
 0.7960722448367E-02 -0.4013137410048E-02  0.0000000000000E+00  0.6628207033288E-02
 0.1390921807416E-03 -0.1026166149286E-01  0.0000000000000E+00  0.5052584905325E-02
 0.4395185906162E-03 -0.1043133357439E-01  0.0000000000000E+00  0.5936241729188E-02
 0.7695724327272E-03 -0.1059879111470E-01  0.0000000000000E+00  0.6645993329468E-02
 0.1100451605926E-02 -0.1074378905856E-01  0.0000000000000E+00  0.7178961926487E-02
 0.1407561484885E-02 -0.1085027576038E-01  0.0000000000000E+00  0.7551379362707E-02
 0.1673858644864E-02 -0.1090870754337E-01  0.0000000000000E+00  0.7791298261069E-02
 0.1890482838523E-02 -0.1091610921925E-01  0.0000000000000E+00  0.7930607364928E-02
 0.2055404454198E-02 -0.1087458206006E-01  0.0000000000000E+00  0.7999047003095E-02
 0.2171241331163E-02 -0.1078927411871E-01  0.0000000000000E+00  0.8021080180598E-02
 0.2243148506892E-02 -0.1066656518117E-01  0.0000000000000E+00  0.8015136797853E-02
 0.2277227199695E-02 -0.1051279954091E-01  0.0000000000000E+00  0.7994273012635E-02
 0.2279537813141E-02 -0.1033358340212E-01  0.0000000000000E+00  0.7967390411007E-02
 0.2255611107690E-02 -0.1013351627488E-01  0.0000000000000E+00  0.7940465703361E-02
 0.2210293395741E-02 -0.9916194408177E-02  0.0000000000000E+00  0.7917524424776E-02
 0.2147770013799E-02 -0.9684341619307E-02  0.0000000000000E+00  0.7901283408704E-02
 0.2071648316296E-02 -0.9439979393150E-02  0.0000000000000E+00  0.7893497812754E-02
 0.1985140765529E-02 -0.9185064263931E-02  0.0000000000000E+00  0.7894909311974E-02
 0.1891171540541E-02 -0.8921982156224E-02  0.0000000000000E+00  0.7905026822001E-02
 0.1792074097427E-02 -0.8652475329387E-02  0.0000000000000E+00  0.7922655258292E-02
 0.1689344615573E-02 -0.8376720187713E-02  0.0000000000000E+00  0.7946738388478E-02
 0.1583785506168E-02 -0.8093728623601E-02  0.0000000000000E+00  0.7976658480340E-02
 0.1475753353467E-02 -0.7801856008271E-02  0.0000000000000E+00  0.8012467384468E-02
 0.1365457523226E-02 -0.7499174932561E-02  0.0000000000000E+00  0.8055127686085E-02
 0.1253311492759E-02 -0.7183774095444E-02  0.0000000000000E+00  0.8106689363822E-02
 0.1140331715435E-02 -0.6854038059077E-02  0.0000000000000E+00  0.8170346133064E-02
 0.1028584577725E-02 -0.6508956765497E-02  0.0000000000000E+00  0.8250345693682E-02
 0.9216796450285E-03 -0.6148478307972E-02  0.0000000000000E+00  0.8351740801126E-02
 0.8252881515793E-03 -0.5773778091698E-02  0.0000000000000E+00  0.8480097814710E-02
 0.7477268242371E-03 -0.5387605413604E-02  0.0000000000000E+00  0.8641051061819E-02
 0.7006404456527E-03 -0.4994984747807E-02  0.0000000000000E+00  0.8839228388245E-02
 0.6996462806212E-03 -0.4603945887500E-02  0.0000000000000E+00  0.9076568145304E-02
 0.7647788731593E-03 -0.4226047381546E-02  0.0000000000000E+00  0.9350094998043E-02
 0.9205575128133E-03 -0.3876661491540E-02  0.0000000000000E+00  0.9648934371452E-02
 0.1195383204641E-02 -0.3574765909416E-02  0.0000000000000E+00  0.9950651323470E-02
 0.1619932146891E-02 -0.3341899242261E-02  0.0000000000000E+00  0.1021736074114E-01
 0.2224344729994E-02 -0.3199904560728E-02  0.0000000000000E+00  0.1039257669139E-01
 0.3034339450141E-02 -0.3167379911036E-02  0.0000000000000E+00  0.1039961295250E-01
 0.4065466954926E-02 -0.3255942005160E-02  0.0000000000000E+00  0.1014032141800E-01
 0.5315355137920E-02 -0.3465742280736E-02  0.0000000000000E+00  0.9498903911274E-02
 0.6757871344391E-02 -0.3780550184145E-02  0.0000000000000E+00  0.8357602617290E-02
 0.8343606330880E-02 -0.4167312926063E-02  0.0000000000000E+00  0.6619611283300E-02
 0.1521468630997E-03 -0.1085575690718E-01  0.0000000000000E+00  0.5152237376141E-02
 0.4805468760422E-03 -0.1104093633909E-01  0.0000000000000E+00  0.6032967559378E-02
 0.8401806278029E-03 -0.1122261183789E-01  0.0000000000000E+00  0.6724976800354E-02
 0.1198369010642E-02 -0.1137794472084E-01  0.0000000000000E+00  0.7227578313144E-02
 0.1527800069487E-02 -0.1148934548640E-01  0.0000000000000E+00  0.7561688323263E-02
 0.1810307151489E-02 -0.1154703473441E-01  0.0000000000000E+00  0.7760642589450E-02
 0.2037253448288E-02 -0.1154880297927E-01  0.0000000000000E+00  0.7860658030277E-02
 0.2207613862558E-02 -0.1149799669668E-01  0.0000000000000E+00  0.7894157708281E-02
 0.2325253813833E-02 -0.1140103685490E-01  0.0000000000000E+00  0.7886701369979E-02
 0.2396470841109E-02 -0.1126534353799E-01  0.0000000000000E+00  0.7856668394502E-02
 0.2428251445508E-02 -0.1109798498126E-01  0.0000000000000E+00  0.7816417134331E-02
 0.2427265835698E-02 -0.1090500006343E-01  0.0000000000000E+00  0.7773900963861E-02
 0.2399428588436E-02 -0.1069120097823E-01  0.0000000000000E+00  0.7734150971100E-02
 0.2349815360622E-02 -0.1046025540078E-01  0.0000000000000E+00  0.7700377322692E-02
 0.2282753946580E-02 -0.1021488451410E-01  0.0000000000000E+00  0.7674647095054E-02
 0.2201957103222E-02 -0.9957081617368E-02  0.0000000000000E+00  0.7658205167768E-02
 0.2110739758284E-02 -0.9688809828042E-02  0.0000000000000E+00  0.7651335514027E-02
 0.2012132805513E-02 -0.9412531152794E-02  0.0000000000000E+00  0.7653051937081E-02
 0.1908541111523E-02 -0.9130048445881E-02  0.0000000000000E+00  0.7661646801389E-02
 0.1801455866382E-02 -0.8841500883696E-02  0.0000000000000E+00  0.7675592929861E-02
 0.1691590451461E-02 -0.8545775317638E-02  0.0000000000000E+00  0.7693864017312E-02
 0.1579136883926E-02 -0.8241038672480E-02  0.0000000000000E+00  0.7716191664556E-02
 0.1464082596764E-02 -0.7925131027828E-02  0.0000000000000E+00  0.7743337284754E-02
 0.1346584216256E-02 -0.7595877437831E-02  0.0000000000000E+00  0.7777295620813E-02
 0.1227388290326E-02 -0.7251374128068E-02  0.0000000000000E+00  0.7821375104210E-02
 0.1108298709756E-02 -0.6890300396301E-02  0.0000000000000E+00  0.7880139388688E-02
 0.9926928119519E-03 -0.6512274063257E-02  0.0000000000000E+00  0.7959206864953E-02
 0.8860694195720E-03 -0.6118118184494E-02  0.0000000000000E+00  0.8065046352612E-02
 0.7966834997002E-03 -0.5710220639651E-02  0.0000000000000E+00  0.8204645997111E-02
 0.7363205916171E-03 -0.5293301199188E-02  0.0000000000000E+00  0.8384526136968E-02
 0.7210759139760E-03 -0.4875248796892E-02  0.0000000000000E+00  0.8609102110150E-02
 0.7719743908949E-03 -0.4467786796715E-02  0.0000000000000E+00  0.8878432724359E-02
 0.9152457707016E-03 -0.4086942557224E-02  0.0000000000000E+00  0.9185045007001E-02
 0.1181924436697E-02 -0.3753041273116E-02  0.0000000000000E+00  0.9509830788061E-02
 0.1606363552842E-02 -0.3489815864383E-02  0.0000000000000E+00  0.9817390012791E-02
 0.2223350302641E-02 -0.3322138868483E-02  0.0000000000000E+00  0.1005182117713E-01
 0.3063830204953E-02 -0.3272163600105E-02  0.0000000000000E+00  0.1013393682364E-01
 0.4148162193499E-02 -0.3354933465230E-02  0.0000000000000E+00  0.9958613382068E-02
 0.5476574451761E-02 -0.3572758855465E-02  0.0000000000000E+00  0.9397871534771E-02
 0.7021191318352E-02 -0.3908702916924E-02  0.0000000000000E+00  0.8318385662117E-02
 0.8725255014831E-02 -0.4324914360704E-02  0.0000000000000E+00  0.6610213097768E-02
 0.1664202429691E-03 -0.1145718178749E-01  0.0000000000000E+00  0.5261095510007E-02
 0.5253251086519E-03 -0.1165920972464E-01  0.0000000000000E+00  0.6138081777101E-02
 0.9168938472556E-03 -0.1185605236836E-01  0.0000000000000E+00  0.6809500249729E-02
 0.1303979096966E-02 -0.1202191543651E-01  0.0000000000000E+00  0.7277499122510E-02
 0.1656304477183E-02 -0.1213760243250E-01  0.0000000000000E+00  0.7568722225669E-02
 0.1954691887670E-02 -0.1219330265048E-01  0.0000000000000E+00  0.7722698953554E-02
 0.2191041221210E-02 -0.1218790022688E-01  0.0000000000000E+00  0.7780460822245E-02
 0.2365670365842E-02 -0.1212628950143E-01  0.0000000000000E+00  0.7777180337264E-02
 0.2483950705475E-02 -0.1201636532320E-01  0.0000000000000E+00  0.7739320215993E-02
 0.2553472792897E-02 -0.1186668037202E-01  0.0000000000000E+00  0.7684923274308E-02
 0.2582168653376E-02 -0.1168503898347E-01  0.0000000000000E+00  0.7625380827332E-02
 0.2577319669395E-02 -0.1147787925520E-01  0.0000000000000E+00  0.7567492539726E-02
 0.2545194913797E-02 -0.1125017366156E-01  0.0000000000000E+00  0.7515209738633E-02
 0.2491059678178E-02 -0.1100560676155E-01  0.0000000000000E+00  0.7470854547823E-02
 0.2419347473649E-02 -0.1074685011052E-01  0.0000000000000E+00  0.7435817394766E-02
 0.2333850577952E-02 -0.1047583453038E-01  0.0000000000000E+00  0.7410833976509E-02
 0.2237974170084E-02 -0.1019450986331E-01  0.0000000000000E+00  0.7395739947698E-02
 0.2134854885160E-02 -0.9905407245481E-02  0.0000000000000E+00  0.7389054920457E-02
 0.2026972467689E-02 -0.9610391155483E-02  0.0000000000000E+00  0.7388545208330E-02
 0.1915813663261E-02 -0.9309566765285E-02  0.0000000000000E+00  0.7392187408242E-02
 0.1801996295082E-02 -0.9001698091102E-02  0.0000000000000E+00  0.7398515349444E-02
 0.1685533892842E-02 -0.8684764558693E-02  0.0000000000000E+00  0.7406908999180E-02
 0.1566172493824E-02 -0.8356374493556E-02  0.0000000000000E+00  0.7417899245992E-02
 0.1443788354277E-02 -0.8014090105114E-02  0.0000000000000E+00  0.7433395711966E-02
 0.1318829782970E-02 -0.7655718080095E-02  0.0000000000000E+00  0.7456786201429E-02
 0.1192801470254E-02 -0.7279619171048E-02  0.0000000000000E+00  0.7492905986709E-02
 0.1068797827738E-02 -0.6885059576838E-02  0.0000000000000E+00  0.7547887125427E-02
 0.9520740261943E-03 -0.6472466830383E-02  0.0000000000000E+00  0.7629050706661E-02
 0.8507262928972E-03 -0.6043793904107E-02  0.0000000000000E+00  0.7744709511775E-02
 0.7765580321610E-03 -0.5603346824879E-02  0.0000000000000E+00  0.7903297527384E-02
 0.7460017713927E-03 -0.5158729646236E-02  0.0000000000000E+00  0.8111818757272E-02
 0.7809355815789E-03 -0.4721661984954E-02  0.0000000000000E+00  0.8373617572004E-02
 0.9092070361196E-03 -0.4308660863196E-02  0.0000000000000E+00  0.8685062127301E-02
 0.1164502269667E-02 -0.3941288791836E-02  0.0000000000000E+00  0.9031021989391E-02
 0.1585071716766E-02 -0.3645495426435E-02  0.0000000000000E+00  0.9379402120510E-02
 0.2210861638577E-02 -0.3449424581114E-02  0.0000000000000E+00  0.9675705811509E-02
 0.3078909398133E-02 -0.3379295613451E-02  0.0000000000000E+00  0.9838761721097E-02
 0.4215482351035E-02 -0.3454332068545E-02  0.0000000000000E+00  0.9756112222443E-02
 0.5624400439612E-02 -0.3679686798424E-02  0.0000000000000E+00  0.9286016555633E-02
 0.7276426308559E-02 -0.4038162153107E-02  0.0000000000000E+00  0.8276591339533E-02
 0.9105865475566E-02 -0.4486410554964E-02  0.0000000000000E+00  0.6600679734928E-02
 0.1820878708617E-03 -0.1206674501452E-01  0.0000000000000E+00  0.5380007696708E-02
 0.5743872070916E-03 -0.1228713407182E-01  0.0000000000000E+00  0.6252216540777E-02
 0.1000534019555E-02 -0.1250016148969E-01  0.0000000000000E+00  0.6899649115169E-02
 0.1418203443779E-02 -0.1267665194840E-01  0.0000000000000E+00  0.7328138194439E-02
 0.1793899805644E-02 -0.1279575852119E-01  0.0000000000000E+00  0.7571351563851E-02
 0.2107621129531E-02 -0.1284792685125E-01  0.0000000000000E+00  0.7676067239652E-02
 0.2352210392959E-02 -0.1283354518157E-01  0.0000000000000E+00  0.7688619420668E-02
 0.2529731487338E-02 -0.1275940533043E-01  0.0000000000000E+00  0.7646912168384E-02
 0.2647346052645E-02 -0.1263508629246E-01  0.0000000000000E+00  0.7578016508625E-02
 0.2714086622179E-02 -0.1247035221392E-01  0.0000000000000E+00  0.7499275912624E-02
 0.2738877000223E-02 -0.1227373502287E-01  0.0000000000000E+00  0.7420801935088E-02
 0.2729594918137E-02 -0.1205201972866E-01  0.0000000000000E+00  0.7348017487014E-02
 0.2692820763896E-02 -0.1181027259612E-01  0.0000000000000E+00  0.7283657947735E-02
 0.2633959343341E-02 -0.1155213092518E-01  0.0000000000000E+00  0.7229090688945E-02
 0.2557506187582E-02 -0.1128016350616E-01  0.0000000000000E+00  0.7185012624931E-02
 0.2467303701171E-02 -0.1099620104976E-01  0.0000000000000E+00  0.7151663168410E-02
 0.2366834862107E-02 -0.1070215936479E-01  0.0000000000000E+00  0.7128450392764E-02
 0.2259343223436E-02 -0.1040063272984E-01  0.0000000000000E+00  0.7113409283545E-02
 0.2147389805418E-02 -0.1009355012026E-01  0.0000000000000E+00  0.7103771271605E-02
 0.2032459636206E-02 -0.9780987705899E-02  0.0000000000000E+00  0.7096992960663E-02
 0.1915069347383E-02 -0.9461590375916E-02  0.0000000000000E+00  0.7091137591850E-02
 0.1795040258117E-02 -0.9133152818605E-02  0.0000000000000E+00  0.7085203358169E-02
 0.1671858114642E-02 -0.8793055327431E-02  0.0000000000000E+00  0.7079463080181E-02
 0.1545096996071E-02 -0.8438602695044E-02  0.0000000000000E+00  0.7075712100187E-02
 0.1414881556621E-02 -0.8067317088807E-02  0.0000000000000E+00  0.7077379576650E-02
 0.1282384017756E-02 -0.7677240010395E-02  0.0000000000000E+00  0.7089519807108E-02
 0.1150367825681E-02 -0.7267271798045E-02  0.0000000000000E+00  0.7118711138268E-02
 0.1023773357485E-02 -0.6837406840927E-02  0.0000000000000E+00  0.7173053339069E-02
 0.9104364304702E-03 -0.6389091684493E-02  0.0000000000000E+00  0.7262123373771E-02
 0.8220433129564E-03 -0.5926105206550E-02  0.0000000000000E+00  0.7396252851594E-02
 0.7752007493000E-03 -0.5455608264519E-02  0.0000000000000E+00  0.7585108139005E-02
 0.7924675520297E-03 -0.4989119894182E-02  0.0000000000000E+00  0.7835542357534E-02
 0.9031686688890E-03 -0.4543436374255E-02  0.0000000000000E+00  0.8148204460457E-02
 0.1143608072304E-02 -0.4141188286345E-02  0.0000000000000E+00  0.8512649336223E-02
 0.1556114735874E-02 -0.3810505295503E-02  0.0000000000000E+00  0.8901045601269E-02
 0.2186327809605E-02 -0.3583013934786E-02  0.0000000000000E+00  0.9261361935591E-02
 0.3078334833015E-02 -0.3489553248213E-02  0.0000000000000E+00  0.9511207125609E-02
 0.4265719178084E-02 -0.3554401292572E-02  0.0000000000000E+00  0.9530722701823E-02
 0.5757019241852E-02 -0.3786539110465E-02  0.0000000000000E+00  0.9162263288966E-02
 0.7522448472072E-02 -0.4168562573101E-02  0.0000000000000E+00  0.8232967772855E-02
 0.9485844147529E-02 -0.4652306015727E-02  0.0000000000000E+00  0.6592220814604E-02
 0.1993578469224E-03 -0.1268536279207E-01  0.0000000000000E+00  0.5509936945999E-02
 0.6283628390276E-03 -0.1292582254000E-01  0.0000000000000E+00  0.6376059693503E-02
 0.1092055192529E-02 -0.1315611491146E-01  0.0000000000000E+00  0.6995434074448E-02
 0.1542080507939E-02 -0.1334318498996E-01  0.0000000000000E+00  0.7378704753584E-02
 0.1941474525998E-02 -0.1346453728151E-01  0.0000000000000E+00  0.7568178186980E-02
 0.2269705705928E-02 -0.1351127350894E-01  0.0000000000000E+00  0.7619093249476E-02
 0.2521082864906E-02 -0.1348579636421E-01  0.0000000000000E+00  0.7583547864228E-02
 0.2699890402683E-02 -0.1339719280960E-01  0.0000000000000E+00  0.7502037954976E-02
 0.2815386021048E-02 -0.1325693732626E-01  0.0000000000000E+00  0.7401822848180E-02
 0.2878183816358E-02 -0.1307606148355E-01  0.0000000000000E+00  0.7299098739570E-02
 0.2898225189352E-02 -0.1286378903393E-01  0.0000000000000E+00  0.7202342889070E-02
 0.2883949418312E-02 -0.1262717754671E-01  0.0000000000000E+00  0.7115365994187E-02
 0.2842189431013E-02 -0.1237130556241E-01  0.0000000000000E+00  0.7039553987931E-02
 0.2778428322948E-02 -0.1209968940824E-01  0.0000000000000E+00  0.6975261983801E-02
 0.2697172695324E-02 -0.1181473603240E-01  0.0000000000000E+00  0.6922488686892E-02
 0.2602282135130E-02 -0.1151813520735E-01  0.0000000000000E+00  0.6881003653908E-02
 0.2497305054098E-02 -0.1121174723080E-01  0.0000000000000E+00  0.6849820987531E-02
 0.2385595890813E-02 -0.1089822477047E-01  0.0000000000000E+00  0.6826510259890E-02
 0.2269806903518E-02 -0.1057956624667E-01  0.0000000000000E+00  0.6807764133066E-02
 0.2151426606985E-02 -0.1025582566021E-01  0.0000000000000E+00  0.6790496888024E-02
 0.2030865633679E-02 -0.9925533909457E-02  0.0000000000000E+00  0.6772271271400E-02
 0.1907739416114E-02 -0.9586305559815E-02  0.0000000000000E+00  0.6751675742902E-02
 0.1781255191649E-02 -0.9235299943875E-02  0.0000000000000E+00  0.6728700798760E-02
 0.1650665333186E-02 -0.8869575319482E-02  0.0000000000000E+00  0.6705000635567E-02
 0.1515749387486E-02 -0.8486381827711E-02  0.0000000000000E+00  0.6684006280689E-02
 0.1377318719217E-02 -0.8083449845690E-02  0.0000000000000E+00  0.6670930719855E-02
 0.1237762158600E-02 -0.7659308731944E-02  0.0000000000000E+00  0.6672715331123E-02
 0.1101636133231E-02 -0.7213490062825E-02  0.0000000000000E+00  0.6698139741915E-02
 0.9764115442248E-03 -0.6746867179377E-02  0.0000000000000E+00  0.6757949559418E-02
 0.8735118252616E-03 -0.6262576953742E-02  0.0000000000000E+00  0.6864314065454E-02
 0.8095325415283E-03 -0.5767166787311E-02  0.0000000000000E+00  0.7029586926769E-02
 0.8075028120491E-03 -0.5271730264269E-02  0.0000000000000E+00  0.7264309473574E-02
 0.8980289222900E-03 -0.4793083053877E-02  0.0000000000000E+00  0.7573833019666E-02
 0.1119929650603E-02 -0.4354683105867E-02  0.0000000000000E+00  0.7953146358139E-02
 0.1519736939627E-02 -0.3986722783534E-02  0.0000000000000E+00  0.8379785900747E-02
 0.2149298719667E-02 -0.3724466384827E-02  0.0000000000000E+00  0.8805509009689E-02
 0.3060871559279E-02 -0.3603952376330E-02  0.0000000000000E+00  0.9147870737687E-02
 0.4296872589890E-02 -0.3655545985587E-02  0.0000000000000E+00  0.9279636891914E-02
 0.5872726963374E-02 -0.3893270403789E-02  0.0000000000000E+00  0.9025772832699E-02
 0.7757091273176E-02 -0.4300123363315E-02  0.0000000000000E+00  0.8185853231978E-02
 0.9866806629653E-02 -0.4820233057256E-02  0.0000000000000E+00  0.6590124337993E-02
 0.2184792908328E-03 -0.1331408325696E-01  0.0000000000000E+00  0.5651980393607E-02
 0.6880010462904E-03 -0.1357655050331E-01  0.0000000000000E+00  0.6510355123764E-02
 0.1192571565202E-02 -0.1382523836417E-01  0.0000000000000E+00  0.7096755167348E-02
 0.1676782468178E-02 -0.1402263101037E-01  0.0000000000000E+00  0.7428142105347E-02
 0.2099979736537E-02 -0.1414466120418E-01  0.0000000000000E+00  0.7557475534078E-02
 0.2441545275466E-02 -0.1418363650641E-01  0.0000000000000E+00  0.7549830579461E-02
 0.2697920193107E-02 -0.1414460318202E-01  0.0000000000000E+00  0.7463457988720E-02
 0.2876160174388E-02 -0.1403938634622E-01  0.0000000000000E+00  0.7341135708703E-02
 0.2987937952927E-02 -0.1388155560913E-01  0.0000000000000E+00  0.7209739053032E-02
 0.3045568739482E-02 -0.1368343082224E-01  0.0000000000000E+00  0.7083778080901E-02
 0.3060009377197E-02 -0.1345485722383E-01  0.0000000000000E+00  0.6969704728641E-02
 0.3040202163705E-02 -0.1320306573581E-01  0.0000000000000E+00  0.6869477301828E-02
 0.2993156894422E-02 -0.1293305037948E-01  0.0000000000000E+00  0.6783007384893E-02
 0.2924362317222E-02 -0.1264812380806E-01  0.0000000000000E+00  0.6709592969463E-02
 0.2838277788385E-02 -0.1235046660359E-01  0.0000000000000E+00  0.6648543961477E-02
 0.2738743584797E-02 -0.1204158379675E-01  0.0000000000000E+00  0.6599201567808E-02
 0.2629361631598E-02 -0.1172325812648E-01  0.0000000000000E+00  0.6560233900854E-02
 0.2513604741918E-02 -0.1139819735819E-01  0.0000000000000E+00  0.6528774992616E-02
 0.2394230647355E-02 -0.1106847655891E-01  0.0000000000000E+00  0.6500979985758E-02
 0.2272739294067E-02 -0.1073413617665E-01  0.0000000000000E+00  0.6473199774468E-02
 0.2149431141443E-02 -0.1039359949705E-01  0.0000000000000E+00  0.6442467836867E-02
 0.2023701837690E-02 -0.1004430741335E-01  0.0000000000000E+00  0.6406938336062E-02
 0.1894462645949E-02 -0.9683209132643E-02  0.0000000000000E+00  0.6366300321852E-02
 0.1760627603962E-02 -0.9307133629050E-02  0.0000000000000E+00  0.6322044183423E-02
 0.1621614822149E-02 -0.8913080340515E-02  0.0000000000000E+00  0.6277563368047E-02
 0.1477852906999E-02 -0.8498487226886E-02  0.0000000000000E+00  0.6238162275059E-02
 0.1331318761943E-02 -0.8061518834138E-02  0.0000000000000E+00  0.6211046048218E-02
 0.1186119908292E-02 -0.7601224889427E-02  0.0000000000000E+00  0.6205548693680E-02
 0.1049257349685E-02 -0.7117846786524E-02  0.0000000000000E+00  0.6233450411802E-02
 0.9317375029234E-03 -0.6613766903598E-02  0.0000000000000E+00  0.6308647662429E-02
 0.8499382633342E-03 -0.6094740737092E-02  0.0000000000000E+00  0.6446146041017E-02
 0.8271091392742E-03 -0.5571185591770E-02  0.0000000000000E+00  0.6660292737764E-02
 0.8948782204568E-03 -0.5059624339738E-02  0.0000000000000E+00  0.6961520450191E-02
 0.1094391337130E-02 -0.4584017876571E-02  0.0000000000000E+00  0.7351018134498E-02
 0.1476415658491E-02 -0.4176397238626E-02  0.0000000000000E+00  0.7812929409399E-02
 0.2099502242384E-02 -0.3875730000442E-02  0.0000000000000E+00  0.8304439003088E-02
 0.3025229435812E-02 -0.3723823325886E-02  0.0000000000000E+00  0.8744646967362E-02
 0.4306992695099E-02 -0.3758369884590E-02  0.0000000000000E+00  0.8999547433785E-02
 0.5968600034997E-02 -0.3999877726443E-02  0.0000000000000E+00  0.8874336343208E-02
 0.7981532372247E-02 -0.4433088619199E-02  0.0000000000000E+00  0.8137466488265E-02
 0.1024008379828E-01 -0.4990727953503E-02  0.0000000000000E+00  0.6580473913707E-02
 0.2397535330251E-03 -0.1395411813226E-01  0.0000000000000E+00  0.5807393359217E-02
 0.7542008702558E-03 -0.1424079277636E-01  0.0000000000000E+00  0.6655900261375E-02
 0.1303392057556E-02 -0.1450903485249E-01  0.0000000000000E+00  0.7203351434652E-02
 0.1823633154729E-02 -0.1471619542723E-01  0.0000000000000E+00  0.7475047825037E-02
 0.2270424110806E-02 -0.1483683190336E-01  0.0000000000000E+00  0.7537116695960E-02
 0.2623708472014E-02 -0.1486520693643E-01  0.0000000000000E+00  0.7466000314373E-02
 0.2882900783396E-02 -0.1480977748614E-01  0.0000000000000E+00  0.7326351624643E-02
 0.3058455588247E-02 -0.1468558618009E-01  0.0000000000000E+00  0.7162689338402E-02
 0.3164778932788E-02 -0.1450846689878E-01  0.0000000000000E+00  0.7000752315711E-02
 0.3215972767354E-02 -0.1429199844425E-01  0.0000000000000E+00  0.6852733732132E-02
 0.3223970847963E-02 -0.1404653499899E-01  0.0000000000000E+00  0.6722642942956E-02
 0.3198132882830E-02 -0.1377935479033E-01  0.0000000000000E+00  0.6610351637640E-02
 0.3145552365428E-02 -0.1349525596998E-01  0.0000000000000E+00  0.6514187749337E-02
 0.3071639862598E-02 -0.1319725711906E-01  0.0000000000000E+00  0.6432363319932E-02
 0.2980741908491E-02 -0.1288724330812E-01  0.0000000000000E+00  0.6363524452356E-02
 0.2876639437553E-02 -0.1256648830145E-01  0.0000000000000E+00  0.6306641791577E-02
 0.2762976768593E-02 -0.1223667472675E-01  0.0000000000000E+00  0.6260101232587E-02
 0.2643356914179E-02 -0.1190056375799E-01  0.0000000000000E+00  0.6220642814115E-02
 0.2520662371931E-02 -0.1156031664563E-01  0.0000000000000E+00  0.6183890628025E-02
 0.2396415411427E-02 -0.1121597049436E-01  0.0000000000000E+00  0.6145612108858E-02
 0.2270802421622E-02 -0.1086584827054E-01  0.0000000000000E+00  0.6102284262884E-02
 0.2142984739566E-02 -0.1050722541623E-01  0.0000000000000E+00  0.6051607368572E-02
 0.2011560990384E-02 -0.1013685609152E-01  0.0000000000000E+00  0.5992957321330E-02
 0.1875093844641E-02 -0.9751364638387E-02  0.0000000000000E+00  0.5927644507533E-02
 0.1732630055832E-02 -0.9347531403023E-02  0.0000000000000E+00  0.5858987156726E-02
 0.1584201811153E-02 -0.8922533042461E-02  0.0000000000000E+00  0.5792307969282E-02
 0.1431345262986E-02 -0.8474189015483E-02  0.0000000000000E+00  0.5734960859908E-02
 0.1277660785736E-02 -0.8001061707760E-02  0.0000000000000E+00  0.5696681209594E-02
 0.1129576914102E-02 -0.7502713651196E-02  0.0000000000000E+00  0.5690108503603E-02
 0.9975234725679E-03 -0.6980667399734E-02  0.0000000000000E+00  0.5730699266468E-02
 0.8974357566693E-03 -0.6439705328135E-02  0.0000000000000E+00  0.5836003582582E-02
 0.8524944098294E-03 -0.5889296179798E-02  0.0000000000000E+00  0.6024209938457E-02
 0.8950207481542E-03 -0.5345305459783E-02  0.0000000000000E+00  0.6311138391245E-02
 0.1068195119362E-02 -0.4831777583754E-02  0.0000000000000E+00  0.6704925868139E-02
 0.1426933421336E-02 -0.4382223197744E-02  0.0000000000000E+00  0.7197677243550E-02
 0.2036882443966E-02 -0.4039238245424E-02  0.0000000000000E+00  0.7753981058647E-02
 0.2970247989196E-02 -0.3850929789422E-02  0.0000000000000E+00  0.8296671558052E-02
 0.4293592140552E-02 -0.3863689071903E-02  0.0000000000000E+00  0.8686168119640E-02
 0.6042840618603E-02 -0.4106678760950E-02  0.0000000000000E+00  0.8705789838067E-02
 0.8190416988750E-02 -0.4566962408585E-02  0.0000000000000E+00  0.8086613749083E-02
 0.1062656315314E-01 -0.5170109685956E-02  0.0000000000000E+00  0.6567524471429E-02
 0.2635491038867E-03 -0.1460688396461E-01  0.0000000000000E+00  0.5977619207421E-02
 0.8280514519544E-03 -0.1492027118126E-01  0.0000000000000E+00  0.6813538589496E-02
 0.1426062980579E-02 -0.1520921654324E-01  0.0000000000000E+00  0.7314729851595E-02
 0.1984126137126E-02 -0.1542517125525E-01  0.0000000000000E+00  0.7517569693339E-02
 0.2453862173874E-02 -0.1554170002246E-01  0.0000000000000E+00  0.7504488766592E-02
 0.2816704952591E-02 -0.1555603294142E-01  0.0000000000000E+00  0.7364950685362E-02
 0.3076091529340E-02 -0.1548095957860E-01  0.0000000000000E+00  0.7170020763822E-02
 0.3246572761623E-02 -0.1533523693713E-01  0.0000000000000E+00  0.6965110509075E-02
 0.3345584384654E-02 -0.1513707533350E-01  0.0000000000000E+00  0.6773864188371E-02
 0.3389049394366E-02 -0.1490121509955E-01  0.0000000000000E+00  0.6605442338410E-02
 0.3389794748015E-02 -0.1463835735722E-01  0.0000000000000E+00  0.6460984882732E-02
 0.3357482411026E-02 -0.1435567417428E-01  0.0000000000000E+00  0.6338062521663E-02
 0.3299179327793E-02 -0.1405764396440E-01  0.0000000000000E+00  0.6233333704869E-02
 0.3220123744789E-02 -0.1374689529628E-01  0.0000000000000E+00  0.6143914732877E-02
 0.3124476871954E-02 -0.1342494516017E-01  0.0000000000000E+00  0.6067829181646E-02
 0.3015916686944E-02 -0.1309278705785E-01  0.0000000000000E+00  0.6003751852794E-02
 0.2898119880923E-02 -0.1275198035083E-01  0.0000000000000E+00  0.5949867276583E-02
 0.2774836713848E-02 -0.1240533951919E-01  0.0000000000000E+00  0.5902575736809E-02
 0.2649099656287E-02 -0.1205512379355E-01  0.0000000000000E+00  0.5856981925407E-02
 0.2522467252775E-02 -0.1170137834822E-01  0.0000000000000E+00  0.5808250365640E-02
 0.2395007628719E-02 -0.1134233354247E-01  0.0000000000000E+00  0.5752276608148E-02
 0.2265632090537E-02 -0.1097510926683E-01  0.0000000000000E+00  0.5686294505090E-02
 0.2132610811103E-02 -0.1059628455566E-01  0.0000000000000E+00  0.5609365284213E-02
 0.1994146461115E-02 -0.1020231235983E-01  0.0000000000000E+00  0.5522612190892E-02
 0.1848912335823E-02 -0.9789797385682E-02  0.0000000000000E+00  0.5429244398731E-02
 0.1696540657376E-02 -0.9355700359393E-02  0.0000000000000E+00  0.5334525329235E-02
 0.1538108788830E-02 -0.8897531236426E-02  0.0000000000000E+00  0.5245827689160E-02
 0.1376661212391E-02 -0.8413376176028E-02  0.0000000000000E+00  0.5173107569979E-02
 0.1217957214638E-02 -0.7902088000643E-02  0.0000000000000E+00  0.5129645421709E-02
 0.1071689114876E-02 -0.7364237049464E-02  0.0000000000000E+00  0.5132229108874E-02
 0.9531104990623E-03 -0.6803455885716E-02  0.0000000000000E+00  0.5200762479004E-02
 0.8850073974915E-03 -0.6227978547014E-02  0.0000000000000E+00  0.5357206629584E-02
 0.8999929508304E-03 -0.5652600159947E-02  0.0000000000000E+00  0.5622965156148E-02
 0.1042869191918E-02 -0.5100926551155E-02  0.0000000000000E+00  0.6013801952130E-02
 0.1372446666826E-02 -0.4607421976425E-02  0.0000000000000E+00  0.6531209262531E-02
 0.1961730005218E-02 -0.4218038237469E-02  0.0000000000000E+00  0.7149499889348E-02
 0.2894809878037E-02 -0.3987587160639E-02  0.0000000000000E+00  0.7798181671733E-02
 0.4254327925920E-02 -0.3972730952703E-02  0.0000000000000E+00  0.8334071531169E-02
 0.6091640916340E-02 -0.4213868821645E-02  0.0000000000000E+00  0.8517465381445E-02
 0.8385473912032E-02 -0.4702815445463E-02  0.0000000000000E+00  0.8031300628435E-02
 0.1101281347376E-01 -0.5358852709060E-02  0.0000000000000E+00  0.6563783482349E-02
 0.2903221090786E-03 -0.1527405660099E-01  0.0000000000000E+00  0.6164326655667E-02
 0.9108850896959E-03 -0.1561701589028E-01  0.0000000000000E+00  0.6984143675250E-02
 0.1562420641554E-02 -0.1592774150644E-01  0.0000000000000E+00  0.7430064447545E-02
 0.2159941186773E-02 -0.1615092965252E-01  0.0000000000000E+00  0.7553269955138E-02
 0.2651372492262E-02 -0.1625982064309E-01  0.0000000000000E+00  0.7456392551883E-02
 0.3020946932698E-02 -0.1625596749516E-01  0.0000000000000E+00  0.7243620475194E-02
 0.3277413264518E-02 -0.1615757844598E-01  0.0000000000000E+00  0.6992060125057E-02
 0.3440167025169E-02 -0.1598760558423E-01  0.0000000000000E+00  0.6746772488184E-02
 0.3529917482037E-02 -0.1576665511701E-01  0.0000000000000E+00  0.6528125371301E-02
 0.3564370924949E-02 -0.1551044336849E-01  0.0000000000000E+00  0.6341464504932E-02
 0.3557110229737E-02 -0.1522980113021E-01  0.0000000000000E+00  0.6184648274007E-02
 0.3517953992403E-02 -0.1493161495515E-01  0.0000000000000E+00  0.6052768936293E-02
 0.3453817069924E-02 -0.1461991081516E-01  0.0000000000000E+00  0.5940761418511E-02
 0.3369662655167E-02 -0.1429682895256E-01  0.0000000000000E+00  0.5844657689774E-02
 0.3269387786176E-02 -0.1396344389109E-01  0.0000000000000E+00  0.5761915856563E-02
 0.3156520109985E-02 -0.1362041758488E-01  0.0000000000000E+00  0.5691006349286E-02
 0.3034759925386E-02 -0.1326916200353E-01  0.0000000000000E+00  0.5630011341035E-02
 0.2908027949863E-02 -0.1291254614665E-01  0.0000000000000E+00  0.5575059323684E-02
 0.2779538669596E-02 -0.1255294096358E-01  0.0000000000000E+00  0.5520752254944E-02
 0.2650903879484E-02 -0.1219041164543E-01  0.0000000000000E+00  0.5461632481860E-02
 0.2522068102042E-02 -0.1182310337893E-01  0.0000000000000E+00  0.5392992340840E-02
 0.2391674976633E-02 -0.1144799201577E-01  0.0000000000000E+00  0.5311596501852E-02
 0.2257651356683E-02 -0.1106150704228E-01  0.0000000000000E+00  0.5216203554949E-02
 0.2117836635043E-02 -0.1065997325469E-01  0.0000000000000E+00  0.5107754373605E-02
 0.1970537904853E-02 -0.1023987664265E-01  0.0000000000000E+00  0.4989321123055E-02
 0.1814995944469E-02 -0.9798023426543E-02  0.0000000000000E+00  0.4866027485983E-02
 0.1651824461721E-02 -0.9331667722128E-02  0.0000000000000E+00  0.4745121262714E-02
 0.1483475764742E-02 -0.8838450287215E-02  0.0000000000000E+00  0.4636571703214E-02
 0.1314952733017E-02 -0.8316504038968E-02  0.0000000000000E+00  0.4554038487726E-02
 0.1155052935415E-02 -0.7765374380296E-02  0.0000000000000E+00  0.4515347203771E-02
 0.1018101142612E-02 -0.7187381206270E-02  0.0000000000000E+00  0.4542471755134E-02
 0.9261323159595E-03 -0.6589235087360E-02  0.0000000000000E+00  0.4660951008054E-02
 0.9115785145122E-03 -0.5984208932652E-02  0.0000000000000E+00  0.4897816110375E-02
 0.1020314200817E-02 -0.5394843405085E-02  0.0000000000000E+00  0.5277002788077E-02
 0.1314584694940E-02 -0.4855833583447E-02  0.0000000000000E+00  0.5810811574406E-02
 0.1874771641900E-02 -0.4415940658469E-02  0.0000000000000E+00  0.6485939230552E-02
 0.2798088022251E-02 -0.4136859898096E-02  0.0000000000000E+00  0.7242321647014E-02
 0.4186396992860E-02 -0.4087209890144E-02  0.0000000000000E+00  0.7936647945206E-02
 0.6111751962653E-02 -0.4321894868060E-02  0.0000000000000E+00  0.8304764757990E-02
 0.8563289009101E-02 -0.4841542496932E-02  0.0000000000000E+00  0.7974324140878E-02
 0.1140138044092E-01 -0.5555777801507E-02  0.0000000000000E+00  0.6566803053242E-02
 0.3206443750473E-03 -0.1595764425785E-01  0.0000000000000E+00  0.6369456702397E-02
 0.1004348204794E-02 -0.1633344526954E-01  0.0000000000000E+00  0.7168588911570E-02
 0.1714655913613E-02 -0.1666685490404E-01  0.0000000000000E+00  0.7548052189777E-02
 0.2352955901743E-02 -0.1689489686956E-01  0.0000000000000E+00  0.7578948503438E-02
 0.2864020914619E-02 -0.1699158839261E-01  0.0000000000000E+00  0.7388928129492E-02
 0.3236697368181E-02 -0.1696460151524E-01  0.0000000000000E+00  0.7098512422591E-02
 0.3486599749898E-02 -0.1683880658480E-01  0.0000000000000E+00  0.6789898038191E-02
 0.3638730071714E-02 -0.1664176029724E-01  0.0000000000000E+00  0.6506059019621E-02
 0.3717220460786E-02 -0.1639634543490E-01  0.0000000000000E+00  0.6262678978184E-02
 0.3741427482514E-02 -0.1611896011726E-01  0.0000000000000E+00  0.6060475204419E-02
 0.3725492375208E-02 -0.1582028947129E-01  0.0000000000000E+00  0.5893660108793E-02
 0.3679215626518E-02 -0.1550673367953E-01  0.0000000000000E+00  0.5754726686285E-02
 0.3609222665150E-02 -0.1518173034754E-01  0.0000000000000E+00  0.5636872251167E-02
 0.3520092975477E-02 -0.1484683501841E-01  0.0000000000000E+00  0.5535077871979E-02
 0.3415375050511E-02 -0.1450260560420E-01  0.0000000000000E+00  0.5446306851006E-02
 0.3298394645095E-02 -0.1414931897957E-01  0.0000000000000E+00  0.5368932118414E-02
 0.3172868059019E-02 -0.1378821384152E-01  0.0000000000000E+00  0.5301051409793E-02
 0.3042916796311E-02 -0.1342221556974E-01  0.0000000000000E+00  0.5238604178949E-02
 0.2911977204348E-02 -0.1305382182185E-01  0.0000000000000E+00  0.5175711031184E-02
 0.2781734065748E-02 -0.1268312922770E-01  0.0000000000000E+00  0.5106272634293E-02
 0.2652000610296E-02 -0.1230820403881E-01  0.0000000000000E+00  0.5024961176518E-02
 0.2521132389293E-02 -0.1192589125253E-01  0.0000000000000E+00  0.4928082829552E-02
 0.2386699253728E-02 -0.1153250321550E-01  0.0000000000000E+00  0.4814123089794E-02
 0.2246180573308E-02 -0.1112429150613E-01  0.0000000000000E+00  0.4683860098204E-02
 0.2097535510083E-02 -0.1069769547001E-01  0.0000000000000E+00  0.4540208937293E-02
 0.1939635944717E-02 -0.1024944592661E-01  0.0000000000000E+00  0.4388071921866E-02
 0.1772642614894E-02 -0.9776614892818E-02  0.0000000000000E+00  0.4234416361386E-02
 0.1598394892468E-02 -0.9276451252964E-02  0.0000000000000E+00  0.4088992095278E-02
 0.1421065875607E-02 -0.8746383259181E-02  0.0000000000000E+00  0.3965534215174E-02
 0.1248410724541E-02 -0.8184885884552E-02  0.0000000000000E+00  0.3882546641467E-02
 0.1093578419572E-02 -0.7592828652002E-02  0.0000000000000E+00  0.3863689715888E-02
 0.9774754329339E-03 -0.6975122642609E-02  0.0000000000000E+00  0.3937738657761E-02
 0.9318148941841E-03 -0.6343044730182E-02  0.0000000000000E+00  0.4137198808971E-02
 0.1002851247701E-02 -0.5717347531889E-02  0.0000000000000E+00  0.4494504908117E-02
 0.1255547912923E-02 -0.5132013694753E-02  0.0000000000000E+00  0.5034073878929E-02
 0.1777353402359E-02 -0.4637705288104E-02  0.0000000000000E+00  0.5757889601187E-02
 0.2679599419191E-02 -0.4302806246522E-02  0.0000000000000E+00  0.6621098452778E-02
 0.4086977064487E-02 -0.4209527485893E-02  0.0000000000000E+00  0.7485304602200E-02
 0.6098778091207E-02 -0.4431603458243E-02  0.0000000000000E+00  0.8062604666354E-02
 0.8720419063338E-02 -0.4982848184990E-02  0.0000000000000E+00  0.7915596296120E-02
 0.1179395095684E-01 -0.5762125381755E-02  0.0000000000000E+00  0.6577095147494E-02
 0.3552430160326E-03 -0.1666008717754E-01  0.0000000000000E+00  0.6595282041020E-02
 0.1110497321810E-02 -0.1707247075350E-01  0.0000000000000E+00  0.7367693228265E-02
 0.1885392746309E-02 -0.1742913288613E-01  0.0000000000000E+00  0.7666705719731E-02
 0.2565246925044E-02 -0.1765850885656E-01  0.0000000000000E+00  0.7590413483999E-02
 0.3092802049414E-02 -0.1773714444122E-01  0.0000000000000E+00  0.7297369627072E-02
 0.3464001672498E-02 -0.1768117980266E-01  0.0000000000000E+00  0.6925686495114E-02
 0.3703150614426E-02 -0.1752351081023E-01  0.0000000000000E+00  0.6560853236950E-02
 0.3841568053112E-02 -0.1729655255960E-01  0.0000000000000E+00  0.6241431231585E-02
 0.3906809262137E-02 -0.1702515028377E-01  0.0000000000000E+00  0.5976812373710E-02
 0.3919629156450E-02 -0.1672596299479E-01  0.0000000000000E+00  0.5762296573444E-02
 0.3894466261631E-02 -0.1640919895158E-01  0.0000000000000E+00  0.5588174904407E-02
 0.3840903537796E-02 -0.1608055755256E-01  0.0000000000000E+00  0.5444298096985E-02
 0.3765133302118E-02 -0.1574275660876E-01  0.0000000000000E+00  0.5322158927091E-02
 0.3671240509703E-02 -0.1539667810652E-01  0.0000000000000E+00  0.5215741967639E-02
 0.3562336273945E-02 -0.1504229202628E-01  0.0000000000000E+00  0.5121595586066E-02
 0.3441487882282E-02 -0.1467943421555E-01  0.0000000000000E+00  0.5038114481624E-02
 0.3312420668971E-02 -0.1430914107084E-01  0.0000000000000E+00  0.4963549062981E-02
 0.3179495290520E-02 -0.1393439558408E-01  0.0000000000000E+00  0.4893748407984E-02
 0.3046418578238E-02 -0.1355783710085E-01  0.0000000000000E+00  0.4822377450664E-02
 0.2914970197507E-02 -0.1317960298196E-01  0.0000000000000E+00  0.4742675174985E-02
 0.2784820398636E-02 -0.1279768443444E-01  0.0000000000000E+00  0.4648684085280E-02
 0.2654012488034E-02 -0.1240881081623E-01  0.0000000000000E+00  0.4536280885500E-02
 0.2519747342746E-02 -0.1200921833061E-01  0.0000000000000E+00  0.4403729646699E-02
 0.2379155593936E-02 -0.1159515408669E-01  0.0000000000000E+00  0.4251683096951E-02
 0.2229879510443E-02 -0.1116309967517E-01  0.0000000000000E+00  0.4082888639243E-02
 0.2070460502436E-02 -0.1070980859398E-01  0.0000000000000E+00  0.3901946120968E-02
 0.1900634816320E-02 -0.1023226616339E-01  0.0000000000000E+00  0.3715377345421E-02
 0.1721626653935E-02 -0.9727408321745E-02  0.0000000000000E+00  0.3532458324796E-02
 0.1536724099159E-02 -0.9192004123885E-02  0.0000000000000E+00  0.3366657109871E-02
 0.1352508506026E-02 -0.8623448035871E-02  0.0000000000000E+00  0.3236733050108E-02
 0.1180716341349E-02 -0.8021059826375E-02  0.0000000000000E+00  0.3167546532059E-02
 0.1040741003973E-02 -0.7387707421054E-02  0.0000000000000E+00  0.3190605021037E-02
 0.9629887819977E-03 -0.6732201368910E-02  0.0000000000000E+00  0.3343492107858E-02
 0.9932604570724E-03 -0.6072709772731E-02  0.0000000000000E+00  0.3667155527919E-02
 0.1198226974700E-02 -0.5441329592052E-02  0.0000000000000E+00  0.4199160984911E-02
 0.1671626554997E-02 -0.4889263605521E-02  0.0000000000000E+00  0.4959786619081E-02
 0.2539481858278E-02 -0.4490790337868E-02  0.0000000000000E+00  0.5925185040876E-02
 0.3953159274441E-02 -0.4343149659259E-02  0.0000000000000E+00  0.6969319567051E-02
 0.6047388187833E-02 -0.4543995389066E-02  0.0000000000000E+00  0.7783623058770E-02
 0.8852713279464E-02 -0.5126670233322E-02  0.0000000000000E+00  0.7854093606528E-02
 0.1219254730503E-01 -0.5979451958995E-02  0.0000000000000E+00  0.6596011128860E-02
 0.3950571326763E-03 -0.1738439607060E-01  0.0000000000000E+00  0.6844482714043E-02
 0.1231930355959E-02 -0.1783763579023E-01  0.0000000000000E+00  0.7582126227845E-02
 0.2077781938633E-02 -0.1821752476266E-01  0.0000000000000E+00  0.7783053249618E-02
 0.2799071342169E-02 -0.1844312974053E-01  0.0000000000000E+00  0.7582186096316E-02
 0.3338549643811E-02 -0.1849624518080E-01  0.0000000000000E+00  0.7176037962887E-02
 0.3702600008554E-02 -0.1840449811630E-01  0.0000000000000E+00  0.6720788013999E-02
 0.3926279903157E-02 -0.1821020212088E-01  0.0000000000000E+00  0.6302226751171E-02
 0.4047783207702E-02 -0.1795060580855E-01  0.0000000000000E+00  0.5951514968594E-02
 0.4097873255328E-02 -0.1765194516708E-01  0.0000000000000E+00  0.5670016736952E-02
 0.4098312136765E-02 -0.1733058183215E-01  0.0000000000000E+00  0.5446931612918E-02
 0.4063513491562E-02 -0.1699586957097E-01  0.0000000000000E+00  0.5268491035876E-02
 0.4002626800999E-02 -0.1665259093792E-01  0.0000000000000E+00  0.5121959017096E-02
 0.3921268807304E-02 -0.1630262681783E-01  0.0000000000000E+00  0.4997209476945E-02
 0.3822921901797E-02 -0.1594611122978E-01  0.0000000000000E+00  0.4887302530106E-02
 0.3710167864298E-02 -0.1558236098276E-01  0.0000000000000E+00  0.4788453434827E-02
 0.3585752531208E-02 -0.1521071211078E-01  0.0000000000000E+00  0.4699205038863E-02
 0.3453402783198E-02 -0.1483196428489E-01  0.0000000000000E+00  0.4618116259077E-02
 0.3317765619122E-02 -0.1444915651826E-01  0.0000000000000E+00  0.4541061537864E-02
 0.3182876659485E-02 -0.1406508267801E-01  0.0000000000000E+00  0.4461279621575E-02
 0.3050633384990E-02 -0.1367992564784E-01  0.0000000000000E+00  0.4371327490345E-02
 0.2920545198297E-02 -0.1329160178992E-01  0.0000000000000E+00  0.4264619978505E-02
 0.2790314367547E-02 -0.1289674302569E-01  0.0000000000000E+00  0.4136658313576E-02
 0.2656763591800E-02 -0.1249156166959E-01  0.0000000000000E+00  0.3985564116884E-02
 0.2516696021903E-02 -0.1207238556981E-01  0.0000000000000E+00  0.3811921911843E-02
 0.2367482627783E-02 -0.1163584581854E-01  0.0000000000000E+00  0.3618311070049E-02
 0.2207390251371E-02 -0.1117883637709E-01  0.0000000000000E+00  0.3408949909516E-02
 0.2035778858689E-02 -0.1069837386076E-01  0.0000000000000E+00  0.3189743428613E-02
 0.1853276573300E-02 -0.1019118776454E-01  0.0000000000000E+00  0.2969222233878E-02
 0.1662253722582E-02 -0.9653468207046E-02  0.0000000000000E+00  0.2760212215778E-02
 0.1468009937075E-02 -0.9081563028381E-02  0.0000000000000E+00  0.2581247838591E-02
 0.1280654543300E-02 -0.8473195847644E-02  0.0000000000000E+00  0.2457802992479E-02
 0.1117694275750E-02 -0.7829003692474E-02  0.0000000000000E+00  0.2423441445994E-02
 0.1007614378366E-02 -0.7154899072510E-02  0.0000000000000E+00  0.2520147796551E-02
 0.9948066360539E-03 -0.6465637272197E-02  0.0000000000000E+00  0.2796978889162E-02
 0.1146320109443E-02 -0.5790045094592E-02  0.0000000000000E+00  0.3305200761557E-02
 0.1560801802497E-02 -0.5177968320422E-02  0.0000000000000E+00  0.4086211302637E-02
 0.2378803471698E-02 -0.4707927702227E-02  0.0000000000000E+00  0.5143931421457E-02
 0.3782148075618E-02 -0.4492995823008E-02  0.0000000000000E+00  0.6375116977834E-02
 0.5951228089907E-02 -0.4660674149485E-02  0.0000000000000E+00  0.7457362118725E-02
 0.8954890197783E-02 -0.5273063886338E-02  0.0000000000000E+00  0.7787737908831E-02
 0.1259962343576E-01 -0.6209725987945E-02  0.0000000000000E+00  0.6625598712591E-02
 0.4413207754485E-03 -0.1813434840325E-01  0.0000000000000E+00  0.7120242826375E-02
 0.1371968228526E-02 -0.1863330132161E-01  0.0000000000000E+00  0.7812244225141E-02
 0.2295609503869E-02 -0.1903538372557E-01  0.0000000000000E+00  0.7892701196399E-02
 0.3056812626324E-02 -0.1924991254764E-01  0.0000000000000E+00  0.7547126277207E-02
 0.3601803486318E-02 -0.1926807985559E-01  0.0000000000000E+00  0.7018189868710E-02
 0.3951818243865E-02 -0.1913278183963E-01  0.0000000000000E+00  0.6479132480228E-02
 0.4154863894191E-02 -0.1889699024234E-01  0.0000000000000E+00  0.6011439055666E-02
 0.4256262674647E-02 -0.1860231503033E-01  0.0000000000000E+00  0.5635209361586E-02
 0.4289482005800E-02 -0.1827549270908E-01  0.0000000000000E+00  0.5342052157495E-02
 0.4276749615815E-02 -0.1793189566542E-01  0.0000000000000E+00  0.5114596693648E-02
 0.4232081434473E-02 -0.1757961789247E-01  0.0000000000000E+00  0.4935063600024E-02
 0.4163973105593E-02 -0.1722232314786E-01  0.0000000000000E+00  0.4788301923881E-02
 0.4077334136280E-02 -0.1686096415734E-01  0.0000000000000E+00  0.4662708035601E-02
 0.3974945376015E-02 -0.1649487540145E-01  0.0000000000000E+00  0.4550501436587E-02
 0.3858765933572E-02 -0.1612266556785E-01  0.0000000000000E+00  0.4447637322343E-02
 0.3731148662637E-02 -0.1574310861723E-01  0.0000000000000E+00  0.4352931693446E-02
 0.3595811870226E-02 -0.1535672424745E-01  0.0000000000000E+00  0.4265424853334E-02
 0.3457745412066E-02 -0.1496659948676E-01  0.0000000000000E+00  0.4181150597011E-02
 0.3321382376276E-02 -0.1457568991256E-01  0.0000000000000E+00  0.4092954275791E-02
 0.3188760132106E-02 -0.1418422077381E-01  0.0000000000000E+00  0.3992691399048E-02
 0.3059200374210E-02 -0.1379002867753E-01  0.0000000000000E+00  0.3873169376167E-02
 0.2930030314314E-02 -0.1338967135389E-01  0.0000000000000E+00  0.3729601819994E-02
 0.2797689985668E-02 -0.1297940479736E-01  0.0000000000000E+00  0.3560079706981E-02
 0.2658688835945E-02 -0.1255574259070E-01  0.0000000000000E+00  0.3365197339813E-02
 0.2510188400506E-02 -0.1211559220256E-01  0.0000000000000E+00  0.3147375269852E-02
 0.2350255426365E-02 -0.1165612539168E-01  0.0000000000000E+00  0.2910374367993E-02
 0.2177942960767E-02 -0.1117453061444E-01  0.0000000000000E+00  0.2659309199703E-02
 0.1993325857844E-02 -0.1066746639470E-01  0.0000000000000E+00  0.2401682679717E-02
 0.1797850549328E-02 -0.1013066304921E-01  0.0000000000000E+00  0.2149279618495E-02
 0.1595457963397E-02 -0.9559508200760E-02  0.0000000000000E+00  0.1919882483747E-02
 0.1394450956984E-02 -0.8950151522036E-02  0.0000000000000E+00  0.1738901273476E-02
 0.1210108915227E-02 -0.8300893985742E-02  0.0000000000000E+00  0.1641109266440E-02
 0.1068389365046E-02 -0.7614401020086E-02  0.0000000000000E+00  0.1671907868416E-02
 0.1011238789109E-02 -0.6901220271702E-02  0.0000000000000E+00  0.1887543200424E-02
 0.1104444625332E-02 -0.6185373258948E-02  0.0000000000000E+00  0.2352799965216E-02
 0.1449445119823E-02 -0.5512870836721E-02  0.0000000000000E+00  0.3132412194980E-02
 0.2200015676822E-02 -0.4963635201976E-02  0.0000000000000E+00  0.4265477585905E-02
 0.3571622043984E-02 -0.4666136673202E-02  0.0000000000000E+00  0.5685546189526E-02
 0.5802789262803E-02 -0.4784308029522E-02  0.0000000000000E+00  0.7069074516763E-02
 0.9019989396150E-02 -0.5422208100100E-02  0.0000000000000E+00  0.7712837132713E-02
 0.1301824259960E-01 -0.6455416120316E-02  0.0000000000000E+00  0.6668624821666E-02
 0.4956871360007E-03 -0.1891477309821E-01  0.0000000000000E+00  0.7426374210532E-02
 0.1534908844199E-02 -0.1946489474415E-01  0.0000000000000E+00  0.8057807163404E-02
 0.2543414135930E-02 -0.1988646611421E-01  0.0000000000000E+00  0.7989193103000E-02
 0.3340865564436E-02 -0.2007956851789E-01  0.0000000000000E+00  0.7475970285580E-02
 0.3882617282343E-02 -0.2005102261089E-01  0.0000000000000E+00  0.6815957935602E-02
 0.4210438441445E-02 -0.1986355124785E-01  0.0000000000000E+00  0.6195877420149E-02
 0.4387394861234E-02 -0.1958155204677E-01  0.0000000000000E+00  0.5686221874612E-02
 0.4465679242494E-02 -0.1924986262327E-01  0.0000000000000E+00  0.5291814466724E-02
 0.4480601035186E-02 -0.1889446901771E-01  0.0000000000000E+00  0.4993014384461E-02
 0.4454168036935E-02 -0.1852895582628E-01  0.0000000000000E+00  0.4765750224103E-02
 0.4399595318943E-02 -0.1815975338509E-01  0.0000000000000E+00  0.4588512113050E-02
 0.4324515599425E-02 -0.1778923746142E-01  0.0000000000000E+00  0.4444033787700E-02
 0.4233021551094E-02 -0.1741738010555E-01  0.0000000000000E+00  0.4319431355681E-02
 0.4127110311528E-02 -0.1704269750413E-01  0.0000000000000E+00  0.4206171309729E-02
 0.4008026007838E-02 -0.1666305126073E-01  0.0000000000000E+00  0.4099998223063E-02
 0.3877645411930E-02 -0.1627658691305E-01  0.0000000000000E+00  0.4000111876407E-02
 0.3739662033436E-02 -0.1588348712001E-01  0.0000000000000E+00  0.3906220132000E-02
 0.3599474371037E-02 -0.1548686676022E-01  0.0000000000000E+00  0.3814669350604E-02
 0.3461992230421E-02 -0.1508983901167E-01  0.0000000000000E+00  0.3717947274848E-02
 0.3329411018343E-02 -0.1469265541151E-01  0.0000000000000E+00  0.3607192453272E-02
 0.3200825390350E-02 -0.1429306159678E-01  0.0000000000000E+00  0.3474654049075E-02
 0.3073148460030E-02 -0.1388757335921E-01  0.0000000000000E+00  0.3315391708778E-02
 0.2942441199266E-02 -0.1347257935238E-01  0.0000000000000E+00  0.3127615709697E-02
 0.2804968963114E-02 -0.1304490780484E-01  0.0000000000000E+00  0.2912027351249E-02
 0.2657763416470E-02 -0.1260188970371E-01  0.0000000000000E+00  0.2670904179656E-02
 0.2498784515466E-02 -0.1214112999948E-01  0.0000000000000E+00  0.2407477328868E-02
 0.2326869531138E-02 -0.1166015070858E-01  0.0000000000000E+00  0.2125899932498E-02
 0.2141608347328E-02 -0.1115570414606E-01  0.0000000000000E+00  0.1832362750115E-02
 0.1943547578768E-02 -0.1062322216140E-01  0.0000000000000E+00  0.1537198956566E-02
 0.1735230773183E-02 -0.1005727935769E-01  0.0000000000000E+00  0.1256880785937E-02
 0.1523024248217E-02 -0.9452558147153E-02  0.0000000000000E+00  0.1016002960798E-02
 0.1319696917591E-02 -0.8805029093682E-02  0.0000000000000E+00  0.8495440995515E-03
 0.1148122177194E-02 -0.8113895254216E-02  0.0000000000000E+00  0.8050273793780E-03
 0.1046750618140E-02 -0.7384825012328E-02  0.0000000000000E+00  0.9443791839046E-03
 0.1078218237682E-02 -0.6635470737397E-02  0.0000000000000E+00  0.1344717745013E-02
 0.1343811303504E-02 -0.5904989831999E-02  0.0000000000000E+00  0.2095112169058E-02
 0.2007581361612E-02 -0.5270338930623E-02  0.0000000000000E+00  0.3277165127843E-02
 0.3320337530467E-02 -0.4872813179313E-02  0.0000000000000E+00  0.4879152885985E-02
 0.5593319660570E-02 -0.4919358662857E-02  0.0000000000000E+00  0.6597968383262E-02
 0.9038628328539E-02 -0.5574491078790E-02  0.0000000000000E+00  0.7622981211683E-02
 0.1345226497892E-01 -0.6719658645468E-02  0.0000000000000E+00  0.6728758960548E-02
 0.5604191133428E-03 -0.1973197413043E-01  0.0000000000000E+00  0.7767473411890E-02
 0.1726385778116E-02 -0.2033924460521E-01  0.0000000000000E+00  0.8317486906225E-02
 0.2826597616721E-02 -0.2077485929189E-01  0.0000000000000E+00  0.8063066067275E-02
 0.3653418986504E-02 -0.2093199331892E-01  0.0000000000000E+00  0.7356785947704E-02
 0.4180289827350E-02 -0.2084230542738E-01  0.0000000000000E+00  0.6560403551504E-02
 0.4476555634658E-02 -0.2059348694721E-01  0.0000000000000E+00  0.5866320358373E-02
 0.4621951580997E-02 -0.2026112749180E-01  0.0000000000000E+00  0.5324869670822E-02
 0.4674509527175E-02 -0.1989125609809E-01  0.0000000000000E+00  0.4921171073205E-02
 0.4670118101027E-02 -0.1950750194691E-01  0.0000000000000E+00  0.4623397594379E-02
 0.4629768933869E-02 -0.1912081514434E-01  0.0000000000000E+00  0.4401114510423E-02
 0.4565473190297E-02 -0.1873559792207E-01  0.0000000000000E+00  0.4229621321882E-02
 0.4483820734683E-02 -0.1835282131506E-01  0.0000000000000E+00  0.4089967263945E-02
 0.4388012165712E-02 -0.1797147600853E-01  0.0000000000000E+00  0.3968239610792E-02
 0.4279205013426E-02 -0.1758928565278E-01  0.0000000000000E+00  0.3855233946558E-02
 0.4157840803106E-02 -0.1720334992067E-01  0.0000000000000E+00  0.3746490743310E-02
 0.4025221664103E-02 -0.1681111550691E-01  0.0000000000000E+00  0.3641670347830E-02
 0.3884988599797E-02 -0.1641235012187E-01  0.0000000000000E+00  0.3541340256787E-02
 0.3743022728746E-02 -0.1601015505335E-01  0.0000000000000E+00  0.3442332125005E-02
 0.3604799576798E-02 -0.1560777654038E-01  0.0000000000000E+00  0.3336815093585E-02
 0.3472681997089E-02 -0.1520545631260E-01  0.0000000000000E+00  0.3215206092701E-02
 0.3345481750812E-02 -0.1480083120135E-01  0.0000000000000E+00  0.3069291189431E-02
 0.3219655610620E-02 -0.1439042350685E-01  0.0000000000000E+00  0.2894171168535E-02
 0.3090902737177E-02 -0.1397087392521E-01  0.0000000000000E+00  0.2688367678734E-02
 0.2955314059998E-02 -0.1353948312025E-01  0.0000000000000E+00  0.2452799860195E-02
 0.2809889427924E-02 -0.1309417257245E-01  0.0000000000000E+00  0.2189618384995E-02
 0.2652593089993E-02 -0.1263315046082E-01  0.0000000000000E+00  0.1901455652211E-02
 0.2482158976561E-02 -0.1215445204897E-01  0.0000000000000E+00  0.1591341285453E-02
 0.2297786718738E-02 -0.1165511641514E-01  0.0000000000000E+00  0.1263878265457E-02
 0.2099180263766E-02 -0.1113048280593E-01  0.0000000000000E+00  0.9275418345098E-03
 0.1887492330507E-02 -0.1057452847747E-01  0.0000000000000E+00  0.5969258087362E-03
 0.1667085960680E-02 -0.9980675190133E-02  0.0000000000000E+00  0.2950089980583E-03
 0.1448019699567E-02 -0.9342707263054E-02  0.0000000000000E+00  0.5584115593693E-04
 0.1249625293753E-02 -0.8656337428006E-02  0.0000000000000E+00 -0.7251345102299E-04
 0.1105885261206E-02 -0.7921916711643E-02  0.0000000000000E+00 -0.2456798788253E-04
 0.1074277271927E-02 -0.7149332316248E-02  0.0000000000000E+00  0.2867027149566E-03
 0.1252184835972E-02 -0.6367519936213E-02  0.0000000000000E+00  0.9737077145886E-03
 0.1808810112160E-02 -0.5644332112028E-02  0.0000000000000E+00  0.2166477298369E-02
 0.3029120467231E-02 -0.5127917485959E-02  0.0000000000000E+00  0.3929580881913E-02
 0.5312909595508E-02 -0.5073316853249E-02  0.0000000000000E+00  0.6014672372790E-02
 0.8997944676316E-02 -0.5730763455597E-02  0.0000000000000E+00  0.7507078947971E-02
 0.1390657354919E-01 -0.7006528734112E-02  0.0000000000000E+00  0.6810870015140E-02
 0.6386896700175E-03 -0.2059437917823E-01  0.0000000000000E+00  0.8149116389568E-02
 0.1953878827025E-02 -0.2126502791855E-01  0.0000000000000E+00  0.8588003182621E-02
 0.3151489337489E-02 -0.2170475943794E-01  0.0000000000000E+00  0.8100460404276E-02
 0.3996071274766E-02 -0.2180567262752E-01  0.0000000000000E+00  0.7174388998313E-02
 0.4493003664570E-02 -0.2163760692878E-01  0.0000000000000E+00  0.6241787361610E-02
 0.4747438614454E-02 -0.2131832374032E-01  0.0000000000000E+00  0.5486367166490E-02
 0.4856202228959E-02 -0.2093256106415E-01  0.0000000000000E+00  0.4926545031846E-02
 0.4881074818617E-02 -0.2052439198535E-01  0.0000000000000E+00  0.4523799510398E-02
 0.4856880584290E-02 -0.2011322123535E-01  0.0000000000000E+00  0.4234146285501E-02
 0.4802756173515E-02 -0.1970656284043E-01  0.0000000000000E+00  0.4021687842726E-02
 0.4729143620880E-02 -0.1930650823409E-01  0.0000000000000E+00  0.3859333559864E-02
 0.4641457069244E-02 -0.1891257767854E-01  0.0000000000000E+00  0.3727003791625E-02
 0.4541976562973E-02 -0.1852284368532E-01  0.0000000000000E+00  0.3610059684147E-02
 0.4431001871450E-02 -0.1813432110895E-01  0.0000000000000E+00  0.3498694249420E-02
 0.4308094991340E-02 -0.1774336912232E-01  0.0000000000000E+00  0.3388183847923E-02
 0.4173864963159E-02 -0.1734666312166E-01  0.0000000000000E+00  0.3278663537484E-02
 0.4031853091043E-02 -0.1694344759122E-01  0.0000000000000E+00  0.3171744474442E-02
 0.3888502313316E-02 -0.1653673296761E-01  0.0000000000000E+00  0.3064934303812E-02
 0.3749949800122E-02 -0.1612983871157E-01  0.0000000000000E+00  0.2950127338167E-02
 0.3618719103297E-02 -0.1572293060327E-01  0.0000000000000E+00  0.2817038914737E-02
 0.3493262499592E-02 -0.1531351413553E-01  0.0000000000000E+00  0.2657160043168E-02
 0.3369539826538E-02 -0.1489819524265E-01  0.0000000000000E+00  0.2465909142703E-02
 0.3242928048373E-02 -0.1447402936963E-01  0.0000000000000E+00  0.2242353982413E-02
 0.3109438548768E-02 -0.1403898189344E-01  0.0000000000000E+00  0.1987744050922E-02
 0.2966155489304E-02 -0.1359174936640E-01  0.0000000000000E+00  0.1704108736545E-02
 0.2811173270408E-02 -0.1313132175969E-01  0.0000000000000E+00  0.1393414707330E-02
 0.2643254200451E-02 -0.1265643960731E-01  0.0000000000000E+00  0.1057423062563E-02
 0.2461328644775E-02 -0.1216464708010E-01  0.0000000000000E+00  0.6988963063642E-03
 0.2264349948629E-02 -0.1165144237248E-01  0.0000000000000E+00  0.3240698848943E-03
 0.2052138029882E-02 -0.1111049655646E-01  0.0000000000000E+00 -0.5489190425678E-04
 0.1827062826177E-02 -0.1053429168211E-01  0.0000000000000E+00 -0.4174438920967E-03
 0.1596380342689E-02 -0.9914733285222E-02  0.0000000000000E+00 -0.7316887906330E-03
 0.1375571124147E-02 -0.9244252740221E-02  0.0000000000000E+00 -0.9508288892378E-03
 0.1193367433400E-02 -0.8517798062019E-02  0.0000000000000E+00 -0.1008489712929E-02
 0.1100184895396E-02 -0.7736534813261E-02  0.0000000000000E+00 -0.8115286579859E-03
 0.1185160542437E-02 -0.6915882404249E-02  0.0000000000000E+00 -0.2280326995944E-03
 0.1614911199286E-02 -0.6106726871091E-02  0.0000000000000E+00  0.9228544017688E-03
 0.2702464386803E-02 -0.5453122038525E-02  0.0000000000000E+00  0.2805462476091E-02
 0.4951001621213E-02 -0.5258846891619E-02  0.0000000000000E+00  0.5277691644751E-02
 0.8880085528669E-02 -0.5892956564365E-02  0.0000000000000E+00  0.7345870361818E-02
 0.1438733042849E-01 -0.7321504891950E-02  0.0000000000000E+00  0.6921396820033E-02
 0.7350690838584E-03 -0.2151356602939E-01  0.0000000000000E+00  0.8578085529798E-02
 0.2227443619399E-02 -0.2225335548589E-01  0.0000000000000E+00  0.8862580117103E-02
 0.3525278856585E-02 -0.2267994451802E-01  0.0000000000000E+00  0.8081080315656E-02
 0.4369179079595E-02 -0.2269675618669E-01  0.0000000000000E+00  0.6909850309785E-02
 0.4817367900394E-02 -0.2243057807329E-01  0.0000000000000E+00  0.5850224373051E-02
 0.5019430998132E-02 -0.2203282371913E-01  0.0000000000000E+00  0.5053206859411E-02
 0.5087459284419E-02 -0.2159240822300E-01  0.0000000000000E+00  0.4491611648793E-02
 0.5083607624399E-02 -0.2114714681739E-01  0.0000000000000E+00  0.4101018090147E-02
 0.5039743187271E-02 -0.2071031909983E-01  0.0000000000000E+00  0.3826689396540E-02
 0.4972367976005E-02 -0.2028536422538E-01  0.0000000000000E+00  0.3628744130383E-02
 0.4890065923157E-02 -0.1987190093901E-01  0.0000000000000E+00  0.3478731447820E-02
 0.4797005084407E-02 -0.1946803779542E-01  0.0000000000000E+00  0.3356107379766E-02
 0.4694574322663E-02 -0.1907106512173E-01  0.0000000000000E+00  0.3245858649566E-02
 0.4582248922572E-02 -0.1867744566837E-01  0.0000000000000E+00  0.3137627206939E-02
 0.4458655369309E-02 -0.1828287458276E-01  0.0000000000000E+00  0.3026272407738E-02
 0.4323567420182E-02 -0.1788318838088E-01  0.0000000000000E+00  0.2912313235445E-02
 0.4180348540774E-02 -0.1747695737683E-01  0.0000000000000E+00  0.2798554492659E-02
 0.4036081458183E-02 -0.1706696455652E-01  0.0000000000000E+00  0.2683382557687E-02
 0.3897661093372E-02 -0.1665648288999E-01  0.0000000000000E+00  0.2558470006592E-02
 0.3767737587370E-02 -0.1624549213487E-01  0.0000000000000E+00  0.2412902191011E-02
 0.3644303182746E-02 -0.1583134614197E-01  0.0000000000000E+00  0.2238158096850E-02
 0.3522792021975E-02 -0.1541086128342E-01  0.0000000000000E+00  0.2030355464658E-02
 0.3398333903973E-02 -0.1498173163684E-01  0.0000000000000E+00  0.1789378993404E-02
 0.3266986594656E-02 -0.1454281968136E-01  0.0000000000000E+00  0.1516901404807E-02
 0.3126050312149E-02 -0.1409379423362E-01  0.0000000000000E+00  0.1214809132816E-02
 0.2973884446329E-02 -0.1363460439916E-01  0.0000000000000E+00  0.8843358027235E-03
 0.2809426646563E-02 -0.1316489147984E-01  0.0000000000000E+00  0.5258567782616E-03
 0.2631483802072E-02 -0.1268294334517E-01  0.0000000000000E+00  0.1400823664994E-03
 0.2438386287496E-02 -0.1218471433041E-01  0.0000000000000E+00 -0.2693239500918E-03
 0.2228736235119E-02 -0.1166394255562E-01  0.0000000000000E+00 -0.6931282187324E-03
 0.2003010275177E-02 -0.1111261874903E-01  0.0000000000000E+00 -0.1114015527236E-02
 0.1765698440644E-02 -0.1052125982369E-01  0.0000000000000E+00 -0.1503503115374E-02
 0.1528310598976E-02 -0.9879499391960E-02  0.0000000000000E+00 -0.1818003386051E-02
 0.1313850345536E-02 -0.9177256035989E-02  0.0000000000000E+00 -0.1993323284835E-02
 0.1164170765118E-02 -0.8406775100083E-02  0.0000000000000E+00 -0.1935248651962E-02
 0.1155739528660E-02 -0.7567459713570E-02  0.0000000000000E+00 -0.1499710225552E-02
 0.1442207001606E-02 -0.6684330505104E-02  0.0000000000000E+00 -0.4591165855659E-03
 0.2351033080644E-02 -0.5879855330383E-02  0.0000000000000E+00  0.1471565395728E-02
 0.4497819632973E-02 -0.5497533298186E-02  0.0000000000000E+00  0.4328719831750E-02
 0.8660099769460E-02 -0.6065529024073E-02  0.0000000000000E+00  0.7105679304167E-02
 0.1490222401188E-01 -0.7672331564891E-02  0.0000000000000E+00  0.7068614273087E-02
 0.8563401304622E-03 -0.2250594949177E-01  0.0000000000000E+00  0.9062590259834E-02
 0.2560750629869E-02 -0.2331849566893E-01  0.0000000000000E+00  0.9128131068513E-02
 0.3955632554462E-02 -0.2370263694300E-01  0.0000000000000E+00  0.7975249030780E-02
 0.4770795104886E-02 -0.2359765786567E-01  0.0000000000000E+00  0.6540410689496E-02
 0.5147898974446E-02 -0.2321238899972E-01  0.0000000000000E+00  0.5376968713876E-02
 0.5287956367467E-02 -0.2273090785551E-01  0.0000000000000E+00  0.4566187065025E-02
 0.5312805136850E-02 -0.2223711933370E-01  0.0000000000000E+00  0.4021937542434E-02
 0.5280341968059E-02 -0.2175749027204E-01  0.0000000000000E+00  0.3655019854665E-02
 0.5217623826015E-02 -0.2129761892010E-01  0.0000000000000E+00  0.3402951275815E-02
 0.5137912690601E-02 -0.2085650378929E-01  0.0000000000000E+00  0.3223817695641E-02
 0.5047752425849E-02 -0.2043127952810E-01  0.0000000000000E+00  0.3089010465716E-02
 0.4950068308461E-02 -0.2001877576833E-01  0.0000000000000E+00  0.2978268395099E-02
 0.4845452646860E-02 -0.1961571186600E-01  0.0000000000000E+00  0.2876604574321E-02
 0.4732656704965E-02 -0.1921824344530E-01  0.0000000000000E+00  0.2773153860416E-02
 0.4609354054818E-02 -0.1882156234714E-01  0.0000000000000E+00  0.2662088313660E-02
 0.4474316576538E-02 -0.1842062102343E-01  0.0000000000000E+00  0.2544053690923E-02
 0.4330605072743E-02 -0.1801310741823E-01  0.0000000000000E+00  0.2423116003533E-02
 0.4186005805282E-02 -0.1760134224559E-01  0.0000000000000E+00  0.2298739365659E-02
 0.4048253436683E-02 -0.1718833097661E-01  0.0000000000000E+00  0.2162448367708E-02
 0.3920046716090E-02 -0.1677369487032E-01  0.0000000000000E+00  0.2002872889863E-02
 0.3798793802505E-02 -0.1635463551988E-01  0.0000000000000E+00  0.1811942842950E-02
 0.3679405405378E-02 -0.1592839053832E-01  0.0000000000000E+00  0.1586986957493E-02
 0.3556893067107E-02 -0.1549360094936E-01  0.0000000000000E+00  0.1328993626519E-02
 0.3427523621556E-02 -0.1505030303252E-01  0.0000000000000E+00  0.1040098120933E-02
 0.3288955098421E-02 -0.1459933881349E-01  0.0000000000000E+00  0.7219713445773E-03
 0.3139946087688E-02 -0.1414177823736E-01  0.0000000000000E+00  0.3750427427530E-03
 0.2979765023350E-02 -0.1367834907775E-01  0.0000000000000E+00 -0.1773182627396E-05
 0.2807262847498E-02 -0.1320833382247E-01  0.0000000000000E+00 -0.4099655381693E-03
 0.2620309568971E-02 -0.1272848483755E-01  0.0000000000000E+00 -0.8486935857744E-03
 0.2416466607408E-02 -0.1223306952769E-01  0.0000000000000E+00 -0.1312064644860E-02
 0.2194518700522E-02 -0.1171417518977E-01  0.0000000000000E+00 -0.1786727763709E-02
 0.1956370616589E-02 -0.1116161496604E-01  0.0000000000000E+00 -0.2248859915818E-02
 0.1709659262240E-02 -0.1056300070311E-01  0.0000000000000E+00 -0.2660047473923E-02
 0.1471575698948E-02 -0.9904123173062E-02  0.0000000000000E+00 -0.2961489304187E-02
 0.1274643803890E-02 -0.9169160904387E-02  0.0000000000000E+00 -0.3063766073776E-02
 0.1179038015830E-02 -0.8340791023213E-02  0.0000000000000E+00 -0.2821556943689E-02
 0.1313287524077E-02 -0.7410052019415E-02  0.0000000000000E+00 -0.1974509529046E-02
 0.1995417028118E-02 -0.6453217705816E-02  0.0000000000000E+00 -0.1072863072081E-03
 0.3947685661842E-02 -0.5826421971721E-02  0.0000000000000E+00  0.3087131696756E-02
 0.8303189448649E-02 -0.6258812503283E-02  0.0000000000000E+00  0.6727174678110E-02
 0.1546058922799E-01 -0.8070778153463E-02  0.0000000000000E+00  0.7262161773937E-02
 0.1012907059428E-02 -0.2359568046260E-01  0.0000000000000E+00  0.9612338454063E-02
 0.2972536920198E-02 -0.2447863474269E-01  0.0000000000000E+00  0.9359992902275E-02
 0.4449607689662E-02 -0.2477114881447E-01  0.0000000000000E+00  0.7739821166690E-02
 0.5195010694256E-02 -0.2449504997666E-01  0.0000000000000E+00  0.6040507852337E-02
 0.5476562380264E-02 -0.2397151630968E-01  0.0000000000000E+00  0.4816629029470E-02
 0.5547722824384E-02 -0.2340604421066E-01  0.0000000000000E+00  0.4027772885773E-02
 0.5529293406377E-02 -0.2286328978723E-01  0.0000000000000E+00  0.3521079929275E-02
 0.5469618659436E-02 -0.2235361066335E-01  0.0000000000000E+00  0.3188895003635E-02
 0.5389565328720E-02 -0.2187414970904E-01  0.0000000000000E+00  0.2965335452509E-02
 0.5298806740714E-02 -0.2141942934227E-01  0.0000000000000E+00  0.2808671004251E-02
 0.5201792101188E-02 -0.2098426244203E-01  0.0000000000000E+00  0.2691442222211E-02
 0.5100286420659E-02 -0.2056442586774E-01  0.0000000000000E+00  0.2594457684768E-02
 0.4994244974409E-02 -0.2015634578837E-01  0.0000000000000E+00  0.2503211293196E-02
 0.4881879349528E-02 -0.1975621637477E-01  0.0000000000000E+00  0.2406399479256E-02
 0.4759961105826E-02 -0.1935901572977E-01  0.0000000000000E+00  0.2297107793177E-02
 0.4626077697986E-02 -0.1895882901954E-01  0.0000000000000E+00  0.2175598035106E-02
 0.4482795566151E-02 -0.1855218224896E-01  0.0000000000000E+00  0.2047091817920E-02
 0.4338628497950E-02 -0.1814053461615E-01  0.0000000000000E+00  0.1912288682658E-02
 0.4202189779658E-02 -0.1772623024354E-01  0.0000000000000E+00  0.1762686450120E-02
 0.4076081594804E-02 -0.1730827455832E-01  0.0000000000000E+00  0.1586834394861E-02
 0.3956990567654E-02 -0.1688377494093E-01  0.0000000000000E+00  0.1377853957674E-02
 0.3839370984663E-02 -0.1645073938151E-01  0.0000000000000E+00  0.1134943618146E-02
 0.3718323027491E-02 -0.1600917590486E-01  0.0000000000000E+00  0.8604545885658E-03
 0.3590525860926E-02 -0.1556061567058E-01  0.0000000000000E+00  0.5569212316725E-03
 0.3454137176199E-02 -0.1510726503187E-01  0.0000000000000E+00  0.2256445564170E-03
 0.3308433790459E-02 -0.1465144081492E-01  0.0000000000000E+00 -0.1338306538767E-03
 0.3153168246380E-02 -0.1419511353789E-01  0.0000000000000E+00 -0.5240650379043E-03
 0.2987419721275E-02 -0.1373881154928E-01  0.0000000000000E+00 -0.9487980164243E-03
 0.2808793917666E-02 -0.1328047103863E-01  0.0000000000000E+00 -0.1410140403524E-02
 0.2614056143873E-02 -0.1281544900813E-01  0.0000000000000E+00 -0.1905815895765E-02
 0.2400614367752E-02 -0.1233666826592E-01  0.0000000000000E+00 -0.2427066335373E-02
 0.2168121385396E-02 -0.1183412149749E-01  0.0000000000000E+00 -0.2955905970485E-02
 0.1920660424473E-02 -0.1129445783351E-01  0.0000000000000E+00 -0.3460954251994E-02
 0.1669962637693E-02 -0.1070077662105E-01  0.0000000000000E+00 -0.3891826700472E-02
 0.1439449493274E-02 -0.1003125975075E-01  0.0000000000000E+00 -0.4169807278215E-02
 0.1271328542959E-02 -0.9253977561485E-02  0.0000000000000E+00 -0.4161605703626E-02
 0.1257554682265E-02 -0.8322052958733E-02  0.0000000000000E+00 -0.3600304252612E-02
 0.1671381218190E-02 -0.7236488325637E-02  0.0000000000000E+00 -0.1956716277089E-02
 0.3306062306625E-02 -0.6309309686729E-02  0.0000000000000E+00  0.1445436979341E-02
 0.7761714925258E-02 -0.6496743590720E-02  0.0000000000000E+00  0.6105257270978E-02
 0.1607313278947E-01 -0.8536560404642E-02  0.0000000000000E+00  0.7509852518728E-02
 0.1221314464345E-02 -0.2481990487095E-01  0.0000000000000E+00  0.1023799002261E-01
 0.3488524216692E-02 -0.2575621922417E-01  0.0000000000000E+00  0.9511779416747E-02
 0.5011056181764E-02 -0.2587510011265E-01  0.0000000000000E+00  0.7313056902016E-02
 0.5629545391222E-02 -0.2536731335534E-01  0.0000000000000E+00  0.5385385519607E-02
 0.5792686329610E-02 -0.2469423868641E-01  0.0000000000000E+00  0.4170507901020E-02
 0.5793231360721E-02 -0.2405194746900E-01  0.0000000000000E+00  0.3444249174923E-02
 0.5734194623383E-02 -0.2346792299004E-01  0.0000000000000E+00  0.2994272170965E-02
 0.5649994003917E-02 -0.2293404751608E-01  0.0000000000000E+00  0.2706606653410E-02
 0.5554801549182E-02 -0.2243922315401E-01  0.0000000000000E+00  0.2516673493322E-02
 0.5454611845669E-02 -0.2197379357966E-01  0.0000000000000E+00  0.2385244719760E-02
 0.5351874653464E-02 -0.2153061129578E-01  0.0000000000000E+00  0.2287330843002E-02
 0.5247351446255E-02 -0.2110470365023E-01  0.0000000000000E+00  0.2205573125793E-02
 0.5140571782754E-02 -0.2069252472490E-01  0.0000000000000E+00  0.2126464049940E-02
 0.5029489456411E-02 -0.2029075415897E-01  0.0000000000000E+00  0.2038422684225E-02
 0.4910141031978E-02 -0.1989463945593E-01  0.0000000000000E+00  0.1932946898977E-02
 0.4778761192430E-02 -0.1949756149952E-01  0.0000000000000E+00  0.1809032723208E-02
 0.4637141078578E-02 -0.1909452896226E-01  0.0000000000000E+00  0.1672606240630E-02
 0.4494455965654E-02 -0.1868545885367E-01  0.0000000000000E+00  0.1525633110462E-02
 0.4360135624887E-02 -0.1827134008783E-01  0.0000000000000E+00  0.1359815940282E-02
 0.4236443076144E-02 -0.1785019906367E-01  0.0000000000000E+00  0.1164384160880E-02
 0.4119224916384E-02 -0.1741924776491E-01  0.0000000000000E+00  0.9348098273879E-03
 0.4002666648949E-02 -0.1697783426479E-01  0.0000000000000E+00  0.6729552200021E-03
 0.3882269411958E-02 -0.1652789105474E-01  0.0000000000000E+00  0.3826844970197E-03
 0.3755367291387E-02 -0.1607280123296E-01  0.0000000000000E+00  0.6670122359664E-04
 0.3620744762515E-02 -0.1561629892414E-01  0.0000000000000E+00 -0.2743365950808E-03
 0.3478280146938E-02 -0.1516201217819E-01  0.0000000000000E+00 -0.6418691341427E-03
 0.3328344768918E-02 -0.1471325138413E-01  0.0000000000000E+00 -0.1039862113982E-02
 0.3170438870451E-02 -0.1427202392397E-01  0.0000000000000E+00 -0.1474214069759E-02
 0.3002132193767E-02 -0.1383788168345E-01  0.0000000000000E+00 -0.1949939677217E-02
 0.2819713792755E-02 -0.1340794472248E-01  0.0000000000000E+00 -0.2468468171919E-02
 0.2619656784302E-02 -0.1297687188215E-01  0.0000000000000E+00 -0.3026121016219E-02
 0.2399850470583E-02 -0.1253591393519E-01  0.0000000000000E+00 -0.3611821464933E-02
 0.2161339242018E-02 -0.1207206043020E-01  0.0000000000000E+00 -0.4202870687989E-02
 0.1911158912431E-02 -0.1156761177154E-01  0.0000000000000E+00 -0.4759775633905E-02
 0.1664920970815E-02 -0.1099799296979E-01  0.0000000000000E+00 -0.5219499995165E-02
 0.1448132931621E-02 -0.1032216169440E-01  0.0000000000000E+00 -0.5473679978536E-02
 0.1310013001659E-02 -0.9460306439906E-02  0.0000000000000E+00 -0.5285238601952E-02
 0.1436200196942E-02 -0.8314571620408E-02  0.0000000000000E+00 -0.4073016128099E-02
 0.2603637038429E-02 -0.7055631321115E-02  0.0000000000000E+00 -0.7285297079322E-03
 0.6973803661527E-02 -0.6834790616224E-02  0.0000000000000E+00  0.5053884539071E-02
 0.1675072651025E-01 -0.9106833530992E-02  0.0000000000000E+00  0.7805859570628E-02
 0.1508902214519E-02 -0.2623897375272E-01  0.0000000000000E+00  0.1094845364969E-01
 0.4143554729080E-02 -0.2717622779118E-01  0.0000000000000E+00  0.9495149855194E-02
 0.5634840842448E-02 -0.2698584533541E-01  0.0000000000000E+00  0.6610075162955E-02
 0.6052733983839E-02 -0.2618232415822E-01  0.0000000000000E+00  0.4560109791298E-02
 0.6083895353326E-02 -0.2536663132780E-01  0.0000000000000E+00  0.3450557599944E-02
 0.6019595308745E-02 -0.2466341649737E-01  0.0000000000000E+00  0.2825537155200E-02
 0.5925201252015E-02 -0.2404863663139E-01  0.0000000000000E+00  0.2448270674624E-02
 0.5820355088051E-02 -0.2349784439167E-01  0.0000000000000E+00  0.2212926805148E-02
 0.5712824058858E-02 -0.2299250146592E-01  0.0000000000000E+00  0.2060123522568E-02
 0.5605067118330E-02 -0.2251949067539E-01  0.0000000000000E+00  0.1955595977848E-02
 0.5497814397648E-02 -0.2207025775556E-01  0.0000000000000E+00  0.1877964436076E-02
 0.5391028102370E-02 -0.2163943149613E-01  0.0000000000000E+00  0.1812384162277E-02
 0.5284048108915E-02 -0.2122381950110E-01  0.0000000000000E+00  0.1746925272247E-02
 0.5174948275918E-02 -0.2082110324383E-01  0.0000000000000E+00  0.1670097232843E-02
 0.5059384701165E-02 -0.2042755973620E-01  0.0000000000000E+00  0.1571326757232E-02
 0.4932163367324E-02 -0.2003634844785E-01  0.0000000000000E+00  0.1446952792671E-02
 0.4793915459161E-02 -0.1964056195147E-01  0.0000000000000E+00  0.1302476071260E-02
 0.4654220791043E-02 -0.1923739619135E-01  0.0000000000000E+00  0.1140838044611E-02
 0.4523046554626E-02 -0.1882525733405E-01  0.0000000000000E+00  0.9544379629017E-03
 0.4401945416276E-02 -0.1840072487590E-01  0.0000000000000E+00  0.7346879451872E-03
 0.4285905011112E-02 -0.1796162202613E-01  0.0000000000000E+00  0.4811728667010E-03
 0.4169236704732E-02 -0.1750954220579E-01  0.0000000000000E+00  0.1992612106279E-03
 0.4048282787620E-02 -0.1704904685486E-01  0.0000000000000E+00 -0.1057642748798E-03
 0.3921303080503E-02 -0.1658574140148E-01  0.0000000000000E+00 -0.4314959818116E-03
 0.3787802964560E-02 -0.1612500504517E-01  0.0000000000000E+00 -0.7783501034991E-03
 0.3648282717983E-02 -0.1567174904695E-01  0.0000000000000E+00 -0.1148895652219E-02
 0.3503821570246E-02 -0.1523061419086E-01  0.0000000000000E+00 -0.1548323304195E-02
 0.3354529169322E-02 -0.1480527175439E-01  0.0000000000000E+00 -0.1984385303585E-02
 0.3198202741318E-02 -0.1439737948220E-01  0.0000000000000E+00 -0.2464696649620E-02
 0.3031064615965E-02 -0.1400663660976E-01  0.0000000000000E+00 -0.2994248606716E-02
 0.2849233957869E-02 -0.1363050511627E-01  0.0000000000000E+00 -0.3574766729580E-02
 0.2649482064990E-02 -0.1326275633381E-01  0.0000000000000E+00 -0.4203015679716E-02
 0.2430469062624E-02 -0.1289221951687E-01  0.0000000000000E+00 -0.4866382374536E-02
 0.2195590496605E-02 -0.1250253768063E-01  0.0000000000000E+00 -0.5537847855628E-02
 0.1954886138065E-02 -0.1207052421710E-01  0.0000000000000E+00 -0.6173091173370E-02
 0.1721356660296E-02 -0.1155437132848E-01  0.0000000000000E+00 -0.6697664352672E-02
 0.1506348357499E-02 -0.1085885902191E-01  0.0000000000000E+00 -0.6939796613406E-02
 0.1373552722194E-02 -0.9791504968320E-02  0.0000000000000E+00 -0.6386629910987E-02
 0.1922903546093E-02 -0.8249691300532E-02  0.0000000000000E+00 -0.3566633149631E-02
 0.5869645088940E-02 -0.7401835699373E-02  0.0000000000000E+00  0.3247997844567E-02
 0.1750185274967E-01 -0.9860848633810E-02  0.0000000000000E+00  0.8093304530296E-02
 0.1922642462611E-02 -0.2795812134371E-01  0.0000000000000E+00  0.1174064866529E-01
 0.4982449147525E-02 -0.2875640834180E-01  0.0000000000000E+00  0.9137939330180E-02
 0.6294455552620E-02 -0.2803796383032E-01  0.0000000000000E+00  0.5526113605730E-02
 0.6431340372904E-02 -0.2689918555332E-01  0.0000000000000E+00  0.3578435918308E-02
 0.6339101972068E-02 -0.2597865988416E-01  0.0000000000000E+00  0.2681091170952E-02
 0.6223287715486E-02 -0.2523662438471E-01  0.0000000000000E+00  0.2183668270204E-02
 0.6100523884894E-02 -0.2460391162764E-01  0.0000000000000E+00  0.1891408269289E-02
 0.5980076329765E-02 -0.2404471046651E-01  0.0000000000000E+00  0.1713221385740E-02
 0.5863427694646E-02 -0.2353403665251E-01  0.0000000000000E+00  0.1599035062839E-02
 0.5750116448982E-02 -0.2305669202103E-01  0.0000000000000E+00  0.1521831421162E-02
 0.5639571991173E-02 -0.2260332421687E-01  0.0000000000000E+00  0.1464560542614E-02
 0.5531178311041E-02 -0.2216856815600E-01  0.0000000000000E+00  0.1415485981856E-02
 0.5424305977775E-02 -0.2174985197279E-01  0.0000000000000E+00  0.1364827097929E-02
 0.5317578036439E-02 -0.2134634944868E-01  0.0000000000000E+00  0.1301919005418E-02
 0.5206903894505E-02 -0.2095647438828E-01  0.0000000000000E+00  0.1213966236304E-02
 0.5085857318477E-02 -0.2057431880494E-01  0.0000000000000E+00  0.1092656483360E-02
 0.4953448350177E-02 -0.2019076583322E-01  0.0000000000000E+00  0.9405961977488E-03
 0.4819004034909E-02 -0.1979818673410E-01  0.0000000000000E+00  0.7606446456958E-03
 0.4692297924100E-02 -0.1939019754678E-01  0.0000000000000E+00  0.5470202554743E-03
 0.4573667168819E-02 -0.1896144991142E-01  0.0000000000000E+00  0.2962500436557E-03
 0.4457501411064E-02 -0.1851152135587E-01  0.0000000000000E+00  0.1458245248420E-04
 0.4338958658875E-02 -0.1804562607960E-01  0.0000000000000E+00 -0.2884690090583E-03
 0.4215788204746E-02 -0.1757177191442E-01  0.0000000000000E+00 -0.6067389547580E-03
 0.4087448162598E-02 -0.1709812778496E-01  0.0000000000000E+00 -0.9388660580680E-03
 0.3954210298210E-02 -0.1663177928909E-01  0.0000000000000E+00 -0.1286963094511E-02
 0.3817122530324E-02 -0.1617877247119E-01  0.0000000000000E+00 -0.1654972467307E-02
 0.3677968163119E-02 -0.1574488062002E-01  0.0000000000000E+00 -0.2049003908764E-02
 0.3537626304471E-02 -0.1533551921687E-01  0.0000000000000E+00 -0.2478015515575E-02
 0.3394436312408E-02 -0.1495504204750E-01  0.0000000000000E+00 -0.2951536714565E-02
 0.3245084628521E-02 -0.1460674540438E-01  0.0000000000000E+00 -0.3477720769490E-02
 0.3086058812366E-02 -0.1429211845954E-01  0.0000000000000E+00 -0.4063890202719E-02
 0.2913812915787E-02 -0.1400885616065E-01  0.0000000000000E+00 -0.4715372698289E-02
 0.2725384790544E-02 -0.1374934081792E-01  0.0000000000000E+00 -0.5430851762525E-02
 0.2521551341594E-02 -0.1350059404186E-01  0.0000000000000E+00 -0.6196464838002E-02
 0.2309790389234E-02 -0.1324521156885E-01  0.0000000000000E+00 -0.6986302690002E-02
 0.2096312038696E-02 -0.1295070987297E-01  0.0000000000000E+00 -0.7763069197742E-02
 0.1871984046467E-02 -0.1253339561443E-01  0.0000000000000E+00 -0.8434280761687E-02
 0.1588812009876E-02 -0.1177039993081E-01  0.0000000000000E+00 -0.8705106740516E-02
 0.1443799038414E-02 -0.1018703314935E-01  0.0000000000000E+00 -0.7112512103350E-02
 0.4404249463729E-02 -0.8498003557741E-02  0.0000000000000E+00  0.1433534256778E-03
 0.1832902997100E-01 -0.1099057809589E-01  0.0000000000000E+00  0.8149503039412E-02
 0.2545901996054E-02 -0.3017958921037E-01  0.0000000000000E+00  0.1256068927709E-01
 0.6053217030650E-02 -0.3046608661620E-01  0.0000000000000E+00  0.8094652853611E-02
 0.6916728316322E-02 -0.2889849835827E-01  0.0000000000000E+00  0.3975009428860E-02
 0.6724939217733E-02 -0.2748482910466E-01  0.0000000000000E+00  0.2513163562574E-02
 0.6554010857236E-02 -0.2652742136952E-01  0.0000000000000E+00  0.1890116106243E-02
 0.6401631961433E-02 -0.2576835182612E-01  0.0000000000000E+00  0.1532140314424E-02
 0.6259193086000E-02 -0.2513383070210E-01  0.0000000000000E+00  0.1333797127157E-02
 0.6129168588790E-02 -0.2457496694871E-01  0.0000000000000E+00  0.1212863670359E-02
 0.6006708336322E-02 -0.2406434533819E-01  0.0000000000000E+00  0.1136922192812E-02
 0.5889945627184E-02 -0.2358585887850E-01  0.0000000000000E+00  0.1085984136245E-02
 0.5777263948555E-02 -0.2313014167384E-01  0.0000000000000E+00  0.1048224806222E-02
 0.5667789789686E-02 -0.2269223487396E-01  0.0000000000000E+00  0.1015269417223E-02
 0.5561042327034E-02 -0.2227036413384E-01  0.0000000000000E+00  0.9799811417991E-03
 0.5456557575285E-02 -0.2186545310311E-01  0.0000000000000E+00  0.9337035349116E-03
 0.5351470727550E-02 -0.2147943577791E-01  0.0000000000000E+00  0.8623027150971E-03
 0.5238985245419E-02 -0.2110985266052E-01  0.0000000000000E+00  0.7504237822636E-03
 0.5116126111799E-02 -0.2074569838707E-01  0.0000000000000E+00  0.5926215596623E-03
 0.4990453214747E-02 -0.2037058125178E-01  0.0000000000000E+00  0.3887760680839E-03
 0.4869875689247E-02 -0.1996925003748E-01  0.0000000000000E+00  0.1376446222805E-03
 0.4752990310640E-02 -0.1953433604012E-01  0.0000000000000E+00 -0.1534388401867E-03
 0.4634504549983E-02 -0.1906955960875E-01  0.0000000000000E+00 -0.4682334170925E-03
 0.4511595219130E-02 -0.1858568309448E-01  0.0000000000000E+00 -0.7932034949797E-03
 0.4384048304382E-02 -0.1809497951523E-01  0.0000000000000E+00 -0.1122505860104E-02
 0.4252748853465E-02 -0.1760842589232E-01  0.0000000000000E+00 -0.1456855174727E-02
 0.4118732481956E-02 -0.1713483298407E-01  0.0000000000000E+00 -0.1800876156127E-02
 0.3983398431269E-02 -0.1668111503242E-01  0.0000000000000E+00 -0.2160363097992E-02
 0.3849045810544E-02 -0.1625363772235E-01  0.0000000000000E+00 -0.2541952846469E-02
 0.3717403680767E-02 -0.1585941432014E-01  0.0000000000000E+00 -0.2954559964677E-02
 0.3587779173147E-02 -0.1550631095543E-01  0.0000000000000E+00 -0.3408328385990E-02
 0.3458034100777E-02 -0.1520256227726E-01  0.0000000000000E+00 -0.3914000849315E-02
 0.3325882463613E-02 -0.1495499107085E-01  0.0000000000000E+00 -0.4484643592847E-02
 0.3188336209574E-02 -0.1476669551442E-01  0.0000000000000E+00 -0.5134619588269E-02
 0.3041860992969E-02 -0.1463554736855E-01  0.0000000000000E+00 -0.5874612380245E-02
 0.2885008061069E-02 -0.1455399269069E-01  0.0000000000000E+00 -0.6705173957384E-02
 0.2725735463968E-02 -0.1451253915044E-01  0.0000000000000E+00 -0.7612706188823E-02
 0.2570487744484E-02 -0.1450063713890E-01  0.0000000000000E+00 -0.8593724878234E-02
 0.2406559792232E-02 -0.1446974487951E-01  0.0000000000000E+00 -0.9618480765193E-02
 0.2173110741969E-02 -0.1429714544401E-01  0.0000000000000E+00 -0.1065823150103E-01
 0.1507957721308E-02 -0.1328056686278E-01  0.0000000000000E+00 -0.1107556289838E-01
 0.2666054075618E-02 -0.1082507269529E-01  0.0000000000000E+00 -0.5073362791894E-02
 0.1925274425796E-01 -0.1301755142196E-01  0.0000000000000E+00  0.7248627297937E-02
 0.3526203057580E-02 -0.3335273653345E-01  0.0000000000000E+00  0.1313931763053E-01
 0.7366309435294E-02 -0.3204662071489E-01  0.0000000000000E+00  0.5656868497049E-02
 0.7336542457229E-02 -0.2935815471718E-01  0.0000000000000E+00  0.2063548969485E-02
 0.6915122930488E-02 -0.2796177518121E-01  0.0000000000000E+00  0.1501024783427E-02
 0.6732737797841E-02 -0.2700389298745E-01  0.0000000000000E+00  0.1083964617598E-02
 0.6550633073397E-02 -0.2626022029908E-01  0.0000000000000E+00  0.8950797178910E-03
 0.6402564992861E-02 -0.2563939036252E-01  0.0000000000000E+00  0.7833437438444E-03
 0.6267832324239E-02 -0.2508976493424E-01  0.0000000000000E+00  0.7179016767150E-03
 0.6143242127079E-02 -0.2458439536267E-01  0.0000000000000E+00  0.6770434136939E-03
 0.6024946675720E-02 -0.2410775590027E-01  0.0000000000000E+00  0.6499887070556E-03
 0.5911184749558E-02 -0.2365126045968E-01  0.0000000000000E+00  0.6298823838363E-03
 0.5800990788306E-02 -0.2321072875632E-01  0.0000000000000E+00  0.6119148597724E-03
 0.5694102915619E-02 -0.2278530648980E-01  0.0000000000000E+00  0.5917769772663E-03
 0.5590996052693E-02 -0.2237743050890E-01  0.0000000000000E+00  0.5641687287309E-03
 0.5491185251019E-02 -0.2199357648465E-01  0.0000000000000E+00  0.5167953719127E-03
 0.5389840577712E-02 -0.2163985742034E-01  0.0000000000000E+00  0.4258992167541E-03
 0.5282394239413E-02 -0.2130601108055E-01  0.0000000000000E+00  0.2672759897383E-03
 0.5171198108114E-02 -0.2095893041728E-01  0.0000000000000E+00  0.3033064003266E-04
 0.5058643619816E-02 -0.2056669182862E-01  0.0000000000000E+00 -0.2745873509690E-03
 0.4941589456004E-02 -0.2012164720848E-01  0.0000000000000E+00 -0.6183943246195E-03
 0.4817341247514E-02 -0.1963623180480E-01  0.0000000000000E+00 -0.9716364971527E-03
 0.4686731592045E-02 -0.1912906480085E-01  0.0000000000000E+00 -0.1318589315563E-02
 0.4552123681930E-02 -0.1861732399404E-01  0.0000000000000E+00 -0.1655753028350E-02
 0.4415945406373E-02 -0.1811483335222E-01  0.0000000000000E+00 -0.1987156549779E-02
 0.4279982683316E-02 -0.1763214716451E-01  0.0000000000000E+00 -0.2320824756618E-02
 0.4145686277049E-02 -0.1717679484903E-01  0.0000000000000E+00 -0.2665403736656E-02
 0.4015303287585E-02 -0.1675454265264E-01  0.0000000000000E+00 -0.3027843846758E-02
 0.3891288000441E-02 -0.1637330786545E-01  0.0000000000000E+00 -0.3414558600338E-02
 0.3774635065591E-02 -0.1604590412077E-01  0.0000000000000E+00 -0.3833927012805E-02
 0.3665407423906E-02 -0.1578739568710E-01  0.0000000000000E+00 -0.4298951075432E-02
 0.3563393912542E-02 -0.1561105947056E-01  0.0000000000000E+00 -0.4828791735195E-02
 0.3467169336799E-02 -0.1552684906735E-01  0.0000000000000E+00 -0.5446643238817E-02
 0.3373631247997E-02 -0.1554044595053E-01  0.0000000000000E+00 -0.6175680426581E-02
 0.3280629360094E-02 -0.1565196586216E-01  0.0000000000000E+00 -0.7031672962928E-02
 0.3192318956031E-02 -0.1585898675107E-01  0.0000000000000E+00 -0.8012577518123E-02
 0.3134865264646E-02 -0.1617542309434E-01  0.0000000000000E+00 -0.9103514754931E-02
 0.3077779291080E-02 -0.1663482417591E-01  0.0000000000000E+00 -0.1036869225828E-01
 0.3106337524397E-02 -0.1725959637999E-01  0.0000000000000E+00 -0.1174309169889E-01
 0.2622957413152E-02 -0.1790132502903E-01  0.0000000000000E+00 -0.1431998765607E-01
 0.1238721559636E-02 -0.1591707524204E-01  0.0000000000000E+00 -0.1305294420657E-01
 0.2040784530237E-01 -0.1770996692729E-01  0.0000000000000E+00  0.2967153338542E-02
 0.5074555178561E-02 -0.3873434421349E-01  0.0000000000000E+00  0.1214523373786E-01
 0.8703652690720E-02 -0.3208957751899E-01  0.0000000000000E+00  0.4509202437384E-03
 0.7263319467665E-02 -0.2956992877884E-01  0.0000000000000E+00  0.7588720691026E-03
 0.7100715998224E-02 -0.2831417869803E-01  0.0000000000000E+00  0.4284381211472E-03
 0.6846617110591E-02 -0.2741222879499E-01  0.0000000000000E+00  0.3371092861866E-03
 0.6679557112386E-02 -0.2671587991180E-01  0.0000000000000E+00  0.2811713464526E-03
 0.6530125585432E-02 -0.2612296806777E-01  0.0000000000000E+00  0.2510823858619E-03
 0.6397641618911E-02 -0.2559104260399E-01  0.0000000000000E+00  0.2333299196743E-03
 0.6273776335563E-02 -0.2509560044463E-01  0.0000000000000E+00  0.2225495157218E-03
 0.6155794252640E-02 -0.2462344723109E-01  0.0000000000000E+00  0.2155179864666E-03
 0.6041796098377E-02 -0.2416745077640E-01  0.0000000000000E+00  0.2102620521389E-03
 0.5931050208080E-02 -0.2372454382417E-01  0.0000000000000E+00  0.2053381028602E-03
 0.5823567353469E-02 -0.2329484027315E-01  0.0000000000000E+00  0.1993831959343E-03
 0.5720221321312E-02 -0.2288185310456E-01  0.0000000000000E+00  0.1906173540128E-03
 0.5623197326319E-02 -0.2249499856773E-01  0.0000000000000E+00  0.1751640810437E-03
 0.5534952087105E-02 -0.2215803396965E-01  0.0000000000000E+00  0.1265155273755E-03
 0.5452788563820E-02 -0.2187260119439E-01  0.0000000000000E+00 -0.2080781984704E-04
 0.5365709516563E-02 -0.2157067691389E-01  0.0000000000000E+00 -0.3079739285503E-03
 0.5262648234084E-02 -0.2118813651608E-01  0.0000000000000E+00 -0.6928906942968E-03
 0.5141295112763E-02 -0.2072577781133E-01  0.0000000000000E+00 -0.1104648390875E-02
 0.5006254026895E-02 -0.2021174974812E-01  0.0000000000000E+00 -0.1501230639113E-02
 0.4863694084567E-02 -0.1967478383862E-01  0.0000000000000E+00 -0.1868948441366E-02
 0.4718840818464E-02 -0.1913715674667E-01  0.0000000000000E+00 -0.2209554545294E-02
 0.4575529215594E-02 -0.1861526163869E-01  0.0000000000000E+00 -0.2531755781640E-02
 0.4436354652733E-02 -0.1812133655736E-01  0.0000000000000E+00 -0.2847455697487E-02
 0.4302637522527E-02 -0.1766390965864E-01  0.0000000000000E+00 -0.3170131464845E-02
 0.4175174567222E-02 -0.1724569332492E-01  0.0000000000000E+00 -0.3508197194247E-02
 0.4056450390147E-02 -0.1687319954750E-01  0.0000000000000E+00 -0.3860228153887E-02
 0.3950763136598E-02 -0.1656764186405E-01  0.0000000000000E+00 -0.4228337299383E-02
 0.3861895514565E-02 -0.1635359260227E-01  0.0000000000000E+00 -0.4629337375414E-02
 0.3792219695291E-02 -0.1625087473286E-01  0.0000000000000E+00 -0.5089092023525E-02
 0.3742722091501E-02 -0.1627781535730E-01  0.0000000000000E+00 -0.5638157929824E-02
 0.3712782643823E-02 -0.1645080172221E-01  0.0000000000000E+00 -0.6311595646044E-02
 0.3699409866020E-02 -0.1678065304610E-01  0.0000000000000E+00 -0.7143808241118E-02
 0.3704436446903E-02 -0.1726963067581E-01  0.0000000000000E+00 -0.8145175748931E-02
 0.3739447310101E-02 -0.1793252405403E-01  0.0000000000000E+00 -0.9260021585077E-02
 0.3908743776654E-02 -0.1893692458035E-01  0.0000000000000E+00 -0.1043746989348E-01
 0.4037398014185E-02 -0.2053905760012E-01  0.0000000000000E+00 -0.1197354714394E-01
 0.5244965513998E-02 -0.2336870936221E-01  0.0000000000000E+00 -0.1384053201776E-01
 0.1654463643214E-02 -0.2699697294058E-01  0.0000000000000E+00 -0.2242905627066E-01
 0.2462431973119E-01 -0.3115886379506E-01  0.0000000000000E+00 -0.1114599951200E-01
 0.4665251794134E-02 -0.9206698744823E-02  0.0000000000000E+00  0.4239059027747E+00
 0.1977964473532E-01 -0.2376059023196E-01  0.0000000000000E+00  0.4792104126931E+00
 0.2776075212288E-01 -0.3173070356042E-01  0.0000000000000E+00  0.5266826199219E+00
 0.3152076376161E-01 -0.3597088142680E-01  0.0000000000000E+00  0.5661947890251E+00
 0.3301001654964E-01 -0.3832599464848E-01  0.0000000000000E+00  0.5991580174697E+00
 0.3328771471443E-01 -0.3978556787355E-01  0.0000000000000E+00  0.6273474369927E+00
 0.3276831721945E-01 -0.4070566711821E-01  0.0000000000000E+00  0.6524256761299E+00
 0.3139954856301E-01 -0.4098505185235E-01  0.0000000000000E+00  0.6756630687820E+00
 0.2882307812263E-01 -0.4021961713269E-01  0.0000000000000E+00  0.6977405701475E+00
 0.2452108239486E-01 -0.3785004239923E-01  0.0000000000000E+00  0.7186541346630E+00
 0.1799647298370E-01 -0.3333826733750E-01  0.0000000000000E+00  0.7376498211485E+00
 0.8963365876433E-02 -0.2636173826669E-01  0.0000000000000E+00  0.7534625030147E+00
-0.2579500162010E-02 -0.1690375829551E-01  0.0000000000000E+00  0.7648111108146E+00
-0.1637281085171E-01 -0.5206732637942E-02  0.0000000000000E+00  0.7706273574133E+00
-0.3197722583058E-01  0.8313364626331E-02  0.0000000000000E+00  0.7701907155008E+00
-0.4887096326435E-01  0.2316109545341E-01  0.0000000000000E+00  0.7631685119367E+00
-0.6653742652441E-01  0.3883677864178E-01  0.0000000000000E+00  0.7494903524170E+00
-0.8440784713000E-01  0.5487622974075E-01  0.0000000000000E+00  0.7294089883175E+00
-0.1021713321119E+00  0.7082433229101E-01  0.0000000000000E+00  0.7024205839374E+00
-0.1150788916485E+00  0.8475172378371E-01  0.0000000000000E+00  0.6612872538528E+00
 0.5224046954031E-02 -0.1127759925206E-01  0.0000000000000E+00  0.4329795740830E+00
 0.2085132993303E-01 -0.2622937327760E-01  0.0000000000000E+00  0.4858439092736E+00
 0.2946418651385E-01 -0.3475503458393E-01  0.0000000000000E+00  0.5323384060870E+00
 0.3372945575822E-01 -0.3939082073465E-01  0.0000000000000E+00  0.5719959167391E+00
 0.3544133154051E-01 -0.4185549614444E-01  0.0000000000000E+00  0.6056537859699E+00
 0.3564572526701E-01 -0.4312480243712E-01  0.0000000000000E+00  0.6346815608004E+00
 0.3479069556446E-01 -0.4359118860356E-01  0.0000000000000E+00  0.6604489094405E+00
 0.3288741833290E-01 -0.4321688941555E-01  0.0000000000000E+00  0.6840271479192E+00
 0.2965624623371E-01 -0.4167741700754E-01  0.0000000000000E+00  0.7059844081162E+00
 0.2466850408538E-01 -0.3850158695350E-01  0.0000000000000E+00  0.7262786923276E+00
 0.1751559129507E-01 -0.3324084318186E-01  0.0000000000000E+00  0.7442196241425E+00
 0.7967971224742E-02 -0.2563312238231E-01  0.0000000000000E+00  0.7587120517250E+00
-0.3969874667920E-02 -0.1566006291427E-01  0.0000000000000E+00  0.7686357963263E+00
-0.1806516142086E-01 -0.3535567307206E-02  0.0000000000000E+00  0.7730169066776E+00
-0.3391291400922E-01  0.1035797842160E-01  0.0000000000000E+00  0.7711874665658E+00
-0.5104231071393E-01  0.2557294799213E-01  0.0000000000000E+00  0.7628117134424E+00
-0.6895259007472E-01  0.4165907238063E-01  0.0000000000000E+00  0.7477228643029E+00
-0.8717536178642E-01  0.5817540406855E-01  0.0000000000000E+00  0.7255431260646E+00
-0.1037589734776E+00  0.7381016790734E-01  0.0000000000000E+00  0.6935899175211E+00
-0.1160020033841E+00  0.8519370478737E-01  0.0000000000000E+00  0.6565956043254E+00
 0.5656248262690E-02 -0.1307877908101E-01  0.0000000000000E+00  0.4419413015029E+00
 0.2162166052172E-01 -0.2832598225715E-01  0.0000000000000E+00  0.4923659372450E+00
 0.3075057212205E-01 -0.3728378948054E-01  0.0000000000000E+00  0.5378490941065E+00
 0.3544279111836E-01 -0.4225487373693E-01  0.0000000000000E+00  0.5774487918010E+00
 0.3736660280071E-01 -0.4482678809210E-01  0.0000000000000E+00  0.6115903832047E+00
 0.3752885488702E-01 -0.4594427136382E-01  0.0000000000000E+00  0.6412637173878E+00
 0.3640018193884E-01 -0.4602377793017E-01  0.0000000000000E+00  0.6675607608820E+00
 0.3404453211800E-01 -0.4508176942686E-01  0.0000000000000E+00  0.6913615393064E+00
 0.3025283841321E-01 -0.4286486774408E-01  0.0000000000000E+00  0.7131248247881E+00
 0.2467710423520E-01 -0.3898314161403E-01  0.0000000000000E+00  0.7327778264230E+00
 0.1698342326768E-01 -0.3306400429687E-01  0.0000000000000E+00  0.7496966937637E+00
 0.6987436695297E-02 -0.2489035966565E-01  0.0000000000000E+00  0.7629191247504E+00
-0.5295348334428E-02 -0.1445310861840E-01  0.0000000000000E+00  0.7714523379451E+00
-0.1964840324619E-01 -0.1947650346504E-02  0.0000000000000E+00  0.7744199254163E+00
-0.3570056512923E-01  0.1227712636208E-01  0.0000000000000E+00  0.7711962383743E+00
-0.5300298263928E-01  0.2780502952745E-01  0.0000000000000E+00  0.7614038144956E+00
-0.7105999072100E-01  0.4418257394288E-01  0.0000000000000E+00  0.7446802720763E+00
-0.8899560459732E-01  0.6071081214994E-01  0.0000000000000E+00  0.7200884364942E+00
-0.1049629576323E+00  0.7557257327636E-01  0.0000000000000E+00  0.6875660569132E+00
-0.1178648295295E+00  0.8753496476385E-01  0.0000000000000E+00  0.6525566365715E+00
 0.5993623103896E-02 -0.1468538179048E-01  0.0000000000000E+00  0.4508039102254E+00
 0.2212870190101E-01 -0.3007192659304E-01  0.0000000000000E+00  0.4988291046387E+00
 0.3165927593653E-01 -0.3936760820449E-01  0.0000000000000E+00  0.5431978765777E+00
 0.3671565525640E-01 -0.4461859736606E-01  0.0000000000000E+00  0.5825802648433E+00
 0.3883655407129E-01 -0.4729258637416E-01  0.0000000000000E+00  0.6170100948203E+00
 0.3898466030109E-01 -0.4829266600921E-01  0.0000000000000E+00  0.6471469028267E+00
 0.3763977225079E-01 -0.4804775540229E-01  0.0000000000000E+00  0.6738208979193E+00
 0.3490897490991E-01 -0.4661891891102E-01  0.0000000000000E+00  0.6977301339479E+00
 0.3064515372291E-01 -0.4381590610425E-01  0.0000000000000E+00  0.7192295186654E+00
 0.2457126001962E-01 -0.3932070762002E-01  0.0000000000000E+00  0.7382201433117E+00
 0.1641748153019E-01 -0.3282556039806E-01  0.0000000000000E+00  0.7541358336102E+00
 0.6039167882344E-02 -0.2415316928361E-01  0.0000000000000E+00  0.7661246588605E+00
-0.6535539780234E-02 -0.1330589752722E-01  0.0000000000000E+00  0.7733024733043E+00
-0.2110106381859E-01 -0.4669965182399E-03  0.0000000000000E+00  0.7748777947522E+00
-0.3730671145877E-01  0.1403843495647E-01  0.0000000000000E+00  0.7702521530378E+00
-0.5470979380781E-01  0.2980162567222E-01  0.0000000000000E+00  0.7589898663290E+00
-0.7271011375873E-01  0.4629427742246E-01  0.0000000000000E+00  0.7405700086015E+00
-0.9032894221725E-01  0.6260776921134E-01  0.0000000000000E+00  0.7145790712089E+00
-0.1061462850816E+00  0.7734505573481E-01  0.0000000000000E+00  0.6819487718147E+00
-0.1197831719003E+00  0.9007388285853E-01  0.0000000000000E+00  0.6472452343855E+00
 0.6256226947390E-02 -0.1612683318125E-01  0.0000000000000E+00  0.4595109574789E+00
 0.2241480452596E-01 -0.3151841909908E-01  0.0000000000000E+00  0.5052163182782E+00
 0.3223639154140E-01 -0.4105306434607E-01  0.0000000000000E+00  0.5483931685935E+00
 0.3759685917723E-01 -0.4653460137325E-01  0.0000000000000E+00  0.5874079081863E+00
 0.3990098273041E-01 -0.4930424914249E-01  0.0000000000000E+00  0.6219515055009E+00
 0.4005921243377E-01 -0.5021762862760E-01  0.0000000000000E+00  0.6523810922935E+00
 0.3855120137678E-01 -0.4970617506218E-01  0.0000000000000E+00  0.6792868068208E+00
 0.3551732412311E-01 -0.4786631744630E-01  0.0000000000000E+00  0.7031952269534E+00
 0.3086364482287E-01 -0.4456244660781E-01  0.0000000000000E+00  0.7243634228477E+00
 0.2437487956495E-01 -0.3953946233099E-01  0.0000000000000E+00  0.7426677920323E+00
 0.1583699097718E-01 -0.3254618629752E-01  0.0000000000000E+00  0.7575912855947E+00
 0.5140917638439E-02 -0.2344113773941E-01  0.0000000000000E+00  0.7683757255440E+00
-0.7671949828183E-02 -0.1223929726000E-01  0.0000000000000E+00  0.7742302720183E+00
-0.2240057897389E-01  0.8822877675539E-03  0.0000000000000E+00  0.7744342102479E+00
-0.3870340646879E-01  0.1560939455532E-01  0.0000000000000E+00  0.7684091593875E+00
-0.5611416921187E-01  0.3151659931297E-01  0.0000000000000E+00  0.7556811360607E+00
-0.7397726897925E-01  0.4800125025220E-01  0.0000000000000E+00  0.7358349573817E+00
-0.9136779064941E-01  0.6418411065410E-01  0.0000000000000E+00  0.7088631648414E+00
-0.1072145721216E+00  0.7901584049592E-01  0.0000000000000E+00  0.6759875304620E+00
-0.1214585555341E+00  0.9243113778499E-01  0.0000000000000E+00  0.6408426336072E+00
 0.6458221694075E-02 -0.1742598664591E-01  0.0000000000000E+00  0.4680169952847E+00
 0.2251475742467E-01 -0.3270606611356E-01  0.0000000000000E+00  0.5114993076595E+00
 0.3252651005754E-01 -0.4238885573219E-01  0.0000000000000E+00  0.5534330548510E+00
 0.3813383314850E-01 -0.4805260660081E-01  0.0000000000000E+00  0.5919504632577E+00
 0.4060704383221E-01 -0.5091117927539E-01  0.0000000000000E+00  0.6264487613270E+00
 0.4079708007005E-01 -0.5176533469337E-01  0.0000000000000E+00  0.6570133404374E+00
 0.3917468812063E-01 -0.5104075061119E-01  0.0000000000000E+00  0.6840135443034E+00
 0.3590464061182E-01 -0.4886045812715E-01  0.0000000000000E+00  0.7078167642061E+00
 0.3093756055916E-01 -0.4513514610710E-01  0.0000000000000E+00  0.7285881466215E+00
 0.2411157008402E-01 -0.3966444150407E-01  0.0000000000000E+00  0.7461801192518E+00
 0.1526137577071E-01 -0.3224686467610E-01  0.0000000000000E+00  0.7601172758976E+00
 0.4310063349667E-02 -0.2277351436366E-01  0.0000000000000E+00  0.7697217588440E+00
-0.8686804468120E-02 -0.1127303265163E-01  0.0000000000000E+00  0.7742829402070E+00
-0.2352714960400E-01  0.2077636526279E-02  0.0000000000000E+00  0.7731410727752E+00
-0.3986673798236E-01  0.1696383468605E-01  0.0000000000000E+00  0.7657423614337E+00
-0.5722006392137E-01  0.3293788578854E-01  0.0000000000000E+00  0.7516467053665E+00
-0.7492693485818E-01  0.4938208573150E-01  0.0000000000000E+00  0.7305859166669E+00
-0.9215682859432E-01  0.6550180253132E-01  0.0000000000000E+00  0.7027862966015E+00
-0.1080854785674E+00  0.8050129461277E-01  0.0000000000000E+00  0.6694775860408E+00
-0.1227807537165E+00  0.9445931962430E-01  0.0000000000000E+00  0.6335135932218E+00
 0.6610797862465E-02 -0.1860125270296E-01  0.0000000000000E+00  0.4762830626230E+00
 0.2245819468181E-01 -0.3367020513585E-01  0.0000000000000E+00  0.5176492926199E+00
 0.3257034125704E-01 -0.4341965834453E-01  0.0000000000000E+00  0.5583112754027E+00
 0.3837156165716E-01 -0.4922047818000E-01  0.0000000000000E+00  0.5962229685460E+00
 0.4099978187133E-01 -0.5216056056088E-01  0.0000000000000E+00  0.6305335791038E+00
 0.4124089913601E-01 -0.5298024031370E-01  0.0000000000000E+00  0.6610875985892E+00
 0.3954887076802E-01 -0.5209168523806E-01  0.0000000000000E+00  0.6880535346482E+00
 0.3610456793189E-01 -0.4963645971210E-01  0.0000000000000E+00  0.7116520127448E+00
 0.3089510646735E-01 -0.4556365565276E-01  0.0000000000000E+00  0.7319626209137E+00
 0.2380436400169E-01 -0.3972016313722E-01  0.0000000000000E+00  0.7488145917630E+00
 0.1470964792700E-01 -0.3194823022498E-01  0.0000000000000E+00  0.7617678556896E+00
 0.3563325134451E-02 -0.2216881288600E-01  0.0000000000000E+00  0.7702137271655E+00
-0.9564027803325E-02 -0.1042533581373E-01  0.0000000000000E+00  0.7735116766963E+00
-0.2446450882630E-01  0.3100348340723E-02  0.0000000000000E+00  0.7710583495663E+00
-0.4078825098940E-01  0.1808782326454E-01  0.0000000000000E+00  0.7623425908804E+00
-0.5804366261400E-01  0.3408000583774E-01  0.0000000000000E+00  0.7469889221449E+00
-0.7559289950902E-01  0.5047541097715E-01  0.0000000000000E+00  0.7248527928305E+00
-0.9269826348323E-01  0.6656980597854E-01  0.0000000000000E+00  0.6962731806075E+00
-0.1087025805795E+00  0.8173835846202E-01  0.0000000000000E+00  0.6623822021095E+00
-0.1237045236198E+00  0.9609845617395E-01  0.0000000000000E+00  0.6254161467064E+00
 0.6723186289118E-02 -0.1966841252138E-01  0.0000000000000E+00  0.4842770012596E+00
 0.2227072870601E-01 -0.3444173882867E-01  0.0000000000000E+00  0.5236399858474E+00
 0.3240472744126E-01 -0.4418633344048E-01  0.0000000000000E+00  0.5630200991233E+00
 0.3835203410175E-01 -0.5008318109267E-01  0.0000000000000E+00  0.6002376932527E+00
 0.4112191338325E-01 -0.5309741509027E-01  0.0000000000000E+00  0.6342348258776E+00
 0.4143135802189E-01 -0.5390491660758E-01  0.0000000000000E+00  0.6646450985485E+00
 0.3971072262804E-01 -0.5289760115619E-01  0.0000000000000E+00  0.6914564550195E+00
 0.3614936952448E-01 -0.5022810349478E-01  0.0000000000000E+00  0.7147556423392E+00
 0.3076340765355E-01 -0.4587658252509E-01  0.0000000000000E+00  0.7345434474380E+00
 0.2347548404067E-01 -0.3973037219819E-01  0.0000000000000E+00  0.7506271210790E+00
 0.1420005804554E-01 -0.3167015997636E-01  0.0000000000000E+00  0.7625967804202E+00
 0.2916238958065E-02 -0.2164439563138E-01  0.0000000000000E+00  0.7699039415589E+00
-0.1028984496439E-01 -0.9712070800150E-02  0.0000000000000E+00  0.7719709353189E+00
-0.2520240598691E-01  0.3937238318309E-02  0.0000000000000E+00  0.7682510604234E+00
-0.4146775216660E-01  0.1897844252363E-01  0.0000000000000E+00  0.7582868931123E+00
-0.5859880531669E-01  0.3495631100811E-01  0.0000000000000E+00  0.7417723498279E+00
-0.7599023665270E-01  0.5129881763941E-01  0.0000000000000E+00  0.7186511488236E+00
-0.9298273384257E-01  0.6737961150027E-01  0.0000000000000E+00  0.6893031758848E+00
-0.1090299944858E+00  0.8268656207701E-01  0.0000000000000E+00  0.6547296647575E+00
-0.1242138858353E+00  0.9732413252483E-01  0.0000000000000E+00  0.6166854622572E+00
 0.6803236183183E-02 -0.2064136312826E-01  0.0000000000000E+00  0.4919725867372E+00
 0.2197481201084E-01 -0.3504812920521E-01  0.0000000000000E+00  0.5294486155865E+00
 0.3206296751951E-01 -0.4472612103256E-01  0.0000000000000E+00  0.5675519596375E+00
 0.3811416481368E-01 -0.5068267549887E-01  0.0000000000000E+00  0.6040050893574E+00
 0.4101368049755E-01 -0.5376437545555E-01  0.0000000000000E+00  0.6375788631979E+00
 0.4140712857141E-01 -0.5457999959845E-01  0.0000000000000E+00  0.6677244088863E+00
 0.3969553336536E-01 -0.5349548959977E-01  0.0000000000000E+00  0.6942693436276E+00
 0.3606990103768E-01 -0.5066780486436E-01  0.0000000000000E+00  0.7171798165939E+00
 0.3056842991720E-01 -0.4610140170469E-01  0.0000000000000E+00  0.7363850711413E+00
 0.2314615615868E-01 -0.3971782912034E-01  0.0000000000000E+00  0.7516721412888E+00
 0.1374978351903E-01 -0.3143146190382E-01  0.0000000000000E+00  0.7626573749787E+00
 0.2382764189898E-02 -0.2121601707791E-01  0.0000000000000E+00  0.7688454703032E+00
-0.1085347226159E-01 -0.9146137612801E-02  0.0000000000000E+00  0.7697167421203E+00
-0.2573524914729E-01  0.4580420406376E-02  0.0000000000000E+00  0.7647811788310E+00
-0.4190792078424E-01  0.1963662111181E-01  0.0000000000000E+00  0.7536381106057E+00
-0.5889500932489E-01  0.3557604356973E-01  0.0000000000000E+00  0.7360438688931E+00
-0.7612479651458E-01  0.5185871898207E-01  0.0000000000000E+00  0.7120001969721E+00
-0.9299992380961E-01  0.6792018498121E-01  0.0000000000000E+00  0.6818881345133E+00
-0.1090461810188E+00  0.8332090049145E-01  0.0000000000000E+00  0.6465743659048E+00
-0.1243066422413E+00  0.9812873911750E-01  0.0000000000000E+00  0.6074377237734E+00
 0.6857753081062E-02 -0.2153257136028E-01  0.0000000000000E+00  0.4993488375764E+00
 0.2159033416166E-01 -0.3551403240995E-01  0.0000000000000E+00  0.5350561515931E+00
 0.3157521216794E-01 -0.4507302335206E-01  0.0000000000000E+00  0.5719003273120E+00
 0.3769390097887E-01 -0.5105796601187E-01  0.0000000000000E+00  0.6075345816735E+00
 0.4071282317430E-01 -0.5420162884448E-01  0.0000000000000E+00  0.6405899648110E+00
 0.4120482534869E-01 -0.5504412409791E-01  0.0000000000000E+00  0.6703616178344E+00
 0.3953688200855E-01 -0.5392067593875E-01  0.0000000000000E+00  0.6965366896835E+00
 0.3589557327333E-01 -0.5098656397750E-01  0.0000000000000E+00  0.7189742793667E+00
 0.3033489465987E-01 -0.4626435946469E-01  0.0000000000000E+00  0.7375398379574E+00
 0.2283644831352E-01 -0.3970413732303E-01  0.0000000000000E+00  0.7520025680191E+00
 0.1337469766272E-01 -0.3124961890893E-01  0.0000000000000E+00  0.7620022163418E+00
 0.1975000794490E-02 -0.2089753335262E-01  0.0000000000000E+00  0.7670912442439E+00
-0.1124687400139E-01 -0.8737476807830E-02  0.0000000000000E+00  0.7668039552482E+00
-0.2606031164934E-01  0.5025330611891E-02  0.0000000000000E+00  0.7607052743532E+00
-0.4211200816605E-01  0.2006431083273E-01  0.0000000000000E+00  0.7484489146335E+00
-0.5893853002494E-01  0.3594491687622E-01  0.0000000000000E+00  0.7298431987976E+00
-0.7599865069096E-01  0.5215682552063E-01  0.0000000000000E+00  0.7049257623114E+00
-0.9274207179156E-01  0.6818252319528E-01  0.0000000000000E+00  0.6740581546932E+00
-0.1087396929742E+00  0.8362735215704E-01  0.0000000000000E+00  0.6379805979887E+00
-0.1239860513091E+00  0.9851211717870E-01  0.0000000000000E+00  0.5977725911182E+00
 0.6892715158436E-02 -0.2235335861167E-01  0.0000000000000E+00  0.5063893995743E+00
 0.2113505662745E-01 -0.3586176810499E-01  0.0000000000000E+00  0.5404472296232E+00
 0.3096883176745E-01 -0.4525816520508E-01  0.0000000000000E+00  0.5760601573391E+00
 0.3712441168565E-01 -0.5124526478720E-01  0.0000000000000E+00  0.6108351310880E+00
 0.4025463365607E-01 -0.5444694210220E-01  0.0000000000000E+00  0.6432907227094E+00
 0.4085900500531E-01 -0.5533390494523E-01  0.0000000000000E+00  0.6725905504337E+00
 0.3926661991450E-01 -0.5420678901629E-01  0.0000000000000E+00  0.6983005404306E+00
 0.3565431682527E-01 -0.5121391973114E-01  0.0000000000000E+00  0.7201864016137E+00
 0.3008620626513E-01 -0.4639038911391E-01  0.0000000000000E+00  0.7380579808779E+00
 0.2256515138305E-01 -0.3970960856788E-01  0.0000000000000E+00  0.7516696413991E+00
 0.1308922711552E-01 -0.3114062890388E-01  0.0000000000000E+00  0.7606826735064E+00
 0.1703202555481E-02 -0.2070085184653E-01  0.0000000000000E+00  0.7646929275107E+00
-0.1146418087167E-01 -0.8493643238106E-02  0.0000000000000E+00  0.7632847636790E+00
-0.2617651767230E-01  0.5269364682195E-02  0.0000000000000E+00  0.7560745987297E+00
-0.4208315187362E-01  0.2026350665237E-01  0.0000000000000E+00  0.7427654728914E+00
-0.5873378207475E-01  0.3606658079605E-01  0.0000000000000E+00  0.7232075069464E+00
-0.7561294360743E-01  0.5219348054984E-01  0.0000000000000E+00  0.6974591768821E+00
-0.9220490685849E-01  0.6816100928636E-01  0.0000000000000E+00  0.6658529095644E+00
-0.1081064327580E+00  0.8359986452812E-01  0.0000000000000E+00  0.6290150287616E+00
-0.1232592981894E+00  0.9847900580098E-01  0.0000000000000E+00  0.5877858078334E+00
 0.6913423285658E-02 -0.2311409631659E-01  0.0000000000000E+00  0.5130820198468E+00
 0.2062494037733E-01 -0.3611167025332E-01  0.0000000000000E+00  0.5456099472827E+00
 0.3026874214389E-01 -0.4531011879073E-01  0.0000000000000E+00  0.5800280952563E+00
 0.3643630374790E-01 -0.5127818997572E-01  0.0000000000000E+00  0.6139156145383E+00
 0.3967206033651E-01 -0.5453574487797E-01  0.0000000000000E+00  0.6457023825850E+00
 0.4040220120911E-01 -0.5548395422335E-01  0.0000000000000E+00  0.6744429793583E+00
 0.3891487110957E-01 -0.5438574840074E-01  0.0000000000000E+00  0.6996006009190E+00
 0.3537255840201E-01 -0.5137791482478E-01  0.0000000000000E+00  0.7208611984551E+00
 0.2984440205861E-01 -0.4650304931316E-01  0.0000000000000E+00  0.7379875468055E+00
 0.2234971059019E-01 -0.3975318103890E-01  0.0000000000000E+00  0.7507226957011E+00
 0.1290632905656E-01 -0.3111895843936E-01  0.0000000000000E+00  0.7587483821464E+00
 0.1575963596554E-02 -0.2063610045999E-01  0.0000000000000E+00  0.7617001008101E+00
-0.1150114884292E-01 -0.8420379158908E-02  0.0000000000000E+00  0.7592081474518E+00
-0.2608378579080E-01  0.5311102659045E-02  0.0000000000000E+00  0.7509359250374E+00
-0.4182435752356E-01  0.2023613142992E-01  0.0000000000000E+00  0.7366298366355E+00
-0.5828445113407E-01  0.3594382019618E-01  0.0000000000000E+00  0.7161731401611E+00
-0.7496931548548E-01  0.5196934202820E-01  0.0000000000000E+00  0.6896353970266E+00
-0.9138761189308E-01  0.6785352721331E-01  0.0000000000000E+00  0.6573165949963E+00
-0.1071481434742E+00  0.8323849654616E-01  0.0000000000000E+00  0.6197434828685E+00
-0.1221387017969E+00  0.9803978535196E-01  0.0000000000000E+00  0.5775663279471E+00
 0.6924608878745E-02 -0.2382434797322E-01  0.0000000000000E+00  0.5194180956472E+00
 0.2007440048257E-01 -0.3628236023601E-01  0.0000000000000E+00  0.5505356160382E+00
 0.2949768779241E-01 -0.4525518861263E-01  0.0000000000000E+00  0.5838025447093E+00
 0.3565784047016E-01 -0.5118797425529E-01  0.0000000000000E+00  0.6167850725748E+00
 0.3899583899843E-01 -0.5450124576074E-01  0.0000000000000E+00  0.6478451045835E+00
 0.3986498792255E-01 -0.5552693006788E-01  0.0000000000000E+00  0.6759488072200E+00
 0.3851005352956E-01 -0.5448777336434E-01  0.0000000000000E+00  0.7004743182896E+00
 0.3507521612133E-01 -0.5150508021062E-01  0.0000000000000E+00  0.7210413206969E+00
 0.2963013144178E-01 -0.4662449231803E-01  0.0000000000000E+00  0.7373742858901E+00
 0.2220621352424E-01 -0.3985239416343E-01  0.0000000000000E+00  0.7492088984495E+00
 0.1283755520422E-01 -0.3119759399130E-01  0.0000000000000E+00  0.7562468042642E+00
 0.1600449344258E-02 -0.2071186054921E-01  0.0000000000000E+00  0.7581597966008E+00
-0.1135476661879E-01 -0.8522045902121E-02  0.0000000000000E+00  0.7546198447633E+00
-0.2578272859757E-01  0.5149943937752E-02  0.0000000000000E+00  0.7453323845581E+00
-0.4133868876082E-01  0.1998420132788E-01  0.0000000000000E+00  0.7300812804726E+00
-0.5759423576555E-01  0.3557937465681E-01  0.0000000000000E+00  0.7087760391544E+00
-0.7407055788229E-01  0.5148617186456E-01  0.0000000000000E+00  0.6814912921164E+00
-0.9029256517143E-01  0.6726122593354E-01  0.0000000000000E+00  0.6484949964153E+00
-0.1058712576424E+00  0.8254819741316E-01  0.0000000000000E+00  0.6102289524064E+00
-0.1206411578796E+00  0.9720968490819E-01  0.0000000000000E+00  0.5671940000136E+00
 0.6930515895965E-02 -0.2449297768699E-01  0.0000000000000E+00  0.5253922838915E+00
 0.1949651043451E-01 -0.3639096622834E-01  0.0000000000000E+00  0.5552185035855E+00
 0.2867648904123E-01 -0.4511766136290E-01  0.0000000000000E+00  0.5873836536203E+00
 0.3481515375646E-01 -0.5100367036744E-01  0.0000000000000E+00  0.6194528594958E+00
 0.3825463872176E-01 -0.5437456692044E-01  0.0000000000000E+00  0.6497381524699E+00
 0.3927606429437E-01 -0.5549360940394E-01  0.0000000000000E+00  0.6771362084674E+00
 0.3807892129418E-01 -0.5454141392178E-01  0.0000000000000E+00  0.7009569416237E+00
 0.3478571699698E-01 -0.5162044228494E-01  0.0000000000000E+00  0.7207670249544E+00
 0.2946266643183E-01 -0.4677546440907E-01  0.0000000000000E+00  0.7362615241483E+00
 0.2214942414302E-01 -0.4002341307687E-01  0.0000000000000E+00  0.7471730134223E+00
 0.1289315763180E-01 -0.3138814321995E-01  0.0000000000000E+00  0.7532229203742E+00
 0.1782605850426E-02 -0.2093538649864E-01  0.0000000000000E+00  0.7541162927429E+00
-0.1102300244841E-01 -0.8801906795727E-02  0.0000000000000E+00  0.7495625167391E+00
-0.2527454094529E-01  0.4785963197224E-02  0.0000000000000E+00  0.7393040975989E+00
-0.4062947755873E-01  0.1951003812589E-01  0.0000000000000E+00  0.7231569734693E+00
-0.5666729712377E-01  0.3497644220191E-01  0.0000000000000E+00  0.7010516184223E+00
-0.7292088554380E-01  0.5074716984664E-01  0.0000000000000E+00  0.6730643148370E+00
-0.8892499891584E-01  0.6638819631650E-01  0.0000000000000E+00  0.6394335716452E+00
-0.1042859450421E+00  0.8153782901172E-01  0.0000000000000E+00  0.6005303599245E+00
-0.1187869761281E+00  0.9600756581840E-01  0.0000000000000E+00  0.5567396190988E+00
 0.6934965834239E-02 -0.2512823710620E-01  0.0000000000000E+00  0.5310021615803E+00
 0.1890317104615E-01 -0.3645330503099E-01  0.0000000000000E+00  0.5596555853801E+00
 0.2782425994606E-01 -0.4492002720433E-01  0.0000000000000E+00  0.5907732543511E+00
 0.3393244647206E-01 -0.5075234940299E-01  0.0000000000000E+00  0.6219287249632E+00
 0.3747521540281E-01 -0.5418488920083E-01  0.0000000000000E+00  0.6514000230363E+00
 0.3866235606514E-01 -0.5541297937536E-01  0.0000000000000E+00  0.6780317313860E+00
 0.3764662643119E-01 -0.5457360268363E-01  0.0000000000000E+00  0.7010815578710E+00
 0.3452603643284E-01 -0.5174755314295E-01  0.0000000000000E+00  0.7200761308669E+00
 0.2935993927679E-01 -0.4697533519052E-01  0.0000000000000E+00  0.7346900416063E+00
 0.2219284529949E-01 -0.4028108521130E-01  0.0000000000000E+00  0.7446572141398E+00
 0.1308220364574E-01 -0.3170095014778E-01  0.0000000000000E+00  0.7497190415206E+00
 0.2127325812298E-02 -0.2131278263931E-01  0.0000000000000E+00  0.7496110556079E+00
-0.1050465124806E-01 -0.9262299645369E-02  0.0000000000000E+00  0.7440759493605E+00
-0.2456097479963E-01  0.4219870856098E-02  0.0000000000000E+00  0.7328885860823E+00
-0.3970049120080E-01  0.1881644538580E-01  0.0000000000000E+00  0.7158922601434E+00
-0.5550850956182E-01  0.3413896350416E-01  0.0000000000000E+00  0.6930344593829E+00
-0.7152599852889E-01  0.4975707023541E-01  0.0000000000000E+00  0.6643914724945E+00
-0.8729262185178E-01  0.6524110534994E-01  0.0000000000000E+00  0.6301761495650E+00
-0.1024053280765E+00  0.8021936435786E-01  0.0000000000000E+00  0.5907018166362E+00
-0.1165989259558E+00  0.9445494841082E-01  0.0000000000000E+00  0.5462652265048E+00
 0.6941411369799E-02 -0.2573783795413E-01  0.0000000000000E+00  0.5362479295185E+00
 0.1830525416146E-01 -0.3648403741435E-01  0.0000000000000E+00  0.5638463143539E+00
 0.2695860320172E-01 -0.4468317857972E-01  0.0000000000000E+00  0.5939747797059E+00
 0.3303218493244E-01 -0.5045929100473E-01  0.0000000000000E+00  0.6242228478422E+00
 0.3668256908284E-01 -0.5395960322509E-01  0.0000000000000E+00  0.6528485273627E+00
 0.3804912955523E-01 -0.5531234330581E-01  0.0000000000000E+00  0.6786603641481E+00
 0.3723679738058E-01 -0.5460972502557E-01  0.0000000000000E+00  0.7008791064681E+00
 0.3431675672471E-01 -0.5190854132457E-01  0.0000000000000E+00  0.7190039724784E+00
 0.2933859975698E-01 -0.4724214860550E-01  0.0000000000000E+00  0.7326979672348E+00
 0.2234879476911E-01 -0.4063901315991E-01  0.0000000000000E+00  0.7417009494748E+00
 0.1341268282139E-01 -0.3214520454983E-01  0.0000000000000E+00  0.7457747060131E+00
 0.2638572562143E-02 -0.2184913625687E-01  0.0000000000000E+00  0.7446827526241E+00
-0.9799244344510E-02 -0.9904738954270E-02  0.0000000000000E+00  0.7381972242728E+00
-0.2364434498987E-01  0.3453013279198E-02  0.0000000000000E+00  0.7261210123368E+00
-0.3855604301412E-01  0.1790682836727E-01  0.0000000000000E+00  0.7083207258734E+00
-0.5412357680577E-01  0.3307175949797E-01  0.0000000000000E+00  0.6847579544008E+00
-0.6989302222420E-01  0.4852210191545E-01  0.0000000000000E+00  0.6555085345821E+00
-0.8540523711645E-01  0.6382881975958E-01  0.0000000000000E+00  0.6207640388569E+00
-0.1002448205410E+00  0.7860721832930E-01  0.0000000000000E+00  0.5807921984416E+00
-0.1141014724731E+00  0.9257523279609E-01  0.0000000000000E+00  0.5358244423021E+00
 0.6952981865276E-02 -0.2632901482679E-01  0.0000000000000E+00  0.5411321533197E+00
 0.1771272829923E-01 -0.3649680475516E-01  0.0000000000000E+00  0.5677924119729E+00
 0.2609578742635E-01 -0.4442659193018E-01  0.0000000000000E+00  0.5969931672346E+00
 0.3213528283122E-01 -0.5014816636429E-01  0.0000000000000E+00  0.6263458359533E+00
 0.3590010335275E-01 -0.5372446424910E-01  0.0000000000000E+00  0.6541008330973E+00
 0.3746011546924E-01 -0.5521743804896E-01  0.0000000000000E+00  0.6790455693697E+00
 0.3687163136360E-01 -0.5467370448683E-01  0.0000000000000E+00  0.7003783757199E+00
 0.3417714052915E-01 -0.5212417887753E-01  0.0000000000000E+00  0.7175833480473E+00
 0.2941408510172E-01 -0.4759268812732E-01  0.0000000000000E+00  0.7303206934255E+00
 0.2262848503934E-01 -0.4110963279284E-01  0.0000000000000E+00  0.7383408520815E+00
 0.1389160039602E-01 -0.3272903791538E-01  0.0000000000000E+00  0.7414266289398E+00
 0.3319471339847E-02 -0.2254861527603E-01  0.0000000000000E+00  0.7393672894320E+00
-0.8906994199442E-02 -0.1072997793753E-01  0.0000000000000E+00  0.7319608425917E+00
-0.2252753863917E-01  0.2487380874015E-02  0.0000000000000E+00  0.7190343002861E+00
-0.3720105121601E-01  0.1678526058665E-01  0.0000000000000E+00  0.7004741543411E+00
-0.5251905755240E-01  0.3178057095471E-01  0.0000000000000E+00  0.6762539701592E+00
-0.6803037728278E-01  0.4704987005732E-01  0.0000000000000E+00  0.6464494373053E+00
-0.8327437029593E-01  0.6216203730805E-01  0.0000000000000E+00  0.6112354289511E+00
-0.9782156565120E-01  0.7671767820362E-01  0.0000000000000E+00  0.5708449319680E+00
-0.1113201378319E+00  0.9039306107124E-01  0.0000000000000E+00  0.5254628665485E+00
 0.6972523721315E-02 -0.2690858150573E-01  0.0000000000000E+00  0.5456595372688E+00
 0.1713477171531E-01 -0.3650435262409E-01  0.0000000000000E+00  0.5714976821514E+00
 0.2525091164067E-01 -0.4416849693762E-01  0.0000000000000E+00  0.5998347602523E+00
 0.3126127864511E-01 -0.4984121563205E-01  0.0000000000000E+00  0.6283087020428E+00
 0.3514978625162E-01 -0.5350374973697E-01  0.0000000000000E+00  0.6551734758046E+00
 0.3691764037220E-01 -0.5515256027950E-01  0.0000000000000E+00  0.6792092921097E+00
 0.3657199750560E-01 -0.5478810014785E-01  0.0000000000000E+00  0.6996059840680E+00
 0.3412521492159E-01 -0.5241396025075E-01  0.0000000000000E+00  0.7158444701128E+00
 0.2960069658356E-01 -0.4804254986735E-01  0.0000000000000E+00  0.7275908076682E+00
 0.2304210109964E-01 -0.4170429023448E-01  0.0000000000000E+00  0.7346106774437E+00
 0.1452505633021E-01 -0.3345960479508E-01  0.0000000000000E+00  0.7367086809647E+00
 0.4172377152209E-02 -0.2341454055985E-01  0.0000000000000E+00  0.7336978495510E+00
-0.7828757254989E-02 -0.1173804953460E-01  0.0000000000000E+00  0.7253988061336E+00
-0.2121401733789E-01  0.1325610388075E-02  0.0000000000000E+00  0.7116591843461E+00
-0.3564105603076E-01  0.1545650645595E-01  0.0000000000000E+00  0.6923824402620E+00
-0.5070233207071E-01  0.3027203367681E-01  0.0000000000000E+00  0.6675525611259E+00
-0.6594761157854E-01  0.4534919478155E-01  0.0000000000000E+00  0.6372458529674E+00
-0.8091291714453E-01  0.6025293447186E-01  0.0000000000000E+00  0.6016250074041E+00
-0.9515394659666E-01  0.7456840993165E-01  0.0000000000000E+00  0.5608979325877E+00
-0.1082809885826E+00  0.8793379232449E-01  0.0000000000000E+00  0.5152184976116E+00
 0.7002637116857E-02 -0.2748298310003E-01  0.0000000000000E+00  0.5498367281097E+00
 0.1657987682822E-01 -0.3651864564852E-01  0.0000000000000E+00  0.5749678488579E+00
 0.2443806075378E-01 -0.4392603723896E-01  0.0000000000000E+00  0.6025072112785E+00
 0.3042850846383E-01 -0.4955942161433E-01  0.0000000000000E+00  0.6301228236167E+00
 0.3445231245720E-01 -0.5332041930626E-01  0.0000000000000E+00  0.6560823459886E+00
 0.3644276402905E-01 -0.5514069978269E-01  0.0000000000000E+00  0.6791719456870E+00
 0.3635754780013E-01 -0.5497421296564E-01  0.0000000000000E+00  0.6985863483792E+00
 0.3417786226844E-01 -0.5279618906471E-01  0.0000000000000E+00  0.7138149151895E+00
 0.2991167872466E-01 -0.4860621917726E-01  0.0000000000000E+00  0.7245380359904E+00
 0.2359887372495E-01 -0.4243331470923E-01  0.0000000000000E+00  0.7305412611621E+00
 0.1531831204254E-01 -0.3434315127490E-01  0.0000000000000E+00  0.7316518794651E+00
 0.5198927161807E-02 -0.2444944120674E-01  0.0000000000000E+00  0.7277049253988E+00
-0.6566004665652E-02 -0.1292829777876E-01  0.0000000000000E+00  0.7185406640150E+00
-0.1970780821565E-01 -0.2902337142613E-04  0.0000000000000E+00  0.7040242155290E+00
-0.3388220468696E-01  0.1392601013459E-01  0.0000000000000E+00  0.6840734906054E+00
-0.4868153054625E-01  0.2855361187289E-01  0.0000000000000E+00  0.6586817394682E+00
-0.6365521454234E-01  0.4342992932385E-01  0.0000000000000E+00  0.6279268910361E+00
-0.7833481174570E-01  0.5811483455859E-01  0.0000000000000E+00  0.5919637433110E+00
-0.9226115745321E-01  0.7217801986735E-01  0.0000000000000E+00  0.5509836492436E+00
-0.1050101849023E+00  0.8522305222454E-01  0.0000000000000E+00  0.5051221294977E+00
 0.7045710508745E-02 -0.2805834572537E-01  0.0000000000000E+00  0.5536721464453E+00
 0.1605594921469E-01 -0.3655097705509E-01  0.0000000000000E+00  0.5782104173178E+00
 0.2367045547469E-01 -0.4371542601266E-01  0.0000000000000E+00  0.6050193912542E+00
 0.2965427632492E-01 -0.4932268168051E-01  0.0000000000000E+00  0.6317998915292E+00
 0.3382726703413E-01 -0.5319627708259E-01  0.0000000000000E+00  0.6568426561534E+00
 0.3605542131672E-01 -0.5520367822122E-01  0.0000000000000E+00  0.6789523780313E+00
 0.3624683355323E-01 -0.5525219848076E-01  0.0000000000000E+00  0.6973416398760E+00
 0.3435091503025E-01 -0.5328806962079E-01  0.0000000000000E+00  0.7115195710145E+00
 0.3035929857662E-01 -0.4929714790682E-01  0.0000000000000E+00  0.7211891924481E+00
 0.2430714750173E-01 -0.4330608625809E-01  0.0000000000000E+00  0.7261604851573E+00
 0.1627584730890E-01 -0.3538507310721E-01  0.0000000000000E+00  0.7262843824640E+00
 0.6400083104982E-02 -0.2565509885228E-01  0.0000000000000E+00  0.7214163381304E+00
-0.5120795765430E-02 -0.1429940550792E-01  0.0000000000000E+00  0.7114135355819E+00
-0.1801348435502E-01 -0.1572626484975E-02  0.0000000000000E+00  0.6961557475854E+00
-0.3193121361833E-01  0.1219986005152E-01  0.0000000000000E+00  0.6755731356474E+00
-0.4646543770626E-01  0.2663350565390E-01  0.0000000000000E+00  0.6496673058136E+00
-0.6116442724911E-01  0.4130277057604E-01  0.0000000000000E+00  0.6185189025392E+00
-0.7555472314839E-01  0.5576190594589E-01  0.0000000000000E+00  0.5822788073375E+00
-0.8916280982605E-01  0.6956565464417E-01  0.0000000000000E+00  0.5411292196791E+00
-0.1015335927155E+00  0.8228632029402E-01  0.0000000000000E+00  0.4951977418747E+00
 0.7103953939748E-02 -0.2864052510171E-01  0.0000000000000E+00  0.5571758442629E+00
 0.1557040381101E-01 -0.3661207570367E-01  0.0000000000000E+00  0.5812345587244E+00
 0.2296059965464E-01 -0.4355209946623E-01  0.0000000000000E+00  0.6073813066604E+00
 0.2895502407093E-01 -0.4914997979769E-01  0.0000000000000E+00  0.6333518505101E+00
 0.3329329120526E-01 -0.5315213676204E-01  0.0000000000000E+00  0.6574688907266E+00
 0.3577456776059E-01 -0.5536229223739E-01  0.0000000000000E+00  0.6785678201046E+00
 0.3625742544283E-01 -0.5564118382626E-01  0.0000000000000E+00  0.6958917274211E+00
 0.3465925239352E-01 -0.5390580083066E-01  0.0000000000000E+00  0.7089805787564E+00
 0.3095492359816E-01 -0.5012783063639E-01  0.0000000000000E+00  0.7175681295333E+00
 0.2517444371548E-01 -0.4433109833846E-01  0.0000000000000E+00  0.7214932459683E+00
 0.1740140956123E-01 -0.3658996584650E-01  0.0000000000000E+00  0.7206314798465E+00
 0.7776167209963E-02 -0.2703258482554E-01  0.0000000000000E+00  0.7148572466270E+00
-0.3495752154064E-02 -0.1584942098223E-01  0.0000000000000E+00  0.7040421186353E+00
-0.1613613696621E-01 -0.3300713361882E-02  0.0000000000000E+00  0.6880779179146E+00
-0.2979531556369E-01  0.1028473730246E-01  0.0000000000000E+00  0.6669050618039E+00
-0.4406338503206E-01  0.2452054394687E-01  0.0000000000000E+00  0.6405327383807E+00
-0.5848705278065E-01  0.3897906991554E-01  0.0000000000000E+00  0.6090453760715E+00
-0.7258778945549E-01  0.5320888902264E-01  0.0000000000000E+00  0.5725935624357E+00
-0.8587859243707E-01  0.6675067533214E-01  0.0000000000000E+00  0.5313567998431E+00
-0.9787643237950E-01  0.7914852327946E-01  0.0000000000000E+00  0.4854631029976E+00
 0.7179432049185E-02 -0.2923515524461E-01  0.0000000000000E+00  0.5603593877093E+00
 0.1513026063640E-01 -0.3671221308776E-01  0.0000000000000E+00  0.5840510184198E+00
 0.2232042783557E-01 -0.4345087102203E-01  0.0000000000000E+00  0.6096040257055E+00
 0.2834650272514E-01 -0.4905956060597E-01  0.0000000000000E+00  0.6347908332953E+00
 0.3286825077891E-01 -0.5320798986407E-01  0.0000000000000E+00  0.6579747401563E+00
 0.3561832805399E-01 -0.5563646006696E-01  0.0000000000000E+00  0.6780338167334E+00
 0.3640603578412E-01 -0.5615938743722E-01  0.0000000000000E+00  0.6942541071102E+00
 0.3511689726035E-01 -0.5466467091247E-01  0.0000000000000E+00  0.7062172674977E+00
 0.3170909734960E-01 -0.5110987896876E-01  0.0000000000000E+00  0.7136956852763E+00
 0.2620751859020E-01 -0.4551601577217E-01  0.0000000000000E+00  0.7165614203801E+00
 0.1869805733802E-01 -0.3796166888171E-01  0.0000000000000E+00  0.7147155787481E+00
 0.9326893596755E-02 -0.2858229241381E-01  0.0000000000000E+00  0.7080501468003E+00
-0.1694032153654E-02 -0.1757578393884E-01  0.0000000000000E+00  0.6964486893481E+00
-0.1408134245208E-01 -0.5208239522770E-02  0.0000000000000E+00  0.6798126323704E+00
-0.2748219851705E-01  0.8187854915882E-02  0.0000000000000E+00  0.6580907719973E+00
-0.4148513715285E-01  0.2222407091736E-01  0.0000000000000E+00  0.6312991383930E+00
-0.5563527611028E-01  0.3647064987351E-01  0.0000000000000E+00  0.5995269071858E+00
-0.6944936834065E-01  0.5047084789024E-01  0.0000000000000E+00  0.5629276409628E+00
-0.8242806022337E-01  0.6375240957986E-01  0.0000000000000E+00  0.5216838401701E+00
-0.9406305245771E-01  0.7583389940695E-01  0.0000000000000E+00  0.4759310926075E+00
 0.7274097589838E-02 -0.2984769833489E-01  0.0000000000000E+00  0.5632357647941E+00
 0.1474224220875E-01 -0.3686131263095E-01  0.0000000000000E+00  0.5866720476009E+00
 0.2176145569022E-01 -0.4342608891698E-01  0.0000000000000E+00  0.6116996139259E+00
 0.2784394740536E-01 -0.4906910748105E-01  0.0000000000000E+00  0.6361290886413E+00
 0.3256940799685E-01 -0.5338317779792E-01  0.0000000000000E+00  0.6583730190742E+00
 0.3560414715024E-01 -0.5604537107612E-01  0.0000000000000E+00  0.6773641391212E+00
 0.3670864192969E-01 -0.5682424020475E-01  0.0000000000000E+00  0.6924438166408E+00
 0.3573711255384E-01 -0.5557915165047E-01  0.0000000000000E+00  0.7032460785578E+00
 0.3263161262251E-01 -0.5225409339940E-01  0.0000000000000E+00  0.7095896239157E+00
 0.2741241747784E-01 -0.4686772864512E-01  0.0000000000000E+00  0.7113838252978E+00
 0.2016819918990E-01 -0.3950330478945E-01  0.0000000000000E+00  0.7085561814219E+00
 0.1105139613091E-01 -0.3030396540179E-01  0.0000000000000E+00  0.7010148622680E+00
 0.2806935910247E-03 -0.1947535042490E-01  0.0000000000000E+00  0.6886530978563E+00
-0.1185512797501E-01 -0.7289636127509E-02  0.0000000000000E+00  0.6713795590135E+00
-0.2499994199999E-01  0.5916894043516E-02  0.0000000000000E+00  0.6491495763750E+00
-0.3874077962642E-01  0.1975383229451E-01  0.0000000000000E+00  0.6219852283027E+00
-0.5262149112676E-01  0.3378962946980E-01  0.0000000000000E+00  0.5899812339880E+00
-0.6615483003976E-01  0.4756295134789E-01  0.0000000000000E+00  0.5532970806430E+00
-0.7883041460780E-01  0.6058994623854E-01  0.0000000000000E+00  0.5121234029581E+00
-0.9011705875771E-01  0.7236599123353E-01  0.0000000000000E+00  0.4666096846522E+00
 0.7389826268277E-02 -0.3048349685975E-01  0.0000000000000E+00  0.5658193182263E+00
 0.1441287485360E-01 -0.3706906363666E-01  0.0000000000000E+00  0.5891113587564E+00
 0.2129493610519E-01 -0.4349179999235E-01  0.0000000000000E+00  0.6136810788087E+00
 0.2746225788264E-01 -0.4919592661028E-01  0.0000000000000E+00  0.6373789021967E+00
 0.3241359767093E-01 -0.5369656845936E-01  0.0000000000000E+00  0.6586755670708E+00
 0.3574894364823E-01 -0.5660763775734E-01  0.0000000000000E+00  0.6765706773485E+00
 0.3718060990880E-01 -0.5765250699415E-01  0.0000000000000E+00  0.6904733325964E+00
 0.3653249600207E-01 -0.5666299123185E-01  0.0000000000000E+00  0.7000804776551E+00
 0.3373158177520E-01 -0.5357053245918E-01  0.0000000000000E+00  0.7052645681105E+00
 0.2879452555594E-01 -0.4839240273924E-01  0.0000000000000E+00  0.7059761701642E+00
 0.2181362898724E-01 -0.4121731507488E-01  0.0000000000000E+00  0.7021698547571E+00
 0.1294825309004E-01 -0.3219672339349E-01  0.0000000000000E+00  0.6937685269166E+00
 0.2424263939249E-02 -0.2154441508063E-01  0.0000000000000E+00  0.6806727613034E+00
-0.9463939189430E-02 -0.9538842422838E-02  0.0000000000000E+00  0.6627961329311E+00
-0.2235695638181E-01  0.3479942748330E-02  0.0000000000000E+00  0.6400986142235E+00
-0.3584061170713E-01  0.1711986679795E-01  0.0000000000000E+00  0.6126074006847E+00
-0.4945814296094E-01  0.3094826138094E-01  0.0000000000000E+00  0.5804233330371E+00
-0.6271936243516E-01  0.4450027602808E-01  0.0000000000000E+00  0.5437144910843E+00
-0.7510436166594E-01  0.5728196640608E-01  0.0000000000000E+00  0.5026844345268E+00
-0.8606090942068E-01  0.6876738419025E-01  0.0000000000000E+00  0.4575019734130E+00
 0.7528453801902E-02 -0.3114782921963E-01  0.0000000000000E+00  0.5681257041672E+00
 0.1414859629423E-01 -0.3734504245221E-01  0.0000000000000E+00  0.5913841052224E+00
 0.2093202385728E-01 -0.4366192265478E-01  0.0000000000000E+00  0.6155623223063E+00
 0.2721618701812E-01 -0.4945713923344E-01  0.0000000000000E+00  0.6385525078710E+00
 0.3241740852351E-01 -0.5416673811839E-01  0.0000000000000E+00  0.6588931292688E+00
 0.3606926520231E-01 -0.5734144972882E-01  0.0000000000000E+00  0.6756633102207E+00
 0.3783681742542E-01 -0.5866040746796E-01  0.0000000000000E+00  0.6883524484807E+00
 0.3751507259619E-01 -0.5792930471923E-01  0.0000000000000E+00  0.6967308532723E+00
 0.3501750407372E-01 -0.5506857886656E-01  0.0000000000000E+00  0.7007319215471E+00
 0.3035861557910E-01 -0.5009552707755E-01  0.0000000000000E+00  0.7003510011391E+00
 0.2363555851073E-01 -0.4310549330292E-01  0.0000000000000E+00  0.6955701908301E+00
 0.1501550888857E-01 -0.3425908431566E-01  0.0000000000000E+00  0.6863255586379E+00
 0.4732045038184E-02 -0.2377872945124E-01  0.0000000000000E+00  0.6725226533514E+00
-0.6914613921492E-02 -0.1194933229169E-01  0.0000000000000E+00  0.6540775709852E+00
-0.1956193004100E-01  0.8854427522272E-03  0.0000000000000E+00  0.6309529055973E+00
-0.3279504986019E-01  0.1433240759654E-01  0.0000000000000E+00  0.6031798162583E+00
-0.4615758076059E-01  0.2795878147388E-01  0.0000000000000E+00  0.5708655664915E+00
-0.5915779803092E-01  0.4129762328430E-01  0.0000000000000E+00  0.5341892519498E+00
-0.7126791411796E-01  0.5384655805101E-01  0.0000000000000E+00  0.4933719133169E+00
-0.8191574100379E-01  0.6505946865038E-01  0.0000000000000E+00  0.4486067930502E+00
 0.7691816228621E-02 -0.3184597020044E-01  0.0000000000000E+00  0.5701718783082E+00
 0.1395587227424E-01 -0.3769884380667E-01  0.0000000000000E+00  0.5935068853576E+00
 0.2068395218166E-01 -0.4395043234957E-01  0.0000000000000E+00  0.6173580991725E+00
 0.2712053948390E-01 -0.4986988436562E-01  0.0000000000000E+00  0.6396619858142E+00
 0.3259737063662E-01 -0.5481215933290E-01  0.0000000000000E+00  0.6590352124132E+00
 0.3658144557050E-01 -0.5826472915194E-01  0.0000000000000E+00  0.6746497488675E+00
 0.3869177518574E-01 -0.5986373499738E-01  0.0000000000000E+00  0.6860881310752E+00
 0.3869638377431E-01 -0.5939066106740E-01  0.0000000000000E+00  0.6932044000301E+00
 0.3649732972829E-01 -0.5675700230632E-01  0.0000000000000E+00  0.6959997817639E+00
 0.3210889321459E-01 -0.5198195913349E-01  0.0000000000000E+00  0.6945176373441E+00
 0.2563464835120E-01 -0.4516901676490E-01  0.0000000000000E+00  0.6887677583388E+00
 0.1725069341872E-01 -0.3648898481791E-01  0.0000000000000E+00  0.6786976225825E+00
 0.7198942854586E-02 -0.2617351521701E-01  0.0000000000000E+00  0.6642152866572E+00
-0.4214365354763E-02 -0.1451413115685E-01  0.0000000000000E+00  0.6452368921849E+00
-0.1662378985127E-01 -0.1857850265764E-02  0.0000000000000E+00  0.6217254297187E+00
-0.2961454530643E-01  0.1140179849791E-01  0.0000000000000E+00  0.5937145483516E+00
-0.4273192426070E-01  0.2483327083425E-01  0.0000000000000E+00  0.5613178832049E+00
-0.5548443767186E-01  0.3796933930914E-01  0.0000000000000E+00  0.5247277296333E+00
-0.6733821564029E-01  0.5030102278341E-01  0.0000000000000E+00  0.4841871420798E+00
-0.7770137161836E-01  0.6126238868162E-01  0.0000000000000E+00  0.4399193235191E+00
 0.7881794772838E-02 -0.3258325805224E-01  0.0000000000000E+00  0.5719761114421E+00
 0.1384132556015E-01 -0.3814022591856E-01  0.0000000000000E+00  0.5954977718595E+00
 0.2056222506225E-01 -0.4437156341932E-01  0.0000000000000E+00  0.6190839778177E+00
 0.2719038338952E-01 -0.5045153450714E-01  0.0000000000000E+00  0.6407191412585E+00
 0.3297014982366E-01 -0.5565139549492E-01  0.0000000000000E+00  0.6591099105144E+00
 0.3730176265219E-01 -0.5939528668858E-01  0.0000000000000E+00  0.6735353494607E+00
 0.3975974520417E-01 -0.6127797210730E-01  0.0000000000000E+00  0.6836843524073E+00
 0.4008757205232E-01 -0.6105916524864E-01  0.0000000000000E+00  0.6895049862762E+00
 0.3817852002592E-01 -0.5864401814250E-01  0.0000000000000E+00  0.6910728440138E+00
 0.3404904038488E-01 -0.5405596812748E-01  0.0000000000000E+00  0.6884821008079E+00
 0.2781103842089E-01 -0.4740847810516E-01  0.0000000000000E+00  0.6817700457576E+00
 0.1965084024138E-01 -0.3888380002837E-01  0.0000000000000E+00  0.6708935818580E+00
 0.9819409990643E-02 -0.2872347204795E-01  0.0000000000000E+00  0.6557606822997E+00
-0.1370778274701E-02 -0.1722581965883E-01  0.0000000000000E+00  0.6362849358020E+00
-0.1355168070438E-01 -0.4740886487862E-02  0.0000000000000E+00  0.6124272245188E+00
-0.2630952127139E-01  0.8338430450328E-02  0.0000000000000E+00  0.5842217749525E+00
-0.3919294229987E-01  0.2158353098180E-01  0.0000000000000E+00  0.5517880752972E+00
-0.5171288161482E-01  0.3452913801018E-01  0.0000000000000E+00  0.5153335643118E+00
-0.6333140874689E-01  0.4666172123511E-01  0.0000000000000E+00  0.4751280901411E+00
-0.7343637933650E-01  0.5739508909470E-01  0.0000000000000E+00  0.4314316210680E+00
 0.8100366967445E-02 -0.3336517044059E-01  0.0000000000000E+00  0.5735580376597E+00
 0.1381188154788E-01 -0.3867927391072E-01  0.0000000000000E+00  0.5973763665800E+00
 0.2057882978504E-01 -0.4494003193572E-01  0.0000000000000E+00  0.6207562986261E+00
 0.2744127762528E-01 -0.5121992699115E-01  0.0000000000000E+00  0.6417353561282E+00
 0.3355274946304E-01 -0.5670330227993E-01  0.0000000000000E+00  0.6591236921829E+00
 0.3824659635999E-01 -0.6075097656260E-01  0.0000000000000E+00  0.6723228894354E+00
 0.4105485416650E-01 -0.6291840029789E-01  0.0000000000000E+00  0.6811418944998E+00
 0.4169945921547E-01 -0.6294653341638E-01  0.0000000000000E+00  0.6856330056808E+00
 0.4006810233243E-01 -0.6073734069573E-01  0.0000000000000E+00  0.6859522982953E+00
 0.3618225659156E-01 -0.5632127631463E-01  0.0000000000000E+00  0.6822470438732E+00
 0.3016437949966E-01 -0.4982391841695E-01  0.0000000000000E+00  0.6745813994937E+00
 0.2221250577245E-01 -0.4144036509104E-01  0.0000000000000E+00  0.6629194348865E+00
 0.1258744747548E-01 -0.3142278113019E-01  0.0000000000000E+00  0.6471663186472E+00
 0.1608178370073E-02 -0.2007652087823E-01  0.0000000000000E+00  0.6272303651388E+00
-0.1035497170294E-01 -0.7754313831025E-02  0.0000000000000E+00  0.6030674991260E+00
-0.2289033738514E-01  0.5152707067309E-02  0.0000000000000E+00  0.5747100213525E+00
-0.3555194814863E-01  0.1822097576206E-01  0.0000000000000E+00  0.5422821107858E+00
-0.4785587367763E-01  0.3098993426795E-01  0.0000000000000E+00  0.5060080245047E+00
-0.5926252314352E-01  0.4294394476198E-01  0.0000000000000E+00  0.4661897296883E+00
-0.6913820539848E-01  0.5347538762934E-01  0.0000000000000E+00  0.4231328507646E+00
 0.8349666379034E-02 -0.3419741234582E-01  0.0000000000000E+00  0.5749387395381E+00
 0.1387493601699E-01 -0.3932658748798E-01  0.0000000000000E+00  0.5991638807307E+00
 0.2074647530119E-01 -0.4567128510264E-01  0.0000000000000E+00  0.6223921221006E+00
 0.2788951797889E-01 -0.5219361381522E-01  0.0000000000000E+00  0.6427214020870E+00
 0.3436272002565E-01 -0.5798723591140E-01  0.0000000000000E+00  0.6590811391731E+00
 0.3943258475236E-01 -0.6234984886709E-01  0.0000000000000E+00  0.6710122998970E+00
 0.4259119968230E-01 -0.6480020189412E-01  0.0000000000000E+00  0.6784581228108E+00
 0.4354261610314E-01 -0.6506415903826E-01  0.0000000000000E+00  0.6815852112609E+00
 0.4217271870858E-01 -0.6304422974308E-01  0.0000000000000E+00  0.6806357202582E+00
 0.3851129840438E-01 -0.5878109837596E-01  0.0000000000000E+00  0.6758116769375E+00
 0.3269386838139E-01 -0.5241486446217E-01  0.0000000000000E+00  0.6672029600423E+00
 0.2493179436734E-01 -0.4415500382823E-01  0.0000000000000E+00  0.6547782370463E+00
 0.1549660621766E-01 -0.3426510974124E-01  0.0000000000000E+00  0.6384370458777E+00
 0.4714122508425E-02 -0.2305787149413E-01  0.0000000000000E+00  0.6180796324973E+00
-0.7043296351807E-02 -0.1088843400058E-01  0.0000000000000E+00  0.5936537363631E+00
-0.1936729185615E-01  0.1855051117897E-02  0.0000000000000E+00  0.5651864511160E+00
-0.3181971621784E-01  0.1475654588111E-01  0.0000000000000E+00  0.5328045588497E+00
-0.4392514582021E-01  0.2736367626934E-01  0.0000000000000E+00  0.4967504208974E+00
-0.5514536655283E-01  0.3916178910723E-01  0.0000000000000E+00  0.4573643185669E+00
-0.6482324873784E-01  0.4952005708880E-01  0.0000000000000E+00  0.4150095297004E+00
 0.8632054124536E-02 -0.3508602020905E-01  0.0000000000000E+00  0.5761408763836E+00
 0.1403855236729E-01 -0.4009350082590E-01  0.0000000000000E+00  0.6008832389883E+00
 0.2107886303299E-01 -0.4658178396923E-01  0.0000000000000E+00  0.6240091551273E+00
 0.2855240488551E-01 -0.5339213253143E-01  0.0000000000000E+00  0.6436871996035E+00
 0.3541837542367E-01 -0.5952326692357E-01  0.0000000000000E+00  0.6589846235854E+00
 0.4087677551328E-01 -0.6421029580978E-01  0.0000000000000E+00  0.6696003472086E+00
 0.4438294605942E-01 -0.6693855030266E-01  0.0000000000000E+00  0.6756267261102E+00
 0.4562742082181E-01 -0.6742316666474E-01  0.0000000000000E+00  0.6773545326629E+00
 0.4449866525402E-01 -0.6557152711866E-01  0.0000000000000E+00  0.6751169597344E+00
 0.4103851514032E-01 -0.6143817655512E-01  0.0000000000000E+00  0.6691717046957E+00
 0.3539828743681E-01 -0.5518037050134E-01  0.0000000000000E+00  0.6596326083751E+00
 0.2780439447655E-01 -0.4702356989486E-01  0.0000000000000E+00  0.6464700158507E+00
 0.1853999525547E-01 -0.3724362492761E-01  0.0000000000000E+00  0.6295749603322E+00
 0.7938215320809E-02 -0.2616097943178E-01  0.0000000000000E+00  0.6088368801934E+00
-0.3626637572609E-02 -0.1413311160413E-01  0.0000000000000E+00  0.5841917561426E+00
-0.1575068249824E-01 -0.1544024494162E-02  0.0000000000000E+00  0.5556572035231E+00
-0.2800643250483E-01  0.1120066248471E-01  0.0000000000000E+00  0.5233591496037E+00
-0.3993124574562E-01  0.2366115873123E-01  0.0000000000000E+00  0.4875586253930E+00
-0.5099238103311E-01  0.3532798767882E-01  0.0000000000000E+00  0.4486415923121E+00
-0.6050690455987E-01  0.4554487181010E-01  0.0000000000000E+00  0.4070452439917E+00
 0.8950207009452E-02 -0.3603748856067E-01  0.0000000000000E+00  0.5771888639170E+00
 0.1431169858236E-01 -0.4099234562253E-01  0.0000000000000E+00  0.6025592036588E+00
 0.2159099844072E-01 -0.4768932767063E-01  0.0000000000000E+00  0.6256256372907E+00
 0.2944853540522E-01 -0.5483630013533E-01  0.0000000000000E+00  0.6446415011810E+00
 0.3673901391369E-01 -0.6133239635460E-01  0.0000000000000E+00  0.6588339072603E+00
 0.4259676848357E-01 -0.6635118698968E-01  0.0000000000000E+00  0.6680802553553E+00
 0.4644440546140E-01 -0.6934868423461E-01  0.0000000000000E+00  0.6726374200564E+00
 0.4796410185121E-01 -0.7003444972907E-01  0.0000000000000E+00  0.6729298761832E+00
 0.4705191845413E-01 -0.6832567961776E-01  0.0000000000000E+00  0.6693860278660E+00
 0.4376587668501E-01 -0.6429480712623E-01  0.0000000000000E+00  0.6623192770738E+00
 0.3827604699228E-01 -0.5811906259654E-01  0.0000000000000E+00  0.6518649380344E+00
 0.3082563142679E-01 -0.5004150613037E-01  0.0000000000000E+00  0.6379916981142E+00
 0.2171030947318E-01 -0.4035103072414E-01  0.0000000000000E+00  0.6205792385134E+00
 0.1127111165195E-01 -0.2937637933338E-01  0.0000000000000E+00  0.5995037407716E+00
-0.1154677289570E-03 -0.1747762661176E-01  0.0000000000000E+00  0.5746856836883E+00
-0.1205095817505E-01 -0.5033747808957E-02  0.0000000000000E+00  0.5461277487552E+00
-0.2412170915209E-01  0.7563256160265E-02  0.0000000000000E+00  0.5139495193411E+00
-0.3588332855481E-01  0.1989180310636E-01  0.0000000000000E+00  0.4784298145972E+00
-0.4681437744710E-01  0.3145360552617E-01  0.0000000000000E+00  0.4400088501804E+00
-0.5620331528656E-01  0.4156440040751E-01  0.0000000000000E+00  0.3992196491258E+00
 0.9307229345614E-02 -0.3705892851172E-01  0.0000000000000E+00  0.5781091169446E+00
 0.1470453822575E-01 -0.4203677284287E-01  0.0000000000000E+00  0.6042185098655E+00
 0.2229955331041E-01 -0.4901342916650E-01  0.0000000000000E+00  0.6272601589144E+00
 0.3059812067896E-01 -0.5654853040025E-01  0.0000000000000E+00  0.6455914686371E+00
 0.3834513874058E-01 -0.6343676866780E-01  0.0000000000000E+00  0.6586256438940E+00
 0.4461084307732E-01 -0.6879198698828E-01  0.0000000000000E+00  0.6664412616457E+00
 0.4879009996841E-01 -0.7204596128935E-01  0.0000000000000E+00  0.6694756136448E+00
 0.5056276352409E-01 -0.7290869004216E-01  0.0000000000000E+00  0.6682959068574E+00
 0.4983814599636E-01 -0.7131274587504E-01  0.0000000000000E+00  0.6634289794629E+00
 0.4669498881209E-01 -0.6735285323382E-01  0.0000000000000E+00  0.6552429538052E+00
 0.4132522617731E-01 -0.6122917971017E-01  0.0000000000000E+00  0.6438912667297E+00
 0.3399054229740E-01 -0.5320392649488E-01  0.0000000000000E+00  0.6293370798134E+00
 0.2499989933287E-01 -0.4357965307290E-01  0.0000000000000E+00  0.6114459467457E+00
 0.1470293142933E-01 -0.3269401748958E-01  0.0000000000000E+00  0.5900789888026E+00
 0.3479056000735E-02 -0.2091047244450E-01  0.0000000000000E+00  0.5651377156769E+00
-0.8278998980469E-02 -0.8602776512145E-02  0.0000000000000E+00  0.5366031879819E+00
-0.2017471642145E-01  0.3853927065356E-02  0.0000000000000E+00  0.5045801641562E+00
-0.3178891787798E-01  0.1606342847572E-01  0.0000000000000E+00  0.4693616280715E+00
-0.4261998524841E-01  0.2754743665675E-01  0.0000000000000E+00  0.4314511555422E+00
-0.5192450067792E-01  0.3759113665126E-01  0.0000000000000E+00  0.3915064163379E+00
 0.9706799589026E-02 -0.3815827290530E-01  0.0000000000000E+00  0.5789303708234E+00
 0.1522879630519E-01 -0.4324215583509E-01  0.0000000000000E+00  0.6058899920527E+00
 0.2322329061064E-01 -0.5057575396852E-01  0.0000000000000E+00  0.6289313650756E+00
 0.3202332731866E-01 -0.5855317167002E-01  0.0000000000000E+00  0.6465421021466E+00
 0.4025866967985E-01 -0.6585987112379E-01  0.0000000000000E+00  0.6583527613719E+00
 0.4693806191621E-01 -0.7155284599332E-01  0.0000000000000E+00  0.6646681007964E+00
 0.5143479964161E-01 -0.7504588589165E-01  0.0000000000000E+00  0.6661220410310E+00
 0.5343339270296E-01 -0.7605635803484E-01  0.0000000000000E+00  0.6634328140643E+00
 0.5286270174630E-01 -0.7453838757589E-01  0.0000000000000E+00  0.6572277842590E+00
 0.4982709121489E-01 -0.7061373951331E-01  0.0000000000000E+00  0.6479276708378E+00
 0.4454360116146E-01 -0.6450859896221E-01  0.0000000000000E+00  0.6356996919626E+00
 0.3729396899993E-01 -0.5650571301888E-01  0.0000000000000E+00  0.6204968873860E+00
 0.2840090984201E-01 -0.4692160009921E-01  0.0000000000000E+00  0.6021678901241E+00
 0.1822330611801E-01 -0.3610332849048E-01  0.0000000000000E+00  0.5805580174102E+00
 0.7144864395944E-02 -0.2441913267478E-01  0.0000000000000E+00  0.5555475097764E+00
-0.4446585285134E-02 -0.1223867894255E-01  0.0000000000000E+00  0.5270883270990E+00
-0.1617451273676E-01  0.8234138515562E-04  0.0000000000000E+00  0.4952576614935E+00
-0.2765369825390E-01  0.1218204412911E-01  0.0000000000000E+00  0.4603538665767E+00
-0.3841476835755E-01  0.2361513602304E-01  0.0000000000000E+00  0.4229523737742E+00
-0.4767974813858E-01  0.3363446562212E-01  0.0000000000000E+00  0.3838745294920E+00
 0.1015337008200E-01 -0.3934455271122E-01  0.0000000000000E+00  0.5796841032833E+00
 0.1589823070287E-01 -0.4462610809459E-01  0.0000000000000E+00  0.6076046616751E+00
 0.2438356397443E-01 -0.5240063314934E-01  0.0000000000000E+00  0.6306574710581E+00
 0.3374863326010E-01 -0.6087685243759E-01  0.0000000000000E+00  0.6474954645734E+00
 0.4250312787894E-01 -0.6862670022816E-01  0.0000000000000E+00  0.6580037050000E+00
 0.4959833600241E-01 -0.7465464778219E-01  0.0000000000000E+00  0.6627404224731E+00
 0.5439352778310E-01 -0.7836410274435E-01  0.0000000000000E+00  0.6625523722523E+00
 0.5658584233805E-01 -0.7948768922549E-01  0.0000000000000E+00  0.6583160734868E+00
 0.5613060317578E-01 -0.7800784335706E-01  0.0000000000000E+00  0.6507601940262E+00
 0.5316303200357E-01 -0.7407842417722E-01  0.0000000000000E+00  0.6403546963209E+00
 0.4792863709479E-01 -0.6795481962885E-01  0.0000000000000E+00  0.6272751809811E+00
 0.4073063584921E-01 -0.5994158768740E-01  0.0000000000000E+00  0.6114589958316E+00
 0.3190549609984E-01 -0.5036899668546E-01  0.0000000000000E+00  0.5927346716938E+00
 0.2182158480393E-01 -0.3959350134474E-01  0.0000000000000E+00  0.5709322322176E+00
 0.1086879376375E-01 -0.2798993617019E-01  0.0000000000000E+00  0.5459109778477E+00
-0.5671360799120E-03 -0.1592713044324E-01  0.0000000000000E+00  0.5175871426132E+00
-0.1213078736373E-01 -0.3740880753942E-02  0.0000000000000E+00  0.4859922060766E+00
-0.2348136166524E-01  0.8251739571812E-02  0.0000000000000E+00  0.4514113269311E+00
-0.3420042830400E-01  0.1965820544956E-01  0.0000000000000E+00  0.4144972470545E+00
-0.4347767292766E-01  0.2970222009800E-01  0.0000000000000E+00  0.3762960140013E+00
 0.1065245204333E-01 -0.4062828761448E-01  0.0000000000000E+00  0.5804050862599E+00
 0.1672925762351E-01 -0.4620917041981E-01  0.0000000000000E+00  0.6093956452571E+00
 0.2580490165890E-01 -0.5451565501402E-01  0.0000000000000E+00  0.6324554588890E+00
 0.3580117632145E-01 -0.6354880923063E-01  0.0000000000000E+00  0.6484496230785E+00
 0.4510376887499E-01 -0.7176386566973E-01  0.0000000000000E+00  0.6575615257013E+00
 0.5261243862792E-01 -0.7811900387000E-01  0.0000000000000E+00  0.6606321512664E+00
 0.5768153054114E-01 -0.8201635227297E-01  0.0000000000000E+00  0.6587368070046E+00
 0.6002979488145E-01 -0.8321264040677E-01  0.0000000000000E+00  0.6529162080773E+00
 0.5964649999361E-01 -0.8172589495518E-01  0.0000000000000E+00  0.6439995992483E+00
 0.5670323283386E-01 -0.7774736352370E-01  0.0000000000000E+00  0.6325015479188E+00
 0.5147743851386E-01 -0.7156491113416E-01  0.0000000000000E+00  0.6185995957746E+00
 0.4429515650745E-01 -0.6350609022554E-01  0.0000000000000E+00  0.6022087622198E+00
 0.3550607887053E-01 -0.5391424136282E-01  0.0000000000000E+00  0.5831331762837E+00
 0.2548733140357E-01 -0.4315405896963E-01  0.0000000000000E+00  0.5611886896134E+00
 0.1463669087377E-01 -0.3160830572471E-01  0.0000000000000E+00  0.5362182258738E+00
 0.3343275733609E-02 -0.1965083851386E-01  0.0000000000000E+00  0.5081007269930E+00
-0.8055413465712E-02 -0.7602333427906E-02  0.0000000000000E+00  0.4767990297782E+00
-0.1927382408763E-01  0.4275101588787E-02  0.0000000000000E+00  0.4425490139492E+00
-0.2997358154470E-01  0.1567238331691E-01  0.0000000000000E+00  0.4060749867302E+00
-0.3932606099318E-01  0.2580054878519E-01  0.0000000000000E+00  0.3687329233309E+00
 0.1121104434434E-01 -0.4202208206859E-01  0.0000000000000E+00  0.5811320758223E+00
 0.1774180386732E-01 -0.4801573821749E-01  0.0000000000000E+00  0.6112977886137E+00
 0.2751566658227E-01 -0.5695233026648E-01  0.0000000000000E+00  0.6343397297760E+00
 0.3821103555987E-01 -0.6660111478135E-01  0.0000000000000E+00  0.6493972309489E+00
 0.4808762013900E-01 -0.7529959768605E-01  0.0000000000000E+00  0.6570028562529E+00
 0.5600195114823E-01 -0.8196817230885E-01  0.0000000000000E+00  0.6583108238662E+00
 0.6131420163118E-01 -0.8601838449343E-01  0.0000000000000E+00  0.6546396772032E+00
 0.6377469697569E-01 -0.8724081227612E-01  0.0000000000000E+00  0.6471985695484E+00
 0.6341463270345E-01 -0.8569682452963E-01  0.0000000000000E+00  0.6369149172218E+00
 0.6044765359287E-01 -0.8162048125736E-01  0.0000000000000E+00  0.6243418860047E+00
 0.5518667895588E-01 -0.7533543857389E-01  0.0000000000000E+00  0.6096516252843E+00
 0.4798190025532E-01 -0.6719344118064E-01  0.0000000000000E+00  0.5927292051430E+00
 0.3919544179338E-01 -0.5754997926384E-01  0.0000000000000E+00  0.5733486904081E+00
 0.2921115271673E-01 -0.4677579691953E-01  0.0000000000000E+00  0.5513109094972E+00
 0.1843431988801E-01 -0.3525994053304E-01  0.0000000000000E+00  0.5264510136790E+00
 0.7264900551377E-02 -0.2338871916395E-01  0.0000000000000E+00  0.4986219568999E+00
-0.3965551786845E-02 -0.1148209226983E-01  0.0000000000000E+00  0.4676981381809E+00
-0.1503276766330E-01  0.2552668566700E-03  0.0000000000000E+00  0.4338011314393E+00
-0.2572284957349E-01  0.1164460163279E-01  0.0000000000000E+00  0.3976868429618E+00
-0.3522751153889E-01  0.2192864981986E-01  0.0000000000000E+00  0.3611334624335E+00
 0.1183834595594E-01 -0.4354157691570E-01  0.0000000000000E+00  0.5819087644007E+00
 0.1896052337203E-01 -0.5007544898242E-01  0.0000000000000E+00  0.6133463937445E+00
 0.2954870930139E-01 -0.5974663803274E-01  0.0000000000000E+00  0.6363197885542E+00
 0.4101132807559E-01 -0.7006873852840E-01  0.0000000000000E+00  0.6503237593859E+00
 0.5148337890290E-01 -0.7926356282765E-01  0.0000000000000E+00  0.6562968578387E+00
 0.5978915254231E-01 -0.8622496139312E-01  0.0000000000000E+00  0.6557369660398E+00
 0.6530697066256E-01 -0.9038581170936E-01  0.0000000000000E+00  0.6502189838468E+00
 0.6782965385028E-01 -0.9158133630421E-01  0.0000000000000E+00  0.6411231621798E+00
 0.6743879022220E-01 -0.8992436848294E-01  0.0000000000000E+00  0.6294705285471E+00
 0.6439579063705E-01 -0.8569717621673E-01  0.0000000000000E+00  0.6158454052391E+00
 0.5905254585554E-01 -0.7926242449871E-01  0.0000000000000E+00  0.6004065498008E+00
 0.5178482242945E-01 -0.7099733998316E-01  0.0000000000000E+00  0.5830009066892E+00
 0.4296634761776E-01 -0.6126875900203E-01  0.0000000000000E+00  0.5633654474284E+00
 0.3298537690909E-01 -0.5045087975934E-01  0.0000000000000E+00  0.5412827061447E+00
 0.2224996368469E-01 -0.3893441207282E-01  0.0000000000000E+00  0.5165820930184E+00
 0.1117466354337E-01 -0.2711670505607E-01  0.0000000000000E+00  0.4891243792551E+00
 0.1106430733380E-03 -0.1534763833196E-01  0.0000000000000E+00  0.4587063954902E+00
-0.1076486396462E-01 -0.3796469670679E-02  0.0000000000000E+00  0.4252356852945E+00
-0.2142413348710E-01  0.7547495630582E-02  0.0000000000000E+00  0.3893669237189E+00
-0.3117070931553E-01  0.1806800680850E-01  0.0000000000000E+00  0.3534255039063E+00
 0.1254697913617E-01 -0.4520754232184E-01  0.0000000000000E+00  0.5827838246992E+00
 0.2041645439336E-01 -0.5242465702085E-01  0.0000000000000E+00  0.6155737844660E+00
 0.3194176358878E-01 -0.6293958010757E-01  0.0000000000000E+00  0.6383963136905E+00
 0.4423779923215E-01 -0.7398866619071E-01  0.0000000000000E+00  0.6512055338868E+00
 0.5532118503014E-01 -0.8368686791922E-01  0.0000000000000E+00  0.6554048451464E+00
 0.6399694371591E-01 -0.9091253031279E-01  0.0000000000000E+00  0.6528631392839E+00
 0.6967508236199E-01 -0.9513390032238E-01  0.0000000000000E+00  0.6454259762367E+00
 0.7220326543151E-01 -0.9624267228592E-01  0.0000000000000E+00  0.6346445125492E+00
 0.7172224129569E-01 -0.9441165415165E-01  0.0000000000000E+00  0.6216263746545E+00
 0.6854671624341E-01 -0.8997637360997E-01  0.0000000000000E+00  0.6069778184727E+00
 0.6307077421502E-01 -0.8334140087153E-01  0.0000000000000E+00  0.5908359307673E+00
 0.5569724031341E-01 -0.7491078222504E-01  0.0000000000000E+00  0.5730014812879E+00
 0.4681113669032E-01 -0.6506245933737E-01  0.0000000000000E+00  0.5531666927851E+00
 0.3680274991002E-01 -0.5417196582344E-01  0.0000000000000E+00  0.5310896632623E+00
 0.2607826224815E-01 -0.4262594274153E-01  0.0000000000000E+00  0.5065898573258E+00
 0.1505310211502E-01 -0.3082178388730E-01  0.0000000000000E+00  0.4795447477254E+00
 0.4125504588465E-02 -0.1914178782727E-01  0.0000000000000E+00  0.4498031295656E+00
-0.6498291869171E-02 -0.7841297758876E-02  0.0000000000000E+00  0.4169735458439E+00
-0.1703504231040E-01  0.3337352004690E-02  0.0000000000000E+00  0.3812402744496E+00
-0.2710963839959E-01  0.1415217710375E-01  0.0000000000000E+00  0.3455191818937E+00
 0.1335621241583E-01 -0.4704873155553E-01  0.0000000000000E+00  0.5838153221408E+00
 0.2215013618624E-01 -0.5511225496481E-01  0.0000000000000E+00  0.6179979120809E+00
 0.3473558426055E-01 -0.6657189805455E-01  0.0000000000000E+00  0.6405534885940E+00
 0.4792771033517E-01 -0.7840055177808E-01  0.0000000000000E+00  0.6520128987772E+00
 0.5963300953358E-01 -0.8860177770494E-01  0.0000000000000E+00  0.6542779600069E+00
 0.6864844647648E-01 -0.9605414735439E-01  0.0000000000000E+00  0.6496334110924E+00
 0.7443340302930E-01 -0.1002772993454E+00  0.0000000000000E+00  0.6402045533337E+00
 0.7690332669288E-01 -0.1012323156004E+00  0.0000000000000E+00  0.6277114573863E+00
 0.7626756647250E-01 -0.9916093901259E-01  0.0000000000000E+00  0.6133383982297E+00
 0.7289921847133E-01 -0.9445677843804E-01  0.0000000000000E+00  0.5977011491849E+00
 0.6723680277227E-01 -0.8756756400429E-01  0.0000000000000E+00  0.5809071059846E+00
 0.5971177378529E-01 -0.7892598370333E-01  0.0000000000000E+00  0.5627048327479E+00
 0.5072094200847E-01 -0.6892170887890E-01  0.0000000000000E+00  0.5427337190766E+00
 0.4065592677180E-01 -0.5793087173297E-01  0.0000000000000E+00  0.5207196834662E+00
 0.2991459184245E-01 -0.4633074384838E-01  0.0000000000000E+00  0.4964611242052E+00
 0.1890571731979E-01 -0.3450635602787E-01  0.0000000000000E+00  0.4698453874684E+00
 0.8020986931697E-02 -0.2283892944855E-01  0.0000000000000E+00  0.4407922260533E+00
-0.2341463250659E-02 -0.1170046339757E-01  0.0000000000000E+00  0.4091552220220E+00
-0.1249772175786E-01 -0.1054936073605E-02  0.0000000000000E+00  0.3737385020361E+00
-0.2289374377558E-01  0.9982825004127E-02  0.0000000000000E+00  0.3372954092774E+00
 0.1429867922431E-01 -0.4913908722168E-01  0.0000000000000E+00  0.5849997413445E+00
 0.2420257927080E-01 -0.5816560301471E-01  0.0000000000000E+00  0.6205643650575E+00
 0.3796597804877E-01 -0.7068829704648E-01  0.0000000000000E+00  0.6427867474399E+00
 0.5212336474823E-01 -0.8334620339312E-01  0.0000000000000E+00  0.6527012083008E+00
 0.6445126568146E-01 -0.9404139869970E-01  0.0000000000000E+00  0.6528575689340E+00
 0.7376705162791E-01 -0.1016729062159E+00  0.0000000000000E+00  0.6459821526121E+00
 0.7959604228092E-01 -0.1058297199044E+00  0.0000000000000E+00  0.6344907608311E+00
 0.8193656045540E-01 -0.1065564880870E+00  0.0000000000000E+00  0.6202667709131E+00
 0.8107619348901E-01 -0.1041731965801E+00  0.0000000000000E+00  0.6045584788957E+00
 0.7745184724650E-01 -0.9913648941322E-01  0.0000000000000E+00  0.5879758935706E+00
 0.7154668574724E-01 -0.9193758925696E-01  0.0000000000000E+00  0.5705822883499E+00
 0.6382011560805E-01 -0.8303350996530E-01  0.0000000000000E+00  0.5520786009559E+00
 0.5468535408024E-01 -0.7283545098778E-01  0.0000000000000E+00  0.5320464639343E+00
 0.4453547225844E-01 -0.6171803078781E-01  0.0000000000000E+00  0.5101602089705E+00
 0.3375620400410E-01 -0.5004357924545E-01  0.0000000000000E+00  0.4861906604488E+00
 0.2273395400278E-01 -0.3817709915287E-01  0.0000000000000E+00  0.4600182916598E+00
 0.1185088256521E-01 -0.2647145808547E-01  0.0000000000000E+00  0.4315885812236E+00
 0.1442140311536E-02 -0.1528065311866E-01  0.0000000000000E+00  0.4010425608221E+00
-0.7986551305791E-02 -0.4988710152331E-02  0.0000000000000E+00  0.3682399151530E+00
-0.1804072500457E-01  0.4622230475067E-02  0.0000000000000E+00  0.3297439261870E+00
-0.1966173843703E+00  0.3294229383413E+00  0.0000000000000E+00  0.3871137915491E+00
-0.3082128171278E+00  0.3428149063049E+00  0.0000000000000E+00 -0.9271250935965E-01
-0.2230938796194E+00  0.2493701999223E+00  0.0000000000000E+00 -0.9385699693890E-01
-0.1711242545737E+00  0.1916034469518E+00  0.0000000000000E+00 -0.6061144984943E-01
-0.1322494879299E+00  0.1483514214235E+00  0.0000000000000E+00 -0.3824660980630E-01
-0.1010368745319E+00  0.1132706372585E+00  0.0000000000000E+00 -0.2158781011762E-01
-0.7431009993599E-01  0.8311565867206E-01  0.0000000000000E+00 -0.9338756826388E-02
-0.5027401018195E-01  0.5590753150397E-01  0.0000000000000E+00 -0.6799961273569E-03
-0.2621852256968E-01  0.2861820640432E-01  0.0000000000000E+00  0.7388624001954E-02
-0.1147157470779E-02 -0.2507724213242E-02  0.0000000000000E+00  0.3553997716392E-01
 0.1028568954189E-01 -0.2673548789704E-01  0.0000000000000E+00  0.6566748531714E-01
 0.2626746808335E-02 -0.3660631494024E-01  0.0000000000000E+00  0.6693272092548E-01
-0.9306256721587E-02 -0.4085978382799E-01  0.0000000000000E+00  0.5410308852963E-01
-0.2022537096877E-01 -0.4346251946889E-01  0.0000000000000E+00  0.4053890731211E-01
-0.2946622733451E-01 -0.4498407350998E-01  0.0000000000000E+00  0.2975939999777E-01
-0.3719322404443E-01 -0.4511924498184E-01  0.0000000000000E+00  0.2145744674882E-01
-0.4305257541226E-01 -0.4426248396373E-01  0.0000000000000E+00  0.1511477906232E-01
-0.4706891288656E-01 -0.4263333431322E-01  0.0000000000000E+00  0.9454226947833E-02
-0.4960308754828E-01 -0.4007397093264E-01  0.0000000000000E+00  0.3040217866945E-02
-0.5062167930602E-01 -0.3674754165722E-01  0.0000000000000E+00 -0.5011121098791E-02
-0.1608732247721E+00  0.2409598586397E+00  0.0000000000000E+00  0.4835330888572E+00
-0.2815027063177E+00  0.3340381124224E+00  0.0000000000000E+00  0.1504728913553E+00
-0.2333607197658E+00  0.2605991244088E+00  0.0000000000000E+00  0.6210453385382E-02
-0.1763414625306E+00  0.1968472226784E+00  0.0000000000000E+00 -0.1740106067476E-02
-0.1340054916457E+00  0.1496212398037E+00  0.0000000000000E+00  0.9965745377508E-02
-0.9973575194333E-01  0.1113661083453E+00  0.0000000000000E+00  0.2143599176276E-01
-0.6989555275315E-01  0.7788910964440E-01  0.0000000000000E+00  0.3143531647130E-01
-0.4185608325334E-01  0.4632768838707E-01  0.0000000000000E+00  0.4124137175515E-01
-0.1385960654212E-01  0.1412529073658E-01  0.0000000000000E+00  0.5805428922014E-01
 0.1143285574951E-01 -0.1769670737639E-01  0.0000000000000E+00  0.1016238995440E+00
 0.1917237097742E-01 -0.3617241570712E-01  0.0000000000000E+00  0.1498786618448E+00
 0.6311445299467E-02 -0.3755422899113E-01  0.0000000000000E+00  0.1631943285959E+00
-0.1097528069933E-01 -0.3498661613186E-01  0.0000000000000E+00  0.1504220958639E+00
-0.2533092546788E-01 -0.3351924181285E-01  0.0000000000000E+00  0.1328656747318E+00
-0.3656764494331E-01 -0.3269695499602E-01  0.0000000000000E+00  0.1178707059906E+00
-0.4538673757039E-01 -0.3162704411730E-01  0.0000000000000E+00  0.1055257657812E+00
-0.5199299421158E-01 -0.3010442700044E-01  0.0000000000000E+00  0.9504448974173E-01
-0.5656308968350E-01 -0.2814328476312E-01  0.0000000000000E+00  0.8501647045462E-01
-0.5920193404871E-01 -0.2585007718384E-01  0.0000000000000E+00  0.7444641139366E-01
-0.5982257067741E-01 -0.2340738904715E-01  0.0000000000000E+00  0.6397453095367E-01
-0.1253671598486E+00  0.1885339546972E+00  0.0000000000000E+00  0.4727230100178E+00
-0.2354984180086E+00  0.2822704263871E+00  0.0000000000000E+00  0.2739923726518E+00
-0.2215450997182E+00  0.2530293805616E+00  0.0000000000000E+00  0.1274178029604E+00
-0.1769218994484E+00  0.1976327972886E+00  0.0000000000000E+00  0.7059814054660E-01
-0.1339413104599E+00  0.1492341040868E+00  0.0000000000000E+00  0.6366703714381E-01
-0.9789105572606E-01  0.1088982157910E+00  0.0000000000000E+00  0.6830712632717E-01
-0.6587199319143E-01  0.7304865829716E-01  0.0000000000000E+00  0.7615409051801E-01
-0.3559011718474E-01  0.3887473058918E-01  0.0000000000000E+00  0.8797247294563E-01
-0.6323228444320E-02  0.4959495551517E-02  0.0000000000000E+00  0.1112927472335E+00
 0.1802946169715E-01 -0.2585093738899E-01  0.0000000000000E+00  0.1614367790796E+00
 0.2444262422868E-01 -0.4172852979808E-01  0.0000000000000E+00  0.2174679437248E+00
 0.1044054389307E-01 -0.3991010724297E-01  0.0000000000000E+00  0.2414623597787E+00
-0.9717771195827E-02 -0.3275217204562E-01  0.0000000000000E+00  0.2350298048485E+00
-0.2735395647110E-01 -0.2710142041549E-01  0.0000000000000E+00  0.2178393866099E+00
-0.4112974996634E-01 -0.2329693216807E-01  0.0000000000000E+00  0.2004212093555E+00
-0.5164987715384E-01 -0.2035201428579E-01  0.0000000000000E+00  0.1848665805544E+00
-0.5950117921541E-01 -0.1761758930792E-01  0.0000000000000E+00  0.1707801841300E+00
-0.6502457850109E-01 -0.1489524305481E-01  0.0000000000000E+00  0.1569264974764E+00
-0.6831949406423E-01 -0.1226235377711E-01  0.0000000000000E+00  0.1427875950007E+00
-0.6957604214687E-01 -0.9472093782982E-02  0.0000000000000E+00  0.1292873708580E+00
-0.9843733127198E-01  0.1508060756930E+00  0.0000000000000E+00  0.4513414882018E+00
-0.1928742947429E+00  0.2346259773021E+00  0.0000000000000E+00  0.3416631415230E+00
-0.1982979744434E+00  0.2291391630980E+00  0.0000000000000E+00  0.2221385543505E+00
-0.1689799362966E+00  0.1904826311239E+00  0.0000000000000E+00  0.1497586416762E+00
-0.1309993119593E+00  0.1460248060785E+00  0.0000000000000E+00  0.1229870479580E+00
-0.9505947607077E-01  0.1054943760090E+00  0.0000000000000E+00  0.1188214629310E+00
-0.6215824047999E-01  0.6852181579705E-01  0.0000000000000E+00  0.1240270694169E+00
-0.3106386591931E-01  0.3328548386671E-01  0.0000000000000E+00  0.1372671396909E+00
-0.1935422951101E-02 -0.6729469781085E-03  0.0000000000000E+00  0.1644540095576E+00
 0.2108413618956E-01 -0.2994548477684E-01  0.0000000000000E+00  0.2166205479950E+00
 0.2701914522582E-01 -0.4440428654413E-01  0.0000000000000E+00  0.2753288945900E+00
 0.1357997678591E-01 -0.4162663455996E-01  0.0000000000000E+00  0.3068721917658E+00
-0.7507076576601E-02 -0.3207722267861E-01  0.0000000000000E+00  0.3079171408128E+00
-0.2741530375363E-01 -0.2313351656613E-01  0.0000000000000E+00  0.2940717739250E+00
-0.4363912710518E-01 -0.1631748904736E-01  0.0000000000000E+00  0.2763937478883E+00
-0.5617952105520E-01 -0.1110755874818E-01  0.0000000000000E+00  0.2588107221674E+00
-0.6565517599698E-01 -0.6731545464882E-02  0.0000000000000E+00  0.2418522009462E+00
-0.7252044841546E-01 -0.2816843542061E-02  0.0000000000000E+00  0.2247325952145E+00
-0.7694364631532E-01  0.6977787297819E-03  0.0000000000000E+00  0.2072309651199E+00
-0.7918583356005E-01  0.4117664103388E-02  0.0000000000000E+00  0.1903597655539E+00
-0.7752733820733E-01  0.1220835227533E+00  0.0000000000000E+00  0.4294568305180E+00
-0.1560744103337E+00  0.1931866205317E+00  0.0000000000000E+00  0.3814345576848E+00
-0.1716690499177E+00  0.2006854509924E+00  0.0000000000000E+00  0.2928030804852E+00
-0.1547781957613E+00  0.1759358243716E+00  0.0000000000000E+00  0.2221365560059E+00
-0.1241152410588E+00  0.1389372131272E+00  0.0000000000000E+00  0.1848899919848E+00
-0.9075066544470E-01  0.1006304986958E+00  0.0000000000000E+00  0.1721653363757E+00
-0.5841934026974E-01  0.6402184393199E-01  0.0000000000000E+00  0.1740907895432E+00
-0.2769285909843E-01  0.2898848781634E-01  0.0000000000000E+00  0.1876639002856E+00
 0.4459928047833E-03 -0.4025120318812E-02  0.0000000000000E+00  0.2165811420939E+00
 0.2193445449767E-01 -0.3151886006573E-01  0.0000000000000E+00  0.2682035805765E+00
 0.2766603240263E-01 -0.4501356461065E-01  0.0000000000000E+00  0.3266777521317E+00
 0.1546389528911E-01 -0.4227778330250E-01  0.0000000000000E+00  0.3629807523663E+00
-0.5361484194051E-02 -0.3174760231827E-01  0.0000000000000E+00  0.3708036382503E+00
-0.2652054017749E-01 -0.2056975569527E-01  0.0000000000000E+00  0.3615019922081E+00
-0.4471980643964E-01 -0.1114460237279E-01  0.0000000000000E+00  0.3452168524727E+00
-0.5927774416932E-01 -0.3601494892239E-02  0.0000000000000E+00  0.3268401597728E+00
-0.7058315547577E-01  0.2676099075995E-02  0.0000000000000E+00  0.3078326656016E+00
-0.7906991731280E-01  0.8111954875471E-02  0.0000000000000E+00  0.2879824308834E+00
-0.8491239046121E-01  0.1281990278741E-01  0.0000000000000E+00  0.2673803598603E+00
-0.8838073678431E-01  0.1712609282004E-01  0.0000000000000E+00  0.2471412553422E+00
-0.6111049561890E-01  0.9941712919743E-01  0.0000000000000E+00  0.4105827569918E+00
-0.1249256762886E+00  0.1578693747312E+00  0.0000000000000E+00  0.4055030481604E+00
-0.1450725863827E+00  0.1717654512570E+00  0.0000000000000E+00  0.3454076383118E+00
-0.1372026038854E+00  0.1573514863360E+00  0.0000000000000E+00  0.2843719702669E+00
-0.1138534134293E+00  0.1281402129699E+00  0.0000000000000E+00  0.2445458495570E+00
-0.8458820835124E-01  0.9390496799602E-01  0.0000000000000E+00  0.2264921139526E+00
-0.5425896312047E-01  0.5914776238134E-01  0.0000000000000E+00  0.2252232334996E+00
-0.2491063647078E-01  0.2540355933456E-01  0.0000000000000E+00  0.2381788871264E+00
 0.1631495240085E-02 -0.5983028276637E-02  0.0000000000000E+00  0.2672284691224E+00
 0.2144494461394E-01 -0.3153862922795E-01  0.0000000000000E+00  0.3167878610272E+00
 0.2698711215829E-01 -0.4420178614781E-01  0.0000000000000E+00  0.3732938045895E+00
 0.1619100196505E-01 -0.4189160955171E-01  0.0000000000000E+00  0.4121322131905E+00
-0.3713363985181E-02 -0.3121992273613E-01  0.0000000000000E+00  0.4254312038590E+00
-0.2531755620485E-01 -0.1868775780522E-01  0.0000000000000E+00  0.4208170288355E+00
-0.4492762803568E-01 -0.7205239419573E-02  0.0000000000000E+00  0.4068589997561E+00
-0.6128349557253E-01  0.2502061211187E-02  0.0000000000000E+00  0.3886852064905E+00
-0.7443743382141E-01  0.1075269294804E-01  0.0000000000000E+00  0.3684117679212E+00
-0.8467897910843E-01  0.1788379847841E-01  0.0000000000000E+00  0.3463867287911E+00
-0.9211245751632E-01  0.2398495307732E-01  0.0000000000000E+00  0.3230362641244E+00
-0.9695842387388E-01  0.2934316245746E-01  0.0000000000000E+00  0.2995769586500E+00
-0.4806793148547E-01  0.8110985230322E-01  0.0000000000000E+00  0.3954916285180E+00
-0.9872909686518E-01  0.1278711645541E+00  0.0000000000000E+00  0.4203358500868E+00
-0.1200197055585E+00  0.1442265100990E+00  0.0000000000000E+00  0.3847985930870E+00
-0.1182682867758E+00  0.1369981662190E+00  0.0000000000000E+00  0.3365267893932E+00
-0.1013062112170E+00  0.1147521307776E+00  0.0000000000000E+00  0.2993772630228E+00
-0.7669708239353E-01  0.8533983719531E-01  0.0000000000000E+00  0.2794910650974E+00
-0.4937783228596E-01  0.5357765456368E-01  0.0000000000000E+00  0.2760971150622E+00
-0.2224614518909E-01  0.2203053552022E-01  0.0000000000000E+00  0.2879830407977E+00
 0.2222108886352E-02 -0.7200368282987E-02  0.0000000000000E+00  0.3160975554119E+00
 0.2022171302120E-01 -0.3067522202923E-01  0.0000000000000E+00  0.3627112402413E+00
 0.2546168990613E-01 -0.4247779897945E-01  0.0000000000000E+00  0.4162163295986E+00
 0.1598554141670E-01 -0.4066040540760E-01  0.0000000000000E+00  0.4558936883679E+00
-0.2689351517255E-02 -0.3029829395628E-01  0.0000000000000E+00  0.4732578148505E+00
-0.2416678042343E-01 -0.1706524007379E-01  0.0000000000000E+00  0.4729087008529E+00
-0.4466216595288E-01 -0.4067451202177E-02  0.0000000000000E+00  0.4616460242856E+00
-0.6249605575593E-01  0.7510018097369E-02  0.0000000000000E+00  0.4443389294261E+00
-0.7737381180591E-01  0.1765002553956E-01  0.0000000000000E+00  0.4234559808291E+00
-0.8937316016060E-01  0.2651756366152E-01  0.0000000000000E+00  0.3997995102981E+00
-0.9846496882590E-01  0.3410704706121E-01  0.0000000000000E+00  0.3741079377200E+00
-0.1047652738389E+00  0.4061510379168E-01  0.0000000000000E+00  0.3476909744299E+00
-0.3761307537635E-01  0.6607153915974E-01  0.0000000000000E+00  0.3841597204483E+00
-0.7675410388460E-01  0.1023920118652E+00  0.0000000000000E+00  0.4296256596321E+00
-0.9714005048752E-01  0.1188301946265E+00  0.0000000000000E+00  0.4145372245333E+00
-0.9926418384219E-01  0.1163425656370E+00  0.0000000000000E+00  0.3797264707297E+00
-0.8749972674266E-01  0.9986630259277E-01  0.0000000000000E+00  0.3483457011998E+00
-0.6748210894562E-01  0.7532154815438E-01  0.0000000000000E+00  0.3294715211914E+00
-0.4369689173763E-01  0.4719150931349E-01  0.0000000000000E+00  0.3253601906695E+00
-0.1936676664568E-01  0.1850450864377E-01  0.0000000000000E+00  0.3362734816056E+00
 0.2658280633962E-02 -0.8159744421123E-02  0.0000000000000E+00  0.3628933129782E+00
 0.1870675138808E-01 -0.2941499774506E-01  0.0000000000000E+00  0.4061247008237E+00
 0.2347217353260E-01 -0.4024690304660E-01  0.0000000000000E+00  0.4560556133501E+00
 0.1510415419483E-01 -0.3882484993966E-01  0.0000000000000E+00  0.4953206373865E+00
-0.2257133921947E-02 -0.2897122321958E-01  0.0000000000000E+00  0.5154344915412E+00
-0.2323480497973E-01 -0.1548767696609E-01  0.0000000000000E+00  0.5186595427730E+00
-0.4417557047102E-01 -0.1445585312718E-02  0.0000000000000E+00  0.5100739699837E+00
-0.6314127166648E-01  0.1166299879627E-01  0.0000000000000E+00  0.4939972890251E+00
-0.7953167149027E-01  0.2350928563278E-01  0.0000000000000E+00  0.4729986089263E+00
-0.9319201965772E-01  0.3404899513416E-01  0.0000000000000E+00  0.4482024040502E+00
-0.1039219926764E+00  0.4313479162362E-01  0.0000000000000E+00  0.4206026540468E+00
-0.1116864912135E+00  0.5082625908771E-01  0.0000000000000E+00  0.3915740203142E+00
-0.2917618298881E-01  0.5355905810273E-01  0.0000000000000E+00  0.3762694305536E+00
-0.5835038506321E-01  0.8073165414205E-01  0.0000000000000E+00  0.4356094283609E+00
-0.7664109913472E-01  0.9584574074003E-01  0.0000000000000E+00  0.4371919633653E+00
-0.8097769514790E-01  0.9627918014057E-01  0.0000000000000E+00  0.4153122154013E+00
-0.7324750993455E-01  0.8436783104693E-01  0.0000000000000E+00  0.3912809434855E+00
-0.5742108746000E-01  0.6433946267606E-01  0.0000000000000E+00  0.3754247124106E+00
-0.3730832893484E-01  0.4006014383445E-01  0.0000000000000E+00  0.3719314306005E+00
-0.1609806955805E-01  0.1461902096814E-01  0.0000000000000E+00  0.3822984938494E+00
 0.3240421277305E-02 -0.9196398911176E-02  0.0000000000000E+00  0.4072885059208E+00
 0.1721986539001E-01 -0.2811163109729E-01  0.0000000000000E+00  0.4470400527199E+00
 0.2132090181165E-01 -0.3782991513872E-01  0.0000000000000E+00  0.4931506968743E+00
 0.1379574211636E-01 -0.3662605517152E-01  0.0000000000000E+00  0.5311203183013E+00
-0.2306121108257E-02 -0.2732037421596E-01  0.0000000000000E+00  0.5528475615329E+00
-0.2256533067630E-01 -0.1387523792029E-01  0.0000000000000E+00  0.5588635821522E+00
-0.4360545067592E-01  0.8282595513301E-03  0.0000000000000E+00  0.5526995097923E+00
-0.6337107605290E-01  0.1513088436148E-01  0.0000000000000E+00  0.5379842839678E+00
-0.8102127631780E-01  0.2844726143117E-01  0.0000000000000E+00  0.5172057642691E+00
-0.9618013534376E-01  0.4052276528105E-01  0.0000000000000E+00  0.4916877984405E+00
-0.1084617557934E+00  0.5104500269087E-01  0.0000000000000E+00  0.4626122438425E+00
-0.1176452934528E+00  0.5990026926567E-01  0.0000000000000E+00  0.4313775473561E+00
-0.2233568149764E-01  0.4304286672132E-01  0.0000000000000E+00  0.3714153460166E+00
-0.4296496404399E-01  0.6230293955396E-01  0.0000000000000E+00  0.4396881677530E+00
-0.5852103009110E-01  0.7530123176880E-01  0.0000000000000E+00  0.4546246695319E+00
-0.6386895880789E-01  0.7733486818950E-01  0.0000000000000E+00  0.4445500790594E+00
-0.5914588826107E-01  0.6891044054585E-01  0.0000000000000E+00  0.4284539204473E+00
-0.4696092546720E-01  0.5286396749076E-01  0.0000000000000E+00  0.4168723733642E+00
-0.3039656377771E-01  0.3236103597747E-01  0.0000000000000E+00  0.4150721923676E+00
-0.1239606487412E-01  0.1030714839767E-01  0.0000000000000E+00  0.4254409284951E+00
 0.4144568433494E-02 -0.1051506305728E-01  0.0000000000000E+00  0.4489503544785E+00
 0.1597954457042E-01 -0.2701065391576E-01  0.0000000000000E+00  0.4853745153090E+00
 0.1923925659058E-01 -0.3547387749469E-01  0.0000000000000E+00  0.5276616192651E+00
 0.1228221958817E-01 -0.3428260769895E-01  0.0000000000000E+00  0.5637564571286E+00
-0.2693628574450E-02 -0.2546878667560E-01  0.0000000000000E+00  0.5861687586046E+00
-0.2212877938806E-01 -0.1223015387084E-01  0.0000000000000E+00  0.5942050278815E+00
-0.4300840080507E-01  0.2836698638429E-02  0.0000000000000E+00  0.5900803945884E+00
-0.6327549883294E-01  0.1802228471650E-01  0.0000000000000E+00  0.5766948655804E+00
-0.8192136788096E-01  0.3255247868505E-01  0.0000000000000E+00  0.5563382361629E+00
-0.9838007120115E-01  0.4598488819581E-01  0.0000000000000E+00  0.5304362119862E+00
-0.1120834048399E+00  0.5783773420566E-01  0.0000000000000E+00  0.5002979780446E+00
-0.1226003083086E+00  0.6779722188949E-01  0.0000000000000E+00  0.4673010240795E+00
-0.1677293652001E-01  0.3413287850928E-01  0.0000000000000E+00  0.3691846869052E+00
-0.3013398032887E-01  0.4661799134788E-01  0.0000000000000E+00  0.4427554049456E+00
-0.4267389993722E-01  0.5710613042841E-01  0.0000000000000E+00  0.4681974222775E+00
-0.4818674839271E-01  0.5980066277234E-01  0.0000000000000E+00  0.4685460088768E+00
-0.4561021510117E-01  0.5395274241823E-01  0.0000000000000E+00  0.4603381004375E+00
-0.3647700747159E-01  0.4129512683568E-01  0.0000000000000E+00  0.4536975185193E+00
-0.2317827037506E-01  0.2431299264011E-01  0.0000000000000E+00  0.4543556185742E+00
-0.8305098575354E-02  0.5599177273845E-02  0.0000000000000E+00  0.4652564545786E+00
 0.5446529532877E-02 -0.1221319704681E-01  0.0000000000000E+00  0.4875865273803E+00
 0.1511809768376E-01 -0.2626608804959E-01  0.0000000000000E+00  0.5209973103976E+00
 0.1739381956619E-01 -0.3335879720914E-01  0.0000000000000E+00  0.5596331980055E+00
 0.1074871058304E-01 -0.3197891480537E-01  0.0000000000000E+00  0.5935209135240E+00
-0.3272589634848E-02 -0.2354987613745E-01  0.0000000000000E+00  0.6158999571733E+00
-0.2185652314965E-01 -0.1060008597617E-01  0.0000000000000E+00  0.6252598480176E+00
-0.4238812581902E-01  0.4605435932807E-02  0.0000000000000E+00  0.6227458515965E+00
-0.6289805441405E-01  0.2039867599067E-01  0.0000000000000E+00  0.6105564581892E+00
-0.8228247800908E-01  0.3588714451531E-01  0.0000000000000E+00  0.5907189351038E+00
-0.9982864459416E-01  0.5047831663794E-01  0.0000000000000E+00  0.5646927056110E+00
-0.1148018995617E+00  0.6353092970689E-01  0.0000000000000E+00  0.5338726372353E+00
-0.1265418263247E+00  0.7450989508289E-01  0.0000000000000E+00  0.4995777636539E+00
-0.1224259972262E-01  0.2653392550579E-01  0.0000000000000E+00  0.3691899631341E+00
-0.1946907675339E-01  0.3327103090074E-01  0.0000000000000E+00  0.4453833154963E+00
-0.2894395029110E-01  0.4111286973915E-01  0.0000000000000E+00  0.4789158959924E+00
-0.3404347994071E-01  0.4381646658493E-01  0.0000000000000E+00  0.4882353590702E+00
-0.3291582354421E-01  0.3980182360698E-01  0.0000000000000E+00  0.4874815183096E+00
-0.2626467634924E-01  0.2995037458585E-01  0.0000000000000E+00  0.4860121534841E+00
-0.1586580137257E-01  0.1613489441819E-01  0.0000000000000E+00  0.4896019398353E+00
-0.3919867791988E-02  0.5826578339382E-03  0.0000000000000E+00  0.5014735657316E+00
 0.7149306090592E-02 -0.1430899926505E-01  0.0000000000000E+00  0.5229769870965E+00
 0.1469781816110E-01 -0.2595704996197E-01  0.0000000000000E+00  0.5537717384165E+00
 0.1589303746067E-01 -0.3160443750903E-01  0.0000000000000E+00  0.5890441683067E+00
 0.9339358151180E-02 -0.2985985313631E-01  0.0000000000000E+00  0.6205865548164E+00
-0.3908482276572E-02 -0.2168849857163E-01  0.0000000000000E+00  0.6424106874247E+00
-0.2166465854489E-01 -0.9052574833434E-02  0.0000000000000E+00  0.6525059296617E+00
-0.4171777366031E-01  0.6126239121886E-02  0.0000000000000E+00  0.6511834138210E+00
-0.6225070203034E-01  0.2228887134355E-01  0.0000000000000E+00  0.6400049929037E+00
-0.8213271170201E-01  0.3849200978150E-01  0.0000000000000E+00  0.6207085135725E+00
-0.1005552999011E+00  0.5404058961287E-01  0.0000000000000E+00  0.5947459358158E+00
-0.1166432460525E+00  0.6815529740425E-01  0.0000000000000E+00  0.5635822978514E+00
-0.1294873217081E+00  0.8005902600017E-01  0.0000000000000E+00  0.5284603677865E+00
-0.8552630817811E-02  0.2001762243330E-01  0.0000000000000E+00  0.3710806579873E+00
-0.1064420786013E-01  0.2192282466533E-01  0.0000000000000E+00  0.4479344455741E+00
-0.1715459924244E-01  0.2714923374985E-01  0.0000000000000E+00  0.4875281378351E+00
-0.2146369671605E-01  0.2942510818964E-01  0.0000000000000E+00  0.5043978300805E+00
-0.2123333854027E-01  0.2665148453114E-01  0.0000000000000E+00  0.5104400755039E+00
-0.1654470212290E-01  0.1906892199587E-01  0.0000000000000E+00  0.5140645854301E+00
-0.8648121130536E-02  0.8023849910005E-02  0.0000000000000E+00  0.5208127469806E+00
 0.6428798744489E-03 -0.4628157977196E-02  0.0000000000000E+00  0.5339724821930E+00
 0.9208369024629E-02 -0.1676783754220E-01  0.0000000000000E+00  0.5549875296830E+00
 0.1472797966096E-01 -0.2610528342444E-01  0.0000000000000E+00  0.5835855704165E+00
 0.1479585260446E-01 -0.3027890697106E-01  0.0000000000000E+00  0.6158451787385E+00
 0.8157434594615E-02 -0.2803008872243E-01  0.0000000000000E+00  0.6450479692965E+00
-0.4489113046636E-02 -0.1998986603477E-01  0.0000000000000E+00  0.6659690696827E+00
-0.2147051642688E-01 -0.7657260583961E-02  0.0000000000000E+00  0.6763354378341E+00
-0.4095749446687E-01  0.7375190616993E-02  0.0000000000000E+00  0.6758342669401E+00
-0.6132736666235E-01  0.2370249398635E-01  0.0000000000000E+00  0.6654710602319E+00
-0.8148427568480E-01  0.4039236780068E-01  0.0000000000000E+00  0.6466893021904E+00
-0.1005813734301E+00  0.5670252345086E-01  0.0000000000000E+00  0.6209122909123E+00
-0.1176397167280E+00  0.7174909533560E-01  0.0000000000000E+00  0.5896898271474E+00
-0.1314770816185E+00  0.8448853627041E-01  0.0000000000000E+00  0.5542068363689E+00
-0.5550536384127E-02  0.1440385300835E-01  0.0000000000000E+00  0.3745457270879E+00
-0.3384367811047E-02  0.1228790132762E-01  0.0000000000000E+00  0.4506316793800E+00
-0.7124232166542E-02  0.1503577149576E-01  0.0000000000000E+00  0.4945933019279E+00
-0.1041570702556E-01  0.1660727709791E-01  0.0000000000000E+00  0.5176790617985E+00
-0.1065650608214E-01  0.1461240772866E-01  0.0000000000000E+00  0.5297441366340E+00
-0.7473753884096E-02  0.8822333995997E-02  0.0000000000000E+00  0.5381776395869E+00
-0.1682793144863E-02  0.1456818983784E-03  0.0000000000000E+00  0.5481155965497E+00
 0.5263188331903E-02 -0.9912937621001E-02  0.0000000000000E+00  0.5627565247824E+00
 0.1155215647047E-01 -0.1952403455045E-01  0.0000000000000E+00  0.5835695304865E+00
 0.1518095876511E-01 -0.2669194570355E-01  0.0000000000000E+00  0.6103690768265E+00
 0.1412185043317E-01 -0.2940885954114E-01  0.0000000000000E+00  0.6399863322648E+00
 0.7268991163942E-02 -0.2655720726943E-01  0.0000000000000E+00  0.6669527783490E+00
-0.4928994660121E-02 -0.1853432554722E-01  0.0000000000000E+00  0.6867666601699E+00
-0.2120373954888E-01 -0.6473960474799E-02  0.0000000000000E+00  0.6970659250984E+00
-0.4006841415743E-01  0.8327287316238E-02  0.0000000000000E+00  0.6970918867534E+00
-0.6011633847954E-01  0.2464256798577E-01  0.0000000000000E+00  0.6873724599606E+00
-0.8034039739111E-01  0.4160481480570E-01  0.0000000000000E+00  0.6690571141218E+00
-0.9991949735585E-01  0.5848724447980E-01  0.0000000000000E+00  0.6435270450190E+00
-0.1178242988991E+00  0.7435218728382E-01  0.0000000000000E+00  0.6124617853082E+00
-0.1325704159705E+00  0.8786113228914E-01  0.0000000000000E+00  0.5770674985774E+00
-0.3113666786319E-02  0.9548175383305E-02  0.0000000000000E+00  0.3793121199571E+00
 0.2543628139233E-02  0.4124362728519E-02  0.0000000000000E+00  0.4536035269608E+00
 0.1325146756578E-02  0.4595269006835E-02  0.0000000000000E+00  0.5005301399730E+00
-0.8324901958199E-03  0.5304412816706E-02  0.0000000000000E+00  0.5286119819957E+00
-0.1223342540303E-02  0.3735031322838E-02  0.0000000000000E+00  0.5458830904381E+00
 0.8442562865447E-03 -0.6736464563887E-03  0.0000000000000E+00  0.5587085960958E+00
 0.4905667526897E-02 -0.7367433581786E-02  0.0000000000000E+00  0.5717210400696E+00
 0.9829306314458E-02 -0.1515792161287E-01  0.0000000000000E+00  0.5879234413366E+00
 0.1409728216632E-01 -0.2249720159216E-01  0.0000000000000E+00  0.6087516983680E+00
 0.1600615210995E-01 -0.2767221950770E-01  0.0000000000000E+00  0.6341031283879E+00
 0.1386183088409E-01 -0.2899022019250E-01  0.0000000000000E+00  0.6614357399535E+00
 0.6709237653293E-02 -0.2547775891945E-01  0.0000000000000E+00  0.6863253969540E+00
-0.5169108242534E-02 -0.1737715669231E-01  0.0000000000000E+00  0.7049376192947E+00
-0.2081262935719E-01 -0.5545825655057E-02  0.0000000000000E+00  0.7149477688950E+00
-0.3902392930246E-01  0.8968074630589E-02  0.0000000000000E+00  0.7152990916198E+00
-0.5861269155187E-01  0.2511839931675E-01  0.0000000000000E+00  0.7061092444318E+00
-0.7870359969206E-01  0.4214567292664E-01  0.0000000000000E+00  0.6882203051182E+00
-0.9857313118274E-01  0.5940972724075E-01  0.0000000000000E+00  0.6629452222106E+00
-0.1172231009722E+00  0.7599809089218E-01  0.0000000000000E+00  0.6321608791261E+00
-0.1328425284421E+00  0.9025426684673E-01  0.0000000000000E+00  0.5972719960264E+00
-0.1142211968864E-02  0.5332982594148E-02  0.0000000000000E+00  0.3851417265824E+00
 0.7338573938505E-02 -0.2774160171990E-02  0.0000000000000E+00  0.4569141426522E+00
 0.8363229102258E-02 -0.4342134262233E-02  0.0000000000000E+00  0.5056517010109E+00
 0.7374298818926E-02 -0.4566056398463E-02  0.0000000000000E+00  0.5376356713164E+00
 0.7068028212218E-02 -0.5973399533420E-02  0.0000000000000E+00  0.5592995551473E+00
 0.8347674842016E-02 -0.9348053433018E-02  0.0000000000000E+00  0.5760237296585E+00
 0.1102406563227E-01 -0.1441552541600E-01  0.0000000000000E+00  0.5918907180536E+00
 0.1424382456542E-01 -0.2026286242628E-01  0.0000000000000E+00  0.6096400114573E+00
 0.1675899511433E-01 -0.2560358268293E-01  0.0000000000000E+00  0.6306282195854E+00
 0.1714102837441E-01 -0.2898700149866E-01  0.0000000000000E+00  0.6548204944608E+00
 0.1398769301715E-01 -0.2899824806843E-01  0.0000000000000E+00  0.6801912331047E+00
 0.6490559944088E-02 -0.2480505725426E-01  0.0000000000000E+00  0.7031854811390E+00
-0.5172146884822E-02 -0.1655294607776E-01  0.0000000000000E+00  0.7205745170025E+00
-0.2026517011778E-01 -0.4898622920483E-02  0.0000000000000E+00  0.7301660295422E+00
-0.3781806977154E-01  0.9302245729741E-02  0.0000000000000E+00  0.7307379082130E+00
-0.5683258026439E-01  0.2515989766271E-01  0.0000000000000E+00  0.7220536329533E+00
-0.7658830760794E-01  0.4204491294406E-01  0.0000000000000E+00  0.7046049895217E+00
-0.9653758464897E-01  0.5947799517477E-01  0.0000000000000E+00  0.6795572492212E+00
-0.1158436394036E+00  0.7670227582052E-01  0.0000000000000E+00  0.6490486753272E+00
-0.1323810980203E+00  0.9175499855042E-01  0.0000000000000E+00  0.6150147379736E+00
 0.4460085853499E-03  0.1661113211616E-02  0.0000000000000E+00  0.3918279764291E+00
 0.1117086562118E-01 -0.8584943342902E-02  0.0000000000000E+00  0.4605833901777E+00
 0.1414892141262E-01 -0.1193614558347E-01  0.0000000000000E+00  0.5101904748673E+00
 0.1430481252142E-01 -0.1310046084298E-01  0.0000000000000E+00  0.5451113877348E+00
 0.1424758167851E-01 -0.1453615688219E-01  0.0000000000000E+00  0.5703887081050E+00
 0.1500804571867E-01 -0.1716518000477E-01  0.0000000000000E+00  0.5904824762488E+00
 0.1660719615407E-01 -0.2092754877475E-01  0.0000000000000E+00  0.6089142296468E+00
 0.1842628832012E-01 -0.2514413744948E-01  0.0000000000000E+00  0.6281209590785E+00
 0.1945779835139E-01 -0.2876333261709E-01  0.0000000000000E+00  0.6493459787362E+00
 0.1851920628029E-01 -0.3057151638577E-01  0.0000000000000E+00  0.6726029084540E+00
 0.1446063541112E-01 -0.2939593750668E-01  0.0000000000000E+00  0.6962871056046E+00
 0.6610775173782E-02 -0.2453713532048E-01  0.0000000000000E+00  0.7175634107146E+00
-0.4914415309873E-02 -0.1608336705754E-01  0.0000000000000E+00  0.7337450871985E+00
-0.1954117964885E-01 -0.4548244379143E-02  0.0000000000000E+00  0.7428433124345E+00
-0.3646764751850E-01  0.9352662215205E-02  0.0000000000000E+00  0.7436009812675E+00
-0.5483038474807E-01  0.2483665147165E-01  0.0000000000000E+00  0.7355211089984E+00
-0.7404499831236E-01  0.4137021120249E-01  0.0000000000000E+00  0.7186554426619E+00
-0.9380847908993E-01  0.5870601797842E-01  0.0000000000000E+00  0.6938320565601E+00
-0.1136548126649E+00  0.7644060410641E-01  0.0000000000000E+00  0.6634132647045E+00
-0.1312793093146E+00  0.9245011079619E-01  0.0000000000000E+00  0.6304333895984E+00
 0.1719554185756E-02 -0.1549323937079E-02  0.0000000000000E+00  0.3991916426022E+00
 0.1418728051224E-01 -0.1346088522875E-01  0.0000000000000E+00  0.4645998989734E+00
 0.1882900029016E-01 -0.1833505448339E-01  0.0000000000000E+00  0.5143167811988E+00
 0.2006439774519E-01 -0.2040148806907E-01  0.0000000000000E+00  0.5513361371065E+00
 0.2036471206407E-01 -0.2199798887806E-01  0.0000000000000E+00  0.5795005405743E+00
 0.2082258646790E-01 -0.2411656440064E-01  0.0000000000000E+00  0.6024275341589E+00
 0.2161387980466E-01 -0.2685740314892E-01  0.0000000000000E+00  0.6230927373647E+00
 0.2231358219825E-01 -0.2973543225449E-01  0.0000000000000E+00  0.6436120432711E+00
 0.2212317210962E-01 -0.3190471007465E-01  0.0000000000000E+00  0.6650923112581E+00
 0.2007580901549E-01 -0.3236113471770E-01  0.0000000000000E+00  0.6875756262142E+00
 0.1523710651117E-01 -0.3014015316897E-01  0.0000000000000E+00  0.7097969742908E+00
 0.7059572305093E-02 -0.2466302763019E-01  0.0000000000000E+00  0.7295133780492E+00
-0.4376910434895E-02 -0.1598512440763E-01  0.0000000000000E+00  0.7445141808720E+00
-0.1861795566033E-01 -0.4514954512328E-02  0.0000000000000E+00  0.7530577122586E+00
-0.3498831965820E-01  0.9137905069916E-02  0.0000000000000E+00  0.7539710872919E+00
-0.5271279032243E-01  0.2425528708650E-01  0.0000000000000E+00  0.7466541155330E+00
-0.7121251342127E-01  0.4029776440602E-01  0.0000000000000E+00  0.7308057587473E+00
-0.9041643250026E-01  0.5714484841735E-01  0.0000000000000E+00  0.7064001064402E+00
-0.1105568123821E+00  0.7512937725519E-01  0.0000000000000E+00  0.6756695790022E+00
-0.1296076089858E+00  0.9238415526642E-01  0.0000000000000E+00  0.6435875753852E+00
 0.2737408103086E-02 -0.4368351943452E-02  0.0000000000000E+00  0.4070811044379E+00
 0.1651522198975E-01 -0.1753707116735E-01  0.0000000000000E+00  0.4689260717879E+00
 0.2253619586705E-01 -0.2367109555374E-01  0.0000000000000E+00  0.5181520205619E+00
 0.2475926091707E-01 -0.2657517021427E-01  0.0000000000000E+00  0.5565575940459E+00
 0.2548232949974E-01 -0.2841824249000E-01  0.0000000000000E+00  0.5869413705705E+00
 0.2580777513124E-01 -0.3021442655945E-01  0.0000000000000E+00  0.6121791836086E+00
 0.2602292437914E-01 -0.3217972895229E-01  0.0000000000000E+00  0.6347274446158E+00
 0.2585901857761E-01 -0.3398702307090E-01  0.0000000000000E+00  0.6563770047076E+00
 0.2469523458601E-01 -0.3496614026659E-01  0.0000000000000E+00  0.6780836995160E+00
 0.2175056013767E-01 -0.3429474134265E-01  0.0000000000000E+00  0.6999007219393E+00
 0.1627245891813E-01 -0.3118561078103E-01  0.0000000000000E+00  0.7208333453931E+00
 0.7822094418223E-02 -0.2516622800080E-01  0.0000000000000E+00  0.7391223545392E+00
-0.3541464342699E-02 -0.1627346464566E-01  0.0000000000000E+00  0.7529676068572E+00
-0.1745620653152E-01 -0.4834308792532E-02  0.0000000000000E+00  0.7608869033457E+00
-0.3335887762510E-01  0.8635275675004E-02  0.0000000000000E+00  0.7618645960384E+00
-0.5054713229715E-01  0.2348058819288E-01  0.0000000000000E+00  0.7553498395761E+00
-0.6841062824476E-01  0.3911236432293E-01  0.0000000000000E+00  0.7410035922561E+00
-0.8660375823987E-01  0.5519738484387E-01  0.0000000000000E+00  0.7182521860197E+00
-0.1063246920917E+00  0.7251590752859E-01  0.0000000000000E+00  0.6867743091630E+00
-0.1273171635204E+00  0.9145122850828E-01  0.0000000000000E+00  0.6543490347296E+00
 0.3552102685939E-02 -0.6881275611968E-02  0.0000000000000E+00  0.4153115850376E+00
 0.1825530345570E-01 -0.2090212727066E-01  0.0000000000000E+00  0.4734744481816E+00
 0.2538590315401E-01 -0.2806856468584E-01  0.0000000000000E+00  0.5218080691554E+00
 0.2849760953870E-01 -0.3172819150263E-01  0.0000000000000E+00  0.5609750455246E+00
 0.2967121681762E-01 -0.3386586900113E-01  0.0000000000000E+00  0.5929776458278E+00
 0.2999440056096E-01 -0.3548619157049E-01  0.0000000000000E+00  0.6200315367492E+00
 0.2982898272720E-01 -0.3688582533127E-01  0.0000000000000E+00  0.6441114027919E+00
 0.2903060379055E-01 -0.3786387956901E-01  0.0000000000000E+00  0.6666882934580E+00
 0.2712560689558E-01 -0.3789747651371E-01  0.0000000000000E+00  0.6885563269834E+00
 0.2348881022407E-01 -0.3631648082381E-01  0.0000000000000E+00  0.7097675662532E+00
 0.1752233171524E-01 -0.3248557880072E-01  0.0000000000000E+00  0.7295462472100E+00
 0.8880677811282E-02 -0.2602726560264E-01  0.0000000000000E+00  0.7465145709762E+00
-0.2392762941574E-02 -0.1696011782649E-01  0.0000000000000E+00  0.7592240693893E+00
-0.1600695156962E-01 -0.5549991933122E-02  0.0000000000000E+00  0.7664558115630E+00
-0.3149752827486E-01  0.7768873409816E-02  0.0000000000000E+00  0.7673573025177E+00
-0.4827400915038E-01  0.2243791137056E-01  0.0000000000000E+00  0.7614652836404E+00
-0.6572931920279E-01  0.3789430566284E-01  0.0000000000000E+00  0.7485660527278E+00
-0.8334337243758E-01  0.5359599798746E-01  0.0000000000000E+00  0.7284887717744E+00
-0.1011662967516E+00  0.6968342432615E-01  0.0000000000000E+00  0.7003301034477E+00
-0.1234296435013E+00  0.8801405032055E-01  0.0000000000000E+00  0.6634435693718E+00
 0.1596010994003E-01 -0.5166723423761E-01  0.0000000000000E+00  0.5864717880741E+00
 0.2710087246968E-01 -0.6202176375860E-01  0.0000000000000E+00  0.6235636200790E+00
 0.4241801193814E-01 -0.7602418788413E-01  0.0000000000000E+00  0.6451055143289E+00
 0.5778287276411E-01 -0.8979422826163E-01  0.0000000000000E+00  0.6529961180343E+00
 0.7084530417619E-01 -0.1011023751547E+00  0.0000000000000E+00  0.6504572208325E+00
 0.8042784290851E-01 -0.1088698189857E+00  0.0000000000000E+00  0.6407136626488E+00
 0.8614432437180E-01 -0.1127836306967E+00  0.0000000000000E+00  0.6265060805483E+00
 0.8810388002776E-01 -0.1130094221911E+00  0.0000000000000E+00  0.6098938608410E+00
 0.8670152880602E-01 -0.1099822472999E+00  0.0000000000000E+00  0.5921854050122E+00
 0.8246370657606E-01 -0.1042524673134E+00  0.0000000000000E+00  0.5739780052569E+00
 0.7594228320395E-01 -0.9637919286037E-01  0.0000000000000E+00  0.5552874654882E+00
 0.6765095656452E-01 -0.8686725645666E-01  0.0000000000000E+00  0.5357487111792E+00
 0.5804721371655E-01 -0.7615461242985E-01  0.0000000000000E+00  0.5149346716982E+00
 0.4751631885726E-01 -0.6460984435671E-01  0.0000000000000E+00  0.4925501448191E+00
 0.3643891281866E-01 -0.5259230463290E-01  0.0000000000000E+00  0.4683737544148E+00
 0.2518629060330E-01 -0.4045210188945E-01  0.0000000000000E+00  0.4422862463148E+00
 0.1411389122298E-01 -0.2852755832126E-01  0.0000000000000E+00  0.4141931932017E+00
 0.3603616971247E-02 -0.1714911218326E-01  0.0000000000000E+00  0.3840420194513E+00
-0.5705373601810E-02 -0.6974647278040E-02  0.0000000000000E+00  0.3516038589619E+00
-0.1117804059241E-01  0.5875796769614E-03  0.0000000000000E+00  0.3176846346741E+00
 0.1752368155287E-01 -0.5454055696352E-01  0.0000000000000E+00  0.5890394592316E+00
 0.3073124352246E-01 -0.6677990487763E-01  0.0000000000000E+00  0.6283917086749E+00
 0.4807636083280E-01 -0.8265722057010E-01  0.0000000000000E+00  0.6487599687746E+00
 0.6500735549742E-01 -0.9780050315135E-01  0.0000000000000E+00  0.6535054150275E+00
 0.7896005648951E-01 -0.1098036452435E+00  0.0000000000000E+00  0.6468624874577E+00
 0.8879097884757E-01 -0.1176302828706E+00  0.0000000000000E+00  0.6328052893544E+00
 0.9424188824296E-01 -0.1211045916095E+00  0.0000000000000E+00  0.6145452092096E+00
 0.9557970046005E-01 -0.1205539857524E+00  0.0000000000000E+00  0.5943812618601E+00
 0.9334767306748E-01 -0.1165623684832E+00  0.0000000000000E+00  0.5736832086521E+00
 0.8819307579190E-01 -0.1097985477502E+00  0.0000000000000E+00  0.5530027924622E+00
 0.8075898549069E-01 -0.1009089577011E+00  0.0000000000000E+00  0.5322626733664E+00
 0.7162925131692E-01 -0.9046443717940E-01  0.0000000000000E+00  0.5109962018199E+00
 0.6129621967599E-01 -0.7894235170993E-01  0.0000000000000E+00  0.4888116375900E+00
 0.5014304394501E-01 -0.6670795396597E-01  0.0000000000000E+00  0.4655509291395E+00
 0.3855086644363E-01 -0.5412010882752E-01  0.0000000000000E+00  0.4410381713378E+00
 0.2689372427473E-01 -0.4153316261690E-01  0.0000000000000E+00  0.4151098305238E+00
 0.1557183771398E-01 -0.2931130421300E-01  0.0000000000000E+00  0.3875429850299E+00
 0.5054752546201E-02 -0.1789375117698E-01  0.0000000000000E+00  0.3580323978790E+00
-0.3543219464195E-02 -0.8163458817030E-02  0.0000000000000E+00  0.3266731943617E+00
-0.1026646375458E-01 -0.4232521389211E-03  0.0000000000000E+00  0.2978698924544E+00
 0.1930488047941E-01 -0.5769010150365E-01  0.0000000000000E+00  0.5921441432421E+00
 0.3500952283193E-01 -0.7228137195407E-01  0.0000000000000E+00  0.6335014381905E+00
 0.5468215746165E-01 -0.9027946046321E-01  0.0000000000000E+00  0.6521898760042E+00
 0.7325267628764E-01 -0.1068453711991E+00  0.0000000000000E+00  0.6530648029708E+00
 0.8801753178800E-01 -0.1194393572244E+00  0.0000000000000E+00  0.6416787325667E+00
 0.9791510780987E-01 -0.1271234307754E+00  0.0000000000000E+00  0.6228555371935E+00
 0.1028724634676E+00 -0.1299148695491E+00  0.0000000000000E+00  0.6003001863038E+00
 0.1033593912867E+00 -0.1283482408651E+00  0.0000000000000E+00  0.5765229676690E+00
 0.1000992770038E+00 -0.1231875704701E+00  0.0000000000000E+00  0.5529091283051E+00
 0.9387792782359E-01 -0.1152373345674E+00  0.0000000000000E+00  0.5299236861470E+00
 0.8543504520663E-01 -0.1052363051599E+00  0.0000000000000E+00  0.5073702402297E+00
 0.7541648242525E-01 -0.9381420023125E-01  0.0000000000000E+00  0.4846679065633E+00
 0.6433379683792E-01 -0.8146725370808E-01  0.0000000000000E+00  0.4614422148074E+00
 0.5256722243666E-01 -0.6855780814507E-01  0.0000000000000E+00  0.4376365738551E+00
 0.4050292515127E-01 -0.5544877908467E-01  0.0000000000000E+00  0.4130858097582E+00
 0.2853372455966E-01 -0.4250874124491E-01  0.0000000000000E+00  0.3875682677266E+00
 0.1709916667815E-01 -0.3014530768713E-01  0.0000000000000E+00  0.3607950244718E+00
 0.6773176726970E-02 -0.1886905071968E-01  0.0000000000000E+00  0.3326311790253E+00
-0.1922466713200E-02 -0.9231877600326E-02  0.0000000000000E+00  0.3042316643459E+00
-0.9901499553703E-02 -0.3770100770013E-03  0.0000000000000E+00  0.2778424946194E+00
 0.2137259595667E-01 -0.6123301669354E-01  0.0000000000000E+00  0.5960006257100E+00
 0.4004865523927E-01 -0.7862055690282E-01  0.0000000000000E+00  0.6390047529774E+00
 0.6234537440961E-01 -0.9900965195246E-01  0.0000000000000E+00  0.6552290621451E+00
 0.8260683711314E-01 -0.1170132496252E+00  0.0000000000000E+00  0.6513953118989E+00
 0.9804541775768E-01 -0.1300322310803E+00  0.0000000000000E+00  0.6345660619399E+00
 0.1077667030841E+00 -0.1373082927238E+00  0.0000000000000E+00  0.6105283936468E+00
 0.1119521969450E+00 -0.1391227050038E+00  0.0000000000000E+00  0.5834863198218E+00
 0.1113268429969E+00 -0.1362688537485E+00  0.0000000000000E+00  0.5561156651568E+00
 0.1068253476287E+00 -0.1297213387051E+00  0.0000000000000E+00  0.5297550614338E+00
 0.9938489124909E-01 -0.1204321206206E+00  0.0000000000000E+00  0.5047289820719E+00
 0.8984040668468E-01 -0.1092301977531E+00  0.0000000000000E+00  0.4806834225647E+00
 0.7889118234047E-01 -0.9679384192169E-01  0.0000000000000E+00  0.4568932142559E+00
 0.6705607227151E-01 -0.8362583089470E-01  0.0000000000000E+00  0.4329886363371E+00
 0.5470902090824E-01 -0.7008147272654E-01  0.0000000000000E+00  0.4089927402033E+00
 0.4224114409794E-01 -0.5652681999061E-01  0.0000000000000E+00  0.3847357310037E+00
 0.3004932859736E-01 -0.4333582238872E-01  0.0000000000000E+00  0.3599677499384E+00
 0.1857783257996E-01 -0.3091854792972E-01  0.0000000000000E+00  0.3344422647485E+00
 0.8248529116909E-02 -0.1968072954305E-01  0.0000000000000E+00  0.3082647263952E+00
-0.7913512137563E-03 -0.9764581092391E-02  0.0000000000000E+00  0.2823354100346E+00
-0.9466770085126E-02 -0.2983249845591E-03  0.0000000000000E+00  0.2575419225556E+00
 0.2380116475606E-01 -0.6525867243218E-01  0.0000000000000E+00  0.6007615622282E+00
 0.4599885904675E-01 -0.8595761283400E-01  0.0000000000000E+00  0.6449176190747E+00
 0.7120389623256E-01 -0.1089833608645E+00  0.0000000000000E+00  0.6576869957882E+00
 0.9315429803451E-01 -0.1283863316205E+00  0.0000000000000E+00  0.6481469068984E+00
 0.1090557956316E+00 -0.1415871609103E+00  0.0000000000000E+00  0.6251239635666E+00
 0.1182855442419E+00 -0.1481157682764E+00  0.0000000000000E+00  0.5954498358470E+00
 0.1213663347213E+00 -0.1486041198928E+00  0.0000000000000E+00  0.5638108618232E+00
 0.1193356440053E+00 -0.1441614356478E+00  0.0000000000000E+00  0.5329747349986E+00
 0.1133687054776E+00 -0.1360006543078E+00  0.0000000000000E+00  0.5041491070621E+00
 0.1045607417004E+00 -0.1252263009490E+00  0.0000000000000E+00  0.4774481640996E+00
 0.9383482699065E-01 -0.1127488390975E+00  0.0000000000000E+00  0.4523108241563E+00
 0.8193093114145E-01 -0.9928099043356E-01  0.0000000000000E+00  0.4278361426400E+00
 0.6936109251175E-01 -0.8531745070365E-01  0.0000000000000E+00  0.4036492599326E+00
 0.5648622880989E-01 -0.7119940718242E-01  0.0000000000000E+00  0.3798401072301E+00
 0.4368869839351E-01 -0.5728366531712E-01  0.0000000000000E+00  0.3562330001087E+00
 0.3134099723948E-01 -0.4392068933059E-01  0.0000000000000E+00  0.3325709317635E+00
 0.1982038234107E-01 -0.3146332471862E-01  0.0000000000000E+00  0.3086439197193E+00
 0.9406259195906E-02 -0.2017144698759E-01  0.0000000000000E+00  0.2845049737929E+00
 0.7149792083183E-04 -0.1001185060509E-01  0.0000000000000E+00  0.2606843997275E+00
-0.8905070043568E-02 -0.2956446854814E-03  0.0000000000000E+00  0.2373501031613E+00
 0.2667720440343E-01 -0.6987171937800E-01  0.0000000000000E+00  0.6066101209633E+00
 0.5303686815175E-01 -0.9447745575726E-01  0.0000000000000E+00  0.6512063152901E+00
 0.8141581775090E-01 -0.1203598736404E+00  0.0000000000000E+00  0.6592912514170E+00
 0.1049770396674E+00 -0.1410412967269E+00  0.0000000000000E+00  0.6428905606847E+00
 0.1210370980217E+00 -0.1540837795852E+00  0.0000000000000E+00  0.6128836689219E+00
 0.1293768271619E+00 -0.1594400474945E+00  0.0000000000000E+00  0.5772107435216E+00
 0.1309626196913E+00 -0.1581961428598E+00  0.0000000000000E+00  0.5409822271434E+00
 0.1272059772604E+00 -0.1518373718840E+00  0.0000000000000E+00  0.5069463657494E+00
 0.1195469350651E+00 -0.1418370928327E+00  0.0000000000000E+00  0.4760670701536E+00
 0.1092371113867E+00 -0.1294482652314E+00  0.0000000000000E+00  0.4481620578563E+00
 0.9727255104960E-01 -0.1156455569853E+00  0.0000000000000E+00  0.4224081426489E+00
 0.8441449915279E-01 -0.1011552573597E+00  0.0000000000000E+00  0.3977001805244E+00
 0.7115017357228E-01 -0.8644562777669E-01  0.0000000000000E+00  0.3736520489458E+00
 0.5781544537934E-01 -0.7183188711030E-01  0.0000000000000E+00  0.3504118925790E+00
 0.4476423565622E-01 -0.5764194185552E-01  0.0000000000000E+00  0.3277944930077E+00
 0.3231293134769E-01 -0.4417261724538E-01  0.0000000000000E+00  0.3055266678662E+00
 0.2075894856886E-01 -0.3169709724414E-01  0.0000000000000E+00  0.2833615618417E+00
 0.1027779120601E-01 -0.2036977461537E-01  0.0000000000000E+00  0.2612204009915E+00
 0.7763187638972E-03 -0.1008633699692E-01  0.0000000000000E+00  0.2393156036672E+00
-0.8240927230535E-02 -0.3707799131735E-03  0.0000000000000E+00  0.2174909692523E+00
 0.3010646562688E-01 -0.7519870321659E-01  0.0000000000000E+00  0.6137609658972E+00
 0.6137295742603E-01 -0.1044001360523E+00  0.0000000000000E+00  0.6577829962095E+00
 0.9315627977580E-01 -0.1333150574438E+00  0.0000000000000E+00  0.6596684953131E+00
 0.1181475989038E+00 -0.1550440423621E+00  0.0000000000000E+00  0.6350936435481E+00
 0.1339450817817E+00 -0.1674661779086E+00  0.0000000000000E+00  0.5973025042882E+00
 0.1409012667016E+00 -0.1711283793573E+00  0.0000000000000E+00  0.5553724910120E+00
 0.1405446262826E+00 -0.1676898765270E+00  0.0000000000000E+00  0.5147244530155E+00
 0.1347225598984E+00 -0.1590718723322E+00  0.0000000000000E+00  0.4779247542034E+00
 0.1251548873283E+00 -0.1470196234926E+00  0.0000000000000E+00  0.4455478604545E+00
 0.1132356906554E+00 -0.1329171483890E+00  0.0000000000000E+00  0.4170145120103E+00
 0.1000079635559E+00 -0.1177747282962E+00  0.0000000000000E+00  0.3911842692471E+00
 0.8622678873542E-01 -0.1023033050569E+00  0.0000000000000E+00  0.3667275206788E+00
 0.7233264173561E-01 -0.8692257968117E-01  0.0000000000000E+00  0.3432452237018E+00
 0.5862196534888E-01 -0.7190746360439E-01  0.0000000000000E+00  0.3209362205529E+00
 0.4540031754848E-01 -0.5753727599100E-01  0.0000000000000E+00  0.2995989683972E+00
 0.3291188894703E-01 -0.4403694773854E-01  0.0000000000000E+00  0.2789249988522E+00
 0.2137725389116E-01 -0.3160190415658E-01  0.0000000000000E+00  0.2586017732994E+00
 0.1089979731406E-01 -0.2031121167853E-01  0.0000000000000E+00  0.2384101893806E+00
 0.1373279677114E-02 -0.1004377334603E-01  0.0000000000000E+00  0.2183352578897E+00
-0.7513317242463E-02 -0.4969946149892E-03  0.0000000000000E+00  0.1981135774663E+00
 0.3422036011132E-01 -0.8139658349406E-01  0.0000000000000E+00  0.6224666187005E+00
 0.7125886703910E-01 -0.1159888354240E+00  0.0000000000000E+00  0.6644870465532E+00
 0.1066157855965E+00 -0.1480397390971E+00  0.0000000000000E+00  0.6583166684596E+00
 0.1327191139864E+00 -0.1704385457530E+00  0.0000000000000E+00  0.6240976294342E+00
 0.1476896143739E+00 -0.1816291108714E+00  0.0000000000000E+00  0.5777575842717E+00
 0.1526634330031E+00 -0.1829686889112E+00  0.0000000000000E+00  0.5294785451659E+00
 0.1498651171502E+00 -0.1768237494619E+00  0.0000000000000E+00  0.4847986641775E+00
 0.1416343113673E+00 -0.1656039274448E+00  0.0000000000000E+00  0.4458750713673E+00
 0.1299693515866E+00 -0.1513198185949E+00  0.0000000000000E+00  0.4127115378312E+00
 0.1163754043012E+00 -0.1354504927773E+00  0.0000000000000E+00  0.3842225835465E+00
 0.1019029762725E+00 -0.1189994671710E+00  0.0000000000000E+00  0.3589034657230E+00
 0.8726540597971E-01 -0.1026254397666E+00  0.0000000000000E+00  0.3351944193834E+00
 0.7283266007411E-01 -0.8667569460970E-01  0.0000000000000E+00  0.3126885203834E+00
 0.5884792914952E-01 -0.7137131704690E-01  0.0000000000000E+00  0.2916313285308E+00
 0.4555334520515E-01 -0.5692776397897E-01  0.0000000000000E+00  0.2718028770561E+00
 0.3311317673142E-01 -0.4348964247855E-01  0.0000000000000E+00  0.2528555363608E+00
 0.2167774911954E-01 -0.3118029807979E-01  0.0000000000000E+00  0.2344102445904E+00
 0.1129923402337E-01 -0.2002442795287E-01  0.0000000000000E+00  0.2161307208249E+00
 0.1880435597954E-02 -0.9906065717000E-02  0.0000000000000E+00  0.1978536041831E+00
-0.6757312581311E-02 -0.6465590177553E-03  0.0000000000000E+00  0.1793172932316E+00
 0.3918419527800E-01 -0.8866296164796E-01  0.0000000000000E+00  0.6330225309790E+00
 0.8299756879042E-01 -0.1295604170392E+00  0.0000000000000E+00  0.6710548948813E+00
 0.1219970259672E+00 -0.1647360694494E+00  0.0000000000000E+00  0.6545661424144E+00
 0.1487111867407E+00 -0.1872315818528E+00  0.0000000000000E+00  0.6090919610705E+00
 0.1621168659064E+00 -0.1963988590521E+00  0.0000000000000E+00  0.5535440517532E+00
 0.1643978085202E+00 -0.1946749501300E+00  0.0000000000000E+00  0.4990749011681E+00
 0.1586202751994E+00 -0.1852777869435E+00  0.0000000000000E+00  0.4510341980971E+00
 0.1476568953359E+00 -0.1711394617492E+00  0.0000000000000E+00  0.4108623913265E+00
 0.1337570689869E+00 -0.1545006053918E+00  0.0000000000000E+00  0.3777781583385E+00
 0.1184822155407E+00 -0.1368746053137E+00  0.0000000000000E+00  0.3500834650360E+00
 0.1028359447376E+00 -0.1192007774360E+00  0.0000000000000E+00  0.3258827772472E+00
 0.8744782598284E-01 -0.1020427191719E+00  0.0000000000000E+00  0.3034033815628E+00
 0.7259485103863E-01 -0.8565311739122E-01  0.0000000000000E+00  0.2822458685774E+00
 0.5845642629356E-01 -0.7018935071323E-01  0.0000000000000E+00  0.2627058197515E+00
 0.4520082063241E-01 -0.5579290262420E-01  0.0000000000000E+00  0.2445541061435E+00
 0.3290960980711E-01 -0.4252485513193E-01  0.0000000000000E+00  0.2274140845107E+00
 0.2166916109588E-01 -0.3044245491194E-01  0.0000000000000E+00  0.2108559076791E+00
 0.1149323800700E-01 -0.1952859630379E-01  0.0000000000000E+00  0.1944578332883E+00
 0.2300330411806E-02 -0.9679023666616E-02  0.0000000000000E+00  0.1779672654555E+00
-0.6001087175449E-02 -0.7959848516406E-03  0.0000000000000E+00  0.1611710488260E+00
 0.4520812847602E-01 -0.9725003226119E-01  0.0000000000000E+00  0.6457715056031E+00
 0.9695525197508E-01 -0.1454984650006E+00  0.0000000000000E+00  0.6770740758503E+00
 0.1395083889546E+00 -0.1836103789082E+00  0.0000000000000E+00  0.6475256875891E+00
 0.1660889798095E+00 -0.2053699104206E+00  0.0000000000000E+00  0.5890834970743E+00
 0.1769855061047E+00 -0.2115075924039E+00  0.0000000000000E+00  0.5238813286869E+00
 0.1757528685512E+00 -0.2058704991413E+00  0.0000000000000E+00  0.4637449793530E+00
 0.1664463496560E+00 -0.1926707034042E+00  0.0000000000000E+00  0.4133721766983E+00
 0.1524800132973E+00 -0.1753596855398E+00  0.0000000000000E+00  0.3730859476089E+00
 0.1362872658920E+00 -0.1563297928290E+00  0.0000000000000E+00  0.3410845801300E+00
 0.1194016884016E+00 -0.1370376776255E+00  0.0000000000000E+00  0.3149753101284E+00
 0.1027113500897E+00 -0.1182873541472E+00  0.0000000000000E+00  0.2924832772041E+00
 0.8671761668551E-01 -0.1005030779757E+00  0.0000000000000E+00  0.2716718886839E+00
 0.7158753019118E-01 -0.8382687239265E-01  0.0000000000000E+00  0.2521775021607E+00
 0.5743124845974E-01 -0.6834821339080E-01  0.0000000000000E+00  0.2343576509062E+00
 0.4433715138490E-01 -0.5412926463074E-01  0.0000000000000E+00  0.2179937262180E+00
 0.3230478411733E-01 -0.4114802402045E-01  0.0000000000000E+00  0.2026994924806E+00
 0.2136209005804E-01 -0.2940084541796E-01  0.0000000000000E+00  0.1880169046351E+00
 0.1149211745348E-01 -0.1883619411817E-01  0.0000000000000E+00  0.1734696596837E+00
 0.2628761263676E-02 -0.9361192958256E-02  0.0000000000000E+00  0.1587561063190E+00
-0.5266275575575E-02 -0.9268608344687E-03  0.0000000000000E+00  0.1437238522911E+00
 0.5256228787935E-01 -0.1074843785067E+00  0.0000000000000E+00  0.6611055423556E+00
 0.1135760766850E+00 -0.1642696484658E+00  0.0000000000000E+00  0.6819132193799E+00
 0.1593512773494E+00 -0.2048591991429E+00  0.0000000000000E+00  0.6360067138351E+00
 0.1847316760023E+00 -0.2247056266567E+00  0.0000000000000E+00  0.5628623720260E+00
 0.1919350176883E+00 -0.2265590896864E+00  0.0000000000000E+00  0.4879347427603E+00
 0.1862743463705E+00 -0.2160707269243E+00  0.0000000000000E+00  0.4231666767722E+00
 0.1729216371081E+00 -0.1985630716835E+00  0.0000000000000E+00  0.3719243274509E+00
 0.1557820208406E+00 -0.1779374210993E+00  0.0000000000000E+00  0.3329159710461E+00
 0.1373496612450E+00 -0.1565992781288E+00  0.0000000000000E+00  0.3030942429790E+00
 0.1190136866554E+00 -0.1358249052457E+00  0.0000000000000E+00  0.2793481301077E+00
 0.1014688212383E+00 -0.1162045074481E+00  0.0000000000000E+00  0.2590936836915E+00
 0.8504844643339E-01 -0.9798507560526E-01  0.0000000000000E+00  0.2403174333179E+00
 0.6980307108203E-01 -0.8119308446433E-01  0.0000000000000E+00  0.2227307505465E+00
 0.5577460562603E-01 -0.6585291499302E-01  0.0000000000000E+00  0.2067702875620E+00
 0.4296959752171E-01 -0.5194635881620E-01  0.0000000000000E+00  0.1922538598765E+00
 0.3130909006108E-01 -0.3937158562760E-01  0.0000000000000E+00  0.1788086763659E+00
 0.2076761400419E-01 -0.2806861146478E-01  0.0000000000000E+00  0.1659719589315E+00
 0.1130222182288E-01 -0.1795573176147E-01  0.0000000000000E+00  0.1532390347879E+00
 0.2859485622903E-02 -0.8948703366555E-02  0.0000000000000E+00  0.1402843553095E+00
-0.4569013628529E-02 -0.1025368006215E-02  0.0000000000000E+00  0.1270109802665E+00
 0.6159821846672E-01 -0.1197960879049E+00  0.0000000000000E+00  0.6794612197514E+00
 0.1334000879124E+00 -0.1864441065508E+00  0.0000000000000E+00  0.6846128957558E+00
 0.1816960552411E+00 -0.2286425801718E+00  0.0000000000000E+00  0.6184155936385E+00
 0.2043841501764E+00 -0.2449425959121E+00  0.0000000000000E+00  0.5289683198869E+00
 0.2064441642942E+00 -0.2409836981579E+00  0.0000000000000E+00  0.4448662856515E+00
 0.1953908190177E+00 -0.2246688456531E+00  0.0000000000000E+00  0.3772026951807E+00
 0.1775787830202E+00 -0.2024721835722E+00  0.0000000000000E+00  0.3270479512542E+00
 0.1572550004856E+00 -0.1785646763050E+00  0.0000000000000E+00  0.2909260711307E+00
 0.1367780086473E+00 -0.1551497656783E+00  0.0000000000000E+00  0.2643920007843E+00
 0.1172473492665E+00 -0.1331734678923E+00  0.0000000000000E+00  0.2437006603882E+00
 0.9908948336838E-01 -0.1129400625599E+00  0.0000000000000E+00  0.2261061126123E+00
 0.8244474291525E-01 -0.9449813723691E-01  0.0000000000000E+00  0.2096401754137E+00
 0.6725563415247E-01 -0.7776945714201E-01  0.0000000000000E+00  0.1941305848474E+00
 0.5350358138974E-01 -0.6272314810485E-01  0.0000000000000E+00  0.1801084644869E+00
 0.4111456521592E-01 -0.4926279565501E-01  0.0000000000000E+00  0.1674550473856E+00
 0.2993710517580E-01 -0.3721224932491E-01  0.0000000000000E+00  0.1558330502565E+00
 0.1989697399282E-01 -0.2645915684894E-01  0.0000000000000E+00  0.1447958124725E+00
 0.1092819222925E-01 -0.1689399555159E-01  0.0000000000000E+00  0.1338307351215E+00
 0.2986820620439E-02 -0.8437949223471E-02  0.0000000000000E+00  0.1226028242311E+00
-0.3920804855337E-02 -0.1081711895792E-02  0.0000000000000E+00  0.1110575479433E+00
 0.7278009516597E-01 -0.1347631726717E+00  0.0000000000000E+00  0.7013001687053E+00
 0.1570840230220E+00 -0.2127201018967E+00  0.0000000000000E+00  0.6837096209756E+00
 0.2066366856459E+00 -0.2550331649077E+00  0.0000000000000E+00  0.5925983603982E+00
 0.2245819624323E+00 -0.2655524876887E+00  0.0000000000000E+00  0.4856693380927E+00
 0.2197786952222E+00 -0.2539816878408E+00  0.0000000000000E+00  0.3939400298472E+00
 0.2024089264368E+00 -0.2309334136273E+00  0.0000000000000E+00  0.3260386387717E+00
 0.1799353263640E+00 -0.2039073999476E+00  0.0000000000000E+00  0.2794316941570E+00
 0.1566430749215E+00 -0.1769941337543E+00  0.0000000000000E+00  0.2479064313212E+00
 0.1344770029103E+00 -0.1518981880445E+00  0.0000000000000E+00  0.2256533790154E+00
 0.1140927250888E+00 -0.1290834098938E+00  0.0000000000000E+00  0.2085411314244E+00
 0.9559725487138E-01 -0.1085248283958E+00  0.0000000000000E+00  0.1938867611012E+00
 0.7893839355489E-01 -0.9007878313301E-01  0.0000000000000E+00  0.1799064659986E+00
 0.6397667858226E-01 -0.7359055012464E-01  0.0000000000000E+00  0.1665721455708E+00
 0.5064583968115E-01 -0.5898886808874E-01  0.0000000000000E+00  0.1545152815029E+00
 0.3879417138492E-01 -0.4610277597308E-01  0.0000000000000E+00  0.1437048291492E+00
 0.2820569344836E-01 -0.3468905705139E-01  0.0000000000000E+00  0.1338569922939E+00
 0.1876165366763E-01 -0.2458623444058E-01  0.0000000000000E+00  0.1245576286146E+00
 0.1037471032081E-01 -0.1565782879687E-01  0.0000000000000E+00  0.1153012400795E+00
 0.3007253110894E-02 -0.7827267162225E-02  0.0000000000000E+00  0.1057511433642E+00
-0.3329030864453E-02 -0.1089759077685E-02  0.0000000000000E+00  0.9588046345225E-01
 0.8673126556697E-01 -0.1531823524003E+00  0.0000000000000E+00  0.7270554674022E+00
 0.1854225214317E+00 -0.2439510511372E+00  0.0000000000000E+00  0.6769395843089E+00
 0.2341041027738E+00 -0.2839175359380E+00  0.0000000000000E+00  0.5556141360951E+00
 0.2445338765924E+00 -0.2856415370632E+00  0.0000000000000E+00  0.4309843438962E+00
 0.2309318563280E+00 -0.2644600369184E+00  0.0000000000000E+00  0.3347290052118E+00
 0.2065338617152E+00 -0.2340359402859E+00  0.0000000000000E+00  0.2703826725348E+00
 0.1795536007987E+00 -0.2024382705128E+00  0.0000000000000E+00  0.2301707063305E+00
 0.1537935801301E+00 -0.1730928825872E+00  0.0000000000000E+00  0.2048315325526E+00
 0.1304460434200E+00 -0.1468603470768E+00  0.0000000000000E+00  0.1875789023228E+00
 0.1096037814960E+00 -0.1236188387715E+00  0.0000000000000E+00  0.1743362476064E+00
 0.9105338422753E-01 -0.1030262792857E+00  0.0000000000000E+00  0.1627486898840E+00
 0.7458195953341E-01 -0.8478349090028E-01  0.0000000000000E+00  0.1513372058793E+00
 0.6000910800928E-01 -0.6870177642786E-01  0.0000000000000E+00  0.1402167842231E+00
 0.4723506287488E-01 -0.5468563420584E-01  0.0000000000000E+00  0.1301113805753E+00
 0.3603304446534E-01 -0.4249284734279E-01  0.0000000000000E+00  0.1210980812582E+00
 0.2613249109954E-01 -0.3182189419852E-01  0.0000000000000E+00  0.1129584060789E+00
 0.1737365535988E-01 -0.2246429305194E-01  0.0000000000000E+00  0.1053216269268E+00
 0.9648025725195E-02 -0.1425572955420E-01  0.0000000000000E+00  0.9769991163080E-01
 0.2920721654892E-02 -0.7118264792344E-02  0.0000000000000E+00  0.8975962821077E-01
-0.2797081029275E-02 -0.1046959326096E-02  0.0000000000000E+00  0.8148920914266E-01
 0.1043057514469E+00 -0.1761879235688E+00  0.0000000000000E+00  0.7570002609661E+00
 0.2193602019177E+00 -0.2811668604720E+00  0.0000000000000E+00  0.6607101968087E+00
 0.2636960749234E+00 -0.3147973386591E+00  0.0000000000000E+00  0.5034063241969E+00
 0.2629382258837E+00 -0.3037408184103E+00  0.0000000000000E+00  0.3628317294274E+00
 0.2385754246004E+00 -0.2709841858493E+00  0.0000000000000E+00  0.2675064096987E+00
 0.2069463620179E+00 -0.2331468954730E+00  0.0000000000000E+00  0.2117222909486E+00
 0.1761407633020E+00 -0.1978044250768E+00  0.0000000000000E+00  0.1807729477021E+00
 0.1487110231276E+00 -0.1668960165043E+00  0.0000000000000E+00  0.1627475394508E+00
 0.1247872932107E+00 -0.1401542758661E+00  0.0000000000000E+00  0.1507963572304E+00
 0.1038880950668E+00 -0.1168959647884E+00  0.0000000000000E+00  0.1414653936340E+00
 0.8554527421418E-01 -0.9653682614410E-01  0.0000000000000E+00  0.1329351315479E+00
 0.6944012410530E-01 -0.7868007718070E-01  0.0000000000000E+00  0.1241032218258E+00
 0.5540115286634E-01 -0.6315319949550E-01  0.0000000000000E+00  0.1151914530102E+00
 0.4330645270200E-01 -0.4985000303019E-01  0.0000000000000E+00  0.1069959817950E+00
 0.3285525860736E-01 -0.3845880938964E-01  0.0000000000000E+00  0.9971921438448E-01
 0.2373459527295E-01 -0.2863025890183E-01  0.0000000000000E+00  0.9321142149792E-01
 0.1574598675828E-01 -0.2010910962955E-01  0.0000000000000E+00  0.8714963763978E-01
 0.8757594045200E-02 -0.1269958648982E-01  0.0000000000000E+00  0.8107106888868E-01
 0.2732022167447E-02 -0.6317258131547E-02  0.0000000000000E+00  0.7465060694491E-01
-0.2324117721681E-02 -0.9545399735515E-03  0.0000000000000E+00  0.6788552215753E-01
 0.1266976444376E+00 -0.2054680631399E+00  0.0000000000000E+00  0.7909107976517E+00
 0.2599619083588E+00 -0.3255503085697E+00  0.0000000000000E+00  0.6290927507183E+00
 0.2943294095689E+00 -0.3463780157781E+00  0.0000000000000E+00  0.4303445638213E+00
 0.2777040133491E+00 -0.3174772562950E+00  0.0000000000000E+00  0.2795223072146E+00
 0.2410817791345E+00 -0.2718315466129E+00  0.0000000000000E+00  0.1939522255572E+00
 0.2029895504705E+00 -0.2276541140017E+00  0.0000000000000E+00  0.1525489247838E+00
 0.1696840172887E+00 -0.1900614518020E+00  0.0000000000000E+00  0.1329806999801E+00
 0.1415826379559E+00 -0.1586172319007E+00  0.0000000000000E+00  0.1225562110128E+00
 0.1176833359746E+00 -0.1319747711475E+00  0.0000000000000E+00  0.1157772734148E+00
 0.9708626912948E-01 -0.1090614243726E+00  0.0000000000000E+00  0.1101993655035E+00
 0.7917338373427E-01 -0.8916095837492E-01  0.0000000000000E+00  0.1046172867990E+00
 0.6358176877661E-01 -0.7183989145272E-01  0.0000000000000E+00  0.9832599251782E-01
 0.5020071260581E-01 -0.5699375654446E-01  0.0000000000000E+00  0.9158962252108E-01
 0.3889221771722E-01 -0.4451483491163E-01  0.0000000000000E+00  0.8524915862550E-01
 0.2928110409569E-01 -0.3402244586112E-01  0.0000000000000E+00  0.7964649098899E-01
 0.2102733185865E-01 -0.2513221726459E-01  0.0000000000000E+00  0.7469161032638E-01
 0.1389351908571E-01 -0.1753885868878E-01  0.0000000000000E+00  0.7010558404651E-01
 0.7718213823079E-02 -0.1100697893996E-01  0.0000000000000E+00  0.6545676339720E-01
 0.2452720050410E-02 -0.5437141036788E-02  0.0000000000000E+00  0.6043901270224E-01
-0.1904407364677E-02 -0.8181047577365E-03  0.0000000000000E+00  0.5506182506619E-01
 0.1556278245401E+00 -0.2436908625556E+00  0.0000000000000E+00  0.8272436372564E+00
 0.3082263944334E+00 -0.3782765102167E+00  0.0000000000000E+00  0.5716582271997E+00
 0.3234840797627E+00 -0.3755898151494E+00  0.0000000000000E+00  0.3287591374586E+00
 0.2855898709651E+00 -0.3232050021620E+00  0.0000000000000E+00  0.1811793512746E+00
 0.2367837094203E+00 -0.2653128212083E+00  0.0000000000000E+00  0.1182675478483E+00
 0.1945335674089E+00 -0.2176200562201E+00  0.0000000000000E+00  0.9623218755904E-01
 0.1605448220826E+00 -0.1796162882721E+00  0.0000000000000E+00  0.8820158150591E-01
 0.1327222344471E+00 -0.1485887521730E+00  0.0000000000000E+00  0.8484605925387E-01
 0.1093557385385E+00 -0.1225490417722E+00  0.0000000000000E+00  0.8281339732728E-01
 0.8934937508728E-01 -0.1002708622308E+00  0.0000000000000E+00  0.8071062947517E-01
 0.7204150723084E-01 -0.8100609728027E-01  0.0000000000000E+00  0.7790171306020E-01
 0.5707415215164E-01 -0.6433218724723E-01  0.0000000000000E+00  0.7407897321802E-01
 0.4445003852827E-01 -0.5026566288689E-01  0.0000000000000E+00  0.6947104464842E-01
 0.3401627092900E-01 -0.3870354986597E-01  0.0000000000000E+00  0.6493508567948E-01
 0.2532318140335E-01 -0.2919770039760E-01  0.0000000000000E+00  0.6095967964558E-01
 0.1802316541155E-01 -0.2134360858648E-01  0.0000000000000E+00  0.5748450836665E-01
 0.1183458452543E-01 -0.1477609824181E-01  0.0000000000000E+00  0.5426204091789E-01
 0.6553026180857E-02 -0.9204221781742E-02  0.0000000000000E+00  0.5090013475950E-01
 0.2103985380870E-02 -0.4500377109221E-02  0.0000000000000E+00  0.4713236376697E-01
-0.1526209086013E-02 -0.6482852148120E-03  0.0000000000000E+00  0.4299742293187E-01
 0.1934646454915E+00 -0.2955751349734E+00  0.0000000000000E+00  0.8599170045464E+00
 0.3642647995673E+00 -0.4393090829319E+00  0.0000000000000E+00  0.4685947763209E+00
 0.3455141025177E+00 -0.3956632904869E+00  0.0000000000000E+00  0.1891903931090E+00
 0.2819785066705E+00 -0.3155399770272E+00  0.0000000000000E+00  0.7367026878309E-01
 0.2249793594517E+00 -0.2514106448266E+00  0.0000000000000E+00  0.4835862366326E-01
 0.1823694485166E+00 -0.2039028836406E+00  0.0000000000000E+00  0.4521166716389E-01
 0.1492885941019E+00 -0.1670669143579E+00  0.0000000000000E+00  0.4713806715974E-01
 0.1224840358077E+00 -0.1371653926992E+00  0.0000000000000E+00  0.4988206543987E-01
 0.1000217872376E+00 -0.1120979493725E+00  0.0000000000000E+00  0.5206050039352E-01
 0.8082593549637E-01 -0.9067667959008E-01  0.0000000000000E+00  0.5310006051400E-01
 0.6425280133481E-01 -0.7217953278662E-01  0.0000000000000E+00  0.5283935627818E-01
 0.4997983373417E-01 -0.5622162982142E-01  0.0000000000000E+00  0.5138317202725E-01
 0.3817912554084E-01 -0.4299656560140E-01  0.0000000000000E+00  0.4885637053385E-01
 0.2868616596808E-01 -0.3242147101424E-01  0.0000000000000E+00  0.4610848202518E-01
 0.2098137705359E-01 -0.2398585784010E-01  0.0000000000000E+00  0.4375449581621E-01
 0.1473169654541E-01 -0.1727900984651E-01  0.0000000000000E+00  0.4169849773997E-01
 0.9593901322557E-02 -0.1185056701181E-01  0.0000000000000E+00  0.3970766782795E-01
 0.5297313320398E-02 -0.7330740742828E-02  0.0000000000000E+00  0.3744996499506E-01
 0.1720658848850E-02 -0.3542565504272E-02  0.0000000000000E+00  0.3473050082747E-01
-0.1168234046688E-02 -0.4649894955981E-03  0.0000000000000E+00  0.3165310550962E-01
 0.2442708630739E+00 -0.3703848958235E+00  0.0000000000000E+00  0.8720149753901E+00
 0.4238173557055E+00 -0.5050047563595E+00  0.0000000000000E+00  0.2740151499937E+00
 0.3471068330450E+00 -0.3871072631165E+00  0.0000000000000E+00  0.8300172390553E-02
 0.2633985704617E+00 -0.2939325538296E+00  0.0000000000000E+00 -0.2001564182454E-01
 0.2077669387916E+00 -0.2322293304755E+00  0.0000000000000E+00 -0.1098254481449E-01
 0.1675740018713E+00 -0.1876514684512E+00  0.0000000000000E+00  0.1235962124913E-03
 0.1365099444732E+00 -0.1529867750622E+00  0.0000000000000E+00  0.9891025041007E-02
 0.1111764535723E+00 -0.1246584027619E+00  0.0000000000000E+00  0.1773794177156E-01
 0.8987702767792E-01 -0.1008180083996E+00  0.0000000000000E+00  0.2359357093465E-01
 0.7165703849345E-01 -0.8042312613353E-01  0.0000000000000E+00  0.2742847360716E-01
 0.5591420038865E-01 -0.6279626569981E-01  0.0000000000000E+00  0.2943361478394E-01
 0.4235674343389E-01 -0.4756771292153E-01  0.0000000000000E+00  0.3018579484077E-01
 0.3139403743883E-01 -0.3518690888903E-01  0.0000000000000E+00  0.2970870453995E-01
 0.2287604666084E-01 -0.2563459391340E-01  0.0000000000000E+00  0.2882970743249E-01
 0.1623676641200E-01 -0.1837311679148E-01  0.0000000000000E+00  0.2818248932393E-01
 0.1116812406699E-01 -0.1296197523193E-01  0.0000000000000E+00  0.2747760614856E-01
 0.7207024703774E-02 -0.8801712569477E-02  0.0000000000000E+00  0.2654301261217E-01
 0.3996178064746E-02 -0.5435670361426E-02  0.0000000000000E+00  0.2517310932675E-01
 0.1361279729554E-02 -0.2628492032068E-02  0.0000000000000E+00  0.2323617707996E-01
-0.7929361846806E-03 -0.2960736594546E-03  0.0000000000000E+00  0.2094631973351E-01
 0.2938640993460E+00 -0.5035771069717E+00  0.0000000000000E+00  0.7018552414663E+00
 0.4487924066395E+00 -0.4963323448741E+00  0.0000000000000E+00 -0.1175632837003E+00
 0.3107608448465E+00 -0.3461906216791E+00  0.0000000000000E+00 -0.1332704532031E+00
 0.2367836583424E+00 -0.2646576762375E+00  0.0000000000000E+00 -0.8874242694355E-01
 0.1872810185313E+00 -0.2100957954130E+00  0.0000000000000E+00 -0.6038339708959E-01
 0.1512051522745E+00 -0.1698243562304E+00  0.0000000000000E+00 -0.3945619831746E-01
 0.1226415244368E+00 -0.1378070367373E+00  0.0000000000000E+00 -0.2366153108463E-01
 0.9906401819705E-01 -0.1113346052235E+00  0.0000000000000E+00 -0.1157658831755E-01
 0.7908832104315E-01 -0.8888047750061E-01  0.0000000000000E+00 -0.2589696774952E-02
 0.6196540933328E-01 -0.6962500800885E-01  0.0000000000000E+00  0.3748515861252E-02
 0.4715905027456E-01 -0.5300441217759E-01  0.0000000000000E+00  0.7712512116873E-02
 0.3428141412185E-01 -0.3847473310313E-01  0.0000000000000E+00  0.1024671621653E-01
 0.2402314332033E-01 -0.2671600344677E-01  0.0000000000000E+00  0.1184048937029E-01
 0.1648016397424E-01 -0.1823433098272E-01  0.0000000000000E+00  0.1331866856643E-01
 0.1107956132472E-01 -0.1237264606026E-01  0.0000000000000E+00  0.1451580343596E-01
 0.7377727637429E-02 -0.8439215023195E-02  0.0000000000000E+00  0.1496440844370E-01
 0.4715658279565E-02 -0.5676841734505E-02  0.0000000000000E+00  0.1487401499513E-01
 0.2696245334029E-02 -0.3567983893815E-02  0.0000000000000E+00  0.1415414809550E-01
 0.1096888179575E-02 -0.1834477720597E-02  0.0000000000000E+00  0.1271152164094E-01
-0.2764154472139E-03 -0.2846313849905E-03  0.0000000000000E+00  0.1077527613292E-01
-0.1241254725494E+00  0.9053381228129E-01  0.0000000000000E+00  0.6474906169025E+00
-0.1270599304163E+00  0.9184612761278E-01  0.0000000000000E+00  0.6376871226422E+00
-0.1308297535937E+00  0.9397146239393E-01  0.0000000000000E+00  0.6251817622556E+00
-0.1339247417671E+00  0.9533383458527E-01  0.0000000000000E+00  0.6107051202307E+00
-0.1361913078643E+00  0.9576756056939E-01  0.0000000000000E+00  0.5943663156308E+00
-0.1375961753865E+00  0.9522804027276E-01  0.0000000000000E+00  0.5761026169199E+00
-0.1381096346391E+00  0.9367868105218E-01  0.0000000000000E+00  0.5557562286675E+00
-0.1376913345304E+00  0.9107328263910E-01  0.0000000000000E+00  0.5331178473315E+00
-0.1362946842958E+00  0.8736014359998E-01  0.0000000000000E+00  0.5079471387586E+00
-0.1338740659843E+00  0.8248900580398E-01  0.0000000000000E+00  0.4799841287400E+00
-0.1303923883420E+00  0.7641851199858E-01  0.0000000000000E+00  0.4489571283838E+00
-0.1258288813210E+00  0.6912392312861E-01  0.0000000000000E+00  0.4145901924488E+00
-0.1201870969643E+00  0.6060505927013E-01  0.0000000000000E+00  0.3766115503097E+00
-0.1135027202638E+00  0.5089400316572E-01  0.0000000000000E+00  0.3347634823052E+00
-0.1058501120083E+00  0.4006174836834E-01  0.0000000000000E+00  0.2888139815918E+00
-0.9734723752887E-01  0.2822206855189E-01  0.0000000000000E+00  0.2385666223844E+00
-0.8815468600212E-01  0.1553422352668E-01  0.0000000000000E+00  0.1838744840115E+00
-0.7848983828040E-01  0.2191540692367E-02  0.0000000000000E+00  0.1245862722085E+00
-0.6857229759839E-01 -0.1152599923364E-01  0.0000000000000E+00  0.6065401077424E-01
-0.5922484808304E-01 -0.2552604157505E-01  0.0000000000000E+00 -0.1000010363619E-01
-0.1270682456697E+00  0.9485102172507E-01  0.0000000000000E+00  0.6445244619785E+00
-0.1316368518011E+00  0.9757005954448E-01  0.0000000000000E+00  0.6305600140904E+00
-0.1355213759315E+00  0.9982016865369E-01  0.0000000000000E+00  0.6173077529030E+00
-0.1389209637366E+00  0.1015538476930E+00  0.0000000000000E+00  0.6028432773510E+00
-0.1416243105635E+00  0.1025203283798E+00  0.0000000000000E+00  0.5867239785404E+00
-0.1435073989273E+00  0.1025746886217E+00  0.0000000000000E+00  0.5687587236868E+00
-0.1444737648249E+00  0.1016092888155E+00  0.0000000000000E+00  0.5487786136086E+00
-0.1444372859976E+00  0.9953026589463E-01  0.0000000000000E+00  0.5265927465833E+00
-0.1433158168757E+00  0.9624909144187E-01  0.0000000000000E+00  0.5019807981713E+00
-0.1410331350904E+00  0.9168359907126E-01  0.0000000000000E+00  0.4746951828204E+00
-0.1375247370799E+00  0.8576333498271E-01  0.0000000000000E+00  0.4444644735816E+00
-0.1327459255116E+00  0.7843739459849E-01  0.0000000000000E+00  0.4109971253908E+00
-0.1266812769693E+00  0.6968374529402E-01  0.0000000000000E+00  0.3739861102673E+00
-0.1193545282566E+00  0.5951914599090E-01  0.0000000000000E+00  0.3331157446860E+00
-0.1108376784855E+00  0.4800816058037E-01  0.0000000000000E+00  0.2880715239067E+00
-0.1012561648905E+00  0.3526957831550E-01  0.0000000000000E+00  0.2385554202752E+00
-0.9079113298188E-01  0.2147403428153E-01  0.0000000000000E+00  0.1842942049923E+00
-0.7964451057795E-01  0.6831140009601E-02  0.0000000000000E+00  0.1250725157854E+00
-0.6808193170582E-01 -0.8487494216096E-02  0.0000000000000E+00  0.6051476500205E-01
-0.5527624815772E-01 -0.2491447351479E-01  0.0000000000000E+00 -0.9461851582751E-02
-0.1293610022563E+00  0.9789163718936E-01  0.0000000000000E+00  0.6378097428112E+00
-0.1352073800285E+00  0.1022343743823E+00  0.0000000000000E+00  0.6237605590693E+00
-0.1397597528683E+00  0.1052270042381E+00  0.0000000000000E+00  0.6094556976999E+00
-0.1435917499651E+00  0.1074925009190E+00  0.0000000000000E+00  0.5944461386055E+00
-0.1467308578079E+00  0.1090103141147E+00  0.0000000000000E+00  0.5781442841244E+00
-0.1490685813560E+00  0.1096537422503E+00  0.0000000000000E+00  0.5602358211534E+00
-0.1504842673501E+00  0.1092892195950E+00  0.0000000000000E+00  0.5404984659855E+00
-0.1508585183294E+00  0.1077885742752E+00  0.0000000000000E+00  0.5187317978494E+00
-0.1500763292804E+00  0.1050295398913E+00  0.0000000000000E+00  0.4947238616853E+00
-0.1480294229182E+00  0.1008969615604E+00  0.0000000000000E+00  0.4682372987136E+00
-0.1446213825360E+00  0.9528721379567E-01  0.0000000000000E+00  0.4390026448779E+00
-0.1397755144072E+00  0.8811561846027E-01  0.0000000000000E+00  0.4067144121439E+00
-0.1334450561751E+00  0.7932639268322E-01  0.0000000000000E+00  0.3710291587253E+00
-0.1256251555026E+00  0.6890450348752E-01  0.0000000000000E+00  0.3315667375479E+00
-0.1163651933392E+00  0.5688839497571E-01  0.0000000000000E+00  0.2879177446660E+00
-0.1057803825125E+00  0.4338129777763E-01  0.0000000000000E+00  0.2396593052563E+00
-0.9405158112533E-01  0.2855640341380E-01  0.0000000000000E+00  0.1863896684009E+00
-0.8142977002981E-01  0.1264630398669E-01  0.0000000000000E+00  0.1277617155093E+00
-0.6806164172876E-01 -0.4141972107575E-02  0.0000000000000E+00  0.6364086219307E-01
-0.5423477984477E-01 -0.2156688214519E-01  0.0000000000000E+00 -0.5226354845550E-02
-0.1311870208521E+00  0.1005093535162E+00  0.0000000000000E+00  0.6292478221656E+00
-0.1378028261659E+00  0.1058060776256E+00  0.0000000000000E+00  0.6157844978079E+00
-0.1431675078291E+00  0.1097851428058E+00  0.0000000000000E+00  0.6010189384342E+00
-0.1476190699821E+00  0.1128008211060E+00  0.0000000000000E+00  0.5853806114673E+00
-0.1512816756808E+00  0.1149817200528E+00  0.0000000000000E+00  0.5686556667747E+00
-0.1541155902415E+00  0.1162744574969E+00  0.0000000000000E+00  0.5505643115730E+00
-0.1560142811664E+00  0.1165629863482E+00  0.0000000000000E+00  0.5308787308025E+00
-0.1568489231083E+00  0.1157103804558E+00  0.0000000000000E+00  0.5093980907559E+00
-0.1564835840679E+00  0.1135736653192E+00  0.0000000000000E+00  0.4859212003285E+00
-0.1547827237874E+00  0.1100102870535E+00  0.0000000000000E+00  0.4602254147279E+00
-0.1516174520520E+00  0.1048836569994E+00  0.0000000000000E+00  0.4320512525237E+00
-0.1468733832407E+00  0.9807042081839E-01  0.0000000000000E+00  0.4010897886895E+00
-0.1404611040596E+00  0.8947046132516E-01  0.0000000000000E+00  0.3669719050813E+00
-0.1323296602031E+00  0.7902013508522E-01  0.0000000000000E+00  0.3292607149468E+00
-0.1224833268959E+00  0.6670889157814E-01  0.0000000000000E+00  0.2874506400996E+00
-0.1109996418973E+00  0.5259856727585E-01  0.0000000000000E+00  0.2409805610178E+00
-0.9805070294778E-01  0.3684351722839E-01  0.0000000000000E+00  0.1892692509842E+00
-0.8390023904603E-01  0.1970270693046E-01  0.0000000000000E+00  0.1318013794182E+00
-0.6896154971588E-01  0.1570930024667E-02  0.0000000000000E+00  0.6833336037673E-01
-0.5385058167343E-01 -0.1693880892551E-01  0.0000000000000E+00 -0.1025374896213E-02
-0.1327230173697E+00  0.1028492086454E+00  0.0000000000000E+00  0.6197027358431E+00
-0.1397703542537E+00  0.1087397218970E+00  0.0000000000000E+00  0.6064962168595E+00
-0.1457899701909E+00  0.1135302665885E+00  0.0000000000000E+00  0.5915014888524E+00
-0.1508794788544E+00  0.1173404681991E+00  0.0000000000000E+00  0.5753519307389E+00
-0.1551177297068E+00  0.1202536339162E+00  0.0000000000000E+00  0.5581168318310E+00
-0.1584906380905E+00  0.1222543224983E+00  0.0000000000000E+00  0.5396663588400E+00
-0.1609132563771E+00  0.1232518804068E+00  0.0000000000000E+00  0.5198306101258E+00
-0.1622613073019E+00  0.1231164509472E+00  0.0000000000000E+00  0.4984414918563E+00
-0.1623902648113E+00  0.1216978314012E+00  0.0000000000000E+00  0.4753263438732E+00
-0.1611455462585E+00  0.1188353453415E+00  0.0000000000000E+00  0.4502915109657E+00
-0.1583696276754E+00  0.1143643282876E+00  0.0000000000000E+00  0.4231037096862E+00
-0.1539093185558E+00  0.1081227576920E+00  0.0000000000000E+00  0.3934707379496E+00
-0.1476253267499E+00  0.9996016796586E-01  0.0000000000000E+00  0.3610215361878E+00
-0.1394058774319E+00  0.8975061680542E-01  0.0000000000000E+00  0.3252866889778E+00
-0.1291859588152E+00  0.7741156129319E-01  0.0000000000000E+00  0.2856829673499E+00
-0.1169748081810E+00  0.6293083764063E-01  0.0000000000000E+00  0.2415092655107E+00
-0.1028899368441E+00  0.4640293137221E-01  0.0000000000000E+00  0.1919677095056E+00
-0.8721180264113E-01  0.2808057575406E-01  0.0000000000000E+00  0.1362354352918E+00
-0.7044619405174E-01  0.8444720249940E-02  0.0000000000000E+00  0.7356794790208E-01
-0.5337821011056E-01 -0.1174431730772E-01  0.0000000000000E+00  0.3446896968792E-02
-0.1339381028670E+00  0.1048815119439E+00  0.0000000000000E+00  0.6095116350110E+00
-0.1412399728602E+00  0.1111676927936E+00  0.0000000000000E+00  0.5961497580447E+00
-0.1477389833586E+00  0.1165899314034E+00  0.0000000000000E+00  0.5808529015289E+00
-0.1533784984607E+00  0.1211079976094E+00  0.0000000000000E+00  0.5642033654068E+00
-0.1581678162450E+00  0.1247389389296E+00  0.0000000000000E+00  0.5464014035558E+00
-0.1620812033765E+00  0.1274587539365E+00  0.0000000000000E+00  0.5274461529551E+00
-0.1650425252763E+00  0.1291902869490E+00  0.0000000000000E+00  0.5072554925522E+00
-0.1669350467389E+00  0.1298141543687E+00  0.0000000000000E+00  0.4857201890479E+00
-0.1676136837246E+00  0.1291819598429E+00  0.0000000000000E+00  0.4627163418352E+00
-0.1669135879497E+00  0.1271247203482E+00  0.0000000000000E+00  0.4380972621813E+00
-0.1646558869149E+00  0.1234581802738E+00  0.0000000000000E+00  0.4116764331107E+00
-0.1606527960571E+00  0.1179872732607E+00  0.0000000000000E+00  0.3832049587569E+00
-0.1547142850582E+00  0.1105119715346E+00  0.0000000000000E+00  0.3523441415340E+00
-0.1466587334268E+00  0.1008369710224E+00  0.0000000000000E+00  0.3186333444880E+00
-0.1363310075328E+00  0.8878855175772E-01  0.0000000000000E+00  0.2814546048238E+00
-0.1236322652813E+00  0.7424336475211E-01  0.0000000000000E+00  0.2399987322719E+00
-0.1085693545643E+00  0.5717628188896E-01  0.0000000000000E+00  0.1932452168840E+00
-0.9132783931532E-01  0.3773331635747E-01  0.0000000000000E+00  0.1399668273386E+00
-0.7237171637818E-01  0.1633245203592E-01  0.0000000000000E+00  0.7878731073177E-01
-0.5254810638403E-01 -0.6222130252483E-02  0.0000000000000E+00  0.8338337308447E-02
-0.1347937350942E+00  0.1065586504202E+00  0.0000000000000E+00  0.5988536369864E+00
-0.1422512217918E+00  0.1131308423678E+00  0.0000000000000E+00  0.5849836292234E+00
-0.1490828245247E+00  0.1190306029881E+00  0.0000000000000E+00  0.5691984479695E+00
-0.1551534662512E+00  0.1241362005321E+00  0.0000000000000E+00  0.5519506784694E+00
-0.1604152924732E+00  0.1284077307234E+00  0.0000000000000E+00  0.5334778909099E+00
-0.1648204146850E+00  0.1318016744696E+00  0.0000000000000E+00  0.5138605832174E+00
-0.1682913927297E+00  0.1342425030946E+00  0.0000000000000E+00  0.4930949115276E+00
-0.1707171623312E+00  0.1356196912317E+00  0.0000000000000E+00  0.4711379185470E+00
-0.1719566689657E+00  0.1357917725120E+00  0.0000000000000E+00  0.4479253269495E+00
-0.1718428751568E+00  0.1345904425624E+00  0.0000000000000E+00  0.4233705117244E+00
-0.1701851747015E+00  0.1318226577561E+00  0.0000000000000E+00  0.3973514151052E+00
-0.1667706577077E+00  0.1272713262410E+00  0.0000000000000E+00  0.3696885113550E+00
-0.1613656427701E+00  0.1206959871243E+00  0.0000000000000E+00  0.3401138113552E+00
-0.1537197363554E+00  0.1118356432700E+00  0.0000000000000E+00  0.3082291950176E+00
-0.1435760743548E+00  0.1004172975363E+00  0.0000000000000E+00  0.2734515808485E+00
-0.1306942874149E+00  0.8617644175179E-01  0.0000000000000E+00  0.2349433859538E+00
-0.1148964777180E+00  0.6889989193671E-01  0.0000000000000E+00  0.1915293770010E+00
-0.9614856764799E-01  0.4850544411062E-01  0.0000000000000E+00  0.1416183730327E+00
-0.7468676988967E-01  0.2516278893535E-01  0.0000000000000E+00  0.8315033094146E-01
-0.5121002367347E-01 -0.5079254012231E-03  0.0000000000000E+00  0.1363622448501E-01
-0.1352598591957E+00  0.1078436807922E+00  0.0000000000000E+00  0.5878407049474E+00
-0.1428112595650E+00  0.1146323001214E+00  0.0000000000000E+00  0.5731945311563E+00
-0.1498593679464E+00  0.1208867523850E+00  0.0000000000000E+00  0.5567060831903E+00
-0.1562397378305E+00  0.1264536729480E+00  0.0000000000000E+00  0.5387011298514E+00
-0.1618678952640E+00  0.1312568549888E+00  0.0000000000000E+00  0.5194061246461E+00
-0.1666756924093E+00  0.1352341751701E+00  0.0000000000000E+00  0.4989423144913E+00
-0.1705809660381E+00  0.1383079495273E+00  0.0000000000000E+00  0.4773615929293E+00
-0.1734766924239E+00  0.1403746159632E+00  0.0000000000000E+00  0.4546781438497E+00
-0.1752284181618E+00  0.1413025347440E+00  0.0000000000000E+00  0.4308853909487E+00
-0.1756736202792E+00  0.1409314281698E+00  0.0000000000000E+00  0.4059591049448E+00
-0.1746201798847E+00  0.1390706996463E+00  0.0000000000000E+00  0.3798493830443E+00
-0.1718431082221E+00  0.1354957476074E+00  0.0000000000000E+00  0.3524627458350E+00
-0.1670797131333E+00  0.1299424244906E+00  0.0000000000000E+00  0.3236332673265E+00
-0.1600242123335E+00  0.1221005096518E+00  0.0000000000000E+00  0.2930790065038E+00
-0.1503241557522E+00  0.1116082641018E+00  0.0000000000000E+00  0.2603370108535E+00
-0.1375837893623E+00  0.9805270241074E-01  0.0000000000000E+00  0.2246662819569E+00
-0.1213849259727E+00  0.8098570106619E-01  0.0000000000000E+00  0.1849057371876E+00
-0.1013492964535E+00  0.5997803526141E-01  0.0000000000000E+00  0.1392775676469E+00
-0.7726531163970E-01  0.3474936707064E-01  0.0000000000000E+00  0.8518905059883E-01
-0.4930108614757E-01  0.5345146094345E-02  0.0000000000000E+00  0.1901230678728E-01
-0.1353166437576E+00  0.1087114584263E+00  0.0000000000000E+00  0.5765588323517E+00
-0.1429127428962E+00  0.1156611781936E+00  0.0000000000000E+00  0.5609403027679E+00
-0.1500818861757E+00  0.1221683241816E+00  0.0000000000000E+00  0.5435486212208E+00
-0.1566563590530E+00  0.1280749628820E+00  0.0000000000000E+00  0.5246102311915E+00
-0.1625317423381E+00  0.1332853127651E+00  0.0000000000000E+00  0.5043213032301E+00
-0.1676252064295E+00  0.1377240236691E+00  0.0000000000000E+00  0.4828155819015E+00
-0.1718497144732E+00  0.1413107327775E+00  0.0000000000000E+00  0.4601772023187E+00
-0.1751012797006E+00  0.1439476954706E+00  0.0000000000000E+00  0.4364605575694E+00
-0.1772529883429E+00  0.1455140914443E+00  0.0000000000000E+00  0.4117044488090E+00
-0.1781510945904E+00  0.1458622873223E+00  0.0000000000000E+00  0.3859377407049E+00
-0.1776103305205E+00  0.1448131678611E+00  0.0000000000000E+00  0.3591767369946E+00
-0.1754067822591E+00  0.1421488813397E+00  0.0000000000000E+00  0.3314143201807E+00
-0.1712672691907E+00  0.1376018860189E+00  0.0000000000000E+00  0.3025992094777E+00
-0.1648544073179E+00  0.1308393540379E+00  0.0000000000000E+00  0.2726008932717E+00
-0.1557468264122E+00  0.1214421116644E+00  0.0000000000000E+00  0.2411512754647E+00
-0.1434149999776E+00  0.1088779985544E+00  0.0000000000000E+00  0.2077465727541E+00
-0.1271974003198E+00  0.9247273558284E-01  0.0000000000000E+00  0.1714797941529E+00
-0.1062928064673E+00  0.7139240720090E-01  0.0000000000000E+00  0.1307548087410E+00
-0.7984190672978E-01  0.4469894231570E-01  0.0000000000000E+00  0.8282492769198E-01
-0.4711417450414E-01  0.1159417721259E-01  0.0000000000000E+00  0.2342406284214E-01
-0.1349398884272E+00  0.1091352744798E+00  0.0000000000000E+00  0.5650864995098E+00
-0.1425238126488E+00  0.1161852577637E+00  0.0000000000000E+00  0.5483623526758E+00
-0.1497231997994E+00  0.1228491088297E+00  0.0000000000000E+00  0.5299139443408E+00
-0.1563770871879E+00  0.1289752418699E+00  0.0000000000000E+00  0.5098959295172E+00
-0.1623715655676E+00  0.1344588805107E+00  0.0000000000000E+00  0.4884689435772E+00
-0.1676139797342E+00  0.1392161436031E+00  0.0000000000000E+00  0.4657617057952E+00
-0.1720129783825E+00  0.1431643041752E+00  0.0000000000000E+00  0.4418710482965E+00
-0.1754664305970E+00  0.1462100067395E+00  0.0000000000000E+00  0.4168732670354E+00
-0.1778542211343E+00  0.1482423705943E+00  0.0000000000000E+00  0.3908352816686E+00
-0.1790327081831E+00  0.1491277305397E+00  0.0000000000000E+00  0.3638218007494E+00
-0.1788283352239E+00  0.1487035064694E+00  0.0000000000000E+00  0.3358977213942E+00
-0.1770284016330E+00  0.1467692129819E+00  0.0000000000000E+00  0.3071255620423E+00
-0.1733670347131E+00  0.1430726579657E+00  0.0000000000000E+00  0.2775568884901E+00
-0.1675038861653E+00  0.1372888283300E+00  0.0000000000000E+00  0.2472146377649E+00
-0.1589918931694E+00  0.1289877110716E+00  0.0000000000000E+00  0.2160593218195E+00
-0.1472285797478E+00  0.1175851566518E+00  0.0000000000000E+00  0.1839241498133E+00
-0.1313827213660E+00  0.1022677338320E+00  0.0000000000000E+00  0.1503866776834E+00
-0.1102898070305E+00  0.8188088750795E-01  0.0000000000000E+00  0.1145037958794E+00
-0.8232963295782E-01  0.5478089251896E-01  0.0000000000000E+00  0.7421553943961E-01
-0.4561413641308E-01  0.1891520287862E-01  0.0000000000000E+00  0.2515771427528E-01
-0.1341203887781E+00  0.1091032463127E+00  0.0000000000000E+00  0.5535140600513E+00
-0.1416270171384E+00  0.1161847695807E+00  0.0000000000000E+00  0.5356153092837E+00
-0.1487655872416E+00  0.1229093682026E+00  0.0000000000000E+00  0.5160233894450E+00
-0.1553846248533E+00  0.1291348862168E+00  0.0000000000000E+00  0.4948418169086E+00
-0.1613661982402E+00  0.1347530433401E+00  0.0000000000000E+00  0.4721969182863E+00
-0.1666106425539E+00  0.1396740267547E+00  0.0000000000000E+00  0.4482026064149E+00
-0.1710219360935E+00  0.1438120423798E+00  0.0000000000000E+00  0.4229541909163E+00
-0.1744973491077E+00  0.1470752577745E+00  0.0000000000000E+00  0.3965339161575E+00
-0.1769203223718E+00  0.1493590415373E+00  0.0000000000000E+00  0.3690192882459E+00
-0.1781545540931E+00  0.1505404693217E+00  0.0000000000000E+00  0.3404906482164E+00
-0.1780373224888E+00  0.1504721446660E+00  0.0000000000000E+00  0.3110371615130E+00
-0.1763701454508E+00  0.1489734858940E+00  0.0000000000000E+00  0.2807614655863E+00
-0.1729045681170E+00  0.1458173509787E+00  0.0000000000000E+00  0.2497833616184E+00
-0.1673198724601E+00  0.1407089260283E+00  0.0000000000000E+00  0.2182424321224E+00
-0.1591873509981E+00  0.1332517187967E+00  0.0000000000000E+00  0.1862980724895E+00
-0.1479113598207E+00  0.1228912377912E+00  0.0000000000000E+00  0.1541219477418E+00
-0.1326284084734E+00  0.1088180256502E+00  0.0000000000000E+00  0.1218683892801E+00
-0.1120257523655E+00  0.8979186488033E-01  0.0000000000000E+00  0.8957679442955E-01
-0.8399130183395E-01  0.6379848871446E-01  0.0000000000000E+00  0.5685735507519E-01
-0.4502684828867E-01  0.2734985394397E-01  0.0000000000000E+00  0.2137481772656E-01
-0.1328631267420E+00  0.1086173305397E+00  0.0000000000000E+00  0.5419263935134E+00
-0.1402244830589E+00  0.1156583712231E+00  0.0000000000000E+00  0.5228383793005E+00
-0.1472138329593E+00  0.1223497841669E+00  0.0000000000000E+00  0.5020773660529E+00
-0.1536885722313E+00  0.1285583317140E+00  0.0000000000000E+00  0.4797115512380E+00
-0.1595287822468E+00  0.1341741275266E+00  0.0000000000000E+00  0.4558377580118E+00
-0.1646285431816E+00  0.1391018573219E+00  0.0000000000000E+00  0.4305517838615E+00
-0.1688854287806E+00  0.1432504408423E+00  0.0000000000000E+00  0.4039397112939E+00
-0.1721919199557E+00  0.1465247461008E+00  0.0000000000000E+00  0.3760795790831E+00
-0.1744287175752E+00  0.1488193037340E+00  0.0000000000000E+00  0.3470469793115E+00
-0.1754587708397E+00  0.1500128476407E+00  0.0000000000000E+00  0.3169217338711E+00
-0.1751205736174E+00  0.1499622762237E+00  0.0000000000000E+00  0.2857950341328E+00
-0.1732191388843E+00  0.1484945249642E+00  0.0000000000000E+00  0.2537777491943E+00
-0.1695126481720E+00  0.1453944873296E+00  0.0000000000000E+00  0.2210115602642E+00
-0.1636917528433E+00  0.1403862019822E+00  0.0000000000000E+00  0.1876856586371E+00
-0.1553462896735E+00  0.1331025224072E+00  0.0000000000000E+00  0.1540635200291E+00
-0.1439094897505E+00  0.1230342155880E+00  0.0000000000000E+00  0.1205276044946E+00
-0.1285590258485E+00  0.1094398637723E+00  0.0000000000000E+00  0.8765641132709E-01
-0.1080262424342E+00  0.9117302964254E-01  0.0000000000000E+00  0.5636145945297E-01
-0.8018634725385E-01  0.6631306723246E-01  0.0000000000000E+00  0.2813646359158E-01
-0.4075427656153E-01  0.3105421856629E-01  0.0000000000000E+00  0.5439120839743E-02
-0.1311824351064E+00  0.1076892549394E+00  0.0000000000000E+00  0.5303960671161E+00
-0.1383322890904E+00  0.1146188821888E+00  0.0000000000000E+00  0.5101455515254E+00
-0.1450905807121E+00  0.1211889429309E+00  0.0000000000000E+00  0.4882393298756E+00
-0.1513214494162E+00  0.1272729379188E+00  0.0000000000000E+00  0.4647233094331E+00
-0.1569031817569E+00  0.1327593338857E+00  0.0000000000000E+00  0.4396723744500E+00
-0.1617233421705E+00  0.1375466462314E+00  0.0000000000000E+00  0.4131669279994E+00
-0.1656711096310E+00  0.1415359339142E+00  0.0000000000000E+00  0.3852840119289E+00
-0.1686300381405E+00  0.1446238436510E+00  0.0000000000000E+00  0.3560969076829E+00
-0.1704716600758E+00  0.1466966036380E+00  0.0000000000000E+00  0.3256788735650E+00
-0.1710492619316E+00  0.1476243114501E+00  0.0000000000000E+00  0.2941089549101E+00
-0.1701907877971E+00  0.1472545148060E+00  0.0000000000000E+00  0.2614795614713E+00
-0.1676896212719E+00  0.1454039151605E+00  0.0000000000000E+00  0.2279068833536E+00
-0.1632916729323E+00  0.1418467555687E+00  0.0000000000000E+00  0.1935466623218E+00
-0.1566765370158E+00  0.1362978910641E+00  0.0000000000000E+00  0.1586200192409E+00
-0.1474291917192E+00  0.1283874352502E+00  0.0000000000000E+00  0.1234581373659E+00
-0.1349961610037E+00  0.1176217639974E+00  0.0000000000000E+00  0.8858320395441E-01
-0.1186148703812E+00  0.1033213943013E+00  0.0000000000000E+00  0.5486251753424E-01
-0.9719275448988E-01  0.8451740506471E-01  0.0000000000000E+00  0.2382452007101E-01
-0.6907672909408E-01  0.5976163296313E-01  0.0000000000000E+00 -0.1628525477684E-02
-0.3153037959293E-01  0.2677317900994E-01  0.0000000000000E+00 -0.1491882097369E-01
-0.1290994017191E+00  0.1063380060169E+00  0.0000000000000E+00  0.5189845381857E+00
-0.1359766293698E+00  0.1130897716337E+00  0.0000000000000E+00  0.4976292512690E+00
-0.1424316461038E+00  0.1194592458329E+00  0.0000000000000E+00  0.4746404247293E+00
-0.1483330262289E+00  0.1253242077160E+00  0.0000000000000E+00  0.4500528634506E+00
-0.1535570132030E+00  0.1305709455074E+00  0.0000000000000E+00  0.4239288818021E+00
-0.1579847041215E+00  0.1350914166656E+00  0.0000000000000E+00  0.3963408509050E+00
-0.1614962901357E+00  0.1387776206547E+00  0.0000000000000E+00  0.3673637858111E+00
-0.1639648986151E+00  0.1415156734531E+00  0.0000000000000E+00  0.3370748315115E+00
-0.1652506058954E+00  0.1431801385482E+00  0.0000000000000E+00  0.3055570149395E+00
-0.1651943100851E+00  0.1436283115021E+00  0.0000000000000E+00  0.2729060864802E+00
-0.1636108279155E+00  0.1426938468047E+00  0.0000000000000E+00  0.2392407014294E+00
-0.1602804771417E+00  0.1401790317355E+00  0.0000000000000E+00  0.2047175940976E+00
-0.1549383819174E+00  0.1358450129118E+00  0.0000000000000E+00  0.1695551337893E+00
-0.1472607911282E+00  0.1293993675135E+00  0.0000000000000E+00  0.1340713711624E+00
-0.1368479858326E+00  0.1204807555687E+00  0.0000000000000E+00  0.9874759453981E-01
-0.1232044859937E+00  0.1086415611639E+00  0.0000000000000E+00  0.6433803803192E-01
-0.1057208919794E+00  0.9333320646327E-01  0.0000000000000E+00  0.3206698116883E-01
-0.8367578213197E-01  0.7391167549584E-01  0.0000000000000E+00  0.4000893841432E-02
-0.5632273124291E-01  0.4972861119844E-01  0.0000000000000E+00 -0.1617769757976E-01
-0.2358305929765E-01  0.2070331178413E-01  0.0000000000000E+00 -0.2149240648637E-01
-0.1266399202689E+00  0.1045878377694E+00  0.0000000000000E+00  0.5077431894586E+00
-0.1331907901836E+00  0.1111021917521E+00  0.0000000000000E+00  0.4853634032062E+00
-0.1392819355974E+00  0.1172029690254E+00  0.0000000000000E+00  0.4613833902967E+00
-0.1447846623978E+00  0.1227703324645E+00  0.0000000000000E+00  0.4358363348190E+00
-0.1495733622467E+00  0.1276882891520E+00  0.0000000000000E+00  0.4087816518466E+00
-0.1535237604631E+00  0.1318429208984E+00  0.0000000000000E+00  0.3802929673029E+00
-0.1565085549212E+00  0.1351181105451E+00  0.0000000000000E+00  0.3504531467009E+00
-0.1583923782701E+00  0.1373906588221E+00  0.0000000000000E+00  0.3193551049773E+00
-0.1590267100116E+00  0.1385254013227E+00  0.0000000000000E+00  0.2871070620902E+00
-0.1582447503952E+00  0.1383703319176E+00  0.0000000000000E+00  0.2538418483622E+00
-0.1558560956708E+00  0.1367515701945E+00  0.0000000000000E+00  0.2197310039515E+00
-0.1516411580182E+00  0.1334681122226E+00  0.0000000000000E+00  0.1850056792117E+00
-0.1453456410679E+00  0.1282866585648E+00  0.0000000000000E+00  0.1499879295664E+00
-0.1366761827204E+00  0.1209375784091E+00  0.0000000000000E+00  0.1151382857965E+00
-0.1253000178635E+00  0.1111147028723E+00  0.0000000000000E+00  0.8112904819234E-01
-0.1108554067411E+00  0.9848527842675E-01  0.0000000000000E+00  0.4895845420169E-01
-0.9298922702455E-01  0.8272508720593E-01  0.0000000000000E+00  0.2012947196267E-01
-0.7146186481830E-01  0.6361543905618E-01  0.0000000000000E+00 -0.3073421939676E-02
-0.4644424764317E-01  0.4130618050314E-01  0.0000000000000E+00 -0.1719563892181E-01
-0.1927525437722E-01  0.1698076366577E-01  0.0000000000000E+00 -0.1757325623039E-01
-0.1238331705740E+00  0.1024667202122E+00  0.0000000000000E+00  0.4967141212728E+00
-0.1300127893227E+00  0.1086925897813E+00  0.0000000000000E+00  0.4734060788694E+00
-0.1356921216253E+00  0.1144689188122E+00  0.0000000000000E+00  0.4485464711930E+00
-0.1407444583436E+00  0.1196773017279E+00  0.0000000000000E+00  0.4221744966558E+00
-0.1450433012194E+00  0.1242001587767E+00  0.0000000000000E+00  0.3943552563053E+00
-0.1484612184521E+00  0.1279195593577E+00  0.0000000000000E+00  0.3651723130433E+00
-0.1508666736287E+00  0.1307140844473E+00  0.0000000000000E+00  0.3347253692213E+00
-0.1521202873631E+00  0.1324551546198E+00  0.0000000000000E+00  0.3031328742372E+00
-0.1520711837626E+00  0.1330034560927E+00  0.0000000000000E+00  0.2705390465604E+00
-0.1505537127086E+00  0.1322057376455E+00  0.0000000000000E+00  0.2371253425268E+00
-0.1473848297018E+00  0.1298922359545E+00  0.0000000000000E+00  0.2031271847296E+00
-0.1423626979696E+00  0.1258752531487E+00  0.0000000000000E+00  0.1688576153875E+00
-0.1352677035595E+00  0.1199500007424E+00  0.0000000000000E+00  0.1347404617069E+00
-0.1258682574244E+00  0.1118999312439E+00  0.0000000000000E+00  0.1013565688158E+00
-0.1139359749771E+00  0.1015108386885E+00  0.0000000000000E+00  0.6950740566536E-01
-0.9927911376438E-01  0.8860192785286E-01  0.0000000000000E+00  0.4029978990649E-01
-0.8181132899318E-01  0.7308952239211E-01  0.0000000000000E+00  0.1524948737157E-01
-0.6168919908294E-01  0.5511329186617E-01  0.0000000000000E+00 -0.3623525623064E-02
-0.3956809739883E-01  0.3527091574083E-01  0.0000000000000E+00 -0.1384899590400E-01
-0.1689573507691E-01  0.1492188855133E-01  0.0000000000000E+00 -0.1308987906795E-01
-0.1207104164978E+00  0.1000050417317E+00  0.0000000000000E+00  0.4859308177320E+00
-0.1264833897296E+00  0.1059006439164E+00  0.0000000000000E+00  0.4618015695170E+00
-0.1317157959313E+00  0.1113094913804E+00  0.0000000000000E+00  0.4361868436584E+00
-0.1362831121360E+00  0.1161146322698E+00  0.0000000000000E+00  0.4091375033638E+00
-0.1400596515579E+00  0.1201983820059E+00  0.0000000000000E+00  0.3807309506376E+00
-0.1429178471337E+00  0.1234415556328E+00  0.0000000000000E+00  0.3510672363425E+00
-0.1447261969794E+00  0.1257213917283E+00  0.0000000000000E+00  0.3202689871262E+00
-0.1453469661137E+00  0.1269092381568E+00  0.0000000000000E+00  0.2884854903670E+00
-0.1446342913620E+00  0.1268686243064E+00  0.0000000000000E+00  0.2559008152935E+00
-0.1424331667470E+00  0.1254541714817E+00  0.0000000000000E+00  0.2227460691396E+00
-0.1385798856675E+00  0.1225118822264E+00  0.0000000000000E+00  0.1893162697659E+00
-0.1329048654396E+00  0.1178816776576E+00  0.0000000000000E+00  0.1559926437122E+00
-0.1252394235634E+00  0.1114036577808E+00  0.0000000000000E+00  0.1232712585732E+00
-0.1154291370538E+00  0.1029305555076E+00  0.0000000000000E+00  0.9179845442344E-01
-0.1033581028863E+00  0.9235042621067E-01  0.0000000000000E+00  0.6241179508064E-01
-0.8899090552229E-01  0.7962593505111E-01  0.0000000000000E+00  0.3618030990260E-01
-0.7244203589956E-01  0.6485936717204E-01  0.0000000000000E+00  0.1442525936538E-01
-0.5408196234851E-01  0.4839244575232E-01  0.0000000000000E+00 -0.1329353712259E-02
-0.3465837470661E-01  0.3092724054649E-01  0.0000000000000E+00 -0.9581620584154E-02
-0.1535117471725E-01  0.1358733423415E-01  0.0000000000000E+00 -0.9326588145276E-02
-0.1173039858288E+00  0.9723458850209E-01  0.0000000000000E+00  0.4754188015075E+00
-0.1226445012215E+00  0.1027676333273E+00  0.0000000000000E+00  0.4505822322557E+00
-0.1274071895164E+00  0.1077783385092E+00  0.0000000000000E+00  0.4243439105795E+00
-0.1314707010857E+00  0.1121520460480E+00  0.0000000000000E+00  0.3967699635284E+00
-0.1347123745948E+00  0.1157730264726E+00  0.0000000000000E+00  0.3679543351955E+00
-0.1370078881880E+00  0.1185240539364E+00  0.0000000000000E+00  0.3380173326188E+00
-0.1382302537018E+00  0.1202853323395E+00  0.0000000000000E+00  0.3071070255251E+00
-0.1382489652300E+00  0.1209335641476E+00  0.0000000000000E+00  0.2754040230757E+00
-0.1369298878431E+00  0.1203417225943E+00  0.0000000000000E+00  0.2431296011634E+00
-0.1341364261597E+00  0.1183800420803E+00  0.0000000000000E+00  0.2105570927742E+00
-0.1297326484005E+00  0.1149188669104E+00  0.0000000000000E+00  0.1780264922695E+00
-0.1235893385526E+00  0.1098342797877E+00  0.0000000000000E+00  0.1459620996904E+00
-0.1155944086359E+00  0.1030178673167E+00  0.0000000000000E+00  0.1148925038990E+00
-0.1056697150548E+00  0.9439256184850E-01  0.0000000000000E+00  0.8547088978353E-01
-0.9379698274511E-01  0.8393713553481E-01  0.0000000000000E+00  0.5849083105377E-01
-0.8005577408552E-01  0.7172220118344E-01  0.0000000000000E+00  0.3488712775739E-01
-0.6467471407906E-01  0.5795912136268E-01  0.0000000000000E+00  0.1570087567558E-01
-0.4808795550738E-01  0.4305556681050E-01  0.0000000000000E+00  0.1973779354770E-02
-0.3097074559172E-01  0.2765263994850E-01  0.0000000000000E+00 -0.5459193818438E-02
-0.1420999629743E-01  0.1260159563222E-01  0.0000000000000E+00 -0.6263265865042E-02
-0.1136464668543E+00  0.9418768120080E-01  0.0000000000000E+00  0.4651963373923E+00
-0.1185379126034E+00  0.9933510332786E-01  0.0000000000000E+00  0.4397704115736E+00
-0.1228194063426E+00  0.1039284925416E+00  0.0000000000000E+00  0.4130428033888E+00
-0.1263743007470E+00  0.1078569219869E+00  0.0000000000000E+00  0.3850964814797E+00
-0.1290854200955E+00  0.1110089940844E+00  0.0000000000000E+00  0.3560437965547E+00
-0.1308349948834E+00  0.1132726720753E+00  0.0000000000000E+00  0.3260263227579E+00
-0.1315045943034E+00  0.1145351214062E+00  0.0000000000000E+00  0.2952167670151E+00
-0.1309755864402E+00  0.1146830474072E+00  0.0000000000000E+00  0.2638235280802E+00
-0.1291305753318E+00  0.1136039669799E+00  0.0000000000000E+00  0.2320977544334E+00
-0.1258563047614E+00  0.1111888823121E+00  0.0000000000000E+00  0.2003425246984E+00
-0.1210486309154E+00  0.1073369327998E+00  0.0000000000000E+00  0.1689235833643E+00
-0.1146203417204E+00  0.1019627698569E+00  0.0000000000000E+00  0.1382806791850E+00
-0.1065127935776E+00  0.9500758778289E-01  0.0000000000000E+00  0.1089377621392E+00
-0.9671244417970E-01  0.8645485842326E-01  0.0000000000000E+00  0.8150883126000E-01
-0.8527312329429E-01  0.7635162433752E-01  0.0000000000000E+00  0.5669375419655E-01
-0.7234371841405E-01  0.6483516365500E-01  0.0000000000000E+00  0.3525466246244E-01
-0.5819750872827E-01  0.5216177529985E-01  0.0000000000000E+00  0.1795940314467E-01
-0.4325299282145E-01  0.3872810054700E-01  0.0000000000000E+00  0.5479475081653E-02
-0.2806860983547E-01  0.2506816966820E-01  0.0000000000000E+00 -0.1756560132955E-02
-0.1329423096596E-01  0.1180778268136E-01  0.0000000000000E+00 -0.3722346217725E-02
-0.1097701066760E+00  0.9089657141752E-01  0.0000000000000E+00  0.4552751615197E+00
-0.1142043790346E+00  0.9564390355625E-01  0.0000000000000E+00  0.4293804536873E+00
-0.1180031251879E+00  0.9981096846524E-01  0.0000000000000E+00  0.4022979518326E+00
-0.1210563419340E+00  0.1032925033346E+00  0.0000000000000E+00  0.3741271870363E+00
-0.1232548021321E+00  0.1059838653162E+00  0.0000000000000E+00  0.3449987919604E+00
-0.1244901736036E+00  0.1077810962533E+00  0.0000000000000E+00  0.3150742931987E+00
-0.1246557727979E+00  0.1085815635194E+00  0.0000000000000E+00  0.2845476444898E+00
-0.1236480910390E+00  0.1082853472333E+00  0.0000000000000E+00  0.2536487773644E+00
-0.1213693876188E+00  0.1067976505286E+00  0.0000000000000E+00  0.2226488136265E+00
-0.1177317038061E+00  0.1040325763536E+00  0.0000000000000E+00  0.1918662824543E+00
-0.1126627225680E+00  0.9991868163346E-01  0.0000000000000E+00  0.1616734095082E+00
-0.1061139426121E+00  0.9440676555857E-01  0.0000000000000E+00  0.1325011087531E+00
-0.9807159624406E-01  0.8748031868219E-01  0.0000000000000E+00  0.1048405853905E+00
-0.8857049434856E-01  0.7916883943247E-01  0.0000000000000E+00  0.7923836872214E-01
-0.7771030285264E-01  0.6956360121762E-01  0.0000000000000E+00  0.5628018330658E-01
-0.6567226159038E-01  0.5883407401161E-01  0.0000000000000E+00  0.3655780207413E-01
-0.5273182214975E-01  0.4724074054389E-01  0.0000000000000E+00  0.2061357160890E-01
-0.3925961183165E-01  0.3513702885092E-01  0.0000000000000E+00  0.8862260724724E-02
-0.2570173751498E-01  0.2295132757372E-01  0.0000000000000E+00  0.1501676004898E-02
-0.1253293755218E-01  0.1114263313593E-01  0.0000000000000E+00 -0.1563058672640E-02
-0.1057067688958E+00  0.8739327128332E-01  0.0000000000000E+00  0.4456614114038E+00
-0.1096831989441E+00  0.9173352534361E-01  0.0000000000000E+00  0.4194200122844E+00
-0.1130058910288E+00  0.9547384266513E-01  0.0000000000000E+00  0.3921143743141E+00
-0.1155737553736E+00  0.9851679921294E-01  0.0000000000000E+00  0.3638594162787E+00
-0.1172876847592E+00  0.1007667089412E+00  0.0000000000000E+00  0.3348024120230E+00
-0.1180510211381E+00  0.1021299894661E+00  0.0000000000000E+00  0.3051218478444E+00
-0.1177709559502E+00  0.1025164600504E+00  0.0000000000000E+00  0.2750278806845E+00
-0.1163608408841E+00  0.1018415114986E+00  0.0000000000000E+00  0.2447643601512E+00
-0.1137434970733E+00  0.1000292409950E+00  0.0000000000000E+00  0.2146118332430E+00
-0.1098557132346E+00  0.9701673716992E-01  0.0000000000000E+00  0.1848906701896E+00
-0.1046541479955E+00  0.9275972923243E-01  0.0000000000000E+00  0.1559632085799E+00
-0.9812280100275E-01  0.8723976931114E-01  0.0000000000000E+00  0.1282334806791E+00
-0.9028204083836E-01  0.8047295489314E-01  0.0000000000000E+00  0.1021426278763E+00
-0.8119879111772E-01  0.7251983725980E-01  0.0000000000000E+00  0.7815757508135E-01
-0.7099676057461E-01  0.6349548772309E-01  0.0000000000000E+00  0.5675017427440E-01
-0.5986449365800E-01  0.5357761953489E-01  0.0000000000000E+00  0.3836443080890E-01
-0.4805769308949E-01  0.4300935210618E-01  0.0000000000000E+00  0.2337155026203E-01
-0.3589142533969E-01  0.3209227258305E-01  0.0000000000000E+00  0.1201735789952E-01
-0.2371865748381E-01  0.2116614098983E-01  0.0000000000000E+00  0.4373562783181E-02
-0.1189411522093E-01  0.1057425396365E-01  0.0000000000000E+00  0.3122067906166E-03
-0.1014880841819E+00  0.8370911259723E-01  0.0000000000000E+00  0.4363561230529E+00
-0.1050118691387E+00  0.8764154744843E-01  0.0000000000000E+00  0.4098858134402E+00
-0.1078717889654E+00  0.9096174457660E-01  0.0000000000000E+00  0.3824794973301E+00
-0.1099775041622E+00  0.9358203563241E-01  0.0000000000000E+00  0.3542657481290E+00
-0.1112417464052E+00  0.9541745353746E-01  0.0000000000000E+00  0.3254059320754E+00
-0.1115809720008E+00  0.9638633984218E-01  0.0000000000000E+00  0.2960916144670E+00
-0.1109172782119E+00  0.9641216000032E-01  0.0000000000000E+00  0.2665435034721E+00
-0.1091812227083E+00  0.9542619742638E-01  0.0000000000000E+00  0.2370117322409E+00
-0.1063154592390E+00  0.9337103824031E-01  0.0000000000000E+00  0.2077766938742E+00
-0.1022792127087E+00  0.9020487472930E-01  0.0000000000000E+00  0.1791494488721E+00
-0.9705362759054E-01  0.8590666775103E-01  0.0000000000000E+00  0.1514705928989E+00
-0.9064792848993E-01  0.8048212076367E-01  0.0000000000000E+00  0.1251063211690E+00
-0.8310611668896E-01  0.7397021514481E-01  0.0000000000000E+00  0.1004402684460E+00
-0.7451356101648E-01  0.6644970795892E-01  0.0000000000000E+00  0.7785965614464E-01
-0.6500231545266E-01  0.5804448292155E-01  0.0000000000000E+00  0.5773458825066E-01
-0.5475338635623E-01  0.4892604014929E-01  0.0000000000000E+00  0.4039037934222E-01
-0.4399373730307E-01  0.3931094520641E-01  0.0000000000000E+00  0.2607494666286E-01
-0.3298605067142E-01  0.2945121346041E-01  0.0000000000000E+00  0.1492650018866E-01
-0.2201057891531E-01  0.1961685950070E-01  0.0000000000000E+00  0.6950206024655E-02
-0.1134221448152E-01  0.1007299124660E-01  0.0000000000000E+00  0.2015000137864E-02
-0.9714337467047E-01  0.7987391615640E-01  0.0000000000000E+00  0.4273545026668E+00
-0.1002247281722E+00  0.8340314424631E-01  0.0000000000000E+00  0.4007633790393E+00
-0.1026401074258E+00  0.8631540182369E-01  0.0000000000000E+00  0.3733649958558E+00
-0.1043115145592E+00  0.8853437368485E-01  0.0000000000000E+00  0.3452991687965E+00
-0.1051646433927E+00  0.8998702612827E-01  0.0000000000000E+00  0.3167384631440E+00
-0.1051297130661E+00  0.9060439994606E-01  0.0000000000000E+00  0.2878834897072E+00
-0.1041437637400E+00  0.9032382675404E-01  0.0000000000000E+00  0.2589601002480E+00
-0.1021537829043E+00  0.8909194962596E-01  0.0000000000000E+00  0.2302179637417E+00
-0.9912038176652E-01  0.8686828009189E-01  0.0000000000000E+00  0.2019295565240E+00
-0.9502191216825E-01  0.8362918969422E-01  0.0000000000000E+00  0.1743885112276E+00
-0.8985893400642E-01  0.7937225728492E-01  0.0000000000000E+00  0.1479062923114E+00
-0.8365885066037E-01  0.7412080573744E-01  0.0000000000000E+00  0.1228062072833E+00
-0.7648034250489E-01  0.6792828147719E-01  0.0000000000000E+00  0.9941385563277E-01
-0.6841696420102E-01  0.6088187216101E-01  0.0000000000000E+00  0.7804337143318E-01
-0.5959897492979E-01  0.5310446230949E-01  0.0000000000000E+00  0.5897939409498E-01
-0.5019225007728E-01  0.4475379387552E-01  0.0000000000000E+00  0.4245576518019E-01
-0.4039317337431E-01  0.3601771729875E-01  0.0000000000000E+00  0.2863350667540E-01
-0.3041894798261E-01  0.2710491855720E-01  0.0000000000000E+00  0.1758233794439E-01
-0.2049408630002E-01  0.1823170888899E-01  0.0000000000000E+00  0.9271061756589E-02
-0.1083560616281E-01  0.9607433780029E-02  0.0000000000000E+00  0.3570224913332E-02
-0.9269942068375E-01  0.7591514986325E-01  0.0000000000000E+00  0.4186486221619E+00
-0.9535226099126E-01  0.7904993529997E-01  0.0000000000000E+00  0.3920352541321E+00
-0.9734469656919E-01  0.8157038234426E-01  0.0000000000000E+00  0.3647397997023E+00
-0.9861236782642E-01  0.8341288235577E-01  0.0000000000000E+00  0.3369109695245E+00
-0.9909455022076E-01  0.8451704475506E-01  0.0000000000000E+00  0.3087297316408E+00
-0.9873517061493E-01  0.8482669249667E-01  0.0000000000000E+00  0.2804020541418E+00
-0.9748544906596E-01  0.8429244235081E-01  0.0000000000000E+00  0.2521542271005E+00
-0.9530722326180E-01  0.8287494776418E-01  0.0000000000000E+00  0.2242299565866E+00
-0.9217650587243E-01  0.8054836815417E-01  0.0000000000000E+00  0.1968880117492E+00
-0.8808707462194E-01  0.7730387629986E-01  0.0000000000000E+00  0.1703992914576E+00
-0.8305395204760E-01  0.7315307291580E-01  0.0000000000000E+00  0.1450423744271E+00
-0.7711656760598E-01  0.6813111559560E-01  0.0000000000000E+00  0.1210968315020E+00
-0.7034126235842E-01  0.6229923884451E-01  0.0000000000000E+00  0.9883383576135E-01
-0.6282264237803E-01  0.5574618720266E-01  0.0000000000000E+00  0.7850398365452E-01
-0.5468317224947E-01  0.4858796222890E-01  0.0000000000000E+00  0.6032282148620E-01
-0.4607041218549E-01  0.4096528135694E-01  0.0000000000000E+00  0.4445538388107E-01
-0.3715153750290E-01  0.3303836176296E-01  0.0000000000000E+00  0.3100197773225E-01
-0.2810531256265E-01  0.2497914574303E-01  0.0000000000000E+00  0.1998815447595E-01
-0.1911241905512E-01  0.1696184246205E-01  0.0000000000000E+00  0.1136157829676E-01
-0.1034551966103E-01  0.9153174308692E-02  0.0000000000000E+00  0.4996828521679E-02
-0.8818071127358E-01  0.7185803231677E-01  0.0000000000000E+00  0.4102288243402E+00
-0.9042129348173E-01  0.7460991565739E-01  0.0000000000000E+00  0.3836832996710E+00
-0.9201431305517E-01  0.7675717901090E-01  0.0000000000000E+00  0.3565735006834E+00
-0.9291007133986E-01  0.7825001236642E-01  0.0000000000000E+00  0.3290550880494E+00
-0.9306158284618E-01  0.7904092173642E-01  0.0000000000000E+00  0.3013152052363E+00
-0.9242582960499E-01  0.7908599168761E-01  0.0000000000000E+00  0.2735621697275E+00
-0.9096682708395E-01  0.7834790988609E-01  0.0000000000000E+00  0.2460189341990E+00
-0.8865915357852E-01  0.7679943622131E-01  0.0000000000000E+00  0.2189190624401E+00
-0.8549134466752E-01  0.7442673596432E-01  0.0000000000000E+00  0.1925036376634E+00
-0.8146892035180E-01  0.7123235773296E-01  0.0000000000000E+00  0.1670178287797E+00
-0.7661691893440E-01  0.6723774207550E-01  0.0000000000000E+00  0.1427062404760E+00
-0.7098178127132E-01  0.6248511534236E-01  0.0000000000000E+00  0.1198065361549E+00
-0.6463234638635E-01  0.5703853933798E-01  0.0000000000000E+00  0.9854116797914E-01
-0.5765964673030E-01  0.5098381032783E-01  0.0000000000000E+00  0.7910742936961E-01
-0.5017518604362E-01  0.4442688716361E-01  0.0000000000000E+00  0.6166649764989E-01
-0.4230750044609E-01  0.3749063371886E-01  0.0000000000000E+00  0.4633263778107E-01
-0.3419707844551E-01  0.3030992200465E-01  0.0000000000000E+00  0.3316419351128E-01
-0.2599010153835E-01  0.2302553013530E-01  0.0000000000000E+00  0.2215819130060E-01
-0.1783177939039E-01  0.1577759627095E-01  0.0000000000000E+00  0.1325010054894E-01
-0.9860038349769E-02  0.8699404379776E-02  0.0000000000000E+00  0.6319468762039E-02
-0.8360956880573E-01  0.6772564712784E-01  0.0000000000000E+00  0.4020844909347E+00
-0.8545527505145E-01  0.7010770530852E-01  0.0000000000000E+00  0.3756893113138E+00
-0.8667312015692E-01  0.7190165702817E-01  0.0000000000000E+00  0.3488368099222E+00
-0.8722892169531E-01  0.7307240733235E-01  0.0000000000000E+00  0.3216884541164E+00
-0.8708915126446E-01  0.7358516486354E-01  0.0000000000000E+00  0.2944362550350E+00
-0.8622265839564E-01  0.7340720790050E-01  0.0000000000000E+00  0.2672887688298E+00
-0.8460438446172E-01  0.7251157639634E-01  0.0000000000000E+00  0.2404628168853E+00
-0.8221921520923E-01  0.7088088032095E-01  0.0000000000000E+00  0.2141788460811E+00
-0.7906525983759E-01  0.6851053545778E-01  0.0000000000000E+00  0.1886577650360E+00
-0.7515636400562E-01  0.6541124879140E-01  0.0000000000000E+00  0.1641177397996E+00
-0.7052381777691E-01  0.6161072515630E-01  0.0000000000000E+00  0.1407700796833E+00
-0.6521720779197E-01  0.5715455203802E-01  0.0000000000000E+00  0.1188138448032E+00
-0.5930430491343E-01  0.5210615782858E-01  0.0000000000000E+00  0.9842919181204E-01
-0.5286984448066E-01  0.4654569960020E-01  0.0000000000000E+00  0.7976979788229E-01
-0.4601309266720E-01  0.4056776569476E-01  0.0000000000000E+00  0.6295498885839E-01
-0.3884423321832E-01  0.3427790924973E-01  0.0000000000000E+00  0.4806242280336E-01
-0.3147986358288E-01  0.2778827481426E-01  0.0000000000000E+00  0.3512230149813E-01
-0.2403819822657E-01  0.2121288698614E-01  0.0000000000000E+00  0.2411410880600E-01
-0.1663475950912E-01  0.1466336927466E-01  0.0000000000000E+00  0.1496689596355E-01
-0.9379140290790E-02  0.8245695365407E-02  0.0000000000000E+00  0.7564177126011E-02
-0.7900626910036E-01  0.6353902107389E-01  0.0000000000000E+00  0.3942049502772E+00
-0.8047449028723E-01  0.6556472251352E-01  0.0000000000000E+00  0.3680358007448E+00
-0.8134115355962E-01  0.6702547944245E-01  0.0000000000000E+00  0.3415020324921E+00
-0.8158834282425E-01  0.6790170463536E-01  0.0000000000000E+00  0.3147711783517E+00
-0.8119524139617E-01  0.6817063222623E-01  0.0000000000000E+00  0.2880400502254E+00
-0.8014085309453E-01  0.6780912215027E-01  0.0000000000000E+00  0.2615163035038E+00
-0.7840877697864E-01  0.6679842786424E-01  0.0000000000000E+00  0.2354087130198E+00
-0.7599159724469E-01  0.6512854907343E-01  0.0000000000000E+00  0.2099225918337E+00
-0.7289414504772E-01  0.6280145657901E-01  0.0000000000000E+00  0.1852572814356E+00
-0.6913557857264E-01  0.5983315277058E-01  0.0000000000000E+00  0.1616038325685E+00
-0.6475040304438E-01  0.5625469933331E-01  0.0000000000000E+00  0.1391419679150E+00
-0.5978852576247E-01  0.5211231194654E-01  0.0000000000000E+00  0.1180360607230E+00
-0.5431437201550E-01  0.4746654817852E-01  0.0000000000000E+00  0.9843026338900E-01
-0.4840504974084E-01  0.4239057260950E-01  0.0000000000000E+00  0.8044316644758E-01
-0.4214757780989E-01  0.3696750547851E-01  0.0000000000000E+00  0.6416250101200E-01
-0.3563529891318E-01  0.3128696301762E-01  0.0000000000000E+00  0.4964040643733E-01
-0.2896380187162E-01  0.2544109025258E-01  0.0000000000000E+00  0.3688963898305E-01
-0.2222700192861E-01  0.1952069442703E-01  0.0000000000000E+00  0.2588091050530E-01
-0.1551437296595E-01  0.1361243054029E-01  0.0000000000000E+00  0.1654175339121E-01
-0.8910294946116E-02  0.7798005672348E-02  0.0000000000000E+00  0.8758352669314E-02
-0.7438913857993E-01  0.5931719451502E-01  0.0000000000000E+00  0.3865797268694E+00
-0.7549622015012E-01  0.6099932509182E-01  0.0000000000000E+00  0.3607055026424E+00
-0.7603473783278E-01  0.6214652314105E-01  0.0000000000000E+00  0.3345418250960E+00
-0.7600366522406E-01  0.6275533358778E-01  0.0000000000000E+00  0.3082647367116E+00
-0.7539356084959E-01  0.6281371835881E-01  0.0000000000000E+00  0.2820772847537E+00
-0.7419129226047E-01  0.6230590745976E-01  0.0000000000000E+00  0.2561859651083E+00
-0.7238649924438E-01  0.6121886037141E-01  0.0000000000000E+00  0.2307902103671E+00
-0.6997679260203E-01  0.5954742013554E-01  0.0000000000000E+00  0.2060788012599E+00
-0.6697109071494E-01  0.5729760415047E-01  0.0000000000000E+00  0.1822288114376E+00
-0.6339132546164E-01  0.5448828431271E-01  0.0000000000000E+00  0.1594047467967E+00
-0.5927288266649E-01  0.5115163069061E-01  0.0000000000000E+00  0.1377569387895E+00
-0.5466404864513E-01  0.4733259232042E-01  0.0000000000000E+00  0.1174190413402E+00
-0.4962461439965E-01  0.4308756437287E-01  0.0000000000000E+00  0.9850487894417E-01
-0.4422371375283E-01  0.3848231291299E-01  0.0000000000000E+00  0.8110506116793E-01
-0.3853695590635E-01  0.3358921203222E-01  0.0000000000000E+00  0.6528379385547E-01
-0.3264295333868E-01  0.2848388790202E-01  0.0000000000000E+00  0.5107618568577E-01
-0.2661943377167E-01  0.2324145791308E-01  0.0000000000000E+00  0.3848602104413E-01
-0.2053938724904E-01  0.1793277845777E-01  0.0000000000000E+00  0.2748333488633E-01
-0.1446843214290E-01  0.1262176920721E-01  0.0000000000000E+00  0.1800070374226E-01
-0.8465516511388E-02  0.7365820293158E-02  0.0000000000000E+00  0.9928757572315E-02
-0.6977451522039E-01  0.5507711908556E-01  0.0000000000000E+00  0.3791991161582E+00
-0.7053470361292E-01  0.5642675036167E-01  0.0000000000000E+00  0.3536805886741E+00
-0.7076678558230E-01  0.5727919808723E-01  0.0000000000000E+00  0.3279271454234E+00
-0.7048683819046E-01  0.5764728756778E-01  0.0000000000000E+00  0.3021290249366E+00
-0.6969458028772E-01  0.5752749122771E-01  0.0000000000000E+00  0.2764985447248E+00
-0.6838176812582E-01  0.5690849201216E-01  0.0000000000000E+00  0.2512413309135E+00
-0.6654116349211E-01  0.5578013279721E-01  0.0000000000000E+00  0.2265463760118E+00
-0.6417278384614E-01  0.5413959035196E-01  0.0000000000000E+00  0.2025847547651E+00
-0.6128732402345E-01  0.5199472414489E-01  0.0000000000000E+00  0.1795109037540E+00
-0.5790747021980E-01  0.4936534393878E-01  0.0000000000000E+00  0.1574636920032E+00
-0.5406780407828E-01  0.4628310101443E-01  0.0000000000000E+00  0.1365664101278E+00
-0.4981376572676E-01  0.4279047089942E-01  0.0000000000000E+00  0.1169257240066E+00
-0.4519993521751E-01  0.3893908169915E-01  0.0000000000000E+00  0.9863000424992E-01
-0.4028775846067E-01  0.3478750782861E-01  0.0000000000000E+00  0.8174752424761E-01
-0.3514277724793E-01  0.3039858403791E-01  0.0000000000000E+00  0.6632495255646E-01
-0.2983138490804E-01  0.2583626457801E-01  0.0000000000000E+00  0.5238638264297E-01
-0.2441709204958E-01  0.2116202082015E-01  0.0000000000000E+00  0.3993278574239E-01
-0.1895616587192E-01  0.1643071454285E-01  0.0000000000000E+00  0.2894096634204E-01
-0.1349301564578E-01  0.1168622321107E-01  0.0000000000000E+00  0.1935884053667E-01
-0.8058578573691E-02  0.6959562540472E-02  0.0000000000000E+00  0.1109232784138E-01
-0.6517662606618E-01  0.5083348513606E-01  0.0000000000000E+00  0.3720531844942E+00
-0.6560125439843E-01  0.5185926685281E-01  0.0000000000000E+00  0.3469384623430E+00
-0.6554750845338E-01  0.5243528094474E-01  0.0000000000000E+00  0.3216207131191E+00
-0.6504765590236E-01  0.5258954018514E-01  0.0000000000000E+00  0.2963142973031E+00
-0.6410701976704E-01  0.5232342243695E-01  0.0000000000000E+00  0.2712450700567E+00
-0.6271848486730E-01  0.5162635366357E-01  0.0000000000000E+00  0.2466179440270E+00
-0.6087481482445E-01  0.5048803382169E-01  0.0000000000000E+00  0.2226100019797E+00
-0.5857602509649E-01  0.4890567063654E-01  0.0000000000000E+00  0.1993732642374E+00
-0.5583273093102E-01  0.4688720684254E-01  0.0000000000000E+00  0.1770392249749E+00
-0.5266692574030E-01  0.4445201701238E-01  0.0000000000000E+00  0.1557221775969E+00
-0.4911130516853E-01  0.4163019369531E-01  0.0000000000000E+00  0.1355207543701E+00
-0.4520780491099E-01  0.3846108467430E-01  0.0000000000000E+00  0.1165180792560E+00
-0.4100568791935E-01  0.3499140739953E-01  0.0000000000000E+00  0.9878119644494E-01
-0.3655932054546E-01  0.3127307046990E-01  0.0000000000000E+00  0.8236040044788E-01
-0.3192567336683E-01  0.2736073187851E-01  0.0000000000000E+00  0.6728895444119E-01
-0.2716150709030E-01  0.2330905445627E-01  0.0000000000000E+00  0.5358352526141E-01
-0.2232005018097E-01  0.1916949262151E-01  0.0000000000000E+00  0.4124546287498E-01
-0.1744664991753E-01  0.1498612694937E-01  0.0000000000000E+00  0.3026269515845E-01
-0.1257144057610E-01  0.1078911691500E-01  0.0000000000000E+00  0.2061012908536E-01
-0.7698270214167E-02  0.6584689989289E-02  0.0000000000000E+00  0.1223600329417E-01
-0.6060713966162E-01  0.4659823001713E-01  0.0000000000000E+00  0.3651284508828E+00
-0.6070451425081E-01  0.4730659435346E-01  0.0000000000000E+00  0.3404429813525E+00
-0.6038554642529E-01  0.4762536814883E-01  0.0000000000000E+00  0.3155647307928E+00
-0.5969534125698E-01  0.4759405169121E-01  0.0000000000000E+00  0.2907464655585E+00
-0.5863944774844E-01  0.4721350031855E-01  0.0000000000000E+00  0.2662319105272E+00
-0.5720735203996E-01  0.4646941620510E-01  0.0000000000000E+00  0.2422242735751E+00
-0.5538871383517E-01  0.4534835572102E-01  0.0000000000000E+00  0.2188862175173E+00
-0.5318159829113E-01  0.4384572463931E-01  0.0000000000000E+00  0.1963488401957E+00
-0.5059532516364E-01  0.4196843252574E-01  0.0000000000000E+00  0.1747203270185E+00
-0.4765040426684E-01  0.3973469883799E-01  0.0000000000000E+00  0.1540916058161E+00
-0.4437714700684E-01  0.3717259537674E-01  0.0000000000000E+00  0.1345391339620E+00
-0.4081378440809E-01  0.3431814283957E-01  0.0000000000000E+00  0.1161258020719E+00
-0.3700444421879E-01  0.3121329646981E-01  0.0000000000000E+00  0.9890097176052E-01
-0.3299709423631E-01  0.2790391290472E-01  0.0000000000000E+00  0.8290043732356E-01
-0.2884145230011E-01  0.2443768738058E-01  0.0000000000000E+00  0.6814686818160E-01
-0.2458680819285E-01  0.2086199922049E-01  0.0000000000000E+00  0.5465115098939E-01
-0.2027960438607E-01  0.1722150571527E-01  0.0000000000000E+00  0.4241512304587E-01
-0.1596022807409E-01  0.1355499006493E-01  0.0000000000000E+00  0.3143651211694E-01
-0.1165733583473E-01  0.9889700880792E-02  0.0000000000000E+00  0.2171850728945E-01
-0.7368108839203E-02  0.6224980431684E-02  0.0000000000000E+00  0.1328302010388E-01
-0.5607449761038E-01  0.4237996719757E-01  0.0000000000000E+00  0.3584007026452E+00
-0.5585148388512E-01  0.4277742452770E-01  0.0000000000000E+00  0.3341307621992E+00
-0.5528995442149E-01  0.4286146715174E-01  0.0000000000000E+00  0.3096632718087E+00
-0.5444076010042E-01  0.4267572151855E-01  0.0000000000000E+00  0.2853061753926E+00
-0.5330221655843E-01  0.4221303691405E-01  0.0000000000000E+00  0.2613238052438E+00
-0.5185529549537E-01  0.4145035390188E-01  0.0000000000000E+00  0.2379142117656E+00
-0.5008385704902E-01  0.4036852966564E-01  0.0000000000000E+00  0.2152213542639E+00
-0.4798290982872E-01  0.3896020195328E-01  0.0000000000000E+00  0.1933528057518E+00
-0.4556015945391E-01  0.3723104363375E-01  0.0000000000000E+00  0.1723930903547E+00
-0.4283461618775E-01  0.3519817794537E-01  0.0000000000000E+00  0.1524113122629E+00
-0.3983430533862E-01  0.3288779066850E-01  0.0000000000000E+00  0.1334645503968E+00
-0.3659395965271E-01  0.3033278571430E-01  0.0000000000000E+00  0.1155988889496E+00
-0.3315295801507E-01  0.2757072137356E-01  0.0000000000000E+00  0.9884953491873E-01
-0.2955351732423E-01  0.2464201171475E-01  0.0000000000000E+00  0.8324096069163E-01
-0.2583907932013E-01  0.2158831714154E-01  0.0000000000000E+00  0.6878762958050E-01
-0.2205285266247E-01  0.1845106985274E-01  0.0000000000000E+00  0.5549570061208E-01
-0.1823654166759E-01  0.1527013213905E-01  0.0000000000000E+00  0.4336623024151E-01
-0.1442935547355E-01  0.1208259800111E-01  0.0000000000000E+00  0.3240131375912E-01
-0.1066744422490E-01  0.8921713930530E-02  0.0000000000000E+00  0.2261711186481E-01
-0.6982616534264E-02  0.5812574853969E-02  0.0000000000000E+00  0.1408670651817E-01
-0.5158082161518E-01  0.3818191429714E-01  0.0000000000000E+00  0.3518401234077E+00
-0.5104520870226E-01  0.3827760741000E-01  0.0000000000000E+00  0.3279243579045E+00
-0.5026776445232E-01  0.3815484460249E-01  0.0000000000000E+00  0.3038023967150E+00
-0.4929371671275E-01  0.3784982055228E-01  0.0000000000000E+00  0.2798557501002E+00
-0.4810418279323E-01  0.3733733150834E-01  0.0000000000000E+00  0.2563681142258E+00
-0.4666635910230E-01  0.3658045016262E-01  0.0000000000000E+00  0.2335244100738E+00
-0.4495674169334E-01  0.3555297304795E-01  0.0000000000000E+00  0.2114429889853E+00
-0.4296758964350E-01  0.3424527706342E-01  0.0000000000000E+00  0.1902045646365E+00
-0.4070587399784E-01  0.3266281616570E-01  0.0000000000000E+00  0.1698700049747E+00
-0.3818994795958E-01  0.3082254082998E-01  0.0000000000000E+00  0.1504888100504E+00
-0.3544621458187E-01  0.2874944655127E-01  0.0000000000000E+00  0.1321020265297E+00
-0.3250646998649E-01  0.2647388419983E-01  0.0000000000000E+00  0.1147426223560E+00
-0.2940593023587E-01  0.2402958899928E-01  0.0000000000000E+00  0.9843518719412E-01
-0.2618177137798E-01  0.2145222830102E-01  0.0000000000000E+00  0.8319592831492E-01
-0.2287202366981E-01  0.1877829691228E-01  0.0000000000000E+00  0.6903342362195E-01
-0.1951477534262E-01  0.1604428994055E-01  0.0000000000000E+00  0.5595031433279E-01
-0.1614783687686E-01  0.1328629064937E-01  0.0000000000000E+00  0.4394609720428E-01
-0.1280962456321E-01  0.1054058891992E-01  0.0000000000000E+00  0.3302143410416E-01
-0.9543208190093E-02  0.7847086752681E-02  0.0000000000000E+00  0.2318604775287E-01
-0.6415865349954E-02  0.5265011495266E-02  0.0000000000000E+00  0.1447645104947E-01
-0.4711774794080E-01  0.3399751588958E-01  0.0000000000000E+00  0.3454460257189E+00
-0.4627783773289E-01  0.3380186375439E-01  0.0000000000000E+00  0.3217974613925E+00
-0.4531735726581E-01  0.3350744496551E-01  0.0000000000000E+00  0.2979457853283E+00
-0.4425644353512E-01  0.3312259834408E-01  0.0000000000000E+00  0.2743654015861E+00
-0.4304599783871E-01  0.3259114339082E-01  0.0000000000000E+00  0.2513480157944E+00
-0.4163536307606E-01  0.3185848622558E-01  0.0000000000000E+00  0.2290496953952E+00
-0.3999457849442E-01  0.3089266850043E-01  0.0000000000000E+00  0.2075531587543E+00
-0.3811558346349E-01  0.2968451029085E-01  0.0000000000000E+00  0.1869089858212E+00
-0.3600680482876E-01  0.2824161164555E-01  0.0000000000000E+00  0.1671556805969E+00
-0.3368740831450E-01  0.2658228564585E-01  0.0000000000000E+00  0.1483266222582E+00
-0.3118306911879E-01  0.2473124280125E-01  0.0000000000000E+00  0.1304508826546E+00
-0.2852326856006E-01  0.2271688829029E-01  0.0000000000000E+00  0.1135521022722E+00
-0.2573966967130E-01  0.2056972469621E-01  0.0000000000000E+00  0.9764734254580E-01
-0.2286517902993E-01  0.1832143824916E-01  0.0000000000000E+00  0.8274666616820E-01
-0.1993345984389E-01  0.1600441384437E-01  0.0000000000000E+00  0.6885366315166E-01
-0.1697874103202E-01  0.1365155565391E-01  0.0000000000000E+00  0.5596688683700E-01
-0.1403604526205E-01  0.1129646993898E-01  0.0000000000000E+00  0.4408167179782E-01
-0.1114233158690E-01  0.8974633641685E-02  0.0000000000000E+00  0.3319121908205E-01
-0.8341024644657E-02  0.6727622896717E-02  0.0000000000000E+00  0.2328403857210E-01
-0.5692690731660E-02  0.4616348796260E-02  0.0000000000000E+00  0.1432139862147E-01
-0.4268181626819E-01  0.2982263170839E-01  0.0000000000000E+00  0.3392223144082E+00
-0.4155425090486E-01  0.2935640092931E-01  0.0000000000000E+00  0.3157352159724E+00
-0.4045868193690E-01  0.2894134490573E-01  0.0000000000000E+00  0.2920969168003E+00
-0.3935568620945E-01  0.2852290515018E-01  0.0000000000000E+00  0.2688781339840E+00
-0.3815213672231E-01  0.2800025822459E-01  0.0000000000000E+00  0.2463457070060E+00
-0.3678002236455E-01  0.2730251162246E-01  0.0000000000000E+00  0.2246010505088E+00
-0.3520824116927E-01  0.2639782339256E-01  0.0000000000000E+00  0.2036803770617E+00
-0.3343330450901E-01  0.2528279408489E-01  0.0000000000000E+00  0.1836039942278E+00
-0.3146799498311E-01  0.2397020846351E-01  0.0000000000000E+00  0.1643927450976E+00
-0.2933355267307E-01  0.2248102904011E-01  0.0000000000000E+00  0.1460694979262E+00
-0.2705530147944E-01  0.2084003008998E-01  0.0000000000000E+00  0.1286563033334E+00
-0.2466045087178E-01  0.1907367719448E-01  0.0000000000000E+00  0.1121713038482E+00
-0.2217712307964E-01  0.1720922633932E-01  0.0000000000000E+00  0.9662665100072E-01
-0.1963407083478E-01  0.1527448436762E-01  0.0000000000000E+00  0.8202761295981E-01
-0.1706080068685E-01  0.1329796295313E-01  0.0000000000000E+00  0.6837276779762E-01
-0.1448801185068E-01  0.1130928874570E-01  0.0000000000000E+00  0.5565510122457E-01
-0.1194785598355E-01  0.9339630490499E-02  0.0000000000000E+00  0.4386363541377E-01
-0.9474012211947E-02  0.7421810066263E-02  0.0000000000000E+00  0.3298303421449E-01
-0.7100927827176E-02  0.5590559848924E-02  0.0000000000000E+00  0.2298592746885E-01
-0.4859837009980E-02  0.3879459818428E-02  0.0000000000000E+00  0.1380870342655E-01
-0.3826868845716E-01  0.2565189521129E-01  0.0000000000000E+00  0.3331591703905E+00
-0.3689451894284E-01  0.2496362187267E-01  0.0000000000000E+00  0.3096991645451E+00
-0.3573292129617E-01  0.2450164618873E-01  0.0000000000000E+00  0.2862621840773E+00
-0.3463326815554E-01  0.2409564430788E-01  0.0000000000000E+00  0.2634620141195E+00
-0.3345198510781E-01  0.2359586213310E-01  0.0000000000000E+00  0.2414742289689E+00
-0.3211490805006E-01  0.2292725098170E-01  0.0000000000000E+00  0.2203133730581E+00
-0.3060142164682E-01  0.2207111096366E-01  0.0000000000000E+00  0.1999656353155E+00
-0.2891885433587E-01  0.2103633385872E-01  0.0000000000000E+00  0.1804299052608E+00
-0.2708632307993E-01  0.1984289770149E-01  0.0000000000000E+00  0.1617192121119E+00
-0.2512708202387E-01  0.1851426825780E-01  0.0000000000000E+00  0.1438536148018E+00
-0.2306534978697E-01  0.1707444007279E-01  0.0000000000000E+00  0.1268534458114E+00
-0.2092523614994E-01  0.1554704215606E-01  0.0000000000000E+00  0.1107348127291E+00
-0.1873059667637E-01  0.1395531341446E-01  0.0000000000000E+00  0.9550706978385E-01
-0.1650535279547E-01  0.1232249585817E-01  0.0000000000000E+00  0.8117168186578E-01
-0.1427416396267E-01  0.1067251549870E-01  0.0000000000000E+00  0.6772211197052E-01
-0.1206325113618E-01  0.9030869261399E-02  0.0000000000000E+00  0.5514458109917E-01
-0.9901548268483E-02  0.7425522648596E-02  0.0000000000000E+00  0.4341994523185E-01
-0.7819099723207E-02  0.5886226900885E-02  0.0000000000000E+00  0.3252738977564E-01
-0.5841660901243E-02  0.4438858883783E-02  0.0000000000000E+00  0.2244233222901E-01
-0.3978109086336E-02  0.3094372548865E-02  0.0000000000000E+00  0.1312840127567E-01
-0.3387570509285E-01  0.2148154899934E-01  0.0000000000000E+00  0.3272064456088E+00
-0.3234794182816E-01  0.2067971899044E-01  0.0000000000000E+00  0.3036257667071E+00
-0.3120747929915E-01  0.2026244582747E-01  0.0000000000000E+00  0.2804739592893E+00
-0.3013613916271E-01  0.1989361559224E-01  0.0000000000000E+00  0.2582325923409E+00
-0.2896063980602E-01  0.1939516634627E-01  0.0000000000000E+00  0.2368789211258E+00
-0.2763167075336E-01  0.1872458663709E-01  0.0000000000000E+00  0.2163250456938E+00
-0.2615383846246E-01  0.1789139458327E-01  0.0000000000000E+00  0.1965297142374E+00
-0.2454808177532E-01  0.1691953571338E-01  0.0000000000000E+00  0.1774913756464E+00
-0.2283833454601E-01  0.1583437735815E-01  0.0000000000000E+00  0.1592287950533E+00
-0.2104745574602E-01  0.1465925260897E-01  0.0000000000000E+00  0.1417667144158E+00
-0.1919651246574E-01  0.1341517109370E-01  0.0000000000000E+00  0.1251277300211E+00
-0.1730501856006E-01  0.1212132746760E-01  0.0000000000000E+00  0.1093281389408E+00
-0.1539142884455E-01  0.1079575500794E-01  0.0000000000000E+00  0.9437589348280E-01
-0.1347379149199E-01  0.9456056911342E-02  0.0000000000000E+00  0.8026960133073E-01
-0.1157061432317E-01  0.8120328372991E-02  0.0000000000000E+00  0.6699807015436E-01
-0.9702241920040E-02  0.6808406459270E-02  0.0000000000000E+00  0.5454054807135E-01
-0.7892103803913E-02  0.5543417350981E-02  0.0000000000000E+00  0.4286801234530E-01
-0.6170616449679E-02  0.4353646468390E-02  0.0000000000000E+00  0.3194957970121E-01
-0.4565559742626E-02  0.3267380753396E-02  0.0000000000000E+00  0.2177539553657E-01
-0.3084649811485E-02  0.2291445243678E-02  0.0000000000000E+00  0.1236077027068E-01
-0.2951598217612E-01  0.1733099569595E-01  0.0000000000000E+00  0.3212202260419E+00
-0.2802836474725E-01  0.1662912633692E-01  0.0000000000000E+00  0.2974578110979E+00
-0.2697858375746E-01  0.1633771856558E-01  0.0000000000000E+00  0.2748838481331E+00
-0.2588724180815E-01  0.1594455122645E-01  0.0000000000000E+00  0.2534102524716E+00
-0.2465039757141E-01  0.1537132227931E-01  0.0000000000000E+00  0.2327414551543E+00
-0.2328283556571E-01  0.1464616448455E-01  0.0000000000000E+00  0.2127625917182E+00
-0.2181513649543E-01  0.1380699603312E-01  0.0000000000000E+00  0.1934564699503E+00
-0.2027474640277E-01  0.1288473759412E-01  0.0000000000000E+00  0.1748463781936E+00
-0.1868368523350E-01  0.1190283345247E-01  0.0000000000000E+00  0.1569664343189E+00
-0.1705996843456E-01  0.1087969714589E-01  0.0000000000000E+00  0.1398488278966E+00
-0.1541896051880E-01  0.9830610098533E-02  0.0000000000000E+00  0.1235188795264E+00
-0.1377421102599E-01  0.8768852447581E-02  0.0000000000000E+00  0.1079932026131E+00
-0.1213796904249E-01  0.7706377904153E-02  0.0000000000000E+00  0.9327888045450E-01
-0.1052164867461E-01  0.6654376870499E-02  0.0000000000000E+00  0.7937277667266E-01
-0.8936556162235E-02  0.5624018585254E-02  0.0000000000000E+00  0.6626072094080E-01
-0.7395014514752E-02  0.4627702882374E-02  0.0000000000000E+00  0.5391638955501E-01
-0.5913295345737E-02  0.3681285317469E-02  0.0000000000000E+00  0.4230140157289E-01
-0.4513682042440E-02  0.2808260165190E-02  0.0000000000000E+00  0.3136514922922E-01
-0.3251688725390E-02  0.2053144627400E-02  0.0000000000000E+00  0.2106949700465E-01
-0.2172369047859E-02  0.1465963984062E-02  0.0000000000000E+00  0.1150303104437E-01
-0.2533687316393E-01  0.1334285048817E-01  0.0000000000000E+00  0.3147620323284E+00
-0.2418519380535E-01  0.1313135571549E-01  0.0000000000000E+00  0.2914063743779E+00
-0.2309349985545E-01  0.1278324310383E-01  0.0000000000000E+00  0.2699507841156E+00
-0.2180774552365E-01  0.1216895388377E-01  0.0000000000000E+00  0.2493070907862E+00
-0.2041644291810E-01  0.1141622457207E-01  0.0000000000000E+00  0.2292213473996E+00
-0.1897408403199E-01  0.1059473164121E-01  0.0000000000000E+00  0.2096905260699E+00
-0.1750958638856E-01  0.9739944268955E-02  0.0000000000000E+00  0.1907639520232E+00
-0.1603923285700E-01  0.8870604820971E-02  0.0000000000000E+00  0.1724954017912E+00
-0.1457431545317E-01  0.7998772203324E-02  0.0000000000000E+00  0.1549296359202E+00
-0.1312422868636E-01  0.7133860016614E-02  0.0000000000000E+00  0.1381007543033E+00
-0.1169740068358E-01  0.6284032352676E-02  0.0000000000000E+00  0.1220329227499E+00
-0.1030135474616E-01  0.5456495905278E-02  0.0000000000000E+00  0.1067411588480E+00
-0.8942507729885E-02  0.4657433233986E-02  0.0000000000000E+00  0.9223152864583E-01
-0.7626013397301E-02  0.3891928406104E-02  0.0000000000000E+00  0.7850062384131E-01
-0.6355842536101E-02  0.3164148929956E-02  0.0000000000000E+00  0.6553416931589E-01
-0.5135516987650E-02  0.2478000712319E-02  0.0000000000000E+00  0.5330491179049E-01
-0.3969428313871E-02  0.1839196063472E-02  0.0000000000000E+00  0.4176807795758E-01
-0.2870228955730E-02  0.1259442332004E-02  0.0000000000000E+00  0.3085991261474E-01
-0.1858917928882E-02  0.7732293681189E-03  0.0000000000000E+00  0.2046257688776E-01
-0.1149550388460E-02  0.5312610996588E-03  0.0000000000000E+00  0.1049922737121E-01
-0.2156240069032E-01  0.1012277305906E-01  0.0000000000000E+00  0.3068066606200E+00
-0.2089423400015E-01  0.1026667119356E-01  0.0000000000000E+00  0.2866457012646E+00
-0.1928812315156E-01  0.9319852794015E-02  0.0000000000000E+00  0.2662806845981E+00
-0.1764682258301E-01  0.8303392565365E-02  0.0000000000000E+00  0.2461003981687E+00
-0.1608075600706E-01  0.7343880025048E-02  0.0000000000000E+00  0.2263083266532E+00
-0.1458923193133E-01  0.6449437523253E-02  0.0000000000000E+00  0.2070405312847E+00
-0.1316058272899E-01  0.5610745045670E-02  0.0000000000000E+00  0.1883806510336E+00
-0.1178744472115E-01  0.4821077156902E-02  0.0000000000000E+00  0.1703820863143E+00
-0.1046784632878E-01  0.4078283348888E-02  0.0000000000000E+00  0.1530805954222E+00
-0.9203329957736E-02  0.3383449383294E-02  0.0000000000000E+00  0.1365010720794E+00
-0.7997114093093E-02  0.2739284567138E-02  0.0000000000000E+00  0.1206607767365E+00
-0.6852636591411E-02  0.2148799361015E-02  0.0000000000000E+00  0.1055706543799E+00
-0.5772440640984E-02  0.1614281691340E-02  0.0000000000000E+00  0.9123552610770E-01
-0.4757294485608E-02  0.1136507107212E-02  0.0000000000000E+00  0.7765341700635E-01
-0.3805524308272E-02  0.7141460352660E-03  0.0000000000000E+00  0.6481402764649E-01
-0.2912497084487E-02  0.3435129990903E-03  0.0000000000000E+00  0.5269568063786E-01
-0.2070882332667E-02  0.1847441518343E-04  0.0000000000000E+00  0.4126129223720E-01
-0.1269438540909E-02 -0.2668709428484E-03  0.0000000000000E+00  0.3044239579863E-01
-0.5040098717801E-03 -0.5216485976440E-03  0.0000000000000E+00  0.2014065806887E-01
 0.2794307890053E-03 -0.6895070762916E-03  0.0000000000000E+00  0.9894454271331E-02
</DataArray>
<DataArray type="Float64" Name="S_Centroid" NumberOfComponents="4" ComponentName0="S11" ComponentName1="S22" ComponentName2="S33" ComponentName3="S12" format="ascii">
 0.2230058917320E+01  0.1817178704309E+02  0.4080369252884E+01  0.2184420562228E+01
-0.3312574000191E+00  0.1455832648747E+02  0.2845413859891E+01  0.7726515256948E-01
 0.6247329370716E-01  0.1352231929538E+02  0.2716958558304E+01  0.1384165695193E+00
-0.1088758782914E-01  0.1292553545417E+02  0.2582929611756E+01  0.8078543260128E-01
 0.3039799182532E-02  0.1250068170156E+02  0.2500744337412E+01  0.6581303854258E-01
-0.3468781885840E-03  0.1215752796051E+02  0.2431436252696E+01  0.5681195879346E-01
 0.2480202965596E-03  0.1185672573144E+02  0.2371394785684E+01  0.5226919620054E-01
 0.1341768882979E-04  0.1157879442229E+02  0.2315761602503E+01  0.4982744915967E-01
 0.1895342222591E-04  0.1131346098283E+02  0.2262696020966E+01  0.4857323389577E-01
-0.7339642899673E-05  0.1105498736468E+02  0.2210996037954E+01  0.4796243789943E-01
-0.8783322883232E-05  0.1080027547032E+02  0.2160053369587E+01  0.4766933694116E-01
-0.2417485978956E-05  0.1054788918193E+02  0.2109577384324E+01  0.4746158922710E-01
 0.1991450884331E-04  0.1029768058140E+02  0.2059540129871E+01  0.4712381963361E-01
 0.5939244127129E-04  0.1005085264670E+02  0.2010182437782E+01  0.4637433758588E-01
 0.1948144062656E-03  0.9811013316617E+01  0.1962241655444E+01  0.4458034388708E-01
 0.2002105929969E-02  0.9588044856705E+01  0.1918009421108E+01  0.3726051344056E-01
 0.6796208850821E-02  0.9381881602854E+01  0.1877735590321E+01  0.1338266407180E-01
 0.1173565589647E-01  0.9161904770823E+01  0.1834728112683E+01 -0.3365470627478E-01
 0.1458027951371E-01  0.8900503001655E+01  0.1783016682803E+01 -0.9604681381767E-01
 0.1651654484728E-01  0.8599255024805E+01  0.1723154339607E+01 -0.1612614656536E+00
 0.1864683927260E-01  0.8271167116447E+01  0.1657962815849E+01 -0.2219692729728E+00
 0.2139070122073E-01  0.7928959993850E+01  0.1590070162708E+01 -0.2757857661694E+00
 0.2484484949661E-01  0.7582310285910E+01  0.1521431049752E+01 -0.3229542472223E+00
 0.2905329329021E-01  0.7238331754503E+01  0.1453477031217E+01 -0.3648444670607E+00
 0.3412763410957E-01  0.6902487606740E+01  0.1387323068843E+01 -0.4032869212866E+00
 0.4030057868996E-01  0.6578991061990E+01  0.1323858347863E+01 -0.4402909206605E+00
 0.4744096674221E-01  0.6270181547114E+01  0.1263524521599E+01 -0.4771013268409E+00
 0.5518131980042E-01  0.5980279946014E+01  0.1207092271150E+01 -0.5136009871621E+00
 0.6389848656675E-01  0.5719280169574E+01  0.1156635748463E+01 -0.5503081600763E+00
 0.7445669766942E-01  0.5498444444704E+01  0.1114580245083E+01 -0.5899274140079E+00
 0.8777950372722E-01  0.5327428622728E+01  0.1083041641430E+01 -0.6364533971729E+00
 0.1051587678796E+00  0.5215706694012E+01  0.1064173108236E+01 -0.6945279144538E+00
 0.1283130266779E+00  0.5172539023442E+01  0.1060170425822E+01 -0.7694695301440E+00
 0.1593993401264E+00  0.5205791928065E+01  0.1073038269628E+01 -0.8667194118476E+00
 0.1983687368505E+00  0.5320074310431E+01  0.1103688625903E+01 -0.9890336383258E+00
 0.2434630208062E+00  0.5522450862923E+01  0.1153182793930E+01 -0.1131234658712E+01
 0.2734068178813E+00  0.5860545078335E+01  0.1226790397524E+01 -0.1288300398973E+01
 0.3722629322586E+00  0.6434006385592E+01  0.1361253883854E+01 -0.1498844279394E+01
 0.1988694488339E+00  0.7364005253195E+01  0.1512574962945E+01 -0.1757589245256E+01
 0.1796403478078E+01  0.9023375448959E+01  0.2163955817653E+01 -0.2913497425238E+01
-0.5949535611406E+01  0.8594496415448E+01  0.5289921686910E+00 -0.1451840111949E+01
 0.2322199325778E+01  0.1571850298107E+02  0.3608140515136E+01  0.2355763229895E+01
 0.3050707996172E+00  0.1463807072100E+02  0.2988628348657E+01  0.1014860202373E+01
-0.8809381854498E-03  0.1334620753714E+02  0.2669065359563E+01  0.3756685837190E+00
 0.3489267893456E-01  0.1271384792721E+02  0.2549748159224E+01  0.2806045660973E+00
 0.7746717683095E-02  0.1225509395548E+02  0.2452568171180E+01  0.2095955987933E+00
 0.6151558301004E-02  0.1189293432398E+02  0.2379817211919E+01  0.1788086032433E+00
 0.2840478090723E-02  0.1158054641925E+02  0.2316677413990E+01  0.1613246152198E+00
 0.1631418087805E-02  0.1129637159500E+02  0.2259600636288E+01  0.1518304048554E+00
 0.8293063429217E-03  0.1102832101520E+02  0.2205830097178E+01  0.1465575575873E+00
 0.4280764886411E-03  0.1076967040704E+02  0.2154019728802E+01  0.1436707448263E+00
 0.2454915815435E-03  0.1051661729025E+02  0.2103372587708E+01  0.1420220102567E+00
 0.2434837350176E-03  0.1026723761939E+02  0.2053496251225E+01  0.1408263871972E+00
 0.4407709841634E-03  0.1002097805020E+02  0.2004283794103E+01  0.1393955965038E+00
 0.8930112181300E-03  0.9778613061653E+01  0.1955901243719E+01  0.1368868715306E+00
 0.2553342982841E-02  0.9542742218104E+01  0.1909059140665E+01  0.1312879229670E+00
 0.8256189310062E-02  0.9316098012420E+01  0.1864870868135E+01  0.1187161048776E+00
 0.1871558820996E-01  0.9093843345267E+01  0.1822511813853E+01  0.9528964415087E-01
 0.2890132713899E-01  0.8860318665496E+01  0.1777844025019E+01  0.5941620874253E-01
 0.3410663515123E-01  0.8600965065568E+01  0.1727014365878E+01  0.1309807524965E-01
 0.3503150986945E-01  0.8313190071666E+01  0.1669644341187E+01 -0.3842218657120E-01
 0.3440391217892E-01  0.8003461809491E+01  0.1607573168289E+01 -0.8990696329949E-01
 0.3395640867445E-01  0.7680503122611E+01  0.1542891929248E+01 -0.1385522438573E+00
 0.3450581609775E-01  0.7352101508026E+01  0.1477321486839E+01 -0.1836798636066E+00
 0.3642615513046E-01  0.7024516462075E+01  0.1412188544484E+01 -0.2258933869426E+00
 0.3998220426962E-01  0.6702719490460E+01  0.1348540359041E+01 -0.2664583130248E+00
 0.4526028686980E-01  0.6390627978113E+01  0.1287177672177E+01 -0.3067711079915E+00
 0.5190477231601E-01  0.6091652604030E+01  0.1228711493578E+01 -0.3480473396873E+00
 0.5976809359178E-01  0.5810341757171E+01  0.1174021987647E+01 -0.3914768598185E+00
 0.6975881151600E-01  0.5553511237775E+01  0.1124654026617E+01 -0.4385412453126E+00
 0.8330669584448E-01  0.5329060178438E+01  0.1082473390987E+01 -0.4914341601072E+00
 0.1017355710245E+00  0.5144368859836E+01  0.1049220901807E+01 -0.5532984248402E+00
 0.1265237577076E+00  0.5005893955132E+01  0.1026483557864E+01 -0.6278968767556E+00
 0.1594441324617E+00  0.4918927503499E+01  0.1015674342327E+01 -0.7190730178632E+00
 0.2016044197702E+00  0.4886851808518E+01  0.1017691260822E+01 -0.8298241709987E+00
 0.2519977694496E+00  0.4911427677622E+01  0.1032685104803E+01 -0.9609516528385E+00
 0.3033806642147E+00  0.4997194936344E+01  0.1060115135909E+01 -0.1111381568841E+01
 0.3695104412717E+00  0.5158695388027E+01  0.1105641182335E+01 -0.1289966078974E+01
 0.4212921000126E+00  0.5395265680897E+01  0.1163311573517E+01 -0.1488415725872E+01
 0.6582439459867E+00  0.5708832944040E+01  0.1273415396981E+01 -0.1853700816663E+01
 0.9867417232458E+00  0.5210620249169E+01  0.1239472412952E+01 -0.1723637310820E+01
-0.5547690559858E+01  0.4308156926400E+01 -0.2479067303857E+00  0.2810580829022E+00
 0.2404698169910E+01  0.1425661523819E+02  0.3332262731274E+01  0.2246572549213E+01
 0.7432003252059E+00  0.1397681715487E+02  0.2944003539884E+01  0.1454878950842E+01
 0.1421033783749E+00  0.1311381908498E+02  0.2651184532176E+01  0.7232520155290E+00
 0.6654482341436E-01  0.1244504555821E+02  0.2502318113612E+01  0.4689941311650E+00
 0.3461432047672E-01  0.1198633160942E+02  0.2404189221804E+01  0.3634876693270E+00
 0.1721324622228E-01  0.1161478337130E+02  0.2326399358170E+01  0.3042791446983E+00
 0.9781017016189E-02  0.1129692710788E+02  0.2261341658675E+01  0.2729424638138E+00
 0.5332286276746E-02  0.1100960663683E+02  0.2202987817449E+01  0.2549834554443E+00
 0.2951378531460E-02  0.1074066739147E+02  0.2148723786018E+01  0.2447914291786E+00
 0.1620323972911E-02  0.1048285548473E+02  0.2096895192986E+01  0.2389331192789E+00
 0.1000167491980E-02  0.1023198233245E+02  0.2046596530485E+01  0.2354187548012E+00
 0.9147610077505E-03  0.9985757250259E+01  0.1997334432016E+01  0.2328711124020E+00
 0.1371787904338E-02  0.9743243890175E+01  0.1948923164657E+01  0.2301448812006E+00
 0.2674090575595E-02  0.9504659046357E+01  0.1901466655721E+01  0.2258587957376E+00
 0.6317648819100E-02  0.9270849876341E+01  0.1855433532680E+01  0.2177407747696E+00
 0.1500810346741E-01  0.9040997076203E+01  0.1811201062923E+01  0.2034043561855E+00
 0.2861130258679E-01  0.8810039612902E+01  0.1767730209439E+01  0.1821703011766E+00
 0.4161208334290E-01  0.8569627669241E+01  0.1722247976180E+01  0.1541102279009E+00
 0.4868435670784E-01  0.8312167878456E+01  0.1672170471950E+01  0.1190516782939E+00
 0.4979484190773E-01  0.8034792040515E+01  0.1616917400579E+01  0.7839771644781E-01
 0.4791259873656E-01  0.7740141459330E+01  0.1557610834824E+01  0.3511043146949E-01
 0.4557900395569E-01  0.7433754495364E+01  0.1495866722154E+01 -0.8359966293724E-02
 0.4424185603584E-01  0.7121545369807E+01  0.1433157466524E+01 -0.5093534306978E-01
 0.4465672386646E-01  0.6808764790365E+01  0.1370684323271E+01 -0.9269559882049E-01
 0.4724325140229E-01  0.6499803073553E+01  0.1309409284503E+01 -0.1344247879206E+00
 0.5208198812916E-01  0.6198378147118E+01  0.1250092045677E+01 -0.1771816356983E+00
 0.5890241213308E-01  0.5908098039481E+01  0.1193400108106E+01 -0.2222563954997E+00
 0.6779901939837E-01  0.5633090756222E+01  0.1140177972114E+01 -0.2713196835447E+00
 0.7990398732978E-01  0.5378251280356E+01  0.1091631069804E+01 -0.3261977569139E+00
 0.9689388396742E-01  0.5148949775959E+01  0.1049168747619E+01 -0.3888366147582E+00
 0.1203316324802E+00  0.4950218629684E+01  0.1014110067544E+01 -0.4616072196792E+00
 0.1517180696453E+00  0.4785950573020E+01  0.9875337432484E+00 -0.5471522442682E+00
 0.1923799564497E+00  0.4658340014077E+01  0.9701440085616E+00 -0.6476958507727E+00
 0.2426102898269E+00  0.4567486190048E+01  0.9620193103102E+00 -0.7641620334936E+00
 0.2994324095921E+00  0.4511710408418E+01  0.9622285779404E+00 -0.8954980572033E+00
 0.3601711136684E+00  0.4488509230041E+01  0.9697360831920E+00 -0.1041543675972E+01
 0.4248093823188E+00  0.4483159561161E+01  0.9815938033228E+00 -0.1198358013496E+01
 0.5038448778355E+00  0.4459173938421E+01  0.9926037780423E+00 -0.1363314950419E+01
 0.6656070532803E+00  0.4203740297514E+01  0.9738694846706E+00 -0.1455932217283E+01
 0.7499395414584E-01  0.3317799968190E+01  0.6785587945785E+00 -0.7232654992298E+00
-0.5447093547993E+01  0.2746118660884E+01 -0.5401949854714E+00  0.7760196192898E+00
 0.2428555275282E+01  0.1320874498969E+02  0.3127460099597E+01  0.2095974047628E+01
 0.1047880149619E+01  0.1322542563898E+02  0.2854661200257E+01  0.1644275657614E+01
 0.3334859824933E+00  0.1271521797278E+02  0.2609740829943E+01  0.1006478992324E+01
 0.1338605922966E+00  0.1213856428324E+02  0.2454485011681E+01  0.6668317061739E+00
 0.6934661795358E-01  0.1168883648448E+02  0.2351636655529E+01  0.5141498083057E+00
 0.3690083335077E-01  0.1132241391778E+02  0.2271862984079E+01  0.4317624991987E+00
 0.2054041507138E-01  0.1100465585265E+02  0.2205039286402E+01  0.3851914865085E+00
 0.1164511300613E-01  0.1071775847991E+02  0.2145880750560E+01  0.3584242957382E+00
 0.6576541131252E-02  0.1044991218423E+02  0.2091297776235E+01  0.3427265224128E+00
 0.3769256824453E-02  0.1019411142244E+02  0.2039576166246E+01  0.3334528062908E+00
 0.2390474518848E-02  0.9946049885793E+01  0.1989688101711E+01  0.3277189478677E+00
 0.2091961346127E-02  0.9703229037659E+01  0.1941064228725E+01  0.3235867810093E+00
 0.2848849321515E-02  0.9464383577928E+01  0.1893446513664E+01  0.3194803772662E+00
 0.5167634035514E-02  0.9229069383812E+01  0.1846847431090E+01  0.3137047241745E+00
 0.1067444202262E-01  0.8996732981406E+01  0.1801481511530E+01  0.3042530130888E+00
 0.2148012392610E-01  0.8765073388771E+01  0.1757310728725E+01  0.2899592014427E+00
 0.3675498890300E-01  0.8529862411760E+01  0.1713323505663E+01  0.2714872794873E+00
 0.5118931878655E-01  0.8286702680887E+01  0.1667578424784E+01  0.2493398563895E+00
 0.5961625182016E-01  0.8031845898039E+01  0.1618292454086E+01  0.2224637861468E+00
 0.6143969952637E-01  0.7763050277020E+01  0.1564898018628E+01  0.1903228962171E+00
 0.5932549429796E-01  0.7481011195950E+01  0.1508067360522E+01  0.1541244400709E+00
 0.5613673555044E-01  0.7188943697101E+01  0.1449016108122E+01  0.1156150742965E+00
 0.5378984813436E-01  0.6891090141920E+01  0.1388976018708E+01  0.7590646770441E-01
 0.5339194664483E-01  0.6591660234055E+01  0.1329010455944E+01  0.3522252186521E-01
 0.5554517191188E-01  0.6294424422979E+01  0.1269993937903E+01 -0.6881294480994E-02
 0.6043354065129E-01  0.6002782353219E+01  0.1212643196844E+01 -0.5125810157418E-01
 0.6797973234293E-01  0.5720107835300E+01  0.1157617530778E+01 -0.9920737023309E-01
 0.7849483334917E-01  0.5449881975853E+01  0.1105675378316E+01 -0.1524977081173E+00
 0.9318953920076E-01  0.5195598632872E+01  0.1057757650176E+01 -0.2129598785751E+00
 0.1137768891996E+00  0.4960713644692E+01  0.1014898121901E+01 -0.2822590988453E+00
 0.1418516291647E+00  0.4748218910986E+01  0.9780141226037E+00 -0.3620415731133E+00
 0.1787016630952E+00  0.4559865415965E+01  0.9477134299341E+00 -0.4537750931282E+00
 0.2250285002675E+00  0.4395518067030E+01  0.9241093272297E+00 -0.5580881525419E+00
 0.2798899661884E+00  0.4252760714671E+01  0.9065301496803E+00 -0.6739050258794E+00
 0.3396963792370E+00  0.4126811445816E+01  0.8933015783218E+00 -0.7983208731499E+00
 0.3997512722517E+00  0.4007446330066E+01  0.8814395335980E+00 -0.9264695288733E+00
 0.4558489082257E+00  0.3867828652287E+01  0.8647355249882E+00 -0.1046165209011E+01
 0.5059434084042E+00  0.3635806684995E+01  0.8283500310232E+00 -0.1119999711581E+01
 0.4433360160949E+00  0.3129667104356E+01  0.7146006347386E+00 -0.9596211932995E+00
-0.6941591233708E+00  0.2342575537184E+01  0.3296832876753E+00 -0.7651551486243E-01
-0.5223626411694E+01  0.2070913401714E+01 -0.6305426113917E+00  0.8617557689056E+00
 0.2411128434007E+01  0.1237733556852E+02  0.2957692844578E+01  0.1951939602189E+01
 0.1255464083789E+01  0.1250948679631E+02  0.2752990217043E+01  0.1710496537347E+01
 0.5191084981387E+00  0.1223062445066E+02  0.2549946627758E+01  0.1205840195398E+01
 0.2254969856119E+00  0.1178103312792E+02  0.2401306058488E+01  0.8495715852324E+00
 0.1150896533385E+00  0.1136736052585E+02  0.2296490070058E+01  0.6605643410980E+00
 0.6312902460750E-01  0.1101451422704E+02  0.2215528683343E+01  0.5569817752185E+00
 0.3567203114950E-01  0.1070339848169E+02  0.2147814134573E+01  0.4967035992039E+00
 0.2053794875837E-01  0.1042028820580E+02  0.2088165262027E+01  0.4610980185616E+00
 0.1187385079168E-01  0.1015565279115E+02  0.2033505358690E+01  0.4397955366958E+00
 0.6979833352426E-02  0.9903109307463E+01  0.1982017857697E+01  0.4268872255239E+00
 0.4502896881591E-02  0.9658577272998E+01  0.1932616062774E+01  0.4187490023392E+00
 0.3816949562023E-02  0.9419503194740E+01  0.1884664056944E+01  0.4129208114690E+00
 0.4828847142202E-02  0.9184365945286E+01  0.1837838985871E+01  0.4074763677739E+00
 0.8109664119105E-02  0.8952143071695E+01  0.1792050573866E+01  0.4006013666936E+00
 0.1513368377336E-01  0.8721405939756E+01  0.1747307950743E+01  0.3906877300317E+00
 0.2732570269448E-01  0.8489402347407E+01  0.1703345635402E+01  0.3773578875933E+00
 0.4337965613690E-01  0.8252861812670E+01  0.1659248318486E+01  0.3617318879407E+00
 0.5844404939462E-01  0.8009653548515E+01  0.1613619543627E+01  0.3442761628091E+00
 0.6781219695307E-01  0.7758210279405E+01  0.1565204518595E+01  0.3235671569233E+00
 0.7054559303710E-01  0.7496989388649E+01  0.1513507018890E+01  0.2981265012210E+00
 0.6884775847313E-01  0.7225765882599E+01  0.1458922749954E+01  0.2679667230627E+00
 0.6558344324733E-01  0.6946180508260E+01  0.1402352811198E+01  0.2340881446804E+00
 0.6295012413576E-01  0.6661086031993E+01  0.1344807251265E+01  0.1974140581676E+00
 0.6234282586909E-01  0.6373706508785E+01  0.1287209886112E+01  0.1582913058506E+00
 0.6455993461437E-01  0.6087167044528E+01  0.1230345414162E+01  0.1164857725652E+00
 0.6994856345086E-01  0.5804431777993E+01  0.1174876085796E+01  0.7128919652593E-01
 0.7864813596943E-01  0.5528434145884E+01  0.1121416473081E+01  0.2146927907504E-01
 0.9114111368859E-01  0.5261954063818E+01  0.1070619051455E+01 -0.3464330886455E-01
 0.1086310498547E+00  0.5007372697126E+01  0.1023200764643E+01 -0.9869052757771E-01
 0.1327235028438E+00  0.4766672944662E+01  0.9798793041025E+00 -0.1719748003087E+00
 0.1648450687084E+00  0.4541199776382E+01  0.9412089830431E+00 -0.2554324163317E+00
 0.2058780883253E+00  0.4331017234695E+01  0.9073790781250E+00 -0.3494025595923E+00
 0.2556702768017E+00  0.4134289012545E+01  0.8779918709523E+00 -0.4529884862424E+00
 0.3120398881060E+00  0.3946859066053E+01  0.8517798035244E+00 -0.5632845045431E+00
 0.3698828788081E+00  0.3761443526375E+01  0.8262652933489E+00 -0.6748168899661E+00
 0.4212157961621E+00  0.3563899262147E+01  0.7970230235384E+00 -0.7777527257216E+00
 0.4538921746527E+00  0.3321630669924E+01  0.7551045801673E+00 -0.8495274593295E+00
 0.4300502331611E+00  0.2963302329230E+01  0.6786705225912E+00 -0.8240729330387E+00
 0.1359429719773E+00  0.2401508798407E+01  0.5074903616392E+00 -0.5119423200647E+00
-0.1259348381899E+01  0.1805319361860E+01  0.1091941976192E+00  0.3059867149275E+00
-0.4977458213396E+01  0.1692260896144E+01 -0.6570394732411E+00  0.8421471839815E+00
 0.2368494389836E+01  0.1167555107567E+02  0.2808809134957E+01  0.1823808800428E+01
 0.1392931956512E+01  0.1184953156047E+02  0.2648492742862E+01  0.1715708161474E+01
 0.6798167913459E+00  0.1171491307047E+02  0.2478946009302E+01  0.1336711209999E+01
 0.3261217381149E+00  0.1138322632974E+02  0.2341869648468E+01  0.1004092589320E+01
 0.1702180895651E+00  0.1102266381058E+02  0.2238576413386E+01  0.7977630039902E+00
 0.9504033248652E-01  0.1069225413292E+02  0.2157458925230E+01  0.6775685336928E+00
 0.5472548494380E-01  0.1039296706779E+02  0.2089538541684E+01  0.6057042099080E+00
 0.3199442648051E-01  0.1011702442819E+02  0.2029803801181E+01  0.5620696548235E+00
 0.1884056859283E-01  0.9857637808861E+01  0.1975295704925E+01  0.5353846743911E+00
 0.1129914125738E-01  0.9609634207104E+01  0.1924186698345E+01  0.5188773044281E+00
 0.7369272020608E-02  0.9369398865057E+01  0.1875353655361E+01  0.5083053707783E+00
 0.6090071857478E-02  0.9134490272444E+01  0.1828116096101E+01  0.5007868683871E+00
 0.7228017521196E-02  0.8903232979296E+01  0.1782092225919E+01  0.4941385465126E+00
 0.1127905612510E-01  0.8674204793169E+01  0.1737096795744E+01  0.4865446617380E+00
 0.1940887558022E-01  0.8445532177307E+01  0.1692988235805E+01  0.4767567824717E+00
 0.3240993331557E-01  0.8214494561366E+01  0.1649380923514E+01  0.4648337891042E+00
 0.4868520627494E-01  0.7978657222682E+01  0.1605468509715E+01  0.4519320025035E+00
 0.6390533029528E-01  0.7737236707748E+01  0.1560228430858E+01  0.4383178938283E+00
 0.7390930357652E-01  0.7489922704961E+01  0.1512766424249E+01  0.4224138120558E+00
 0.7759150713391E-01  0.7235737792748E+01  0.1462665881772E+01  0.4023175276436E+00
 0.7669868699559E-01  0.6974054224721E+01  0.1410150603356E+01  0.3772830024568E+00
 0.7392149157082E-01  0.6705489116731E+01  0.1355882141865E+01  0.3476623313428E+00
 0.7157678773300E-01  0.6431801060846E+01  0.1300675589097E+01  0.3140885433194E+00
 0.7126993765997E-01  0.6155330026032E+01  0.1245320011295E+01  0.2769008965313E+00
 0.7398775165638E-01  0.5878554630372E+01  0.1190508494146E+01  0.2359771072894E+00
 0.8025920984376E-01  0.5603931769053E+01  0.1136838212720E+01  0.1907232741831E+00
 0.9042514171340E-01  0.5333867173853E+01  0.1084858479279E+01  0.1400302073161E+00
 0.1050877211766E+00  0.5070456624074E+01  0.1035108884474E+01  0.8243303410542E-01
 0.1253808886427E+00  0.4815170495345E+01  0.9881102915214E+00  0.1658635439686E-01
 0.1526966183076E+00  0.4568854901138E+01  0.9443103179604E+00 -0.5838524254985E-01
 0.1881331525129E+00  0.4331592407935E+01  0.9039451255593E+00 -0.1427261027107E+00
 0.2319920799632E+00  0.4102201962708E+01  0.8668388214512E+00 -0.2357322611056E+00
 0.2831263914273E+00  0.3877718378204E+01  0.8321689663265E+00 -0.3351333295291E+00
 0.3379104344258E+00  0.3652932568143E+01  0.7981686124074E+00 -0.4362987317070E+00
 0.3890641520656E+00  0.3419387703928E+01  0.7616903825487E+00 -0.5312054926224E+00
 0.4242525603975E+00  0.3161997289257E+01  0.7172499806187E+00 -0.6055412163292E+00
 0.4196474094821E+00  0.2850079074204E+01  0.6539453064818E+00 -0.6281586372091E+00
 0.3035514942889E+00  0.2434352990488E+01  0.5475809051150E+00 -0.5238224426557E+00
-0.1748921644290E+00  0.1906361292257E+01  0.3462938307258E+00 -0.1499043317029E+00
-0.1654406454589E+01  0.1474566051963E+01 -0.3596808106115E-01  0.5300846864973E+00
-0.4740771048416E+01  0.1435098058536E+01 -0.6611346078277E+00  0.8048725234844E+00
 0.2310797197434E+01  0.1105863017304E+02  0.2673885513939E+01  0.1711877173522E+01
 0.1479880727503E+01  0.1124241756274E+02  0.2544459695963E+01  0.1690885149248E+01
 0.8107753828526E+00  0.1119621986665E+02  0.2401399085685E+01  0.1417891095673E+01
 0.4247532345859E+00  0.1096062607398E+02  0.2277075895644E+01  0.1127891750753E+01
 0.2306863214529E+00  0.1065811584026E+02  0.2177760464793E+01  0.9214063129919E+00
 0.1314475828459E+00  0.1035698437159E+02  0.2097686422144E+01  0.7914056917857E+00
 0.7705345193308E-01  0.1007383757172E+02  0.2030178234983E+01  0.7107328637303E+00
 0.4577056752553E-01  0.9808005389164E+01  0.1970755220704E+01  0.6604024483184E+00
 0.2738964619385E-01  0.9555796121477E+01  0.1916637182094E+01  0.6289093227325E+00
 0.1669696135600E-01  0.9313575005834E+01  0.1866054421244E+01  0.6090517600206E+00
 0.1097560973794E-01  0.9078424373034E+01  0.1817880023643E+01  0.5961669166677E+00
 0.8874809476129E-02  0.8848157449539E+01  0.1771406478199E+01  0.5870662145824E+00
 0.9949363432204E-02  0.8621069892826E+01  0.1726203876974E+01  0.5794048802997E+00
 0.1450824850026E-01  0.8395533173783E+01  0.1682008309521E+01  0.5714218723968E+00
 0.2333981870677E-01  0.8169528898879E+01  0.1638573767934E+01  0.5621369940764E+00
 0.3670238552392E-01  0.7940578371178E+01  0.1595456175115E+01  0.5518032857731E+00
 0.5284210741957E-01  0.7706917530442E+01  0.1551951950698E+01  0.5414247159076E+00
 0.6793550046811E-01  0.7468580973546E+01  0.1507303317263E+01  0.5310289294486E+00
 0.7835790377867E-01  0.7225984698001E+01  0.1460868542124E+01  0.5189819267939E+00
 0.8295572684096E-01  0.6978558862883E+01  0.1412302938990E+01  0.5032262540769E+00
 0.8308436581680E-01  0.6725521468325E+01  0.1361721187120E+01  0.4825622412247E+00
 0.8118167754913E-01  0.6466838281268E+01  0.1309604011278E+01  0.4568335752548E+00
 0.7956505751689E-01  0.6203436120173E+01  0.1256600254263E+01  0.4263615981970E+00
 0.7997338230193E-01  0.5936892067756E+01  0.1203373107943E+01  0.3913980599315E+00
 0.8355598021115E-01  0.5669063644869E+01  0.1150523942160E+01  0.3518643914088E+00
 0.9101416405088E-01  0.5401874191110E+01  0.1098577687402E+01  0.3072630216491E+00
 0.1028562960637E+00  0.5137181058929E+01  0.1048007486615E+01  0.2566413221917E+00
 0.1197521801981E+00  0.4876447011187E+01  0.9992398531669E+00  0.1987918724275E+00
 0.1427142166970E+00  0.4620395256787E+01  0.9526219088919E+00  0.1327193200737E+00
 0.1728414298233E+00  0.4369005953030E+01  0.9083694901063E+00  0.5800593815415E-01
 0.2107804847209E+00  0.4121443139516E+01  0.8664447377584E+00 -0.2493538516128E-01
 0.2561201895715E+00  0.3875689888499E+01  0.8263620279278E+00 -0.1144747186478E+00
 0.3066026659078E+00  0.3628153520217E+01  0.7869512489514E+00 -0.2071526916812E+00
 0.3569647545809E+00  0.3373270725225E+01  0.7460471070781E+00 -0.2968380972136E+00
 0.3973417283316E+00  0.3102686104950E+01  0.7000055770872E+00 -0.3733895156701E+00
 0.4103271718307E+00  0.2802875096250E+01  0.6426404631923E+00 -0.4192021619706E+00
 0.3601960416884E+00  0.2450656953980E+01  0.5621706075108E+00 -0.3991400099986E+00
 0.1536166927025E+00  0.2023120548813E+01  0.4353474547902E+00 -0.2443936077278E+00
-0.4534322660033E+00  0.1558748302626E+01  0.2210632106187E+00  0.1322665163170E+00
-0.1922438727975E+01  0.1245649038630E+01 -0.1353579398860E+00  0.6652556685605E+00
-0.4524477242166E+01  0.1235227974416E+01 -0.6578498633528E+00  0.7747140061816E+00
 0.2244073069725E+01  0.1050093131622E+02  0.2549000915171E+01  0.1614350216403E+01
 0.1530211969818E+01  0.1068030947603E+02  0.2442104325560E+01  0.1651911639477E+01
 0.9130079895222E+00  0.1068761889966E+02  0.2320125412408E+01  0.1464636625372E+01
 0.5148946483814E+00  0.1052594372997E+02  0.2208167708574E+01  0.1223638144489E+01
 0.2922829702495E+00  0.1027881525600E+02  0.2114219676755E+01  0.1029361196604E+01
 0.1706753571352E+00  0.1001054862935E+02  0.2036244827639E+01  0.8967430272985E+00
 0.1018667191344E+00  0.9746832866606E+01  0.1969739946500E+01  0.8106069092977E+00
 0.6147180552542E-01  0.9493524434916E+01  0.1910999276564E+01  0.7552635570376E+00
 0.3733888273301E-01  0.9250201493255E+01  0.1857508102877E+01  0.7198186018026E+00
 0.2308154502714E-01  0.9014923584917E+01  0.1807601052924E+01  0.6970491847739E+00
 0.1526390330588E-01  0.8785632200827E+01  0.1760179247055E+01  0.6821023025131E+00
 0.1210742993248E-01  0.8560520556527E+01  0.1714525622840E+01  0.6716132063750E+00
 0.1289573170682E-01  0.8337980120193E+01  0.1670175195268E+01  0.6631613793876E+00
 0.1767572073293E-01  0.8116346656178E+01  0.1626804499624E+01  0.6550630033656E+00
 0.2684296645034E-01  0.7893650771994E+01  0.1584098771294E+01  0.6465152468529E+00
 0.4022293417956E-01  0.7667733860362E+01  0.1541591381880E+01  0.6378136949736E+00
 0.5599443205250E-01  0.7437353888105E+01  0.1498669686363E+01  0.6297376096948E+00
 0.7079218253055E-01  0.7203047112354E+01  0.1454767880655E+01  0.6220880737124E+00
 0.8147998886557E-01  0.6965643177355E+01  0.1409424654246E+01  0.6132222594273E+00
 0.8692996182664E-01  0.6724847570483E+01  0.1362355526763E+01  0.6010657207062E+00
 0.8818455189420E-01  0.6479836279828E+01  0.1313604185919E+01  0.5841681587114E+00
 0.8740791217577E-01  0.6230164623914E+01  0.1263514526046E+01  0.5620005961621E+00
 0.8683994259513E-01  0.5976140067522E+01  0.1212596020093E+01  0.5345968101655E+00
 0.8828552353126E-01  0.5718699658696E+01  0.1161397053752E+01  0.5020827594818E+00
 0.9301962885632E-01  0.5459126577359E+01  0.1110429257790E+01  0.4643812091192E+00
 0.1018888622340E+00  0.5198819589598E+01  0.1060141706164E+01  0.4210783867018E+00
 0.1155270341742E+00  0.4939106110951E+01  0.1010926644089E+01  0.3713935654931E+00
 0.1346219374975E+00  0.4680884134507E+01  0.9631012287522E+00  0.3143973325869E+00
 0.1600199564297E+00  0.4424272417435E+01  0.9168584884352E+00  0.2494610171495E+00
 0.1924679437676E+00  0.4168610460988E+01  0.8722156939482E+00  0.1766231272164E+00
 0.2320736565299E+00  0.3912441027349E+01  0.8289029491275E+00  0.9689688681237E-01
 0.2776222969980E+00  0.3653269857211E+01  0.7861784425567E+00  0.1270016596373E-01
 0.3256655842889E+00  0.3387316324087E+01  0.7425963927407E+00 -0.7153873659135E-01
 0.3691952996082E+00  0.3109285864421E+01  0.6956962431724E+00 -0.1485257573159E+00
 0.3955998585932E+00  0.2811952345197E+01  0.6415104503172E+00 -0.2066673876332E+00
 0.3824328103767E+00  0.2485136769677E+01  0.5735139245568E+00 -0.2267437654076E+00
 0.2845853392695E+00  0.2115395777419E+01  0.4799962304901E+00 -0.1743414695715E+00
-0.2333302981871E-03  0.1701683640126E+01  0.3402900670363E+00  0.4942824196568E-02
-0.6878144517443E+00  0.1303408852514E+01  0.1231188819885E+00  0.3513174811022E+00
-0.2099131829026E+01  0.1070146689236E+01 -0.2057970310246E+00  0.7521651161267E+00
-0.4328922509018E+01  0.1067094683936E+01 -0.6523655747374E+00  0.7564649886856E+00
 0.2171913891280E+01  0.9986617878012E+01  0.2431706390094E+01  0.1529164543940E+01
 0.1553720456099E+01  0.1015547881915E+02  0.2341839889945E+01  0.1607116559359E+01
 0.9896687877836E+00  0.1019450276142E+02  0.2236834343172E+01  0.1488055442371E+01
 0.5932873226191E+00  0.1008800286345E+02  0.2136258069047E+01  0.1295778675351E+01
 0.3515799191265E+00  0.9889983882203E+01  0.2048312790788E+01  0.1121403704863E+01
 0.2108815886483E+00  0.9655238767381E+01  0.1973224100609E+01  0.9924750414712E+00
 0.1282488001228E+00  0.9413016502180E+01  0.1908253088896E+01  0.9044121635064E+00
 0.7860790939379E-01  0.9174072564846E+01  0.1850536122423E+01  0.8459629509746E+00
 0.4842735427853E-01  0.8941060143358E+01  0.1797897526318E+01  0.8076196261694E+00
 0.3030789145894E-01  0.8713761720981E+01  0.1748813948547E+01  0.7825300046400E+00
 0.2013946097916E-01  0.8491062958252E+01  0.1702240509212E+01  0.7658797271784E+00
 0.1570433481222E-01  0.8271634007999E+01  0.1657467693260E+01  0.7542633567365E+00
 0.1597493885500E-01  0.8054071599586E+01  0.1614009331739E+01  0.7452605344993E+00
 0.2069435936045E-01  0.7836810028694E+01  0.1571500901028E+01  0.7372730998913E+00
 0.2987992930097E-01  0.7618047718778E+01  0.1529585552408E+01  0.7296047260849E+00
 0.4301350586390E-01  0.7395962338506E+01  0.1487795191044E+01  0.7225072179673E+00
 0.5826277287220E-01  0.7169715052116E+01  0.1445595586539E+01  0.7165214461937E+00
 0.7266366243629E-01  0.6940149685285E+01  0.1402562690444E+01  0.7112536347895E+00
 0.8350831074613E-01  0.6708321990429E+01  0.1358366080476E+01  0.7050776644728E+00
 0.8973606344006E-01  0.6474113477747E+01  0.1312769927799E+01  0.6959720328697E+00
 0.9214875480329E-01  0.6236703682540E+01  0.1265770506330E+01  0.6823674628732E+00
 0.9264693040936E-01  0.5995389719259E+01  0.1217607348077E+01  0.6634773410006E+00
 0.9334716123637E-01  0.5750022868473E+01  0.1168674023356E+01  0.6390932350927E+00
 0.9606554050802E-01  0.5501014161670E+01  0.1119415957116E+01  0.6092066271203E+00
 0.1021616105099E+00  0.5249132778196E+01  0.1070258893689E+01  0.5737190652144E+00
 0.1125910420936E+00  0.4995286294083E+01  0.1021575482458E+01  0.5322909611559E+00
 0.1280686330378E+00  0.4740313737784E+01  0.9736764886732E+00  0.4843156419267E+00
 0.1492547430595E+00  0.4484624575810E+01  0.9267758775840E+00  0.4291408882285E+00
 0.1767924074726E+00  0.4227860912391E+01  0.8809306770995E+00  0.3664955804176E+00
 0.2110343873818E+00  0.3968911624048E+01  0.8359892147432E+00  0.2968465524039E+00
 0.2514943389160E+00  0.3705948601252E+01  0.7914885998278E+00  0.2217303738905E+00
 0.2961028584422E+00  0.3436302533724E+01  0.7464810895567E+00  0.1441993093785E+00
 0.3401923033394E+00  0.3156371562996E+01  0.6993127836876E+00  0.6940208995246E-01
 0.3750078554481E+00  0.2861621745010E+01  0.6473259297375E+00  0.5389956456766E-02
 0.3852925514943E+00  0.2546666979902E+01  0.5863919150171E+00 -0.3556952630441E-01
 0.3443087364961E+00  0.2205554651829E+01  0.5099726852641E+00 -0.3436278114983E-01
 0.2011289064679E+00  0.1834214000499E+01  0.4070685874591E+00  0.3931603775967E-01
-0.1459260314894E+00  0.1446489777581E+01  0.2601127530942E+00  0.2233604599543E+00
-0.8773445850388E+00  0.1106383961269E+01  0.4580787592855E-01  0.5237709598141E+00
-0.2210492210288E+01  0.9250250902762E+00 -0.2570934278334E+00  0.8134997986587E+00
-0.4150958349004E+01  0.9194273501094E+00 -0.6463062094096E+00  0.7492143804890E+00
 0.2096491556575E+01  0.9505332533539E+01  0.2320364852599E+01  0.1454460595794E+01
 0.1557332275528E+01  0.9661396096754E+01  0.2243745707891E+01  0.1560916328333E+01
 0.1044409441221E+01  0.9718477354384E+01  0.2152577391197E+01  0.1495914422021E+01
 0.6587344449587E+00  0.9652426550707E+01  0.2062232229863E+01  0.1348912765504E+01
 0.4061448977480E+00  0.9496117635225E+01  0.1980452536106E+01  0.1198512268695E+01
 0.2503500389790E+00  0.9293493224700E+01  0.1908768681179E+01  0.1078177344841E+01
 0.1552283783332E+00  0.9073620028740E+01  0.1845769708919E+01  0.9915313329980E+00
 0.9662916928526E-01  0.8850280023883E+01  0.1789381865297E+01  0.9319651875584E+00
 0.6033864611070E-01  0.8628687090897E+01  0.1737805173297E+01  0.8918958120155E+00
 0.3818819124206E-01  0.8410248148015E+01  0.1689687293030E+01  0.8651875135828E+00
 0.2547854288059E-01  0.8194810247953E+01  0.1644057782665E+01  0.8472755203866E+00
 0.1956803587810E-01  0.7981582056386E+01  0.1600230042298E+01  0.8348429565396E+00
 0.1910065734931E-01  0.7769450794495E+01  0.1557710313581E+01  0.8255372791371E+00
 0.2350077814187E-01  0.7557046378069E+01  0.1516109453834E+01  0.8178516658534E+00
 0.3243764892776E-01  0.7342803408519E+01  0.1475048233469E+01  0.8111492394922E+00
 0.4512312913451E-01  0.7125224410127E+01  0.1434069529222E+01  0.8055959667489E+00
 0.5974706838936E-01  0.6903783339079E+01  0.1392706102247E+01  0.8015097065291E+00
 0.7369021624237E-01  0.6679510450743E+01  0.1350640153523E+01  0.7983392010255E+00
 0.8461263326626E-01  0.6453574001071E+01  0.1307637346353E+01  0.7944907443692E+00
 0.9154122928705E-01  0.6225960941136E+01  0.1263500452912E+01  0.7880299987899E+00
 0.9509727636940E-01  0.5995868747549E+01  0.1218193222936E+01  0.7773527136297E+00
 0.9694226531806E-01  0.5762431470605E+01  0.1171874764647E+01  0.7615058371569E+00
 0.9904644135777E-01  0.5525166064375E+01  0.1124842517908E+01  0.7400905142866E+00
 0.1031952091679E+00  0.5284057995145E+01  0.1077450656918E+01  0.7129735663230E+00
 0.1107923642830E+00  0.5039429091215E+01  0.1030044306448E+01  0.6800268254326E+00
 0.1228632713967E+00  0.4791744234175E+01  0.9829215157611E+00  0.6409771362902E+00
 0.1401605073081E+00  0.4541408591296E+01  0.9363138336730E+00  0.5953849151970E+00
 0.1632770161878E+00  0.4288421652587E+01  0.8903397470221E+00  0.5428599258113E+00
 0.1926228197662E+00  0.4032063546645E+01  0.8449372858728E+00  0.4834614143696E+00
 0.2281303883823E+00  0.3770932603596E+01  0.7998126103137E+00  0.4180367885311E+00
 0.2686924040126E+00  0.3503035705923E+01  0.7543456332277E+00  0.3485536546299E+00
 0.3113722547443E+00  0.3225772677483E+01  0.7074289969869E+00  0.2785351808574E+00
 0.3503090123795E+00  0.2936004148608E+01  0.6572626419915E+00  0.2135885041638E+00
 0.3751054520135E+00  0.2630296540547E+01  0.6010804074689E+00  0.1620951754537E+00
 0.3681959043811E+00  0.2305479150742E+01  0.5347350189927E+00  0.1362288090137E+00
 0.2997254924425E+00  0.1959905208559E+01  0.4519261469346E+00  0.1535845806053E+00
 0.1163904943964E+00  0.1597146743093E+01  0.3427074526047E+00  0.2385548188628E+00
-0.2768830409042E+00  0.1239566672695E+01  0.1925367292271E+00  0.4137628176031E+00
-0.1025875521265E+01  0.9471135297494E+00 -0.1575239853778E-01  0.6628455062691E+00
-0.2274625635570E+01  0.7988945655226E+00 -0.2951462184074E+00  0.8616398542035E+00
-0.3986698088746E+01  0.7866933672699E+00 -0.6400009538319E+00  0.7508342078939E+00
 0.2019145934017E+01  0.9049984516806E+01  0.2213826123153E+01  0.1388671949079E+01
 0.1545989545286E+01  0.9192800618536E+01  0.2147758064769E+01  0.1515642617304E+01
 0.1080703166161E+01  0.9259343875402E+01  0.2068009439128E+01  0.1493557531359E+01
 0.7112513694355E+00  0.9222564746781E+01  0.1986763252848E+01  0.1387139894539E+01
 0.4544431757995E+00  0.9100734320091E+01  0.1911035527655E+01  0.1262268822077E+01
 0.2876508188729E+00  0.8927622578603E+01  0.1843054706959E+01  0.1153982804629E+01
 0.1818650049757E+00  0.8729947484765E+01  0.1782362524507E+01  0.1071647469032E+01
 0.1149619783906E+00  0.8522866698826E+01  0.1727565761186E+01  0.1012894131036E+01
 0.7272276742725E-01  0.8313477930296E+01  0.1677240164538E+01  0.9723161733399E+00
 0.4650417218282E-01  0.8104603819936E+01  0.1630221622716E+01  0.9447568055891E+00
 0.3113598897737E-01  0.7897010787407E+01  0.1585629378905E+01  0.9260818031605E+00
 0.2359182096876E-01  0.7690471502707E+01  0.1542812687725E+01  0.9131782479465E+00
 0.2219169973883E-01  0.7484220950407E+01  0.1501282552400E+01  0.9038214401213E+00
 0.2604692000876E-01  0.7277148721349E+01  0.1460639150037E+01  0.8966040212516E+00
 0.3451607424984E-01  0.7067960617121E+01  0.1420495359441E+01  0.8909227401297E+00
 0.4660009583151E-01  0.6855461511504E+01  0.1380412342037E+01  0.8868445222934E+00
 0.6052928542005E-01  0.6639370855849E+01  0.1339980048221E+01  0.8844931840093E+00
 0.7397764380927E-01  0.6420828919412E+01  0.1298961332000E+01  0.8831971507889E+00
 0.8491758532990E-01  0.6201047562382E+01  0.1257193048276E+01  0.8814063638740E+00
 0.9247059662142E-01  0.5980070815351E+01  0.1214508300492E+01  0.8772893736676E+00
 0.9712454099490E-01  0.5757115108015E+01  0.1170847947249E+01  0.8692599187147E+00
 0.1003313373507E+00  0.5531210834367E+01  0.1126308451127E+01  0.8562681483060E+00
 0.1039069349847E+00  0.5301630537622E+01  0.1081107510631E+01  0.8377749155716E+00
 0.1095756004850E+00  0.5068019916379E+01  0.1035519118803E+01  0.8135421032956E+00
 0.1187488974600E+00  0.4830320879771E+01  0.9898139701957E+00  0.7834123878220E+00
 0.1324834756600E+00  0.4588611992280E+01  0.9442191076579E+00  0.7471725254736E+00
 0.1515300915522E+00  0.4342925240031E+01  0.8988910797112E+00  0.7045370023426E+00
 0.1763805879872E+00  0.4092927132405E+01  0.8538615568020E+00  0.6553527428463E+00
 0.2071905024204E+00  0.3837637649590E+01  0.8089656424566E+00  0.5999698948780E+00
 0.2434603209592E+00  0.3575497821788E+01  0.7637916399309E+00  0.5395551077533E+00
 0.2834597435632E+00  0.3304513883127E+01  0.7175947360310E+00  0.4764050174904E+00
 0.3234077178800E+00  0.3022341507155E+01  0.6691498549782E+00  0.4143472329616E+00
 0.3563279649938E+00  0.2726501967427E+01  0.6165659956717E+00  0.3591883218837E+00
 0.3703761098640E+00  0.2414850716158E+01  0.5570453735050E+00  0.3192335476738E+00
 0.3461751119262E+00  0.2086508466182E+01  0.4865367228716E+00  0.3059026628761E+00
 0.2520463959454E+00  0.1743670391243E+01  0.3991433633853E+00  0.3343192416121E+00
 0.3507477642339E-01  0.1395411718039E+01  0.2860973031556E+00  0.4224266181115E+00
-0.3901160911373E+00  0.1067835067757E+01  0.1355437973436E+00  0.5802529032693E+00
-0.1138634934635E+01  0.8131164050046E+00 -0.6510370689615E-01  0.7782695783478E+00
-0.2303943703693E+01  0.6858465039189E+00 -0.3236194447772E+00  0.9032421231142E+00
-0.3832551630745E+01  0.6658265824964E+00 -0.6333450190873E+00  0.7592951154196E+00
 0.1940719921465E+01  0.8615532441217E+01  0.2111250503996E+01  0.1330506412026E+01
 0.1523260377267E+01  0.8745512168114E+01  0.2053754539679E+01  0.1472491317489E+01
 0.1101604020849E+01  0.8816098749927E+01  0.1983540583712E+01  0.1484639559178E+01
 0.7515107963651E+00  0.8800254307071E+01  0.1910353049154E+01  0.1413872515623E+01
 0.4956446789435E+00  0.8706417670698E+01  0.1840412497353E+01  0.1314460718455E+01
 0.3216926239991E+00  0.8559647278991E+01  0.1776268007066E+01  0.1220410616707E+01
 0.2073154339820E+00  0.8383280209831E+01  0.1718119154365E+01  0.1144711734535E+01
 0.1330437826889E+00  0.8192595329102E+01  0.1665127847171E+01  0.1088529340348E+01
 0.8521632761060E-01  0.7995881222100E+01  0.1616219534026E+01  0.1048638365918E+01
 0.5501953665632E-01  0.7797095968399E+01  0.1570423124412E+01  0.1021020532642E+01
 0.3695271396228E-01  0.7597834475296E+01  0.1526957460605E+01  0.1002112883317E+01
 0.2766352421699E-01  0.7398425695404E+01  0.1485217866056E+01  0.9891032155436E+00
 0.2517100088498E-01  0.7198482145174E+01  0.1444730650740E+01  0.9799468613184E+00
 0.2829402586052E-01  0.6997189524067E+01  0.1405096730923E+01  0.9733477697991E+00
 0.3612066550369E-01  0.6793537813034E+01  0.1365931716062E+01  0.9687271037296E+00
 0.4748805608909E-01  0.6586608244613E+01  0.1326819279912E+01  0.9660576282972E+00
 0.6067591762721E-01  0.6376315971276E+01  0.1287398396964E+01  0.9653034916702E+00
 0.7360628291819E-01  0.6163862789676E+01  0.1247493833108E+01  0.9657073889534E+00
 0.8451502086809E-01  0.5950462757983E+01  0.1206995573756E+01  0.9657720461839E+00
 0.9261725498513E-01  0.5736184928967E+01  0.1165760454162E+01  0.9637752566408E+00
 0.9830321945336E-01  0.5520260978752E+01  0.1123712856386E+01  0.9581817651476E+00
 0.1028445948740E+00  0.5301655156549E+01  0.1080899966391E+01  0.9478968640188E+00
 0.1079043095555E+00  0.5079461917300E+01  0.1037473260831E+01  0.9322857260930E+00
 0.1151244998031E+00  0.4853059186379E+01  0.9936367520428E+00  0.9110289556493E+00
 0.1258934086617E+00  0.4622073508848E+01  0.9495933976521E+00  0.8839457562530E+00
 0.1412641288547E+00  0.4386256096864E+01  0.9055040586368E+00  0.8508769735354E+00
 0.1619511058187E+00  0.4145327856224E+01  0.8614558052452E+00  0.8116742969871E+00
 0.1883182307597E+00  0.3898695048798E+01  0.8174026680917E+00  0.7663908602670E+00
 0.2202535203795E+00  0.3645206357475E+01  0.7730919870908E+00  0.7156204910220E+00
 0.2568270801659E+00  0.3383254160912E+01  0.7280162590638E+00  0.6607796570364E+00
 0.2957051118460E+00  0.3110970232578E+01  0.6813350790375E+00  0.6043879902386E+00
 0.3323155376364E+00  0.2826398439548E+01  0.6317428048505E+00  0.5504154942067E+00
 0.3586881363525E+00  0.2527837906338E+01  0.5773052171406E+00  0.5046271905665E+00
 0.3617921261241E+00  0.2214487863745E+01  0.5152560056518E+00  0.4748978415199E+00
 0.3210093216291E+00  0.1887610505736E+01  0.4417239720553E+00  0.4713962577204E+00
 0.2040356240399E+00  0.1552501923487E+01  0.3513075147403E+00  0.5062724516132E+00
-0.3970678808246E-01  0.1221736726791E+01  0.2364059912645E+00  0.5913145949322E+00
-0.4848087264752E+00  0.9219869340856E+00  0.8743564282498E-01  0.7269327945671E+00
-0.1220824237508E+01  0.6967209983100E+00 -0.1048206494016E+00  0.8769226191564E+00
-0.2306953322072E+01  0.5826304525435E+00 -0.3448645790446E+00  0.9418268211751E+00
-0.3685514108403E+01  0.5549128757482E+00 -0.6261202558610E+00  0.7729533303592E+00
 0.1861752779283E+01  0.8198275492943E+01  0.2012005684426E+01  0.1278902148175E+01
 0.1491754346662E+01  0.8316209715717E+01  0.1961592841706E+01  0.1432030066770E+01
 0.1109698405832E+01  0.8387434040513E+01  0.1899426517573E+01  0.1471655521998E+01
 0.7805005033345E+00  0.8386361626180E+01  0.1833372453222E+01  0.1431849902071E+01
 0.5294299610549E+00  0.8314970444532E+01  0.1768880107476E+01  0.1356849498921E+01
 0.3517099690116E+00  0.8191234400229E+01  0.1708588899308E+01  0.1278209708325E+01
 0.2308717715109E+00  0.8034803957297E+01  0.1653135170395E+01  0.1210889667163E+01
 0.1503524824824E+00  0.7860228655869E+01  0.1602116251544E+01  0.1158792681506E+01
 0.9746070179875E-01  0.7676372868136E+01  0.1554766737155E+01  0.1120706852526E+01
 0.6349154531824E-01  0.7488022335379E+01  0.1510302798645E+01  0.1093811594599E+01
 0.4276275897929E-01  0.7297474732447E+01  0.1468047520161E+01  0.1075209968985E+01
 0.3166877764132E-01  0.7105579450168E+01  0.1427449666833E+01  0.1062465658213E+01
 0.2796486914976E-01  0.6912331805084E+01  0.1388059355530E+01  0.1053757766534E+01
 0.3020862403966E-01  0.6717227812750E+01  0.1349487307467E+01  0.1047916309602E+01
 0.3725802297707E-01  0.6519539883565E+01  0.1311359600849E+01  0.1044389459309E+01
 0.4782434328253E-01  0.6318599365356E+01  0.1273284760701E+01  0.1043071413320E+01
 0.6024028525957E-01  0.6114480039238E+01  0.1234944083302E+01  0.1043802076552E+01
 0.7263729082811E-01  0.5908414363048E+01  0.1196210348600E+01  0.1045769613587E+01
 0.8347275225283E-01  0.5701594268481E+01  0.1157013421388E+01  0.1047537601449E+01
 0.9205006547836E-01  0.5494093392132E+01  0.1117228708170E+01  0.1047494880463E+01
 0.9868837245584E-01  0.5285154244795E+01  0.1076768539495E+01  0.1044177504108E+01
 0.1045058851254E+00  0.5073699250030E+01  0.1035641042463E+01  0.1036484010083E+01
 0.1110190633207E+00  0.4858694114600E+01  0.9939426503951E+00  0.1023721570078E+01
 0.1197743940708E+00  0.4639308851215E+01  0.9518166632403E+00  0.1005513320592E+01
 0.1321116505375E+00  0.4414914186142E+01  0.9094051808870E+00  0.9816629305559E+00
 0.1490505640533E+00  0.4184991865608E+01  0.8668084988488E+00  0.9520597509221E+00
 0.1712407484852E+00  0.3949011957337E+01  0.8240505534437E+00  0.9166735321390E+00
 0.1988983613118E+00  0.3706187078121E+01  0.7810170995246E+00  0.8757291603564E+00
 0.2316391915342E+00  0.3455270435316E+01  0.7373819363578E+00  0.8300127660372E+00
 0.2681165002955E+00  0.3194691770579E+01  0.6925616644948E+00  0.7811177543743E+00
 0.3054304726525E+00  0.2922800070223E+01  0.6456461181960E+00  0.7316818934086E+00
 0.3382961212562E+00  0.2638110589415E+01  0.5952813510047E+00  0.6856666666123E+00
 0.3579025542877E+00  0.2339746526533E+01  0.5395298242038E+00  0.6485841824246E+00
 0.3503288579831E+00  0.2028199343464E+01  0.4757056473780E+00  0.6275964664339E+00
 0.2942836824800E+00  0.1706580623713E+01  0.4001728672017E+00  0.6312999213145E+00
 0.1578271559368E+00  0.1382471727499E+01  0.3080597812776E+00  0.6687328081635E+00
-0.1060732852224E+00  0.1070312588463E+01  0.1928478635217E+00  0.7462689525729E+00
-0.5613699572586E+00  0.7954555085920E+00  0.4681711096431E-01  0.8574176732861E+00
-0.1277080791106E+01  0.5931234304328E+00 -0.1367914741730E+00  0.9635720167748E+00
-0.2289533521079E+01  0.4873323466273E+00 -0.3604402402614E+00  0.9792023620162E+00
-0.3543175279191E+01  0.4526292060458E+00 -0.6181092238396E+00  0.7905372833055E+00
 0.1782593905933E+01  0.7795421062613E+01  0.1915603022254E+01  0.1232983874967E+01
 0.1453405355006E+01  0.7902238837756E+01  0.1871128866434E+01  0.1394476577060E+01
 0.1107135627248E+01  0.7971982876933E+01  0.1815823727894E+01  0.1456307723943E+01
 0.7993213691146E+00  0.7981148110739E+01  0.1756093922139E+01  0.1443225966220E+01
 0.5558280341339E+00  0.7927585888833E+01  0.1696682809876E+01  0.1391052774717E+01
 0.3772193330017E+00  0.7823698027851E+01  0.1640183496611E+01  0.1328237814871E+01
 0.2519750826501E+00  0.7685564494576E+01  0.1587507939101E+01  0.1270501864753E+01
 0.1664272117896E+00  0.7526494187984E+01  0.1538584302881E+01  0.1223727387599E+01
 0.1091173159561E+00  0.7355433287571E+01  0.1492910142951E+01  0.1188446900447E+01
 0.7168126929282E-01  0.7177696506046E+01  0.1449875576673E+01  0.1163013159177E+01
 0.4839965872276E-01  0.6996139445508E+01  0.1408907841841E+01  0.1145244064663E+01
 0.3549393907300E-01  0.6812074576543E+01  0.1369513723531E+01  0.1133131501037E+01
 0.3050269678568E-01  0.6625865062241E+01  0.1331273571643E+01  0.1125112953911E+01
 0.3176009930521E-01  0.6437314134442E+01  0.1293814866029E+01  0.1120160538668E+01
 0.3793354516728E-01  0.6245964925310E+01  0.1256779712823E+01  0.1117759594278E+01
 0.4763958106724E-01  0.6051373566965E+01  0.1219802647783E+01  0.1117747057284E+01
 0.5926463776183E-01  0.5853744375423E+01  0.1182601820259E+01  0.1119872750877E+01
 0.7111720743818E-01  0.5654320738614E+01  0.1145087606274E+01  0.1123297982914E+01
 0.8184085590613E-01  0.5454258776416E+01  0.1107219942963E+01  0.1126654576916E+01
 0.9081972879172E-01  0.5253624383678E+01  0.1068888838422E+01  0.1128442174981E+01
 0.9832125278740E-01  0.5051667459421E+01  0.1029997757790E+01  0.1127280367294E+01
 0.1053334819208E+00  0.4847285083470E+01  0.9905237278381E+00  0.1122088493054E+01
 0.1132356725932E+00  0.4639351480885E+01  0.9505174448594E+00  0.1112146379959E+01
 0.1234708937790E+00  0.4426878332793E+01  0.9100698588754E+00  0.1097041481365E+01
 0.1373111559082E+00  0.4209034039622E+01  0.8692690520591E+00  0.1076570193890E+01
 0.1557187276193E+00  0.3985085305436E+01  0.8281608189516E+00  0.1050664675056E+01
 0.1792562089275E+00  0.3754307542663E+01  0.7867127620411E+00  0.1019392442485E+01
 0.2079792570619E+00  0.3515778995725E+01  0.7447516616551E+00  0.9831141833223E+00
 0.2412346297821E+00  0.3268220386158E+01  0.7018910136470E+00  0.9427556704205E+00
 0.2772826469862E+00  0.3010164185165E+01  0.6574893762275E+00  0.9000146963275E+00
 0.3127093279991E+00  0.2740237761175E+01  0.6105894269332E+00  0.8575478646325E+00
 0.3416130012509E+00  0.2457468544160E+01  0.5598163174242E+00  0.8191736782226E+00
 0.3545144109743E+00  0.2161792295627E+01  0.5032613488195E+00  0.7899769744534E+00
 0.3369062818224E+00  0.1854866464460E+01  0.4383545557884E+00  0.7762037750346E+00
 0.2673380960867E+00  0.1541292045528E+01  0.3617260337131E+00  0.7847160019877E+00
 0.1149794124436E+00  0.1230171158225E+01  0.2690301181427E+00  0.8215564418430E+00
-0.1630353552166E+00  0.9365942064091E+00  0.1547117725439E+00  0.8886012309411E+00
-0.6208416894759E+00  0.6836106410319E+00  0.1255379049828E-01  0.9747011901418E+00
-0.1311337634142E+01  0.4992468768822E+00 -0.1624181538721E+00  0.1041487820857E+01
-0.2255801373052E+01  0.3987393520228E+00 -0.3714124097404E+00  0.1016244365878E+01
-0.3403639105926E+01  0.3579875208916E+00 -0.6091303260837E+00  0.8110684695055E+00
 0.1703471300039E+01  0.7404810544828E+01  0.1821656396118E+01  0.1192025696675E+01
 0.1409665310264E+01  0.7501458710911E+01  0.1782224830792E+01  0.1359854448790E+01
 0.1095685617985E+01  0.7568434315621E+01  0.1732824012542E+01  0.1439756269758E+01
 0.8090737545024E+00  0.7584509067289E+01  0.1678716589373E+01  0.1449673870875E+01
 0.5750923681844E+00  0.7545000960851E+01  0.1624018690007E+01  0.1418495322720E+01
 0.3979653251757E+00  0.7458032984934E+01  0.1571199685435E+01  0.1371377450715E+01
 0.2702118588715E+00  0.7336448056961E+01  0.1521332005836E+01  0.1323969445020E+01
 0.1808801148473E+00  0.7192058749169E+01  0.1474587794776E+01  0.1283473381986E+01
 0.1198793110883E+00  0.7033528278809E+01  0.1430681539298E+01  0.1251855363765E+01
 0.7936218854865E-01  0.6866434897502E+01  0.1389159437910E+01  0.1228556441008E+01
 0.5370197997134E-01  0.6694042763188E+01  0.1349548968742E+01  0.1212117143334E+01
 0.3902875874399E-01  0.6518055840459E+01  0.1311416939382E+01  0.1200987477626E+01
 0.3271712201215E-01  0.6339174724261E+01  0.1274378388244E+01  0.1193888322188E+01
 0.3291943138419E-01  0.6157493770839E+01  0.1238082658894E+01  0.1189949438974E+01
 0.3815040168522E-01  0.5972808376929E+01  0.1202191773637E+01  0.1188707609906E+01
 0.4695802719503E-01  0.5784875299764E+01  0.1166366682772E+01  0.1189966163228E+01
 0.5778206873921E-01  0.5594007480656E+01  0.1130357926723E+01  0.1193416528447E+01
 0.6908139585055E-01  0.5401446489632E+01  0.1094105593400E+01  0.1198217428018E+01
 0.7965632499756E-01  0.5208305526961E+01  0.1057592386151E+01  0.1203075768347E+01
 0.8896349388693E-01  0.5014635977623E+01  0.1020719909512E+01  0.1206600948625E+01
 0.9723262751535E-01  0.4819693165927E+01  0.9833851733420E+00  0.1207503195814E+01
 0.1053413957694E+00  0.4622360697976E+01  0.9455404328388E+00  0.1204742278453E+01
 0.1145422639016E+00  0.4421450013752E+01  0.9071984690491E+00  0.1197594874435E+01
 0.1261714745534E+00  0.4215855494911E+01  0.8684054068331E+00  0.1185631438055E+01
 0.1414194144215E+00  0.4004590327257E+01  0.8292019606918E+00  0.1168648498248E+01
 0.1611726096156E+00  0.3786755710795E+01  0.7895856758479E+00  0.1146614987178E+01
 0.1858907928161E+00  0.3561483146955E+01  0.7494747991222E+00  0.1119675567923E+01
 0.2154630673694E+00  0.3327767800506E+01  0.7086461841347E+00  0.1088290828113E+01
 0.2489775670401E+00  0.3084348557239E+01  0.6666652347899E+00  0.1053474496876E+01
 0.2843342055012E+00  0.2829907454060E+01  0.6228483411935E+00  0.1016959514657E+01
 0.3176673944194E+00  0.2563385190364E+01  0.5762105255428E+00  0.9813309642107E+00
 0.3425664590578E+00  0.2284327336665E+01  0.5253787669734E+00  0.9501499396935E+00
 0.3490628887989E+00  0.1993427481718E+01  0.4684980810845E+00  0.9279397624505E+00
 0.3223520888105E+00  0.1693338168473E+01  0.4031380574638E+00  0.9199030565478E+00
 0.2412560708687E+00  0.1389777701776E+01  0.3262067593899E+00  0.9311336562803E+00
 0.7656535775162E-01  0.1092718464396E+01  0.2338567679143E+00  0.9649499178524E+00
-0.2102197723673E+00  0.8170651782506E+00  0.1213690829852E+00  0.1019654715036E+01
-0.6645446639785E+00  0.5831723806179E+00 -0.1627445691464E-01  0.1081177024437E+01
-0.1326852098135E+01  0.4130710466065E+00 -0.1827562130290E+00  0.1112901124195E+01
-0.2208687266882E+01  0.3160262038921E+00 -0.3785322182385E+00  0.1053322369070E+01
-0.3265427628574E+01  0.2702081560772E+00 -0.5990439034258E+00  0.8337855472020E+00
 0.1624533702635E+01  0.7024739558037E+01  0.1729854677911E+01  0.1155421285378E+01
 0.1361637942705E+01  0.7112124710551E+01  0.1694752555905E+01  0.1328081813552E+01
 0.1076800887610E+01  0.7175581540716E+01  0.1650476510259E+01  0.1422789243536E+01
 0.8107977958441E+00  0.7196127007071E+01  0.1601384984446E+01  0.1452483917965E+01
 0.5876110747976E+00  0.7167620632068E+01  0.1551046364485E+01  0.1440399388582E+01
 0.4138682165500E+00  0.7094961879741E+01  0.1501766041636E+01  0.1408482402501E+01
 0.2853003913112E+00  0.6988179724367E+01  0.1454696044812E+01  0.1371769059550E+01
 0.1934004388220E+00  0.6857512793037E+01  0.1410182667385E+01  0.1338242346355E+01
 0.1294793621373E+00  0.6711094165221E+01  0.1368114725858E+01  0.1310989483838E+01
 0.8632693677945E-01  0.6554545756920E+01  0.1328174558531E+01  0.1290416720205E+01
 0.5851794858666E-01  0.6391397905278E+01  0.1289983189995E+01  0.1275761814181E+01
 0.4216877764019E-01  0.6223667304591E+01  0.1253167235120E+01  0.1265942402070E+01
 0.3454454519119E-01  0.6052350837669E+01  0.1217379094712E+01  0.1259978125010E+01
 0.3365876026190E-01  0.5877808616489E+01  0.1182293492968E+01  0.1257169946966E+01
 0.3790934738245E-01  0.5700065355044E+01  0.1147594957586E+01  0.1257121855017E+01
 0.4579833028683E-01  0.5519055374311E+01  0.1112970757504E+01  0.1259627324756E+01
 0.5581825510927E-01  0.5335182498632E+01  0.1078200166815E+01  0.1264348002454E+01
 0.6655672128748E-01  0.5149678029417E+01  0.1043246965687E+01  0.1270461102675E+01
 0.7694657516948E-01  0.4963609121372E+01  0.1008111154330E+01  0.1276754873063E+01
 0.8650882337257E-01  0.4777009601747E+01  0.9727036995183E+00  0.1281947202744E+01
 0.9544559567030E-01  0.4589139719778E+01  0.9369170770508E+00  0.1284842782439E+01
 0.1045407365365E+00  0.4398878761863E+01  0.9006839131012E+00  0.1284455514694E+01
 0.1149305872597E+00  0.4204997946078E+01  0.8639857195419E+00  0.1280077483823E+01
 0.1278444439130E+00  0.4006308324450E+01  0.8268305659934E+00  0.1271277363867E+01
 0.1443820572756E+00  0.3801708701586E+01  0.7892181635327E+00  0.1257857739839E+01
 0.1653415186896E+00  0.3590178696490E+01  0.7511040542282E+00  0.1239817871020E+01
 0.1910698811245E+00  0.3370750453416E+01  0.7123640775231E+00  0.1217359237698E+01
 0.2212898474632E+00  0.3142379167565E+01  0.6727338130302E+00  0.1191007657984E+01
 0.2548476546279E+00  0.2903860967699E+01  0.6317417338790E+00  0.1161815832848E+01
 0.2893221468870E+00  0.2654058014719E+01  0.5886760410932E+00  0.1131488141188E+01
 0.3204658498574E+00  0.2392237472995E+01  0.5425406726550E+00  0.1102459066072E+01
 0.3414720255046E+00  0.2118441975351E+01  0.4919828075023E+00  0.1077939675619E+01
 0.3420584673082E+00  0.1834039020966E+01  0.4352195041401E+00  0.1061797044563E+01
 0.3073825193756E+00  0.1542485764971E+01  0.3699736623824E+00  0.1058129272126E+01
 0.2168782481402E+00  0.1250269897475E+01  0.2934296334955E+00  0.1070322114893E+01
 0.4326918725547E-01  0.9677179911068E+00  0.2021974386854E+00  0.1099317530883E+01
-0.2476614106802E+00  0.7090177634930E+00  0.9227127193750E-01  0.1140686148543E+01
-0.6938759788033E+00  0.4917969596558E+00 -0.4041580443175E-01  0.1178718639541E+01
-0.1326295577410E+01  0.3332350170540E+00 -0.1986121150308E+00  0.1179327997924E+01
-0.2150315425998E+01  0.2385971977117E+00 -0.3823436513547E+00  0.1090535435001E+01
-0.3127393884851E+01  0.1886525895866E+00 -0.5877482678110E+00  0.8580870932824E+00
 0.1545877119658E+01  0.6653836608079E+01  0.1639942769984E+01  0.1122660450262E+01
 0.1310172263605E+01  0.6732799462598E+01  0.1608594369211E+01  0.1299022327279E+01
 0.1051673394121E+01  0.6792336533591E+01  0.1568802008919E+01  0.1405938434452E+01
 0.8054456996541E+00  0.6815568633622E+01  0.1524202889368E+01  0.1452646783253E+01
 0.5938443647896E+00  0.6795613648788E+01  0.1477891624738E+01  0.1457795381254E+01
 0.4249779944574E+00  0.6734984018530E+01  0.1431992423936E+01  0.1440346854245E+01
 0.2970723888939E+00  0.6641333002753E+01  0.1387681099007E+01  0.1414398547156E+01
 0.2037529121135E+00  0.6523363049348E+01  0.1345423212341E+01  0.1388294911746E+01
 0.1376939238399E+00  0.6388527320488E+01  0.1305244268315E+01  0.1365954945321E+01
 0.9239214580512E-01  0.6242320355791E+01  0.1266942519198E+01  0.1348608133093E+01
 0.6270912633031E-01  0.6088411076920E+01  0.1230224058982E+01  0.1336139769122E+01
 0.4481742253734E-01  0.5929049051291E+01  0.1194773312569E+01  0.1327927282558E+01
 0.3592587334942E-01  0.5765479926170E+01  0.1160281177194E+01  0.1323295263356E+01
 0.3395150524534E-01  0.5598298079650E+01  0.1126449933764E+01  0.1321726357991E+01
 0.3720905920911E-01  0.5427731781752E+01  0.1092988184479E+01  0.1322907108333E+01
 0.4417450154697E-01  0.5253870812777E+01  0.1059609078654E+01  0.1326643534604E+01
 0.5339303181783E-01  0.5077194894756E+01  0.1026117600605E+01  0.1332592769259E+01
 0.6356369310510E-01  0.4898919166086E+01  0.9924965866276E+00  0.1339968623401E+01
 0.7373213750608E-01  0.4720063919933E+01  0.9587592257744E+00  0.1347646294602E+01
 0.8347625957277E-01  0.4540644788409E+01  0.9248242233773E+00  0.1354450892695E+01
 0.9297793075864E-01  0.4359927661056E+01  0.8905811316336E+00  0.1359283284944E+01
 0.1029409971363E+00  0.4176795023084E+01  0.8559472167988E+00  0.1361220795023E+01
 0.1143961367067E+00  0.3989995965409E+01  0.8208784326551E+00  0.1359584717155E+01
 0.1284680601932E+00  0.3798286340585E+01  0.7853508918583E+00  0.1353953763134E+01
 0.1461610869830E+00  0.3600485475373E+01  0.7493293236372E+00  0.1344140785750E+01
 0.1681773230375E+00  0.3395489470289E+01  0.7127333692859E+00  0.1330168542798E+01
 0.1947468892059E+00  0.3182269194787E+01  0.6754032268629E+00  0.1312275779125E+01
 0.2254317922361E+00  0.2959774954477E+01  0.6370413588352E+00  0.1291020986846E+01
 0.2588584011425E+00  0.2726888621038E+01  0.5971494133343E+00  0.1267450819883E+01
 0.2923287952325E+00  0.2482669094171E+01  0.5549995861508E+00  0.1243184441994E+01
 0.3212872254582E+00  0.2226705661740E+01  0.5095985850333E+00  0.1220439261639E+01
 0.3386437552049E+00  0.1959497319074E+01  0.4596282217047E+00  0.1202005686489E+01
 0.3339666299086E+00  0.1682984700478E+01  0.4033902720883E+00  0.1191035967262E+01
 0.2925963610382E+00  0.1401238376361E+01  0.3387669525278E+00  0.1190516138185E+01
 0.1948288903304E+00  0.1121211308530E+01  0.2632080436943E+00  0.1202245106295E+01
 0.1547511915322E-01  0.8531988585088E+00  0.1737347981213E+00  0.1225159022556E+01
-0.2756530841137E+00  0.6103672715721E+00  0.6694283848919E-01  0.1252814267748E+01
-0.7101986028781E+00  0.4077873330637E+00 -0.6048225486414E-01  0.1268772034197E+01
-0.1311856423104E+01  0.2587973032044E+00 -0.2106118271183E+00  0.1241790151746E+01
-0.2082257378685E+01  0.1660095648129E+00 -0.3832495684853E+00  0.1127843255131E+01
-0.2988650112770E+01  0.1127870877465E+00 -0.5751726135754E+00  0.8834935558560E+00
 0.1467561869483E+01  0.6290979082461E+01  0.1551708213511E+01  0.1093310836628E+01
 0.1255928605547E+01  0.6362285606446E+01  0.1523642865103E+01  0.1272514660919E+01
 0.1021283304198E+01  0.6417728463307E+01  0.1487802375671E+01  0.1389558353270E+01
 0.7938724548285E+00  0.6442345310750E+01  0.1447243574681E+01  0.1450920983905E+01
 0.5942824632452E+00  0.6428984030977E+01  0.1404653319775E+01  0.1471541814789E+01
 0.4314365827149E+00  0.6378420446739E+01  0.1361971426186E+01  0.1467690146494E+01
 0.3054533877328E+00  0.6296345372860E+01  0.1320359771794E+01  0.1452352356010E+01
 0.2117723645786E+00  0.6190031510276E+01  0.1280360794050E+01  0.1433921226750E+01
 0.1443444876797E+00  0.6066177719041E+01  0.1242104459853E+01  0.1416894202895E+01
 0.9740149314617E-01  0.5930026397296E+01  0.1205485596052E+01  0.1403177769117E+01
 0.6615314296492E-01  0.5785276525188E+01  0.1170285951069E+01  0.1393239316704E+01
 0.4688775914246E-01  0.5634334318515E+01  0.1136244432463E+01  0.1386894529319E+01
 0.3680737146836E-01  0.5478644020714E+01  0.1103090294874E+01  0.1383770860437E+01
 0.3377282711825E-01  0.5318999301230E+01  0.1070554441622E+01  0.1383539420051E+01
 0.3604677879603E-01  0.5155804711985E+01  0.1038370313629E+01  0.1385982963590E+01
 0.4209697716166E-01  0.4989284246408E+01  0.1006276259709E+01  0.1390940186032E+01
 0.5052181196670E-01  0.4819980343629E+01  0.9741004456344E+00  0.1398085569322E+01
 0.6011821336194E-01  0.4649087521326E+01  0.9418411609720E+00  0.1406684860352E+01
 0.7002876237323E-01  0.4477579628040E+01  0.9095216916356E+00  0.1415705080382E+01
 0.7988167577213E-01  0.4305454946899E+01  0.8770673376035E+00  0.1424077327156E+01
 0.8984399958922E-01  0.4131986623225E+01  0.8443661371449E+00  0.1430798962008E+01
 0.1005511907535E+00  0.3956066814494E+01  0.8113236131392E+00  0.1435016719153E+01
 0.1129383184137E+00  0.3776437237205E+01  0.7778751227150E+00  0.1436090996070E+01
 0.1280297508101E+00  0.3591821818546E+01  0.7439703249573E+00  0.1433619262804E+01
 0.1467331759293E+00  0.3400989851688E+01  0.7095446160965E+00  0.1427427166428E+01
 0.1696517446505E+00  0.3202786201367E+01  0.6744875992541E+00  0.1417553875404E+01
 0.1968993492793E+00  0.2996152136723E+01  0.6386103067165E+00  0.1404257002050E+01
 0.2278878019794E+00  0.2780060545504E+01  0.6015896784611E+00  0.1388097907551E+01
 0.2610498586518E+00  0.2553498115492E+01  0.5629096032167E+00  0.1370077006968E+01
 0.2934583505505E+00  0.2315725492072E+01  0.5218367763005E+00  0.1351679562388E+01
 0.3203238928960E+00  0.2066636371775E+01  0.4773920600479E+00  0.1334852483518E+01
 0.3343818557781E+00  0.1807132421193E+01  0.4283028617765E+00  0.1321915732516E+01
 0.3251985299361E+00  0.1539619825226E+01  0.3729636765900E+00  0.1315279336912E+01
 0.2784776939806E+00  0.1268603160975E+01  0.3094161756017E+00  0.1316849804896E+01
 0.1755476657815E+00  0.1001248849841E+01  0.2353593066316E+00  0.1326995591807E+01
-0.6657658853206E-02  0.7475476257931E+00  0.1481779955960E+00  0.1343003653296E+01
-0.2946410677345E+00  0.5195061731787E+00  0.4497302175900E-01  0.1357006214740E+01
-0.7147841145265E+00  0.3298900778053E+00 -0.7697880849132E-01  0.1352445038321E+01
-0.1285333975199E+01  0.1890803938913E+00 -0.2192507195286E+00  0.1300959207724E+01
-0.2005708794222E+01  0.9794429047427E-01 -0.3815529064352E+00  0.1165132872977E+01
-0.2848500106246E+01  0.4217836939526E-01 -0.5612643557337E+00  0.9096327186502E+00
 0.1389623758051E+01  0.5935233758746E+01  0.1464971525189E+01  0.1067003617410E+01
 0.1199425853318E+01  0.5999574814273E+01  0.1439800154973E+01  0.1248389518334E+01
 0.9864393685951E+00  0.6050894766608E+01  0.1407466848013E+01  0.1373880489693E+01
 0.7768367037994E+00  0.6075950061262E+01  0.1370557373435E+01  0.1447886146569E+01
 0.5894182830288E+00  0.6067623359359E+01  0.1331408348317E+01  0.1482348228305E+01
 0.4334480694912E+00  0.6025452788296E+01  0.1291780190806E+01  0.1491151733481E+01
 0.3104440579846E+00  0.5953536195559E+01  0.1252796069377E+01  0.1486105068026E+01
 0.2173562229630E+00  0.5857858787976E+01  0.1215043020293E+01  0.1475425306290E+01
 0.1492965553673E+00  0.5744345878657E+01  0.1178728504369E+01  0.1463975780525E+01
 0.1012271700416E+00  0.5617903502405E+01  0.1143826151534E+01  0.1454199549655E+01
 0.6874553314369E-01  0.5482172723205E+01  0.1110183667813E+01  0.1447072307274E+01
 0.4830387581207E-01  0.5339647081149E+01  0.1077590207450E+01  0.1442816493273E+01
 0.3714151804491E-01  0.5191919599362E+01  0.1045812239065E+01  0.1441353314055E+01
 0.3310027494801E-01  0.5039946926361E+01  0.1014609455381E+01  0.1442545219748E+01
 0.3441911164099E-01  0.4884282147432E+01  0.9837402664734E+00  0.1446282373012E+01
 0.3957369177035E-01  0.4725263054787E+01  0.9529673635118E+00  0.1452453492630E+01
 0.4721686050846E-01  0.4563482814391E+01  0.9221399487208E+00  0.1460768923103E+01
 0.5623302562048E-01  0.4400111597125E+01  0.8912689378300E+00  0.1470559112120E+01
 0.6584908581186E-01  0.4236077769625E+01  0.8603853839082E+00  0.1480886964497E+01
 0.7573805093233E-01  0.4071363946248E+01  0.8294204117954E+00  0.1490788322522E+01
 0.8605631468339E-01  0.3905252734911E+01  0.7982618218138E+00  0.1499356407086E+01
 0.9738081411960E-01  0.3736651697628E+01  0.7668065137757E+00  0.1505810885322E+01
 0.1105606062273E+00  0.3564307347611E+01  0.7349736017197E+00  0.1509557995826E+01
 0.1265253943164E+00  0.3386930890707E+01  0.7026912674756E+00  0.1510220008110E+01
 0.1460880494009E+00  0.3203266093069E+01  0.6698708384758E+00  0.1507636388296E+01
 0.1697537686103E+00  0.3012133378638E+01  0.6363774389324E+00  0.1501855545772E+01
 0.1975252049772E+00  0.2812469988888E+01  0.6019990477436E+00  0.1493137017158E+01
 0.2286784732163E+00  0.2603291870665E+01  0.5663940772162E+00  0.1482018412939E+01
 0.2614821221366E+00  0.2383701416886E+01  0.5290367156877E+00  0.1469419061437E+01
 0.2928288665593E+00  0.2153156674398E+01  0.4891971154810E+00  0.1456649995369E+01
 0.3177689643466E+00  0.1911828372439E+01  0.4459194740018E+00  0.1445346973693E+01
 0.3289641517527E+00  0.1660959789695E+01  0.3979847942200E+00  0.1437328562578E+01
 0.3161068318568E+00  0.1403315745932E+01  0.3438845206821E+00  0.1434260532276E+01
 0.2654044767249E+00  0.1143674820358E+01  0.2818158636159E+00  0.1437030361752E+01
 0.1593203175418E+00  0.8892167594782E+00  0.2097074185289E+00  0.1444746536761E+01
-0.2313126821722E-01  0.6494484630919E+00  0.1252634408415E+00  0.1453373232067E+01
-0.3051613822669E+00  0.4351790746822E+00  0.2600353887055E-01  0.1454075519170E+01
-0.7087783096194E+00  0.2571875844486E+00 -0.9031814638001E-01  0.1430599407557E+01
-0.1248219545441E+01  0.1235043120424E+00 -0.2249430500316E+00  0.1357244736258E+01
-0.1921608408133E+01  0.3424533601295E-01 -0.3774726200487E+00  0.1202228597828E+01
-0.2706415407754E+01 -0.2349275287119E-01 -0.5459816402608E+00  0.9362492552308E+00
 0.1312081538417E+01  0.5585813811624E+01  0.1379579090565E+01  0.1043422256594E+01
 0.1141075631899E+01  0.5643808907384E+01  0.1356976928077E+01  0.1226479331420E+01
 0.9478117373924E+00  0.5691069524760E+01  0.1327776272216E+01  0.1359050807646E+01
 0.7550068421487E+00  0.5715879586158E+01  0.1294177304946E+01  0.1443984442738E+01
 0.5797304515840E+00  0.5711348438419E+01  0.1258215796749E+01  0.1490797770340E+01
 0.4312559872072E+00  0.5676155408593E+01  0.1221482297362E+01  0.1511292414695E+01
 0.3121034971785E+00  0.5613124711078E+01  0.1185045659310E+01  0.1516101214350E+01
 0.2204561049789E+00  0.5527110178185E+01  0.1149513273762E+01  0.1513113025980E+01
 0.1524570196032E+00  0.5423282456648E+01  0.1115147911867E+01  0.1507384942482E+01
 0.1037700507288E+00  0.5306160530971E+01  0.1081986132463E+01  0.1501768267153E+01
 0.7040076519388E-01  0.5179259619474E+01  0.1049932092579E+01  0.1497670724879E+01
 0.4900188845430E-01  0.5045100098276E+01  0.1018820412528E+01  0.1495683546769E+01
 0.3688778681221E-01  0.4905376539134E+01  0.9884528799184E+00  0.1496006983810E+01
 0.3191450163389E-01  0.4761172609808E+01  0.9586174365728E+00  0.1498693933046E+01
 0.3232288031985E-01  0.4613162540125E+01  0.9290970979336E+00  0.1503750312956E+01
 0.3661111142762E-01  0.4461778378075E+01  0.8996779113067E+00  0.1511129204102E+01
 0.4348842830131E-01  0.4307652844723E+01  0.8702282675723E+00  0.1520592109874E+01
 0.5191892660012E-01  0.4151928343388E+01  0.8407694665261E+00  0.1531544547061E+01
 0.6120396292034E-01  0.3995488839711E+01  0.8113385726162E+00  0.1543148487297E+01
 0.7105687142892E-01  0.3838303345350E+01  0.7818720550065E+00  0.1554543183703E+01
 0.8162677556458E-01  0.3679666460461E+01  0.7522586584147E+00  0.1564916402487E+01
 0.9344063335836E-01  0.3518506285919E+01  0.7223893946199E+00  0.1573562416335E+01
 0.1072706521990E+00  0.3353584238601E+01  0.6921709884742E+00  0.1579937539757E+01
 0.1239586444719E+00  0.3183614567803E+01  0.6615146523123E+00  0.1583692659353E+01
 0.1442269639078E+00  0.3007335611574E+01  0.6303125244887E+00  0.1584680849984E+01
 0.1684872099600E+00  0.2823565081688E+01  0.5984104672466E+00  0.1582952714271E+01
 0.1966393789091E+00  0.2631256130242E+01  0.5655791102580E+00  0.1578754451973E+01
 0.2278415730001E+00  0.2429481981868E+01  0.5314647188930E+00  0.1572576750822E+01
 0.2602296699512E+00  0.2217464709763E+01  0.4955388833270E+00  0.1565228578236E+01
 0.2905656173723E+00  0.1994848170408E+01  0.4570827643671E+00  0.1557814737339E+01
 0.3138093894492E+00  0.1762046324456E+01  0.4151711489676E+00  0.1551631145859E+01
 0.3226406238818E+00  0.1520580114236E+01  0.3686441531168E+00  0.1547980284855E+01
 0.3069856284341E+00  0.1273471998160E+01  0.3160915300290E+00  0.1547801263739E+01
 0.2536590561117E+00  0.1025637182281E+01  0.2558592514911E+00  0.1551040228849E+01
 0.1463100248838E+00  0.7841168114109E+00  0.1860853700318E+00  0.1555717177590E+01
-0.3406938020172E-01  0.5578243409795E+00  0.1047509937165E+00  0.1556755575703E+01
-0.3077684262839E+00  0.3564100371349E+00  0.9728322315164E-02  0.1544713544966E+01
-0.6932697602256E+00  0.1889431657069E+00 -0.1008653204067E+00  0.1503853976440E+01
-0.1201582155492E+01  0.6174468232532E-01 -0.2279674980303E+00  0.1411043253669E+01
-0.1831022954255E+01 -0.2578290062317E-01 -0.3713611765093E+00  0.1238562230237E+01
-0.2561388599145E+01 -0.8317037391682E-01 -0.5289118024938E+00  0.9635050699839E+00
 0.1234941972999E+01  0.5242047171433E+01  0.1295397848189E+01  0.1022293631243E+01
 0.1081207347915E+01  0.5294249977869E+01  0.1275091484157E+01  0.1206623620765E+01
 0.9059583720250E+00  0.5337571438161E+01  0.1248705980644E+01  0.1345155828989E+01
 0.7289694645522E+00  0.5361646788947E+01  0.1218123268851E+01  0.1439552554899E+01
 0.5656734360275E+00  0.5359928092506E+01  0.1185120323366E+01  0.1497367860129E+01
 0.4251264367913E+00  0.5330521339079E+01  0.1151129572327E+01  0.1528599146593E+01
 0.3105349411787E+00  0.5275246850673E+01  0.1117156375017E+01  0.1542749738638E+01
 0.2210693523840E+00  0.5197983152656E+01  0.1083810517158E+01  0.1547283341008E+01
 0.1537705524493E+00  0.5103189779973E+01  0.1051392082151E+01  0.1547315892974E+01
 0.1049588618109E+00  0.4994974434870E+01  0.1019986674535E+01  0.1545994052574E+01
 0.7105257489561E-01  0.4876676852197E+01  0.9895459001638E+00  0.1545083177182E+01
 0.4893057670432E-01  0.4750793429147E+01  0.9599448154745E+00  0.1545501887958E+01
 0.3601330109615E-01  0.4619077159763E+01  0.9310181060452E+00  0.1547710640838E+01
 0.3019996630299E-01  0.4482704391926E+01  0.9025808850954E+00  0.1551948495437E+01
 0.2975596183196E-01  0.4342444130443E+01  0.8744400314851E+00  0.1558342545175E+01
 0.3321519274027E-01  0.4198804091812E+01  0.8464038695229E+00  0.1566921532419E+01
 0.3934575239647E-01  0.4052445996129E+01  0.8183583618996E+00  0.1577510384416E+01
 0.4718578355582E-01  0.3904481124674E+01  0.7903333934229E+00  0.1589597828068E+01
 0.5610354129318E-01  0.3755749987897E+01  0.7623707171983E+00  0.1602447166404E+01
 0.6584923765843E-01  0.3606210144989E+01  0.7344118874730E+00  0.1615299554961E+01
 0.7656764887923E-01  0.3455170824259E+01  0.7063477051531E+00  0.1627435479004E+01
 0.8874330244850E-01  0.3301585260983E+01  0.6780657227902E+00  0.1638224100862E+01
 0.1030803381732E+00  0.3144238178416E+01  0.6494637129955E+00  0.1647174094109E+01
 0.1203402847844E+00  0.2981859707966E+01  0.6204400077953E+00  0.1653967003381E+01
 0.1411612885086E+00  0.2813198966658E+01  0.5908720598379E+00  0.1658468366034E+01
 0.1658684662854E+00  0.2637088109453E+01  0.5605913235010E+00  0.1660724259351E+01
 0.1942706514277E+00  0.2452511068484E+01  0.5293563518703E+00  0.1660954131677E+01
 0.2254280277307E+00  0.2258607108433E+01  0.4968070346357E+00  0.1659582144327E+01
 0.2573765344339E+00  0.2054716286738E+01  0.4624185711249E+00  0.1657283200771E+01
 0.2867957641473E+00  0.1840651329000E+01  0.4254894249697E+00  0.1654931849285E+01
 0.3086209208280E+00  0.1617031900772E+01  0.3851305700588E+00  0.1653466260625E+01
 0.3156305292467E+00  0.1385593177402E+01  0.3402447463998E+00  0.1653671637421E+01
 0.2980725716440E+00  0.1149523354959E+01  0.2895191896347E+00  0.1655792253884E+01
 0.2434411543657E+00  0.9137603565689E+00  0.2314403056356E+00  0.1658919651469E+01
 0.1365795085527E+00  0.6850956117140E+00  0.1643350265021E+00  0.1660147605425E+01
-0.3966777671474E-01  0.4717943489018E+00  0.8642531572525E-01  0.1653598698596E+01
-0.3030577019775E+00  0.2824188874022E+00 -0.4127762976568E-02  0.1629484444884E+01
-0.6691031274309E+00  0.1246131032272E+00 -0.1088980064635E+00  0.1572731403779E+01
-0.1146785396004E+01  0.3368960122813E-02 -0.2286832905838E+00  0.1462408614441E+01
-0.1733127098261E+01 -0.8208335668661E-01 -0.3630420963993E+00  0.1274543362824E+01
-0.2417561483203E+01 -0.1391428821933E+00 -0.5113408806989E+00  0.9884707383668E+00
 0.1158203320412E+01  0.4903352849133E+01  0.1212311251974E+01  0.1003380969162E+01
 0.1020086743440E+01  0.4950257240280E+01  0.1194068814537E+01  0.1188671781733E+01
 0.8613462089584E+00  0.4989792481042E+01  0.1170227755438E+01  0.1332240896914E+01
 0.6992385198514E+00  0.5012787333576E+01  0.1142405187709E+01  0.1434846235364E+01
 0.5476724307087E+00  0.5013102011527E+01  0.1112154905020E+01  0.1502448309301E+01
 0.4153358692488E+00  0.4988482776167E+01  0.1080763745188E+01  0.1543491657550E+01
 0.3058739310727E+00  0.4939970235215E+01  0.1049168848891E+01  0.1566421748522E+01
 0.2192310316221E+00  0.4870615369580E+01  0.1017969295409E+01  0.1578222195543E+01
 0.1532154812590E+00  0.4784224676793E+01  0.9874880463251E+00  0.1583965491429E+01
 0.1047486353719E+00  0.4684490322671E+01  0.9578478058817E+00  0.1586997435875E+01
 0.7065373016036E-01  0.4574542800794E+01  0.9290393200347E+00  0.1589371463648E+01
 0.4805167842158E-01  0.4456813399364E+01  0.9009730289826E+00  0.1592291218877E+01
 0.3449332935514E-01  0.4333075413204E+01  0.8735137615282E+00  0.1596455783781E+01
 0.2794556847351E-01  0.4204566042687E+01  0.8465023348459E+00  0.1602283235141E+01
 0.2671806260317E-01  0.4072124219588E+01  0.8197684686537E+00  0.1610024456445E+01
 0.2939224720746E-01  0.3936315802927E+01  0.7931416218457E+00  0.1619792229573E+01
 0.3479792791981E-01  0.3797821481267E+01  0.7665238932595E+00  0.1631484359441E+01
 0.4204338754801E-01  0.3657718011103E+01  0.7399522907564E+00  0.1644678862507E+01
 0.5055812651961E-01  0.3516803122571E+01  0.7134722604497E+00  0.1658741698792E+01
 0.6012673438211E-01  0.3375024961927E+01  0.6870303494995E+00  0.1673014168412E+01
 0.7089233084457E-01  0.3231709963997E+01  0.6605204688108E+00  0.1686867242189E+01
 0.8330383119023E-01  0.3085840575989E+01  0.6338288908807E+00  0.1699744214766E+01
 0.9800576623698E-01  0.2936231786319E+01  0.6068475195540E+00  0.1711206909146E+01
 0.1156876090653E+00  0.2781639946541E+01  0.5794655197560E+00  0.1720968204666E+01
 0.1369111946537E+00  0.2620837757986E+01  0.5515497987466E+00  0.1728904317139E+01
 0.1619244728323E+00  0.2452684925714E+01  0.5229218875014E+00  0.1735050601962E+01
 0.1904588711305E+00  0.2276206577460E+01  0.4933330970693E+00  0.1739588294570E+01
 0.2214984328492E+00  0.2090612143929E+01  0.4624221222463E+00  0.1742858999468E+01
 0.2530122708855E+00  0.1895353472629E+01  0.4296731551055E+00  0.1745385242206E+01
 0.2816441816121E+00  0.1690391526367E+01  0.3944071474730E+00  0.1747794683918E+01
 0.3023646988315E+00  0.1476512597423E+01  0.3557754645524E+00  0.1750659250930E+01
 0.3081212911065E+00  0.1255605572462E+01  0.3127453773741E+00  0.1754256415353E+01
 0.2895530759518E+00  0.1030943298832E+01  0.2640992788921E+00  0.1758177038133E+01
 0.2348787963973E+00  0.8073945902821E+00  0.2084546804421E+00  0.1760747398199E+01
 0.1301170476069E+00  0.5914244902473E+00  0.1443083097212E+00  0.1758283150020E+01
-0.4018640674952E-01  0.3906315952920E+00  0.7008903875291E-01  0.1744302980084E+01
-0.2915698143521E+00  0.2125866230855E+00 -0.1579663848871E-01  0.1708861441911E+01
-0.6372174618655E+00  0.6373906335122E-01 -0.1146956814120E+00  0.1637607007449E+01
-0.1084182465116E+01 -0.5189525017665E-01 -0.2272155464443E+00  0.1511511053168E+01
-0.1630681344768E+01 -0.1351428301655E+00 -0.3531648402493E+00  0.1309757299609E+01
-0.2263324262334E+01 -0.1915422236327E+00 -0.4909733045095E+00  0.1012296513026E+01
 0.1081857769381E+01  0.4569222953504E+01  0.1130216161419E+01  0.9864781917917E+00
 0.9579297959937E+00  0.4611268943440E+01  0.1113839764484E+01  0.1172484345362E+01
 0.8143680988508E+00  0.4647187682554E+01  0.1092311172558E+01  0.1320323042458E+01
 0.6662642856555E+00  0.4668862501359E+01  0.1067025373303E+01  0.1430059145949E+01
 0.5261213660869E+00  0.4670593843723E+01  0.1039343057449E+01  0.1506356808216E+01
 0.4021624772374E+00  0.4649927059756E+01  0.1010417922455E+01  0.1556329739081E+01
 0.2982787614012E+00  0.4607307149417E+01  0.9811171967834E+00  0.1587450493517E+01
 0.2150066978515E+00  0.4545092599041E+01  0.9520198735648E+00  0.1606198580237E+01
 0.1507995105496E+00  0.4466502097615E+01  0.9234603353936E+00  0.1617528365208E+01
 0.1031186945582E+00  0.4374822434614E+01  0.8955882391797E+00  0.1624905078060E+01
 0.6917535348730E-01  0.4272954338403E+01  0.8684259513186E+00  0.1630607350753E+01
 0.4633988195160E-01  0.4163231986208E+01  0.8419143861775E+00  0.1636082415123E+01
 0.3231160877125E-01  0.4047416254835E+01  0.8159455848799E+00  0.1642244903330E+01
 0.2514517980003E-01  0.3926776445744E+01  0.7903843368865E+00  0.1649682504150E+01
 0.2321140179342E-01  0.3802198450130E+01  0.7650819817854E+00  0.1658769965717E+01
 0.2514969856908E-01  0.3674289910457E+01  0.7398879328304E+00  0.1669709776071E+01
 0.2985465689101E-01  0.3543740959204E+01  0.7147191338691E+00  0.1682479503054E+01
 0.3650216465065E-01  0.3411590343140E+01  0.6896185118342E+00  0.1696750635235E+01
 0.4457887765873E-01  0.3278593358923E+01  0.6646344572201E+00  0.1711992176917E+01
 0.5390210992469E-01  0.3144690551775E+01  0.6397185418725E+00  0.1727643506697E+01
 0.6461592930068E-01  0.3009227968394E+01  0.6147687886998E+00  0.1743163507981E+01
 0.7713992248909E-01  0.2871220836066E+01  0.5896721604978E+00  0.1758068072512E+01
 0.9206719301881E-01  0.2729520122185E+01  0.5643174714497E+00  0.1771971847607E+01
 0.1100238282453E+00  0.2582916596719E+01  0.5385880930184E+00  0.1784618724825E+01
 0.1315044582942E+00  0.2430216408003E+01  0.5123441808939E+00  0.1795893452969E+01
 0.1566908685946E+00  0.2270316398944E+01  0.4854014607408E+00  0.1805815158395E+01
 0.1852525031211E+00  0.2102289482881E+01  0.4575084040179E+00  0.1814517408756E+01
 0.2161200735262E+00  0.1925415548678E+01  0.4283071308231E+00  0.1822246707682E+01
 0.2472286667369E+00  0.1739248613676E+01  0.3972954620027E+00  0.1829359964485E+01
 0.2752303180755E+00  0.1543874958836E+01  0.3638210608036E+00  0.1836227986919E+01
 0.2951851007038E+00  0.1340208538510E+01  0.3270787327167E+00  0.1843055916670E+01
 0.3002688911246E+00  0.1130235912206E+01  0.2861009649294E+00  0.1849631226045E+01
 0.2815648304805E+00  0.9172447754421E+00  0.2397619247572E+00  0.1854938537057E+01
 0.2280407113496E+00  0.7059630607770E+00  0.1868007572089E+00  0.1856626300246E+01
 0.1268491506487E+00  0.5024795484317E+00  0.1258657416916E+00  0.1850363461827E+01
-0.3590860916271E-01  0.3137349746850E+00  0.5556527393244E-01  0.1829222232370E+01
-0.2738728171429E+00  0.1464065455059E+00 -0.2549325470729E-01  0.1783238195638E+01
-0.5982551613814E+00  0.5965554252234E-02 -0.1184579231910E+00  0.1698762702854E+01
-0.1014953647646E+01 -0.1043556312880E+00 -0.2238618591225E+00  0.1558523120092E+01
-0.1522017171731E+01 -0.1851317771512E+00 -0.3414297948642E+00  0.1343712235916E+01
-0.2107885131824E+01 -0.2421871082137E+00 -0.4700144550113E+00  0.1037311970369E+01
 0.1005893157571E+01  0.4239208842281E+01  0.1049020415602E+01  0.9714053514048E+00
 0.8949132430316E+00  0.4276788113368E+01  0.1034340286693E+01  0.1157933345562E+01
 0.7653563784901E+00  0.4309266154443E+01  0.1014924521710E+01  0.1309400099625E+01
 0.6304417148107E+00  0.4329459795844E+01  0.9919803169126E+00  0.1425337313483E+01
 0.5013829048373E+00  0.4332120158178E+01  0.9667006270081E+00  0.1509351939685E+01
 0.3858803260757E+00  0.4314708986742E+01  0.9401178765723E+00  0.1567420530141E+01
 0.2879229367375E+00  0.4277225519448E+01  0.9130297048423E+00  0.1606132773544E+01
 0.2084860555090E+00  0.4221456192371E+01  0.8859884627783E+00  0.1631462242803E+01
 0.1465555403718E+00  0.4150099132109E+01  0.8593309473012E+00  0.1648193246738E+01
 0.1000703765575E+00  0.4066055759936E+01  0.8332252397148E+00  0.1659846188843E+01
 0.6660592108709E-01  0.3971987146871E+01  0.8077186256276E+00  0.1668869637127E+01
 0.4378256285477E-01  0.3870106578157E+01  0.7827778398667E+00  0.1676915275440E+01
 0.2946049782604E-01  0.3762135211630E+01  0.7583191531910E+00  0.1685089759777E+01
 0.2179805508607E-01  0.3649349068745E+01  0.7342294357070E+00  0.1694139335813E+01
 0.1924128608366E-01  0.3532660142951E+01  0.7103802963925E+00  0.1704560493579E+01
 0.2049672722356E-01  0.3412702757933E+01  0.6866399072631E+00  0.1716648653116E+01
 0.2452687945280E-01  0.3290167491872E+01  0.6629388841435E+00  0.1730465716803E+01
 0.3057376176218E-01  0.3166051530650E+01  0.6393250680091E+00  0.1745779095591E+01
 0.3817836082990E-01  0.3041067750970E+01  0.6158492315368E+00  0.1762160306524E+01
 0.4718979904551E-01  0.2915150620857E+01  0.5924680928089E+00  0.1779144391194E+01
 0.5775569677692E-01  0.2787667957677E+01  0.5690847393709E+00  0.1796275279709E+01
 0.7027219905973E-01  0.2657670838157E+01  0.5455886155732E+00  0.1813139349576E+01
 0.8528891648445E-01  0.2524050839860E+01  0.5218679590453E+00  0.1829402938928E+01
 0.1033775062213E+00  0.2385639522697E+01  0.4978034132015E+00  0.1844839943142E+01
 0.1249753763447E+00  0.2241283828336E+01  0.4732518479882E+00  0.1859341380102E+01
 0.1502103750014E+00  0.2089924321505E+01  0.4480269459775E+00  0.1872905464746E+01
 0.1787065106467E+00  0.1930685080951E+01  0.4218783246061E+00  0.1885610655358E+01
 0.2093644311119E+00  0.1762913670304E+01  0.3944556261610E+00  0.1897599140089E+01
 0.2401171277252E+00  0.1586254183399E+01  0.3652742676678E+00  0.1909053647493E+01
 0.2676659273086E+00  0.1400894163496E+01  0.3337120231337E+00  0.1920084030769E+01
 0.2872086496538E+00  0.1207837597768E+01  0.2990092539399E+00  0.1930534635933E+01
 0.2921990697607E+00  0.1009118036975E+01  0.2602634252254E+00  0.1939726590905E+01
 0.2742031990512E+00  0.8079792667356E+00  0.2164364963825E+00  0.1946088128265E+01
 0.2229452589111E+00  0.6089537508103E+00  0.1663798044235E+00  0.1946672548087E+01
 0.1266595661698E+00  0.4177254176283E+00  0.1088769983820E+00  0.1936615372722E+01
-0.2714744246456E-01  0.2406012114449E+00  0.4269075443222E-01  0.1908668252637E+01
-0.2504709567561E+00  0.8346768746937E-01 -0.3340065435506E-01  0.1852932444487E+01
-0.5529482203039E+00 -0.4902381956380E-01 -0.1203944097675E+00  0.1756457137087E+01
-0.9395038814727E+00 -0.1541792848081E+00 -0.2187366365156E+00  0.1603397249794E+01
-0.1408320376069E+01 -0.2326615802349E+00 -0.3281963961513E+00  0.1376898781773E+01
-0.1949888129148E+01 -0.2895427472607E+00 -0.4478861819558E+00  0.1062259574542E+01
 0.9302941978493E+00  0.3912910320291E+01  0.9686409180620E+00  0.9580049270033E+00
 0.8311826318968E+00  0.3946371218428E+01  0.9555107843032E+00  0.1144902175381E+01
 0.7145937720670E+00  0.3975583326088E+01  0.9380354336088E+00  0.1299457194709E+01
 0.5921179625343E+00  0.3994192218189E+01  0.9172620498130E+00  0.1420790236524E+01
 0.4737896533679E+00  0.3997396460040E+01  0.8942372360067E+00  0.1511643994380E+01
 0.3667555275331E+00  0.3982660206711E+01  0.8698831598111E+00  0.1577025405978E+01
 0.2749893341352E+00  0.3949658047879E+01  0.8449294889933E+00  0.1622731201462E+01
 0.1997775417755E+00  0.3899709890580E+01  0.8198974986885E+00  0.1654242628621E+01
 0.1405377436549E+00  0.3835059133318E+01  0.7951193872428E+00  0.1676140342790E+01
 0.9562465300798E-01  0.3758248070395E+01  0.7707745561660E+00  0.1691949599973E+01
 0.6295004389905E-01  0.3671696462165E+01  0.7469293123430E+00  0.1704241553836E+01
 0.4037931437963E-01  0.3577480054576E+01  0.7235718845733E+00  0.1714836413498E+01
 0.2594096877817E-01  0.3477258145759E+01  0.7006398333478E+00  0.1725009722708E+01
 0.1790911602463E-01  0.3372291545282E+01  0.6780401423649E+00  0.1735654152630E+01
 0.1481656829516E-01  0.3263499719307E+01  0.6556632672906E+00  0.1747383992948E+01
 0.1544480038117E-01  0.3151529891421E+01  0.6333949477988E+00  0.1760588681487E+01
 0.1882729326963E-01  0.3037064652018E+01  0.6111783981648E+00  0.1775416971712E+01
 0.2427152015683E-01  0.2921056052976E+01  0.5890655234043E+00  0.1791733078961E+01
 0.3137098234899E-01  0.2804174258957E+01  0.5671090567117E+00  0.1809209618124E+01
 0.4000631669352E-01  0.2686348876662E+01  0.5452710467963E+00  0.1827474504757E+01
 0.5033134081673E-01  0.2566971367626E+01  0.5234605494887E+00  0.1846153591661E+01
 0.6272433855488E-01  0.2445131248029E+01  0.5015711247909E+00  0.1864901210288E+01
 0.7769912542290E-01  0.2319764395183E+01  0.4794927112662E+00  0.1883433695065E+01
 0.9578202865524E-01  0.2189747980769E+01  0.4571060086963E+00  0.1901553512452E+01
 0.1173637979024E+00  0.2053974963049E+01  0.4342677586614E+00  0.1919155771250E+01
 0.1425313837588E+00  0.1911433698310E+01  0.4107930225351E+00  0.1936214018352E+01
 0.1708805571138E+00  0.1761300184569E+01  0.3864361540949E+00  0.1952746140820E+01
 0.2013051426803E+00  0.1602984498126E+01  0.3608579335385E+00  0.1968783919028E+01
 0.2317666634206E+00  0.1436207067373E+01  0.3335947511297E+00  0.1984331556925E+01
 0.2590535463518E+00  0.1261232419161E+01  0.3040571976334E+00  0.1999238897121E+01
 0.2785436834436E+00  0.1079119112281E+01  0.2715325631910E+00  0.2013000677977E+01
 0.2840092560114E+00  0.8919027393087E+00  0.2351824025685E+00  0.2024499326083E+01
 0.2675260885185E+00  0.7027346313041E+00  0.1940521468561E+00  0.2031656949801E+01
 0.2195701519945E+00  0.5159117322205E+00  0.1470963790349E+00  0.2031007599353E+01
 0.1293967490384E+00  0.3366998855362E+00  0.9321932830400E-01  0.2017249878892E+01
-0.1422048035403E-01  0.1708075576611E+00  0.3131741592807E-01  0.1982910390887E+01
-0.2218653058054E+00  0.2342245505702E-01 -0.3968857074108E-01  0.1918215729677E+01
-0.5018808697522E+00 -0.1014703038955E+00 -0.1206702365277E+00  0.1810857762230E+01
-0.8584542053548E+00 -0.2016228257837E+00 -0.2120154093870E+00  0.1646239077588E+01
-0.1290067774066E+01 -0.2776816987698E+00 -0.3135498992394E+00  0.1409206079443E+01
-0.1789110692565E+01 -0.3338243769896E+00 -0.4245870202378E+00  0.1086773931222E+01
 0.8550433606481E+00  0.3589967113970E+01  0.8890021081708E+00  0.9461387989289E+00
 0.7668585370985E+00  0.3619619081007E+01  0.8772955366938E+00  0.1133285164837E+01
 0.6623221781281E+00  0.3645734278343E+01  0.8616113041331E+00  0.1290471385216E+01
 0.5515990473401E+00  0.3662696798316E+01  0.8428591816907E+00  0.1416499436843E+01
 0.4436460714195E+00  0.3666141115969E+01  0.8219574497258E+00  0.1513403893108E+01
 0.3450439132370E+00  0.3653596326760E+01  0.7997280599163E+00  0.1585366272444E+01
 0.2596657777857E+00  0.3624509719443E+01  0.7768351110215E+00  0.1637476913530E+01
 0.1890037938618E+00  0.3579825885012E+01  0.7537659470068E+00  0.1674748704677E+01
 0.1328179971264E+00  0.3521395753446E+01  0.7308427610049E+00  0.1701539545729E+01
 0.8981976639169E-01  0.3451432192356E+01  0.7082504023032E+00  0.1721341436327E+01
 0.5822711917432E-01  0.3372118135871E+01  0.6860690612323E+00  0.1736808514595E+01
 0.3614131977810E-01  0.3285381133219E+01  0.6643045004984E+00  0.1749897330862E+01
 0.2176245733253E-01  0.3192801205781E+01  0.6429127422028E+00  0.1762030207322E+01
 0.1348910954752E-01  0.3095605384424E+01  0.6218189080602E+00  0.1774233541838E+01
 0.9949988906686E-02  0.2994704228526E+01  0.6009308524412E+00  0.1787234041036E+01
 0.1000809009213E-01  0.2890745434325E+01  0.5801507135283E+00  0.1801514415576E+01
 0.1277076732653E-01  0.2784395777354E+01  0.5594333172724E+00  0.1817310986381E+01
 0.1761084772838E-01  0.2676558638047E+01  0.5388339051843E+00  0.1834584248863E+01
 0.2417331826364E-01  0.2567860918656E+01  0.5184068551088E+00  0.1853105665729E+01
 0.3237054430246E-01  0.2458228281072E+01  0.4981197724975E+00  0.1872592854773E+01
 0.4236523355133E-01  0.2347077408404E+01  0.4778885355122E+00  0.1892750237712E+01
 0.5452313445792E-01  0.2233538397557E+01  0.4576123132220E+00  0.1913297268283E+01
 0.6932972205724E-01  0.2116594302390E+01  0.4371848114040E+00  0.1933998218665E+01
 0.8727510886565E-01  0.1995171427594E+01  0.4164893134982E+00  0.1954682482189E+01
 0.1087142691767E+00  0.1868212209241E+01  0.3953853015752E+00  0.1975247330440E+01
 0.1337067464900E+00  0.1734754806970E+01  0.3736923162605E+00  0.1995638878435E+01
 0.1618375102986E+00  0.1594025807444E+01  0.3511726687814E+00  0.2015810893187E+01
 0.1920163735676E+00  0.1445490883829E+01  0.3275014563595E+00  0.2035681537374E+01
 0.2222623998850E+00  0.1288932104929E+01  0.3022389054665E+00  0.2055075892655E+01
 0.2494855744339E+00  0.1124667177944E+01  0.2748305545708E+00  0.2073588986115E+01
 0.2692806358684E+00  0.9537764622298E+00  0.2446114232646E+00  0.2090381137678E+01
 0.2757707486372E+00  0.7782583535793E+00  0.2108058235845E+00  0.2103926135090E+01
 0.2615589558887E+00  0.6011323495960E+00  0.1725382636680E+00  0.2111688935155E+01
 0.2178593407202E+00  0.4264315347610E+00  0.1288581770164E+00  0.2109752707434E+01
 0.1348850556433E+00  0.2590019855262E+00  0.7877740940779E-01  0.2092459295296E+01
 0.2547966143913E-02  0.1039932101760E+00  0.2130823558150E-01  0.2052183134001E+01
-0.1885218682544E+00 -0.3401829141173E-01 -0.4450803259645E-01  0.1979307658416E+01
-0.4456051478785E+00 -0.1515973905636E+00 -0.1194405094682E+00  0.1862112203677E+01
-0.7723500495498E+00 -0.2468387649694E+00 -0.2038377659413E+00  0.1687086605264E+01
-0.1167625977047E+01 -0.3202789810937E+00 -0.2975809960625E+00  0.1440499370272E+01
-0.1625448880322E+01 -0.3752487058393E+00 -0.4001395231948E+00  0.1110639944779E+01
 0.7801215133006E+00  0.3270052067464E+01  0.8100347282234E+00  0.9356857640793E+00
 0.7020414070319E+00  0.3296169529129E+01  0.7996421991478E+00  0.1122987021377E+01
 0.6087497824102E+00  0.3319348042802E+01  0.7856195767490E+00  0.1282414986585E+01
 0.5091556762833E+00  0.3334632748132E+01  0.7687576963385E+00  0.1412525060089E+01
 0.4112307390336E+00  0.3338077805937E+01  0.7498617201679E+00  0.1514770511314E+01
 0.3209897923350E+00  0.3327322234056E+01  0.7296624161511E+00  0.1592631185335E+01
 0.2421417603305E+00  0.3301663904697E+01  0.7087611435669E+00  0.1650572450678E+01
 0.1762979247994E+00  0.3261750116555E+01  0.6876096185171E+00  0.1693169392536E+01
 0.1234827107522E+00  0.3209096763965E+01  0.6665159048754E+00  0.1724549312197E+01
 0.8270896531448E-01  0.3145618380050E+01  0.6456654786941E+00  0.1748143312808E+01
 0.5246992412226E-01  0.3073269913354E+01  0.6251479768106E+00  0.1766656209479E+01
 0.3109061073754E-01  0.2993824932372E+01  0.6049831176368E+00  0.1782152692181E+01
 0.1694259015531E-01  0.2908770948389E+01  0.5851427164281E+00  0.1796181230597E+01
 0.8554648317502E-02  0.2819285811182E+01  0.5655681003276E+00  0.1809889112081E+01
 0.4658404219877E-02  0.2726256989944E+01  0.5461830869715E+00  0.1824108994084E+01
 0.4203783747119E-02  0.2630321581796E+01  0.5269050809601E+00  0.1839414585989E+01
 0.6374656696893E-02  0.2532123362500E+01  0.5076996114047E+00  0.1856128937373E+01
 0.1060949931382E-01  0.2432513600175E+01  0.4886246271788E+00  0.1874307050910E+01
 0.1660435380856E-01  0.2332075183566E+01  0.4697359144746E+00  0.1893816209588E+01
 0.2430392596520E-01  0.2230730474868E+01  0.4510068868872E+00  0.1914460182257E+01
 0.3388253872054E-01  0.2127922670963E+01  0.4323610483795E+00  0.1936018400855E+01
 0.4569849792301E-01  0.2022824183562E+01  0.4137045424616E+00  0.1958272403494E+01
 0.6021612747202E-01  0.1914467428765E+01  0.3949367171324E+00  0.1981032132196E+01
 0.7789833444285E-01  0.1801830291418E+01  0.3759457307741E+00  0.2004152220046E+01
 0.9907528958784E-01  0.1683906714407E+01  0.3565964061126E+00  0.2027530549216E+01
 0.1237927560298E+00  0.1559785033489E+01  0.3367155629213E+00  0.2051084067323E+01
 0.1516422264280E+00  0.1428739500782E+01  0.3160763501520E+00  0.2074700692952E+01
 0.1815715614578E+00  0.1290283265878E+01  0.2943709698536E+00  0.2098184385591E+01
 0.2116845430528E+00  0.1144244965365E+01  0.2711859057245E+00  0.2121183781720E+01
 0.2390438458217E+00  0.9909726718998E+00  0.2460033072100E+00  0.2143047798643E+01
 0.2594927237307E+00  0.8315387341680E+00  0.2182062948313E+00  0.2162620495202E+01
 0.2675311245794E+00  0.6678705570985E+00  0.1870803391233E+00  0.2177998246344E+01
 0.2562991793623E+00  0.5028243569594E+00  0.1518247095267E+00  0.2186235437769E+01
 0.2177296476123E+00  0.3401503775611E+00  0.1115760066973E+00  0.2183024777528E+01
 0.1429304404160E+00  0.1842809487958E+00  0.6544227881752E-01  0.2162417118302E+01
 0.2283475427283E-01  0.3984833635655E-01  0.1253661831269E-01  0.2116687874338E+01
-0.1508819653506E+00 -0.8910434734699E-01 -0.4799726325473E-01  0.2036390952745E+01
-0.3846298068993E+00 -0.1995939023982E+00 -0.1168447436006E+00  0.1910335349853E+01
-0.6816738055485E+00 -0.2899637041771E+00 -0.1943275048408E+00  0.1725945742603E+01
-0.1041299021827E+01 -0.3605850696624E+00 -0.2803768224758E+00  0.1470656839182E+01
-0.1458891022460E+01 -0.4140435870650E+00 -0.3745869274868E+00  0.1133721892952E+01
 0.7055083857467E+00  0.2952865655249E+01  0.7316748191019E+00  0.9265394850226E+00
 0.6368153763166E+00  0.2975691405505E+01  0.7225013671304E+00  0.1113922217840E+01
 0.5540568432802E+00  0.2996082732025E+01  0.7100279256414E+00  0.1275257963020E+01
 0.4650283031330E+00  0.3009679462850E+01  0.6949415635520E+00  0.1408910984511E+01
 0.3767987614505E+00  0.3012936942692E+01  0.6779471509307E+00  0.1515856672509E+01
 0.2948254806263E+00  0.3003636041923E+01  0.6596923143399E+00  0.1598979285513E+01
 0.2226060810187E+00  0.2980987280624E+01  0.6407186818760E+00  0.1662194627750E+01
 0.1618005157453E+00  0.2945406845842E+01  0.6214414815778E+00  0.1709674398768E+01
 0.1126300660125E+00  0.2898127586141E+01  0.6021515394034E+00  0.1745316056181E+01
 0.7435839244529E-01  0.2840796689649E+01  0.5830310251067E+00  0.1772470980086E+01
 0.4572320675673E-01  0.2775152847217E+01  0.5641752192015E+00  0.1793869021012E+01
 0.2525925075953E-01  0.2702813698880E+01  0.5456145980582E+00  0.1811658809366E+01
 0.1150681194976E-01  0.2625164610304E+01  0.5273342923086E+00  0.1827496100691E+01
 0.3128144382097E-02  0.2543321734631E+01  0.5092899833916E+00  0.1842636440070E+01
-0.1037091907743E-02  0.2458137351313E+01  0.4914200592038E+00  0.1858011206447E+01
-0.1947706599518E-02  0.2370228213943E+01  0.4736561085268E+00  0.1874281586899E+01
-0.3409748203309E-03  0.2280208580382E+01  0.4559735279069E+00  0.1891855195825E+01
 0.3287773488507E-02  0.2188874319828E+01  0.4384324251964E+00  0.1910878673304E+01
 0.8685643945196E-02  0.2096763416898E+01  0.4210898184433E+00  0.1931311381370E+01
 0.1583058859306E-01  0.2003795348200E+01  0.4039251933776E+00  0.1953039322179E+01
 0.2491127123170E-01  0.1909440858375E+01  0.3868704316861E+00  0.1975913196907E+01
 0.3628341359107E-01  0.1812916051771E+01  0.3698398985834E+00  0.1999773456167E+01
 0.5039707838786E-01  0.1713304318175E+01  0.3527402845688E+00  0.2024473353709E+01
 0.6769675736377E-01  0.1609636702927E+01  0.3354666970570E+00  0.2049891161585E+01
 0.8849867521532E-01  0.1500959552414E+01  0.3178916502628E+00  0.2075924286956E+01
 0.1128483071613E+00  0.1386410492006E+01  0.2998517643015E+00  0.2102459810459E+01
 0.1403605899961E+00  0.1265307363088E+01  0.2811335948060E+00  0.2129319782730E+01
 0.1700424889072E+00  0.1137201939969E+01  0.2614488896712E+00  0.2156195735508E+01
 0.2001077255145E+00  0.1001954437707E+01  0.2404124362268E+00  0.2182565361237E+01
 0.2277995869003E+00  0.8599218236080E+00  0.2175442853433E+00  0.2207543018378E+01
 0.2492369342571E+00  0.7121416681558E+00  0.1922757233477E+00  0.2229676761227E+01
 0.2593166385983E+00  0.5604415949673E+00  0.1639516491562E+00  0.2246716997804E+01
 0.2517201105236E+00  0.4074898061925E+00  0.1318419853078E+00  0.2255351014341E+01
 0.2190758937714E+00  0.2567418873554E+00  0.9516355764341E-01  0.2250933701298E+01
 0.1533258968148E+00  0.1122275600564E+00  0.5311069216566E-01  0.2227277881843E+01
 0.4632025414381E-01 -0.2189696783435E-01  0.4884657334678E-02  0.2176597215843E+01
-0.1093636487572E+00 -0.1420531647060E+00 -0.5028336344191E-01  0.2089616778348E+01
-0.3194226781751E+00 -0.2456261539730E+00 -0.1130097681136E+00  0.1955614571327E+01
-0.5868556883766E+00 -0.3311318161794E+00 -0.1835975036470E+00  0.1762807844801E+01
-0.9113603106513E+00 -0.3987516332678E+00 -0.2620223926883E+00  0.1499579166719E+01
-0.1289475495313E+01 -0.4504295220003E+00 -0.3479810086480E+00  0.1155924493044E+01
 0.6311829109210E+00  0.2638131511586E+01  0.6538628942447E+00  0.9186067900391E+00
 0.5712512907857E+00  0.2657879642813E+01  0.6458261963433E+00  0.1106014378224E+01
 0.4984004224905E+00  0.2675621375845E+01  0.6348043691265E+00  0.1268969647404E+01
 0.4194315034961E+00  0.2687534506170E+01  0.6213932111926E+00  0.1405688785761E+01
 0.3405841749650E+00  0.2690456373733E+01  0.6062081187728E+00  0.1516754041947E+01
 0.2667713686764E+00  0.2682331978758E+01  0.5898206782758E+00  0.1604545080845E+01
 0.2012452077133E+00  0.2662333767182E+01  0.5727158035132E+00  0.1672497275348E+01
 0.1456572286576E+00  0.2630702552488E+01  0.5552719645034E+00  0.1724415283500E+01
 0.1003676504572E+00  0.2588434496453E+01  0.5377604373953E+00  0.1763973926713E+01
 0.6484515609555E-01  0.2536939284336E+01  0.5203568958403E+00  0.1794433343538E+01
 0.3804231442123E-01  0.2477752781582E+01  0.5031590266983E+00  0.1818528732626E+01
 0.1868847609567E-01  0.2412337658854E+01  0.4862052342349E+00  0.1838472331027E+01
 0.5487933193244E-02  0.2341970508346E+01  0.4694916953038E+00  0.1856010245217E+01
-0.2762351182745E-02  0.2267695835701E+01  0.4529867036538E+00  0.1872494112276E+01
-0.7111143878361E-02  0.2190320561082E+01  0.4366418899472E+00  0.1888946315187E+01
-0.8422628590429E-02  0.2110432623989E+01  0.4204020053442E+00  0.1906111006070E+01
-0.7353217088210E-02  0.2028610924413E+01  0.4042515474888E+00  0.1924477086814E+01
-0.4331366511997E-02  0.1945592850905E+01  0.3882523026641E+00  0.1944279010984E+01
 0.4414044166580E-03  0.1861870514221E+01  0.3724623892777E+00  0.1965563831727E+01
 0.6977397632976E-02  0.1777360736049E+01  0.3568676320542E+00  0.1988295520033E+01
 0.1548230169878E-01  0.1691562622885E+01  0.3414089900041E+00  0.2012392143933E+01
 0.2631386031064E-01  0.1603737051369E+01  0.3260101871938E+00  0.2037749815840E+01
 0.3991442239880E-01  0.1513019534962E+01  0.3105867961002E+00  0.2064262742312E+01
 0.5671852932353E-01  0.1418495183213E+01  0.2950427469038E+00  0.2091831414900E+01
 0.7703902464013E-01  0.1319262781637E+01  0.2792603654168E+00  0.2120352206112E+01
 0.1009342233745E+00  0.1214507440002E+01  0.2630883365957E+00  0.2149682649907E+01
 0.1280587841563E+00  0.1103585746966E+01  0.2463289098951E+00  0.2179580494126E+01
 0.1574986432012E+00  0.9860789199932E+00  0.2287155160470E+00  0.2209628719777E+01
 0.1876006725743E+00  0.8618642091054E+00  0.2098929794636E+00  0.2239141983279E+01
 0.2158136746547E+00  0.7312875787162E+00  0.1894202534968E+00  0.2267013898974E+01
 0.2385551953599E+00  0.5953280435334E+00  0.1667766502638E+00  0.2291518168855E+01
 0.2511345756473E+00  0.4556891323278E+00  0.1413647437015E+00  0.2310090211798E+01
 0.2477746182547E+00  0.3148318322574E+00  0.1125212917791E+00  0.2319090211334E+01
 0.2217752005407E+00  0.1759105948703E+00  0.7953716026740E-01  0.2313580519492E+01
 0.1658553254471E+00  0.4256664841154E-01  0.4168439539287E-01  0.2287177759428E+01
 0.7268992830443E-01 -0.8148072929405E-01 -0.1758160224122E-02  0.2232058386030E+01
-0.6436314880628E-01 -0.1930571625290E+00 -0.5148406303424E-01  0.2139109607277E+01
-0.2504153254870E+00 -0.2898459765378E+00 -0.1080522620151E+00  0.1998016443635E+01
-0.4882855596193E+00 -0.3704773335674E+00 -0.1717525811967E+00  0.1797659427009E+01
-0.7780656569179E+00 -0.4349366982804E+00 -0.2426004746547E+00  0.1527187653115E+01
-0.1117274180533E+01 -0.4846171522167E+00 -0.3203782713239E+00  0.1177177598277E+01
 0.5571234738777E+00  0.2325592752298E+01  0.5765432538263E+00  0.9118062591722E+00
 0.5054091284558E+00  0.2342451181700E+01  0.5695720705184E+00  0.1099195690115E+01
 0.4419182758930E+00  0.2357668352637E+01  0.5599173340493E+00  0.1263519978131E+01
 0.3725577537090E+00  0.2367911657421E+01  0.5480938903933E+00  0.1402880821827E+01
 0.3028022722505E+00  0.2370381589523E+01  0.5346367803214E+00  0.1517537116266E+01
 0.2370363582146E+00  0.2363202468669E+01  0.5200477731260E+00  0.1609442126714E+01
 0.1782422041698E+00  0.2345547654165E+01  0.5047579791885E+00  0.1681613786080E+01
 0.1280169465689E+00  0.2317529233497E+01  0.4891092433015E+00  0.1737526649610E+01
 0.8681046192728E-01  0.2279947498171E+01  0.4733515990732E+00  0.1780644863079E+01
 0.5425559926473E-01  0.2234002625005E+01  0.4576516516734E+00  0.1814131784799E+01
 0.2949188792974E-01  0.2181041858058E+01  0.4421067557854E+00  0.1840713494877E+01
 0.1142782049827E-01  0.2122375954195E+01  0.4267607612978E+00  0.1862649126129E+01
-0.1074382097414E-02  0.2059168545954E+01  0.4116188389049E+00  0.1881760178006E+01
-0.9083389260858E-02  0.1992384763846E+01  0.3966602808277E+00  0.1899482863478E+01
-0.1353419780878E-01  0.1922777748618E+01  0.3818487158518E+00  0.1916922590723E+01
-0.1519385945973E-01  0.1850899355375E+01  0.3671411046539E+00  0.1934901196484E+01
-0.1463625383208E-01  0.1777287962502E+01  0.3525303469871E+00  0.1953984669745E+01
-0.1222224061669E-01  0.1702619642673E+01  0.3380794854490E+00  0.1974490632242E+01
-0.8101458567838E-02  0.1627339640639E+01  0.3238476412399E+00  0.1996548861194E+01
-0.2226042068806E-02  0.1551362221170E+01  0.3098272404369E+00  0.2020196709622E+01
 0.5629316185693E-02  0.1474215492455E+01  0.2959689661384E+00  0.2045415567713E+01
 0.1582870573732E-01  0.1395205947615E+01  0.2822069348757E+00  0.2072153921179E+01
 0.2881291733215E-01  0.1313522020859E+01  0.2684669916386E+00  0.2100344634168E+01
 0.4501458291114E-01  0.1228303287334E+01  0.2546635778438E+00  0.2129909245141E+01
 0.6475328131311E-01  0.1138700390295E+01  0.2406907379082E+00  0.2160743090563E+01
 0.8811273549628E-01  0.1043943502441E+01  0.2264112509613E+00  0.2192675462472E+01
 0.1148027667961E+00  0.9434226887782E+00  0.2116450942686E+00  0.2225402824466E+01
 0.1440068244009E+00  0.8367394337979E+00  0.1961492545626E+00  0.2258405337661E+01
 0.1742261322516E+00  0.7237742024144E+00  0.1796000696094E+00  0.2290844561571E+01
 0.2031371227007E+00  0.6048437614018E+00  0.1615961792285E+00  0.2321408952106E+01
 0.2274756570741E+00  0.4808476365428E+00  0.1416646608343E+00  0.2348120355844E+01
 0.2429754813541E+00  0.3533448592438E+00  0.1192640698967E+00  0.2368129247200E+01
 0.2443981884091E+00  0.2245744485188E+00  0.9379452878323E-01  0.2377505112102E+01
 0.2256904692871E+00  0.9738705267438E-01  0.6461550535514E-01  0.2371056262249E+01
 0.1802963536162E+00 -0.2494912841835E-01  0.3106944550254E-01  0.2342235425167E+01
 0.1016352006012E+00 -0.1391156016253E+00 -0.7496080316521E-02  0.2283196206120E+01
-0.1625678778079E-01 -0.2422897472127E+00 -0.5170930776923E-01  0.2184971698720E+01
-0.1780085068165E+00 -0.3323954287780E+00 -0.1020807886400E+00  0.2037592450844E+01
-0.3863222793734E+00 -0.4081339520248E+00 -0.1588912486473E+00  0.1830486852693E+01
-0.6416600277947E+00 -0.4692983981387E+00 -0.2221916884976E+00  0.1553420931828E+01
-0.9423824134456E+00 -0.5168065816309E+00 -0.2918378033640E+00  0.1197428474335E+01
 0.4833080939093E+00  0.2015008918649E+01  0.4996634099573E+00  0.9060670452106E+00
 0.4393399538462E+00  0.2029141558432E+01  0.4936963098122E+00  0.1093406359492E+01
 0.3847320734499E+00  0.2041946319048E+01  0.4853356857316E+00  0.1258880386902E+01
 0.3245806964740E+00  0.2050539062021E+01  0.4750239587773E+00  0.1400502638700E+01
 0.2636518025838E+00  0.2052465596233E+01  0.4632234866659E+00  0.1518266471915E+01
 0.2058185430127E+00  0.2046039596438E+01  0.4503716346012E+00  0.1613766165282E+01
 0.1537760944450E+00  0.2030466067425E+01  0.4368484388836E+00  0.1689659429196E+01
 0.1090303561876E+00  0.2005767174502E+01  0.4229595124406E+00  0.1749127367845E+01
 0.7207924810921E-01  0.1972582868192E+01  0.4089324293538E+00  0.1795438840917E+01
 0.4268376755288E-01  0.1931929520116E+01  0.3949226634186E+00  0.1831659722583E+01
 0.2014463891114E-01  0.1884980007538E+01  0.3810249349676E+00  0.1860497013464E+01
 0.3534243991438E-02  0.1832897634615E+01  0.3672863811943E+00  0.1884243346202E+01
-0.8134171593080E-02  0.1776730805781E+01  0.3537193321084E+00  0.1904782599553E+01
-0.1579643126859E-01  0.1717359430384E+01  0.3403126048942E+00  0.1923624811322E+01
-0.2027264238009E-01  0.1655476004381E+01  0.3270406772735E+00  0.1941950353227E+01
-0.2223095303967E-01  0.1591590140395E+01  0.3138718421480E+00  0.1960652888983E+01
-0.2216137348080E-01  0.1526195193810E+01  0.3008067685482E+00  0.1980370539107E+01
-0.2035646183333E-01  0.1459903364748E+01  0.2879093848731E+00  0.2001498747785E+01
-0.1691337292135E-01  0.1393112068653E+01  0.2752397432476E+00  0.2024244536164E+01
-0.1174743224454E-01  0.1325733029757E+01  0.2627971234186E+00  0.2048713756972E+01
-0.4611260495863E-02  0.1257323873095E+01  0.2505425262532E+00  0.2074946952539E+01
 0.4869582009079E-02  0.1187237381928E+01  0.2384213963401E+00  0.2102941684819E+01
 0.1714003895719E-01  0.1114715458954E+01  0.2263711029554E+00  0.2132667287672E+01
 0.3263835820947E-01  0.1038952203141E+01  0.2143181154636E+00  0.2164065461352E+01
 0.5170038585616E-01  0.9591491353132E+00  0.2021699072464E+00  0.2197031072542E+01
 0.7444709784639E-01  0.8745787196801E+00  0.1898051663336E+00  0.2231367409865E+01
 0.1006579282559E+00  0.7846590877422E+00  0.1770634058381E+00  0.2266713990871E+01
 0.1296309658823E+00  0.6890030967597E+00  0.1637268149681E+00  0.2302455510461E+01
 0.1600410205774E+00  0.5874815369146E+00  0.1495045137262E+00  0.2337612071470E+01
 0.1898117372862E+00  0.4803655402921E+00  0.1340354575129E+00  0.2370683922324E+01
 0.2160140258636E+00  0.3684568522150E+00  0.1168941773576E+00  0.2399463982936E+01
 0.2348152430225E+00  0.2531529509618E+00  0.9759364025112E-01  0.2420846612966E+01
 0.2415116029619E+00  0.1364596126495E+00  0.7559424424874E-01  0.2430643482012E+01
 0.2306731656439E+00  0.2092355108551E-01  0.5031934409570E-01  0.2423441258985E+01
 0.1964223556300E+00 -0.9054446043189E-01  0.2117557935515E-01  0.2392553018111E+01
 0.1328537119679E+00 -0.1949941445013E+00 -0.1242808669188E-01  0.2330115732578E+01
 0.3459672190081E-01 -0.2899098965396E+00 -0.5106263568864E-01  0.2227286974486E+01
-0.1025774259688E+00 -0.3734094839090E+00 -0.9519738339411E-01  0.2074383200003E+01
-0.2813008905973E+00 -0.4442339085786E+00 -0.1451069619974E+00  0.1861278506280E+01
-0.5023811913382E+00 -0.5019920391948E+00 -0.2008746490999E+00  0.1578231901809E+01
-0.7649129060906E+00 -0.5471878845517E+00 -0.2624201620388E+00  0.1216637691172E+01
 0.4097145571091E+00  0.1706153412756E+01  0.4231736002787E+00  0.9013278892119E+00
 0.3730875095711E+00  0.1717702027064E+01  0.4181579135580E+00  0.1088594115579E+01
 0.3269500826213E+00  0.1728193555512E+01  0.4110287337514E+00  0.1255024433684E+01
 0.2756579692375E+00  0.1735157503538E+01  0.4021631005477E+00  0.1398564849438E+01
 0.2233170266034E+00  0.1736468564391E+01  0.3919571240394E+00  0.1518991406234E+01
 0.1733060456907E+00  0.1730636105112E+01  0.3807884358347E+00  0.1617597784810E+01
 0.1280215622703E+00  0.1716920899797E+01  0.3689884979118E+00  0.1696733418907E+01
 0.8884889695802E-01  0.1695287265737E+01  0.3568272378561E+00  0.1759321778189E+01
 0.5629914376476E-01  0.1666245399522E+01  0.3445089137910E+00  0.1808454240404E+01
 0.3023006872393E-01  0.1630651022539E+01  0.3321762232023E+00  0.1847102357388E+01
 0.1008021968308E-01  0.1589516403138E+01  0.3199193293315E+00  0.1877947923840E+01
-0.4928719633442E-02  0.1543862681072E+01  0.3077867968740E+00  0.1903306647812E+01
-0.1563975860483E-01  0.1494622210141E+01  0.2957964947150E+00  0.1925113623321E+01
-0.2285821320449E-01  0.1442585386023E+01  0.2839454387948E+00  0.1944942784009E+01
-0.2728901703185E-01  0.1388378550875E+01  0.2722179108249E+00  0.1964041453737E+01
-0.2950025550601E-01  0.1332463932045E+01  0.2605927391910E+00  0.1983368845518E+01
-0.2989704360178E-01  0.1275285999161E+01  0.2490777948235E+00  0.2003629645611E+01
-0.2870300196838E-01  0.1217390824532E+01  0.2377375680553E+00  0.2025291182981E+01
-0.2596217327022E-01  0.1159127104708E+01  0.2266329896646E+00  0.2048631792151E+01
-0.2155186731514E-01  0.1100404007324E+01  0.2157704312170E+00  0.2073820675191E+01
-0.1520037115060E-01  0.1040809115481E+01  0.2051217519227E+00  0.2100953245830E+01
-0.6519251849900E-02  0.9797420706518E+00  0.1946445666608E+00  0.2130072855870E+01
 0.4945799956225E-02  0.9164986401203E+00  0.1842888907614E+00  0.2161183254502E+01
 0.1964557341940E-01  0.8503273061660E+00  0.1739945785098E+00  0.2194245725753E+01
 0.3794101118466E-01  0.7804792820996E+00  0.1636840610959E+00  0.2229155790819E+01
 0.6000132772372E-01  0.7062664348603E+00  0.1532535548005E+00  0.2265693844824E+01
 0.8568890803661E-01  0.6271296610407E+00  0.1425637159398E+00  0.2303447984478E+01
 0.1144321352262E+00  0.5426848037114E+00  0.1314233897459E+00  0.2341716204033E+01
 0.1450967411009E+00  0.4527811694558E+00  0.1195755838932E+00  0.2379390207954E+01
 0.1758708972224E+00  0.3576295780143E+00  0.1067000966373E+00  0.2414800030237E+01
 0.2041749123222E+00  0.2579181121751E+00  0.9241860627660E-01  0.2445532733602E+01
 0.2266170082111E+00  0.1548684514582E+00  0.7629709307077E-01  0.2468254043994E+01
 0.2390232366924E+00  0.5024448531024E-01  0.5785354526262E-01  0.2478547373219E+01
 0.2365655258617E+00 -0.5370963102844E-01  0.3657117951161E-01  0.2470804763784E+01
 0.2140038413812E+00 -0.1544257148879E+00  0.1191562547622E-01  0.2438217123515E+01
 0.1660490863046E+00 -0.2492930732838E+00 -0.1664879764392E-01  0.2372904567585E+01
 0.8785381229488E-01 -0.3360655549573E+00 -0.4964234927220E-01  0.2266124188560E+01
-0.2447645094450E-01 -0.4130176399439E+00 -0.8749881948151E-01  0.2108421389936E+01
-0.1735381064321E+00 -0.4789072907525E+00 -0.1304890813814E+00  0.1890025689753E+01
-0.3604619293862E+00 -0.5331688522037E+00 -0.1787261589812E+00  0.1601585284918E+01
-0.5849917691998E+00 -0.5759419261729E+00 -0.2321867425344E+00  0.1234776663033E+01
 0.3363205120513E+00  0.1398811323202E+01  0.3470263722218E+00  0.8975362984969E+00
 0.3066895245868E+00  0.1407897109596E+01  0.3429173319465E+00  0.1084713768565E+01
 0.2686694217972E+00  0.1416161657178E+01  0.3369662208162E+00  0.1251928258254E+01
 0.2259336632152E+00  0.1421518801350E+01  0.3294904978228E+00  0.1397074603048E+01
 0.1819696208314E+00  0.1422157331218E+01  0.3208253951906E+00  0.1519752080370E+01
 0.1396779481573E+00  0.1416786039937E+01  0.3112928022574E+00  0.1621004657269E+01
 0.1011489048466E+00  0.1404740310852E+01  0.3011778476276E+00  0.1702920735302E+01
 0.6762401060641E-01  0.1385952929940E+01  0.2907153924414E+00  0.1768200826538E+01
 0.3959856754673E-01  0.1360830366331E+01  0.2800857909491E+00  0.1819778282680E+01
 0.1700011102044E-01  0.1330088171577E+01  0.2694176605340E+00  0.1860536552754E+01
-0.6158114280672E-03  0.1294590858696E+01  0.2587950133100E+00  0.1893129319433E+01
-0.1389178668587E-01  0.1255223042281E+01  0.2482662548185E+00  0.1919887556036E+01
-0.2353435326229E-01  0.1212801233563E+01  0.2378533796044E+00  0.1942788118155E+01
-0.3022115436250E-01  0.1168023270414E+01  0.2275604266013E+00  0.1963459736712E+01
-0.3454227799029E-01  0.1121444994713E+01  0.2173805465837E+00  0.1983208818218E+01
-0.3696508175310E-01  0.1073477020354E+01  0.2073023908092E+00  0.2003053552526E+01
-0.3780904213342E-01  0.1024511676111E+01  0.1973405297360E+00  0.2023759138073E+01
-0.3722830726930E-01  0.9750269672730E+00  0.1875597347956E+00  0.2045858354468E+01
-0.3521321595565E-01  0.9253220938192E+00  0.1780217782254E+00  0.2069694526818E+01
-0.3160195497035E-01  0.8753036640657E+00  0.1687403443335E+00  0.2095494814922E+01
-0.2609645679022E-01  0.8245896362163E+00  0.1596986382649E+00  0.2123405124279E+01
-0.1829105655037E-01  0.7726270353762E+00  0.1508671980133E+00  0.2153511331390E+01
-0.7717418133582E-02  0.7187658286755E+00  0.1422096842275E+00  0.2185849691438E+01
 0.6094037271556E-02  0.6623086724614E+00  0.1336805439386E+00  0.2220400803417E+01
 0.2353737298359E-01  0.6025552534794E+00  0.1252185271585E+00  0.2257062500170E+01
 0.4484005442575E-01  0.5388540368612E+00  0.1167388199969E+00  0.2295596193819E+01
 0.6995954954761E-01  0.4706637007871E+00  0.1081246516781E+00  0.2335545143544E+01
 0.9846868715683E-01  0.3975953768697E+00  0.9921281428369E-01  0.2376130631041E+01
 0.1294396443884E+00  0.3194662663694E+00  0.8978118348940E-01  0.2416130201741E+01
 0.1613404225040E+00  0.2364139251526E+00  0.7955087071671E-01  0.2453722462955E+01
 0.1919531663769E+00  0.1489990607035E+00  0.6819044643220E-01  0.2486311643937E+01
 0.2183329404800E+00  0.5825562598764E-01  0.5531771411783E-01  0.2510360953778E+01
 0.2368310159991E+00 -0.3430111522143E-01  0.4050598075913E-01  0.2521252076096E+01
 0.2432022857350E+00 -0.1267275114872E+00  0.2329495519667E-01  0.2513204784305E+01
 0.2328093437892E+00 -0.2167845677196E+00  0.3204955261690E-02  0.2479299707118E+01
 0.2009303385728E+00 -0.3021766644574E+00 -0.2024926547866E-01  0.2411634820642E+01
 0.1431835828085E+00 -0.3808961536196E+00 -0.4754251487066E-01  0.2301539424718E+01
 0.5595676416343E-01 -0.4513449605078E+00 -0.7907764044722E-01  0.2139733851902E+01
-0.6333656992042E-01 -0.5122816424186E+00 -0.1151236441833E+00  0.1916722889626E+01
-0.2161315429687E+00 -0.5629755698650E+00 -0.1558214248887E+00  0.1623455747945E+01
-0.4027557144622E+00 -0.6032412243837E+00 -0.2011993907673E+00  0.1251825997055E+01
 0.2631035378720E+00  0.1092777561309E+01  0.2711762238771E+00  0.8946478615852E+00
 0.2401788003359E+00  0.1099502489337E+01  0.2679362619272E+00  0.1081726820235E+01
 0.2099779691430E+00  0.1105613510565E+01  0.2631182998625E+00  0.1249570898666E+01
 0.1755404728672E+00  0.1109384329214E+01  0.2569849642455E+00  0.1396036732090E+01
 0.1397704369867E+00  0.1109304810393E+01  0.2498150531985E+00  0.1520581252388E+01
 0.1051052728296E+00  0.1104285125567E+01  0.2418780832837E+00  0.1624043407216E+01
 0.7332417819474E-01  0.1093749881315E+01  0.2334148153802E+00  0.1708293704929E+01
 0.4550663474874E-01  0.1077621723357E+01  0.2246256749684E+00  0.1775843109535E+01
 0.2210834169398E-01  0.1056225241757E+01  0.2156667199039E+00  0.1829487493009E+01
 0.3103703856756E-02  0.1030153585810E+01  0.2066514610127E+00  0.1872030813361E+01
-0.1185293123860E-01  0.1000135164525E+01  0.1976564496025E+00  0.1906098403502E+01
-0.2328071297854E-01  0.9669236710505E+00  0.1887285944267E+00  0.1934030949786E+01
-0.3175666208164E-01  0.9312206543281E+00  0.1798928011299E+00  0.1957839156103E+01
-0.3783380137784E-01  0.8936293224768E+00  0.1711591067703E+00  0.1979198251404E+01
-0.4198811339693E-01  0.8546316501488E+00  0.1625287097722E+00  0.1999466052285E+01
-0.4458594472336E-01  0.8145832243025E+00  0.1539994582106E+00  0.2019712953887E+01
-0.4586063892195E-01  0.7738215498575E+00  0.1455921843566E+00  0.2040758226505E+01
-0.4589645845801E-01  0.7327549496302E+00  0.1373717002814E+00  0.2063193252502E+01
-0.4462953144448E-01  0.6916324928723E+00  0.1294005942138E+00  0.2087419685350E+01
-0.4185796645387E-01  0.6503582805209E+00  0.1217000646269E+00  0.2113717034811E+01
-0.3725560712627E-01  0.6085810856912E+00  0.1142650974157E+00  0.2142277228521E+01
-0.3039676510124E-01  0.5657958591460E+00  0.1070798204046E+00  0.2173225426901E+01
-0.2079501932946E-01  0.5214071252900E+00  0.1001224226841E+00  0.2206628626107E+01
-0.7956499728072E-02  0.4747715522816E+00  0.9336301190192E-01  0.2242486768138E+01
 0.8553107876377E-02  0.4252361967057E+00  0.8675786220921E-01  0.2280702149658E+01
 0.2902846462210E-01  0.3721835750172E+00  0.8024240912357E-01  0.2321021833993E+01
 0.5353297379604E-01  0.3150856576466E+00  0.7372372738709E-01  0.2362951760689E+01
 0.8179654395178E-01  0.2535420041677E+00  0.6706771062328E-01  0.2405647541942E+01
 0.1131115996169E+00  0.1873283498714E+00  0.6008799079304E-01  0.2447787790654E+01
 0.1462395054685E+00  0.1164977082358E+00  0.5254744352387E-01  0.2487419090137E+01
 0.1793351848015E+00  0.4147163579432E-01  0.4416136477721E-01  0.2521785716190E+01
 0.2099058209917E+00 -0.3691368891415E-01  0.3459842693107E-01  0.2547173191095E+01
 0.2348240857307E+00 -0.1173970732244E+00  0.2348540285122E-01  0.2558785327127E+01
 0.2504120180230E+00 -0.1983332950453E+00  0.1041574475075E-01  0.2550688030762E+01
 0.2526059142404E+00 -0.2778010629752E+00 -0.5039029822047E-02  0.2515858954386E+01
 0.2372110372116E+00 -0.3537994942787E+00 -0.2331769176089E-01  0.2446364721634E+01
 0.2002654003328E+00 -0.4245345127044E+00 -0.4485382314271E-01  0.2333578009708E+01
 0.1383977042664E+00 -0.4885128111646E+00 -0.7002302242305E-01  0.2168342926932E+01
 0.4901175522484E-01 -0.5444818001173E+00 -0.9909401045511E-01  0.1941367736103E+01
-0.6961697691476E-01 -0.5915544043259E+00 -0.1322342782186E+00  0.1643826451082E+01
-0.2183499880157E+00 -0.6292507625471E+00 -0.1695201526386E+00  0.1267774278883E+01
 0.1900411916099E+00  0.7878552447966E+00  0.1955792901957E+00  0.8926256797219E+00
 0.1735841225374E+00  0.7923031792822E+00  0.1931774632425E+00  0.1079601126026E+01
 0.1509559956796E+00  0.7963215051768E+00  0.1894555029944E+00  0.1247934513285E+01
 0.1246015881031E+00  0.7985236450227E+00  0.1846250493763E+00  0.1395454646989E+01
 0.9687112707188E-01  0.7976893457910E+00  0.1789120972386E+00  0.1521505671715E+01
 0.6975198606483E-01  0.7929309428605E+00  0.1725365883561E+00  0.1626761158610E+01
 0.4470948542864E-01  0.7837734925625E+00  0.1656965980673E+00  0.1712913352543E+01
 0.2264689287818E-01  0.7701466644252E+00  0.1585587138234E+00  0.1782315810303E+01
 0.3961000291787E-02  0.7523111997781E+00  0.1512544422678E+00  0.1837648159042E+01
-0.1134599737499E-01  0.7307529174207E+00  0.1438813861531E+00  0.1881645327102E+01
-0.2353650478632E-01  0.7060743577748E+00  0.1365075726318E+00  0.1916906238095E+01
-0.3301704628803E-01  0.6789035515297E+00  0.1291773029732E+00  0.1945777650857E+01
-0.4024149953611E-01  0.6498283344508E+00  0.1219173687996E+00  0.1970297554699E+01
-0.4564129980419E-01  0.6193559413290E+00  0.1147429300148E+00  0.1992180114202E+01
-0.4957929969803E-01  0.5878919247413E+00  0.1076625266130E+00  0.2012827103920E+01
-0.5232083055473E-01  0.5557341506012E+00  0.1006826655096E+00  0.2033354222717E+01
-0.5401282144152E-01  0.5231631514700E+00  0.9383006740387E-01  0.2054628066946E+01
-0.5466936998720E-01  0.4905162782184E+00  0.8716938294517E-01  0.2077291430496E+01
-0.5417200964832E-01  0.4579920041351E+00  0.8076400010083E-01  0.2101797340708E+01
-0.5227801252274E-01  0.4254920655531E+00  0.7464281171834E-01  0.2128471856092E+01
-0.4863172760084E-01  0.3926965558569E+00  0.6881296667661E-01  0.2157548372620E+01
-0.4278513926522E-01  0.3591489642283E+00  0.6327276593546E-01  0.2189188114838E+01
-0.3423033419760E-01  0.3243088263013E+00  0.5801569928524E-01  0.2223487188224E+01
-0.2244445878290E-01  0.2875868083744E+00  0.5302847070849E-01  0.2260465178322E+01
-0.6946788480506E-02  0.2483764779711E+00  0.4828593861764E-01  0.2300031444866E+01
 0.1263233157785E-01  0.2060922616527E+00  0.4374491929796E-01  0.2341923979303E+01
 0.3647175478687E-01  0.1602155746018E+00  0.3933746646391E-01  0.2385619736670E+01
 0.6446958231989E-01  0.1103284991443E+00  0.3495961681379E-01  0.2430220610943E+01
 0.9615065598367E-01  0.5615725653448E-01  0.3046158295754E-01  0.2474322341585E+01
 0.1305816859458E+00 -0.2339348276139E-02  0.2564846791612E-01  0.2515859384800E+01
 0.1663001841431E+00 -0.6488896071540E-01  0.2028224498777E-01  0.2551938774847E+01
 0.2012705107860E+00 -0.1308617227536E+00  0.1408175781630E-01  0.2578692039883E+01
 0.2328842289021E+00 -0.1992551698931E+00  0.6725811902021E-02  0.2591166701862E+01
 0.2580181526691E+00 -0.2687209341542E+00 -0.2140556328929E-02  0.2583289922148E+01
 0.2731593166262E+00 -0.3376462120431E+00 -0.1289737927555E-01  0.2547939982045E+01
 0.2746083059868E+00 -0.4043086659493E+00 -0.2594007237905E-01  0.2477139902065E+01
 0.2587866162448E+00 -0.4671083154380E+00 -0.4166434045948E-01  0.2362275938859E+01
 0.2225318785853E+00 -0.5246394279991E+00 -0.6042151078310E-01  0.2194267372209E+01
 0.1632228095367E+00 -0.5756298839790E+00 -0.8248141611753E-01  0.1963960811896E+01
 0.7885627376660E-01 -0.6190432162667E+00 -0.1080373901099E+00  0.1662687904401E+01
-0.3192676431046E-01 -0.6541287251345E+00 -0.1372110999336E+00  0.1282617111807E+01
 0.1171110399151E+00  0.4838542778886E+00  0.1201930653518E+00  0.8914398988001E+00
 0.1069310362889E+00  0.4860919099904E+00  0.1186045910232E+00  0.1078310606288E+01
 0.9167757857701E-01  0.4880659367506E+00  0.1159487047933E+00  0.1247004533099E+01
 0.7323237482587E-01  0.4887132192385E+00  0.1123891204876E+00  0.1395331028972E+01
 0.5341564865269E-01  0.4870940335117E+00  0.1081019380437E+00  0.1522547191725E+01
 0.3377600567602E-01  0.4825229557602E+00  0.1032597938259E+00  0.1629196799739E+01
 0.1546337065528E-01  0.4746339888349E+00  0.9801947335864E-01  0.1716830537381E+01
-0.8060592454689E-03  0.4633773384621E+00  0.9251425722190E-01  0.1787675514714E+01
-0.1470974535452E-01  0.4489644321409E+00  0.8685093865145E-01  0.1844316760396E+01
-0.2623322144509E-01  0.4317861820191E+00  0.8111059332344E-01  0.1889432044406E+01
-0.3556855831236E-01  0.4123279291125E+00  0.7535187528285E-01  0.1925597567157E+01
-0.4301884212224E-01  0.3910967121418E+00  0.6961557504127E-01  0.1955164100018E+01
-0.4892039740728E-01  0.3685680199136E+00  0.6392952545388E-01  0.1980191503124E+01
-0.5358588690795E-01  0.3451522889209E+00  0.5831328127152E-01  0.2002425964257E+01
-0.5726609239675E-01  0.3211767583576E+00  0.5278213397868E-01  0.2023305981314E+01
-0.6012551298749E-01  0.2968795108080E+00  0.4735080026968E-01  0.2043985571137E+01
-0.6222455896194E-01  0.2724824551804E+00  0.4205157987031E-01  0.2065371668430E+01
-0.6350702370531E-01  0.2482510051222E+00  0.3694879683397E-01  0.2088151003146E+01
-0.6379961410328E-01  0.2243327613265E+00  0.3210662992308E-01  0.2112820771133E+01
-0.6281824168694E-01  0.2006273597134E+00  0.2756182401599E-01  0.2139747605028E+01
-0.6017672038339E-01  0.1768468223716E+00  0.2333402074535E-01  0.2169201733937E+01
-0.5540292871979E-01  0.1525839082254E+00  0.1943619619074E-01  0.2201377238717E+01
-0.4796474845204E-01  0.1273537795900E+00  0.1587780646420E-01  0.2236397816380E+01
-0.3730651507258E-01  0.1006213234225E+00  0.1266296185868E-01  0.2274303234850E+01
-0.2289597114019E-01  0.7182611423506E-01  0.9786028764797E-02  0.2315012907121E+01
-0.4281883539139E-02  0.4041287822674E-01  0.7226199045200E-02  0.2358261588481E+01
 0.1883818121244E-01  0.5869392982028E-02  0.4941514912528E-02  0.2403506290710E+01
 0.4654010896187E-01 -0.3224458957399E-01  0.2859103920182E-02  0.2449807921239E+01
 0.7859177657263E-01 -0.7425906009518E-01  0.8665433084042E-03  0.2495696117716E+01
 0.1143758581464E+00 -0.1203175342257E+00 -0.1188335233562E-02  0.2539013529787E+01
 0.1528214385957E+00 -0.1703053700389E+00 -0.3496786340747E-02  0.2576752529884E+01
 0.1923552925060E+00 -0.2238063903988E+00 -0.6290219672293E-02  0.2604913412317E+01
 0.2308870822084E+00 -0.2800811365931E+00 -0.9838811023554E-02  0.2618407136772E+01
 0.2658397443521E+00 -0.3380774222146E+00 -0.1444753578779E-01  0.2611034602709E+01
 0.2942339936550E+00 -0.3964842315091E+00 -0.2045004787554E-01  0.2575575401983E+01
 0.3128417253336E+00 -0.4538456541289E+00 -0.2820078617928E-01  0.2503994369746E+01
 0.3184404086955E+00 -0.5087412882146E+00 -0.3806017647096E-01  0.2387660900890E+01
 0.3080520754871E+00 -0.5598403909595E+00 -0.5035766384488E-01  0.2217522928607E+01
 0.2790180998322E+00 -0.6058453871778E+00 -0.6536545844314E-01  0.1984505387549E+01
 0.2290633946729E+00 -0.6455757733334E+00 -0.8330247697339E-01  0.1680037045517E+01
 0.1563561520529E+00 -0.6780271658698E+00 -0.1043342043181E+00  0.1296356320500E+01
 0.4429067897087E-01  0.1805900861766E+00  0.4497615369970E-01  0.8910673288512E+00
 0.4024251459531E-01  0.1806676911537E+00  0.4418204180816E-01  0.1077835004298E+01
 0.3221184070943E-01  0.1806335648782E+00  0.4256908175185E-01  0.1246769763819E+01
 0.2154188369220E-01  0.1797352480876E+00  0.4025542695580E-01  0.1395668361215E+01
 0.9541666583860E-02  0.1773060277517E+00  0.3736953942395E-01  0.1523723645471E+01
-0.2669798009630E-02  0.1728624267692E+00  0.3403852625913E-01  0.1631382000023E+01
-0.1425870988507E-01  0.1661536694449E+00  0.3037899236465E-01  0.1720086887512E+01
-0.2470406418385E-01  0.1571608208208E+00  0.2649135172214E-01  0.1791968902537E+01
-0.3376941272891E-01  0.1460573103319E+00  0.2245757985525E-01  0.1849540351878E+01
-0.4144020551128E-01  0.1331489800785E+00  0.1834175518676E-01  0.1895434773319E+01
-0.4784848184681E-01  0.1188109706507E+00  0.1419249797226E-01  0.1932210694310E+01
-0.5320134518957E-01  0.1034332219523E+00  0.1004637550224E-01  0.1962222105393E+01
-0.5772220957163E-01  0.8738015511587E-01  0.5931589197237E-02  0.1987546262368E+01
-0.6160740073711E-01  0.7096492668814E-01  0.1871505218095E-02  0.2009955008384E+01
-0.6499664519819E-01  0.5443510736044E-01 -0.2112307599028E-02  0.2030916522952E+01
-0.6795390107490E-01  0.3796748866341E-01 -0.5997282571664E-02  0.2051616097078E+01
-0.7045309983130E-01  0.2172416685290E-01 -0.9745786740903E-02  0.2072993822435E+01
-0.7236773244024E-01  0.5897972842747E-02 -0.1329395211759E-01  0.2095772654344E+01
-0.7346962134820E-01 -0.9414438755081E-02 -0.1657681226767E-01  0.2120486537045E+01
-0.7343305786372E-01 -0.2431512209871E-01 -0.1954963628380E-01  0.2147536546483E+01
-0.7184067744964E-01 -0.3905938344627E-01 -0.2218001250969E-01  0.2177225028209E+01
-0.6819503247336E-01 -0.5400430369676E-01 -0.2443986759821E-01  0.2209775709712E+01
-0.6193782079836E-01 -0.6957826193622E-01 -0.2630321693886E-01  0.2245338448980E+01
-0.5247765325685E-01 -0.8626161816221E-01 -0.2774785469729E-01  0.2283973931131E+01
-0.3922671118360E-01 -0.1045688475267E+00 -0.2875911217061E-01  0.2325614940742E+01
-0.2164686932203E-01 -0.1250258994470E+00 -0.2933455419093E-01  0.2369999305429E+01
 0.6945906665153E-03 -0.1481408484655E+00 -0.2948925199921E-01  0.2416573735560E+01
 0.2805940991046E-01 -0.1743799940058E+00 -0.2926411725515E-01  0.2464371552632E+01
 0.6046763145935E-01 -0.2041348554637E+00 -0.2873344522902E-01  0.2511873685737E+01
 0.9762730210367E-01 -0.2376578752550E+00 -0.2800611504759E-01  0.2556851693264E+01
 0.1388674872084E+00 -0.2749992445389E+00 -0.2722635187181E-01  0.2596205817657E+01
 0.1830831128946E+00 -0.3159628953722E+00 -0.2657595689154E-01  0.2625827194752E+01
 0.2287031879306E+00 -0.3600765950354E+00 -0.2627468181248E-01  0.2640508536346E+01
 0.2736920432709E+00 -0.4065848776844E+00 -0.2657856727875E-01  0.2633934934051E+01
 0.3155928642447E+00 -0.4544745062021E+00 -0.2777632880539E-01  0.2598785726800E+01
 0.3516321731397E+00 -0.5025478709701E+00 -0.3018314001586E-01  0.2526951204052E+01
 0.3789237407898E+00 -0.5495541821708E+00 -0.3412608878471E-01  0.2409752972217E+01
 0.3946559036275E+00 -0.5942290433479E+00 -0.3991462853885E-01  0.2238122637928E+01
 0.3961226719963E+00 -0.6352453281821E+00 -0.4782453194982E-01  0.2003007120398E+01
 0.3807795720635E+00 -0.6712820513350E+00 -0.5810049672006E-01  0.1695876479730E+01
 0.3463364175460E+00 -0.7010926240341E+00 -0.7095124235487E-01  0.1308999276640E+01
-0.2844225445249E-01 -0.1221175284503E+00 -0.3011195702926E-01  0.8914911410445E+00
-0.2646045521221E-01 -0.1241654915727E+00 -0.3012518980589E-01  0.1078159688671E+01
-0.2737594512381E-01 -0.1261837074276E+00 -0.3071193096792E-01  0.1247222451944E+01
-0.3036577780027E-01 -0.1286234629416E+00 -0.3179784862220E-01  0.1396469328097E+01
-0.3461813172689E-01 -0.1318841601084E+00 -0.3330045886328E-01  0.1525049519756E+01
-0.3943661263232E-01 -0.1362477496038E+00 -0.3513687297080E-01  0.1633342006386E+01
-0.4430386090068E-01 -0.1418453500766E+00 -0.3722984275023E-01  0.1722715544853E+01
-0.4889989826756E-01 -0.1486575440803E+00 -0.3951148905834E-01  0.1795233310779E+01
-0.5308305119476E-01 -0.1565405788721E+00 -0.4192472663810E-01  0.1853356887385E+01
-0.5684773223062E-01 -0.1652663727042E+00 -0.4442282164891E-01  0.1899689273389E+01
-0.6027367225348E-01 -0.1745647275083E+00 -0.4696768065222E-01  0.1936777399238E+01
-0.6347764062905E-01 -0.1841598293527E+00 -0.4952749473437E-01  0.1966978650397E+01
-0.6657371143838E-01 -0.1937972926765E+00 -0.5207420159895E-01  0.1992383930654E+01
-0.6964380174301E-01 -0.2032615202790E+00 -0.5458106521772E-01  0.2014784796082E+01
-0.7271745241971E-01 -0.2123855335271E+00 -0.5702059803904E-01  0.2035672217159E+01
-0.7575841480358E-01 -0.2210548501146E+00 -0.5936265386821E-01  0.2056255667130E+01
-0.7865429691896E-01 -0.2291679439576E+00 -0.6156444909270E-01  0.2077501054991E+01
-0.8120842932004E-01 -0.2366048984639E+00 -0.6356266650394E-01  0.2100159655959E+01
-0.8313788217883E-01 -0.2433198654906E+00 -0.6529155050680E-01  0.2124794559142E+01
-0.8407535502358E-01 -0.2494160140626E+00 -0.6669827481112E-01  0.2151835011434E+01
-0.8357208439895E-01 -0.2551150766234E+00 -0.6773743321383E-01  0.2181610673932E+01
-0.8110466268829E-01 -0.2607228918601E+00 -0.6836551192841E-01  0.2214371691265E+01
-0.7608739224651E-01 -0.2666102874624E+00 -0.6853953696310E-01  0.2250292706553E+01
-0.6789120102130E-01 -0.2732019683187E+00 -0.6821863488454E-01  0.2289456203910E+01
-0.5586982430228E-01 -0.2809659933091E+00 -0.6736716452613E-01  0.2331811917595E+01
-0.3939425118650E-01 -0.2903992417688E+00 -0.6595869957393E-01  0.2377107440872E+01
-0.1789623593345E-01 -0.3020069018902E+00 -0.6398062851811E-01  0.2424789324045E+01
 0.9078361190213E-02 -0.3162838450427E+00 -0.6144109768605E-01  0.2473877273916E+01
 0.4180944031451E-01 -0.3336870253183E+00 -0.5837551787062E-01  0.2522821458562E+01
 0.8033873658411E-01 -0.3545829441636E+00 -0.5484884233320E-01  0.2569343459482E+01
 0.1244033184978E+00 -0.3791924675384E+00 -0.5095783056744E-01  0.2610273995593E+01
 0.1733727489578E+00 -0.4075453244879E+00 -0.4683451580391E-01  0.2641416714760E+01
 0.2261989204950E+00 -0.4394409144165E+00 -0.4264839941982E-01  0.2657463431969E+01
 0.2813869176667E+00 -0.4744224737807E+00 -0.3860711179809E-01  0.2651992437841E+01
 0.3369969984669E+00 -0.5117733528730E+00 -0.3495527140209E-01  0.2617579612076E+01
 0.3907006300047E+00 -0.5505500376402E+00 -0.3196988200351E-01  0.2546022996523E+01
 0.4399354157505E+00 -0.5896656254902E+00 -0.2994604239416E-01  0.2428565034422E+01
 0.4820435468915E+00 -0.6279168838555E+00 -0.2917466782752E-01  0.2256076968205E+01
 0.5142633013606E+00 -0.6639444458887E+00 -0.2993622935169E-01  0.2019473734799E+01
 0.5337793731050E+00 -0.6962885584968E+00 -0.3250183756267E-01  0.1710213844455E+01
 0.5378480894755E+00 -0.7234667058341E+00 -0.3712372382491E-01  0.1320558323265E+01
-0.1011100785544E+00 -0.4244454422711E+00 -0.1051111057314E+00  0.8927006344534E+00
-0.9315834689820E-01 -0.4285998773198E+00 -0.1043516463986E+00  0.1079275498057E+01
-0.8702335470977E-01 -0.4325900608025E+00 -0.1039226846510E+00  0.1248358324991E+01
-0.8239017865986E-01 -0.4365725598754E+00 -0.1037925492537E+00  0.1397737104871E+01
-0.7893479015437E-01 -0.4406833641964E+00 -0.1039236324187E+00  0.1526536454466E+01
-0.7637870700042E-01 -0.4450032728029E+00 -0.1042763975145E+00  0.1635096241214E+01
-0.7452118152784E-01 -0.4495408754416E+00 -0.1048124129557E+00  0.1724741731754E+01
-0.7324713533434E-01 -0.4542334747197E+00 -0.1054961235828E+00  0.1797497168302E+01
-0.7251546537892E-01 -0.4589614972303E+00 -0.1062953941058E+00  0.1855795475116E+01
-0.7233559800723E-01 -0.4635697881486E+00 -0.1071810788283E+00  0.1902223335250E+01
-0.7274012831162E-01 -0.4678896230498E+00 -0.1081259518835E+00  0.1939322879732E+01
-0.7375928032602E-01 -0.4717573658200E+00 -0.1091033308550E+00  0.1969455750686E+01
-0.7540019453130E-01 -0.4750280015633E+00 -0.1100856408593E+00  0.1994723266600E+01
-0.7763170426980E-01 -0.4775836770342E+00 -0.1110430779155E+00  0.2016931050278E+01
-0.8037381030265E-01 -0.4793385785637E+00 -0.1119424794413E+00  0.2037586068629E+01
-0.8349038373253E-01 -0.4802411129443E+00 -0.1127463010154E+00  0.2057914834463E+01
-0.8678295659875E-01 -0.4802506756294E+00 -0.1134067281355E+00  0.2078901601520E+01
-0.8998497891605E-01 -0.4793202882562E+00 -0.1138610551311E+00  0.2101317898247E+01
-0.9275910174619E-01 -0.4774545505900E+00 -0.1140427321666E+00  0.2125748199194E+01
-0.9469676678148E-01 -0.4747569937764E+00 -0.1138907538087E+00  0.2152643520693E+01
-0.9531803414349E-01 -0.4714146976006E+00 -0.1133465480378E+00  0.2182355949351E+01
-0.9407351158473E-01 -0.4676809611215E+00 -0.1123508962154E+00  0.2215158776286E+01
-0.9034968955374E-01 -0.4638676735517E+00 -0.1108434742728E+00  0.2251250071332E+01
-0.8347884574039E-01 -0.4603425670245E+00 -0.1087642841737E+00  0.2290735091856E+01
-0.7275457029000E-01 -0.4575262367481E+00 -0.1060561629880E+00  0.2333584286583E+01
-0.5745433771278E-01 -0.4558859568397E+00 -0.1026680604404E+00  0.2379562002621E+01
-0.3687063083122E-01 -0.4559242674812E+00 -0.9855898113113E-01  0.2428125172755E+01
-0.1035190965737E-01 -0.4581658724983E+00 -0.9370355782743E-01  0.2478294342237E+01
 0.2264785753383E-01 -0.4631356224004E+00 -0.8809755428607E-01  0.2528507370212E+01
 0.6251139356879E-01 -0.4713177471229E+00 -0.8176127192916E-01  0.2576457404253E+01
 0.1093915433018E+00 -0.4831084202106E+00 -0.7474337649551E-01  0.2618928472395E+01
 0.1631399217139E+00 -0.4987682451628E+00 -0.6712566569002E-01  0.2651658305142E+01
 0.2232373238278E+00 -0.5183730167909E+00 -0.5902713947219E-01  0.2669254667662E+01
 0.2887331704943E+00 -0.5417682651718E+00 -0.5060701968961E-01  0.2665197171226E+01
 0.3582052067959E+00 -0.5685356506562E+00 -0.4206608939889E-01  0.2631953933476E+01
 0.4297669634425E+00 -0.5979854299415E+00 -0.3364369380113E-01  0.2561212057036E+01
 0.5011742055332E+00 -0.6291928988306E+00 -0.2560373904099E-01  0.2444102953731E+01
 0.5699156702388E+00 -0.6610139505579E+00 -0.1821965633532E-01  0.2271393784766E+01
 0.6331668297840E+00 -0.6920554282457E+00 -0.1177771986784E-01  0.2033914691463E+01
 0.6878361621020E+00 -0.7207186766755E+00 -0.6576503012703E-02  0.1723061273449E+01
 0.7307224628605E+00 -0.7452866446216E+00 -0.2912836395623E-02  0.1331050282067E+01
-0.1737350668965E+00 -0.7265681992267E+00 -0.1800606559078E+00  0.8946910668275E+00
-0.1598326153802E+00 -0.7328250570676E+00 -0.1785315371499E+00  0.1081178626412E+01
-0.1466698853789E+00 -0.7387869189188E+00 -0.1770913634984E+00  0.1250176613074E+01
-0.1344333749515E+00 -0.7443191597631E+00 -0.1757505095618E+00  0.1399475553891E+01
-0.1232818894555E+00 -0.7492964666535E+00 -0.1745156738223E+00  0.1528193587117E+01
-0.1133524654540E+00 -0.7535987039426E+00 -0.1733902364630E+00  0.1636658718681E+01
-0.1047611714398E+00 -0.7571104421767E+00 -0.1723743252919E+00  0.1726183147971E+01
-0.9759995871191E-01 -0.7597231657201E+00 -0.1714646274414E+00  0.1798780301677E+01
-0.9193137998472E-01 -0.7613386925749E+00 -0.1706540170549E+00  0.1856876557432E+01
-0.8778303003737E-01 -0.7618724031632E+00 -0.1699310891723E+00  0.1903056836092E+01
-0.8514300986789E-01 -0.7612553992478E+00 -0.1692796843456E+00  0.1939865709419E+01
-0.8395689056758E-01 -0.7594353704228E+00 -0.1686784547116E+00  0.1969670351786E+01
-0.8412605770111E-01 -0.7563764573857E+00 -0.1681005055223E+00  0.1994579564105E+01
-0.8550691607262E-01 -0.7520587151636E+00 -0.1675131287434E+00  0.2016407549914E+01
-0.8791029348227E-01 -0.7464777738836E+00 -0.1668776159598E+00  0.2036670509792E+01
-0.9110046420022E-01 -0.7396451074408E+00 -0.1661491168040E+00  0.2056604790955E+01
-0.9479320695476E-01 -0.7315809968071E+00 -0.1652748432152E+00  0.2077205404362E+01
-0.9865250652383E-01 -0.7223111239175E+00 -0.1641927285349E+00  0.2099255932457E+01
-0.1022871356915E+00 -0.7118899567917E+00 -0.1628354209231E+00  0.2123354344568E+01
-0.1052479291698E+00 -0.7004204518852E+00 -0.1611336786121E+00  0.2149966906521E+01
-0.1070244499690E+00 -0.6880537709528E+00 -0.1590156465539E+00  0.2179463144565E+01
-0.1070419224953E+00 -0.6749891460642E+00 -0.1564062160425E+00  0.2212136160492E+01
-0.1046594258454E+00 -0.6614778246299E+00 -0.1532274523783E+00  0.2248206068705E+01
-0.9917063959614E-01 -0.6478288009018E+00 -0.1493998903258E+00  0.2287801907488E+01
-0.8980853109851E-01 -0.6344135347188E+00 -0.1448444153218E+00  0.2330918714212E+01
-0.7575583577451E-01 -0.6216683181697E+00 -0.1394848328673E+00  0.2377344780458E+01
-0.5616355700644E-01 -0.6100922016322E+00 -0.1332511537133E+00  0.2426558267768E+01
-0.3017932006888E-01 -0.6002396678621E+00 -0.1260837994650E+00  0.2477595411770E+01
 0.3013895100572E-02 -0.5927044410614E+00 -0.1179381109496E+00  0.2528900681131E+01
 0.4414611686416E-01 -0.5880906730895E+00 -0.1087889128661E+00  0.2578160807987E+01
 0.9379356877552E-01 -0.5869732945657E+00 -0.9863594662783E-01  0.2622136360854E+01
 0.1522983821718E+00 -0.5898483196453E+00 -0.8750998879870E-01  0.2656520947663E+01
 0.2196788939478E+00 -0.5970731627181E+00 -0.7547885487878E-01  0.2675855094860E+01
 0.2955367879199E+00 -0.6088009603121E+00 -0.6265283541204E-01  0.2673527522438E+01
 0.3789735732204E+00 -0.6249163972786E+00 -0.4918856554461E-01  0.2641893697912E+01
 0.4685486983781E+00 -0.6449870556944E+00 -0.3528767198909E-01  0.2572510400271E+01
 0.5623370273072E+00 -0.6682526756793E+00 -0.2118312999007E-01  0.2456365548757E+01
 0.6579714214627E+00 -0.6936292131482E+00 -0.7131558443354E-02  0.2284078190189E+01
 0.7525585918566E+00 -0.7196891718377E+00  0.6573884101730E-02  0.2046340848615E+01
 0.8427215338697E+00 -0.7446930195661E+00  0.1960570315286E-01  0.1734434943998E+01
 0.9247888358809E+00 -0.7666858544009E+00  0.3162059676717E-01  0.1340496035833E+01
-0.2463394521871E+00 -0.1028658958379E+01 -0.2549996859130E+00  0.8974635453382E+00
-0.2264652463705E+00 -0.1037029052839E+01 -0.2526988636073E+00  0.1083870547556E+01
-0.2062560781954E+00 -0.1044974063756E+01 -0.2502460321193E+00  0.1252680056657E+01
-0.1863987715423E+00 -0.1052068843193E+01 -0.2476935266379E+00  0.1401689338439E+01
-0.1675343874353E+00 -0.1057927100037E+01 -0.2450923011465E+00  0.1530027756435E+01
-0.1502154299644E+00 -0.1062227761127E+01 -0.2424886418316E+00  0.1638038291250E+01
-0.1348751189991E+00 -0.1064731171399E+01 -0.2399212616547E+00  0.1727050204420E+01
-0.1218129388255E+00 -0.1065282755245E+01 -0.2374191423520E+00  0.1799094112487E+01
-0.1111955655671E+00 -0.1063805585528E+01 -0.2350002337208E+00  0.1856612010821E+01
-0.1030690692854E+00 -0.1060285613770E+01 -0.2326709400781E+00  0.1902201764068E+01
-0.9737717335396E-01 -0.1054753963661E+01 -0.2304262308366E+00  0.1938417803981E+01
-0.9398076795776E-01 -0.1047269936558E+01 -0.2282501443044E+00  0.1967634261288E+01
-0.9267539719872E-01 -0.1037907110794E+01 -0.2261165049680E+00  0.1991964574442E+01
-0.9320498466635E-01 -0.1026743635727E+01 -0.2239897274163E+00  0.2013226061460E+01
-0.9527124335592E-01 -0.1013856601870E+01 -0.2218255723506E+00  0.2032937355364E+01
-0.9853907096655E-01 -0.9993203471969E+00 -0.2195718869046E+00  0.2052337352743E+01
-0.1026388810960E+00 -0.9832156262715E+00 -0.2171709047096E+00  0.2072424132815E+01
-0.1071657420533E+00 -0.9656402064373E+00 -0.2145611928953E+00  0.2093985025881E+01
-0.1116752996971E+00 -0.9466976245183E+00 -0.2116745879973E+00  0.2117623497139E+01
-0.1156787550669E+00 -0.9264891410550E+00 -0.2084335823303E+00  0.2143814433240E+01
-0.1186363177473E+00 -0.9051285459465E+00 -0.2047529757898E+00  0.2172939710462E+01
-0.1199490664869E+00 -0.8827592420528E+00 -0.2005416646962E+00  0.2205308814323E+01
-0.1189499017923E+00 -0.8595698052673E+00 -0.1957039443281E+00  0.2241162453842E+01
-0.1148949987245E+00 -0.8358082616757E+00 -0.1901406549134E+00  0.2280654426579E+01
-0.1069574751755E+00 -0.8117946128770E+00 -0.1837504203486E+00  0.2323808260969E+01
-0.9422554373122E-01 -0.7879319139481E+00 -0.1764314941649E+00  0.2370443490551E+01
-0.7570809641419E-01 -0.7647137587851E+00 -0.1680843735445E+00  0.2420070556710E+01
-0.5035009478488E-01 -0.7427229916973E+00 -0.1586146196600E+00  0.2471756554492E+01
-0.1706012010469E-01 -0.7226216540960E+00 -0.1479363570446E+00  0.2523971914022E+01
 0.2524448916846E-01 -0.7051344971254E+00 -0.1359780036176E+00  0.2574419502719E+01
 0.7757078798257E-01 -0.6910174541629E+00 -0.1226893350643E+00  0.2619860245626E+01
 0.1407609947441E+00 -0.6810059525271E+00 -0.1080489931667E+00  0.2655965985629E+01
 0.2153823401267E+00 -0.6757447498539E+00 -0.9207248331743E-01  0.2677227264536E+01
 0.3016011541038E+00 -0.6757016861717E+00 -0.7482010752850E-01  0.2676949918050E+01
 0.3990549568228E+00 -0.6810722450184E+00 -0.5640345847959E-01  0.2647371787766E+01
 0.5067597766403E+00 -0.6916888143666E+00 -0.3698580809639E-01  0.2579899521325E+01
 0.6231171414607E+00 -0.7069617631778E+00 -0.1676892459328E-01  0.2465344362155E+01
 0.7459064793844E+00 -0.7258709886016E+00  0.4007098216282E-02  0.2294132245822E+01
 0.8721608812533E+00 -0.7469550741862E+00  0.2504116178656E-01  0.2056764114354E+01
 0.9982047463612E+00 -0.7683298117711E+00  0.4597498760311E-01  0.1744354695789E+01
 0.1119875230009E+01 -0.7877944882383E+00  0.6641614934390E-01  0.1348920180341E+01
-0.3189454322341E+00 -0.1330890420528E+01 -0.3299671754693E+00  0.9010249748337E+00
-0.2930383219564E+00 -0.1341399372944E+01 -0.3268875438511E+00  0.1087357978229E+01
-0.2657226661791E+00 -0.1351350728935E+01 -0.3234146838421E+00  0.1255874903362E+01
-0.2381900105110E+00 -0.1360026633941E+01 -0.3196433336535E+00  0.1404383960823E+01
-0.2115674766080E+00 -0.1366778351011E+01 -0.3156691702276E+00  0.1532043573335E+01
-0.1868253453421E+00 -0.1371083630491E+01 -0.3115817998095E+00  0.1639238733519E+01
-0.1647144790053E+00 -0.1372579651268E+01 -0.3074588306362E+00  0.1727346097564E+01
-0.1457407920852E+00 -0.1371067821157E+01 -0.3033617271689E+00  0.1798441626089E+01
-0.1301729436976E+00 -0.1366494981660E+01 -0.2993335895320E+00  0.1855005163033E+01
-0.1180729361420E+00 -0.1358920127159E+01 -0.2953986170620E+00  0.1899662207207E+01
-0.1093376961293E+00 -0.1348476456056E+01 -0.2915628347816E+00  0.1934984391269E+01
-0.1037414709497E+00 -0.1335336320620E+01 -0.2878155626027E+00  0.1963354111732E+01
-0.1009725983381E+00 -0.1319683528935E+01 -0.2841312296886E+00  0.1986886472688E+01
-0.1006617497393E+00 -0.1301694542261E+01 -0.2804712625794E+00  0.2007396317455E+01
-0.1024012654114E+00 -0.1281527672646E+01 -0.2767857917359E+00  0.2026397798957E+01
-0.1057568193841E+00 -0.1259319542892E+01 -0.2730152765235E+00  0.2045124978622E+01
-0.1102739116287E+00 -0.1235210597063E+01 -0.2690969057483E+00  0.2064571225458E+01
-0.1154793751209E+00 -0.1209369819680E+01 -0.2649698429085E+00  0.2085519229328E+01
-0.1208766899396E+00 -0.1181948801738E+01 -0.2605651022183E+00  0.2108569866783E+01
-0.1259387189063E+00 -0.1153045808129E+01 -0.2557969092188E+00  0.2134199917300E+01
-0.1300979273027E+00 -0.1122735620854E+01 -0.2505667133651E+00  0.2162798405351E+01
-0.1327331262017E+00 -0.1091103821545E+01 -0.2447673931966E+00  0.2194687654861E+01
-0.1331531109705E+00 -0.1058273960512E+01 -0.2382854178472E+00  0.2230127405582E+01
-0.1305787021845E+00 -0.1024430397091E+01 -0.2310018232973E+00  0.2269297097779E+01
-0.1241252159016E+00 -0.9898386898871E+00 -0.2227927844776E+00  0.2312252596897E+01
-0.1127880319024E+00 -0.9548655030908E+00 -0.2135307101805E+00  0.2358851983198E+01
-0.9543491815323E-01 -0.9199958497412E+00 -0.2030861566051E+00  0.2408649131061E+01
-0.7080800117493E-01 -0.8858381081288E+00 -0.1913292247118E+00  0.2460757396433E+01
-0.3753955683757E-01 -0.8531204870658E+00 -0.1781320114350E+00  0.2513692922357E+01
 0.5809993136526E-02 -0.8226874297822E+00 -0.1633754897636E+00  0.2565197853224E+01
 0.6068580067935E-01 -0.7954768458831E+00 -0.1469582112306E+00  0.2612058063511E+01
 0.1284408439696E+00 -0.7724669894235E+00 -0.1288052310101E+00  0.2649946900381E+01
 0.2102053575367E+00 -0.7545961578399E+00 -0.1088781616830E+00  0.2673323110373E+01
 0.3067272648826E+00 -0.7426557912639E+00 -0.8718570657543E-01  0.2675418436372E+01
 0.4181984835182E+00 -0.7371630676588E+00 -0.6379291777872E-01  0.2648348536078E+01
 0.5441093055051E+00 -0.7382266853923E+00 -0.3882347655595E-01  0.2583349963437E+01
 0.6832023445386E+00 -0.7454378757641E+00 -0.1244710643059E-01  0.2471023242603E+01
 0.8334111025084E+00 -0.7578473955277E+00  0.1511274162133E-01  0.2301554579225E+01
 0.9916914129759E+00 -0.7739613635997E+00  0.4354601052413E-01  0.2065197087202E+01
 0.1154052135181E+01 -0.7917452944761E+00  0.7246136922068E-01  0.1752843713306E+01
 0.1315809086346E+01 -0.8087400126449E+00  0.1014138162515E+00  0.1356350741895E+01
-0.3915751769655E+00 -0.1633435754283E+01 -0.4050021922847E+00  0.9053880625969E+00
-0.3595335892178E+00 -0.1646124066226E+01 -0.4011315370661E+00  0.1091652879351E+01
-0.3250097264222E+00 -0.1658116692574E+01 -0.3966252897095E+00  0.1259770895046E+01
-0.2897098624577E+00 -0.1668397979824E+01 -0.3916215742920E+00  0.1407565727429E+01
-0.2552554423291E+00 -0.1676053467435E+01 -0.3862617877085E+00  0.1534243362577E+01
-0.2230392022617E+00 -0.1680359282311E+01 -0.3806797025871E+00  0.1640258666056E+01
-0.1941302465836E+00 -0.1680831823856E+01 -0.3749924196758E+00  0.1727066725623E+01
-0.1692381357731E+00 -0.1677232881457E+01 -0.3692942089490E+00  0.1796817411456E+01
-0.1487286893678E+00 -0.1669538285753E+01 -0.3636534004430E+00  0.1852050725821E+01
-0.1326743953306E+00 -0.1657885013311E+01 -0.3581118870645E+00  0.1895434304770E+01
-0.1209204022140E+00 -0.1642512253574E+01 -0.3526865364131E+00  0.1929563983300E+01
-0.1131504146060E+00 -0.1623707990023E+01 -0.3473716861021E+00  0.1956831352481E+01
-0.1089429317542E+00 -0.1601767541353E+01 -0.3421420997197E+00  0.1979349867273E+01
-0.1078139011003E+00 -0.1576965907135E+01 -0.3369559666681E+00  0.1998926041229E+01
-0.1092457327457E+00 -0.1549542108205E+01 -0.3317575731337E+00  0.2017062451167E+01
-0.1127049742929E+00 -0.1519694085271E+01 -0.3264798167777E+00  0.2034980820868E+01
-0.1176527323765E+00 -0.1487620811536E+01 -0.3210547135666E+00  0.2053661954390E+01
-0.1235484179813E+00 -0.1453561329416E+01 -0.3154219541796E+00  0.2073875456702E+01
-0.1298445119970E+00 -0.1417714062217E+01 -0.3095117194549E+00  0.2096211469151E+01
-0.1359771503748E+00 -0.1380172813200E+01 -0.3032299972334E+00  0.2121141846640E+01
-0.1413531230511E+00 -0.1340971552782E+01 -0.2964649395844E+00  0.2149057439308E+01
-0.1453314887524E+00 -0.1300135834849E+01 -0.2890934690281E+00  0.2180289718090E+01
-0.1471998532466E+00 -0.1257721520277E+01 -0.2809842788917E+00  0.2215115728350E+01
-0.1461468967803E+00 -0.1213846146600E+01 -0.2719986127292E+00  0.2253741273842E+01
-0.1412334722135E+00 -0.1168717188780E+01 -0.2619901361026E+00  0.2296258258430E+01
-0.1313653197331E+00 -0.1122660862989E+01 -0.2508052402818E+00  0.2342570516758E+01
-0.1152717358775E+00 -0.1076149299013E+01 -0.2382842105287E+00  0.2392286502281E+01
-0.9149356459033E-01 -0.1029812128825E+01 -0.2242611420249E+00  0.2444581373545E+01
-0.5838645977798E-01 -0.9844399156120E+00 -0.2085652781859E+00  0.2498037095864E+01
-0.1415078739980E-01 -0.9409942052684E+00 -0.1910290013802E+00  0.2550458876141E+01
 0.4310368167920E-01 -0.9005944669849E+00 -0.1714981596167E+00  0.2598683099028E+01
 0.1152523911421E+00 -0.8644644857603E+00 -0.1498424211565E+00  0.2638409152671E+01
 0.2040054446906E+00 -0.8338426737373E+00 -0.1259674476864E+00  0.2664083621800E+01
 0.3107139727164E+00 -0.8098547331690E+00 -0.9982815357806E-01  0.2668874323987E+01
 0.4361490486446E+00 -0.7933536090578E+00 -0.7144091314719E-01  0.2644771129041E+01
 0.5803002941239E+00 -0.7847399903481E+00 -0.4088793985410E-01  0.2582820674849E+01
 0.7422731303320E+00 -0.7838004731341E+00 -0.8305468684168E-02  0.2473377735132E+01
 0.9201681338073E+00 -0.7896668633399E+00  0.2610025448241E-01  0.2306339875035E+01
 0.1110861739325E+01 -0.8008154737414E+00  0.6200925404082E-01  0.2071652679779E+01
 0.1310026492116E+01 -0.8150541650949E+00  0.9899446687936E-01  0.1759928265526E+01
 0.1512417957054E+01 -0.8296478089084E+00  0.1365540316640E+00  0.1362818957836E+01
-0.4642508354543E+00 -0.1936469541754E+01 -0.4801440825963E+00  0.9105713800188E+00
-0.4259320191330E+00 -0.1951392798101E+01 -0.4754649705318E+00  0.1096772495702E+01
-0.3840558141384E+00 -0.1965473391064E+01 -0.4699058480426E+00  0.1264381244803E+01
-0.3408590970354E+00 -0.1977389748867E+01 -0.4636497760893E+00  0.1411241639664E+01
-0.2984705042966E+00 -0.1985956571132E+01 -0.4568854218938E+00  0.1536626973455E+01
-0.2587122726164E+00 -0.1990247781771E+01 -0.4497920175799E+00  0.1641091317425E+01
-0.2229723335368E+00 -0.1989662857382E+01 -0.4425270447779E+00  0.1726200445085E+01
-0.1921592535077E+00 -0.1983930874646E+01 -0.4352180321160E+00  0.1794207371134E+01
-0.1667283484268E+00 -0.1973064694818E+01 -0.4279586150261E+00  0.1847734642971E+01
-0.1467541366626E+00 -0.1957286737614E+01 -0.4208081811258E+00  0.1889506161219E+01
-0.1320224020568E+00 -0.1936947961057E+01 -0.4137940787888E+00  0.1922148350592E+01
-0.1221204762759E+00 -0.1912455660993E+01 -0.4069152335173E+00  0.1948062271173E+01
-0.1165131573109E+00 -0.1884218379654E+01 -0.4001463133556E+00  0.1969355853106E+01
-0.1145995416432E+00 -0.1852609834538E+01 -0.3934418810990E+00  0.1987821018105E+01
-0.1157512929878E+00 -0.1817948924713E+01 -0.3867400493031E+00  0.2004941419202E+01
-0.1193359017996E+00 -0.1780493526588E+01 -0.3799658913394E+00  0.2021918808273E+01
-0.1247306834235E+00 -0.1740499594076E+01 -0.3730460610588E+00  0.2039713510964E+01
-0.1313285729012E+00 -0.1698274778341E+01 -0.3659206757011E+00  0.2059073576081E+01
-0.1385324157460E+00 -0.1654062917375E+01 -0.3585190719666E+00  0.2080570226995E+01
-0.1457435358415E+00 -0.1607951739329E+01 -0.3507390602605E+00  0.2104663498490E+01
-0.1523455641041E+00 -0.1559932454742E+01 -0.3424556088722E+00  0.2131740615391E+01
-0.1576809496195E+00 -0.1509968194437E+01 -0.3335298337813E+00  0.2162138330737E+01
-0.1610198602042E+00 -0.1458044183623E+01 -0.3238128135906E+00  0.2196149061600E+01
-0.1615231139870E+00 -0.1404207553875E+01 -0.3131461382386E+00  0.2234005464399E+01
-0.1582017397360E+00 -0.1348603423497E+01 -0.3013610371373E+00  0.2275838947210E+01
-0.1498765593740E+00 -0.1291512613394E+01 -0.2882778388493E+00  0.2321606099564E+01
-0.1351427641252E+00 -0.1233388883201E+01 -0.2737063335437E+00  0.2370980974987E+01
-0.1123432711015E+00 -0.1174877348255E+01 -0.2574441277076E+00  0.2423216112125E+01
-0.7955850167106E-01 -0.1116825370704E+01 -0.2392767780405E+00  0.2476979709605E+01
-0.3462691978227E-01 -0.1060307200785E+01 -0.2189868273766E+00  0.2530164504964E+01
 0.2479331368883E-01 -0.1006621891729E+01 -0.1963657185340E+00  0.2579684103420E+01
 0.1011127083852E+00 -0.9572405652238E+00 -0.1712255739192E+00  0.2621290095837E+01
 0.1966408002012E+00 -0.9137085334545E+00 -0.1434135487877E+00  0.2649438510770E+01
 0.3133582964236E+00 -0.8774980983352E+00 -0.1128279620636E+00  0.2657245414785E+01
 0.4526468517971E+00 -0.8498152655309E+00 -0.7943368393043E-01  0.2636572830302E+01
 0.6150283767403E+00 -0.8313727753969E+00 -0.4326888037607E-01  0.2578258145760E+01
 0.8000007920176E+00 -0.8221716951249E+00 -0.4434180687532E-02  0.2472374269783E+01
 0.1005850917127E+01 -0.8214387139330E+00  0.3688244118847E-01  0.2308478240362E+01
 0.1229375577353E+01 -0.8276244721975E+00  0.8035022222846E-01  0.2076143718537E+01
 0.1465886388846E+01 -0.8383700599409E+00  0.1255032676512E+00  0.1765637497818E+01
 0.1709530208771E+01 -0.8506418130014E+00  0.1717776817136E+00  0.1368359118180E+01
-0.5369945418409E+00 -0.2240168764690E+01 -0.5554326695828E+00  0.9165994830325E+00
-0.4922133425765E+00 -0.2257397971923E+01 -0.5499222710944E+00  0.1102739434748E+01
-0.4427970559800E+00 -0.2273625075707E+01 -0.5432844344329E+00  0.1269722601942E+01
-0.3915353084152E+00 -0.2287211255110E+01 -0.5357493206882E+00  0.1415419205840E+01
-0.3410816241136E+00 -0.2296693378338E+01 -0.5275550083515E+00  0.1539191452863E+01
-0.2936971319732E+00 -0.2300942583284E+01 -0.5189279507840E+00  0.1641724118099E+01
-0.2510889540550E+00 -0.2299246982931E+01 -0.5100671949978E+00  0.1724727663300E+01
-0.2143578864769E+00 -0.2291312594899E+01 -0.5011341037427E+00  0.1790588399847E+01
-0.1840379883397E+00 -0.2277200346080E+01 -0.4922476742190E+00  0.1842033854577E+01
-0.1601941885099E+00 -0.2257228155786E+01 -0.4834844760637E+00  0.1881857725286E+01
-0.1425426590368E+00 -0.2231866374500E+01 -0.4748818137836E+00  0.1912722501870E+01
-0.1305666197884E+00 -0.2201646320588E+01 -0.4664425950259E+00  0.1937038047528E+01
-0.1236121385555E+00 -0.2167091810732E+01 -0.4581407966843E+00  0.1956902110454E+01
-0.1209587546281E+00 -0.2128675323612E+01 -0.4499268223524E+00  0.1974085214442E+01
-0.1218663756678E+00 -0.2086794418747E+01 -0.4417321654652E+00  0.1990044428653E+01
-0.1256035199616E+00 -0.2041765067279E+01 -0.4334737239075E+00  0.2005953761395E+01
-0.1314644154222E+00 -0.1993898248370E+01 -0.4250725390924E+00  0.2022745112484E+01
-0.1387766004966E+00 -0.1943568483437E+01 -0.4164690229926E+00  0.2041136511352E+01
-0.1468948337197E+00 -0.1891063427084E+01 -0.4075916582343E+00  0.2061672073803E+01
-0.1551878261956E+00 -0.1836462996763E+01 -0.3983301705274E+00  0.2084793054125E+01
-0.1630189939977E+00 -0.1779713581766E+01 -0.3885465209425E+00  0.2110877465998E+01
-0.1697179295052E+00 -0.1720713341927E+01 -0.3780862599204E+00  0.2140263279822E+01
-0.1745419367132E+00 -0.1659373678703E+01 -0.3667831285488E+00  0.2173256094947E+01
-0.1766293054653E+00 -0.1595667347989E+01 -0.3544593359727E+00  0.2210115608800E+01
-0.1749471811809E+00 -0.1529672248280E+01 -0.3409238909724E+00  0.2251015870201E+01
-0.1682377360071E+00 -0.1461618000194E+01 -0.3259711520976E+00  0.2295972900580E+01
-0.1549681840129E+00 -0.1391933331437E+01 -0.3093803077000E+00  0.2344737120100E+01
-0.1332887658338E+00 -0.1321271550781E+01 -0.2909120676579E+00  0.2396653939474E+01
-0.1010079101964E+00 -0.1250529435403E+01 -0.2703074731477E+00  0.2450498425550E+01
-0.5560182265394E-01 -0.1180887578157E+01 -0.2472978838471E+00  0.2504276012821E+01
 0.5728801663920E-02 -0.1113820861093E+01 -0.2216184151882E+00  0.2555005550875E+01
 0.8594281880698E-01 -0.1051048387619E+01 -0.1930211166386E+00  0.2598518974026E+01
 0.1879713355533E+00 -0.9944291161244E+00 -0.1612915585177E+00  0.2629305881618E+01
 0.3144558321059E+00 -0.9457958048282E+00 -0.1262679964260E+00  0.2640445453469E+01
 0.4674269879847E+00 -0.9067280580304E+00 -0.8786021531835E-01  0.2623672019709E+01
 0.6479805229501E+00 -0.8782753641724E+00 -0.4605896893080E-01  0.2569595310007E+01
 0.8560454376619E+00 -0.8606774290510E+00 -0.9263982916065E-03  0.2467969130162E+01
 0.1090121078779E+01 -0.8532738356844E+00  0.4736944932488E-01  0.2307954429453E+01
 0.1346927003605E+01 -0.8544955543743E+00  0.9848629131366E-01  0.2078682510502E+01
 0.1621385425401E+01 -0.8618060911155E+00  0.1519158691208E+00  0.1770003271827E+01
 0.1906975753623E+01 -0.8718452072564E+00  0.2070261123583E+00  0.1373008466718E+01
-0.6098284189126E+00 -0.2544713853353E+01 -0.6309084638544E+00  0.9235030946531E+00
-0.5583555491521E+00 -0.2564335920760E+01 -0.6245383032888E+00  0.1109581785871E+01
-0.5011661783481E+00 -0.2582780035419E+01 -0.6167892519442E+00  0.1275815001225E+01
-0.4416316700883E+00 -0.2598075328652E+01 -0.6079414088070E+00  0.1420106164933E+01
-0.3829532612779E+00 -0.2608471928949E+01 -0.5982850469605E+00  0.1541930568802E+01
-0.3278426646454E+00 -0.2612637795554E+01 -0.5880961008032E+00  0.1642138115307E+01
-0.2783260280514E+00 -0.2609757272835E+01 -0.5776166687844E+00  0.1722620260212E+01
-0.2356870670615E+00 -0.2599526055433E+01 -0.5670426329486E+00  0.1785927909913E+01
-0.2005244015811E+00 -0.2582067395256E+01 -0.5565183676602E+00  0.1834915979997E+01
-0.1728783813490E+00 -0.2557807452190E+01 -0.5461371748460E+00  0.1872460639087E+01
-0.1523825954232E+00 -0.2527345405917E+01 -0.5359456082542E+00  0.1901264674787E+01
-0.1384065454923E+00 -0.2491342227986E+01 -0.5259497625328E+00  0.1923744844609E+01
-0.1301714702123E+00 -0.2450439263874E+01 -0.5161221545081E+00  0.1941983053419E+01
-0.1268341741742E+00 -0.2405207535714E+01 -0.5064083495237E+00  0.1957720946997E+01
-0.1275416967205E+00 -0.2356121563554E+01 -0.4967326594567E+00  0.1972380988617E+01
-0.1314637441080E+00 -0.2303553054912E+01 -0.4870033670609E+00  0.1987101540152E+01
-0.1378122889018E+00 -0.2247865626328E+01 -0.4771355901558E+00  0.2002778129239E+01
-0.1458506853807E+00 -0.2189498642252E+01 -0.4670698724864E+00  0.2020090353196E+01
-0.1548873202610E+00 -0.2128781814966E+01 -0.4567338338513E+00  0.2039547058011E+01
-0.1642607496557E+00 -0.2065785425720E+01 -0.4460092417212E+00  0.2061563708389E+01
-0.1733175201013E+00 -0.2000408908090E+01 -0.4347452921164E+00  0.2086503381735E+01
-0.1813787060692E+00 -0.1932482797028E+01 -0.4227723069192E+00  0.2114700976907E+01
-0.1876941228187E+00 -0.1861841294179E+01 -0.4099070895076E+00  0.2146472785765E+01
-0.1913859038762E+00 -0.1788378484937E+01 -0.3959528836629E+00  0.2182105365981E+01
-0.1913845452286E+00 -0.1712099657083E+01 -0.3806968461352E+00  0.2221818118919E+01
-0.1863613960079E+00 -0.1633176622005E+01 -0.3639076090253E+00  0.2265692728342E+01
-0.1746636298171E+00 -0.1552005267590E+01 -0.3453337846272E+00  0.2313566350305E+01
-0.1542560564657E+00 -0.1469238268333E+01 -0.3246988697981E+00  0.2364892531152E+01
-0.1226803738821E+00 -0.1385812514530E+01 -0.3016985821781E+00  0.2418573957844E+01
-0.7705190917713E-01 -0.1303006436638E+01 -0.2760116732760E+00  0.2472754609172E+01
-0.1410901446702E-01 -0.1222464937397E+01 -0.2473147940580E+00  0.2524588051693E+01
 0.6966917264560E-01 -0.1146154245523E+01 -0.2152970177836E+00  0.2570017025614E+01
 0.1778598436208E+00 -0.1076253330198E+01 -0.1796786999929E+00  0.2603591919522E+01
 0.3138013061629E+00 -0.1014970543018E+01 -0.1402338494607E+00  0.2618373328683E+01
 0.4802191238444E+00 -0.9642828563579E+00 -0.9681274794533E-01  0.2605971037420E+01
 0.6788337379275E+00 -0.9256061378162E+00 -0.4935448071317E-01  0.2556750189283E+01
 0.9100538904288E+00 -0.8994485498915E+00  0.2121068139063E-02  0.2460107174246E+01
 0.1172626123946E+01 -0.8852854722271E+00  0.5746813120004E-01  0.2304746905413E+01
 0.1463198468040E+01 -0.8815366160285E+00  0.1163323721359E+00  0.2079280366126E+01
 0.1776271381083E+01 -0.8854754515299E+00  0.1781591885655E+00  0.1773060049890E+01
 0.2104586822987E+01 -0.8933811797390E+00  0.2422411322593E+00  0.1376807159787E+01
-0.6827745778728E+00 -0.2850289822754E+01 -0.7066128906547E+00  0.9313193546065E+00
-0.6243343328514E+00 -0.2872408197234E+01 -0.6993485164381E+00  0.1117333281694E+01
-0.5590914437974E+00 -0.2893151910602E+01 -0.6904486811683E+00  0.1282681790572E+01
-0.4910355913551E+00 -0.2910199444932E+01 -0.6802470173939E+00  0.1425310108414E+01
-0.4239440595665E+00 -0.2921503324208E+01 -0.6690894867251E+00  0.1544834166545E+01
-0.3609930482343E+00 -0.2925528401730E+01 -0.6573042997874E+00  0.1642307192895E+01
-0.3045266126938E+00 -0.2921365334792E+01 -0.6451783991110E+00  0.1719840829660E+01
-0.2559990137328E+00 -0.2908715750990E+01 -0.6329429623762E+00  0.1780183221539E+01
-0.2160553825438E+00 -0.2887782999224E+01 -0.6207676856038E+00  0.1826338923767E+01
-0.1846928794072E+00 -0.2859117002487E+01 -0.6087619854501E+00  0.1861278064993E+01
-0.1614467504643E+00 -0.2823456958424E+01 -0.5969807506733E+00  0.1887746346139E+01
-0.1455613729924E+00 -0.2781599890857E+01 -0.5854322614935E+00  0.1908163944937E+01
-0.1361261205834E+00 -0.2734306952915E+01 -0.5740866232543E+00  0.1924590033555E+01
-0.1321715572418E+00 -0.2682247070463E+01 -0.5628837339287E+00  0.1938729106104E+01
-0.1327307562960E+00 -0.2625969421986E+01 -0.5517400438779E+00  0.1951960601892E+01
-0.1368749221353E+00 -0.2565898502831E+01 -0.5405546930481E+00  0.1965379224096E+01
-0.1437347640137E+00 -0.2502447716112E+01 -0.5292365039115E+00  0.1979836231126E+01
-0.1525107952483E+00 -0.2436118954974E+01 -0.5177259577591E+00  0.1995964477876E+01
-0.1624668885938E+00 -0.2367282094076E+01 -0.5059498040733E+00  0.2014229445621E+01
-0.1729141279112E+00 -0.2295995902147E+01 -0.4937820133695E+00  0.2035013771133E+01
-0.1831859025840E+00 -0.2222110697763E+01 -0.4810593272377E+00  0.2058659729258E+01
-0.1925996623110E+00 -0.2145386688005E+01 -0.4675972770309E+00  0.2085494612817E+01
-0.2004038800946E+00 -0.2065577378049E+01 -0.4531962583819E+00  0.2115842574581E+01
-0.2057119159121E+00 -0.1982493641066E+01 -0.4376411179170E+00  0.2150016416699E+01
-0.2074261236353E+00 -0.1896062319710E+01 -0.4206976949379E+00  0.2188283083908E+01
-0.2041564150191E+00 -0.1806390081448E+01 -0.4021093052853E+00  0.2230795576329E+01
-0.1941397094585E+00 -0.1713831072242E+01 -0.3815941620264E+00  0.2277487599515E+01
-0.1751647333697E+00 -0.1619026964955E+01 -0.3588383450120E+00  0.2327935701657E+01
-0.1445139334722E+00 -0.1522943455512E+01 -0.3334914827662E+00  0.2381190915158E+01
-0.9894517045808E-01 -0.1426945962422E+01 -0.3051782311236E+00  0.2435562230898E+01
-0.3473093261124E-01 -0.1332841222855E+01 -0.2735144351690E+00  0.2488368948613E+01
 0.5222529060082E-01 -0.1242839808084E+01 -0.2381229070449E+00  0.2535697719764E+01
 0.1661733666643E+00 -0.1159446231979E+01 -0.1986545760232E+00  0.2572190620452E+01
 0.3111893177483E+00 -0.1085260514950E+01 -0.1548142417472E+00  0.2590912225293E+01
 0.4907472946935E+00 -0.1022683926655E+01 -0.1063873279776E+00  0.2583354823098E+01
 0.7072537599611E+00 -0.9735336086775E+00 -0.5325597053686E-01  0.2539624250123E+01
 0.9616574436337E+00 -0.9386223808705E+00  0.4607012621297E-02  0.2448720268818E+01
 0.1252996791191E+01 -0.9175901514272E+00  0.6708132895237E-01  0.2298826708489E+01
 0.1577858572825E+01 -0.9088569192506E+00  0.1338003327086E+00  0.2077947065663E+01
 0.1930285243702E+01 -0.9094921054157E+00  0.2041586306995E+00  0.1774844821994E+01
 0.2302198798791E+01 -0.9153737715071E+00  0.2773650095899E+00  0.1379798280253E+01
-0.7558551124787E+00 -0.3157087524295E+01 -0.7825885390163E+00  0.9400921428699E+00
-0.6901224659618E+00 -0.3181822992721E+01 -0.7743891032759E+00  0.1126033503703E+01
-0.6164954648773E+00 -0.3204961126035E+01 -0.7642913295713E+00  0.1290349528790E+01
-0.5396272450024E+00 -0.3223806928640E+01 -0.7526868459443E+00  0.1431037980768E+01
-0.4639054453974E+00 -0.3236002470119E+01 -0.7399815941298E+00  0.1547887333020E+01
-0.3929867165681E+00 -0.3239810414814E+01 -0.7265594371030E+00  0.1642197075034E+01
-0.3295303760363E+00 -0.3234240891381E+01 -0.7127542641043E+00  0.1716341728229E+01
-0.2751451092792E+00 -0.3219021787089E+01 -0.6988333896871E+00  0.1773300816519E+01
-0.2305001009341E+00 -0.3194458175558E+01 -0.6849916655056E+00  0.1816250411146E+01
-0.1955267992485E+00 -0.3161242141493E+01 -0.6713537981522E+00  0.1848264501110E+01
-0.1696435030888E+00 -0.3120265741244E+01 -0.6579818586713E+00  0.1872132273021E+01
-0.1519563627042E+00 -0.3072469013918E+01 -0.6448850849339E+00  0.1890271941253E+01
-0.1414150898219E+00 -0.3018734995760E+01 -0.6320300265343E+00  0.1904711605726E+01
-0.1369203545514E+00 -0.2959829256150E+01 -0.6193499313693E+00  0.1917109437107E+01
-0.1373903253672E+00 -0.2896372583358E+01 -0.6067525907863E+00  0.1928793022388E+01
-0.1417982545994E+00 -0.2828838636426E+01 -0.5941273870582E+00  0.1940805325764E+01
-0.1491947757758E+00 -0.2757687257070E+01 -0.5813764152324E+00  0.1953945552995E+01
-0.1587190292259E+00 -0.2683480269556E+01 -0.5684398682268E+00  0.1968791671999E+01
-0.1695923426889E+00 -0.2606625709259E+01 -0.5552436186633E+00  0.1985757818536E+01
-0.1811011936849E+00 -0.2527168951356E+01 -0.5416540370794E+00  0.2005186757069E+01
-0.1925698525088E+00 -0.2444909071528E+01 -0.5274957926677E+00  0.2027393953634E+01
-0.2033175531300E+00 -0.2359533263671E+01 -0.5125701709982E+00  0.2052694297432E+01
-0.2125983065095E+00 -0.2270710800123E+01 -0.4966618287273E+00  0.2081416592052E+01
-0.2195250546326E+00 -0.2178164649955E+01 -0.4795379480632E+00  0.2113898771700E+01
-0.2229817569383E+00 -0.2081737040890E+01 -0.4609437664342E+00  0.2150456898799E+01
-0.2215278191826E+00 -0.1981461541844E+01 -0.4405978787707E+00  0.2191320231297E+01
-0.2133015737291E+00 -0.1877640640400E+01 -0.4181884490574E+00  0.2236528106966E+01
-0.1959272203840E+00 -0.1770893121437E+01 -0.3933640742257E+00  0.2285794345520E+01
-0.1664378680730E+00 -0.1662200094637E+01 -0.3657275979917E+00  0.2338338835558E+01
-0.1212396989570E+00 -0.1553000555801E+01 -0.3348480559413E+00  0.2392662552648E+01
-0.5613763211198E-01 -0.1445252137004E+01 -0.3002779582978E+00  0.2446283129475E+01
 0.3355360673049E-01 -0.1341404528275E+01 -0.2615701882066E+00  0.2495467162992E+01
 0.1527848123881E+00 -0.1244291919227E+01 -0.2183014246207E+00  0.2534983594498E+01
 0.3064153264995E+00 -0.1156922540348E+01 -0.1701014453043E+00  0.2557928711392E+01
 0.4987298682139E+00 -0.1082151885599E+01 -0.1166844052157E+00  0.2555689339541E+01
 0.7328937694703E+00 -0.1022238868128E+01 -0.5786902059393E-01  0.2518100435468E+01
 0.1010469439406E+01 -0.9783444321501E+00  0.6425001546898E-02  0.2433725385353E+01
 0.1330844098874E+01 -0.9503087831467E+00  0.7610706427945E-01  0.2290156089886E+01
 0.1690559552440E+01 -0.9365678668840E+00  0.1507983393583E+00  0.2074690255327E+01
 0.2083160091546E+01 -0.9339715857021E+00  0.2298377045937E+00  0.1775397076214E+01
 0.2499651117846E+01 -0.9379488379009E+00  0.3123404606433E+00  0.1382027902831E+01
-0.8290920852278E+00 -0.3465305045526E+01 -0.8588794389490E+00  0.9498724860673E+00
-0.7556890790911E+00 -0.3492796722238E+01 -0.8496971729273E+00  0.1135728134684E+01
-0.6732938596142E+00 -0.3518436474210E+01 -0.8383460792571E+00  0.1298847841534E+01
-0.5872779319588E+00 -0.3539128247954E+01 -0.8252812482802E+00  0.1437295432479E+01
-0.5026801195060E+00 -0.3552188820430E+01 -0.8109738000716E+00  0.1551069337239E+01
-0.4236553030303E+00 -0.3555680942680E+01 -0.7958672610015E+00  0.1641764086802E+01
-0.3531731312555E+00 -0.3548551208684E+01 -0.7803448796159E+00  0.1712063917395E+01
-0.2929759885842E+00 -0.3530578839468E+01 -0.7647109770056E+00  0.1765215454972E+01
-0.2437295972126E+00 -0.3502196509584E+01 -0.7491852325231E+00  0.1804587463125E+01
-0.2052729349937E+00 -0.3464259817295E+01 -0.7339065613939E+00  0.1833365599972E+01
-0.1768858712992E+00 -0.3417828015669E+01 -0.7189427881066E+00  0.1854380579674E+01
-0.1575216813074E+00 -0.3363991418390E+01 -0.7043026304344E+00  0.1870040994065E+01
-0.1459820838666E+00 -0.3303756535083E+01 -0.6899477340710E+00  0.1882333864873E+01
-0.1410342768268E+00 -0.3237983461191E+01 -0.6758035576739E+00  0.1892860885321E+01
-0.1414809158001E+00 -0.3167360632296E+01 -0.6617683194803E+00  0.1902888562297E+01
-0.1461981938236E+00 -0.3092406475451E+01 -0.6477209435067E+00  0.1913400037558E+01
-0.1541580894381E+00 -0.3013623389855E+01 -0.6335563052994E+00  0.1925134877673E+01
-0.1644399509682E+00 -0.2931630257609E+01 -0.6192140509424E+00  0.1938608261114E+01
-0.1762246004491E+00 -0.2846871203012E+01 -0.6046191697017E+00  0.1954175165531E+01
-0.1887769074350E+00 -0.2759376375007E+01 -0.5896306652745E+00  0.1972131459873E+01
-0.2014163382562E+00 -0.2668891573468E+01 -0.5740615908991E+00  0.1992759659834E+01
-0.2134697912365E+00 -0.2575028387494E+01 -0.5576996440564E+00  0.2016357177827E+01
-0.2242043836516E+00 -0.2477368374768E+01 -0.5403145597352E+00  0.2043253849716E+01
-0.2327419183186E+00 -0.2375541874383E+01 -0.5216567663135E+00  0.2073811077452E+01
-0.2379588997307E+00 -0.2269300128032E+01 -0.5014518130248E+00  0.2108394906176E+01
-0.2383766741052E+00 -0.2158595168787E+01 -0.4793943757219E+00  0.2147314939140E+01
-0.2320485513125E+00 -0.2043667008528E+01 -0.4551431187502E+00  0.2190724305221E+01
-0.2164480732574E+00 -0.1925098189548E+01 -0.4283092589435E+00  0.2238487535584E+01
-0.1883715890970E+00 -0.1803869697892E+01 -0.3984482633351E+00  0.2290013430978E+01
-0.1438821553215E+00 -0.1681477910957E+01 -0.3650720186958E+00  0.2344022245769E+01
-0.7831777572217E-01 -0.1560017242236E+01 -0.3276670084742E+00  0.2398264097027E+01
 0.1360754413710E-01 -0.1442168226562E+01 -0.2857121407424E+00  0.2449224722918E+01
 0.1375748722166E+00 -0.1331096743958E+01 -0.2387043779053E+00  0.2491839985677E+01
 0.2992769521605E+00 -0.1230235605768E+01 -0.1861917334961E+00  0.2519271784148E+01
 0.5038797341590E+00 -0.1142927160613E+01 -0.1278094871953E+00  0.2522819771382E+01
 0.7553931338869E+00 -0.1071918508355E+01 -0.6330507583686E-01  0.2492040823146E+01
 0.1056082638648E+01 -0.1018770489997E+01  0.7462429841425E-02  0.2415022287478E+01
 0.1405756003355E+01 -0.9835679575450E+00  0.8443761042028E-01  0.2278686855397E+01
 0.1800934377514E+01 -0.9647838973919E+00  0.1672300985164E+00  0.2069514758933E+01
 0.2234619802536E+01 -0.9590319232633E+00  0.2551175796561E+00  0.1774758820209E+01
 0.2696788266443E+01 -0.9612351593384E+00  0.3471106265932E+00  0.1383545203879E+01
-0.9025075025673E+00 -0.3775149296937E+01 -0.9355313738413E+00  0.9607190581753E+00
-0.8209988203580E+00 -0.3805555817913E+01 -0.9253109414424E+00  0.1146469260780E+01
-0.7293937060532E+00 -0.3833816885155E+01 -0.9126421318410E+00  0.1308209219176E+01
-0.6338482440654E+00 -0.3856402414860E+01 -0.8980501451671E+00  0.1444085990645E+01
-0.5401004233846E+00 -0.3870287108065E+01 -0.8820775194338E+00  0.1554352305355E+01
-0.4528225706528E+00 -0.3873338129152E+01 -0.8652321528539E+00  0.1640953638448E+01
-0.3752864561031E+00 -0.3864460330062E+01 -0.8479493698684E+00  0.1706935583052E+01
-0.3093417674209E+00 -0.3843514901995E+01 -0.8305713462597E+00  0.1755849156928E+01
-0.2556174286557E+00 -0.3811092677681E+01 -0.8133420333870E+00  0.1791275824888E+01
-0.2138286106335E+00 -0.3768237113275E+01 -0.7964131566493E+00  0.1816518009402E+01
-0.1830923995819E+00 -0.3716190264941E+01 -0.7798565445253E+00  0.1834442908268E+01
-0.1621932147557E+00 -0.3656199933317E+01 -0.7636786409942E+00  0.1847439170529E+01
-0.1497762023322E+00 -0.3589396865858E+01 -0.7478346247817E+00  0.1857440863659E+01
-0.1444718514955E+00 -0.3516732434617E+01 -0.7322408681337E+00  0.1865982010446E+01
-0.1449672275824E+00 -0.3438957658450E+01 -0.7167849878875E+00  0.1874258451752E+01
-0.1500428155384E+00 -0.3356630461422E+01 -0.7013346658427E+00  0.1883185512613E+01
-0.1585936300904E+00 -0.3270291350486E+01 -0.6857770063341E+00  0.1893435835516E+01
-0.1696409015942E+00 -0.3180613129294E+01 -0.6700508161622E+00  0.1905454239753E+01
-0.1823270043656E+00 -0.3088073912318E+01 -0.6540801930834E+00  0.1919528962331E+01
-0.1958982704701E+00 -0.2992686897695E+01 -0.6377170431358E+00  0.1935902005765E+01
-0.2096738989458E+00 -0.2894142741721E+01 -0.6207633373834E+00  0.1954816667044E+01
-0.2229947530854E+00 -0.2791975015177E+01 -0.6029939626378E+00  0.1976547526774E+01
-0.2351492598325E+00 -0.2685674241171E+01 -0.5841647089053E+00  0.2001421404941E+01
-0.2452782230886E+00 -0.2574773505217E+01 -0.5640103540656E+00  0.2029820908999E+01
-0.2522627571308E+00 -0.2458926653012E+01 -0.5422378901084E+00  0.2062162135152E+01
-0.2546000576034E+00 -0.2337995434723E+01 -0.5185191061918E+00  0.2098838120516E+01
-0.2502738691623E+00 -0.2212145821882E+01 -0.4924839455475E+00  0.2140122809421E+01
-0.2366233465547E+00 -0.2081909381086E+01 -0.4637065524379E+00  0.2186043784462E+01
-0.2102235597351E+00 -0.1948249259397E+01 -0.4316945702591E+00  0.2236218059687E+01
-0.1668061869583E+00 -0.1812700015788E+01 -0.3959012464486E+00  0.2289612519471E+01
-0.1012459610176E+00 -0.1677475099045E+01 -0.3557442173135E+00  0.2344245344872E+01
-0.7646143232565E-02 -0.1545473858705E+01 -0.3106240050161E+00  0.2396863928421E+01
 0.1204343020856E+00 -0.1420192889136E+01 -0.2599517212837E+00  0.2442616565248E+01
 0.2895756659294E+00 -0.1305504943015E+01 -0.2031858584449E+00  0.2474771910533E+01
 0.5059047975837E+00 -0.1205274075464E+01 -0.1398738576604E+00  0.2484568493415E+01
 0.7743762281025E+00 -0.1122788144732E+01 -0.6968238436431E-01  0.2461283853645E+01
 0.1098066350347E+01 -0.1060069150417E+01  0.7599440099238E-02  0.2392490716736E+01
 0.1477293569109E+01 -0.1017501479071E+01  0.9195841937798E-01  0.2264358341176E+01
 0.1908593382949E+01 -0.9936235025154E+00  0.1829939788135E+00  0.2062421790558E+01
 0.2384377566932E+01 -0.9847947341507E+00  0.2799165707274E+00  0.1772974674831E+01
 0.2893460889432E+01 -0.9853657494399E+00  0.3816190336851E+00  0.1384402606158E+01
-0.9761232751288E+00 -0.4086837833000E+01 -0.1012592236715E+01  0.9726987900086E+00
-0.8860108603652E+00 -0.4120338782700E+01 -0.1001269943533E+01  0.1158315725980E+01
-0.7846917444205E+00 -0.4151353424570E+01 -0.9872090485087E+00  0.1318468734238E+01
-0.6791859804287E+00 -0.4175878506782E+01 -0.9710129119114E+00  0.1451410001517E+01
-0.5759865627129E+00 -0.4190528046789E+01 -0.9533029361057E+00  0.1557699577851E+01
-0.4803033415350E+00 -0.4192980927070E+01 -0.9346568676485E+00  0.1639698393354E+01
-0.3956974301664E+00 -0.4182128061413E+01 -0.9155651119588E+00  0.1700870515544E+01
-0.3240924501527E+00 -0.4157949775277E+01 -0.8964084584434E+00  0.1745110054168E+01
-0.2660404979703E+00 -0.4121230753712E+01 -0.8774542634116E+00  0.1776229367214E+01
-0.2210966804092E+00 -0.4073229620981E+01 -0.8588652730761E+00  0.1797649259705E+01
-0.1881881444161E+00 -0.4015387783749E+01 -0.8407151981607E+00  0.1812264655681E+01
-0.1659134306084E+00 -0.3949117262453E+01 -0.8230061508760E+00  0.1822430881427E+01
-0.1527526368284E+00 -0.3875672577516E+01 -0.8056850548745E+00  0.1830015122112E+01
-0.1471969635064E+00 -0.3796091684994E+01 -0.7886577414520E+00  0.1836471476766E+01
-0.1478185658522E+00 -0.3711181816831E+01 -0.7718000880374E+00  0.1842915253794E+01
-0.1533041558382E+00 -0.3621534139687E+01 -0.7549676703550E+00  0.1850186180001E+01
-0.1624737801122E+00 -0.3527722217593E+01 -0.7380392105386E+00  0.1858883119123E+01
-0.1742922871125E+00 -0.3430469396058E+01 -0.7209523473771E+00  0.1869373400298E+01
-0.1878656153360E+00 -0.3330285704667E+01 -0.7036302744854E+00  0.1881871236967E+01
-0.2024246311976E+00 -0.3227165840305E+01 -0.6859181045216E+00  0.1896557881210E+01
-0.2172929628884E+00 -0.3120743688580E+01 -0.6676073402417E+00  0.1913631028570E+01
-0.2318321048756E+00 -0.3010472658074E+01 -0.6484609622528E+00  0.1933336792211E+01
-0.2453605721237E+00 -0.2895749199097E+01 -0.6282219636054E+00  0.1955994488689E+01
-0.2570490964555E+00 -0.2776004779449E+01 -0.6066107842200E+00  0.1982005037185E+01
-0.2657965046456E+00 -0.2650789593052E+01 -0.5833172282317E+00  0.2011833777937E+01
-0.2700911338422E+00 -0.2519866263378E+01 -0.5579914877587E+00  0.2045959125735E+01
-0.2678644806593E+00 -0.2383314610295E+01 -0.5302358260921E+00  0.2084781502697E+01
-0.2563400540866E+00 -0.2241599252066E+01 -0.4995878686749E+00  0.2128502473646E+01
-0.2318902633501E+00 -0.2095645613216E+01 -0.4655071822497E+00  0.2176965445683E+01
-0.1899308129445E+00 -0.1947004029804E+01 -0.4273869749182E+00  0.2229410981893E+01
-0.1248805174349E+00 -0.1797985122524E+01 -0.3845731337224E+00  0.2284162097386E+01
-0.3022473036385E-01 -0.1651690467690E+01 -0.3363830446232E+00  0.2338273719271E+01
 0.1012666322674E+00 -0.1511942352867E+01 -0.2821351483241E+00  0.2387158073019E+01
 0.2771189689686E+00 -0.1383066733090E+01 -0.2211895561202E+00  0.2424240115477E+01
 0.5045088767024E+00 -0.1269485705038E+01 -0.1529953679468E+00  0.2440732811254E+01
 0.7894513929469E+00 -0.1175086701851E+01 -0.7712706293009E-01  0.2425641059910E+01
 0.1135963292352E+01 -0.1102424924528E+01  0.6707673664685E-02  0.2365986952186E+01
 0.1544986522970E+01 -0.1052252176610E+01  0.9854687074060E-01  0.2247094909256E+01
 0.2013120284883E+01 -0.1023210347570E+01  0.1979819904129E+00  0.2053408052029E+01
 0.2532134186170E+01 -0.1011386483288E+01  0.3041495451086E+00  0.1770092088285E+01
 0.3089527048698E+01 -0.1010479425052E+01  0.4158095309254E+00  0.1384655945833E+01
-0.1049961157644E+01 -0.4400600965513E+01 -0.1090112440875E+01  0.9858876056441E+00
-0.9506777009915E+00 -0.4437398567260E+01 -0.1077615269708E+01  0.1171333541544E+01
-0.8390722640146E+00 -0.4471311569225E+01 -0.1062076782474E+01  0.1329663647802E+01
-0.7231237660758E+00 -0.4497817323326E+01 -0.1044188233440E+01  0.1459263285106E+01
-0.6101446719315E+00 -0.4513148974927E+01 -0.1024658744640E+01  0.1561063682925E+01
-0.5059024467603E+00 -0.4514808645394E+01 -0.1004142233394E+01  0.1637916072529E+01
-0.4142285327764E+00 -0.4501708642119E+01 -0.9831874496297E+00  0.1693766233749E+01
-0.3370785618934E+00 -0.4473993241352E+01 -0.9622143749873E+00  0.1732891123202E+01
-0.2748800998884E+00 -0.4432682264175E+01 -0.9415124868423E+00  0.1759349487421E+01
-0.2269866982235E+00 -0.4379279649127E+01 -0.9212532831978E+00  0.1776677727416E+01
-0.1921057660246E+00 -0.4315443186737E+01 -0.9015098039859E+00  0.1787785322308E+01
-0.1686322889916E+00 -0.4242754833945E+01 -0.8822774377342E+00  0.1794977435100E+01
-0.1548733740072E+00 -0.4162590721079E+01 -0.8634928318843E+00  0.1800038241122E+01
-0.1491793723087E+00 -0.4076068908709E+01 -0.8450496687957E+00  0.1804328625619E+01
-0.1500092192249E+00 -0.3984044949335E+01 -0.8268108460325E+00  0.1808873337382E+01
-0.1559585054640E+00 -0.3887135906262E+01 -0.8086188943945E+00  0.1814429094508E+01
-0.1657746375215E+00 -0.3785942722615E+01 -0.7903434838043E+00  0.1821514711758E+01
-0.1783678345439E+00 -0.3681235690694E+01 -0.7719207165501E+00  0.1830413457882E+01
-0.1928094848133E+00 -0.3573554762370E+01 -0.7532728606614E+00  0.1841258616243E+01
-0.2083179805579E+00 -0.3462874828403E+01 -0.7342385727333E+00  0.1854163928879E+01
-0.2242261683034E+00 -0.3348771696527E+01 -0.7145995836144E+00  0.1869275009172E+01
-0.2399231478195E+00 -0.3230616835933E+01 -0.6941080070935E+00  0.1886803596893E+01
-0.2547668097353E+00 -0.3107709999137E+01 -0.6724953717954E+00  0.1907056582732E+01
-0.2679694387844E+00 -0.2979377110145E+01 -0.6494693194637E+00  0.1930449655001E+01
-0.2784616041529E+00 -0.2845058835668E+01 -0.6247040972729E+00  0.1957495649695E+01
-0.2847393480601E+00 -0.2704409989632E+01 -0.5978298764467E+00  0.1988759015150E+01
-0.2847010270301E+00 -0.2557411837627E+01 -0.5684225814015E+00  0.2024770709454E+01
-0.2754757528885E+00 -0.2404445037072E+01 -0.5359841659788E+00  0.2065915452439E+01
-0.2532552510223E+00 -0.2246375305941E+01 -0.4999261188422E+00  0.2112279663632E+01
-0.2131587978872E+00 -0.2084742986750E+01 -0.4595803637757E+00  0.2163403862225E+01
-0.1491611523080E+00 -0.1921929398660E+01 -0.4142181163660E+00  0.2217953480543E+01
-0.5412655309611E-01 -0.1761216308678E+01 -0.3630685777649E+00  0.2273340134343E+01
 0.7999137863265E-01 -0.1606741380071E+01 -0.3053500048378E+00  0.2325297902554E+01
 0.2617231714368E+00 -0.1463293541818E+01 -0.2403140776573E+00  0.2367467192216E+01
 0.4993931362723E+00 -0.1335889671575E+01 -0.1672993095535E+00  0.2391082491650E+01
 0.8002101275771E+00 -0.1229081674792E+01 -0.8577431072121E-01  0.2384893225593E+01
 0.1169286168333E+01 -0.1146042095588E+01  0.4648814618303E-02  0.2335339579052E+01
 0.1608328027643E+01 -0.1087974043160E+01  0.1040707984475E+00  0.2226802793080E+01
 0.2114067389744E+01 -0.1053674428619E+01  0.2120785953851E+00  0.2042464689229E+01
 0.2677576148477E+01 -0.1038939912180E+01  0.3277272521429E+00  0.1766161772448E+01
 0.3284853699499E+01 -0.1036722722495E+01  0.4496262021009E+00  0.1384364649967E+01
-0.1124042661331E+01 -0.4716684241673E+01 -0.1168145398007E+01  0.1000371308499E+01
-0.1014943734618E+01 -0.4757005347733E+01 -0.1154389833672E+01  0.1185596351958E+01
-0.8924045971741E+00 -0.4793973817278E+01 -0.1137275699837E+01  0.1341832862968E+01
-0.7654763138090E+00 -0.4822493188841E+01 -0.1117593917183E+01  0.1467635423718E+01
-0.6423647078830E+00 -0.4838394398861E+01 -0.1096151837683E+01  0.1564383843816E+01
-0.5294137298938E+00 -0.4839020194101E+01 -0.1073686800798E+01  0.1635506841067E+01
-0.4306977574415E+00 -0.4823349021093E+01 -0.1050809371365E+01  0.1685501838988E+01
-0.3481520596138E+00 -0.4791742862407E+01 -0.1027978999722E+01  0.1719068818398E+01
-0.2820232245480E+00 -0.4745503957167E+01 -0.1005505451326E+01  0.1740524545535E+01
-0.2314162761972E+00 -0.4686414257775E+01 -0.9835661214507E+00  0.1753512712883E+01
-0.1947867316461E+00 -0.4616364840433E+01 -0.9622303287541E+00  0.1760939003004E+01
-0.1703081983732E+00 -0.4537111644256E+01 -0.9414839825551E+00  0.1765037728811E+01
-0.1561078951200E+00 -0.4450148014383E+01 -0.9212511956283E+00  0.1767491631955E+01
-0.1503951952700E+00 -0.4356663480005E+01 -0.9014117484870E+00  0.1769554136365E+01
-0.1515187897790E+00 -0.4257552278723E+01 -0.8818142268405E+00  0.1772149410882E+01
-0.1579866526794E+00 -0.4153448829918E+01 -0.8622871093685E+00  0.1775944321013E+01
-0.1684762277461E+00 -0.4044975133138E+01 -0.8426902847338E+00  0.1781372127919E+01
-0.1818448104470E+00 -0.3932944654942E+01 -0.8229579053408E+00  0.1788626168489E+01
-0.1971308998837E+00 -0.3817925425367E+01 -0.8030112770159E+00  0.1797752349050E+01
-0.2135432319123E+00 -0.3699871545287E+01 -0.7826829671027E+00  0.1808790305518E+01
-0.2304286825477E+00 -0.3578299838204E+01 -0.7617457155013E+00  0.1821827010783E+01
-0.2472111808788E+00 -0.3452498523941E+01 -0.7399419519900E+00  0.1837033675956E+01
-0.2632977202943E+00 -0.3321668587602E+01 -0.7169932722634E+00  0.1854699430862E+01
-0.2779543592250E+00 -0.3185027121912E+01 -0.6925963065479E+00  0.1875250545119E+01
-0.2901582291053E+00 -0.3041900032709E+01 -0.6664116622931E+00  0.1899244612729E+01
-0.2984307626459E+00 -0.2891826109442E+01 -0.6380513839253E+00  0.1927331347524E+01
-0.3006579607753E+00 -0.2734675687254E+01 -0.6070667386518E+00  0.1960174444322E+01
-0.2938982862286E+00 -0.2570727683057E+01 -0.5729252023944E+00  0.1998348805362E+01
-0.2741883064501E+00 -0.2400764167977E+01 -0.5349905028574E+00  0.2042198406416E+01
-0.2363750473055E+00 -0.2226286254988E+01 -0.4925322677980E+00  0.2091588637509E+01
-0.1740064591135E+00 -0.2049714402442E+01 -0.4447441789383E+00  0.2145565199903E+01
-0.7932768818831E-01 -0.1874482120301E+01 -0.3907619675207E+00  0.2201948545636E+01
 0.5654783250523E-01 -0.1705025374064E+01 -0.3296955132245E+00  0.2256859252681E+01
 0.2432169051036E+00 -0.1546600601925E+01 -0.2606767432486E+00  0.2304223138975E+01
 0.4902582235706E+00 -0.1404855085896E+01 -0.1829193751907E+00  0.2335357123042E+01
 0.8062266592575E+00 -0.1285075638686E+01 -0.9576979731278E-01  0.2338785899886E+01
 0.1197513975751E+01 -0.1191149591670E+01  0.1272876835151E-02  0.2300344254019E+01
 0.1666768465085E+01 -0.1124834795045E+01  0.1083867356232E+00  0.2203366027983E+01
 0.2210949690790E+01 -0.1085153117725E+01  0.2251593179682E+00  0.2029576044467E+01
 0.2820373477010E+01 -0.1067595528874E+01  0.3505555948509E+00  0.1761238560880E+01
 0.3479318524656E+01 -0.1064252261768E+01  0.4830132597752E+00  0.1383591935199E+01
-0.1198388928942E+01 -0.5035351378278E+01 -0.1246748080022E+01  0.1016246645488E+01
-0.1078743485118E+01 -0.5079449801329E+01 -0.1231638675642E+01  0.1201185957207E+01
-0.9445401236788E+00 -0.5119642701657E+01 -0.1212836583140E+01  0.1355016167766E+01
-0.8060372613503E+00 -0.5150195905852E+01 -0.1191246651191E+01  0.1476507582249E+01
-0.6724181671091E+00 -0.5166516374316E+01 -0.1167786925686E+01  0.1567582918012E+01
-0.5506191534816E+00 -0.5165812926850E+01 -0.1143286433103E+01  0.1632350214900E+01
-0.4449190150741E+00 -0.5147186639384E+01 -0.1118421147557E+01  0.1675935589812E+01
-0.3571675867969E+00 -0.5111281333803E+01 -0.1093689800417E+01  0.1703501635787E+01
-0.2873641592788E+00 -0.5059735251508E+01 -0.1069419898093E+01  0.1719629382939E+01
-0.2343126503444E+00 -0.4994643112573E+01 -0.1045791168167E+01  0.1728054676933E+01
-0.1961826315451E+00 -0.4918145229566E+01 -0.1022865587464E+01  0.1731655054199E+01
-0.1709090084575E+00 -0.4832173112876E+01 -0.1000616439177E+01  0.1732569099078E+01
-0.1564338610310E+00 -0.4738330101505E+01 -0.9789528070947E+00  0.1732357373562E+01
-0.1508273460318E+00 -0.4637866016531E+01 -0.9577386867840E+00  0.1732150781425E+01
-0.1523324639843E+00 -0.4531702186727E+01 -0.9368069441017E+00  0.1732763117979E+01
-0.1593740653267E+00 -0.4420480560208E+01 -0.9159709387559E+00  0.1734765353324E+01
-0.1705626608591E+00 -0.4304837219967E+01 -0.8950799895029E+00  0.1738500664503E+01
-0.1847041950954E+00 -0.4185624905633E+01 -0.8740658331702E+00  0.1744067437480E+01
-0.2008055951962E+00 -0.4063438103904E+01 -0.8528487525285E+00  0.1751418302155E+01
-0.2180684797061E+00 -0.3938209540894E+01 -0.8312556165067E+00  0.1760512395050E+01
-0.2358585149297E+00 -0.3809396630091E+01 -0.8090510410599E+00  0.1771371436619E+01
-0.2536418779100E+00 -0.3676203600698E+01 -0.7859691074335E+00  0.1784119738569E+01
-0.2708847595356E+00 -0.3537731307697E+01 -0.7617232247970E+00  0.1799022966411E+01
-0.2869196920796E+00 -0.3393085586455E+01 -0.7360010666742E+00  0.1816513167741E+01
-0.3007858122365E+00 -0.3241473288978E+01 -0.7084518307996E+00  0.1837188942413E+01
-0.3110485567592E+00 -0.3082309793682E+01 -0.6786716802012E+00  0.1861782954551E+01
-0.3156038631430E+00 -0.2915342543287E+01 -0.6461892909149E+00  0.1891091719685E+01
-0.3114657270529E+00 -0.2740730526076E+01 -0.6104392597220E+00  0.1925884782021E+01
-0.2945447755821E+00 -0.2559146510997E+01 -0.5707382658205E+00  0.1966775549136E+01
-0.2594450693030E+00 -0.2372019672702E+01 -0.5262929562433E+00  0.2013977108792E+01
-0.1993113143395E+00 -0.2181772539134E+01 -0.4762167777910E+00  0.2066952810808E+01
-0.1057782668187E+00 -0.1991954494306E+01 -0.4195465584766E+00  0.2123986565497E+01
 0.3089950888414E-01 -0.1807274307135E+01 -0.3552749649442E+00  0.2181656899948E+01
 0.2214455238535E+00 -0.1633453062777E+01 -0.2824015119929E+00  0.2234256964208E+01
 0.4768073156952E+00 -0.1476800869612E+01 -0.1999987137636E+00  0.2273263380448E+01
 0.8070580977033E+00 -0.1343414349530E+01 -0.1072712519639E+00  0.2287024214558E+01
 0.1220088123141E+01 -0.1238007267442E+01 -0.3583828913594E-02  0.2260757211180E+01
 0.1719707981856E+01 -0.1163019042565E+01  0.1113377895173E+00  0.2176641046728E+01
 0.2303237358348E+01 -0.1117791813572E+01  0.2370891124880E+00  0.2014718030030E+01
 0.2960177319394E+01 -0.1097502831500E+01  0.3725349031301E+00  0.1755383057691E+01
 0.3672812432954E+01 -0.1093237644082E+01  0.5159149654620E+00  0.1382405126703E+01
-0.1273020559019E+01 -0.5356887768789E+01 -0.1325981685320E+01  0.1033622584879E+01
-0.1141999441399E+01 -0.5405047001883E+01 -0.1309409308168E+01  0.1218192887862E+01
-0.9953086645032E+00 -0.5448644287040E+01 -0.1288790609513E+01  0.1369253188054E+01
-0.8445755063816E+00 -0.5481232854545E+01 -0.1265161691038E+01  0.1485849726532E+01
-0.7000556324775E+00 -0.5497774635739E+01 -0.1239566072114E+01  0.1570563642412E+01
-0.5692880802592E+00 -0.5495380950394E+01 -0.1212933824205E+01  0.1628301420126E+01
-0.4567029186396E+00 -0.5473346599584E+01 -0.1186009921318E+01  0.1664902198210E+01
-0.3639841472969E+00 -0.5432673314584E+01 -0.1159331509652E+01  0.1686028654119E+01
-0.2908064320403E+00 -0.5375395336040E+01 -0.1133240370503E+01  0.1696524985019E+01
-0.2356144673427E+00 -0.5303956162481E+01 -0.1107914142474E+01  0.1700195690704E+01
-0.1962566033924E+00 -0.5220759277183E+01 -0.1083403192259E+01  0.1699858974695E+01
-0.1704130277956E+00 -0.5127909970251E+01 -0.1059664615400E+01  0.1697528352605E+01
-0.1558377685443E+00 -0.5027110885603E+01 -0.1036589746276E+01  0.1694619208269E+01
-0.1504659145610E+00 -0.4919658035153E+01 -0.1014024805053E+01  0.1692124279719E+01
-0.1524412129237E+00 -0.4806486088004E+01 -0.9917854749644E+00  0.1690737697284E+01
-0.1601110021080E+00 -0.4688233331984E+01 -0.9696688812675E+00  0.1690929567160E+01
-0.1720222258953E+00 -0.4565542318811E+01 -0.9475129230603E+00  0.1692949661213E+01
-0.1869308050384E+00 -0.4439301091288E+01 -0.9252463930526E+00  0.1696797416068E+01
-0.2038129249151E+00 -0.4310129274043E+01 -0.9027884532442E+00  0.1702326924292E+01
-0.2218652301089E+00 -0.4177938109708E+01 -0.8799606810757E+00  0.1709410669912E+01
-0.2404768167601E+00 -0.4042125731712E+01 -0.8565205224577E+00  0.1717998482847E+01
-0.2591636746576E+00 -0.3901812305690E+01 -0.8321952084701E+00  0.1728161238200E+01
-0.2774615835909E+00 -0.3755998060215E+01 -0.8066919407818E+00  0.1740135136023E+01
-0.2947825987385E+00 -0.3603676254129E+01 -0.7796917821918E+00  0.1754352644798E+01
-0.3102437290071E+00 -0.3443931671593E+01 -0.7508350913083E+00  0.1771448608361E+01
-0.3224737128824E+00 -0.3276050139492E+01 -0.7197047811993E+00  0.1792234674833E+01
-0.3294019908917E+00 -0.3099645124978E+01 -0.6858094333933E+00  0.1817637888952E+01
-0.3280265695130E+00 -0.2914737548666E+01 -0.6485528333001E+00  0.1848623877120E+01
-0.3141651186640E+00 -0.2721863867875E+01 -0.6072058063558E+00  0.1886084018253E+01
-0.2822135620092E+00 -0.2522345256541E+01 -0.5609117720683E+00  0.1930598970122E+01
-0.2249442065777E+00 -0.2318563404466E+01 -0.5087015297889E+00  0.1982085673602E+01
-0.1333984212124E+00 -0.2114139267052E+01 -0.4495075443510E+00  0.2039347776133E+01
 0.3039331380568E-02 -0.1914018627152E+01 -0.3821958648495E+00  0.2099499785634E+01
 0.1962765696190E+00 -0.1724374331461E+01 -0.3056195569224E+00  0.2157297052775E+01
 0.4587503323611E+00 -0.1552205730631E+01 -0.2186910829127E+00  0.2204472311659E+01
 0.8022454558967E+00 -0.1404496843146E+01 -0.1204502792448E+00  0.2229266987655E+01
 0.1236408552868E+01 -0.1286914165557E+01 -0.1010112268833E-01  0.2216287246209E+01
 0.1766487563505E+01 -0.1202732523080E+01  0.1127510097651E+00  0.2146449293691E+01
 0.2390345799948E+01 -0.1151743762032E+01  0.2477204112744E+00  0.1997855635394E+01
 0.3096617112864E+01 -0.1128820362035E+01  0.3935593560302E+00  0.1748664715194E+01
 0.3865243390603E+01 -0.1123864871346E+01  0.5482757120215E+00  0.1380876461839E+01
-0.1347957360720E+01 -0.5681604713957E+01 -0.1405912435885E+01  0.1052621852662E+01
-0.1204619366463E+01 -0.5734141090632E+01 -0.1387752112098E+01  0.1236717023843E+01
-0.1044514112393E+01 -0.5781332245391E+01 -0.1365169291899E+01  0.1384581940201E+01
-0.8808309525826E+00 -0.5815931217194E+01 -0.1339352453913E+01  0.1495617064304E+01
-0.7250041725541E+00 -0.5832436345397E+01 -0.1311488123133E+01  0.1573204029990E+01
-0.5851768309447E+00 -0.5827912729690E+01 -0.1282617931239E+01  0.1623187133691E+01
-0.4658580668024E+00 -0.5801938077621E+01 -0.1253559247564E+01  0.1652209863590E+01
-0.3684672855151E+00 -0.5755961653077E+01 -0.1224885805971E+01  0.1666468121506E+01
-0.2922651392858E+00 -0.5692479896653E+01 -0.1196949025024E+01  0.1671058366808E+01
-0.2352737998037E+00 -0.5614321156469E+01 -0.1169919008688E+01  0.1669820162072E+01
-0.1949848532192E+00 -0.5524162648570E+01 -0.1143829517402E+01  0.1665473540163E+01
-0.1688100481341E+00 -0.5424277208109E+01 -0.1118617467917E+01  0.1659872998171E+01
-0.1543155606952E+00 -0.5316451957277E+01 -0.1094153519899E+01  0.1654263684092E+01
-0.1493084741560E+00 -0.5202011713240E+01 -0.1070264053427E+01  0.1649484251065E+01
-0.1518419095235E+00 -0.5081888411074E+01 -0.1046746079717E+01  0.1646100706059E+01
-0.1601925427910E+00 -0.4956704076482E+01 -0.1023379339104E+01  0.1644478706906E+01
-0.1728474135466E+00 -0.4827099497596E+01 -0.9999893971296E+00  0.1644772769243E+01
-0.1885133562916E+00 -0.4693994052088E+01 -0.9765014962268E+00  0.1646880583827E+01
-0.2061359869962E+00 -0.4558031570694E+01 -0.9528335257363E+00  0.1650553174712E+01
-0.2249085954838E+00 -0.4419102253103E+01 -0.9288021835576E+00  0.1655570493488E+01
-0.2442481605887E+00 -0.4276545704645E+01 -0.9041587865197E+00  0.1661803845944E+01
-0.2637281592775E+00 -0.4129398717068E+01 -0.8786253883616E+00  0.1669264034285E+01
-0.2829645815182E+00 -0.3976561428923E+01 -0.8519052147826E+00  0.1678151597100E+01
-0.3014622592085E+00 -0.3816914578896E+01 -0.8236753798945E+00  0.1688893613269E+01
-0.3184321296592E+00 -0.3649419527433E+01 -0.7935703432436E+00  0.1702155440161E+01
-0.3325859145492E+00 -0.3473228133092E+01 -0.7611628208704E+00  0.1718822015248E+01
-0.3419110904935E+00 -0.3287810230261E+01 -0.7259442749683E+00  0.1739945995913E+01
-0.3434202225190E+00 -0.3093031150389E+01 -0.6872902848231E+00  0.1766687040344E+01
-0.3328747536023E+00 -0.2889263179687E+01 -0.6444275962606E+00  0.1800218966741E+01
-0.3045032036670E+00 -0.2677680361715E+01 -0.5964367219640E+00  0.1841505909644E+01
-0.2507445635411E+00 -0.2460574628103E+01 -0.5422638464093E+00  0.1890951692242E+01
-0.1620738849961E+00 -0.2241584819292E+01 -0.4807317480211E+00  0.1947936453088E+01
-0.2700437683601E-01 -0.2025845623686E+01 -0.4105700062223E+00  0.2010194655727E+01
 0.1676065065360E+00 -0.1819955619385E+01 -0.3304698274942E+00  0.2073052353908E+01
 0.4358096242702E+00 -0.1631620116075E+01 -0.2391621019248E+00  0.2128616815785E+01
 0.7913158778984E+00 -0.1468787987623E+01 -0.1354944239639E+00  0.2165120138662E+01
 0.1245830258881E+01 -0.1338219468525E+01 -0.1847784220399E-01  0.2166586026389E+01
 0.1806378583660E+01 -0.1244208475467E+01  0.1124340233140E+00  0.2112566956836E+01
 0.2471621982317E+01 -0.1187168599703E+01  0.2568906803509E+00  0.1978938309934E+01
 0.3229296556891E+01 -0.1161712402427E+01  0.4135168370547E+00  0.1741167207611E+01
 0.4056543392867E+01 -0.1156339617914E+01  0.5800407636339E+00  0.1379085680596E+01
-0.1423218013217E+01 -0.6009844572777E+01 -0.1486612539351E+01  0.1073382784030E+01
-0.1266492927021E+01 -0.6067110921404E+01 -0.1466720791541E+01  0.1256868238416E+01
-0.1091929106250E+01 -0.6118092621137E+01 -0.1442004366965E+01  0.1401036829928E+01
-0.9145095714901E+00 -0.6154640279926E+01 -0.1413829991351E+01  0.1505745478165E+01
-0.7469646447910E+00 -0.6170775279608E+01 -0.1383548005496E+01  0.1575351730101E+01
-0.5980286610519E+00 -0.6163587766354E+01 -0.1352323305632E+01  0.1616800535453E+01
-0.4721929741519E+00 -0.6133049804908E+01 -0.1321048575497E+01  0.1637637085574E+01
-0.3704918709096E+00 -0.6081162923074E+01 -0.1290330978024E+01  0.1644616185141E+01
-0.2916696971883E+00 -0.6010957461624E+01 -0.1260525450546E+01  0.1643062781332E+01
-0.2332583874508E+00 -0.5925681031272E+01 -0.1231787902100E+01  0.1636805911456E+01
-0.1923582515424E+00 -0.5828290082033E+01 -0.1204129684658E+01  0.1628420232275E+01
-0.1661023511412E+00 -0.5721213128648E+01 -0.1177463113503E+01  0.1619562696782E+01
-0.1518731705140E+00 -0.5606302143079E+01 -0.1151635079879E+01  0.1611281448311E+01
-0.1473602995945E+00 -0.5484889770256E+01 -0.1126450030756E+01  0.1604245271577E+01
-0.1505373502898E+00 -0.5357886695974E+01 -0.1101684825669E+01  0.1598884807499E+01
-0.1596185269761E+00 -0.5225884647973E+01 -0.1077100651040E+01  0.1595459405989E+01
-0.1730348583356E+00 -0.5089513840428E+01 -0.1052509755436E+01  0.1594028228130E+01
-0.1894444598811E+00 -0.4949721097354E+01 -0.1027833126763E+01  0.1594385816266E+01
-0.2077616910305E+00 -0.4807173995193E+01 -0.1002987152190E+01  0.1596176412992E+01
-0.2271774429095E+00 -0.4661742744428E+01 -0.9777840520377E+00  0.1599081856416E+01
-0.2471407885555E+00 -0.4512709848420E+01 -0.9519701415805E+00  0.1602888332959E+01
-0.2672904579788E+00 -0.4359030262986E+01 -0.9252641579804E+00  0.1607539926123E+01
-0.2873334439021E+00 -0.4199505777766E+01 -0.8973678577055E+00  0.1613195263651E+01
-0.3068806559058E+00 -0.4032906335855E+01 -0.8679574112858E+00  0.1620269916979E+01
-0.3252529320216E+00 -0.3858070597579E+01 -0.8366647183873E+00  0.1629453142664E+01
-0.3412646798297E+00 -0.3674014299076E+01 -0.8030558077477E+00  0.1641695701899E+01
-0.3529865203080E+00 -0.3480056043879E+01 -0.7666085242608E+00  0.1658168092747E+01
-0.3574778652435E+00 -0.3275889359690E+01 -0.7266734558149E+00  0.1680217985955E+01
-0.3504842717517E+00 -0.3061694323081E+01 -0.6824357291357E+00  0.1709301245153E+01
-0.3261137416752E+00 -0.2838456148271E+01 -0.6329139874204E+00  0.1746776274197E+01
-0.2765201721130E+00 -0.2608322129183E+01 -0.5769684688568E+00  0.1793562935160E+01
-0.1916512946520E+00 -0.2374885117400E+01 -0.5133072900594E+00  0.1849673479648E+01
-0.5916104890687E-01 -0.2143406180366E+01 -0.4405134524188E+00  0.1913551038373E+01
 0.1353689454719E+00 -0.1920866761843E+01 -0.3570995685955E+00  0.1981214742592E+01
 0.4077275406830E+00 -0.1715680544554E+01 -0.2615906046722E+00  0.2045289580918E+01
 0.7737864306881E+00 -0.1536834051542E+01 -0.1526095264448E+00  0.2094129406702E+01
 0.1247660721142E+01 -0.1392336691075E+01 -0.2893519441779E-01  0.2111236833016E+01
 0.1838571568832E+01 -0.1287718281208E+01  0.1101706591665E+00  0.2074711116112E+01
 0.2546324854629E+01 -0.1224230680684E+01  0.2644188387290E+00  0.1957889898215E+01
 0.3357786440797E+01 -0.1196336145924E+01  0.4322900654163E+00  0.1732997008637E+01
 0.4246681351662E+01 -0.1190889207973E+01  0.6111584378447E+00  0.1377127725282E+01
-0.1498819592948E+01 -0.6341987093613E+01 -0.1568161360680E+01  0.1096061561863E+01
-0.1327487436501E+01 -0.6404376937765E+01 -0.1546372897896E+01  0.1278767033720E+01
-0.1137288504261E+01 -0.6459349414215E+01 -0.1519327606335E+01  0.1418645881837E+01
-0.9452776802676E+00 -0.6497733722094E+01 -0.1488602302654E+01  0.1516145646758E+01
-0.7656089958863E+00 -0.6513070193980E+01 -0.1455735859666E+01  0.1576817126432E+01
-0.6075743532246E+00 -0.6502572062814E+01 -0.1422029304398E+01  0.1608895611328E+01
-0.4755188308075E+00 -0.6466744419300E+01 -0.1388452670711E+01  0.1620929333942E+01
-0.3699455935914E+00 -0.6408262189960E+01 -0.1355641576911E+01  0.1620245899573E+01
-0.2889670462330E+00 -0.6330765376510E+01 -0.1323946504277E+01  0.1612358374327E+01
-0.2295540871691E+00 -0.6237951224294E+01 -0.1293501081567E+01  0.1601025678171E+01
-0.1883839712046E+00 -0.6133053805128E+01 -0.1264287574106E+01  0.1588621001749E+01
-0.1623056660785E+00 -0.6018638536781E+01 -0.1236188858993E+01  0.1576560941861E+01
-0.1485269749874E+00 -0.5896597200446E+01 -0.1209024853102E+01  0.1565668691660E+01
-0.1446344802384E+00 -0.5768245482826E+01 -0.1182576010235E+01  0.1556428026931E+01
-0.1485361694558E+00 -0.5634451815902E+01 -0.1156597614306E+01  0.1549128620062E+01
-0.1583933913815E+00 -0.5495762173264E+01 -0.1130831129780E+01  0.1543923741272E+01
-0.1725851913190E+00 -0.5352786859036E+01 -0.1105074426538E+01  0.1540779151944E+01
-0.1897205408932E+00 -0.5206496416201E+01 -0.1079243407501E+01  0.1539386437939E+01
-0.2086807596297E+00 -0.5057582257242E+01 -0.1053252619069E+01  0.1539280247913E+01
-0.2286544849689E+00 -0.4905896318580E+01 -0.1026910176012E+01  0.1540039039559E+01
-0.2491268173785E+00 -0.4750666133776E+01 -0.9999586051314E+00  0.1541357360639E+01
-0.2698096050455E+00 -0.4590767282454E+01 -0.9721153919855E+00  0.1543106037663E+01
-0.2905117613476E+00 -0.4424906329155E+01 -0.9430836321535E+00  0.1545395672410E+01
-0.3109634507806E+00 -0.4251746132406E+01 -0.9125419302353E+00  0.1548624102814E+01
-0.3306109860667E+00 -0.4070005919724E+01 -0.8801233942729E+00  0.1553497121440E+01
-0.3483907548567E+00 -0.3878566013299E+01 -0.8453913662284E+00  0.1561022076688E+01
-0.3624817227572E+00 -0.3676588966433E+01 -0.8078141498755E+00  0.1572476480559E+01
-0.3700237300124E+00 -0.3463582412570E+01 -0.7667212399415E+00  0.1589385559940E+01
-0.3667901187404E+00 -0.3239506860358E+01 -0.7212594065672E+00  0.1613481144279E+01
-0.3468215013760E+00 -0.3005115185207E+01 -0.6703873473062E+00  0.1646520314116E+01
-0.3020448145633E+00 -0.2762349565798E+01 -0.6128788852049E+00  0.1689962236901E+01
-0.2219332989638E+00 -0.2514682279325E+01 -0.5473231238136E+00  0.1744503656502E+01
-0.9331011131599E-01 -0.2267421730631E+01 -0.4721463754250E+00  0.1809387938694E+01
 0.9954447445680E-01 -0.2027868462552E+01 -0.3856648033660E+00  0.1881462909784E+01
 0.3742765809399E+00 -0.1805126389981E+01 -0.2861699660725E+00  0.1954042103587E+01
 0.7491697123660E+00 -0.1609282873315E+01 -0.1720226347530E+00  0.2015772039058E+01
 0.1241158604087E+01 -0.1449760144056E+01 -0.4172030861555E-01  0.2049742020138E+01
 0.1862166294611E+01 -0.1333589705610E+01  0.1057153193755E+00  0.2032523374628E+01
 0.2613599300220E+01 -0.1263103706000E+01  0.2700991228688E+00  0.1934586777619E+01
 0.3481603208236E+01 -0.1232808639083E+01  0.4497589205324E+00  0.1724289858120E+01
 0.4435701580932E+01 -0.1227746751057E+01  0.6415909755353E+00  0.1375141608028E+01
-0.1574776916399E+01 -0.6678457272634E+01 -0.1650646862403E+01  0.1120834934030E+01
-0.1387442431880E+01 -0.6746409618117E+01 -0.1626770434240E+01  0.1302545109427E+01
-0.1180281343883E+01 -0.6805571125430E+01 -0.1597170517662E+01  0.1437426895424E+01
-0.9727553382636E+00 -0.6845611737087E+01 -0.1563673438371E+01  0.1526695453383E+01
-0.7805777163737E+00 -0.6859602004124E+01 -0.1528035966869E+01  0.1577364905218E+01
-0.6135336929024E+00 -0.6845012002753E+01 -0.1491709161359E+01  0.1599180670956E+01
-0.4756533141029E+00 -0.6803051454444E+01 -0.1455740975402E+01  0.1601795708661E+01
-0.3667332817466E+00 -0.6737206939994E+01 -0.1420788065520E+01  0.1593106697790E+01
-0.2841253228954E+00 -0.6651805450874E+01 -0.1387186175425E+01  0.1578753435376E+01
-0.2241674949297E+00 -0.6551016994259E+01 -0.1355036918029E+01  0.1562349144583E+01
-0.1830871188195E+00 -0.6438342112905E+01 -0.1324285866078E+01  0.1546000399304E+01
-0.1574500395592E+00 -0.6316456127097E+01 -0.1294781252625E+01  0.1530836972659E+01
-0.1443041339428E+00 -0.6187259685607E+01 -0.1266312782780E+01  0.1517428735343E+01
-0.1411519126078E+00 -0.6052022843144E+01 -0.1238634969607E+01  0.1506060556457E+01
-0.1458526347014E+00 -0.5911548326107E+01 -0.1211480210214E+01  0.1496877626476E+01
-0.1565258964023E+00 -0.5766319528692E+01 -0.1184569102670E+01  0.1489929823052E+01
-0.1715027944863E+00 -0.5616917042168E+01 -0.1157683984582E+01  0.1485093828138E+01
-0.1893416715138E+00 -0.5464331638945E+01 -0.1130734678941E+01  0.1481960263725E+01
-0.2088876516943E+00 -0.5309279274726E+01 -0.1103633401730E+01  0.1479952344576E+01
-0.2293262985293E+00 -0.5151596012182E+01 -0.1076184478179E+01  0.1478540196466E+01
-0.2501823846291E+00 -0.4990457257564E+01 -0.1048127944057E+01  0.1477320327966E+01
-0.2712488838238E+00 -0.4824662654483E+01 -0.1019182322848E+01  0.1476084029286E+01
-0.2924476445125E+00 -0.4652828234547E+01 -0.9890551905500E+00  0.1474888138041E+01
-0.3136409550489E+00 -0.4473515816016E+01 -0.9574313684797E+00  0.1474106683878E+01
-0.3344154196610E+00 -0.4285331512110E+01 -0.9239494001222E+00  0.1474454074807E+01
-0.3538477905364E+00 -0.4087024459661E+01 -0.8881744632743E+00  0.1476983289479E+01
-0.3702500889744E+00 -0.3877599923483E+01 -0.8495700151510E+00  0.1483064816789E+01
-0.3808768817441E+00 -0.3656368622948E+01 -0.8074491129703E+00  0.1494386108595E+01
-0.3815758460907E+00 -0.3423045886438E+01 -0.7609243578444E+00  0.1512942365778E+01
-0.3663794548518E+00 -0.3178107997663E+01 -0.7088975010664E+00  0.1540886006922E+01
-0.3270563024597E+00 -0.2923226718437E+01 -0.6500566138659E+00  0.1580230858368E+01
-0.2526735813570E+00 -0.2661668344629E+01 -0.5828683938826E+00  0.1632404653765E+01
-0.1292724703881E+00 -0.2398691232728E+01 -0.5055927481572E+00  0.1697542591713E+01
 0.6017276768713E-01 -0.2141825709614E+01 -0.4163305945893E+00  0.1773468607309E+01
 0.3352713313904E+00 -0.1900820342797E+01 -0.3131098069470E+00  0.1854384495659E+01
 0.7169857300173E+00 -0.1686906657509E+01 -0.1939841883888E+00  0.1929450398456E+01
 0.1225525840516E+01 -0.1511094186532E+01 -0.5711367005419E-01  0.1981501479581E+01
 0.1876177139428E+01 -0.1382206381920E+01  0.9879415297382E-01  0.1985567224615E+01
 0.2672435813624E+01 -0.1304046823299E+01  0.2736778021431E+00  0.1908804847127E+01
 0.3600171018626E+01 -0.1271083571432E+01  0.4658174963801E+00  0.1715201615085E+01
 0.4623759807188E+01 -0.1267136079539E+01  0.6713247555334E+00  0.1373379332965E+01
-0.1651101622910E+01 -0.7019735209158E+01 -0.1734167392255E+01  0.1147903527566E+01
-0.1446162703256E+01 -0.7093739930491E+01 -0.1707980552200E+01  0.1328345766181E+01
-0.1220540891546E+01 -0.7157278420130E+01 -0.1675563887303E+01  0.1457382095224E+01
-0.9965087824258E+00 -0.7198702724478E+01 -0.1639042325804E+01  0.1537230153179E+01
-0.7914777013257E+00 -0.7210649271846E+01 -0.1600425418483E+01  0.1576703785038E+01
-0.6156181879734E+00 -0.7191026177838E+01 -0.1561328896428E+01  0.1587311089699E+01
-0.4724257178397E+00 -0.7141958713406E+01 -0.1522876908942E+01  0.1579905801124E+01
-0.3607821469573E+00 -0.7067900135419E+01 -0.1485736478614E+01  0.1562924570072E+01
-0.2771379856151E+00 -0.6973939363694E+01 -0.1450215491472E+01  0.1542046422874E+01
-0.2171286760427E+00 -0.6864730867830E+01 -0.1416371929880E+01  0.1520645566967E+01
-0.1765122945644E+00 -0.6744018204623E+01 -0.1384106120462E+01  0.1500488098163E+01
-0.1515805712117E+00 -0.6614550123918E+01 -0.1353226159191E+01  0.1482367911774E+01
-0.1392427878507E+00 -0.6478199019366E+01 -0.1323488381165E+01  0.1466573743843E+01
-0.1369411590967E+00 -0.6336156865030E+01 -0.1294619624117E+01  0.1453179576349E+01
-0.1425063159707E+00 -0.6189134937504E+01 -0.1266328269565E+01  0.1442185139521E+01
-0.1540287340981E+00 -0.6037535945521E+01 -0.1238312954376E+01  0.1433542424337E+01
-0.1697954483049E+00 -0.5881900552825E+01 -0.1210339218261E+01  0.1427046035525E+01
-0.1883113076762E+00 -0.5723236569466E+01 -0.1182309593046E+01  0.1422189633945E+01
-0.2083803937843E+00 -0.5562285859733E+01 -0.1154133267901E+01  0.1418284190866E+01
-0.2291832540900E+00 -0.5398871685915E+01 -0.1125611004774E+01  0.1414686848158E+01
-0.2502877175461E+00 -0.5232120848147E+01 -0.1096481729477E+01  0.1410889844704E+01
-0.2715761223889E+00 -0.5060761517132E+01 -0.1066467543796E+01  0.1406599109611E+01
-0.2930943551616E+00 -0.4883325650230E+01 -0.1035284016505E+01  0.1401812662927E+01
-0.3148491889432E+00 -0.4698282783335E+01 -0.1002626409396E+01  0.1396875128941E+01
-0.3365811728981E+00 -0.4504135835546E+01 -0.9681434161154E+00  0.1392501305019E+01
-0.3575243234692E+00 -0.4299511215724E+01 -0.9314071217176E+00  0.1389777229852E+01
-0.3761472569857E+00 -0.4083260118839E+01 -0.8918814884551E+00  0.1390149023865E+01
-0.3898535659331E+00 -0.3854489472352E+01 -0.8488686203061E+00  0.1395445776100E+01
-0.3946140470461E+00 -0.3612646840555E+01 -0.8014521894627E+00  0.1407906154715E+01
-0.3845180249526E+00 -0.3357888342153E+01 -0.7484812845744E+00  0.1430065426751E+01
-0.3512551025057E+00 -0.3091546482717E+01 -0.6885603273048E+00  0.1464497272773E+01
-0.2835721002601E+00 -0.2816585875769E+01 -0.6200316044449E+00  0.1513397803236E+01
-0.1668010358985E+00 -0.2538097686745E+01 -0.5409797525900E+00  0.1577881875178E+01
 0.1736602998561E-01 -0.2263722612878E+01 -0.4492713232732E+00  0.1656905487164E+01
 0.2905867928486E+00 -0.2003771419437E+01 -0.3426369304234E+00  0.1745788724986E+01
 0.6767678392525E+00 -0.1770634281542E+01 -0.2187732917178E+00  0.1834481039129E+01
 0.1199935253589E+01 -0.1577074712684E+01 -0.7542789294307E-01  0.1905806398952E+01
 0.1879436716152E+01 -0.1434071015401E+01  0.8907314147749E-01  0.1933257681014E+01
 0.2721894090305E+01 -0.1347271469241E+01  0.2749245283096E+00  0.1880369335476E+01
 0.3712255798453E+01 -0.1311583620941E+01  0.4801344426570E+00  0.1705386085760E+01
 0.4812082430645E+01 -0.1307517423703E+01  0.7009130118328E+00  0.1372942567006E+01
-0.1727800887218E+01 -0.7366368601463E+01 -0.1818833924839E+01  0.1177495912410E+01
-0.1503409251578E+01 -0.7446972382485E+01 -0.1790076353487E+01  0.1356323980749E+01
-0.1257632277029E+01 -0.7515053065394E+01 -0.1754537094629E+01  0.1478490656192E+01
-0.1016041864737E+01 -0.7557464131221E+01 -0.1714701224743E+01  0.1547529601437E+01
-0.7978809087367E+00 -0.7566481283894E+01 -0.1672872463454E+01  0.1574474065689E+01
-0.6135355118319E+00 -0.7540694570409E+01 -0.1630846040750E+01  0.1572881366815E+01
-0.4656837063260E+00 -0.7483401761868E+01 -0.1589817117329E+01  0.1554887077122E+01
-0.3520480443911E+00 -0.7400192410474E+01 -0.1550448114076E+01  0.1529403268848E+01
-0.2680283421070E+00 -0.7296983975507E+01 -0.1513002486068E+01  0.1502028965651E+01
-0.2084939062200E+00 -0.7178910372961E+01 -0.1477480877852E+01  0.1475787096523E+01
-0.1687249958589E+00 -0.7049919395863E+01 -0.1443728899858E+01  0.1452021814861E+01
-0.1447579626109E+00 -0.6912786237266E+01 -0.1411508861008E+01  0.1431141100993E+01
-0.1333920897592E+00 -0.6769311770737E+01 -0.1380540792671E+01  0.1413126535010E+01
-0.1320381636538E+00 -0.6620574033075E+01 -0.1350522459470E+01  0.1397831865166E+01
-0.1385216227507E+00 -0.6467165103688E+01 -0.1321137364974E+01  0.1385113321868E+01
-0.1509180119306E+00 -0.6309387738946E+01 -0.1292061169429E+01  0.1374833656546E+01
-0.1674738642976E+00 -0.6147732081979E+01 -0.1263041208076E+01  0.1366715392617E+01
-0.1866359177540E+00 -0.5983220111735E+01 -0.1233971224285E+01  0.1360161453417E+01
-0.2071603029464E+00 -0.5816621624960E+01 -0.1204756403534E+01  0.1354370827003E+01
-0.2282193342280E+00 -0.5647750766901E+01 -0.1175194037738E+01  0.1348583282998E+01
-0.2494271016063E+00 -0.5475689854666E+01 -0.1145023408317E+01  0.1342180796014E+01
-0.2707639245754E+00 -0.5299101100020E+01 -0.1113973021519E+01  0.1334778816698E+01
-0.2924109357021E+00 -0.5116440831468E+01 -0.1081770369554E+01  0.1326312563759E+01
-0.3145310270833E+00 -0.4926098196052E+01 -0.1048125860245E+01  0.1317092534942E+01
-0.3370307259693E+00 -0.4726487032845E+01 -0.1012703566853E+01  0.1307825698429E+01
-0.3593160787257E+00 -0.4516124457521E+01 -0.9750881217793E+00  0.1299617137410E+01
-0.3800338814887E+00 -0.4293716203469E+01 -0.9347500309204E+00  0.1293967923498E+01
-0.3967701956228E+00 -0.4058163852246E+01 -0.8909868228504E+00  0.1292822641306E+01
-0.4056691015617E+00 -0.3808629149864E+01 -0.8428596628448E+00  0.1298635499234E+01
-0.4009468091458E+00 -0.3544906970722E+01 -0.7891707677331E+00  0.1314301593075E+01
-0.3743038621275E+00 -0.3267920105119E+01 -0.7284448043039E+00  0.1342947088543E+01
-0.3142707148436E+00 -0.2980226846158E+01 -0.6588995220186E+00  0.1387560983588E+01
-0.2055710496761E+00 -0.2686613776929E+01 -0.5784369739404E+00  0.1450316756855E+01
-0.2867397419492E-01 -0.2394677807361E+01 -0.4846703635334E+00  0.1531462107550E+01
 0.2401757394431E+00 -0.2115162961840E+01 -0.3749974500672E+00  0.1627693622916E+01
 0.6280942935762E+00 -0.1861585801418E+01 -0.2466983052444E+00  0.1730091454680E+01
 0.1163485330446E+01 -0.1648619979945E+01 -0.9702693134566E-01  0.1821801447009E+01
 0.1870777899441E+01 -0.1489789833750E+01  0.7619761427380E-01  0.1874905710715E+01
 0.2760350335150E+01 -0.1393182055135E+01  0.2734336600776E+00  0.1848820066910E+01
 0.3818477901338E+01 -0.1354280832251E+01  0.4928394211614E+00  0.1695305514178E+01
 0.4995778788978E+01 -0.1350392758503E+01  0.7290772169592E+00  0.1370932061951E+01
-0.1804875598400E+01 -0.7718988777580E+01 -0.1904772903579E+01  0.1209873613499E+01
-0.1558887444779E+01 -0.7806801448687E+01 -0.1873137806605E+01  0.1386645884343E+01
-0.1291037073214E+01 -0.7879548269368E+01 -0.1834117095847E+01  0.1500698211826E+01
-0.1030786543066E+01 -0.7922381768436E+01 -0.1790633688983E+01  0.1557301626349E+01
-0.7993244108245E+00 -0.7927347732358E+01 -0.1745334454644E+01  0.1570232641092E+01
-0.6069962974367E+00 -0.7894044366193E+01 -0.1700208158061E+01  0.1555416728298E+01
-0.4553020334193E+00 -0.7827251294083E+01 -0.1656510690184E+01  0.1526323251343E+01
-0.3405227930238E+00 -0.7733873511468E+01 -0.1614879284962E+01  0.1492226941794E+01
-0.2568543673275E+00 -0.7620706778858E+01 -0.1575512252714E+01  0.1458490062151E+01
-0.1983482842169E+00 -0.7493336270933E+01 -0.1538336933953E+01  0.1427652857315E+01
-0.1598127601471E+00 -0.7355856845172E+01 -0.1503133943462E+01  0.1400550609638E+01
-0.1370588221310E+00 -0.7211012001711E+01 -0.1469614186667E+01  0.1377156587755E+01
-0.1268120504226E+00 -0.7060482172957E+01 -0.1437458866096E+01  0.1357122444408E+01
-0.1264858219279E+00 -0.6905192880785E+01 -0.1406335761499E+01  0.1340075688324E+01
-0.1339272108049E+00 -0.6745587701306E+01 -0.1375903002925E+01  0.1325734257615E+01
-0.1472126096191E+00 -0.6581849151557E+01 -0.1345812372289E+01  0.1313883703316E+01
-0.1645510951002E+00 -0.6414405869306E+01 -0.1315791412488E+01  0.1304187753550E+01
-0.1843244899838E+00 -0.6244291421670E+01 -0.1285723201490E+01  0.1295967249722E+01
-0.2052315803807E+00 -0.6072306156461E+01 -0.1255507566077E+01  0.1288310544306E+01
-0.2264318143948E+00 -0.5898259261055E+01 -0.1224938233343E+01  0.1280335852832E+01
-0.2475887212621E+00 -0.5721193162738E+01 -0.1193756394588E+01  0.1271309218277E+01
-0.2687898140129E+00 -0.5539710699172E+01 -0.1161700119948E+01  0.1260751531988E+01
-0.2903628231369E+00 -0.5352203261359E+01 -0.1128513233715E+01  0.1248532772176E+01
-0.3126374235889E+00 -0.5156995112820E+01 -0.1093926523583E+01  0.1234925936002E+01
-0.3356960226124E+00 -0.4952429952336E+01 -0.1057625210750E+01  0.1220622321286E+01
-0.3591286074551E+00 -0.4736934785588E+01 -0.1019212693796E+01  0.1206730823937E+01
-0.3817789071697E+00 -0.4509084846281E+01 -0.9781727652661E+00  0.1194783509514E+01
-0.4014470450852E+00 -0.4267581407774E+01 -0.9338057044866E+00  0.1186808582385E+01
-0.4145008535630E+00 -0.4011288580171E+01 -0.8851578999367E+00  0.1185439268640E+01
-0.4153574514762E+00 -0.3739603640013E+01 -0.8309922306806E+00  0.1193895677549E+01
-0.3958281155587E+00 -0.3452970226635E+01 -0.7697596799090E+00  0.1215834076685E+01
-0.3443498138074E+00 -0.3153429219176E+01 -0.6995558170208E+00  0.1255043734062E+01
-0.2451698018481E+00 -0.2845305715364E+01 -0.6180951126528E+00  0.1314820494911E+01
-0.7763849977612E-01 -0.2535960453302E+01 -0.5227197984048E+00  0.1396859552393E+01
 0.1840986681823E+00 -0.2236383250423E+01 -0.4104569225645E+00  0.1499516088682E+01
 0.5705960375704E+00 -0.1961120910054E+01 -0.2781049786409E+00  0.1615412716539E+01
 0.1115286406326E+01 -0.1726870994373E+01 -0.1223169194320E+00  0.1728473236968E+01
 0.1848705481656E+01 -0.1550161681759E+01  0.5970876086915E-01  0.1809618353764E+01
 0.2786761626627E+01 -0.1442204771017E+01  0.2689113751290E+00  0.1813706211760E+01
 0.3915931328664E+01 -0.1399643407024E+01  0.5032575918271E+00  0.1684711193542E+01
 0.5185575412418E+01 -0.1396371587527E+01  0.7578407762708E+00  0.1368234261483E+01
-0.1882317759948E+01 -0.8078331523102E+01 -0.1992129886295E+01  0.1245337331786E+01
-0.1612231346472E+01 -0.8174032427348E+01 -0.1957252783929E+01  0.1419487202620E+01
-0.1320134019392E+01 -0.8251500470434E+01 -0.1914326926491E+01  0.1523902048631E+01
-0.1040092641939E+01 -0.8293966537415E+01 -0.1866811863689E+01  0.1566160348889E+01
-0.7953127274702E+00 -0.8293463623990E+01 -0.1817755297379E+01  0.1563435155824E+01
-0.5957240884432E+00 -0.8251031525269E+01 -0.1769351149108E+01  0.1534364722306E+01
-0.4411935779765E+00 -0.8173298187082E+01 -0.1722898378685E+01  0.1493754322087E+01
-0.3262425256987E+00 -0.8068663214284E+01 -0.1678981173015E+01  0.1451064685787E+01
-0.2437136226906E+00 -0.7944821819463E+01 -0.1637707112834E+01  0.1411221702406E+01
-0.1868080284232E+00 -0.7807751548626E+01 -0.1598911939236E+01  0.1376133817084E+01
-0.1498859224774E+00 -0.7661615947668E+01 -0.1562300397309E+01  0.1346038513893E+01
-0.1285756668093E+00 -0.7509057559026E+01 -0.1527526667929E+01  0.1320429688734E+01
-0.1195731830945E+00 -0.7351582870215E+01 -0.1494231232928E+01  0.1298611185289E+01
-0.1203334133897E+00 -0.7189924662943E+01 -0.1462051637053E+01  0.1279982232837E+01
-0.1287552674806E+00 -0.7024347763738E+01 -0.1430620627562E+01  0.1264131076370E+01
-0.1429334108031E+00 -0.6854893287798E+01 -0.1399565360575E+01  0.1250781632892E+01
-0.1610418151360E+00 -0.6681916895504E+01 -0.1368591762522E+01  0.1239555679543E+01
-0.1813879027407E+00 -0.6506461317467E+01 -0.1337569863973E+01  0.1229703275448E+01
-0.2026007497748E+00 -0.6329360505323E+01 -0.1306392270486E+01  0.1220204564763E+01
-0.2238207723724E+00 -0.6150423091402E+01 -0.1274848791752E+01  0.1210052156503E+01
-0.2447643396423E+00 -0.5968656480088E+01 -0.1242684182464E+01  0.1198390957055E+01
-0.2656362661443E+00 -0.5782611818014E+01 -0.1209649634857E+01  0.1184644685618E+01
-0.2869224328214E+00 -0.5590628822466E+01 -0.1175510268574E+01  0.1168617764642E+01
-0.3091287102358E+00 -0.5390986539676E+01 -0.1140023066970E+01  0.1150544203578E+01
-0.3325205880083E+00 -0.5181982959925E+01 -0.1102900726021E+01  0.1131092580260E+01
-0.3568802657948E+00 -0.4961980678012E+01 -0.1063772204613E+01  0.1111359440831E+01
-0.3812633690363E+00 -0.4729446702094E+01 -0.1022142029457E+01  0.1092880765861E+01
-0.4037127075003E+00 -0.4482894942544E+01 -0.9773215445721E+00  0.1077730741069E+01
-0.4208693473009E+00 -0.4220888177564E+01 -0.9283515188065E+00  0.1068676126869E+01
-0.4274278803601E+00 -0.3942397106772E+01 -0.8739650104496E+00  0.1069214395027E+01
-0.4154186149074E+00 -0.3647321267205E+01 -0.8125479885304E+00  0.1083492180435E+01
-0.3733262615370E+00 -0.3337070397720E+01 -0.7420793429093E+00  0.1116084711725E+01
-0.2850872874389E+00 -0.3015334410149E+01 -0.6600843493536E+00  0.1171451071288E+01
-0.1290902613828E+00 -0.2689005147973E+01 -0.5636190902696E+00  0.1252875403582E+01
 0.1225506400482E+00 -0.2369061288452E+01 -0.4493021363759E+00  0.1360668592981E+01
 0.5040113497713E+00 -0.2070892078287E+01 -0.3133761503727E+00  0.1489479139915E+01
 0.1054396153544E+01 -0.1813269272116E+01 -0.1517746259761E+00  0.1624621177576E+01
 0.1811747322996E+01 -0.1616193867917E+01  0.3911069159870E-01  0.1736264898015E+01
 0.2798985394486E+01 -0.1494976985677E+01  0.2608016856480E+00  0.1774471950061E+01
 0.4005427808681E+01 -0.1448026076731E+01  0.5114803540115E+00  0.1673187626769E+01
 0.5373944615323E+01 -0.1447582943913E+01  0.7852723459834E+00  0.1367454888760E+01
-0.1960106736354E+01 -0.8445264516108E+01 -0.2081074281503E+01  0.1284234716741E+01
-0.1662982759305E+01 -0.8549608150526E+01 -0.2042518212402E+01  0.1455029928730E+01
-0.1344174899021E+01 -0.8631742442585E+01 -0.1995183498052E+01  0.1547930089394E+01
-0.1043217393644E+01 -0.8672746891068E+01 -0.1943192885898E+01  0.1573597903412E+01
-0.7853237497177E+00 -0.8664987536544E+01 -0.1890062285416E+01  0.1553415111118E+01
-0.5794694559303E+00 -0.8611517114254E+01 -0.1838197341428E+01  0.1509087595251E+01
-0.4233230139195E+00 -0.8521236206516E+01 -0.1788911870744E+01  0.1456679189103E+01
-0.3092969152276E+00 -0.8404202149039E+01 -0.1742699838822E+01  0.1405577598214E+01
-0.2287479845388E+00 -0.8268986547508E+01 -0.1699546931735E+01  0.1360026115643E+01
-0.1740222169816E+00 -0.8121861486176E+01 -0.1659176765355E+01  0.1321138435246E+01
-0.1390778470371E+00 -0.7966957560908E+01 -0.1621207105747E+01  0.1288468387218E+01
-0.1194165648414E+00 -0.7806736940562E+01 -0.1585230724702E+01  0.1260993525263E+01
-0.1117559459417E+00 -0.7642475879357E+01 -0.1550846388169E+01  0.1237658625783E+01
-0.1136359168384E+00 -0.7474674068441E+01 -0.1517662019671E+01  0.1217637015679E+01
-0.1230406958020E+00 -0.7303387210162E+01 -0.1485285603325E+01  0.1200399133803E+01
-0.1381024169929E+00 -0.7128493105828E+01 -0.1453319126220E+01  0.1185626319823E+01
-0.1569614657433E+00 -0.6950262252586E+01 -0.1421444764847E+01  0.1172919026469E+01
-0.1778381378444E+00 -0.6769743995019E+01 -0.1389516447278E+01  0.1161470689550E+01
-0.1992759061613E+00 -0.6587809070787E+01 -0.1357417015617E+01  0.1150156716924E+01
-0.2203883833988E+00 -0.6404269836755E+01 -0.1324931663774E+01  0.1137840097562E+01
-0.2409487774230E+00 -0.6218103546317E+01 -0.1291810483998E+01  0.1123540068218E+01
-0.2612906013168E+00 -0.6027818500497E+01 -0.1257821839106E+01  0.1106582601804E+01
-0.2820696984932E+00 -0.5831719017611E+01 -0.1222757761441E+01  0.1086709071249E+01
-0.3039759612819E+00 -0.5628063402115E+01 -0.1186407890358E+01  0.1064115491858E+01
-0.3274618364939E+00 -0.5415134551985E+01 -0.1148519294810E+01  0.1039441898055E+01
-0.3525055334199E+00 -0.5191263592658E+01 -0.1108753841737E+01  0.1013755723729E+01
-0.3783847304460E+00 -0.4954839795684E+01 -0.1066644921120E+01  0.9885669272769E+00
-0.4034093616245E+00 -0.4704211872592E+01 -0.1021524262065E+01  0.9659524357706E+00
-0.4245407323882E+00 -0.4437647710749E+01 -0.9724377031178E+00  0.9487580159200E+00
-0.4368281659717E+00 -0.4153672871620E+01 -0.9181002211992E+00  0.9406973317828E+00
-0.4326356640699E+00 -0.3851586634279E+01 -0.8568444724378E+00  0.9463482799694E+00
-0.4006536051393E+00 -0.3532056682079E+01 -0.7865420691640E+00  0.9710314575996E+00
-0.3247076381635E+00 -0.3197952400679E+01 -0.7045320182669E+00  0.1020378353794E+01
-0.1824425982216E+00 -0.2855424927376E+01 -0.6075735141731E+00  0.1099375578119E+01
 0.5590348713428E-01 -0.2515104122475E+01 -0.4918401343972E+00  0.1210585741661E+01
 0.4282146997729E+00 -0.2192915418871E+01 -0.3529401490789E+00  0.1351237336342E+01
 0.9799294639079E+00 -0.1909632162394E+01 -0.1859405424679E+00  0.1508817006047E+01
 0.1758108062823E+01 -0.1689228129868E+01  0.1377598679627E-01  0.1653468317812E+01
 0.2795154580142E+01 -0.1552198255191E+01  0.2485912686945E+00  0.1730159320284E+01
 0.4084946327619E+01 -0.1500400119356E+01  0.5169092493551E+00  0.1661317525224E+01
 0.5562464445538E+01 -0.1503018137925E+01  0.8118892736209E+00  0.1368083966028E+01
-0.2038203765217E+01 -0.8820824012078E+01 -0.2171805587821E+01  0.1326970143037E+01
-0.1710562888956E+01 -0.8934643485322E+01 -0.2129041306581E+01  0.1493456019535E+01
-0.1362254388413E+01 -0.9021217210080E+01 -0.2076694350644E+01  0.1572510868965E+01
-0.1039315778494E+01 -0.9059254413286E+01 -0.2019714068452E+01  0.1578947600962E+01
-0.7688201487845E+00 -0.9041990672917E+01 -0.1962162193579E+01  0.1539360023155E+01
-0.5580294963153E+00 -0.8975237343502E+01 -0.1906653396375E+01  0.1478856751034E+01
-0.4017233207818E+00 -0.8870642605873E+01 -0.1854473212965E+01  0.1414562087777E+01
-0.2898389344637E+00 -0.8740043233877E+01 -0.1805976460579E+01  0.1355428959055E+01
-0.2121477642858E+00 -0.8592800200010E+01 -0.1760989619100E+01  0.1304724783881E+01
-0.1601736794088E+00 -0.8435335158765E+01 -0.1719101793251E+01  0.1262598997785E+01
-0.1275444817431E+00 -0.8271620230890E+01 -0.1679832967558E+01  0.1227845852949E+01
-0.1097043701715E+00 -0.8103849894504E+01 -0.1642710877413E+01  0.1198901389998E+01
-0.1034499961803E+00 -0.7933013732023E+01 -0.1607292769591E+01  0.1174348382743E+01
-0.1064532494305E+00 -0.7759339894544E+01 -0.1573158652237E+01  0.1153141220465E+01
-0.1168202326977E+00 -0.7582645486954E+01 -0.1539893166877E+01  0.1134647257808E+01
-0.1327417592089E+00 -0.7402622418099E+01 -0.1507072857919E+01  0.1118527521892E+01
-0.1523252592157E+00 -0.7219442700222E+01 -0.1474353613857E+01  0.1104385707631E+01
-0.1736873109945E+00 -0.7034159113144E+01 -0.1441569306309E+01  0.1091375867904E+01
-0.1952657295615E+00 -0.6847681973957E+01 -0.1408589561693E+01  0.1078273128819E+01
-0.2161379453810E+00 -0.6659830968313E+01 -0.1375193803231E+01  0.1063806796169E+01
-0.2361391435021E+00 -0.6469557731815E+01 -0.1341139395048E+01  0.1046866909175E+01
-0.2557447117159E+00 -0.6275337880859E+01 -0.1306216537979E+01  0.1026683920274E+01
-0.2757925587210E+00 -0.6075460239828E+01 -0.1270250578638E+01  0.1002942307883E+01
-0.2971624205659E+00 -0.5868192439828E+01 -0.1233070990453E+01  0.9758041847025E+00
-0.3204935607685E+00 -0.5651839789232E+01 -0.1194466687799E+01  0.9458768595869E+00
-0.3459586594350E+00 -0.5424742759874E+01 -0.1154140301060E+01  0.9141816481183E+00
-0.3730617535213E+00 -0.5185252369783E+01 -0.1111662841226E+01  0.8821700730979E+00
-0.4003988703634E+00 -0.4931584753040E+01 -0.1066396740571E+01  0.8518733510672E+00
-0.4252944348716E+00 -0.4661731563845E+01 -0.1017405214904E+01  0.8261529594428E+00
-0.4432282153797E+00 -0.4373768459407E+01 -0.9633993493131E+00  0.8088638816300E+00
-0.4470159898796E+00 -0.4066352260713E+01 -0.9026736635694E+00  0.8049353554775E+00
-0.4257251461408E+00 -0.3739307669388E+01 -0.8330065755184E+00  0.8203622183295E+00
-0.3633035112970E+00 -0.3394495013922E+01 -0.7515597162428E+00  0.8619164163950E+00
-0.2369364797130E+00 -0.3037019297588E+01 -0.6547911652174E+00  0.9363551868655E+00
-0.1525307486955E-01 -0.2676737071458E+01 -0.5383980372883E+00  0.1048765388839E+01
 0.3432928116883E+00 -0.2329648302700E+01 -0.3972711041221E+00  0.1199560330602E+01
 0.8910543574995E+00 -0.2018281329322E+01 -0.2254453977240E+00  0.1379395507570E+01
 0.1685886213731E+01 -0.1770990673675E+01 -0.1702089224242E-01  0.1559438454919E+01
 0.2772709569224E+01 -0.1614949398817E+01  0.2315520375318E+00  0.1679709301319E+01
 0.4152615012074E+01 -0.1557079660549E+01  0.5191070780401E+00  0.1649082557596E+01
 0.5751899790632E+01 -0.1563131998948E+01  0.8377535708201E+00  0.1370228152325E+01
-0.2116543816736E+01 -0.9206264713117E+01 -0.2264561739715E+01  0.1374017088467E+01
-0.1754233587682E+01 -0.9330470266912E+01 -0.2216940803954E+01  0.1534936085410E+01
-0.1373272536440E+01 -0.9420991529969E+01 -0.2158852845451E+01  0.1597230354311E+01
-0.1027433543452E+01 -0.9453998431524E+01 -0.2096286426232E+01  0.1581336138573E+01
-0.7452689713797E+00 -0.9424413320923E+01 -0.2033936488768E+01  0.1520285335198E+01
-0.5312740911465E+00 -0.9341766350581E+01 -0.1974608117769E+01  0.1442851349565E+01
-0.3765150956979E+00 -0.9220957334005E+01 -0.1919494514543E+01  0.1366844420970E+01
-0.2680945384059E+00 -0.9075644771831E+01 -0.1868747889894E+01  0.1300298170018E+01
-0.1941546607700E+00 -0.8915804449903E+01 -0.1821991849284E+01  0.1245169241431E+01
-0.1454787061718E+00 -0.8747808747823E+01 -0.1778657517303E+01  0.1200478449819E+01
-0.1154630852498E+00 -0.8575323569745E+01 -0.1738157356899E+01  0.1164203102194E+01
-0.9957551438419E-01 -0.8400184281416E+01 -0.1699951984491E+01  0.1134228767388E+01
-0.9475329111949E-01 -0.8223040733799E+01 -0.1663558829773E+01  0.1108783107057E+01
-0.9884949404814E-01 -0.8043815564410E+01 -0.1628533035959E+01  0.1086612907226E+01
-0.1101315574496E+00 -0.7862059996625E+01 -0.1594438334574E+01  0.1066999077780E+01
-0.1268726337843E+00 -0.7677256822461E+01 -0.1560825914507E+01  0.1049607181065E+01
-0.1471470368663E+00 -0.7489464410221E+01 -0.1527322312176E+01  0.1034072718886E+01
-0.1689464841775E+00 -0.7299734330884E+01 -0.1493736185271E+01  0.1019530915798E+01
-0.1905782007703E+00 -0.7109018049876E+01 -0.1459919271884E+01  0.1004661966393E+01
-0.2110725615388E+00 -0.6917144702995E+01 -0.1425643474150E+01  0.9880573256680E+00
-0.2303337617286E+00 -0.6723044092718E+01 -0.1390675591612E+01  0.9684758486949E+00
-0.2489945974873E+00 -0.6525170958679E+01 -0.1354833131422E+01  0.9450585154653E+00
-0.2680873875706E+00 -0.6321823069769E+01 -0.1317982111107E+01  0.9174436741172E+00
-0.2886849909259E+00 -0.6111314010059E+01 -0.1279999819271E+01  0.8857673096650E+00
-0.3116085902335E+00 -0.5892016570378E+01 -0.1240725050611E+01  0.8506017977297E+00
-0.3372176101062E+00 -0.5662329720387E+01 -0.1199909483979E+01  0.8129054398494E+00
-0.3652398747909E+00 -0.5420615270447E+01 -0.1157171046291E+01  0.7740369450403E+00
-0.3945697080244E+00 -0.5165000936044E+01 -0.1111914145382E+01  0.7359288158381E+00
-0.4229316541400E+00 -0.4893235069306E+01 -0.1063233360533E+01  0.7013868961479E+00
-0.4463075256060E+00 -0.4602956074407E+01 -0.1009852735050E+01  0.6743193837644E+00
-0.4580825864820E+00 -0.4292155980178E+01 -0.9500477274889E+00  0.6599055258734E+00
-0.4478810492752E+00 -0.3959734550981E+01 -0.8815231331870E+00  0.6647093777318E+00
-0.4000342190342E+00 -0.3606363440616E+01 -0.8012795438701E+00  0.6965608540738E+00
-0.2916205646356E+00 -0.3235774819742E+01 -0.7054790873879E+00  0.7639907330858E+00
-0.9005858291971E-01 -0.2856540478862E+01 -0.5893198211379E+00  0.8748252030171E+00
 0.2496170180687E+00 -0.2484087208691E+01 -0.4468940447838E+00  0.1033288876409E+01
 0.7871023656539E+00 -0.2142177708798E+01 -0.2710150726674E+00  0.1234413547117E+01
 0.1592984361158E+01 -0.1863811019299E+01 -0.5416533243542E-01  0.1451941572863E+01
 0.2728549632057E+01 -0.1684526847357E+01  0.2088045600515E+00  0.1621588133216E+01
 0.4206136514147E+01 -0.1618606601714E+01  0.5175059901981E+00  0.1636269497296E+01
 0.5943157959607E+01 -0.1628508381600E+01  0.8629299284600E+00  0.1374168981766E+01
-0.2195023322581E+01 -0.9603128805549E+01 -0.2359630460787E+01  0.1425933895218E+01
-0.1793043714825E+01 -0.9738696256004E+01 -0.2306348028533E+01  0.1579609626878E+01
-0.1375888525605E+01 -0.9832266296807E+01 -0.2241630997885E+01  0.1621469422977E+01
-0.1006506214220E+01 -0.9857423310030E+01 -0.2172785937227E+01  0.1579622099476E+01
-0.7141731901704E+00 -0.9812004344496E+01 -0.2105235538304E+01  0.1495007905222E+01
-0.4991803386503E+00 -0.9710471201130E+01 -0.2041930338383E+01  0.1400164166106E+01
-0.3479281745526E+00 -0.9571462328329E+01 -0.1983878130138E+01  0.1312963903233E+01
-0.2443712942566E+00 -0.9410366694929E+01 -0.1930947626611E+01  0.1239898948711E+01
-0.1750628443411E+00 -0.9237487164505E+01 -0.1882510029821E+01  0.1181253483931E+01
-0.1301852238038E+00 -0.9058891022009E+01 -0.1837815276548E+01  0.1134777416540E+01
-0.1030299894522E+00 -0.8877772910380E+01 -0.1796160606731E+01  0.1097602296415E+01
-0.8917833979087E-01 -0.8695519042967E+01 -0.1756939502732E+01  0.1067074792578E+01
-0.8577109646876E-01 -0.8512394252680E+01 -0.1719633095454E+01  0.1041085305111E+01
-0.9089221139556E-01 -0.8327989329096E+01 -0.1683776333189E+01  0.1018188024577E+01
-0.1030124748020E+00 -0.8141566141113E+01 -0.1648915747754E+01  0.9975944631114E+00
-0.1205142045144E+00 -0.7952374452558E+01 -0.1614577755474E+01  0.9790010473317E+00
-0.1414379766884E+00 -0.7760340902804E+01 -0.1580355799448E+01  0.9621075515849E+00
-0.1636242104573E+00 -0.7566508415979E+01 -0.1546026548325E+01  0.9460544847055E+00
-0.1852189315299E+00 -0.7371868637636E+01 -0.1511417536355E+01  0.9294332521865E+00
-0.2051933844714E+00 -0.7176259630838E+01 -0.1476290625060E+01  0.9106932248935E+00
-0.2235307292089E+00 -0.6978591957523E+01 -0.1440424558810E+01  0.8884624933153E+00
-0.2410396947479E+00 -0.6777313592362E+01 -0.1403670678338E+01  0.8618038131880E+00
-0.2589593808348E+00 -0.6570761557406E+01 -0.1365944208002E+01  0.8303258556220E+00
-0.2785557936860E+00 -0.6357339775137E+01 -0.1327179133541E+01  0.7941503963284E+00
-0.3008216016967E+00 -0.6135541773175E+01 -0.1287272694156E+01  0.7538148043881E+00
-0.3262882761912E+00 -0.5903882690863E+01 -0.1246034211978E+01  0.7101978960520E+00
-0.3548970326104E+00 -0.5660793985870E+01 -0.1203138221624E+01  0.6645298793106E+00
-0.3858446765995E+00 -0.5404371471570E+01 -0.1158043246890E+01  0.6185879638549E+00
-0.4172852094058E+00 -0.5132169335041E+01 -0.1109890925428E+01  0.5750442101924E+00
-0.4457671473885E+00 -0.4841422538745E+01 -0.1057437952984E+01  0.5377599650377E+00
-0.4653580339933E+00 -0.4529462353460E+01 -0.9989640923764E+00  0.5120422888281E+00
-0.4664203816403E+00 -0.4194211192476E+01 -0.9321263287130E+00  0.5048836333282E+00
-0.4339502366603E+00 -0.3834997499412E+01 -0.8537895599369E+00  0.5250307896441E+00
-0.3453348413439E+00 -0.3453853128728E+01 -0.7598376053369E+00  0.5827039337948E+00
-0.1673284401608E+00 -0.3057480601331E+01 -0.6449618179090E+00  0.6885834902809E+00
 0.1479498329289E+00 -0.2659871044648E+01 -0.5023842498298E+00  0.8512940192684E+00
 0.6676786270531E+00 -0.2285126021416E+01 -0.3234894836929E+00  0.1071652376809E+01
 0.1477166171583E+01 -0.1970810444281E+01 -0.9872885601090E-01  0.1328149367084E+01
 0.2658921971479E+01 -0.1762703950620E+01  0.1792436068429E+00  0.1553617104209E+01
 0.4242569016718E+01 -0.1685745170276E+01  0.5113647769083E+00  0.1622445393644E+01
 0.6137328861672E+01 -0.1699900045407E+01  0.8874857764775E+00  0.1380333061695E+01
-0.2273481347252E+01 -0.1001334348582E+02 -0.2457365003232E+01  0.1483383918478E+01
-0.1825754000494E+01 -0.1016128295902E+02 -0.2397407427626E+01  0.1627550876196E+01
-0.1368464736300E+01 -0.1025637855983E+02 -0.2324968693870E+01  0.1644312745166E+01
-0.9753697815374E+00 -0.1026983858094E+02 -0.2249041706009E+01  0.1572317970513E+01
-0.6751203176835E+00 -0.1020423835314E+02 -0.2175871766589E+01  0.1462122885683E+01
-0.4618762823525E+00 -0.1008045962659E+02 -0.2108467213207E+01  0.1349819263362E+01
-0.3163243091725E+00 -0.9921263508872E+01 -0.2047517594119E+01  0.1252383133487E+01
-0.2190645394607E+00 -0.9743471892882E+01 -0.1992507316159E+01  0.1174001947415E+01
-0.1552173653399E+00 -0.9557290139856E+01 -0.1942501529985E+01  0.1112927530047E+01
-0.1145691026730E+00 -0.9368171280208E+01 -0.1896548104837E+01  0.1065540975197E+01
-0.9045728950683E-01 -0.9178665319828E+01 -0.1853824549491E+01  0.1028138247452E+01
-0.7867097894327E-01 -0.8989627729086E+01 -0.1813659768632E+01  0.9975628983310E+00
-0.7661499004703E-01 -0.8800905924056E+01 -0.1775504209278E+01  0.9713975050043E+00
-0.8265197317277E-01 -0.8611743942600E+01 -0.1738879209066E+01  0.9480211302678E+00
-0.9550029672653E-01 -0.8421096734976E+01 -0.1703319431722E+01  0.9265911065203E+00
-0.1136825365228E+00 -0.8227956382981E+01 -0.1668327808761E+01  0.9068607672158E+00
-0.1352051466961E+00 -0.8032095176115E+01 -0.1633460088903E+01  0.8886301755710E+00
-0.1577247390971E+00 -0.7834535094541E+01 -0.1598451990546E+01  0.8710730388807E+00
-0.1791889838551E+00 -0.7636302419017E+01 -0.1563098303866E+01  0.8526988053388E+00
-0.1984972937384E+00 -0.7437239319894E+01 -0.1527147345483E+01  0.8318107060693E+00
-0.2157260337963E+00 -0.7236238121252E+01 -0.1490392853218E+01  0.8069102846974E+00
-0.2318819933692E+00 -0.7031757671568E+01 -0.1452727954635E+01  0.7770003772356E+00
-0.2484229309876E+00 -0.6822212407588E+01 -0.1414127088787E+01  0.7416832704456E+00
-0.2668038177702E+00 -0.6606150229795E+01 -0.1374590829996E+01  0.7010827773865E+00
-0.2881720602692E+00 -0.6382247296413E+01 -0.1334083891216E+01  0.6557031795908E+00
-0.3132088766296E+00 -0.6149200869655E+01 -0.1292481968516E+01  0.6063279918261E+00
-0.3420498595398E+00 -0.5905580502058E+01 -0.1249526090939E+01  0.5540227485621E+00
-0.3741893294524E+00 -0.5649519421577E+01 -0.1204741768158E+01  0.5003505570318E+00
-0.4082307016039E+00 -0.5378444688651E+01 -0.1157335095297E+01  0.4477665860744E+00
-0.4413439634818E+00 -0.5089246520338E+01 -0.1106118113246E+01  0.3999755164538E+00
-0.4683816490795E+00 -0.4778632671300E+01 -0.1049402879713E+01  0.3622710977411E+00
-0.4806192350475E+00 -0.4443537100609E+01 -0.9848312818065E+00  0.3418977629926E+00
-0.4640060714132E+00 -0.4081835389567E+01 -0.9091683057436E+00  0.3483141383883E+00
-0.3967035075625E+00 -0.3693561441379E+01 -0.8180530019783E+00  0.3932381657784E+00
-0.2454992888078E+00 -0.3282923399714E+01 -0.7056845482199E+00  0.4901666582027E+00
 0.3957076957571E-01 -0.2861394205113E+01 -0.5643646955171E+00  0.6525858723335E+00
 0.5328371426596E+00 -0.2452017382760E+01 -0.3838360537396E+00  0.8886411615232E+00
 0.1336159923841E+01 -0.2096239533128E+01 -0.1520159241226E+00  0.1184488786543E+01
 0.2559284583503E+01 -0.1852005944010E+01  0.1414557300064E+00  0.1472723854001E+01
 0.4258020763571E+01 -0.1759561511588E+01  0.4996918578426E+00  0.1606841065325E+01
 0.6335771434414E+01 -0.1778253012066E+01  0.9115036980521E+00  0.1389296834397E+01
-0.2351670134666E+01 -0.1043936187883E+02 -0.2558206440820E+01  0.1547161290018E+01
-0.1850730524938E+01 -0.1060064866502E+02 -0.2490275875099E+01  0.1678709821540E+01
-0.1349001385707E+01 -0.1069478480006E+02 -0.2408757273046E+01  0.1664415225658E+01
-0.9327925915521E+00 -0.1069130676829E+02 -0.2324819906610E+01  0.1557493805628E+01
-0.6278547044221E+00 -0.1060020463517E+02 -0.2245611901381E+01  0.1419991233057E+01
-0.4196941476827E+00 -0.1045052315998E+02 -0.2174043493928E+01  0.1290807792659E+01
-0.2822184686298E+00 -0.1026927965549E+02 -0.2110299656271E+01  0.1184629554269E+01
-0.1926591690305E+00 -0.1007413492189E+02 -0.2053358848782E+01  0.1102461344496E+01
-0.1350090600719E+00 -0.9874621557922E+01 -0.2001926153430E+01  0.1040211327513E+01
-0.9892833698887E-01 -0.9675229922878E+01 -0.1954831681103E+01  0.9928646275556E+00
-0.7796839578674E-01 -0.9477696999125E+01 -0.1911133107460E+01  0.9559400211780E+00
-0.6821880512437E-01 -0.9282282557591E+01 -0.1870100300410E+01  0.9258403701381E+00
-0.6740197602837E-01 -0.9088402643893E+01 -0.1831160951271E+01  0.8998815301987E+00
-0.7420230242379E-01 -0.8894955537041E+01 -0.1793831594623E+01  0.8762856873507E+00
-0.8763160307028E-01 -0.8700580443585E+01 -0.1757642435522E+01  0.8541662943501E+00
-0.1063896626890E+00 -0.8503986443909E+01 -0.1722075246981E+01  0.8333566388485E+00
-0.1284499007732E+00 -0.8304762027737E+01 -0.1686642410835E+01  0.8137958588122E+00
-0.1512457734165E+00 -0.8103887891691E+01 -0.1651026757624E+01  0.7947227794021E+00
-0.1724819966220E+00 -0.7902411661628E+01 -0.1614978755715E+01  0.7745723470029E+00
-0.1909738356848E+00 -0.7700168162806E+01 -0.1578228423216E+01  0.7514984258986E+00
-0.2069111537721E+00 -0.7496030713641E+01 -0.1540588396439E+01  0.7238862584261E+00
-0.2215249699595E+00 -0.7288492377093E+01 -0.1502003491792E+01  0.6907066042800E+00
-0.2365020573062E+00 -0.7076093936838E+01 -0.1462519220622E+01  0.6515866045686E+00
-0.2534766947445E+00 -0.6857591998324E+01 -0.1422213759806E+01  0.6066723633369E+00
-0.2737272610967E+00 -0.6631916045379E+01 -0.1381128681876E+01  0.5564383693796E+00
-0.2980544682991E+00 -0.6398018834376E+01 -0.1339214680491E+01  0.5015577756018E+00
-0.3267601124975E+00 -0.6154685197907E+01 -0.1296289081397E+01  0.4428958181704E+00
-0.3596209686372E+00 -0.5900167827124E+01 -0.1251957777808E+01  0.3817422386592E+00
-0.3956988965026E+00 -0.5631852941903E+01 -0.1205510385645E+01  0.3202497818226E+00
-0.4328272866531E+00 -0.5346373162316E+01 -0.1155840107017E+01  0.2618501630866E+00
-0.4667307420654E+00 -0.5039890062112E+01 -0.1101324177246E+01  0.2116672829739E+00
-0.4897557778418E+00 -0.4708391605395E+01 -0.1039629492139E+01  0.1769883536337E+00
-0.4890842652348E+00 -0.4348258185405E+01 -0.9674685045443E+00  0.1677140369539E+00
-0.4441420401716E+00 -0.3957298544141E+01 -0.8802881299799E+00  0.1967456628248E+00
-0.3225830442938E+00 -0.3536620109261E+01 -0.7718406422124E+00  0.2801495295154E+00
-0.7357565693663E-01 -0.3093909455895E+01 -0.6334970320062E+00  0.4364817008030E+00
 0.3833314483252E+00 -0.2649135332575E+01 -0.4531607836026E+00  0.6827427332716E+00
 0.1167852344877E+01 -0.2245960442386E+01 -0.2156216227148E+00  0.1016490182056E+01
 0.2424155549002E+01 -0.1956127074881E+01  0.9360569621914E-01  0.1374576743099E+01
 0.4247225311868E+01 -0.1841574426064E+01  0.4811301843303E+00  0.1588121081823E+01
 0.6540194627845E+01 -0.1864773528111E+01  0.9350842338807E+00  0.1401824779966E+01
-0.2429208070799E+01 -0.1088437190137E+02 -0.2662716034111E+01  0.1618223623458E+01
-0.1865791933561E+01 -0.1105980457045E+02 -0.2585119339323E+01  0.1732809767827E+01
-0.1315065173228E+01 -0.1114900552739E+02 -0.2492814177270E+01  0.1679805426511E+01
-0.8775441369903E+00 -0.1112146590548E+02 -0.2399802044253E+01  0.1532663735299E+01
-0.5723814613268E+00 -0.1099846279157E+02 -0.2314168885063E+01  0.1366750736502E+01
-0.3732312225236E+00 -0.1081908227236E+02 -0.2238462732332E+01  0.1222150071626E+01
-0.2462946599737E+00 -0.1061424424789E+02 -0.2172107813940E+01  0.1109347845333E+01
-0.1657247728244E+00 -0.1040146042460E+02 -0.2113437070977E+01  0.1025243971038E+01
-0.1148652651722E+00 -0.1018887359346E+02 -0.2060747802434E+01  0.9632078297701E+00
-0.8357496767427E-01 -0.9979651642350E+01 -0.2012645351996E+01  0.9168988540611E+00
-0.6579243217036E-01 -0.9774572038211E+01 -0.1968072923403E+01  0.8811711065369E+00
-0.5799148885129E-01 -0.9573258985946E+01 -0.1926250123663E+01  0.8520765112056E+00
-0.5825384472034E-01 -0.9374707227516E+01 -0.1886592242560E+01  0.8267165835284E+00
-0.6562026784195E-01 -0.9177491356131E+01 -0.1848622352341E+01  0.8031737368715E+00
-0.7944264316885E-01 -0.8979938755971E+01 -0.1811876306827E+01  0.7805189029179E+00
-0.9864293976002E-01 -0.8780450072786E+01 -0.1775818628971E+01  0.7586813205803E+00
-0.1211661155045E+00 -0.8578390561860E+01 -0.1739911361400E+01  0.7377792183317E+00
-0.1441756167288E+00 -0.8374666338829E+01 -0.1703768416500E+01  0.7171525242617E+00
-0.1650803511571E+00 -0.8170320380099E+01 -0.1667080171093E+01  0.6951698094371E+00
-0.1826011961625E+00 -0.7965158805873E+01 -0.1629552024689E+01  0.6698346009824E+00
-0.1970700665381E+00 -0.7758033777827E+01 -0.1591020792581E+01  0.6394356628767E+00
-0.2099724080623E+00 -0.7547505355453E+01 -0.1551495575822E+01  0.6029523252807E+00
-0.2232310059326E+00 -0.7332304597605E+01 -0.1511107143225E+01  0.5600765983453E+00
-0.2386426581733E+00 -0.7111474799539E+01 -0.1470023513448E+01  0.5109999696048E+00
-0.2575854321606E+00 -0.6884277915857E+01 -0.1428372690888E+01  0.4561704957411E+00
-0.2809414366246E+00 -0.6650001233647E+01 -0.1386188554710E+01  0.3961365932268E+00
-0.3091411635293E+00 -0.6407729075688E+01 -0.1343374067861E+01  0.3315294336461E+00
-0.3422180231191E+00 -0.6155927647795E+01 -0.1299629153549E+01  0.2633079713163E+00
-0.3796891622741E+00 -0.5892048760958E+01 -0.1254347603338E+01  0.1932378817096E+00
-0.4200776893991E+00 -0.5612586346494E+01 -0.1206532825157E+01  0.1243595431778E+00
-0.4600460480077E+00 -0.5313279848794E+01 -0.1154665196566E+01  0.6146020777618E-01
-0.4931428683382E+00 -0.4989279091597E+01 -0.1096484408326E+01  0.1163357412463E-01
-0.5080328372026E+00 -0.4635517294351E+01 -0.1028710041640E+01 -0.1510696892560E-01
-0.4858855315844E+00 -0.4247469677596E+01 -0.9466710559426E+00 -0.5118330796149E-02
-0.3961421350461E+00 -0.3822646121609E+01 -0.8437576639041E+00  0.5972973213428E-01
-0.1887195438879E+00 -0.3363596524413E+01 -0.7104632242470E+00  0.2028557733688E+00
 0.2209594774172E+00 -0.2884516441615E+01 -0.5327114007776E+00  0.4513494360393E+00
 0.9706339324286E+00 -0.2428131872960E+01 -0.2914995924499E+00  0.8186626816987E+00
 0.2246989096466E+01 -0.2080605246435E+01  0.3327677050193E-01  0.1253056741219E+01
 0.4202918785508E+01 -0.1934042920882E+01  0.4537751796869E+00  0.1563974776943E+01
 0.6752745210175E+01 -0.1961047386226E+01  0.9583395790703E+00  0.1418931249630E+01
-0.2505502909578E+01 -0.1135261490771E+02 -0.2771623604758E+01  0.1697732576944E+01
-0.1867987924534E+01 -0.1154253237783E+02 -0.2682104100440E+01  0.1789167325269E+01
-0.1263722573078E+01 -0.1162049287045E+02 -0.2576843127104E+01  0.1687595913366E+01
-0.8085261050420E+00 -0.1155925270429E+02 -0.2473555798726E+01  0.1494664370936E+01
-0.5091100954431E+00 -0.1139686448230E+02 -0.2381194951031E+01  0.1300372363773E+01
-0.3234124567034E+00 -0.1118414674422E+02 -0.2301511874480E+01  0.1142993156847E+01
-0.2094100755321E+00 -0.1095472808764E+02 -0.2232827665906E+01  0.1026363545752E+01
-0.1389018190143E+00 -0.1072451296104E+02 -0.2172682988387E+01  0.9424582289923E+00
-0.9523601047026E-01 -0.1049944507615E+02 -0.2118936248898E+01  0.8821138072885E+00
-0.6882479378935E-01 -0.1028104102424E+02 -0.2069973194451E+01  0.8378516318204E+00
-0.5415751550445E-01 -0.1006901243020E+02 -0.2024634019311E+01  0.8040278229748E+00
-0.4815968821291E-01 -0.9862340808751E+01 -0.1982100128928E+01  0.7764591213269E+00
-0.4929691385610E-01 -0.9659638660111E+01 -0.1941787143728E+01  0.7520957656629E+00
-0.5698805034174E-01 -0.9459205935492E+01 -0.1903238825527E+01  0.7288946334856E+00
-0.7097076241104E-01 -0.9259080786950E+01 -0.1866010337678E+01  0.7058716332309E+00
-0.9044494368938E-01 -0.9057331623430E+01 -0.1829555340686E+01  0.6830549019462E+00
-0.1133382702346E+00 -0.8853046866140E+01 -0.1793277053997E+01  0.6607800972009E+00
-0.1364894480596E+00 -0.8647004127310E+01 -0.1756698741251E+01  0.6385279783750E+00
-0.1569499744071E+00 -0.8440195167040E+01 -0.1719429053911E+01  0.6146098605918E+00
-0.1733409010551E+00 -0.8232361592112E+01 -0.1681140523684E+01  0.5868831057793E+00
-0.1861756149151E+00 -0.8022332526754E+01 -0.1641701652797E+01  0.5535750076185E+00
-0.1972272526793E+00 -0.7808783512604E+01 -0.1601202176916E+01  0.5137310701206E+00
-0.2086552015743E+00 -0.7590720774075E+01 -0.1559875218374E+01  0.4671570785092E+00
-0.2223927730322E+00 -0.7367567939542E+01 -0.1517992165135E+01  0.4141133429137E+00
-0.2398788428872E+00 -0.7139005848965E+01 -0.1475776960361E+01  0.3550226525653E+00
-0.2620317957890E+00 -0.6904738041834E+01 -0.1433353988883E+01  0.2902947299728E+00
-0.2893643123628E+00 -0.6664236716430E+01 -0.1390720226482E+01  0.2202964708201E+00
-0.3221295466979E+00 -0.6416286083595E+01 -0.1347683146141E+01  0.1456033967976E+00
-0.3602837228680E+00 -0.6158530508929E+01 -0.1303762865787E+01  0.6751455918531E-01
-0.4030478687077E+00 -0.5887478932730E+01 -0.1258105379035E+01 -0.1143581335843E-01
-0.4480611924495E+00 -0.5598625558111E+01 -0.1209337368133E+01 -0.8696747730417E-01
-0.4901683489288E+00 -0.5286465681980E+01 -0.1155326823398E+01 -0.1524351643366E+00
-0.5197178374670E+00 -0.4944644436631E+01 -0.1092872471105E+01 -0.1980893514326E+00
-0.5200456251421E+00 -0.4566364571518E+01 -0.1017282054491E+01 -0.2101020230050E+00
-0.4633049150288E+00 -0.4145271451158E+01 -0.9217152869720E+00 -0.1690684699939E+00
-0.3021167182532E+00 -0.3677551270989E+01 -0.7959336097089E+00 -0.4750681229751E-01
 0.4901636300315E-01 -0.3168332824997E+01 -0.6238633016951E+00  0.1922613332243E+00
 0.7439910315374E+00 -0.2654169970576E+01 -0.3820357935005E+00  0.5844713477340E+00
 0.2020161048537E+01 -0.2233942487911E+01 -0.4275628851209E-01  0.1099519089926E+01
 0.4114914659850E+01 -0.2040519530294E+01  0.4148790320933E+00  0.1530389654911E+01
 0.6976085676773E+01 -0.2069262350948E+01  0.9813646797885E+00  0.1441957667259E+01
-0.2579623633871E+01 -0.1184988824137E+02 -0.2885902418051E+01  0.1787101147603E+01
-0.1853275204515E+01 -0.1205360813972E+02 -0.2781376710293E+01  0.1846370853144E+01
-0.1191504103623E+01 -0.1211034714926E+02 -0.2660370290218E+01  0.1683558394914E+01
-0.7250055986834E+00 -0.1200247859830E+02 -0.2545496877327E+01  0.1439552144297E+01
-0.4390426251802E+00 -0.1179235341935E+02 -0.2446279245359E+01  0.1218796741359E+01
-0.2715416867050E+00 -0.1154331445757E+02 -0.2362971264066E+01  0.1052751426429E+01
-0.1725793739083E+00 -0.1128919080772E+02 -0.2292354070485E+01  0.9357524245078E+00
-0.1128773217664E+00 -0.1104235831203E+02 -0.2231047160005E+01  0.8543787666588E+00
-0.7657593591025E-01 -0.1080576852889E+02 -0.2176468925392E+01  0.7972269556326E+00
-0.5498509731696E-01 -0.1057904015509E+02 -0.2126805082174E+01  0.7559883586190E+00
-0.4328300245662E-01 -0.1036076916940E+02 -0.2080810465378E+01  0.7247357164958E+00
-0.3889136409127E-01 -0.1014932587224E+02 -0.2037643477630E+01  0.6991890357148E+00
-0.4066224824876E-01 -0.9943011992151E+01 -0.1996734877834E+01  0.6762205503134E+00
-0.4839587878837E-01 -0.9739935267612E+01 -0.1957666258452E+01  0.6536723331555E+00
-0.6225742329769E-01 -0.9537894879795E+01 -0.1920030489229E+01  0.6304734167129E+00
-0.8179431047867E-01 -0.9334609204609E+01 -0.1883280731081E+01  0.6067319225442E+00
-0.1049393808454E+00 -0.9128816824104E+01 -0.1846751268509E+01  0.5830321845227E+00
-0.1281443118219E+00 -0.8921080129442E+01 -0.1809844915222E+01  0.5590380314631E+00
-0.1480331709334E+00 -0.8712259809396E+01 -0.1772058622472E+01  0.5330145833829E+00
-0.1631308461604E+00 -0.8501976543049E+01 -0.1733021503666E+01  0.5026879552123E+00
-0.1741852375748E+00 -0.8289039102718E+01 -0.1692644893281E+01  0.4662829356857E+00
-0.1832907621502E+00 -0.8072312953137E+01 -0.1651120767661E+01  0.4229907207532E+00
-0.1928328201628E+00 -0.7851193443147E+01 -0.1608805276635E+01  0.3727872893666E+00
-0.2048435526545E+00 -0.7625596149233E+01 -0.1566087963714E+01  0.3160211252167E+00
-0.2207768407592E+00 -0.7395712050345E+01 -0.1523297800920E+01  0.2530852353747E+00
-0.2415370658729E+00 -0.7161740734305E+01 -0.1480655582099E+01  0.1842366251098E+00
-0.2676646036090E+00 -0.6923630473081E+01 -0.1438259036770E+01  0.1095534951991E+00
-0.2995844973823E+00 -0.6680595792884E+01 -0.1396036078856E+01  0.2918382628157E-01
-0.3376624189508E+00 -0.6430620994614E+01 -0.1353656702884E+01 -0.5610915612978E-01
-0.3818052559233E+00 -0.6170421404356E+01 -0.1310445351583E+01 -0.1444017118773E+00
-0.4306358148420E+00 -0.5895481228023E+01 -0.1265223427426E+01 -0.2320865675978E+00
-0.4803425374958E+00 -0.5599908468253E+01 -0.1216050219270E+01 -0.3132298149251E+00
-0.5230912769591E+00 -0.5276345428044E+01 -0.1159887358284E+01 -0.3787507044867E+00
-0.5447020610268E+00 -0.4915996375806E+01 -0.1092139703641E+01 -0.4152756833092E+00
-0.5208461403016E+00 -0.4508740240898E+01 -0.1005917291229E+01 -0.4031768014908E+00
-0.4089585765077E+00 -0.4043624918410E+01 -0.8905167122533E+00 -0.3124396295473E+00
-0.1271531425830E+00 -0.3513210428636E+01 -0.7280727250929E+00 -0.9564928842201E-01
 0.4894829021947E+00 -0.2940053927216E+01 -0.4901142123076E+00  0.3065761233486E+00
 0.1735242385813E+01 -0.2429487991827E+01 -0.1388491232720E+00  0.9018166293749E+00
 0.3968731951005E+01 -0.2166946697729E+01  0.3603570560250E+00  0.1480349851358E+01
 0.7213411740720E+01 -0.2192653059573E+01  0.1004151751192E+01  0.1472627969902E+01
-0.2650081869474E+01 -0.1238436918790E+02 -0.3006890256280E+01  0.1888039632776E+01
-0.1816040782292E+01 -0.1259906004668E+02 -0.2883020208755E+01  0.1901693967884E+01
-0.1094459332779E+01 -0.1261873826144E+02 -0.2742639559711E+01  0.1661510210619E+01
-0.6270108197898E+00 -0.1244719952817E+02 -0.2614842108555E+01  0.1362585556928E+01
-0.3639991033419E+00 -0.1218078572990E+02 -0.2508957004034E+01  0.1120201812609E+01
-0.2193170576282E+00 -0.1189384378821E+02 -0.2422632205268E+01  0.9512889695176E+00
-0.1369304450234E+00 -0.1161606561258E+02 -0.2350599246546E+01  0.8379036525928E+00
-0.8835038992113E-01 -0.1135411379532E+02 -0.2288492871148E+01  0.7614624678307E+00
-0.5932277976795E-01 -0.1110734056321E+02 -0.2233332701875E+01  0.7089481807008E+00
-0.4234075229175E-01 -0.1087334759201E+02 -0.2183137701392E+01  0.6716286849238E+00
-0.3337086196678E-01 -0.1064963414975E+02 -0.2136601034181E+01  0.6435438454259E+00
-0.3034762613561E-01 -0.1043403263229E+02 -0.2092876082872E+01  0.6204725807713E+00
-0.3248633955537E-01 -0.1022463819460E+02 -0.2051424937400E+01  0.5992926181619E+00
-0.3994680339932E-01 -0.1001948850789E+02 -0.2011887092238E+01  0.5777403861518E+00
-0.5335367776087E-01 -0.9816235487664E+01 -0.1973917862499E+01  0.5546017306351E+00
-0.7268820310284E-01 -0.9612245512731E+01 -0.1936986772030E+01  0.5300111842926E+00
-0.9592881463188E-01 -0.9405808996081E+01 -0.1900347590460E+01  0.5048158328157E+00
-0.1190721327099E+00 -0.9197133798029E+01 -0.1863241213912E+01  0.4789040333229E+00
-0.1382385491305E+00 -0.8986815366026E+01 -0.1825010810226E+01  0.4505100754870E+00
-0.1518761558989E+00 -0.8774268462157E+01 -0.1785228950213E+01  0.4172651843519E+00
-0.1610361970572E+00 -0.8558298393864E+01 -0.1743866944170E+01  0.3774880913437E+00
-0.1681623913901E+00 -0.8338077347642E+01 -0.1701247973157E+01  0.3306222819898E+00
-0.1758373575326E+00 -0.8113543178013E+01 -0.1657876131813E+01  0.2768736715038E+00
-0.1861401155027E+00 -0.7885234535580E+01 -0.1614274954271E+01  0.2166871079896E+00
-0.2004887079339E+00 -0.7653944486054E+01 -0.1570886662206E+01  0.1504106964134E+00
-0.2197214105436E+00 -0.7420439861432E+01 -0.1528032277165E+01  0.7813390454616E-01
-0.2443457285670E+00 -0.7185226586788E+01 -0.1485914485213E+01 -0.3694130464567E-03
-0.2749003730388E+00 -0.6948065635621E+01 -0.1444593223258E+01 -0.8540948690649E-01
-0.3121176121004E+00 -0.6707448598934E+01 -0.1403913263127E+01 -0.1768111632639E+00
-0.3565560188162E+00 -0.6460529393280E+01 -0.1363417102736E+01 -0.2733468003337E+00
-0.4077917523352E+00 -0.6203080858898E+01 -0.1322174541949E+01 -0.3722349498482E+00
-0.4633517666683E+00 -0.5929179079189E+01 -0.1278506188223E+01 -0.4685124812986E+00
-0.5172727589968E+00 -0.5630881065193E+01 -0.1229630783161E+01 -0.5541765556910E+00
-0.5580306356552E+00 -0.5297905153887E+01 -0.1171187175361E+01 -0.6169769368401E+00
-0.5653591492753E+00 -0.4916944433583E+01 -0.1096460732910E+01 -0.6382845971181E+00
-0.5034221012162E+00 -0.4470017524299E+01 -0.9946879399251E+00 -0.5878243618086E+00
-0.2995697318284E+00 -0.3934294532590E+01 -0.8467728655015E+00 -0.4113561508630E+00
 0.2122847627982E+00 -0.3307979700932E+01 -0.6191389968526E+00 -0.2235131394618E-01
 0.1383933417256E+01 -0.2688611419948E+01 -0.2609356044266E+00  0.6431524352269E+00
 0.3743603510437E+01 -0.2323897287800E+01  0.2839412487585E+00  0.1401494721126E+01
 0.7468274834513E+01 -0.2336461550077E+01  0.1026362672181E+01  0.1512950365813E+01
-0.2714451769056E+01 -0.1296802987777E+02 -0.3136496376102E+01  0.2002570506290E+01
-0.1748401050659E+01 -0.1318638921512E+02 -0.2986958097665E+01  0.1949998516464E+01
-0.9684331309993E+00 -0.1314374831082E+02 -0.2822436330421E+01  0.1612462739056E+01
-0.5159732874633E+00 -0.1288683186962E+02 -0.2680561071361E+01  0.1258439132778E+01
-0.2868426726148E+00 -0.1255687542962E+02 -0.2568743658724E+01  0.1003464378647E+01
-0.1687712991144E+00 -0.1223284086709E+02 -0.2480322470200E+01  0.8391193491187E+00
-0.1036273042178E+00 -0.1193387027217E+02 -0.2407499551153E+01  0.7335583167772E+00
-0.6599117274206E-01 -0.1165900336178E+02 -0.2344998941847E+01  0.6643531241073E+00
-0.4387344482972E-01 -0.1140375468235E+02 -0.2289525659553E+01  0.6177782177385E+00
-0.3113927489051E-01 -0.1116373761515E+02 -0.2238975411372E+01  0.5851397910992E+00
-0.2459644844385E-01 -0.1093545248102E+02 -0.2192009818556E+01  0.5607171282347E+00
-0.2267785677191E-01 -0.1071630795038E+02 -0.2147797193436E+01  0.5405120163177E+00
-0.2491198150562E-01 -0.1050432477330E+02 -0.2105847382341E+01  0.5215023514539E+00
-0.3176379798560E-01 -0.1029763699095E+02 -0.2065880188570E+01  0.5013332235999E+00
-0.4432939836748E-01 -0.1009390305491E+02 -0.2027646520869E+01  0.4785641223900E+00
-0.6312758089179E-01 -0.9890172022120E+01 -0.1990659950266E+01  0.4532495895214E+00
-0.8625004614352E-01 -0.9684157445271E+01 -0.1954081527401E+01  0.4264774610076E+00
-0.1091695784968E+00 -0.9475487519445E+01 -0.1916931448153E+01  0.3983934745644E+00
-0.1274265914583E+00 -0.9264268245098E+01 -0.1878338995301E+01  0.3672263428629E+00
-0.1394372923931E+00 -0.9049585667398E+01 -0.1837804619344E+01  0.3305904981083E+00
-0.1466406928799E+00 -0.8830292966558E+01 -0.1795386758641E+01  0.2870529071359E+00
-0.1518410768537E+00 -0.8606053708429E+01 -0.1751578983157E+01  0.2364465865266E+00
-0.1577616801832E+00 -0.8377552881580E+01 -0.1707062937790E+01  0.1792613721727E+00
-0.1664600723862E+00 -0.8146102357362E+01 -0.1662512510723E+01  0.1160252563103E+00
-0.1792661962883E+00 -0.7913183763776E+01 -0.1618490016130E+01  0.4700928247014E-01
-0.1969036015650E+00 -0.7680184668553E+01 -0.1575417677499E+01 -0.2788138615507E-01
-0.2197834475929E+00 -0.7448234173087E+01 -0.1533603546988E+01 -0.1091802159589E+00
-0.2484906842710E+00 -0.7217753696361E+01 -0.1493248898378E+01 -0.1976662529308E+00
-0.2840688365208E+00 -0.6987929218326E+01 -0.1454399632642E+01 -0.2937792500045E+00
-0.3276700944628E+00 -0.6756630558497E+01 -0.1416860151705E+01 -0.3970449772984E+00
-0.3797515326238E+00 -0.6520285948071E+01 -0.1380007516703E+01 -0.5056388186136E+00
-0.4391161372377E+00 -0.6273383990618E+01 -0.1342500045576E+01 -0.6158137423216E+00
-0.5016411610341E+00 -0.6007940421518E+01 -0.1301916335911E+01 -0.7210321340414E+00
-0.5584619839683E+00 -0.5712936662309E+01 -0.1254279747946E+01 -0.8107972272513E+00
-0.5935363861697E+00 -0.5372998559311E+01 -0.1193307006878E+01 -0.8687098474706E+00
-0.5789810524371E+00 -0.4964525251730E+01 -0.1108701277354E+01 -0.8670011861022E+00
-0.4571992217982E+00 -0.4448702395634E+01 -0.9811803381072E+00 -0.7500633840980E+00
-0.7652272079414E-01 -0.3788135021504E+01 -0.7729315599772E+00 -0.4076492233811E+00
 0.9604082566685E+00 -0.3045996730612E+01 -0.4171177010043E+00  0.3011327032815E+00
 0.3409738344550E+01 -0.2531286022353E+01  0.1756904670574E+00  0.1271928594962E+01
 0.7743884833603E+01 -0.2510153971811E+01  0.1046746187956E+01  0.1564552604183E+01
-0.2768701048630E+01 -0.1361920907806E+02 -0.3277582074177E+01  0.2132914582747E+01
-0.1639183733488E+01 -0.1382449347025E+02 -0.3092735486833E+01  0.1981620706901E+01
-0.8098438735104E+00 -0.1367907563089E+02 -0.2897783944060E+01  0.1523553517470E+01
-0.3957128157738E+00 -0.1331107059477E+02 -0.2741356722958E+01  0.1121955313798E+01
-0.2115963657800E+00 -0.1291448175758E+02 -0.2625215663790E+01  0.8688558105546E+00
-0.1220864551931E+00 -0.1255757760336E+02 -0.2535932849499E+01  0.7175519096603E+00
-0.7377012994527E-01 -0.1224131910532E+02 -0.2463017883754E+01  0.6238067007351E+00
-0.4639887900483E-01 -0.1195641614942E+02 -0.2400563041457E+01  0.5638763847268E+00
-0.3055796889713E-01 -0.1169473489959E+02 -0.2345058608642E+01  0.5243069764732E+00
-0.2157591761930E-01 -0.1145007814979E+02 -0.2294330847670E+01  0.4969259820492E+00
-0.1709903936486E-01 -0.1121813482373E+02 -0.2247046806103E+01  0.4765272577754E+00
-0.1601364704816E-01 -0.1099603657665E+02 -0.2202410077558E+01  0.4594944000658E+00
-0.1808860830579E-01 -0.1078187879310E+02 -0.2159993512467E+01  0.4430133426373E+00
-0.2399954332175E-01 -0.1057410102353E+02 -0.2119620144955E+01  0.4246713914922E+00
-0.3528829160133E-01 -0.1037061346923E+02 -0.2081180383178E+01  0.4026972696201E+00
-0.5312737422141E-01 -0.1016826180408E+02 -0.2044277866122E+01  0.3768818163991E+00
-0.7582847300598E-01 -0.9964024298798E+01 -0.2007970584282E+01  0.3484596325993E+00
-0.9828268635167E-01 -0.9756580503748E+01 -0.1970972667390E+01  0.3178402305569E+00
-0.1153886016257E+00 -0.9545170125171E+01 -0.1932111774150E+01  0.2832949868552E+00
-0.1256148742990E+00 -0.9328382409702E+01 -0.1890799484975E+01  0.2425800329143E+00
-0.1308817260199E+00 -0.9105245320938E+01 -0.1847225436917E+01  0.1947520468888E+00
-0.1343288873376E+00 -0.8876204246350E+01 -0.1802106653591E+01  0.1401990038189E+00
-0.1387241275680E+00 -0.8642957634240E+01 -0.1756336378533E+01  0.7972593668111E-01
-0.1460183848209E+00 -0.8407755249449E+01 -0.1710754752346E+01  0.1389608821479E-01
-0.1574055790529E+00 -0.8172840428588E+01 -0.1666049226354E+01 -0.5715345716656E-01
-0.1734572052097E+00 -0.7940245654726E+01 -0.1622740596168E+01 -0.1337227359476E+00
-0.1944267482962E+00 -0.7711758460065E+01 -0.1581237065235E+01 -0.2166379398749E+00
-0.2208706547126E+00 -0.7488563467673E+01 -0.1541886847453E+01 -0.3071279304371E+00
-0.2540768295757E+00 -0.7270749260989E+01 -0.1504965240539E+01 -0.4062374317446E+00
-0.2957069179355E+00 -0.7057231282491E+01 -0.1470587661999E+01 -0.5142642012059E+00
-0.3469784716617E+00 -0.6845532066546E+01 -0.1438502129077E+01 -0.6304418768133E+00
-0.4078489301802E+00 -0.6631084083797E+01 -0.1407786623773E+01 -0.7524628033256E+00
-0.4759310694105E+00 -0.6406514251441E+01 -0.1376489084682E+01 -0.8755980578232E+00
-0.5448578266524E+00 -0.6161012264360E+01 -0.1341174038187E+01 -0.9916199212674E+00
-0.6025429593815E+00 -0.5878757088198E+01 -0.1296260028832E+01 -0.1087395829625E+01
-0.6291153023689E+00 -0.5533404717698E+01 -0.1232504022379E+01 -0.1140349992696E+01
-0.5861464757229E+00 -0.5073779565230E+01 -0.1131985225058E+01 -0.1101091372672E+01
-0.3569126384840E+00 -0.4419734218956E+01 -0.9553293857236E+00 -0.8485450245799E+00
 0.4665162102349E+00 -0.3558178929579E+01 -0.6183325530828E+00 -0.1517770221089E+00
 0.2925058886255E+01 -0.2828522048519E+01  0.1930736783479E-01  0.1052892609692E+01
 0.8041121188340E+01 -0.2732862135419E+01  0.1061651826404E+01  0.1626220739842E+01
-0.2806022980368E+01 -0.1436763793800E+02 -0.3434732234856E+01  0.2280927838021E+01
-0.1472501308410E+01 -0.1452241065944E+02 -0.3198982441239E+01  0.1978156214919E+01
-0.6175670117824E+00 -0.1420951955213E+02 -0.2965417356971E+01  0.1377098988862E+01
-0.2738039885965E+00 -0.1370507818110E+02 -0.2795776475599E+01  0.9500228708276E+00
-0.1432014431708E+00 -0.1324758752776E+02 -0.2678157834094E+01  0.7188661648696E+00
-0.8125496166139E-01 -0.1286584318246E+02 -0.2589419667409E+01  0.5886535725381E+00
-0.4831001007870E-01 -0.1253740909715E+02 -0.2517143858953E+01  0.5100563892800E+00
-0.3005895527175E-01 -0.1224597537482E+02 -0.2455206902603E+01  0.4610264165942E+00
-0.1961189712241E-01 -0.1198016416941E+02 -0.2399955249068E+01  0.4291923994691E+00
-0.1378091970861E-01 -0.1173234663799E+02 -0.2349225546546E+01  0.4074158277066E+00
-0.1097230227150E-01 -0.1149766900425E+02 -0.2301728295603E+01  0.3912425898774E+00
-0.1046104027673E-01 -0.1127315251168E+02 -0.2256722744019E+01  0.3775800328699E+00
-0.1217048070760E-01 -0.1105711529078E+02 -0.2213857187287E+01  0.3639427641475E+00
-0.1684868450437E-01 -0.1084853679083E+02 -0.2173077127448E+01  0.3479369226449E+00
-0.2639184899126E-01 -0.1064595200485E+02 -0.2134468802575E+01  0.3273597402769E+00
-0.4273546568146E-01 -0.1044628202950E+02 -0.2097803530296E+01  0.3014484977244E+00
-0.6456951144254E-01 -0.1024560174059E+02 -0.2062034281132E+01  0.2713491808386E+00
-0.8618241497386E-01 -0.1004102279958E+02 -0.2025441073092E+01  0.2376745920370E+00
-0.1018154817951E+00 -0.9830275411249E+01 -0.1986418208209E+01  0.1988412417774E+00
-0.1101310495131E+00 -0.9611243647658E+01 -0.1944274968406E+01  0.1530599882005E+00
-0.1136114332343E+00 -0.9383414342396E+01 -0.1899405183429E+01  0.1002443469804E+00
-0.1156382939027E+00 -0.9148462817519E+01 -0.1852820249894E+01  0.4151275211104E-01
-0.1188772257125E+00 -0.8909431221580E+01 -0.1805661716365E+01 -0.2203422387858E-01
-0.1250735266335E+00 -0.8669675372908E+01 -0.1758949806119E+01 -0.8989499598749E-01
-0.1352490959601E+00 -0.8432252412743E+01 -0.1713500327274E+01 -0.1621562711596E+00
-0.1498081209646E+00 -0.8199821336361E+01 -0.1669925916349E+01 -0.2393532602844E+00
-0.1687955830693E+00 -0.7974810464144E+01 -0.1628721233713E+01 -0.3225673542395E+00
-0.1926604663950E+00 -0.7759244165818E+01 -0.1590380950141E+01 -0.4134136038869E+00
-0.2228567765383E+00 -0.7554349351463E+01 -0.1555441248778E+01 -0.5134784673955E+00
-0.2614414463618E+00 -0.7360483606115E+01 -0.1524385033211E+01 -0.6238017915166E+00
-0.3102179926400E+00 -0.7176775923147E+01 -0.1497398805470E+01 -0.7447430668130E+00
-0.3701150459472E+00 -0.7000214362317E+01 -0.1474065903618E+01 -0.8756282644328E+00
-0.4403254886560E+00 -0.6824779047591E+01 -0.1453020928901E+01 -0.1013829658844E+01
-0.5166911029090E+00 -0.6640911161547E+01 -0.1431520474223E+01 -0.1153718300390E+01
-0.5904138757653E+00 -0.6434334842572E+01 -0.1404949764603E+01 -0.1286060657925E+01
-0.6484645722096E+00 -0.6180017887130E+01 -0.1365696512218E+01 -0.1395346736675E+01
-0.6713146961366E+00 -0.5823484424761E+01 -0.1298959843536E+01 -0.1445790957536E+01
-0.5968464274909E+00 -0.5248953786985E+01 -0.1169160060317E+01 -0.1330547894818E+01
-0.7751073220849E-01 -0.4316091907776E+01 -0.8787205410908E+00 -0.7430485709945E+00
 0.2232881191445E+01 -0.3296902456619E+01 -0.2128042562057E+00  0.6766662159376E+00
 0.8353689222954E+01 -0.3047436325182E+01  0.1061250595368E+01  0.1686105106291E+01
-0.2814937790213E+01 -0.1526525601193E+02 -0.3616038814311E+01  0.2445968465861E+01
-0.1225918377807E+01 -0.1528377563011E+02 -0.3301938850787E+01  0.1903737355726E+01
-0.3972419656581E+00 -0.1470241667302E+02 -0.3019931772736E+01  0.1151273665001E+01
-0.1630311898763E+00 -0.1405075029131E+02 -0.2842756338598E+01  0.7455074811293E+00
-0.8642395584713E-01 -0.1355215802917E+02 -0.2727716437649E+01  0.5585606592278E+00
-0.4770472140437E-01 -0.1315600139726E+02 -0.2640741263084E+01  0.4549308884959E+00
-0.2803007598521E-01 -0.1282154484110E+02 -0.2569915021712E+01  0.3940433884565E+00
-0.1727855497007E-01 -0.1252760635568E+02 -0.2508977019517E+01  0.3569211211427E+00
-0.1115643230317E-01 -0.1226009987986E+02 -0.2454251299005E+01  0.3331323039309E+00
-0.7809257608421E-02 -0.1201064609031E+02 -0.2403691105401E+01  0.3170482119547E+00
-0.6255093522774E-02 -0.1177412848432E+02 -0.2356076750676E+01  0.3051167789535E+00
-0.6091017349530E-02 -0.1154765201662E+02 -0.2310748641226E+01  0.2948929121543E+00
-0.7309509307337E-02 -0.1132987529392E+02 -0.2267436994434E+01  0.2843389780291E+00
-0.1056079177949E-01 -0.1112053054965E+02 -0.2226218301460E+01  0.2712331254552E+00
-0.1789711126181E-01 -0.1091930470201E+02 -0.2187440395251E+01  0.2529096319352E+00
-0.3206804376714E-01 -0.1072380806864E+02 -0.2151175254536E+01  0.2276367668013E+00
-0.5235733472196E-01 -0.1052911321845E+02 -0.2116294142170E+01  0.1959575407110E+00
-0.7252374516438E-01 -0.1032968654011E+02 -0.2080442088056E+01  0.1584676341264E+00
-0.8625086303675E-01 -0.1012062395098E+02 -0.2041374993223E+01  0.1139625529408E+00
-0.9260855441913E-01 -0.9898907313499E+01 -0.1998303203361E+01  0.6171875894167E-01
-0.9465500818849E-01 -0.9665081137309E+01 -0.1951947258186E+01  0.3038010926664E-02
-0.9580441427718E-01 -0.9422714698811E+01 -0.1903703850985E+01 -0.6009771007123E-01
-0.9841936463621E-01 -0.9176569391744E+01 -0.1854997778918E+01 -0.1264039485940E+00
-0.1039354799766E+00 -0.8931258769535E+01 -0.1807038876829E+01 -0.1955970949451E+00
-0.1131858901500E+00 -0.8690681530223E+01 -0.1760773510312E+01 -0.2681173106906E+00
-0.1264281464783E+00 -0.8458051043085E+01 -0.1716895863496E+01 -0.3447859298326E+00
-0.1434733700915E+00 -0.8236327009633E+01 -0.1675960100919E+01 -0.4268758132656E+00
-0.1645853179240E+00 -0.8028395932288E+01 -0.1638596274459E+01 -0.5162532311294E+00
-0.1912912613280E+00 -0.7836907225637E+01 -0.1605639721319E+01 -0.6149034806738E+00
-0.2258898845042E+00 -0.7664152379740E+01 -0.1578008476363E+01 -0.7245251585111E+00
-0.2705393727147E+00 -0.7511446551359E+01 -0.1556397208007E+01 -0.8466437901304E+00
-0.3268895510005E+00 -0.7378001648670E+01 -0.1540978262896E+01 -0.9823693097039E+00
-0.3955280447853E+00 -0.7259997031264E+01 -0.1531105038025E+01 -0.1131427447716E+01
-0.4742206860656E+00 -0.7150114579259E+01 -0.1524867075787E+01 -0.1290930171378E+01
-0.5563958713271E+00 -0.7037646671101E+01 -0.1518808531118E+01 -0.1455479723469E+01
-0.6340919411690E+00 -0.6903684388792E+01 -0.1507555288456E+01 -0.1617306078846E+01
-0.7007582890018E+00 -0.6702999799470E+01 -0.1480751639759E+01 -0.1757141820988E+01
-0.7521044625995E+00 -0.6318442757392E+01 -0.1414109465070E+01 -0.1813563899770E+01
-0.6127551669268E+00 -0.5458935233125E+01 -0.1214338098105E+01 -0.1481773351184E+01
 0.1266526968452E+01 -0.4109411777142E+01 -0.5685769702104E+00  0.2986529694205E-01
 0.8656325252161E+01 -0.3560178078702E+01  0.1019229449880E+01  0.1697813128994E+01
-0.2777219703165E+01 -0.1641284100531E+02 -0.3838012198886E+01  0.2616810259562E+01
-0.8685026506063E+00 -0.1608487913233E+02 -0.3390676407113E+01  0.1686386006981E+01
-0.1710535605349E+00 -0.1509406463789E+02 -0.3053023685178E+01  0.8281269622893E+00
-0.8126010386881E-01 -0.1433533020280E+02 -0.2883318104299E+01  0.5235757409027E+00
-0.4324700497875E-01 -0.1382717706523E+02 -0.2774084855378E+01  0.3937741878227E+00
-0.2247561957768E-01 -0.1342663549777E+02 -0.2689822263550E+01  0.3191958980456E+00
-0.1348039258532E-01 -0.1309390693847E+02 -0.2621477505275E+01  0.2778744008009E+00
-0.8096257154868E-02 -0.1280148603268E+02 -0.2561916496142E+01  0.2526799306973E+00
-0.5210061287851E-02 -0.1253481572788E+02 -0.2508005195206E+01  0.2368587895810E+00
-0.3621779053108E-02 -0.1228520695925E+02 -0.2457765784285E+01  0.2262466944891E+00
-0.2928654240264E-02 -0.1204768096699E+02 -0.2410121960160E+01  0.2183801674205E+00
-0.2927241385100E-02 -0.1181960415523E+02 -0.2364506314556E+01  0.2115144613961E+00
-0.3638227863440E-02 -0.1160005755776E+02 -0.2320739191706E+01  0.2041627373678E+00
-0.5447667971080E-02 -0.1138961875570E+02 -0.2279013318694E+01  0.1945215692902E+00
-0.1021573167593E-01 -0.1118976008119E+02 -0.2239995195951E+01  0.1796463985324E+00
-0.2137667675287E-01 -0.1100005911029E+02 -0.2204287190256E+01  0.1563382875833E+00
-0.3905476768628E-01 -0.1081481494879E+02 -0.2170773975642E+01  0.1234628246230E+00
-0.5677344079784E-01 -0.1062387110894E+02 -0.2136128941778E+01  0.8099501398298E-01
-0.6802050753806E-01 -0.1041765620131E+02 -0.2097135373018E+01  0.2867596290389E-01
-0.7255210602241E-01 -0.1019227139371E+02 -0.2052964730537E+01 -0.3196642495951E-01
-0.7382524527756E-01 -0.9950518620221E+01 -0.2004868802975E+01 -0.9754862831866E-01
-0.7490313418867E-01 -0.9698769074293E+01 -0.1954734470824E+01 -0.1652507277104E+00
-0.7760925511487E-01 -0.9443870823358E+01 -0.1904296044071E+01 -0.2338553869408E+00
-0.8297650120333E-01 -0.9191799289323E+01 -0.1854955185746E+01 -0.3035114939810E+00
-0.9165324692565E-01 -0.8947305502442E+01 -0.1807791776812E+01 -0.3751825315947E+00
-0.1038224473393E+00 -0.8714036369161E+01 -0.1763571789579E+01 -0.4500756442973E+00
-0.1190909425159E+00 -0.8495209060419E+01 -0.1722860026260E+01 -0.5295735083659E+00
-0.1374722078015E+00 -0.8294479687923E+01 -0.1686390404274E+01 -0.6155333244457E+00
-0.1604436883300E+00 -0.8116314555480E+01 -0.1655351673429E+01 -0.7100684119844E+00
-0.1903369670045E+00 -0.7965585438545E+01 -0.1631184505416E+01 -0.8154168415821E+00
-0.2293696529315E+00 -0.7846400273374E+01 -0.1615154009329E+01 -0.9343007461894E+00
-0.2796320775944E+00 -0.7760895277347E+01 -0.1608105494951E+01 -0.1069712411566E+01
-0.3427921775658E+00 -0.7708378976571E+01 -0.1610234254822E+01 -0.1223877576178E+01
-0.4186056567686E+00 -0.7684855951956E+01 -0.1620692345895E+01 -0.1396911237652E+01
-0.5013329969911E+00 -0.7683947401824E+01 -0.1637056104157E+01 -0.1585980452066E+01
-0.5859286731634E+00 -0.7698897356908E+01 -0.1656965230705E+01 -0.1790359345186E+01
-0.6727091664089E+00 -0.7704502762170E+01 -0.1675442410682E+01 -0.2003850154439E+01
-0.7784309393500E+00 -0.7641037666465E+01 -0.1683893746255E+01 -0.2220464890533E+01
-0.1006768923879E+01 -0.7168654151946E+01 -0.1635084639530E+01 -0.2307408931433E+01
-0.2234119375663E-01 -0.5643644001008E+01 -0.1133197055839E+01 -0.1056950579020E+01
 0.8887975778584E+01 -0.4557980721321E+01  0.8659990243569E+00  0.1510130683320E+01
-0.2673322916122E+01 -0.1803954770755E+02 -0.4142574186464E+01  0.2737357832895E+01
-0.3585254972557E+00 -0.1678057968571E+02 -0.3427821087672E+01  0.1178514267292E+01
-0.1664643770730E-02 -0.1529112176180E+02 -0.3058557326691E+01  0.4299060342417E+00
-0.4184499739070E-01 -0.1457388584117E+02 -0.2923146211271E+01  0.3127134957706E+00
-0.1013087490949E-01 -0.1406706033387E+02 -0.2815438283710E+01  0.2258259614388E+00
-0.8012290949518E-02 -0.1367920116219E+02 -0.2737442731420E+01  0.1864749407642E+00
-0.4045953993349E-02 -0.1335486065224E+02 -0.2671781361060E+01  0.1631966128956E+00
-0.2560570095779E-02 -0.1306822606201E+02 -0.2614157365376E+01  0.1495628489442E+00
-0.1587126710441E-02 -0.1280476938231E+02 -0.2561271339970E+01  0.1410507108359E+00
-0.1106895341122E-02 -0.1255639960415E+02 -0.2511501337323E+01  0.1354143136336E+00
-0.9058197234908E-03 -0.1231859129298E+02 -0.2463899459256E+01  0.1312254963067E+00
-0.9397271464979E-03 -0.1208915617405E+02 -0.2418019216271E+01  0.1274822621360E+00
-0.1235451634855E-02 -0.1186765600776E+02 -0.2373778327250E+01  0.1232868699576E+00
-0.1867599303911E-02 -0.1165537863769E+02 -0.2331449282141E+01  0.1175351515270E+00
-0.4004984769948E-02 -0.1145598901286E+02 -0.2291998833679E+01  0.1076657022144E+00
-0.1117993234279E-01 -0.1127355407023E+02 -0.2256946834145E+01  0.8872900327007E-01
-0.2450479450137E-01 -0.1110300698364E+02 -0.2225502388791E+01  0.5568249772386E-01
-0.3807477447669E-01 -0.1092562829968E+02 -0.2192740647506E+01  0.6318883324445E-02
-0.4612746301107E-01 -0.1072335054001E+02 -0.2153895632700E+01 -0.5720569797646E-01
-0.4934580008091E-01 -0.1049236105101E+02 -0.2108341401636E+01 -0.1288321506424E+00
-0.5095377525879E-01 -0.1023994252175E+02 -0.2058179290071E+01 -0.2024242697374E+00
-0.5307483200052E-01 -0.9976323304397E+01 -0.2005879657169E+01 -0.2747061067266E+00
-0.5678189091883E-01 -0.9710718398596E+01 -0.1953500087012E+01 -0.3449485467161E+00
-0.6264612025358E-01 -0.9450470579687E+01 -0.1902623368339E+01 -0.4139909468424E+00
-0.7114121688675E-01 -0.9201195297474E+01 -0.1854467330506E+01 -0.4835051564279E+00
-0.8250695319297E-01 -0.8966874066994E+01 -0.1809876231007E+01 -0.5552924437576E+00
-0.9629580791148E-01 -0.8750398261513E+01 -0.1769338840250E+01 -0.6308007998413E+00
-0.1122439127331E+00 -0.8555825502552E+01 -0.1733613908890E+01 -0.7113663733038E+00
-0.1315783556680E+00 -0.8390136329474E+01 -0.1704342962425E+01 -0.7987347923507E+00
-0.1563564291294E+00 -0.8261691038584E+01 -0.1683609518630E+01 -0.8956148051573E+00
-0.1885394605870E+00 -0.8177895017038E+01 -0.1673286920459E+01 -0.1005998275667E+01
-0.2303016688250E+00 -0.8144475984232E+01 -0.1674955555570E+01 -0.1134717338602E+01
-0.2841557299478E+00 -0.8165021209761E+01 -0.1689835413122E+01 -0.1286600085676E+01
-0.3513123226042E+00 -0.8239893645619E+01 -0.1718241219248E+01 -0.1464931863639E+01
-0.4291265602579E+00 -0.8367170585170E+01 -0.1759259455301E+01 -0.1669286978797E+01
-0.5049947709155E+00 -0.8550948233845E+01 -0.1811188627941E+01 -0.1896565569234E+01
-0.6005149079928E+00 -0.8814099665508E+01 -0.1882922942758E+01 -0.2160144215110E+01
-0.6714231419299E+00 -0.9157228914350E+01 -0.1965730440548E+01 -0.2446477431192E+01
-0.1029096630203E+01 -0.9580880959875E+01 -0.2121995549636E+01 -0.2983330754273E+01
-0.1522526297336E+01 -0.8670774946950E+01 -0.2038660279235E+01 -0.2719363369614E+01
 0.8877974193119E+01 -0.7004447529798E+01  0.3747053382477E+00  0.6181569439943E+00
-0.2560572817973E+01 -0.2081428085266E+02 -0.4674970803789E+01  0.2530257022437E+01
 0.3784767578234E+00 -0.1661870245401E+02 -0.3248045187637E+01  0.9394171721220E-01
-0.7175714734520E-01 -0.1541894387861E+02 -0.3098140251356E+01  0.1580983473371E+00
 0.1231732886160E-01 -0.1474388875793E+02 -0.2946314329717E+01  0.8925794168399E-01
-0.3577897682624E-02 -0.1427809698956E+02 -0.2856335020011E+01  0.7023110111446E-01
 0.3261166842052E-03 -0.1391443927550E+02 -0.2782822673231E+01  0.5857736369881E-01
-0.3425295324586E-03 -0.1360579818458E+02 -0.2721228183372E+01  0.5230883025798E-01
-0.6619514137673E-04 -0.1332868458825E+02 -0.2665750196400E+01  0.4861039981142E-01
-0.6882914131001E-04 -0.1307064245509E+02 -0.2614142295801E+01  0.4636448232689E-01
-0.3759433001038E-04 -0.1282472151403E+02 -0.2564951859893E+01  0.4489958040236E-01
-0.3706014533300E-04 -0.1258722322671E+02 -0.2517452094884E+01  0.4380459408681E-01
-0.4769913325431E-04 -0.1235654518188E+02 -0.2471318613029E+01  0.4277877132297E-01
-0.7934627414752E-04 -0.1213274916057E+02 -0.2426565737527E+01  0.4153816571648E-01
-0.1344785450077E-03 -0.1191766545973E+02 -0.2383560023172E+01  0.3971194865405E-01
-0.3069002037250E-03 -0.1171622182696E+02 -0.2343305780351E+01  0.3649251679347E-01
-0.2531393614101E-02 -0.1154127555527E+02 -0.2308761424180E+01  0.2635740147111E-01
-0.8534353715204E-02 -0.1139411339136E+02 -0.2280529582998E+01 -0.4334962457366E-02
-0.1497767358735E-01 -0.1123847199174E+02 -0.2250689966603E+01 -0.6416123495530E-01
-0.1910332984984E-01 -0.1104026361505E+02 -0.2211873421939E+01 -0.1443522276200E+00
-0.2230524262881E-01 -0.1080025226757E+02 -0.2164511534293E+01 -0.2301350808607E+00
-0.2593528023798E-01 -0.1053343682707E+02 -0.2111874452930E+01 -0.3127563823718E+00
-0.3055664828311E-01 -0.1025492242422E+02 -0.2057095845153E+01 -0.3893642576510E+00
-0.3636025420152E-01 -0.9976359214989E+01 -0.2002543923678E+01 -0.4603238624598E+00
-0.4349237836356E-01 -0.9706321876984E+01 -0.1949962880126E+01 -0.5274491198650E+00
-0.5221087296676E-01 -0.9451248853828E+01 -0.1900691973681E+01 -0.5932199355032E+00
-0.6296665267162E-01 -0.9215694622094E+01 -0.1855732282606E+01 -0.6604440535359E+00
-0.7569380267860E-01 -0.9001055402236E+01 -0.1815349868034E+01 -0.7308744136530E+00
-0.8991643105681E-01 -0.8810603883416E+01 -0.1780104089420E+01 -0.8042141967291E+00
-0.1061930040421E+00 -0.8655528399748E+01 -0.1752344306870E+01 -0.8809036018503E+00
-0.1258348405544E+00 -0.8548954868316E+01 -0.1734957967627E+01 -0.9644452841493E+00
-0.1502772581145E+00 -0.8501566582437E+01 -0.1730368793895E+01 -0.1060227502268E+01
-0.1815176804667E+00 -0.8523408263416E+01 -0.1740985214719E+01 -0.1174616232463E+01
-0.2221765915688E+00 -0.8623670056550E+01 -0.1769169355986E+01 -0.1314915756327E+01
-0.2754185974955E+00 -0.8808778123018E+01 -0.1816839371176E+01 -0.1488293379870E+01
-0.3405396137508E+00 -0.9079734226511E+01 -0.1884054796127E+01 -0.1696911610146E+01
-0.4131576609339E+00 -0.9443145706894E+01 -0.1971260702940E+01 -0.1929171158766E+01
-0.4586041442724E+00 -0.9977632602717E+01 -0.2087247380500E+01 -0.2174472889074E+01
-0.6096480475426E+00 -0.1084983786141E+02 -0.2291897215942E+01 -0.2494488982125E+01
-0.3317844097772E+00 -0.1225414891192E+02 -0.2517186701849E+01 -0.2883444163205E+01
-0.2830433187013E+01 -0.1476853173394E+02 -0.3519793036640E+01 -0.4672720044782E+01
 0.9352557611138E+01 -0.1389043546708E+02 -0.9075755847121E+00 -0.2322083225899E+01
-0.1261608755408E+00 -0.1827810818681E+00 -0.1452027196139E+00  0.8651140879968E+00
-0.4654868168469E-01 -0.2242639265932E+00 -0.1272819255678E+00  0.9779804348606E+00
-0.1362122241894E-01 -0.2564434907110E+00 -0.1269304148491E+00  0.1074862490508E+01
-0.1362648902646E-01 -0.2891025920597E+00 -0.1422826677496E+00  0.1155499570376E+01
-0.3523187811410E-01 -0.3263992709956E+00 -0.1699666396505E+00  0.1222771465216E+01
-0.7188625671274E-01 -0.3701445532321E+00 -0.2077544801471E+00  0.1280300892860E+01
-0.1200309702708E+00 -0.4199247841371E+00 -0.2537792039280E+00  0.1331480972773E+01
-0.1783138397205E+00 -0.4737611885943E+00 -0.3064752625306E+00  0.1378904223122E+01
-0.2467339063867E+00 -0.5285408260247E+00 -0.3643791233092E+00  0.1423960348394E+01
-0.3260779590086E+00 -0.5806539787828E+00 -0.4261640096810E+00  0.1466641092338E+01
-0.4170649433620E+00 -0.6265944958633E+00 -0.4905199351918E+00  0.1505407799483E+01
-0.5196893014528E+00 -0.6638734001131E+00 -0.5562744683251E+00  0.1537678578828E+01
-0.6334626602182E+00 -0.6919290199942E+00 -0.6229340881198E+00  0.1560839002928E+01
-0.7567859640485E+00 -0.7112101345676E+00 -0.6899581645996E+00  0.1572708893956E+01
-0.8871189017858E+00 -0.7226675120323E+00 -0.7565996125755E+00  0.1571817788011E+01
-0.1021489467236E+01 -0.7274810640679E+00 -0.8220161476279E+00  0.1557486760318E+01
-0.1157248269370E+01 -0.7271494724242E+00 -0.8856669363967E+00  0.1529572149030E+01
-0.1288729961182E+01 -0.7202235245135E+00 -0.9442081358819E+00  0.1488589773284E+01
-0.1419276818818E+01 -0.7131720655807E+00 -0.1002250973125E+01  0.1433511396953E+01
-0.1439353864626E+01 -0.6237186989348E+00 -0.9696441024141E+00  0.1349565825284E+01
-0.1722263023547E+00 -0.2395799603934E+00 -0.1935489430007E+00  0.8836317845595E+00
-0.8684356939783E-01 -0.2790097051072E+00 -0.1719510385813E+00  0.9915181829952E+00
-0.4890117670548E-01 -0.3110204467049E+00 -0.1691631625738E+00  0.1086404911263E+01
-0.4333837288873E-01 -0.3417884812649E+00 -0.1810096209931E+00  0.1167338606537E+01
-0.6042022753045E-01 -0.3759174836433E+00 -0.2050787237315E+00  0.1236028135635E+01
-0.9363419091488E-01 -0.4151465491516E+00 -0.2391269472247E+00  0.1295268492480E+01
-0.1393734572329E+00 -0.4592995153210E+00 -0.2813762963866E+00  0.1347854918319E+01
-0.1960276262570E+00 -0.5066574540536E+00 -0.3302619869083E+00  0.1395973772396E+01
-0.2633044390462E+00 -0.5544622484302E+00 -0.3843503421390E+00  0.1440784507528E+01
-0.3415944511651E+00 -0.5994315576554E+00 -0.4422822230239E+00  0.1482201414115E+01
-0.4312879320950E+00 -0.6384570525770E+00 -0.5027801415206E+00  0.1518815560706E+01
-0.5322817976831E+00 -0.6694291186394E+00 -0.5648041292391E+00  0.1548391943551E+01
-0.6438273987324E+00 -0.6915424528379E+00 -0.6276238286462E+00  0.1568644483571E+01
-0.7643708685297E+00 -0.7050664027116E+00 -0.6906355157317E+00  0.1577585525111E+01
-0.8915370142429E+00 -0.7108394939706E+00 -0.7531169569502E+00  0.1573851973860E+01
-0.1022662491717E+01 -0.7099471498061E+00 -0.8143265294505E+00  0.1556758600125E+01
-0.1154088992666E+01 -0.7026128190126E+00 -0.8726498492755E+00  0.1525965030427E+01
-0.1283027297531E+01 -0.6897588649887E+00 -0.9272094940325E+00  0.1480700258475E+01
-0.1381052819598E+01 -0.6562808133580E+00 -0.9575468050608E+00  0.1415489628742E+01
-0.1458504758420E+01 -0.6372977856259E+00 -0.9850271932032E+00  0.1339991030322E+01
-0.2142322750975E+00 -0.2907017745215E+00 -0.2373190027190E+00  0.9019210242068E+00
-0.1261041804523E+00 -0.3299721103273E+00 -0.2143558561227E+00  0.1004828444172E+01
-0.8337263281338E-01 -0.3610639048859E+00 -0.2088851721889E+00  0.1097651213352E+01
-0.7313681830998E-01 -0.3902701445071E+00 -0.2178012719716E+00  0.1178466922998E+01
-0.8600617494662E-01 -0.4214894033526E+00 -0.2385229211956E+00  0.1248143640205E+01
-0.1158853255141E+00 -0.4565919635489E+00 -0.2690643251772E+00  0.1308701465118E+01
-0.1591210211080E+00 -0.4955453473768E+00 -0.3076931924074E+00  0.1362368900864E+01
-0.2139339722005E+00 -0.5368984685638E+00 -0.3528912462641E+00  0.1410941918096E+01
-0.2797607641817E+00 -0.5782003813923E+00 -0.4032417373970E+00  0.1455356786462E+01
-0.3566810227179E+00 -0.6165187610888E+00 -0.4574038972290E+00  0.1495464953096E+01
-0.4448209097597E+00 -0.6490961244746E+00 -0.5141410047861E+00  0.1529993253820E+01
-0.5438862071519E+00 -0.6739996617919E+00 -0.5724063569518E+00  0.1556977806876E+01
-0.6530268900215E+00 -0.6904055034558E+00 -0.6314132233328E+00  0.1574392527695E+01
-0.7706836029559E+00 -0.6984356318782E+00 -0.6904860386207E+00  0.1580448828662E+01
-0.8946292294964E+00 -0.6988019171281E+00 -0.7489126370140E+00  0.1573869875510E+01
-0.1021987512413E+01 -0.6921588910563E+00 -0.8056488075869E+00  0.1553885336965E+01
-0.1149386721678E+01 -0.6790089063423E+00 -0.8593459429900E+00  0.1519755658531E+01
-0.1267591032602E+01 -0.6565444331382E+00 -0.9043436666042E+00  0.1469568238935E+01
-0.1368112757661E+01 -0.6312330390689E+00 -0.9396925220797E+00  0.1403196035655E+01
-0.1450811267098E+01 -0.6124447590981E+00 -0.9697303298526E+00  0.1331748238981E+01
-0.2534359882171E+00 -0.3378400898953E+00 -0.2778997560080E+00  0.9200079807980E+00
-0.1636458051244E+00 -0.3767095950689E+00 -0.2539670374467E+00  0.1018018581721E+01
-0.1172353372788E+00 -0.4071409870691E+00 -0.2464568718184E+00  0.1108567095956E+01
-0.1028192734941E+00 -0.4347958150794E+00 -0.2526790909887E+00  0.1188939316971E+01
-0.1118463790066E+00 -0.4633938913140E+00 -0.2703629263650E+00  0.1259204276165E+01
-0.1384818286714E+00 -0.4947158139003E+00 -0.2976028912538E+00  0.1320707966024E+01
-0.1791405130277E+00 -0.5288855241402E+00 -0.3327722366249E+00  0.1375144690746E+01
-0.2319139425875E+00 -0.5646808564121E+00 -0.3743995545802E+00  0.1423939050028E+01
-0.2960234107281E+00 -0.5999461041466E+00 -0.4211056709230E+00  0.1467815345405E+01
-0.3712901008431E+00 -0.6320736424408E+00 -0.4715809581473E+00  0.1506571722266E+01
-0.4576018949350E+00 -0.6585939029683E+00 -0.5246120236839E+00  0.1539052722902E+01
-0.5545054579843E+00 -0.6777394873330E+00 -0.5791551228302E+00  0.1563519713228E+01
-0.6610617370736E+00 -0.6886958503490E+00 -0.6343860644796E+00  0.1578168314146E+01
-0.7757178073574E+00 -0.6914971244306E+00 -0.6895910161913E+00  0.1581383255879E+01
-0.8962239586390E+00 -0.6866519322844E+00 -0.7439516668471E+00  0.1571943170740E+01
-0.1019688855066E+01 -0.6747442854801E+00 -0.7963835740368E+00  0.1548958912132E+01
-0.1141363904241E+01 -0.6556316949441E+00 -0.8445879294748E+00  0.1511367365718E+01
-0.1255012742177E+01 -0.6307812664523E+00 -0.8863231818079E+00  0.1458324636303E+01
-0.1354105737538E+01 -0.6051614886999E+00 -0.9208555939960E+00  0.1391732188505E+01
-0.1438799700034E+01 -0.5822402921612E+00 -0.9498887939227E+00  0.1320908642674E+01
-0.2900551782597E+00 -0.3814146074303E+00 -0.3155907984739E+00  0.9377774650032E+00
-0.1995789387288E+00 -0.4197145455401E+00 -0.2910679368681E+00  0.1031053711608E+01
-0.1503165001586E+00 -0.4494571366766E+00 -0.2818936085975E+00  0.1119169732731E+01
-0.1323079663605E+00 -0.4757016831715E+00 -0.2857645345552E+00  0.1198791650332E+01
-0.1377874873925E+00 -0.5018904749241E+00 -0.3006486415263E+00  0.1269288787766E+01
-0.1612858955895E+00 -0.5297627981796E+00 -0.3247928852477E+00  0.1331389985352E+01
-0.1993037639644E+00 -0.5595379538033E+00 -0.3566556064462E+00  0.1386299606881E+01
-0.2498630729347E+00 -0.5902044673715E+00 -0.3948317429425E+00  0.1435092301069E+01
-0.3120148218433E+00 -0.6198764197693E+00 -0.4379888824470E+00  0.1478292700888E+01
-0.3853646822751E+00 -0.6462395473680E+00 -0.4848539867025E+00  0.1515648556397E+01
-0.4695987765674E+00 -0.6670811329508E+00 -0.5342395561186E+00  0.1546104665733E+01
-0.5641257164818E+00 -0.6807871670982E+00 -0.5851090537986E+00  0.1568113726872E+01
-0.6679321587414E+00 -0.6865743931721E+00 -0.6366180777846E+00  0.1580061780911E+01
-0.7794306930051E+00 -0.6843985837793E+00 -0.6879997583436E+00  0.1580477981379E+01
-0.8963530298849E+00 -0.6746681275659E+00 -0.7383799421290E+00  0.1568181959205E+01
-0.1015490308068E+01 -0.6578137015537E+00 -0.7864528825272E+00  0.1542206401375E+01
-0.1132473771284E+01 -0.6346022638131E+00 -0.8305257343891E+00  0.1501703995874E+01
-0.1242067789896E+01 -0.6071620697753E+00 -0.8691380318412E+00  0.1446659521258E+01
-0.1339202561024E+01 -0.5790784272748E+00 -0.9015920622135E+00  0.1379566389817E+01
-0.1423836674449E+01 -0.5508175173362E+00 -0.9280874677850E+00  0.1307842110463E+01
-0.3243099327669E+00 -0.4217964974990E+00 -0.3506700213355E+00  0.9551367258454E+00
-0.2339475808574E+00 -0.4593386975228E+00 -0.3258445500122E+00  0.1043876138927E+01
-0.1825654197186E+00 -0.4883424231900E+00 -0.3153266853673E+00  0.1129455214898E+01
-0.1614825400364E+00 -0.5132639270536E+00 -0.3171308387279E+00  0.1208062170893E+01
-0.1637088997001E+00 -0.5372526677891E+00 -0.3294519358843E+00  0.1278466860888E+01
-0.1841669831995E+00 -0.5619727580504E+00 -0.3506856774980E+00  0.1340843553000E+01
-0.2194944115775E+00 -0.5877206924141E+00 -0.3793910979138E+00  0.1395946009914E+01
-0.2676840504270E+00 -0.6136640455605E+00 -0.4142336040635E+00  0.1444524009755E+01
-0.3276606323680E+00 -0.6381614761555E+00 -0.4539363898547E+00  0.1486914586148E+01
-0.3988540855871E+00 -0.6591643371781E+00 -0.4972686574384E+00  0.1522816571137E+01
-0.4807821025546E+00 -0.6746932882091E+00 -0.5430734322815E+00  0.1551259747988E+01
-0.5727359058222E+00 -0.6832811210683E+00 -0.5903280011412E+00  0.1570860733608E+01
-0.6736279813492E+00 -0.6841840147598E+00 -0.6381716365526E+00  0.1580169267010E+01
-0.7818299119679E+00 -0.6773205807391E+00 -0.6858007298328E+00  0.1577838925311E+01
-0.8949910465195E+00 -0.6630295252359E+00 -0.7322696668677E+00  0.1562739514397E+01
-0.1009920210021E+01 -0.6419285782535E+00 -0.7763689285198E+00  0.1533972869339E+01
-0.1122564264414E+01 -0.6151805064934E+00 -0.8167400402548E+00  0.1490991667876E+01
-0.1228385812947E+01 -0.5848811955861E+00 -0.8522354918491E+00  0.1434257749329E+01
-0.1323108478942E+01 -0.5533665469703E+00 -0.8819432599419E+00  0.1366280788946E+01
-0.1406661136082E+01 -0.5199669584612E+00 -0.9055152021384E+00  0.1292884885175E+01
-0.3563854196806E+00 -0.4592917486025E+00 -0.3833682681207E+00  0.9720062510393E+00
-0.2668131301299E+00 -0.4959086397755E+00 -0.3584792309463E+00  0.1056427128652E+01
-0.2139427444005E+00 -0.5241060083319E+00 -0.3468829129044E+00  0.1139410767052E+01
-0.1902514866003E+00 -0.5477700168378E+00 -0.3468701057361E+00  0.1216781569448E+01
-0.1894951600219E+00 -0.5697414559719E+00 -0.3568412086120E+00  0.1286803223704E+01
-0.2070092635769E+00 -0.5915853432753E+00 -0.3753394642685E+00  0.1349158365562E+01
-0.2396047828906E+00 -0.6136478689331E+00 -0.4010287453400E+00  0.1404190888176E+01
-0.2852867207711E+00 -0.6352500991937E+00 -0.4326523042861E+00  0.1452351047596E+01
-0.3428919348130E+00 -0.6549685151482E+00 -0.4689944102922E+00  0.1493801268382E+01
-0.4117117987948E+00 -0.6709955832456E+00 -0.5088724682683E+00  0.1528193045653E+01
-0.4911261542711E+00 -0.6815664734132E+00 -0.5511655336137E+00  0.1554628278178E+01
-0.5803251273755E+00 -0.6853542622381E+00 -0.5948693116096E+00  0.1571864750592E+01
-0.6781525291935E+00 -0.6816680720959E+00 -0.6391156809850E+00  0.1578595259844E+01
-0.7829269076642E+00 -0.6704172864831E+00 -0.6830717695167E+00  0.1573588469779E+01
-0.8922786156237E+00 -0.6519681082699E+00 -0.7257959583891E+00  0.1555801207140E+01
-0.1003097821600E+01 -0.6270828480230E+00 -0.7661849127796E+00  0.1524467189287E+01
-0.1111618577873E+01 -0.5970540448589E+00 -0.8030761306470E+00  0.1479291415139E+01
-0.1213759886499E+01 -0.5636861330670E+00 -0.8353996270773E+00  0.1420965675862E+01
-0.1305805354408E+01 -0.5284953985067E+00 -0.8621213516834E+00  0.1351800413565E+01
-0.1387559359509E+01 -0.4904043392148E+00 -0.8826429361613E+00  0.1276359484109E+01
-0.3864533945052E+00 -0.4941742060640E+00 -0.4138949712177E+00  0.9883204115353E+00
-0.2982401902738E+00 -0.5297196497868E+00 -0.3891411238415E+00  0.1068653033208E+01
-0.2444265946932E+00 -0.5570431699743E+00 -0.3766907884383E+00  0.1149020611387E+01
-0.2185385584462E+00 -0.5794986207570E+00 -0.3750774732742E+00  0.1224974885183E+01
-0.2150456301998E+00 -0.5996143181587E+00 -0.3828901747573E+00  0.1294356788555E+01
-0.2297068577462E+00 -0.6188345096106E+00 -0.3988144416462E+00  0.1356418569566E+01
-0.2595366865064E+00 -0.6375298451159E+00 -0.4216212687931E+00  0.1411135623633E+01
-0.3025879264256E+00 -0.6551490410759E+00 -0.4501363735840E+00  0.1458684985549E+01
-0.3576454037009E+00 -0.6704616903980E+00 -0.4832103330009E+00  0.1499068261293E+01
-0.4238957873258E+00 -0.6818788742242E+00 -0.5197140896103E+00  0.1531892085077E+01
-0.5006084410624E+00 -0.6878338208954E+00 -0.5585678617034E+00  0.1556319961303E+01
-0.5868883628486E+00 -0.6871358510501E+00 -0.5987913790136E+00  0.1571232535068E+01
-0.6815163753688E+00 -0.6791581134720E+00 -0.6395170081331E+00  0.1575450889684E+01
-0.7827736564821E+00 -0.6638363326909E+00 -0.6799066931868E+00  0.1567859308258E+01
-0.8883020561878E+00 -0.6415828939868E+00 -0.7190459247583E+00  0.1547524272913E+01
-0.9950952507592E+00 -0.6132376327973E+00 -0.7559164533543E+00  0.1513821123325E+01
-0.1099617731833E+01 -0.5800705710358E+00 -0.7894535003460E+00  0.1466634998788E+01
-0.1198124560342E+01 -0.5435843747386E+00 -0.8186031974117E+00  0.1406741176416E+01
-0.1287293360084E+01 -0.5047768020497E+00 -0.8422729740663E+00  0.1336182990385E+01
-0.1366735829122E+01 -0.4624990187553E+00 -0.8597403763217E+00  0.1258541760729E+01
-0.4146751852517E+00 -0.5266939580423E+00 -0.4424434962260E+00  0.1004025688033E+01
-0.3282972860457E+00 -0.5610439850754E+00 -0.4179903963667E+00  0.1080507379624E+01
-0.2740070647368E+00 -0.5874319162239E+00 -0.4048763200246E+00  0.1158269306322E+01
-0.2462823052002E+00 -0.6087183884024E+00 -0.4018503249740E+00  0.1232663448668E+01
-0.2402724863902E+00 -0.6271216946757E+00 -0.4076752640669E+00  0.1301181354520E+01
-0.2521647217489E+00 -0.6439489186783E+00 -0.4211734099325E+00  0.1362702876383E+01
-0.2792004868979E+00 -0.6595720095130E+00 -0.4412230721940E+00  0.1416876212634E+01
-0.3195115952419E+00 -0.6735430481903E+00 -0.4667356812293E+00  0.1463632279950E+01
-0.3718633089051E+00 -0.6848013974115E+00 -0.4966324107092E+00  0.1502826677017E+01
-0.4353684760815E+00 -0.6919561713060E+00 -0.5298425829282E+00  0.1534024779384E+01
-0.5092109853385E+00 -0.6936242321119E+00 -0.5653325507678E+00  0.1556443623668E+01
-0.5924260298539E+00 -0.6887475861271E+00 -0.6021515979838E+00  0.1569072389646E+01
-0.6837431692147E+00 -0.6767744563568E+00 -0.6394432823967E+00  0.1570850495397E+01
-0.7814206834062E+00 -0.6576832565562E+00 -0.6763788500668E+00  0.1560777917247E+01
-0.8831282762677E+00 -0.6319260642433E+00 -0.7120755382341E+00  0.1538036961667E+01
-0.9859601369297E+00 -0.6003640023532E+00 -0.7455723435719E+00  0.1502130345898E+01
-0.1086567602856E+01 -0.5641859065278E+00 -0.7758541474426E+00  0.1453061627652E+01
-0.1181460693450E+01 -0.5246439223427E+00 -0.8018691673888E+00  0.1391608438911E+01
-0.1267595388639E+01 -0.4824236267356E+00 -0.8225089351398E+00  0.1319539523325E+01
-0.1344354591740E+01 -0.4364550752535E+00 -0.8369805413640E+00  0.1239668825033E+01
-0.4412040217732E+00 -0.5570828971380E+00 -0.4691948506982E+00  0.1019079261186E+01
-0.3570556363683E+00 -0.5901346837883E+00 -0.4451794493445E+00  0.1091951330667E+01
-0.3026842355026E+00 -0.6155341766543E+00 -0.4315626526191E+00  0.1167143526073E+01
-0.2734337581305E+00 -0.6356862767538E+00 -0.4272864153119E+00  0.1239866494217E+01
-0.2650999326319E+00 -0.6525058595534E+00 -0.4312747212332E+00  0.1307326459858E+01
-0.2742980013280E+00 -0.6671508565307E+00 -0.4424809620713E+00  0.1368084935465E+01
-0.2985149622080E+00 -0.6799743827104E+00 -0.4598899909452E+00  0.1421503449486E+01
-0.3359884992339E+00 -0.6906094678922E+00 -0.4825010433254E+00  0.1467294448877E+01
-0.3854935011414E+00 -0.6981435182300E+00 -0.5093093978128E+00  0.1505183343991E+01
-0.4460970480165E+00 -0.7013647446992E+00 -0.5393070412085E+00  0.1534699119651E+01
-0.5169204610189E+00 -0.6990605288060E+00 -0.5715110637681E+00  0.1555106565224E+01
-0.5969448901914E+00 -0.6903021725002E+00 -0.6050061179305E+00  0.1565492336461E+01
-0.6848610157502E+00 -0.6746185782171E+00 -0.6389554075440E+00  0.1564906032388E+01
-0.7789156039402E+00 -0.6520354313425E+00 -0.6725469848770E+00  0.1552459744837E+01
-0.8768120958519E+00 -0.6230312017736E+00 -0.7049263480960E+00  0.1527446765797E+01
-0.9757353425975E+00 -0.5884559671767E+00 -0.7351699137292E+00  0.1489475917121E+01
-0.1072488191197E+01 -0.5494046143994E+00 -0.7622896166971E+00  0.1438624005884E+01
-0.1163776304331E+01 -0.5069412222195E+00 -0.7852372354871E+00  0.1375628888245E+01
-0.1246747025744E+01 -0.4615754123269E+00 -0.8029115438569E+00  0.1302001221441E+01
-0.1320538206085E+01 -0.4123824156021E+00 -0.8144726901270E+00  0.1219944064496E+01
-0.4661863409453E+00 -0.5855580707160E+00 -0.4943198722270E+00  0.1033447755071E+01
-0.3845884835911E+00 -0.6172285847284E+00 -0.4708540209159E+00  0.1102953530738E+01
-0.3304664305900E+00 -0.6415970307302E+00 -0.4568698256617E+00  0.1175632975115E+01
-0.2999548285446E+00 -0.6606473858691E+00 -0.4514830396293E+00  0.1246602309354E+01
-0.2894630388973E+00 -0.6760000831220E+00 -0.4537676661982E+00  0.1312838210676E+01
-0.2960314549239E+00 -0.6886555774893E+00 -0.4628029040604E+00  0.1372633777508E+01
-0.3174069380899E+00 -0.6989310564841E+00 -0.4776788562382E+00  0.1425103144892E+01
-0.3519560579115E+00 -0.7065202890416E+00 -0.4974838818061E+00  0.1469768167751E+01
-0.3984893363153E+00 -0.7106387054625E+00 -0.5212901783134E+00  0.1506240778523E+01
-0.4560534325642E+00 -0.7102361264476E+00 -0.5481560913453E+00  0.1534019677569E+01
-0.5237282218498E+00 -0.7042582465652E+00 -0.5771536386912E+00  0.1552413620660E+01
-0.6004559621207E+00 -0.6919010822031E+00 -0.6074078092916E+00  0.1560597812512E+01
-0.6848998500363E+00 -0.6727752066241E+00 -0.6381072750119E+00  0.1557724008771E+01
-0.7753028952068E+00 -0.6469523548803E+00 -0.6684599658455E+00  0.1543009386414E+01
-0.8694028532824E+00 -0.6149266958271E+00 -0.6976348863120E+00  0.1515847905089E+01
-0.9644633392257E+00 -0.5775230822964E+00 -0.7247336162772E+00  0.1475933688843E+01
-0.1057409782369E+01 -0.5357509078342E+00 -0.7487855224961E+00  0.1423386076424E+01
-0.1145096993629E+01 -0.4905422333236E+00 -0.7687504347180E+00  0.1358883490009E+01
-0.1224794051784E+01 -0.4423193683486E+00 -0.7835433054748E+00  0.1283704141371E+01
-0.1295394206601E+01 -0.3903399038656E+00 -0.7922950299098E+00  0.1199562874102E+01
-0.4897626266230E+00 -0.6123239312213E+00 -0.5179806808730E+00  0.1047106163802E+01
-0.4109704977062E+00 -0.6425485004681E+00 -0.4951539278860E+00  0.1113489689235E+01
-0.3573688571971E+00 -0.6658540041192E+00 -0.4809147435988E+00  0.1183730807606E+01
-0.3258168715106E+00 -0.6838352135300E+00 -0.4745364787655E+00  0.1252889010278E+01
-0.3133066546066E+00 -0.6978283088550E+00 -0.4752334316216E+00  0.1317759965528E+01
-0.3172987447808E+00 -0.7086708080878E+00 -0.4822056886252E+00  0.1376414244705E+01
-0.3358108678162E+00 -0.7166297232692E+00 -0.4946470765555E+00  0.1427756329564E+01
-0.3673580748956E+00 -0.7214416393738E+00 -0.5117358644087E+00  0.1471145304163E+01
-0.4108095074860E+00 -0.7224317582357E+00 -0.5326233935383E+00  0.1506097035518E+01
-0.4652141588607E+00 -0.7186953493891E+00 -0.5564374674661E+00  0.1532087135326E+01
-0.5296296402030E+00 -0.7093246913525E+00 -0.5823085343541E+00  0.1548466087269E+01
-0.6029732067018E+00 -0.6936346927204E+00 -0.6094057111828E+00  0.1554490002914E+01
-0.6838902519581E+00 -0.6713156818091E+00 -0.6369467872550E+00  0.1549404383811E+01
-0.7706250214858E+00 -0.6424826195458E+00 -0.6641605896003E+00  0.1532522297237E+01
-0.8609474351543E+00 -0.6076393167714E+00 -0.6902357716544E+00  0.1503326198434E+01
-0.9521879711790E+00 -0.5675827817641E+00 -0.7142922520715E+00  0.1461577838249E+01
-0.1041370476836E+01 -0.5232535069727E+00 -0.7353732705251E+00  0.1407419178747E+01
-0.1125460956389E+01 -0.4754971227742E+00 -0.7524502952980E+00  0.1341462439856E+01
-0.1201797428838E+01 -0.4247091015944E+00 -0.7644580673645E+00  0.1264782619125E+01
-0.1269034855324E+01 -0.3703471519464E+00 -0.7705095414626E+00  0.1178706792685E+01
-0.5120680620420E+00 -0.6375740084784E+00 -0.5403317717741E+00  0.1060036930752E+01
-0.4362773291389E+00 -0.6663049240952E+00 -0.5182136577056E+00  0.1123542074458E+01
-0.3834125040446E+00 -0.6885262855371E+00 -0.5038112298256E+00  0.1191433765679E+01
-0.3509994657437E+00 -0.7054721791962E+00 -0.4965416718624E+00  0.1258745047092E+01
-0.3365843900900E+00 -0.7182051445185E+00 -0.4957510800086E+00  0.1322132867569E+01
-0.3380417160411E+00 -0.7273964836647E+00 -0.5007559525916E+00  0.1379487362792E+01
-0.3536683535607E+00 -0.7332513207824E+00 -0.5108522456456E+00  0.1429539426240E+01
-0.3821444103951E+00 -0.7355333753019E+00 -0.5253085579452E+00  0.1471512900575E+01
-0.4224177818174E+00 -0.7336611443547E+00 -0.5433570939227E+00  0.1504845482629E+01
-0.4735599825855E+00 -0.7268604223325E+00 -0.5641975888805E+00  0.1528997753178E+01
-0.5346234394060E+00 -0.7143587423906E+00 -0.5870216239555E+00  0.1543360826281E+01
-0.6045126485149E+00 -0.6955833012152E+00 -0.6110450948233E+00  0.1547264892277E+01
-0.6818630949092E+00 -0.6703009695257E+00 -0.6355171086725E+00  0.1540040500766E+01
-0.7649232724592E+00 -0.6386674660902E+00 -0.6596876454450E+00  0.1521086500332E+01
-0.8514918370751E+00 -0.6011943263060E+00 -0.6827624950574E+00  0.1489961798091E+01
-0.9389549959753E+00 -0.5586545449634E+00 -0.7038764824559E+00  0.1446481713733E+01
-0.1024414589440E+01 -0.5119381410782E+00 -0.7220857815121E+00  0.1390798556467E+01
-0.1104917204603E+01 -0.4618405056943E+00 -0.7363761219722E+00  0.1323459177431E+01
-0.1177830837886E+01 -0.4087718370358E+00 -0.7457032553219E+00  0.1245365210003E+01
-0.1241582402627E+01 -0.3523952884866E+00 -0.7491695129234E+00  0.1157538776477E+01
-0.5332330439077E+00 -0.6614922014932E+00 -0.5615208639142E+00  0.1072229151669E+01
-0.4605852562489E+00 -0.6886974060781E+00 -0.5401628499236E+00  0.1133098987828E+01
-0.4086232195187E+00 -0.7098238336574E+00 -0.5256701136595E+00  0.1198742151218E+01
-0.3754893377288E+00 -0.7257702528042E+00 -0.5175920062377E+00  0.1264189510200E+01
-0.3592576608219E+00 -0.7373360515048E+00 -0.5153990434863E+00  0.1325996230606E+01
-0.3582096616252E+00 -0.7450246566259E+00 -0.5185201282629E+00  0.1381910630646E+01
-0.3709276146030E+00 -0.7489697994645E+00 -0.5263517832767E+00  0.1430524371821E+01
-0.3962705806645E+00 -0.7489487821012E+00 -0.5382530991346E+00  0.1470953113345E+01
-0.4332826343255E+00 -0.7444586788264E+00 -0.5535384157774E+00  0.1502574540297E+01
-0.4810754422409E+00 -0.7348421249769E+00 -0.5714812551429E+00  0.1524842885772E+01
-0.5387111161550E+00 -0.7194511197781E+00 -0.5913362493887E+00  0.1537189634663E+01
-0.6050918490011E+00 -0.6978183484602E+00 -0.6123677912536E+00  0.1539012843581E+01
-0.6788494629834E+00 -0.6697837664345E+00 -0.6338576162188E+00  0.1529719423157E+01
-0.7582383401547E+00 -0.6355424047797E+00 -0.6550769484576E+00  0.1508783873874E+01
-0.8410819576448E+00 -0.5956145464882E+00 -0.6752473552298E+00  0.1475830559297E+01
-0.9248121918890E+00 -0.5507561127054E+00 -0.6935171014003E+00  0.1430717589777E+01
-0.1006591774268E+01 -0.5018242008365E+00 -0.7089555065009E+00  0.1373600643638E+01
-0.1083523586516E+01 -0.4495921768908E+00 -0.7205644069738E+00  0.1304966473804E+01
-0.1152977605346E+01 -0.3945132208377E+00 -0.7273206864616E+00  0.1225572164105E+01
-0.1213166052729E+01 -0.3364536359096E+00 -0.7283212518127E+00  0.1136203305205E+01
-0.5533836185645E+00 -0.6842538347541E+00 -0.5816896015844E+00  0.1083677881655E+01
-0.4839709093323E+00 -0.7099157098304E+00 -0.5611267095833E+00  0.1142154256804E+01
-0.4330309306205E+00 -0.7299463886179E+00 -0.5465993386557E+00  0.1205659703735E+01
-0.3992794054279E+00 -0.7449316337697E+00 -0.5377791870589E+00  0.1269242296872E+01
-0.3812947913915E+00 -0.7554176676281E+00 -0.5342548543841E+00  0.1329387803193E+01
-0.3777585893600E+00 -0.7617395506530E+00 -0.5355641244478E+00  0.1383738228440E+01
-0.3875429198017E+00 -0.7639520185347E+00 -0.5412026196454E+00  0.1430778690693E+01
-0.4096973013950E+00 -0.7618344019899E+00 -0.5506198991944E+00  0.1469543125410E+01
-0.4433768284453E+00 -0.7549493775442E+00 -0.5632133153866E+00  0.1499367433066E+01
-0.4877484140825E+00 -0.7427440490272E+00 -0.5783314561947E+00  0.1519708601518E+01
-0.5418964812076E+00 -0.7246848641865E+00 -0.5952932308254E+00  0.1530038861487E+01
-0.6047295772781E+00 -0.7004034894031E+00 -0.6134125397843E+00  0.1529818482073E+01
-0.6748806537488E+00 -0.6698098308766E+00 -0.6320045261710E+00  0.1518522346865E+01
-0.7506106766151E+00 -0.6331378371088E+00 -0.6503617998007E+00  0.1495690993218E+01
-0.8297639863989E+00 -0.5909193470762E+00 -0.6677211650397E+00  0.1461004613722E+01
-0.9098093066042E+00 -0.5439012529770E+00 -0.6832439612702E+00  0.1414356040704E+01
-0.9879561761184E+00 -0.4929232419851E+00 -0.6960133247433E+00  0.1355900965374E+01
-0.1061344873571E+01 -0.4387582314268E+00 -0.7050484575609E+00  0.1286073775665E+01
-0.1127328041156E+01 -0.3819211326565E+00 -0.7093471098929E+00  0.1205513912480E+01
-0.1183918678750E+01 -0.3224742928814E+00 -0.7080046948709E+00  0.1114826993771E+01
-0.5726418670628E+00 -0.7060265582891E+00 -0.6009741583911E+00  0.1094383530517E+01
-0.5065110560562E+00 -0.7301408177715E+00 -0.5812263792248E+00  0.1150706764921E+01
-0.4566689720303E+00 -0.7490844081101E+00 -0.5667040872286E+00  0.1212193428954E+01
-0.4223679195113E+00 -0.7631494542251E+00 -0.5571931642429E+00  0.1273924180303E+01
-0.4026701743825E+00 -0.7726382249190E+00 -0.5523949462706E+00  0.1332343934474E+01
-0.3966505000814E+00 -0.7777177365579E+00 -0.5519530698205E+00  0.1385021152446E+01
-0.4034740006768E+00 -0.7783577659039E+00 -0.5554609288841E+00  0.1430365524564E+01
-0.4223900009502E+00 -0.7743299932735E+00 -0.5624583958585E+00  0.1467355047064E+01
-0.4526769811612E+00 -0.7652514645269E+00 -0.5724263680215E+00  0.1495301975161E+01
-0.4935697006817E+00 -0.7506627944780E+00 -0.5847892712418E+00  0.1513675408319E+01
-0.5441852977815E+00 -0.7301358586312E+00 -0.5989309419949E+00  0.1521989197179E+01
-0.6034455924019E+00 -0.7033954243973E+00 -0.6142152763377E+00  0.1519760720874E+01
-0.6699881923538E+00 -0.6704187825981E+00 -0.6299912766295E+00  0.1506524948717E+01
-0.7420806946318E+00 -0.6314792322194E+00 -0.6455731639827E+00  0.1481879618216E+01
-0.8175845622006E+00 -0.5871238624979E+00 -0.6602129579338E+00  0.1445552502955E+01
-0.8939978459461E+00 -0.5380985138054E+00 -0.6730852873760E+00  0.1397465214196E+01
-0.9685655418713E+00 -0.4852385041747E+00 -0.6832878999085E+00  0.1337772520640E+01
-0.1038451018259E+01 -0.4293324182711E+00 -0.6898582134195E+00  0.1266865386450E+01
-0.1100976996950E+01 -0.3709686744388E+00 -0.6918144637981E+00  0.1185290201862E+01
-0.1153974189294E+01 -0.3103957997565E+00 -0.6882538931082E+00  0.1093519270891E+01
-0.5911262722498E+00 -0.7269711568174E+00 -0.6195057900903E+00  0.1104351334201E+01
-0.5282824400970E+00 -0.7495458404984E+00 -0.6005792903565E+00  0.1158760025374E+01
-0.4795735042677E+00 -0.7674199508543E+00 -0.5860869224208E+00  0.1218353403508E+01
-0.4447576828630E+00 -0.7806084961783E+00 -0.5759221026886E+00  0.1278256809105E+01
-0.4233634742194E+00 -0.7891780361562E+00 -0.5698945084311E+00  0.1334899660465E+01
-0.4148526759494E+00 -0.7931284049019E+00 -0.5677511065601E+00  0.1385807285552E+01
-0.4186854515237E+00 -0.7923398838693E+00 -0.5691819061910E+00  0.1429343625077E+01
-0.4343183156863E+00 -0.7865685992645E+00 -0.5738168485714E+00  0.1464455813529E+01
-0.4611631265477E+00 -0.7754764869212E+00 -0.5812206168562E+00  0.1490450395955E+01
-0.4985326517375E+00 -0.7586882349370E+00 -0.5908938152383E+00  0.1506818066694E+01
-0.5455849824880E+00 -0.7358733022807E+00 -0.6022853923137E+00  0.1513115570492E+01
-0.6012604758321E+00 -0.7068445029213E+00 -0.6148093384547E+00  0.1508912836799E+01
-0.6642038213679E+00 -0.6716445713253E+00 -0.6278487429733E+00  0.1493797639154E+01
-0.7326888488805E+00 -0.6305871364990E+00 -0.6407397115032E+00  0.1467416940549E+01
-0.8045907668523E+00 -0.5842384736015E+00 -0.6527497413577E+00  0.1429539091651E+01
-0.8774307314612E+00 -0.5333506148266E+00 -0.6630672310735E+00  0.1380110144301E+01
-0.9484803147886E+00 -0.4787650191420E+00 -0.6708053052460E+00  0.1319284566999E+01
-0.1014915531612E+01 -0.4212975409101E+00 -0.6750201423732E+00  0.1247419243769E+01
-0.1074021811765E+01 -0.3616167342287E+00 -0.6747501149055E+00  0.1164989658022E+01
-0.1123464894220E+01 -0.3001457143556E+00 -0.6690969843334E+00  0.1072373197907E+01
-0.6089520643921E+00 -0.7472422899207E+00 -0.6374113449103E+00  0.1113590893288E+01
-0.5493616561851E+00 -0.7682968577480E+00 -0.6192994999778E+00  0.1166321801255E+01
-0.5017829946429E+00 -0.7851275196820E+00 -0.6048479401986E+00  0.1224152572936E+01
-0.4664553266371E+00 -0.7974859157919E+00 -0.5940523824349E+00  0.1282262658270E+01
-0.4433588641934E+00 -0.8052100317872E+00 -0.5868273796225E+00  0.1337088727216E+01
-0.4323369780244E+00 -0.8081337156830E+00 -0.5830212245637E+00  0.1386141413593E+01
-0.4331461248138E+00 -0.8060444828854E+00 -0.5824195841414E+00  0.1427767315582E+01
-0.4454555817249E+00 -0.7986767051638E+00 -0.5847421733546E+00  0.1460907083048E+01
-0.4688182916698E+00 -0.7857295019305E+00 -0.5896374614966E+00  0.1484879200527E+01
-0.5026328205855E+00 -0.7669038058370E+00 -0.5966822129051E+00  0.1499205465387E+01
-0.5461043557135E+00 -0.7419601155674E+00 -0.6053902999666E+00  0.1503487105229E+01
-0.5981954964138E+00 -0.7107951606360E+00 -0.6152256072529E+00  0.1497342551318E+01
-0.6575594724821E+00 -0.6735157675139E+00 -0.6256053612114E+00  0.1480405728004E+01
-0.7224756408265E+00 -0.6304771602378E+00 -0.6358878148874E+00  0.1452365683517E+01
-0.7908300183948E+00 -0.5822685386881E+00 -0.6453563201921E+00  0.1413025389436E+01
-0.8601618893684E+00 -0.5296542738044E+00 -0.6532135950344E+00  0.1362352166668E+01
-0.9277627340889E+00 -0.4734900546997E+00 -0.6585888090602E+00  0.1300501741804E+01
-0.9908140466775E+00 -0.4146268967556E+00 -0.6605572417382E+00  0.1227806138555E+01
-0.1046560451145E+01 -0.3538161382229E+00 -0.6581769953336E+00  0.1144689659271E+01
-0.1092519807144E+01 -0.2916431497313E+00 -0.6505565880815E+00  0.1051466322509E+01
-0.6262315636489E+00 -0.7669891973014E+00 -0.6548137559858E+00  0.1122115772562E+01
-0.5698250575843E+00 -0.7865537209304E+00 -0.6374980242850E+00  0.1173403774131E+01
-0.5233377497861E+00 -0.8023748846766E+00 -0.6230849366171E+00  0.1229606554627E+01
-0.4874706325590E+00 -0.8139519800816E+00 -0.6116686263897E+00  0.1285964947199E+01
-0.4626442926711E+00 -0.8209003409758E+00 -0.6032659762839E+00  0.1338943564328E+01
-0.4490791562127E+00 -0.8228892128903E+00 -0.5978251319621E+00  0.1386065196404E+01
-0.4468285302874E+00 -0.8196112275928E+00 -0.5952266846940E+00  0.1425686426420E+01
-0.4557783329019E+00 -0.8107744610802E+00 -0.5952798116617E+00  0.1456765134221E+01
-0.4756280900330E+00 -0.7961093062190E+00 -0.5977165747224E+00  0.1478649054241E+01
-0.5058676510841E+00 -0.7753867877687E+00 -0.6021895847335E+00  0.1490900534193E+01
-0.5457534248420E+00 -0.7484532752816E+00 -0.6082771475153E+00  0.1493167102160E+01
-0.5942724895251E+00 -0.7152862380663E+00 -0.6154926004069E+00  0.1485112093855E+01
-0.6500872142345E+00 -0.6760557575744E+00 -0.6232871951693E+00  0.1466409519587E+01
-0.7114815615788E+00 -0.6311599907209E+00 -0.6310415279803E+00  0.1436784114490E+01
-0.7763498866391E+00 -0.5812143157806E+00 -0.6380551735189E+00  0.1396068349306E+01
-0.8422457972374E+00 -0.5270003177199E+00 -0.6435456723977E+00  0.1344248448984E+01
-0.9064759547073E+00 -0.4693937344908E+00 -0.6466587522830E+00  0.1281483452133E+01
-0.9662229654739E+00 -0.4092856331680E+00 -0.6464890397220E+00  0.1208089273043E+01
-0.1018690049365E+01 -0.3475097332270E+00 -0.6421138961898E+00  0.1124456427940E+01
-0.1061262794028E+01 -0.2848006010441E+00 -0.6326497940795E+00  0.1030861489607E+01
-0.6430745245898E+00 -0.7863563868861E+00 -0.6718325266897E+00  0.1129943156927E+01
-0.5897486892474E+00 -0.8044708374614E+00 -0.6552831758911E+00  0.1180021260789E+01
-0.5442794852105E+00 -0.8193238996676E+00 -0.6408935892672E+00  0.1234733452540E+01
-0.5078158879533E+00 -0.8301708188491E+00 -0.6288537506021E+00  0.1289387534779E+01
-0.4812107701795E+00 -0.8364089097195E+00 -0.6192812479818E+00  0.1340495217727E+01
-0.4650581694706E+00 -0.8375442903357E+00 -0.6122231545561E+00  0.1385617099147E+01
-0.4597082401783E+00 -0.8331736773546E+00 -0.6076544996992E+00  0.1423146204983E+01
-0.4652658085059E+00 -0.8229759502288E+00 -0.6054736250696E+00  0.1452080758350E+01
-0.4815803333384E+00 -0.8067086865957E+00 -0.6054958378333E+00  0.1471814679659E+01
-0.5082361900658E+00 -0.7842085729827E+00 -0.6074490370921E+00  0.1481960174992E+01
-0.5445431913943E+00 -0.7554040912229E+00 -0.6109752212804E+00  0.1482213026639E+01
-0.5895137441767E+00 -0.7203512216594E+00 -0.6156365323814E+00  0.1472278242276E+01
-0.6418191813745E+00 -0.6792828946395E+00 -0.6209179741517E+00  0.1451864359508E+01
-0.6997469915170E+00 -0.6326414491358E+00 -0.6262225655185E+00  0.1420726016632E+01
-0.7611978646632E+00 -0.5810710332117E+00 -0.6308663804011E+00  0.1378720686113E+01
-0.8237370029104E+00 -0.5253739685453E+00 -0.6340821549759E+00  0.1325851645593E+01
-0.8846832576341E+00 -0.4664497967841E+00 -0.6350325339659E+00  0.1262283475593E+01
-0.9412181695270E+00 -0.4052319278913E+00 -0.6328315441815E+00  0.1188324097571E+01
-0.9905055202377E+00 -0.3426342361604E+00 -0.6265756839179E+00  0.1104345347179E+01
-0.1029811784414E+01 -0.2795264245828E+00 -0.6153889566675E+00  0.1010607637299E+01
-0.6595884890956E+00 -0.8054843220362E+00 -0.6885842194855E+00  0.1137093560642E+01
-0.6092082415029E+00 -0.8221979539804E+00 -0.6727609101708E+00  0.1186192977951E+01
-0.5646509203934E+00 -0.8361313251886E+00 -0.6583676537537E+00  0.1239553688067E+01
-0.5275052620660E+00 -0.8463011964821E+00 -0.6456890338799E+00  0.1292554798008E+01
-0.4990516701197E+00 -0.8518901519050E+00 -0.6349426547412E+00  0.1341773247469E+01
-0.4802555139466E+00 -0.8522426979135E+00 -0.6262741579858E+00  0.1384832287051E+01
-0.4717633016427E+00 -0.8468596663105E+00 -0.6197527933661E+00  0.1420187199970E+01
-0.4738994724559E+00 -0.8353894859090E+00 -0.6153658088707E+00  0.1446899141493E+01
-0.4866646610170E+00 -0.8176146785693E+00 -0.6130112880507E+00  0.1464424755337E+01
-0.5097388214515E+00 -0.7934349116977E+00 -0.6124916530266E+00  0.1472435197048E+01
-0.5424854765732E+00 -0.7628584375998E+00 -0.6135116381052E+00  0.1470676490675E+01
-0.5839418959927E+00 -0.7260184350283E+00 -0.6156813540183E+00  0.1458892341238E+01
-0.6327874915981E+00 -0.6832106297131E+00 -0.6185191154475E+00  0.1436820651441E+01
-0.6873120744349E+00 -0.6349225902932E+00 -0.6214502908460E+00  0.1404240649944E+01
-0.7454211114181E+00 -0.5818290587705E+00 -0.6238075784064E+00  0.1361030739479E+01
-0.8046896621275E+00 -0.5247552579049E+00 -0.6248391108304E+00  0.1307209671225E+01
-0.8624472609612E+00 -0.4646263516746E+00 -0.6237245963568E+00  0.1242949748093E+01
-0.9158741630383E+00 -0.4024183320990E+00 -0.6195974711430E+00  0.1168558291633E+01
-0.9620977018347E+00 -0.3391210981899E+00 -0.6115728344604E+00  0.1084401633212E+01
-0.9982791060953E+00 -0.2757282660850E+00 -0.5987834634060E+00  0.9907410273291E+00
-0.6758791529760E+00 -0.8245101216426E+00 -0.7051829572822E+00  0.1143590588089E+01
-0.6282790199083E+00 -0.8398809536479E+00 -0.6900351858212E+00  0.1191940854885E+01
-0.5844953887515E+00 -0.8529496700206E+00 -0.6755991759093E+00  0.1244089849388E+01
-0.5465541928887E+00 -0.8624973087821E+00 -0.6622542041055E+00  0.1295491497572E+01
-0.5161620357369E+00 -0.8674936304830E+00 -0.6503181614739E+00  0.1342805593245E+01
-0.4946545558524E+00 -0.8671230790971E+00 -0.6400354868029E+00  0.1383742484252E+01
-0.4829736560004E+00 -0.8607917102714E+00 -0.6315697205458E+00  0.1416845117700E+01
-0.4816625440978E+00 -0.8481179246922E+00 -0.6249968187461E+00  0.1441259730756E+01
-0.4908721864233E+00 -0.8289088247316E+00 -0.6202970736695E+00  0.1456521807867E+01
-0.5103770192225E+00 -0.8031261393063E+00 -0.6173464829427E+00  0.1462370246860E+01
-0.5395927625138E+00 -0.7708569513533E+00 -0.6159113639554E+00  0.1458603223118E+01
-0.5775798267025E+00 -0.7323111982997E+00 -0.6156487801895E+00  0.1445000300764E+01
-0.6230241576370E+00 -0.6878476343638E+00 -0.6161097406777E+00  0.1421323856965E+01
-0.6742165782376E+00 -0.6379998315580E+00 -0.6167417110396E+00  0.1387372720248E+01
-0.7290661924435E+00 -0.5834741374972E+00 -0.6168939535075E+00  0.1343042392920E+01
-0.7851570739135E+00 -0.5251194897426E+00 -0.6158299833564E+00  0.1288365589602E+01
-0.8398292875608E+00 -0.4638867322200E+00 -0.6127465277428E+00  0.1223524301371E+01
-0.8902630167128E+00 -0.4007927459857E+00 -0.6067962069293E+00  0.1148831921264E+01
-0.9335536772742E+00 -0.3368986980016E+00 -0.5971126148651E+00  0.1064660899170E+01
-0.9667676687527E+00 -0.2733107218040E+00 -0.5828368420834E+00  0.9712879448846E+00
-0.6920507520094E+00 -0.8435682865189E+00 -0.7217409462777E+00  0.1149460745410E+01
-0.6470359274935E+00 -0.8576626821121E+00 -0.7072083447209E+00  0.1197289894034E+01
-0.6038564525120E+00 -0.8699280633694E+00 -0.6926787207074E+00  0.1248366560045E+01
-0.5649787738969E+00 -0.8789096104226E+00 -0.6786275389089E+00  0.1298222630933E+01
-0.5325378856810E+00 -0.8833647667605E+00 -0.6654742449596E+00  0.1343618407363E+01
-0.5082398650393E+00 -0.8823195315727E+00 -0.6535629147500E+00  0.1382375795246E+01
-0.4933205632460E+00 -0.8750874294104E+00 -0.6431517549172E+00  0.1413150647352E+01
-0.4885395397132E+00 -0.8612589857473E+00 -0.6344053053574E+00  0.1435196079853E+01
-0.4941951580825E+00 -0.8406674278406E+00 -0.6273854137926E+00  0.1448142090798E+01
-0.5101531169720E+00 -0.8133373871075E+00 -0.6220405353397E+00  0.1451803726275E+01
-0.5358780477978E+00 -0.7794352070948E+00 -0.6181972282315E+00  0.1446033024483E+01
-0.5704505723636E+00 -0.7392479665115E+00 -0.6155583117100E+00  0.1430642577217E+01
-0.6125610015238E+00 -0.6931979159400E+00 -0.6137066896514E+00  0.1405414486561E+01
-0.6604997574278E+00 -0.6418650968106E+00 -0.6121114799395E+00  0.1370162366445E+01
-0.7121788223732E+00 -0.5859876547463E+00 -0.6101382426987E+00  0.1324795054901E+01
-0.7651912690793E+00 -0.5264377508411E+00 -0.6070656378229E+00  0.1269357609810E+01
-0.8168887130585E+00 -0.4641902613579E+00 -0.6021071164485E+00  0.1204043335646E+01
-0.8644539066995E+00 -0.4002996965776E+00 -0.5944341920326E+00  0.1129177716514E+01
-0.9049554189389E+00 -0.3358927211454E+00 -0.5831986243604E+00  0.1045149802803E+01
-0.9353758449181E+00 -0.2721797219671E+00 -0.5675511149965E+00  0.9522646633277E+00
-0.7082064728918E+00 -0.8627914653764E+00 -0.7383690291133E+00  0.1154733303439E+01
-0.6655534554161E+00 -0.8756838167713E+00 -0.7243815160908E+00  0.1202268080070E+01
-0.6227775120454E+00 -0.8872131698008E+00 -0.7096956186677E+00  0.1252410365931E+01
-0.5827951295353E+00 -0.8956856787398E+00 -0.6948859781268E+00  0.1300773270844E+01
-0.5481755097952E+00 -0.8996455759181E+00 -0.6804759085593E+00  0.1344235852255E+01
-0.5209965445019E+00 -0.8979621831976E+00 -0.6669106003272E+00  0.1380756485504E+01
-0.5027860295811E+00 -0.8898599764376E+00 -0.6545436211686E+00  0.1409129251339E+01
-0.4945158233884E+00 -0.8749055675088E+00 -0.6436280520892E+00  0.1428735669843E+01
-0.4966266344706E+00 -0.8529617948999E+00 -0.6343065601953E+00  0.1439315446291E+01
-0.5090700924824E+00 -0.8241187796570E+00 -0.6265987683162E+00  0.1440767695381E+01
-0.5313547171952E+00 -0.7886238768411E+00 -0.6203899376235E+00  0.1432999704748E+01
-0.5625772436389E+00 -0.7468424539252E+00 -0.6154272562942E+00  0.1415854137713E+01
-0.6014295800940E+00 -0.6992609231117E+00 -0.6113245349561E+00  0.1389128085419E+01
-0.6462002271622E+00 -0.6465059546457E+00 -0.6075719039087E+00  0.1352645170344E+01
-0.6948036342771E+00 -0.5893469030482E+00 -0.6035507510121E+00  0.1306323703556E+01
-0.7448426154201E+00 -0.5286773968567E+00 -0.5985544042519E+00  0.1250219186085E+01
-0.7936824872081E+00 -0.4654930814649E+00 -0.5918125157753E+00  0.1184537415322E+01
-0.8385123813235E+00 -0.4008812035676E+00 -0.5825149834213E+00  0.1109621411276E+01
-0.8763800767645E+00 -0.3360277168487E+00 -0.5698316615529E+00  0.1025886601907E+01
-0.9041912306618E+00 -0.2722390113293E+00 -0.5529222123334E+00  0.9336774975184E+00
-0.7244488950734E+00 -0.8823112748812E+00 -0.7551772779632E+00  0.1159440213526E+01
-0.6839056778146E+00 -0.8940837953175E+00 -0.7416550504910E+00  0.1206906338167E+01
-0.6413013986008E+00 -0.9049501600884E+00 -0.7267382307406E+00  0.1256249638378E+01
-0.6000187677130E+00 -0.9129711200140E+00 -0.7111052454281E+00  0.1303168384467E+01
-0.5630707464475E+00 -0.9164754269051E+00 -0.6953866997120E+00  0.1344679856741E+01
-0.5329095509547E+00 -0.9141777754725E+00 -0.6801310416957E+00  0.1378904715854E+01
-0.5113522358390E+00 -0.9052184602130E+00 -0.6657882254557E+00  0.1404800916406E+01
-0.4995771661509E+00 -0.8891460534685E+00 -0.6526999115656E+00  0.1421899701709E+01
-0.4981601711410E+00 -0.8658584691546E+00 -0.6410887593129E+00  0.1430065147174E+01
-0.5071313662200E+00 -0.8355156222277E+00 -0.6310440829699E+00  0.1429287758586E+01
-0.5260364259267E+00 -0.7984488825298E+00 -0.6225080933956E+00  0.1419531002845E+01
-0.5539829620195E+00 -0.7551037507713E+00 -0.6152707534511E+00  0.1400664406519E+01
-0.5896611292823E+00 -0.7060316374968E+00 -0.6089755988416E+00  0.1372495212034E+01
-0.6313558631442E+00 -0.6519057340596E+00 -0.6031329491560E+00  0.1334852186767E+01
-0.6769839772236E+00 -0.5935253126938E+00 -0.5971393647466E+00  0.1287658992059E+01
-0.7241594896148E+00 -0.5318025202477E+00 -0.5903021431382E+00  0.1230979217852E+01
-0.7702646365981E+00 -0.4677488721304E+00 -0.5818663476266E+00  0.1165031769295E+01
-0.8124999773877E+00 -0.4024778492379E+00 -0.5710395770657E+00  0.1090182147720E+01
-0.8478987661579E+00 -0.3372274507684E+00 -0.5570093205426E+00  0.1006881456565E+01
-0.8732919824380E+00 -0.2733931670365E+00 -0.5389420188860E+00  0.9155240681919E+00
-0.7408804708822E+00 -0.9022591911317E+00 -0.7722756391878E+00  0.1163616079124E+01
-0.7021662462876E+00 -0.9130018222990E+00 -0.7591289903103E+00  0.1211238542528E+01
-0.6594699383411E+00 -0.9232837529682E+00 -0.7438942330286E+00  0.1259914489129E+01
-0.6166638966485E+00 -0.9309105248606E+00 -0.7273599762644E+00  0.1305432625169E+01
-0.5772182322835E+00 -0.9339918242851E+00 -0.7102687247857E+00  0.1344969822342E+01
-0.5439630016816E+00 -0.9310902457606E+00 -0.6932750245395E+00  0.1376836223295E+01
-0.5190009650248E+00 -0.9212683538535E+00 -0.6769265781558E+00  0.1400179860473E+01
-0.5037093126626E+00 -0.9040645980555E+00 -0.6616537363593E+00  0.1414702858352E+01
-0.4987895191429E+00 -0.8794194461235E+00 -0.6477582120323E+00  0.1420407719037E+01
-0.5043406122570E+00 -0.8475685813030E+00 -0.6353973193616E+00  0.1417382934505E+01
-0.5199369980579E+00 -0.8089315497866E+00 -0.6245682159028E+00  0.1405648487546E+01
-0.5446908147456E+00 -0.7640364403791E+00 -0.6151018083485E+00  0.1385097190067E+01
-0.5772865353030E+00 -0.7135006499913E+00 -0.6066699755496E+00  0.1355541402441E+01
-0.6160037358492E+00 -0.6580435963000E+00 -0.5988022445914E+00  0.1316809985119E+01
-0.6587617610027E+00 -0.5984926197885E+00 -0.5909095574731E+00  0.1268827408618E+01
-0.7031879840080E+00 -0.5357743356912E+00 -0.5823122887817E+00  0.1211662344557E+01
-0.7466858652624E+00 -0.4709095585288E+00 -0.5722698477304E+00  0.1145546701347E+01
-0.7864736157941E+00 -0.4050296278072E+00 -0.5600065230722E+00  0.1070872918487E+01
-0.8195764117293E+00 -0.3394162545085E+00 -0.5447265517502E+00  0.9881370254541E+00
-0.8427485687623E+00 -0.2755495466697E+00 -0.5256001129199E+00  0.8977945385222E+00
-0.7576040525990E+00 -0.9227675336517E+00 -0.7897746435347E+00  0.1167298187563E+01
-0.7204083782762E+00 -0.9325779763205E+00 -0.7769035846899E+00  0.1215301576209E+01
-0.6773234734093E+00 -0.9423593449775E+00 -0.7612509227110E+00  0.1263436690449E+01
-0.6327426916526E+00 -0.9496484792429E+00 -0.7437238484345E+00  0.1307590085261E+01
-0.5906106144542E+00 -0.9523312078846E+00 -0.7251826546599E+00  0.1345122267447E+01
-0.5541394629672E+00 -0.9488212973312E+00 -0.7063915555486E+00  0.1374561938790E+01
-0.5257130279564E+00 -0.9381118744601E+00 -0.6879977023907E+00  0.1395274189718E+01
-0.5068975556808E+00 -0.9197413817338E+00 -0.6705202988842E+00  0.1407153034358E+01
-0.4985083341881E+00 -0.8937023678491E+00 -0.6543390282979E+00  0.1410352744029E+01
-0.5007015798908E+00 -0.8603138598248E+00 -0.6396772550439E+00  0.1405065512992E+01
-0.5130703376261E+00 -0.8200887726752E+00 -0.6265847802524E+00  0.1391367441450E+01
-0.5347238305886E+00 -0.7736407298425E+00 -0.6149313418429E+00  0.1369170576331E+01
-0.5643363400431E+00 -0.7216542260425E+00 -0.6044155645272E+00  0.1338287107819E+01
-0.6001800927152E+00 -0.6648945473968E+00 -0.5945850793446E+00  0.1298540686363E+01
-0.6401773514835E+00 -0.6042149260808E+00 -0.5848643689718E+00  0.1249851479623E+01
-0.6819716743714E+00 -0.5405514631476E+00 -0.5745858731766E+00  0.1192289337605E+01
-0.7229931643700E+00 -0.4749259262844E+00 -0.5630219711795E+00  0.1126098113765E+01
-0.7604851740629E+00 -0.4084769304101E+00 -0.5494121877088E+00  0.1051701152510E+01
-0.7914719274552E+00 -0.3425203761442E+00 -0.5329763813399E+00  0.9696491643395E+00
-0.8126250928442E+00 -0.2786190988144E+00 -0.5128847687787E+00  0.8804726967713E+00
-0.7747234776600E+00 -0.9439705692587E+00 -0.8077862000029E+00  0.1170526608418E+01
-0.7387048321359E+00 -0.9529544464264E+00 -0.7950798589077E+00  0.1219135442989E+01
-0.6949003229923E+00 -0.9623242486000E+00 -0.7788955466728E+00  0.1266849590060E+01
-0.6482644952195E+00 -0.9693306367715E+00 -0.7602697101075E+00  0.1309663993160E+01
-0.6032377145161E+00 -0.9716297627454E+00 -0.7401877124355E+00  0.1345150393301E+01
-0.5634192158656E+00 -0.9674909424079E+00 -0.7195277725635E+00  0.1372087530573E+01
-0.5314676873269E+00 -0.9558483181380E+00 -0.6990385207955E+00  0.1390085500107E+01
-0.5091263200972E+00 -0.9362528209817E+00 -0.6793281945841E+00  0.1399251033136E+01
-0.4973098970117E+00 -0.9087606852154E+00 -0.6608531719706E+00  0.1399902650717E+01
-0.4962179238189E+00 -0.8737833645586E+00 -0.6439006039043E+00  0.1392340906993E+01
-0.5054503494267E+00 -0.8319331983307E+00 -0.6285702658517E+00  0.1376696734777E+01
-0.5241049767084E+00 -0.7839126130966E+00 -0.6147682656491E+00  0.1352896806988E+01
-0.5508407892195E+00 -0.7304743755108E+00 -0.6022181258958E+00  0.1320747590147E+01
-0.5839204024936E+00 -0.6724293790891E+00 -0.5904843958462E+00  0.1280061970709E+01
-0.6212695340643E+00 -0.6106546039663E+00 -0.5790043434058E+00  0.1230749999214E+01
-0.6605514386360E+00 -0.5460900326148E+00 -0.5671214900495E+00  0.1172877595548E+01
-0.6992294948711E+00 -0.4797481726087E+00 -0.5541195023100E+00  0.1106698186175E+01
-0.7345811984264E+00 -0.4127615738978E+00 -0.5392511016246E+00  0.1032669438602E+01
-0.7636382933889E+00 -0.3464690362935E+00 -0.5217504436274E+00  0.9514076123804E+00
-0.7829807056836E+00 -0.2825170602662E+00 -0.5007839487262E+00  0.8635364308320E+00
-0.7923442256834E+00 -0.9660057716399E+00 -0.8264244966458E+00  0.1173344367356E+01
-0.7571278594348E+00 -0.9742769351414E+00 -0.8137602513869E+00  0.1222783431054E+01
-0.7122361633935E+00 -0.9833290632208E+00 -0.7969156544875E+00  0.1270188005317E+01
-0.6632349312498E+00 -0.9901048572051E+00 -0.7770696986028E+00  0.1311676331854E+01
-0.6150856328379E+00 -0.9920242288050E+00 -0.7553416330563E+00  0.1345063550424E+01
-0.5717794966169E+00 -0.9872180015230E+00 -0.7327288222673E+00  0.1369412858043E+01
-0.5362420832487E+00 -0.9745743349365E+00 -0.7100837147460E+00  0.1384608415022E+01
-0.5103787613474E+00 -0.9536717214677E+00 -0.6881037251778E+00  0.1390990228191E+01
-0.4951868472738E+00 -0.9246437800778E+00 -0.6673203931626E+00  0.1389052491449E+01
-0.4908930398303E+00 -0.8880048637456E+00 -0.6480820130369E+00  0.1379207505073E+01
-0.4970908618496E+00 -0.8444734451663E+00 -0.6305352226982E+00  0.1361638695068E+01
-0.5128571706638E+00 -0.7948441023030E+00 -0.6146195967355E+00  0.1336282117505E+01
-0.5368299262941E+00 -0.7399389711891E+00 -0.6000813802951E+00  0.1302932747746E+01
-0.5672594772163E+00 -0.6806145548697E+00 -0.5865007935928E+00  0.1261387006119E+01
-0.6020755576624E+00 -0.6177699970579E+00 -0.5733274092644E+00  0.1211538238458E+01
-0.6389653277570E+00 -0.5523435196294E+00 -0.5599151568515E+00  0.1153441737907E+01
-0.6754335170318E+00 -0.4853263246370E+00 -0.5455571242006E+00  0.1087356243432E+01
-0.7088026610562E+00 -0.4178278767813E+00 -0.5295163514406E+00  0.1013776370000E+01
-0.7361226587627E+00 -0.3511954924911E+00 -0.5110395297931E+00  0.9333965692609E+00
-0.7538703880448E+00 -0.2871630169453E+00 -0.4892856991043E+00  0.8469582245652E+00
-0.8105741698176E+00 -0.9890152896912E+00 -0.8458070438238E+00  0.1175797707859E+01
-0.7757491241558E+00 -0.9966962802255E+00 -0.8330493379463E+00  0.1226292325460E+01
-0.7293633034047E+00 -0.1005529209760E+01 -0.8153994791193E+00  0.1273488072721E+01
-0.6776549125856E+00 -0.1012122412518E+01 -0.7941953407842E+00  0.1313647347195E+01
-0.6261357828626E+00 -0.1013652690717E+01 -0.7707005806274E+00  0.1344866579836E+01
-0.5791937110114E+00 -0.1008120533086E+01 -0.7460376928336E+00  0.1366531321942E+01
-0.5400106659222E+00 -0.9943841208298E+00 -0.7211655479443E+00  0.1378830054404E+01
-0.5106363857083E+00 -0.9720673554154E+00 -0.6968707565606E+00  0.1382356190229E+01
-0.4921309352604E+00 -0.9413970269417E+00 -0.6737581405261E+00  0.1377789714861E+01
-0.4847299018372E+00 -0.9030021131782E+00 -0.6522340454029E+00  0.1365656541303E+01
-0.4880055378847E+00 -0.8577143460954E+00 -0.6324883438664E+00  0.1346188997776E+01
-0.5010032926621E+00 -0.8064235556502E+00 -0.6144906171482E+00  0.1319326564030E+01
-0.5223337323263E+00 -0.7500219781561E+00 -0.5980071824100E+00  0.1284846858863E+01
-0.5502316909806E+00 -0.6894120778388E+00 -0.5826325698673E+00  0.1242524246300E+01
-0.5826312939807E+00 -0.6255148614911E+00 -0.5678286916315E+00  0.1192228074727E+01
-0.6172484966032E+00 -0.5592621373558E+00 -0.5529599965582E+00  0.1133994293824E+01
-0.6516392880010E+00 -0.4916103287302E+00 -0.5373273185008E+00  0.1068079898016E+01
-0.6831847160809E+00 -0.4236238812710E+00 -0.5202000394360E+00  0.9950176036498E+00
-0.7089664922266E+00 -0.3566384563820E+00 -0.5008343245757E+00  0.9155950870938E+00
-0.7253448556030E+00 -0.2924804619051E+00 -0.4783778980155E+00  0.8307045802485E+00
-0.8295244476339E+00 -0.1013147695008E+01 -0.8660559048450E+00  0.1177936457929E+01
-0.7946395696131E+00 -0.1020370362469E+01 -0.8530546659150E+00  0.1229712661525E+01
-0.7463098178218E+00 -0.1029086659322E+01 -0.8344363421411E+00  0.1276787015914E+01
-0.6915195103860E+00 -0.1035539247565E+01 -0.8117176141783E+00  0.1315594901436E+01
-0.6363638388684E+00 -0.1036655309676E+01 -0.7863189978214E+00  0.1344558995499E+01
-0.5856306206721E+00 -0.1030316153577E+01 -0.7594949819705E+00  0.1363429093667E+01
-0.5427446426616E+00 -0.1015369498947E+01 -0.7323136446986E+00  0.1372729429800E+01
-0.5098787047008E+00 -0.9915054462353E+00 -0.7056505491502E+00  0.1373326279039E+01
-0.4881328042724E+00 -0.9590617763763E+00 -0.6801814511797E+00  0.1366093935528E+01
-0.4777309050403E+00 -0.9187949209541E+00 -0.6563671365526E+00  0.1351671995124E+01
-0.4782077636681E+00 -0.8716571908803E+00 -0.6344365270286E+00  0.1330336609312E+01
-0.4885661802120E+00 -0.8186361296926E+00 -0.6143850840968E+00  0.1302023874758E+01
-0.5073823166839E+00 -0.7606939095314E+00 -0.5959958248095E+00  0.1266488242891E+01
-0.5328713440671E+00 -0.6987794706724E+00 -0.5788758814593E+00  0.1223477022975E+01
-0.5629715687783E+00 -0.6338375234594E+00 -0.5625002719250E+00  0.1172827926846E+01
-0.5954332633088E+00 -0.5667915883220E+00 -0.5462456788810E+00  0.1114546426935E+01
-0.6278758594408E+00 -0.4985494703059E+00 -0.5294199036381E+00  0.1048876570934E+01
-0.6577562152504E+00 -0.4301026164488E+00 -0.5112936496018E+00  0.9763873775208E+00
-0.6822057926941E+00 -0.3627446374421E+00 -0.4911267009183E+00  0.8979772459943E+00
-0.6974482059733E+00 -0.2983963048576E+00 -0.4680469189034E+00  0.8147339784684E+00
-0.8493104970122E+00 -0.1038560121073E+01 -0.8872991882496E+00  0.1179814525333E+01
-0.8138692138207E+00 -0.1045466402044E+01 -0.8738877372398E+00  0.1233099000725E+01
-0.7630984987808E+00 -0.1054171896882E+01 -0.8541170837951E+00  0.1280122774333E+01
-0.7048166544952E+00 -0.1060517271434E+01 -0.8297069430821E+00  0.1317533610532E+01
-0.6457385884712E+00 -0.1061174945577E+01 -0.8022493589678E+00  0.1344133968221E+01
-0.5910535088518E+00 -0.1053922203372E+01 -0.7731385827844E+00  0.1360084208543E+01
-0.5444114535492E+00 -0.1037619867246E+01 -0.7435547188878E+00  0.1366276763648E+01
-0.5080829397369E+00 -0.1012048056742E+01 -0.7144615665332E+00  0.1363869198774E+01
-0.4831818205643E+00 -0.9776752571751E+00 -0.6866028247960E+00  0.1353936693879E+01
-0.4698977241265E+00 -0.9353991206097E+00 -0.6604895153508E+00  0.1337230519054E+01
-0.4677104897909E+00 -0.8862999019160E+00 -0.6363848824881E+00  0.1314063810718E+01
-0.4755685482247E+00 -0.8314643395022E+00 -0.6143054556735E+00  0.1284361388416E+01
-0.4920061179971E+00 -0.7719226586559E+00 -0.5940465235202E+00  0.1247848871921E+01
-0.5152132116497E+00 -0.7086701461695E+00 -0.5752251767160E+00  0.1204242835268E+01
-0.5431307502496E+00 -0.6426798460251E+00 -0.5573309788355E+00  0.1153342277827E+01
-0.5735492579444E+00 -0.5748707988911E+00 -0.5397574253437E+00  0.1095108547790E+01
-0.6041669160265E+00 -0.5060908200824E+00 -0.5218211346476E+00  0.1029755437888E+01
-0.6325384208734E+00 -0.4372227213122E+00 -0.5027877355520E+00  0.9578808743920E+00
-0.6558705211796E+00 -0.3694728805181E+00 -0.4819113975756E+00  0.8805125630450E+00
-0.6702143439739E+00 -0.3048443953952E+00 -0.4582776063411E+00  0.7989926870518E+00
-0.8700533284625E+00 -0.1065420971455E+01 -0.9096729186539E+00  0.1181490553659E+01
-0.8335068472180E+00 -0.1072163794923E+01 -0.8956651995345E+00  0.1236510188865E+01
-0.7797455651303E+00 -0.1080966155494E+01 -0.8745345064751E+00  0.1283533399154E+01
-0.7175256249981E+00 -0.1087225621170E+01 -0.8482330835476E+00  0.1319473678920E+01
-0.6542206800685E+00 -0.1087357581659E+01 -0.8185417809359E+00  0.1343577065114E+01
-0.5954193414500E+00 -0.1079055700657E+01 -0.7870032677940E+00  0.1356465512929E+01
-0.5449742922725E+00 -0.1061221988745E+01 -0.7549122501636E+00  0.1359432737900E+01
-0.5052237891395E+00 -0.1033753384416E+01 -0.7233192697366E+00  0.1353944519597E+01
-0.4772659734801E+00 -0.9972704201149E+00 -0.6930321032319E+00  0.1341281193453E+01
-0.4612312122358E+00 -0.9528264400965E+00 -0.6646070949105E+00  0.1322301370129E+01
-0.4565260207782E+00 -0.9016370420521E+00 -0.6383366379111E+00  0.1297346311180E+01
-0.4620327328377E+00 -0.8448885781229E+00 -0.6142530145935E+00  0.1266320179366E+01
-0.4762360182359E+00 -0.7836748345718E+00 -0.5921580993177E+00  0.1228914062474E+01
-0.4972933196371E+00 -0.7190346855659E+00 -0.5716741609954E+00  0.1184812281390E+01
-0.5231438020629E+00 -0.6519764432724E+00 -0.5523065139067E+00  0.1133770429035E+01
-0.5516237400810E+00 -0.5834282040146E+00 -0.5334744123718E+00  0.1075690464340E+01
-0.5805299990922E+00 -0.5141754924184E+00 -0.5145115797050E+00  0.1010729922235E+01
-0.6075441519547E+00 -0.4449492849534E+00 -0.4946719140922E+00  0.9394976876531E+00
-0.6299804770166E+00 -0.3767971936252E+00 -0.4731855040014E+00  0.8631681104432E+00
-0.6436780543996E+00 -0.3117833040868E+00 -0.4490668373496E+00  0.7834174077619E+00
-0.8918811606442E+00 -0.1093913498739E+01 -0.9333234875431E+00  0.1183028783170E+01
-0.8536195898869E+00 -0.1100657707628E+01 -0.9185103275023E+00  0.1240009514628E+01
-0.7962590562303E+00 -0.1109663942704E+01 -0.8957838072270E+00  0.1287056064428E+01
-0.7296152712599E+00 -0.1115841743809E+01 -0.8673647948822E+00  0.1321419316527E+01
-0.6617612802896E+00 -0.1115352415788E+01 -0.8352434350382E+00  0.1342864705171E+01
-0.5986779514058E+00 -0.1105832987673E+01 -0.8011201393349E+00  0.1352531475532E+01
-0.5443917071454E+00 -0.1086259587289E+01 -0.7664061064402E+00  0.1352147699571E+01
-0.5012732685559E+00 -0.1056675438653E+01 -0.7322358905312E+00  0.1343502191879E+01
-0.4703718548028E+00 -0.1017875718646E+01 -0.6994763577468E+00  0.1328082029702E+01
-0.4517314279751E+00 -0.9710843107668E+00 -0.6687233955126E+00  0.1306846320082E+01
-0.4446657940636E+00 -0.9176594953600E+00 -0.6402928844051E+00  0.1280153431612E+01
-0.4479801929694E+00 -0.8588872281459E+00 -0.6142276863663E+00  0.1247875502709E+01
-0.4601030712854E+00 -0.7959173278243E+00 -0.5903295860843E+00  0.1209662596275E+01
-0.4791500230314E+00 -0.7298238442497E+00 -0.5682177161809E+00  0.1165167821797E+01
-0.5030482293220E+00 -0.6616552904055E+00 -0.5474106528835E+00  0.1114104037327E+01
-0.5296825244407E+00 -0.5923763790357E+00 -0.5273676832963E+00  0.1056300291904E+01
-0.5569748944508E+00 -0.5227303776483E+00 -0.5074614765995E+00  0.9918208295320E+00
-0.5827757679040E+00 -0.4532529056069E+00 -0.4869334753151E+00  0.9212476067288E+00
-0.6045489903476E+00 -0.3847178319915E+00 -0.4649554053201E+00  0.8459127497767E+00
-0.6178995196785E+00 -0.3192060785152E+00 -0.4404396300339E+00  0.7679510496050E+00
-0.9149316334137E+00 -0.1124240775044E+01 -0.9584110295442E+00  0.1184500177001E+01
-0.8742723116705E+00 -0.1131163854913E+01 -0.9425549959035E+00  0.1243664583166E+01
-0.8126366950089E+00 -0.1140475702103E+01 -0.9179628243143E+00  0.1290725427351E+01
-0.7410419282697E+00 -0.1146552073709E+01 -0.8871691786798E+00  0.1323366578784E+01
-0.6683006013133E+00 -0.1145311354944E+01 -0.8523976172789E+00  0.1341962298438E+01
-0.6007713501014E+00 -0.1134369075015E+01 -0.8155159977365E+00  0.1348228881229E+01
-0.5426172724130E+00 -0.1112812712933E+01 -0.7780520911392E+00  0.1344360831712E+01
-0.4962006292059E+00 -0.1080863630856E+01 -0.7412202003493E+00  0.1332482058381E+01
-0.4624847074254E+00 -0.1039514891358E+01 -0.7059398096376E+00  0.1314284897491E+01
-0.4413977579146E+00 -0.9901757026763E+00 -0.6728395247712E+00  0.1290819486595E+01
-0.4321405052214E+00 -0.9343541776614E+00 -0.6422524993260E+00  0.1262448155666E+01
-0.4334305496965E+00 -0.8734356387594E+00 -0.6142271070163E+00  0.1228997474915E+01
-0.4436375019522E+00 -0.8086184011598E+00 -0.5885602729698E+00  0.1190067707667E+01
-0.4608246072324E+00 -0.7409935477584E+00 -0.5648545314130E+00  0.1145283040956E+01
-0.4828882446310E+00 -0.6716433329412E+00 -0.5426298400826E+00  0.1094322910834E+01
-0.5077522207314E+00 -0.6016057483482E+00 -0.5213982441449E+00  0.1036940260010E+01
-0.5335010573613E+00 -0.5316517510831E+00 -0.5006218186991E+00  0.9730592452345E+00
-0.5582196413859E+00 -0.4621015773226E+00 -0.4795509715767E+00  0.9031612536900E+00
-0.5795903253411E+00 -0.3932802645303E+00 -0.4572491760798E+00  0.8287244633867E+00
-0.5929628663731E+00 -0.3271399691030E+00 -0.4324483315769E+00  0.7525161706733E+00
-0.9393554060389E+00 -0.1156633473207E+01 -0.9851147707468E+00  0.1185983829171E+01
-0.8955265524987E+00 -0.1163924683675E+01 -0.9679420785464E+00  0.1247546508387E+01
-0.8288633579365E+00 -0.1173630692293E+01 -0.9411722012205E+00  0.1294570878144E+01
-0.7517465677145E+00 -0.1179551263332E+01 -0.9077099782894E+00  0.1325300472399E+01
-0.6737667827317E+00 -0.1177388080385E+01 -0.8700427834582E+00  0.1340822156706E+01
-0.6016330862495E+00 -0.1164776447755E+01 -0.8302124788766E+00  0.1343491478367E+01
-0.5395995485031E+00 -0.1140957043377E+01 -0.7898615961802E+00  0.1335999342314E+01
-0.4899722389303E+00 -0.1106362073111E+01 -0.7502771247564E+00  0.1320813408313E+01
-0.4535885550203E+00 -0.1062206748302E+01 -0.7124237907544E+00  0.1299826362731E+01
-0.4302292089253E+00 -0.1010099147560E+01 -0.6769543258310E+00  0.1274167115329E+01
-0.4189602644752E+00 -0.9517036017634E+00 -0.6442120154982E+00  0.1244186991385E+01
-0.4184020301273E+00 -0.8885054649410E+00 -0.6142465211241E+00  0.1209651440048E+01
-0.4268643363219E+00 -0.8217436062635E+00 -0.5868457315267E+00  0.1170099369129E+01
-0.4423614468443E+00 -0.7525122619377E+00 -0.5615906417031E+00  0.1125124306009E+01
-0.4627198762659E+00 -0.6818801230601E+00 -0.5379619983188E+00  0.1074389824706E+01
-0.4858707755285E+00 -0.6109875907946E+00 -0.5155234308643E+00  0.1017595831233E+01
-0.5100901709533E+00 -0.5407699280516E+00 -0.4939042452796E+00  0.9544859970616E+00
-0.5338361327670E+00 -0.4714359918186E+00 -0.4724778973569E+00  0.8853084322267E+00
-0.5551120566970E+00 -0.4025918475681E+00 -0.4501208338629E+00  0.8116058026209E+00
-0.5689874450909E+00 -0.3356969903762E+00 -0.4252016835911E+00  0.7370070667886E+00
-0.9653208962826E+00 -0.1191361397983E+01 -0.1013640675734E+01  0.1187568907903E+01
-0.9174410222655E+00 -0.1199220501492E+01 -0.9948309136426E+00  0.1251727335188E+01
-0.8449049901867E+00 -0.1209375795928E+01 -0.9655119670248E+00  0.1298611814429E+01
-0.7616532421799E+00 -0.1215041269503E+01 -0.9290464181344E+00  0.1327191346762E+01
-0.6780736848024E+00 -0.1211734671890E+01 -0.8882099253928E+00  0.1339381343614E+01
-0.6011891489304E+00 -0.1197165124660E+01 -0.8452265064439E+00  0.1338238707289E+01
-0.5352813986634E+00 -0.1170762143554E+01 -0.8018404628084E+00  0.1326977519131E+01
-0.4825517725294E+00 -0.1133208875728E+01 -0.7594075027550E+00  0.1308414617755E+01
-0.4436662535887E+00 -0.1085964861069E+01 -0.7189266220658E+00  0.1284633732771E+01
-0.4182247187750E+00 -0.1030849073777E+01 -0.6810646807720E+00  0.1256827358650E+01
-0.4051353615138E+00 -0.9696862613767E+00 -0.6461661611196E+00  0.1225319490383E+01
-0.4029111243240E+00 -0.9040628080472E+00 -0.6142777466564E+00  0.1189797769718E+01
-0.4098062676727E+00 -0.8352556827923E+00 -0.5851791152343E+00  0.1149725403848E+01
-0.4237866247021E+00 -0.7643427746453E+00 -0.5584208162769E+00  0.1104658584865E+01
-0.4426321493281E+00 -0.6923642954796E+00 -0.5334483277066E+00  0.1054249170280E+01
-0.4641006385823E+00 -0.6203919391150E+00 -0.5097115102249E+00  0.9982130196974E+00
-0.4867176115799E+00 -0.5498126377751E+00 -0.4871692159612E+00  0.9361355017595E+00
-0.5095046505600E+00 -0.4810622248474E+00 -0.4655664302606E+00  0.8678279298763E+00
-0.5311202403004E+00 -0.4128686927854E+00 -0.4436747974250E+00  0.7946263755809E+00
-0.5461573117972E+00 -0.3451829601075E+00 -0.4189299267327E+00  0.7212765391692E+00
-0.9930370960564E+00 -0.1228769836892E+01 -0.1044249255837E+01  0.1189354745248E+01
-0.9400590031685E+00 -0.1237369662243E+01 -0.1023391470148E+01  0.1256273030541E+01
-0.8607120641425E+00 -0.1247982855054E+01 -0.9910866095085E+00  0.1302849620833E+01
-0.7706557098423E+00 -0.1253212711960E+01 -0.9512181558343E+00  0.1328990886561E+01
-0.6811292041225E+00 -0.1248509012539E+01 -0.9069299595307E+00  0.1337560909547E+01
-0.5993543231263E+00 -0.1231637891103E+01 -0.8605663385051E+00  0.1332373754721E+01
-0.5296012925276E+00 -0.1202291018315E+01 -0.8139893840317E+00  0.1317195870939E+01
-0.4738996478713E+00 -0.1161434088092E+01 -0.7686068539532E+00  0.1295192883804E+01
-0.4326999400625E+00 -0.1110797473051E+01 -0.7254437823232E+00  0.1268625255426E+01
-0.4053833718874E+00 -0.1052416392222E+01 -0.6851658873935E+00  0.1238730242786E+01
-0.3906767127603E+00 -0.9882774278839E+00 -0.6481084444589E+00  0.1205787614789E+01
-0.3869748233017E+00 -0.9200687932787E+00 -0.6143104982347E+00  0.1169390779087E+01
-0.3924798016838E+00 -0.8491067246161E+00 -0.5835456658809E+00  0.1128911618844E+01
-0.4051269486014E+00 -0.7764523192432E+00 -0.5553422544784E+00  0.1083856456516E+01
-0.4226335900183E+00 -0.7030589167342E+00 -0.5290754768317E+00  0.1033856852524E+01
-0.4427274828607E+00 -0.6299719156751E+00 -0.5041687160331E+00  0.9786627512536E+00
-0.4632736431366E+00 -0.5582421836860E+00 -0.4801124373888E+00  0.9179655712864E+00
-0.4850002964770E+00 -0.4904819531741E+00 -0.4584766561732E+00  0.8509664207796E+00
-0.5074841303543E+00 -0.4243315004294E+00 -0.4379533453575E+00  0.7780413770586E+00
-0.5249377457034E+00 -0.3565221720838E+00 -0.4142861603092E+00  0.7051411881100E+00
-0.1022728611802E+01 -0.1269279403722E+01 -0.1077243764564E+01  0.1191459842070E+01
-0.9634821096152E+00 -0.1278838808447E+01 -0.1053890828816E+01  0.1261220229759E+01
-0.8761178098955E+00 -0.1289617738048E+01 -0.1017895704951E+01  0.1307252018599E+01
-0.7786783851634E+00 -0.1294303945227E+01 -0.9743016928125E+00  0.1330638570012E+01
-0.6828122381703E+00 -0.1287852186573E+01 -0.9262122772803E+00  0.1335261143954E+01
-0.5960389174579E+00 -0.1268294403027E+01 -0.8762366584054E+00  0.1325782472692E+01
-0.5224916040518E+00 -0.1235596512282E+01 -0.8263014125810E+00  0.1306539905822E+01
-0.4639744698708E+00 -0.1191058724719E+01 -0.7778655994841E+00  0.1281043791623E+01
-0.4206687520855E+00 -0.1136703468932E+01 -0.7319649420216E+00  0.1251711017810E+01
-0.3917074593492E+00 -0.1074793161574E+01 -0.6892552900857E+00  0.1219798264632E+01
-0.3755951845753E+00 -0.1007449743359E+01 -0.6500311144806E+00  0.1185524707052E+01
-0.3706103304100E+00 -0.9364787287816E+00 -0.6143318562619E+00  0.1148377210621E+01
-0.3749050034997E+00 -0.8632423544564E+00 -0.5819292567634E+00  0.1107619835748E+01
-0.3863855909406E+00 -0.7887806872048E+00 -0.5523281493274E+00  0.1062693232425E+01
-0.4027697694477E+00 -0.7139752214993E+00 -0.5248701444138E+00  0.1013185968587E+01
-0.4216297175973E+00 -0.6396381804176E+00 -0.4987959108019E+00  0.9588681384681E+00
-0.4410322093789E+00 -0.5669910518494E+00 -0.4737709315756E+00  0.8995759722669E+00
-0.4585165337542E+00 -0.4967165343849E+00 -0.4489595408866E+00  0.8350106578648E+00
-0.4843273620930E+00 -0.4376221143643E+00 -0.4333162528358E+00  0.7627316374269E+00
-0.5062419182744E+00 -0.3720518415137E+00 -0.4127980660534E+00  0.6883579786753E+00
-0.1055583015352E+01 -0.1314512674525E+01 -0.1113944971417E+01  0.1193877024120E+01
-0.9871065129506E+00 -0.1323303175613E+01 -0.1085892550871E+01  0.1266457888899E+01
-0.8912605854753E+00 -0.1334747422958E+01 -0.1046223761310E+01  0.1311809689717E+01
-0.7855327664780E+00 -0.1338469779748E+01 -0.9982811941944E+00  0.1332043283327E+01
-0.6830126529198E+00 -0.1329921487653E+01 -0.9460790436697E+00  0.1332362386660E+01
-0.5911379599508E+00 -0.1307219421118E+01 -0.8922279668395E+00  0.1318330924767E+01
-0.5138820021143E+00 -0.1270721848382E+01 -0.8387638076060E+00  0.1294879104787E+01
-0.4527327806646E+00 -0.1222092163094E+01 -0.7871677215701E+00  0.1265850553910E+01
-0.4075523394179E+00 -0.1163672299497E+01 -0.7384755784169E+00  0.1233792815073E+01
-0.3771884732812E+00 -0.1097957194926E+01 -0.6933184622988E+00  0.1199950804178E+01
-0.3599267417615E+00 -0.1027209497422E+01 -0.6519540307626E+00  0.1164453650638E+01
-0.3538155125105E+00 -0.9532180663572E+00 -0.6143057805097E+00  0.1126691023273E+01
-0.3571036697533E+00 -0.8775967520857E+00 -0.5803091967925E+00  0.1085809110951E+01
-0.3675968596117E+00 -0.8012846274991E+00 -0.5493742975486E+00  0.1041143284458E+01
-0.3829723676297E+00 -0.7250122995379E+00 -0.5207527922480E+00  0.9922258384552E+00
-0.4009687536275E+00 -0.6495852973216E+00 -0.4937604026937E+00  0.9388128408834E+00
-0.4190896091921E+00 -0.5755073262605E+00 -0.4674605584770E+00  0.8807930236195E+00
-0.4365695463207E+00 -0.5048258460912E+00 -0.4424558333114E+00  0.8184542064231E+00
-0.4474534497417E+00 -0.4352173633912E+00 -0.4148552811202E+00  0.7515100315339E+00
-0.5026622903762E+00 -0.4101604312006E+00 -0.4290266780529E+00  0.6729467886824E+00
 0.3443643857590E+01  0.5590747217337E+01  0.4246163794446E+01  0.7900281466593E+00
-0.1516862451522E+00  0.2505569771014E+01  0.1106325254349E+01 -0.1892092029282E+00
-0.7046005154332E-01  0.1857964764477E+01  0.8401272129478E+00 -0.1915448918674E+00
-0.4368947374875E-01  0.1436831758168E+01  0.6547768720164E+00 -0.1236968365277E+00
-0.2497012612619E-01  0.1120339708898E+01  0.5148237025970E+00 -0.7805430579043E-01
-0.2124790705941E-01  0.8534766315700E+00  0.3911474995279E+00 -0.4405675537782E-01
-0.2176826975604E-01  0.6207858475326E+00  0.2815382608409E+00 -0.1905868741625E-01
-0.2508065998598E-01  0.4083133880631E+00  0.1801193817394E+00 -0.1387747199813E-02
-0.3028979591409E-01  0.1935335878347E+00  0.7672458200811E-01  0.1507882450601E-01
-0.1215390318755E+00 -0.1270923655227E+00 -0.1168567564808E+00  0.7253056569947E-01
-0.4839635056699E+00 -0.6350703524820E+00 -0.5259459119974E+00  0.1340152762661E+00
-0.1075700105524E+01 -0.1235835051567E+01 -0.1086421521077E+01  0.1365973897546E+00
-0.1641932890099E+01 -0.1770722796761E+01 -0.1603948168756E+01  0.1104144664765E+00
-0.2118831940389E+01 -0.2213677444548E+01 -0.2036279405756E+01  0.8273246396936E-01
-0.2500653985551E+01 -0.2563992133257E+01 -0.2380383669802E+01  0.6073346943246E-01
-0.2783568182503E+01 -0.2815919288396E+01 -0.2631759104647E+01  0.4379070768617E-01
-0.2967430662043E+01 -0.2972369064298E+01 -0.2791705864299E+01  0.3084648790730E-01
-0.3060148925942E+01 -0.3042044523587E+01 -0.2868030914004E+01  0.1929434072551E-01
-0.3069687142435E+01 -0.3030792788870E+01 -0.2867225560441E+01  0.6204526264102E-02
-0.3000056660611E+01 -0.2943427527304E+01 -0.2793437561235E+01 -0.1022677776093E-01
 0.1903967541701E+01  0.3544102577365E+01  0.2560592949466E+01  0.9868022229578E+00
 0.5307127518850E+00  0.3043124258984E+01  0.1679703390848E+01  0.3070875336273E+00
-0.8160500311993E-01  0.1934557627799E+01  0.8708877313903E+00  0.1267439467432E-01
-0.6413475446142E-01  0.1459084370076E+01  0.6556263176759E+00 -0.3551236875281E-02
-0.4768218879433E-01  0.1109977940509E+01  0.4992790020397E+00  0.2033825588896E-01
-0.3522978497663E-01  0.8264104617982E+00  0.3718549171630E+00  0.4374692200029E-01
-0.2971167248131E-01  0.5734910316713E+00  0.2555762981711E+00  0.6415370713630E-01
-0.2787147425352E-01  0.3320622878360E+00  0.1429696820211E+00  0.8416606487469E-01
-0.4807515829826E-01  0.6614891231967E-01  0.8494664368517E-02  0.1184781413617E+00
-0.1536080814314E+00 -0.2725042575519E+00 -0.2002727988141E+00  0.2073957135232E+00
-0.4652842470818E+00 -0.6911813357733E+00 -0.5435388225633E+00  0.3058748203395E+00
-0.9731578916991E+00 -0.1152201460377E+01 -0.9989188929423E+00  0.3330496504659E+00
-0.1514327037924E+01 -0.1612332488749E+01 -0.1469529973809E+01  0.3069838693589E+00
-0.1984995442478E+01 -0.2018417141873E+01 -0.1881603909873E+01  0.2711544384480E+00
-0.2363838048987E+01 -0.2348039314495E+01 -0.2214582355219E+01  0.2405524614004E+00
-0.2647597289039E+01 -0.2591435274899E+01 -0.2462345298805E+01  0.2153587058505E+00
-0.2837099729594E+01 -0.2747758638864E+01 -0.2624883426518E+01  0.1939683465690E+00
-0.2939168688639E+01 -0.2823169484788E+01 -0.2708298934642E+01  0.1735030010685E+00
-0.2960990453584E+01 -0.2824860425454E+01 -0.2719349906251E+01  0.1519314519470E+00
-0.2905267598108E+01 -0.2756634203578E+01 -0.2661093840043E+01  0.1305602673583E+00
 0.1507915833394E+01  0.2789144873396E+01  0.2019618527069E+01  0.9647408375534E+00
 0.5342134649280E+00  0.2647555688665E+01  0.1495431498396E+01  0.5591681079060E+00
 0.1023745162569E+00  0.2039413212847E+01  0.1006640230126E+01  0.2600363327832E+00
-0.5994506083022E-01  0.1468849620968E+01  0.6621851415854E+00  0.1440778379670E+00
-0.5774598146227E-01  0.1098072038033E+01  0.4889532453481E+00  0.1299327289703E+00
-0.4762573689135E-01  0.7964121067199E+00  0.3519295929268E+00  0.1394022987399E+00
-0.3940728808488E-01  0.5276157796753E+00  0.2294579904655E+00  0.1554165113873E+00
-0.4024753719291E-01  0.2636906172328E+00  0.1050182473524E+00  0.1795356592183E+00
-0.6941143809584E-01 -0.2335950338161E-01 -0.4360234238381E-01  0.2271280557627E+00
-0.1764847428598E+00 -0.3555884127444E+00 -0.2500743824997E+00  0.3294628147154E+00
-0.4529127772691E+00 -0.7229991204544E+00 -0.5526785905282E+00  0.4438121304105E+00
-0.8996096303457E+00 -0.1105122492292E+01 -0.9422240952499E+00  0.4927803264786E+00
-0.1397546854972E+01 -0.1491564817700E+01 -0.1357882482712E+01  0.4796526633451E+00
-0.1852739011232E+01 -0.1851708251821E+01 -0.1741090209219E+01  0.4445701771153E+00
-0.2227777166508E+01 -0.2154990155027E+01 -0.2059900635897E+01  0.4090228765674E+00
-0.2512917020766E+01 -0.2385170641609E+01 -0.2302101195477E+01  0.3772787361313E+00
-0.2708563976801E+01 -0.2537610548468E+01 -0.2465702020622E+01  0.3485309883029E+00
-0.2820665937898E+01 -0.2616056405298E+01 -0.2555259494821E+01  0.3202581583747E+00
-0.2855281398796E+01 -0.2626476744378E+01 -0.2576426320757E+01  0.2914032553398E+00
-0.2811373121008E+01 -0.2566050882589E+01 -0.2527389275280E+01  0.2638517774752E+00
 0.1272589726277E+01  0.2289909755530E+01  0.1674374752203E+01  0.9211050787098E+00
 0.5476756663422E+00  0.2292574737328E+01  0.1334917686339E+01  0.6972717179594E+00
 0.1766992918672E+00  0.1921340671002E+01  0.9860787800475E+00  0.4533439888381E+00
-0.2212927634830E-02  0.1464981226292E+01  0.6875010986249E+00  0.3056298812197E+00
-0.5428413474135E-01  0.1076426552044E+01  0.4804069349138E+00  0.2509939756280E+00
-0.5436502049431E-01  0.7642221315154E+00  0.3336328413337E+00  0.2424927816886E+00
-0.5024586100773E-01  0.4831421242291E+00  0.2034612431980E+00  0.2531164684031E+00
-0.5575997038649E-01  0.2068904371164E+00  0.7103131918289E-01  0.2801370200045E+00
-0.9129654374553E-01 -0.8614358058628E-01 -0.8339685822443E-01  0.3356204279407E+00
-0.1972643191115E+00 -0.4055484864903E+00 -0.2833220179142E+00  0.4420827513686E+00
-0.4455692085686E+00 -0.7370934201109E+00 -0.5558514340695E+00  0.5618957037005E+00
-0.8413013605064E+00 -0.1066634468223E+01 -0.8967298372285E+00  0.6262697796218E+00
-0.1296261528811E+01 -0.1396547839513E+01 -0.1265620399903E+01  0.6284023286991E+00
-0.1728085904203E+01 -0.1710609221791E+01 -0.1616186705118E+01  0.6001464778847E+00
-0.2095099051139E+01 -0.1983582161017E+01 -0.1916980164851E+01  0.5640688736989E+00
-0.2380659691320E+01 -0.2196692498081E+01 -0.2151355523562E+01  0.5281851477088E+00
-0.2582385594523E+01 -0.2341880979911E+01 -0.2314405284114E+01  0.4935759206986E+00
-0.2704745078938E+01 -0.2420240569020E+01 -0.2408743248431E+01  0.4586379497892E+00
-0.2751848643677E+01 -0.2434944867726E+01 -0.2437792944176E+01  0.4229203373223E+00
-0.2723346136002E+01 -0.2383331859549E+01 -0.2400138651821E+01  0.3884893177720E+00
 0.1108147317832E+01  0.1922885526495E+01  0.1424585433220E+01  0.8764425119719E+00
 0.5495424110347E+00  0.1975097640213E+01  0.1186580821077E+01  0.7784378734574E+00
 0.2270452337572E+00  0.1746859524419E+01  0.9277352339897E+00  0.5975573075972E+00
 0.4472063138193E-01  0.1394573775876E+01  0.6764683696955E+00  0.4533399105837E+00
-0.3269305348446E-01  0.1040990433860E+01  0.4738997675744E+00  0.3773265145607E+00
-0.5452506772861E-01  0.7266225416416E+00  0.3158858119379E+00  0.3513578296231E+00
-0.5931862632275E-01  0.4404413095998E+00  0.1791276606859E+00  0.3552873258866E+00
-0.7160721599219E-01  0.1597452205822E+00  0.4142486205226E-01  0.3829875519138E+00
-0.1126143056829E+00 -0.1308637470185E+00 -0.1144346844794E+00  0.4420023311623E+00
-0.2169117795434E+00 -0.4350885738567E+00 -0.3064401653208E+00  0.5473542465184E+00
-0.4417263846402E+00 -0.7383778012615E+00 -0.5546489659670E+00  0.6666892906053E+00
-0.7941968112700E+00 -0.1029877132243E+01 -0.8573147512768E+00  0.7407770462463E+00
-0.1208364557112E+01 -0.1316062998523E+01 -0.1186480948139E+01  0.7567421194919E+00
-0.1613855139761E+01 -0.1589566223487E+01 -0.1505608036908E+01  0.7377591683699E+00
-0.1968670710324E+01 -0.1831629060960E+01 -0.1786140887973E+01  0.7045241892912E+00
-0.2252374543309E+01 -0.2025124546076E+01 -0.2010424566912E+01  0.6670207347712E+00
-0.2459272416093E+01 -0.2160255050333E+01 -0.2171177903713E+01  0.6282299303087E+00
-0.2591458231659E+01 -0.2235613855092E+01 -0.2268723875019E+01  0.5877192471774E+00
-0.2651578995484E+01 -0.2252671675779E+01 -0.2304997809647E+01  0.5456742042390E+00
-0.2638947311974E+01 -0.2208307190791E+01 -0.2278209610521E+01  0.5043699092707E+00
 0.9753392717904E+00  0.1630554067490E+01  0.1224769866356E+01  0.8379239945402E+00
 0.5434011593639E+00  0.1697666674667E+01  0.1053301879323E+01  0.8275572418149E+00
 0.2613122980096E+00  0.1554528779221E+01  0.8534453041335E+00  0.7049135481468E+00
 0.8420531424116E-01  0.1286466907956E+01  0.6442159427988E+00  0.5803509601989E+00
-0.7919000380277E-02  0.9798100877643E+00  0.4567888099119E+00  0.4990731627659E+00
-0.4737521453725E-01  0.6811683629811E+00  0.2978827790131E+00  0.4622288043597E+00
-0.6515661445764E-01  0.3977279798026E+00  0.1563085413157E+00  0.4596392524128E+00
-0.8591594918971E-01  0.1194481154884E+00  0.1576011812040E-01  0.4860793618767E+00
-0.1324714780882E+00 -0.1635511659367E+00 -0.1391306423388E+00  0.5453642231410E+00
-0.2351928499326E+00 -0.4514523351769E+00 -0.3227232361829E+00  0.6465058393554E+00
-0.4402496400544E+00 -0.7308165721517E+00 -0.5504011183408E+00  0.7618240916167E+00
-0.7556343500824E+00 -0.9927062340166E+00 -0.8217200724423E+00  0.8410861500504E+00
-0.1132071150854E+01 -0.1244342819317E+01 -0.1116914563148E+01  0.8682269473551E+00
-0.1510309530661E+01 -0.1483249129008E+01 -0.1406972566476E+01  0.8588102636260E+00
-0.1850211181794E+01 -0.1696242248543E+01 -0.1666833108031E+01  0.8303244899716E+00
-0.2129543043652E+01 -0.1869193832079E+01 -0.1879406326827E+01  0.7932351159300E+00
-0.2340004966147E+01 -0.1992290162725E+01 -0.2036178705405E+01  0.7518607514694E+00
-0.2481256622115E+01 -0.2062633039789E+01 -0.2135628135678E+01  0.7069116919836E+00
-0.2554195456747E+01 -0.2080328474348E+01 -0.2178226242090E+01  0.6592576824211E+00
-0.2557597073826E+01 -0.2042080394504E+01 -0.2161848404632E+01  0.6113815487612E+00
 0.8602466836043E+00  0.1387502944394E+01  0.1056442322480E+01  0.8071257731402E+00
 0.5287772400800E+00  0.1453676267031E+01  0.9317531459790E+00  0.8578282661789E+00
 0.2840826750299E+00  0.1362638658180E+01  0.7739590246457E+00  0.7853032518349E+00
 0.1161187592531E+00  0.1158022649873E+01  0.5988464607702E+00  0.6867893666656E+00
 0.1640879275787E-01  0.8982795771245E+00  0.4299035327543E+00  0.6109740066644E+00
-0.3671635094764E-01  0.6246588315840E+00  0.2763329651982E+00  0.5703899292327E+00
-0.6726214631781E-01  0.3529643309603E+00  0.1342800264414E+00  0.5634635005839E+00
-0.9769423487061E-01  0.8302691102825E-01 -0.6893642188426E-02  0.5877204919005E+00
-0.1500989990556E+00 -0.1885580895739E+00 -0.1591688312522E+00  0.6450970523842E+00
-0.2516902209395E+00 -0.4594328131505E+00 -0.3342278251746E+00  0.7402270215010E+00
-0.4401271794052E+00 -0.7174312158978E+00 -0.5440524444125E+00  0.8494210815022E+00
-0.7236770822518E+00 -0.9548850286609E+00 -0.7889241901279E+00  0.9303952831379E+00
-0.1065683933394E+01 -0.1178373494461E+01 -0.1054706988417E+01  0.9658322759883E+00
-0.1416942561686E+01 -0.1387956682685E+01 -0.1318302641511E+01  0.9651197984417E+00
-0.1740316263444E+01 -0.1574623550041E+01 -0.1558021708386E+01  0.9421347442039E+00
-0.2013142855537E+01 -0.1727403778354E+01 -0.1758056913470E+01  0.9068141424214E+00
-0.2225347421324E+01 -0.1837495023681E+01 -0.1909535944309E+01  0.8641958799439E+00
-0.2374457057393E+01 -0.1901433694470E+01 -0.2009668648279E+01  0.8159173686169E+00
-0.2459600007456E+01 -0.1918489738090E+01 -0.2057702175188E+01  0.7634855878029E+00
-0.2478673136566E+01 -0.1885283839633E+01 -0.2051059773611E+01  0.7095734177793E+00
 0.7563736666129E+00  0.1179576175267E+01  0.9098964233755E+00  0.7839994301221E+00
 0.5064333343184E+00  0.1237641970625E+01  0.8197153912443E+00  0.8767870611847E+00
 0.2970043733778E+00  0.1178515578640E+01  0.6934943756892E+00  0.8459943364683E+00
 0.1408835425439E+00  0.1020911092152E+01  0.5460434769222E+00  0.7749519817095E+00
 0.3825216324829E-01  0.8030114672784E+00  0.3953939053447E+00  0.7109095948619E+00
-0.2478845337917E-01  0.5580836168894E+00  0.2506487262141E+00  0.6723908601196E+00
-0.6662199413803E-01  0.3043510716776E+00  0.1117326661602E+00  0.6640003896599E+00
-0.1066168193045E+00  0.4795981465531E-01 -0.2756879211520E-01  0.6862724119965E+00
-0.1650470091559E+00 -0.2092022134981E+00 -0.1758971342012E+00  0.7405985985152E+00
-0.2660184010146E+00 -0.4624337037580E+00 -0.3423724883747E+00  0.8288259207205E+00
-0.4405300769790E+00 -0.7006079407785E+00 -0.5363348669857E+00  0.9307257422856E+00
-0.6967671622720E+00 -0.9168855466729E+00 -0.7584167712805E+00  0.1010858444466E+01
-0.1007670427442E+01 -0.1116707526704E+01 -0.9984576359162E+00  0.1051907126447E+01
-0.1332901636725E+01 -0.1301280706032E+01 -0.1238065697955E+01  0.1058488863660E+01
-0.1638943983656E+01 -0.1464535880828E+01 -0.1458635532608E+01  0.1040967286525E+01
-0.1903623370673E+01 -0.1598299817516E+01 -0.1645903894275E+01  0.1008157733522E+01
-0.2115810922081E+01 -0.1695235586544E+01 -0.1791191854511E+01  0.9653032843059E+00
-0.2271342963098E+01 -0.1751991881894E+01 -0.1890967372350E+01  0.9146987845177E+00
-0.2367707678633E+01 -0.1767475905493E+01 -0.1943536279610E+01  0.8583727640569E+00
-0.2401734516421E+01 -0.1738417167715E+01 -0.1945871286608E+01  0.7991306543504E+00
 0.6605020304522E+00  0.9981968923242E+00  0.7795884917276E+00  0.7678967976709E+00
 0.4774267295429E+00  0.1045108522678E+01  0.7155915667287E+00  0.8889988341106E+00
 0.3012051175811E+00  0.1005233036008E+01  0.6140259306295E+00  0.8922284973874E+00
 0.1587099275893E+00  0.8822073783330E+00  0.4892311325426E+00  0.8475759504860E+00
 0.5657823853586E-01  0.6999061614310E+00  0.3555476670826E+00  0.7985325383730E+00
-0.1317204310641E-01  0.4838097945867E+00  0.2211997426347E+00  0.7661728830918E+00
-0.6429569991251E-01  0.2514939851162E+00  0.8798319382259E-01  0.7590437365350E+00
-0.1129957131089E+00  0.1238016669153E-01 -0.4728930669621E-01  0.7802010084885E+00
-0.1772029996639E+00 -0.2279655310866E+00 -0.1904292089697E+00  0.8312010331654E+00
-0.2779549487029E+00 -0.4629814651276E+00 -0.3482401136171E+00  0.9123266389438E+00
-0.4408150906310E+00 -0.6822469967466E+00 -0.5278391797287E+00  0.1006429994437E+01
-0.6736396029509E+00 -0.8794428573540E+00 -0.7299487544919E+00  0.1083919017820E+01
-0.9566543871876E+00 -0.1058753379547E+01 -0.9472416479626E+00  0.1128260330574E+01
-0.1257209957276E+01 -0.1221740190896E+01 -0.1165106566685E+01  0.1140537923685E+01
-0.1545687485553E+01 -0.1364325402846E+01 -0.1367706054079E+01  0.1127958184164E+01
-0.1801030865386E+01 -0.1480614700169E+01 -0.1542373411899E+01  0.1097927111029E+01
-0.2011636908518E+01 -0.1564826549996E+01 -0.1680937821238E+01  0.1055521968752E+01
-0.2172093263278E+01 -0.1614122239867E+01 -0.1779521281964E+01  0.1003444487427E+01
-0.2278474706951E+01 -0.1627426712610E+01 -0.1835773662538E+01  0.9441066208524E+00
-0.2326454275889E+01 -0.1601778509103E+01 -0.1846269404264E+01  0.8803623422569E+00
 0.5709003918817E+00  0.8377516093183E+00  0.6620664388848E+00  0.7579905026894E+00
 0.4429217869467E+00  0.8725866999399E+00  0.6182889872685E+00  0.8973227920603E+00
 0.2976484798101E+00  0.8438617939669E+00  0.5365098273144E+00  0.9278054487768E+00
 0.1698530350589E+00  0.7461951865361E+00  0.4305426630576E+00  0.9072450600407E+00
 0.7078816904908E-01  0.5934670625624E+00  0.3121999580656E+00  0.8743957567239E+00
-0.2940537025603E-02  0.4045080059904E+00  0.1887367099347E+00  0.8507599463312E+00
-0.6125795459450E-01  0.1948955140017E+00  0.6280965276209E-01  0.8470861075597E+00
-0.1173846664134E+00 -0.2471848971870E-01 -0.6678848321269E-01  0.8682467935512E+00
-0.1867658668589E+00 -0.2466010974820E+00 -0.2036824727236E+00  0.9162252139645E+00
-0.2874726872342E+00 -0.4629428852793E+00 -0.3526953181868E+00  0.9905602361278E+00
-0.4405385110335E+00 -0.6638574258484E+00 -0.5190660890179E+00  0.1076860448353E+01
-0.6532822317994E+00 -0.8433427514928E+00 -0.7034137403632E+00  0.1150523382828E+01
-0.9114253287971E+00 -0.1004385157857E+01 -0.9004309264434E+00  0.1196262773632E+01
-0.1188872430373E+01 -0.1148469877209E+01 -0.1098550881777E+01  0.1212663323191E+01
-0.1459945801761E+01 -0.1272822946738E+01 -0.1284401308537E+01  0.1204245704218E+01
-0.1705138754145E+01 -0.1373311065919E+01 -0.1446871411760E+01  0.1176928298057E+01
-0.1912833948086E+01 -0.1445593757642E+01 -0.1578461017689E+01  0.1135384156355E+01
-0.2076771378799E+01 -0.1487526646088E+01 -0.1675220067448E+01  0.1082522882482E+01
-0.2191868601146E+01 -0.1498312931010E+01 -0.1734385315715E+01  0.1021016282552E+01
-0.2252616874387E+01 -0.1475484097438E+01 -0.1752207452314E+01  0.9536755601192E+00
 0.4865847758263E+00  0.6943636128490E+00  0.5550457412696E+00  0.7534381371522E+00
 0.4040439480619E+00  0.7173173020986E+00  0.5270397862387E+00  0.9035824598054E+00
 0.2872594592727E+00  0.6945248896668E+00  0.4614386428312E+00  0.9555049441982E+00
 0.1746486140271E+00  0.6154135579153E+00  0.3713292198711E+00  0.9562163454220E+00
 0.8056971211951E-01  0.4869491308956E+00  0.2667338555406E+00  0.9394655118589E+00
 0.5162963072060E-02  0.3226002462163E+00  0.1540487079748E+00  0.9259133038515E+00
-0.5832495110003E-01  0.1355169389150E+00  0.3628023418102E-01  0.9272563651890E+00
-0.1204142091091E+00 -0.6366206273985E-01 -0.8651584754959E-01  0.9495029692977E+00
-0.1941184916630E+00 -0.2661990083733E+00 -0.2163492244683E+00  0.9950745464810E+00
-0.2947258090434E+00 -0.4636408529900E+00 -0.3564323302517E+00  0.1063259818000E+01
-0.4394496602898E+00 -0.6466031983163E+00 -0.5104448422502E+00  0.1142108568284E+01
-0.6349165262090E+00 -0.8093149973235E+00 -0.6787888143386E+00  0.1211267171439E+01
-0.8709465148665E+00 -0.9537109496381E+00 -0.8575890061420E+00  0.1256938689128E+01
-0.1126938574605E+01 -0.1080993933043E+01 -0.1037728275963E+01  0.1276040507193E+01
-0.1381030684452E+01 -0.1189220228167E+01 -0.1208017925867E+01  0.1270909902248E+01
-0.1615550360456E+01 -0.1275563705467E+01 -0.1358823607537E+01  0.1246033589152E+01
-0.1819235001531E+01 -0.1336910011245E+01 -0.1483388152242E+01  0.1205548848128E+01
-0.1985331418928E+01 -0.1371833617483E+01 -0.1577867563111E+01  0.1152434094018E+01
-0.2107855021218E+01 -0.1379965921573E+01 -0.1639275838954E+01  0.1089535995241E+01
-0.2180103146624E+01 -0.1359483874907E+01 -0.1663605895900E+01  0.1019546457263E+01
 0.4069637316762E+00  0.5652352633491E+00  0.4569335265030E+00  0.7534489049663E+00
 0.3618213315746E+00  0.5770870772762E+00  0.4412869510406E+00  0.9089455425663E+00
 0.2709357064336E+00  0.5568819108706E+00  0.3890742791462E+00  0.9773793803690E+00
 0.1735166485877E+00  0.4913123489501E+00  0.3124696280502E+00  0.9963986927881E+00
 0.8581431843935E-01  0.3826210417461E+00  0.2201646187288E+00  0.9948602422549E+00
 0.1063928688118E-01  0.2400884745574E+00  0.1178420475773E+00  0.9918615385269E+00
-0.5615471815852E-01  0.7446036680767E-01  0.8603654843278E-02  0.9991876331271E+00
-0.1226993661878E+00 -0.1043217105569E+00 -0.1066999057994E+00  0.1023415441099E+01
-0.1997345092987E+00 -0.2873194291886E+00 -0.2289153505084E+00  0.1067299974532E+01
-0.2999979344638E+00 -0.4659361718354E+00 -0.3599890290476E+00  0.1130146405848E+01
-0.4374677189215E+00 -0.6313349638529E+00 -0.5023372596299E+00  0.1202130956703E+01
-0.6179776022858E+00 -0.7779743831808E+00 -0.6560974315052E+00  0.1266503174122E+01
-0.8343598256209E+00 -0.9069313207616E+00 -0.8184068367240E+00  0.1311042220297E+01
-0.1070542762107E+01 -0.1019064869365E+01 -0.9821155843008E+00  0.1331644755492E+01
-0.1308237208240E+01 -0.1112955523257E+01 -0.1137960580917E+01  0.1328945743570E+01
-0.1531775630538E+01 -0.1186716147099E+01 -0.1277691132249E+01  0.1306132639638E+01
-0.1730550459750E+01 -0.1238204657377E+01 -0.1395314901511E+01  0.1266752069542E+01
-0.1897634757005E+01 -0.1266631125825E+01 -0.1487204961158E+01  0.1213767216935E+01
-0.2026389774734E+01 -0.1272110004911E+01 -0.1550294892501E+01  0.1150167955732E+01
-0.2108880090362E+01 -0.1253588874532E+01 -0.1580360409492E+01  0.1078490547378E+01
 0.3316590466924E+00  0.4482723253629E+00  0.3665677439362E+00  0.7573074658944E+00
 0.3171630752741E+00  0.4500897387512E+00  0.3606088216773E+00  0.9141519304845E+00
 0.2495375556691E+00  0.4303695272128E+00  0.3195563281440E+00  0.9949553841439E+00
 0.1669415941113E+00  0.3746510020581E+00  0.2545485195540E+00  0.1029383327530E+01
 0.8656654399154E-01  0.2820148015843E+00  0.1732332319813E+00  0.1041714440649E+01
 0.1317694985923E-01  0.1585386810741E+00  0.8070634633398E-01  0.1049111399688E+01
-0.5525814488007E-01  0.1279071656508E-01 -0.1995969125742E-01  0.1062883157965E+01
-0.1247964515736E+00 -0.1463108918018E+00 -0.1274204510633E+00  0.1089739760461E+01
-0.2041121029947E+00 -0.3101374360066E+00 -0.2416972827176E+00  0.1132627612517E+01
-0.3036499161057E+00 -0.4703162961813E+00 -0.3637641188522E+00  0.1190990961000E+01
-0.4346451764351E+00 -0.6186237870966E+00 -0.4950364116043E+00  0.1256826896404E+01
-0.6020885018190E+00 -0.7497926787430E+00 -0.6353841532526E+00  0.1316424428203E+01
-0.8009841138948E+00 -0.8642524934895E+00 -0.7826612034855E+00  0.1359120551475E+01
-0.1018930994159E+01 -0.9625503580196E+00 -0.9312962331618E+00  0.1380276404862E+01
-0.1240893321431E+01 -0.1043617055622E+01 -0.1073719874491E+01  0.1379253607119E+01
-0.1453287852194E+01 -0.1106227196203E+01 -0.1202972069695E+01  0.1358104205656E+01
-0.1646411731281E+01 -0.1148956043181E+01 -0.1313822850665E+01  0.1319774087173E+01
-0.1813465377272E+01 -0.1171490287441E+01 -0.1402929158857E+01  0.1267167941665E+01
-0.1947413208813E+01 -0.1174397648743E+01 -0.1467251099329E+01  0.1203448627807E+01
-0.2038995938874E+01 -0.1157503620245E+01 -0.1502354788976E+01  0.1131034360854E+01
 0.2604099630981E+00  0.3418564504804E+00  0.2830652136640E+00  0.7643790354930E+00
 0.2708570415277E+00  0.3348254870435E+00  0.2846707877064E+00  0.9196564892763E+00
 0.2238754694028E+00  0.3143244640161E+00  0.2529539680653E+00  0.1009374086386E+01
 0.1554486660756E+00  0.2657465605466E+00  0.1979617560103E+00  0.1056487882078E+01
 0.8298526063483E-01  0.1861236844360E+00  0.1264812038625E+00  0.1081110483803E+01
 0.1261274781661E-01  0.7912739227909E-01  0.4311786573562E-01  0.1098321714333E+01
-0.5601427514747E-01 -0.4855111169961E-01 -0.4914573169348E-01  0.1118603259172E+01
-0.1271830459249E+00 -0.1891264172114E+00 -0.1486654472970E+00  0.1148482704569E+01
-0.2077315070373E+00 -0.3345731031439E+00 -0.2548831661387E+00  0.1190958226448E+01
-0.3060752455854E+00 -0.4769850598818E+00 -0.3680383426361E+00  0.1245651178207E+01
-0.4311280922562E+00 -0.6088044596424E+00 -0.4887682981527E+00  0.1306094556702E+01
-0.5870286886748E+00 -0.7250948048413E+00 -0.6166980403884E+00  0.1361128120183E+01
-0.7703061034059E+00 -0.8258380662554E+00 -0.7501877578380E+00  0.1401564613728E+01
-0.9714791051523E+00 -0.9113575578624E+00 -0.8849332293724E+00  0.1422583521763E+01
-0.1178396860423E+01 -0.9808633848599E+00 -0.1014852312709E+01  0.1422636504732E+01
-0.1379568146428E+01 -0.1033613425881E+01 -0.1134195336108E+01  0.1402800939833E+01
-0.1566404551542E+01 -0.1068668991152E+01 -0.1238484561925E+01  0.1365422682988E+01
-0.1732539312283E+01 -0.1085981181817E+01 -0.1324704628867E+01  0.1313320501104E+01
-0.1870840105559E+01 -0.1086446283769E+01 -0.1389924599459E+01  0.1249922011847E+01
-0.1970584178480E+01 -0.1070863572609E+01 -0.1429480439386E+01  0.1177688773562E+01
 0.1930203338682E+00  0.2447013223576E+00  0.2057291779043E+00  0.7741063678872E+00
 0.2235764126790E+00  0.2300283905997E+00  0.2131942570003E+00  0.9257214843442E+00
 0.1947009591083E+00  0.2080483968752E+00  0.1892921968321E+00  0.1021490082406E+01
 0.1395819138015E+00  0.1646304975464E+00  0.1429798329709E+00  0.1078799964131E+01
 0.7531245757607E-01  0.9555071825836E-01  0.8030569243850E-01  0.1114047124246E+01
 0.8900815923973E-02  0.2705294519221E-02  0.5454871894465E-02  0.1140221625610E+01
-0.5868639088250E-01 -0.1087806811626E+00 -0.7870952366158E-01  0.1166777633741E+01
-0.1302510685082E+00 -0.2322397540086E+00 -0.1703706861508E+00  0.1199843758803E+01
-0.2110289139992E+00 -0.3603941539509E+00 -0.2685688412554E+00  0.1242350405840E+01
-0.3076654640972E+00 -0.4859445320689E+00 -0.3729966972520E+00  0.1294088018168E+01
-0.4271178793486E+00 -0.6020242104153E+00 -0.4836967809622E+00  0.1349868858143E+01
-0.5726973040699E+00 -0.7040728003918E+00 -0.6000819475750E+00  0.1400664076552E+01
-0.7419653452259E+00 -0.7917941144491E+00 -0.7208669442188E+00  0.1438648203809E+01
-0.9277027962280E+00 -0.8653893116789E+00 -0.8427532885787E+00  0.1459077080561E+01
-0.1120250807491E+01 -0.9243650769937E+00 -0.9609694632706E+00  0.1459794065714E+01
-0.1310141373726E+01 -0.9683818188828E+00 -0.1070905897810E+01  0.1441039275519E+01
-0.1490098017190E+01 -0.9968356795708E+00 -0.1168858834513E+01  0.1404531236074E+01
-0.1654502514647E+01 -0.1009674520559E+01 -0.1252163203371E+01  0.1352949434180E+01
-0.1796540135940E+01 -0.1007882209323E+01 -0.1318078498930E+01  0.1290124244161E+01
-0.1903879852578E+01 -0.9932806873956E+00 -0.1361665450334E+01  0.1218922441859E+01
 0.1293285302061E+00  0.1557578957909E+00  0.1339906198788E+00  0.7860035242749E+00
 0.1758903957811E+00  0.1346139299905E+00  0.1459370327425E+00  0.9324778429036E+00
 0.1627012410201E+00  0.1108426150005E+00  0.1285656120036E+00  0.1031942247798E+01
 0.1198865178495E+00  0.7115037406550E-01  0.8978733897230E-01  0.1097215656637E+01
 0.6384742522318E-01  0.1061710785087E-01  0.3499833045603E-01  0.1141427664492E+01
 0.2087249840161E-02 -0.7014021256549E-01 -0.3198489239978E-01  0.1175558632909E+01
-0.6343823767277E-01 -0.1672733032601E+00 -0.1084344239634E+00  0.1207940241905E+01
-0.1343073607274E+00 -0.2751509812158E+00 -0.1924454202252E+00  0.1244163289697E+01
-0.2143820596745E+00 -0.3872905406199E+00 -0.2827861214211E+00  0.1286996367544E+01
-0.3087854036908E+00 -0.4970630767948E+00 -0.3787487848676E+00  0.1336368357126E+01
-0.4228366666586E+00 -0.5982894875584E+00 -0.4799292912647E+00  0.1388145374809E+01
-0.5590734545526E+00 -0.6868106677106E+00 -0.5855655359785E+00  0.1435072411652E+01
-0.7157225906393E+00 -0.7621748322808E+00 -0.6946117870106E+00  0.1470560239973E+01
-0.8872715949435E+00 -0.8245509940873E+00 -0.8045566148039E+00  0.1490134755376E+01
-0.1066089859326E+01 -0.8737620407973E+00 -0.9117303907454E+00  0.1491301854705E+01
-0.1244633675117E+01 -0.9099704996325E+00 -0.1012663959564E+01  0.1473578843957E+01
-0.1417053964563E+01 -0.9328367374274E+00 -0.1104448627134E+01  0.1437969367537E+01
-0.1578929347913E+01 -0.9421310624021E+00 -0.1184898389843E+01  0.1386851530148E+01
-0.1724289693275E+01 -0.9383879978450E+00 -0.1251458511652E+01  0.1324589134395E+01
-0.1839260669852E+01 -0.9244194586174E+00 -0.1298929657086E+01  0.1255132119331E+01
 0.6919100126906E-01  0.7415061199254E-01  0.6737055806208E-01  0.7996489321365E+00
 0.1282745141642E+00  0.4763855914333E-01  0.8267914424482E-01  0.9399661031657E+00
 0.1284993117024E+00  0.2202965040759E-01  0.7074861201226E-01  0.1041205051594E+01
 0.9689347056994E-01 -0.1496478815099E-01  0.3850648063924E-01  0.1112472220769E+01
 0.4892684090463E-01 -0.6855780637716E-01 -0.9226553748689E-02  0.1164058588913E+01
-0.7712267250467E-02 -0.1390315560240E+00 -0.6896959676408E-01  0.1205066279036E+01
-0.7034924336556E-01 -0.2235522840156E+00 -0.1381337175188E+00  0.1242682102328E+01
-0.1395790244751E+00 -0.3174174971483E+00 -0.2147883646182E+00  0.1281879509363E+01
-0.2181042871778E+00 -0.4149252300658E+00 -0.2975238723499E+00  0.1325195876047E+01
-0.3097573562579E+00 -0.5101276530165E+00 -0.3853459533816E+00  0.1372658997958E+01
-0.4185002427548E+00 -0.5975066629727E+00 -0.4775232444808E+00  0.1420994094223E+01
-0.5461729529842E+00 -0.6733072816353E+00 -0.5731557088174E+00  0.1464415125095E+01
-0.6914164777096E+00 -0.7370040359003E+00 -0.6713576396938E+00  0.1497438954681E+01
-0.8499659594290E+00 -0.7887703052173E+00 -0.7702060424302E+00  0.1516006761300E+01
-0.1015789212044E+01 -0.8287675395095E+00 -0.8669416710311E+00  0.1517553024226E+01
-0.1182780758026E+01 -0.8576091813551E+00 -0.9589832690767E+00  0.1501063488969E+01
-0.1346928517500E+01 -0.8758460293019E+00 -0.1044704034347E+01  0.1466643761724E+01
-0.1505215291723E+01 -0.8827071399187E+00 -0.1122323540025E+01  0.1415983790046E+01
-0.1653739187939E+01 -0.8778395270193E+00 -0.1189841993013E+01  0.1353904622944E+01
-0.1777311640291E+01 -0.8641303329753E+00 -0.1241477724286E+01  0.1286598755326E+01
 0.1246132413537E-01 -0.8810355604955E-03  0.5442735616386E-02  0.8146768222978E+00
 0.8113214969465E-01 -0.3171750648256E-01  0.2322488225078E-01  0.9481630598984E+00
 0.9264588693079E-01 -0.5904413267612E-01  0.1579282445964E-01  0.1049626084930E+01
 0.7111778367576E-01 -0.9404909733269E-01 -0.1077771739142E-01  0.1125175790926E+01
 0.3090086082210E-01 -0.1420081227554E+00 -0.5222041297620E-01  0.1182654165396E+01
-0.2032750851069E-01 -0.2037526142453E+00 -0.1053176574282E+00  0.1229443948260E+01
-0.7943014151629E-01 -0.2772721129158E+00 -0.1676500591579E+00  0.1271617832388E+01
-0.1462213910761E+00 -0.3586663481983E+00 -0.2372972368571E+00  0.1313493966924E+01
-0.2224443758705E+00 -0.4429663441483E+00 -0.3127430376156E+00  0.1357331248566E+01
-0.3108540339270E+00 -0.5248823758687E+00 -0.3927961116077E+00  0.1403215564840E+01
-0.4142996766893E+00 -0.5995129816564E+00 -0.4764919482139E+00  0.1448565254829E+01
-0.5340169606196E+00 -0.6634969604605E+00 -0.5628315414801E+00  0.1488802813553E+01
-0.6688959595575E+00 -0.7162764247908E+00 -0.6510310189924E+00  0.1519416696889E+01
-0.8156152837336E+00 -0.7580520136950E+00 -0.7396236279155E+00  0.1536852475243E+01
-0.9693192880232E+00 -0.7892122481706E+00 -0.8265098199147E+00  0.1538716505925E+01
-0.1125019958384E+01 -0.8108645401336E+00 -0.9098657119955E+00  0.1523783910487E+01
-0.1279094030168E+01 -0.8239500386673E+00 -0.9884307098456E+00  0.1491440325183E+01
-0.1432831960886E+01 -0.8305410178765E+00 -0.1063785297320E+01  0.1441632871455E+01
-0.1583966161060E+01 -0.8260633455994E+00 -0.1132713865257E+01  0.1378917509286E+01
-0.1719148235931E+01 -0.8130594015138E+00 -0.1190137586580E+01  0.1313444032463E+01
-0.4097272699807E-01 -0.6997582925236E-01 -0.5214582130544E-01  0.8307777648327E+00
 0.3473770249177E-01 -0.1042512492826E+00 -0.3267136690882E-01  0.9569919840166E+00
 0.5569856615576E-01 -0.1329026234698E+00 -0.3628590684555E-01  0.1057453104045E+01
 0.4299852530154E-01 -0.1665297652004E+00 -0.5805968260521E-01  0.1135831825504E+01
 0.1014018523912E-01 -0.2098621495913E+00 -0.9386932300742E-01  0.1197839532748E+01
-0.3555507321442E-01 -0.2642171211169E+00 -0.1408929309784E+00  0.1249345273684E+01
-0.9063418812151E-01 -0.3281960386465E+00 -0.1968502060817E+00  0.1295362132919E+01
-0.1543279481321E+00 -0.3985975060791E+00 -0.2598749628201E+00  0.1339544908653E+01
-0.2275926117934E+00 -0.4711084277158E+00 -0.3283894877364E+00  0.1383844285849E+01
-0.3122946471137E+00 -0.5410509798719E+00 -0.4010724436660E+00  0.1428368821443E+01
-0.4103968400727E+00 -0.6041032471651E+00 -0.4768150397924E+00  0.1471088461179E+01
-0.5226133864184E+00 -0.6572596004827E+00 -0.5545403024370E+00  0.1508412969671E+01
-0.6479934761311E+00 -0.6999608243486E+00 -0.6335385196186E+00  0.1536668586669E+01
-0.7839397388211E+00 -0.7324217888242E+00 -0.7126899161857E+00  0.1552830416251E+01
-0.9266411628494E+00 -0.7552364553630E+00 -0.7904824785549E+00  0.1554825707462E+01
-0.1071707696724E+01 -0.7695537352956E+00 -0.8653928708545E+00  0.1541530286099E+01
-0.1215974229275E+01 -0.7771048714996E+00 -0.9367471749880E+00  0.1512252230320E+01
-0.1357634039640E+01 -0.7788538633186E+00 -0.1004149311844E+01  0.1465820788984E+01
-0.1514939429695E+01 -0.7849777980000E+00 -0.1080961094275E+01  0.1401580223918E+01
-0.1666395821373E+01 -0.7734636082872E+00 -0.1146733929032E+01  0.1335406194409E+01
-0.9194456115840E-01 -0.1345297787354E+00 -0.1064429394801E+00  0.8475746640293E+00
-0.1011489341661E-01 -0.1699411414089E+00 -0.8462633615335E-01  0.9662743848276E+00
 0.1784376345530E-01 -0.2003377381088E+00 -0.8577216786959E-01  0.1064914427711E+01
 0.1302606215088E-01 -0.2327935341356E+00 -0.1032907115708E+00  0.1144847032611E+01
-0.1300771659909E-01 -0.2723427609675E+00 -0.1341147241162E+00  0.1210158461854E+01
-0.5316174369670E-01 -0.3204294668990E+00 -0.1755878685346E+00  0.1265370484188E+01
-0.1038759810416E+00 -0.3761813202767E+00 -0.2256269310473E+00  0.1314513067988E+01
-0.1639321914894E+00 -0.4369708993008E+00 -0.2824244519551E+00  0.1360588355099E+01
-0.2336899384730E+00 -0.4990902791343E+00 -0.3444067014019E+00  0.1405216994983E+01
-0.3142636950555E+00 -0.5583669240203E+00 -0.4101363899254E+00  0.1448505238426E+01
-0.4068970023686E+00 -0.6110109230074E+00 -0.4784167237133E+00  0.1488869893473E+01
-0.5119765482103E+00 -0.6544579500153E+00 -0.5482242127756E+00  0.1523499125677E+01
-0.6285319292836E+00 -0.6879905206988E+00 -0.6187655499223E+00  0.1549436877561E+01
-0.7545700762695E+00 -0.7118886083308E+00 -0.6892355800140E+00  0.1564195535070E+01
-0.8872325865437E+00 -0.7269615591293E+00 -0.7586712465420E+00  0.1566035312530E+01
-0.1023088843838E+01 -0.7344687598449E+00 -0.8260520716358E+00  0.1554010784200E+01
-0.1158245916784E+01 -0.7352923455604E+00 -0.8899629810444E+00  0.1527685823132E+01
-0.1291283521236E+01 -0.7323473149667E+00 -0.9511064906031E+00  0.1486711780337E+01
-0.1419518859623E+01 -0.7221730587401E+00 -0.1006595199077E+01  0.1429245110236E+01
-0.1636129708903E+01 -0.7730942232164E+00 -0.1132335245224E+01  0.1353966469204E+01
-0.1076513001827E+01 -0.1352542978286E+01 -0.1141656307758E+01  0.1196881201122E+01
-0.1005902440529E+01 -0.1369668302981E+01 -0.1116518246618E+01  0.1272578817520E+01
-0.9013483892095E+00 -0.1384785939897E+01 -0.1074483131955E+01  0.1316541867045E+01
-0.7876438157391E+00 -0.1389999330618E+01 -0.1023492276192E+01  0.1332645139926E+01
-0.6782384024674E+00 -0.1380065665612E+01 -0.9674029095435E+00  0.1327463717061E+01
-0.5810923553473E+00 -0.1353735873909E+01 -0.9093692654442E+00  0.1307578904425E+01
-0.5001234004814E+00 -0.1312074238154E+01 -0.8517328879984E+00  0.1278583838891E+01
-0.4366919405086E+00 -0.1257562562476E+01 -0.7962996143830E+00  0.1244681349664E+01
-0.3904656806725E+00 -0.1193256604205E+01 -0.7443494720044E+00  0.1208541643862E+01
-0.3600608655353E+00 -0.1122167698355E+01 -0.6966474232616E+00  0.1171383685148E+01
-0.3434564724034E+00 -0.1046809436502E+01 -0.6534249755280E+00  0.1133239726405E+01
-0.3382723250117E+00 -0.9689589092831E+00 -0.6143986785602E+00  0.1093364717579E+01
-0.3420166133727E+00 -0.8897791695165E+00 -0.5789440164895E+00  0.1050887085951E+01
-0.3525835046183E+00 -0.8102413140260E+00 -0.5465276633766E+00  0.1005204377997E+01
-0.3677387120419E+00 -0.7311314366287E+00 -0.5164689685652E+00  0.9558648057033E+00
-0.3852893584748E+00 -0.6532011647849E+00 -0.4880905446941E+00  0.9026249932111E+00
-0.4032374000847E+00 -0.5772841330595E+00 -0.4608451194089E+00  0.8452922317094E+00
-0.4183786032131E+00 -0.5030836202389E+00 -0.4330872439240E+00  0.7837592240055E+00
-0.4287028559741E+00 -0.4338835648609E+00 -0.4054156167642E+00  0.7175588964225E+00
-0.3842312149641E+00 -0.3362082750501E+00 -0.3386065594478E+00  0.6483359896565E+00
-0.1112007471267E+01 -0.1406147220552E+01 -0.1183532702153E+01  0.1202121346346E+01
-0.1027142552490E+01 -0.1425147240160E+01 -0.1152576199622E+01  0.1282432059560E+01
-0.9094164456014E+00 -0.1443022900740E+01 -0.1105646489976E+01  0.1323999937348E+01
-0.7831522058026E+00 -0.1447674078377E+01 -0.1048488350905E+01  0.1333684521546E+01
-0.6638695727965E+00 -0.1434333662127E+01 -0.9861555179130E+00  0.1320127526494E+01
-0.5596607886854E+00 -0.1402196551484E+01 -0.9220729475408E+00  0.1291439367077E+01
-0.4742147455539E+00 -0.1353179970154E+01 -0.8588755142045E+00  0.1254173897363E+01
-0.4083762971749E+00 -0.1290554608962E+01 -0.7984975238589E+00  0.1213022984372E+01
-0.3612276193470E+00 -0.1218003299840E+01 -0.7422385301355E+00  0.1170782059423E+01
-0.3308154318066E+00 -0.1138944508144E+01 -0.6907871700246E+00  0.1128577128389E+01
-0.3146222729830E+00 -0.1056124082530E+01 -0.6442507854572E+00  0.1086250354690E+01
-0.3098491092396E+00 -0.9714560015978E+00 -0.6022134005662E+00  0.1042849392315E+01
-0.3140073828936E+00 -0.8864097155452E+00 -0.5641960348352E+00  0.9975747714008E+00
-0.3249608672047E+00 -0.8019037162077E+00 -0.5296263528605E+00  0.9501039377900E+00
-0.3404416073833E+00 -0.7186904863477E+00 -0.4977920827910E+00  0.9000779014192E+00
-0.3582933522277E+00 -0.6375867683385E+00 -0.4680636554789E+00  0.8471629201233E+00
-0.3757305253875E+00 -0.5589270231972E+00 -0.4392890467206E+00  0.7909040517227E+00
-0.3898669355955E+00 -0.4835342978069E+00 -0.4104985786580E+00  0.7306783636109E+00
-0.3887572606851E+00 -0.4076153805079E+00 -0.3742951404114E+00  0.6666799890340E+00
-0.3836839515244E+00 -0.3435075775503E+00 -0.3417800177982E+00  0.6078977401958E+00
-0.1148487095488E+01 -0.1462752328327E+01 -0.1227282526080E+01  0.1208457436168E+01
-0.1048788910848E+01 -0.1486710930738E+01 -0.1191684922523E+01  0.1292860078988E+01
-0.9149525351487E+00 -0.1506632608791E+01 -0.1138145014765E+01  0.1330999748027E+01
-0.7750615899969E+00 -0.1510155661968E+01 -0.1074052105699E+01  0.1332785313266E+01
-0.6453881245735E+00 -0.1492150937556E+01 -0.1004643356653E+01  0.1309548434872E+01
-0.5342180102893E+00 -0.1452742658321E+01 -0.9338715118782E+00  0.1271133750405E+01
-0.4447335046455E+00 -0.1394885885076E+01 -0.8646211109761E+00  0.1225102422022E+01
-0.3770881178696E+00 -0.1322833555991E+01 -0.7989631846880E+00  0.1176577485993E+01
-0.3296286295307E+00 -0.1241003517918E+01 -0.7381971074287E+00  0.1128385977048E+01
-0.2997445632229E+00 -0.1153276247144E+01 -0.6829197791401E+00  0.1081476911381E+01
-0.2843870119454E+00 -0.1062637422236E+01 -0.6331014824593E+00  0.1035449470696E+01
-0.2804039497359E+00 -0.9711414305267E+00 -0.5882263272315E+00  0.9891181774619E+00
-0.2852174545366E+00 -0.8803237837784E+00 -0.5478043806186E+00  0.9417188064931E+00
-0.2967035117402E+00 -0.7910913920666E+00 -0.5112636034924E+00  0.8931358657347E+00
-0.3125425541767E+00 -0.7041821636206E+00 -0.4778606161527E+00  0.8430322654963E+00
-0.3303560608683E+00 -0.6203253092854E+00 -0.4468202428389E+00  0.7909556490630E+00
-0.3473289808479E+00 -0.5401635702503E+00 -0.4171214979582E+00  0.7363163770701E+00
-0.3590931929871E+00 -0.4637553459154E+00 -0.3867388123033E+00  0.6788391414184E+00
-0.3644822865903E+00 -0.3943166167660E+00 -0.3566354836729E+00  0.6208809481482E+00
-0.3690468911454E+00 -0.3301714238620E+00 -0.3286326072199E+00  0.5670254996831E+00
-0.1187213687832E+01 -0.1524379454025E+01 -0.1274448773440E+01  0.1216327808558E+01
-0.1069787327477E+01 -0.1554151459062E+01 -0.1233251226545E+01  0.1304091333665E+01
-0.9177882491872E+00 -0.1576380194056E+01 -0.1172259165351E+01  0.1337202168728E+01
-0.7628981618629E+00 -0.1577674026762E+01 -0.1100068925863E+01  0.1329378188627E+01
-0.6225222155157E+00 -0.1553451395201E+01 -0.1022707594443E+01  0.1295032780519E+01
-0.5046628819536E+00 -0.1504968988103E+01 -0.9445269765310E+00  0.1245976314575E+01
-0.4117691453068E+00 -0.1436564664296E+01 -0.8687168883101E+00  0.1190788408765E+01
-0.3430703389080E+00 -0.1353665020321E+01 -0.7974656168149E+00  0.1134929929812E+01
-0.2960268365182E+00 -0.1261523516215E+01 -0.7320486639277E+00  0.1081132779313E+01
-0.2672859805894E+00 -0.1164498274662E+01 -0.6729385982616E+00  0.1030059147921E+01
-0.2532501373358E+00 -0.1065783217332E+01 -0.6199456751217E+00  0.9809865774582E+00
-0.2503931095263E+00 -0.9674748417900E+00 -0.5723979356668E+00  0.9324351318907E+00
-0.2560831217993E+00 -0.8711112984867E+00 -0.5297813761907E+00  0.8836502789555E+00
-0.2681980134612E+00 -0.7775469674856E+00 -0.4915001397983E+00  0.8346790623163E+00
-0.2843400505603E+00 -0.6874745981874E+00 -0.4567528837529E+00  0.7851749618687E+00
-0.3021559255594E+00 -0.6016871543170E+00 -0.4248062464644E+00  0.7346280616946E+00
-0.3187391849115E+00 -0.5207652279720E+00 -0.3945670730545E+00  0.6825352347341E+00
-0.3318518523871E+00 -0.4458488266018E+00 -0.3655193181977E+00  0.6291116870310E+00
-0.3407325885067E+00 -0.3773580166125E+00 -0.3375025835500E+00  0.5761947148236E+00
-0.3508571903420E+00 -0.3134349654114E+00 -0.3122173124122E+00  0.5255957607438E+00
-0.1228364483903E+01 -0.1591874023742E+01 -0.1325512095231E+01  0.1226044005542E+01
-0.1089842309951E+01 -0.1628440154799E+01 -0.1277592755192E+01  0.1316158407342E+01
-0.9172866573729E+00 -0.1652744850202E+01 -0.1207914805497E+01  0.1342218359840E+01
-0.7462447083165E+00 -0.1650492177029E+01 -0.1126466333255E+01  0.1322748790661E+01
-0.5949927417591E+00 -0.1618025218270E+01 -0.1040118438575E+01  0.1275763191987E+01
-0.4709572826291E+00 -0.1558309579504E+01 -0.9537554227836E+00  0.1215203747612E+01
-0.3754951299765E+00 -0.1477415353785E+01 -0.8708679251589E+00  0.1150634412817E+01
-0.3066655062618E+00 -0.1382163791432E+01 -0.7937497679029E+00  0.1087703541695E+01
-0.2608770867353E+00 -0.1278711209134E+01 -0.7236064972231E+00  0.1028875729532E+01
-0.2339570025201E+00 -0.1171863299809E+01 -0.6607355404187E+00  0.9743840091568E+00
-0.2217344012002E+00 -0.1064933038979E+01 -0.6047336953502E+00  0.9230833153533E+00
-0.2203177997768E+00 -0.9599582966012E+00 -0.5547297638907E+00  0.8731349856876E+00
-0.2270627540931E+00 -0.8584037473210E+00 -0.5101692543706E+00  0.8237740005304E+00
-0.2398652936755E+00 -0.7610311552913E+00 -0.4704213298212E+00  0.7751838929350E+00
-0.2563477743835E+00 -0.6684798714958E+00 -0.4346689924608E+00  0.7270061232604E+00
-0.2742853878767E+00 -0.5814759455546E+00 -0.4022078256926E+00  0.6787161878228E+00
-0.2913578060635E+00 -0.5006790595381E+00 -0.3722573258885E+00  0.6298855509583E+00
-0.3058001700747E+00 -0.4265255015338E+00 -0.3441930647830E+00  0.5806223959666E+00
-0.3175289586828E+00 -0.3586854833118E+00 -0.3178207869314E+00  0.5320089794672E+00
-0.3305197242453E+00 -0.2953792125511E+00 -0.2941724995482E+00  0.4843879660281E+00
-0.1272162512300E+01 -0.1666239752544E+01 -0.1381049060974E+01  0.1237979839705E+01
-0.1108494100364E+01 -0.1710593382113E+01 -0.1324971113404E+01  0.1328992481262E+01
-0.9128405741578E+00 -0.1736414825402E+01 -0.1245150034635E+01  0.1345492350922E+01
-0.7245971244922E+00 -0.1728753600385E+01 -0.1153074837768E+01  0.1312021553482E+01
-0.5625655648749E+00 -0.1685507923365E+01 -0.1056594536793E+01  0.1250782998814E+01
-0.4331362812574E+00 -0.1611980668566E+01 -0.9612049639791E+00  0.1177981110183E+01
-0.3361903517431E+00 -0.1516430199848E+01 -0.8707316570393E+00  0.1104045362412E+01
-0.2683262824002E+00 -0.1407278728811E+01 -0.7875343532717E+00  0.1034584420736E+01
-0.2247318099808E+00 -0.1291605394102E+01 -0.7126784841115E+00  0.9715654500809E+00
-0.2003411717445E+00 -0.1174567199547E+01 -0.6462069328680E+00  0.9146164453463E+00
-0.1904053989156E+00 -0.1059458901804E+01 -0.5874362198482E+00  0.8620574346763E+00
-0.1906997331786E+00 -0.9481273113946E+00 -0.5352487095918E+00  0.8116330221366E+00
-0.1986294394699E+00 -0.8418776087628E+00 -0.4890383114290E+00  0.7625552025487E+00
-0.2121633071318E+00 -0.7413360932330E+00 -0.4481447170348E+00  0.7151263119657E+00
-0.2290250014405E+00 -0.6470093997865E+00 -0.4117361675324E+00  0.6689683536194E+00
-0.2472977046512E+00 -0.5594836175291E+00 -0.3791872204630E+00  0.6235238124774E+00
-0.2649927040194E+00 -0.4790990136339E+00 -0.3497231064100E+00  0.5782889021868E+00
-0.2807186757059E+00 -0.4058107812008E+00 -0.3226688439277E+00  0.5331028595987E+00
-0.2944985892670E+00 -0.3388359597552E+00 -0.2976672372854E+00  0.4883991915536E+00
-0.3089767227183E+00 -0.2768536724173E+00 -0.2753402850154E+00  0.4438591212829E+00
-0.1318841010161E+01 -0.1748658026198E+01 -0.1441724543432E+01  0.1252573400806E+01
-0.1125196984172E+01 -0.1801821856061E+01 -0.1375698851420E+01  0.1342414279067E+01
-0.9037583626069E+00 -0.1828131168335E+01 -0.1283988076286E+01  0.1346262236425E+01
-0.6974470589390E+00 -0.1812514983378E+01 -0.1179682156897E+01  0.1296109477680E+01
-0.5250482729904E+00 -0.1755298313540E+01 -0.1071762892951E+01  0.1218984703618E+01
-0.3913378469527E+00 -0.1664928240062E+01 -0.9664450584458E+00  0.1133413247882E+01
-0.2942577892581E+00 -0.1552357801746E+01 -0.8679093255707E+00  0.1050458068230E+01
-0.2286273992476E+00 -0.1427788348100E+01 -0.7785153992789E+00  0.9753566420224E+00
-0.1882402942443E+00 -0.1299156665843E+01 -0.6990765694678E+00  0.9092813486036E+00
-0.1670845786694E+00 -0.1171790044972E+01 -0.6292710715153E+00  0.8510500252009E+00
-0.1598572288104E+00 -0.1048766175867E+01 -0.5680529987574E+00  0.7983352440089E+00
-0.1620649679926E+00 -0.9315755555241E+00 -0.5140110447491E+00  0.7484235121962E+00
-0.1712457171729E+00 -0.8212670296052E+00 -0.4664809898025E+00  0.7005004571024E+00
-0.1855010882591E+00 -0.7182742680922E+00 -0.4247744164077E+00  0.6549718792105E+00
-0.2027449779830E+00 -0.6228984213420E+00 -0.3880523966985E+00  0.6114264666125E+00
-0.2213649031832E+00 -0.5354417878688E+00 -0.3556991438922E+00  0.5692346919967E+00
-0.2396564755773E+00 -0.4558979371720E+00 -0.3269105731630E+00  0.5277587214471E+00
-0.2564201856141E+00 -0.3838120591565E+00 -0.3009091542789E+00  0.4865514072937E+00
-0.2716146309344E+00 -0.3182148473933E+00 -0.2772198541109E+00  0.4455821593199E+00
-0.2867786021645E+00 -0.2581405506006E+00 -0.2561120011500E+00  0.4043134237286E+00
-0.1368680439607E+01 -0.1840586332256E+01 -0.1508355378950E+01  0.1270340039195E+01
-0.1139289268259E+01 -0.1903565605463E+01 -0.1430141787022E+01  0.1356096014474E+01
-0.8892728025243E+00 -0.1928683108239E+01 -0.1324439274700E+01  0.1343503406109E+01
-0.6642847176606E+00 -0.1901662921682E+01 -0.1205995387432E+01  0.1273668632531E+01
-0.4823255661811E+00 -0.1826483629497E+01 -0.1085140319216E+01  0.1179097111715E+01
-0.3458274624914E+00 -0.1715754491824E+01 -0.9689435160708E+00  0.1080568460399E+01
-0.2502482737995E+00 -0.1583672220236E+01 -0.8619426300107E+00  0.9893850297361E+00
-0.1882762177131E+00 -0.1442309846535E+01 -0.7663754482526E+00  0.9099491259774E+00
-0.1521468011076E+00 -0.1300265864004E+01 -0.6826339508710E+00  0.8422684452365E+00
-0.1348821053285E+00 -0.1162742910564E+01 -0.6098837559227E+00  0.7841277221593E+00
-0.1306919597138E+00 -0.1032334586745E+01 -0.5466224754492E+00  0.7324560530900E+00
-0.1349177698974E+00 -0.9099824470415E+00 -0.4911031007157E+00  0.6840702441944E+00
-0.1453242417672E+00 -0.7963787512087E+00 -0.4426004055761E+00  0.6381398380347E+00
-0.1602119942783E+00 -0.6917191220417E+00 -0.4004076236548E+00  0.5951659770762E+00
-0.1777398562936E+00 -0.5960300982006E+00 -0.3636718776899E+00  0.5546997495440E+00
-0.1966087138399E+00 -0.5092732822974E+00 -0.3317645373430E+00  0.5160317072772E+00
-0.2153423726472E+00 -0.4310895042480E+00 -0.3038229813701E+00  0.4783882546542E+00
-0.2328494513527E+00 -0.3607011329920E+00 -0.2789687739344E+00  0.4410831040820E+00
-0.2489265213325E+00 -0.2970346900039E+00 -0.2566017686773E+00  0.4037828660072E+00
-0.2643032831625E+00 -0.2393614318624E+00 -0.2367224154613E+00  0.3659536599531E+00
-0.1422038606197E+01 -0.1943863736931E+01 -0.1581974097258E+01  0.1291882717331E+01
-0.1149978478782E+01 -0.2017562095117E+01 -0.1488744065957E+01  0.1369499786583E+01
-0.8685393224344E+00 -0.2038878488349E+01 -0.1366486367602E+01  0.1335849271317E+01
-0.6246199823357E+00 -0.1995814957299E+01 -0.1231604418504E+01  0.1243044819519E+01
-0.4343893978363E+00 -0.1897718888650E+01 -0.1096090891868E+01  0.1129681739188E+01
-0.2970331596856E+00 -0.1762636257405E+01 -0.9680446235774E+00  0.1018520207291E+01
-0.2048852707888E+00 -0.1608550831694E+01 -0.8523149660052E+00  0.9204779560466E+00
-0.1481219067534E+00 -0.1449331528564E+01 -0.7508031126950E+00  0.8384946768566E+00
-0.1172814666902E+00 -0.1293843403884E+01 -0.6632286874878E+00  0.7709758339690E+00
-0.1044550950128E+00 -0.1146727834039E+01 -0.5880559751629E+00  0.7144560516732E+00
-0.1034907727940E+00 -0.1009763108932E+01 -0.5232293230839E+00  0.6650668928806E+00
-0.1097095204924E+00 -0.8831403176697E+00 -0.4666394227526E+00  0.6191905751201E+00
-0.1212036643127E+00 -0.7671137400604E+00 -0.4175091789964E+00  0.5760119771556E+00
-0.1365366440918E+00 -0.6616214486270E+00 -0.3751343026264E+00  0.5361343264583E+00
-0.1541652441897E+00 -0.5663845231224E+00 -0.3386583897777E+00  0.4990900129424E+00
-0.1731012602223E+00 -0.4809970357334E+00 -0.3074261983194E+00  0.4641103769289E+00
-0.1920611058352E+00 -0.4047615795090E+00 -0.2805066614003E+00  0.4303181792859E+00
-0.2100016300630E+00 -0.3366213620464E+00 -0.2569128056398E+00  0.3968527213183E+00
-0.2265282898742E+00 -0.2754236126830E+00 -0.2359173936035E+00  0.3631985012241E+00
-0.2418155749045E+00 -0.2205702592799E+00 -0.2173213415154E+00  0.3289205080750E+00
-0.1479401772389E+01 -0.2060863653421E+01 -0.1663924745910E+01  0.1317901032912E+01
-0.1156326126040E+01 -0.2145933134907E+01 -0.1552061848709E+01  0.1381783829386E+01
-0.8406415697089E+00 -0.2159493684504E+01 -0.1410063565904E+01  0.1321480996152E+01
-0.5780066547678E+00 -0.2094165391631E+01 -0.1255920858622E+01  0.1202211219494E+01
-0.3813775178896E+00 -0.1967063635537E+01 -0.1103767339311E+01  0.1069145569616E+01
-0.2455859638646E+00 -0.1803232363873E+01 -0.9629446115942E+00  0.9464183259777E+00
-0.1590928410315E+00 -0.1624876732262E+01 -0.8384656973211E+00  0.8436166878235E+00
-0.1091595035965E+00 -0.1447280724425E+01 -0.7315269053146E+00  0.7613998936968E+00
-0.8454090542167E-01 -0.1278896248108E+01 -0.6408154605338E+00  0.6960909804217E+00
-0.7651791031832E-01 -0.1123209201074E+01 -0.5638717409241E+00  0.6428067558855E+00
-0.7877827163827E-01 -0.9808137998674E+00 -0.4980082723445E+00  0.5969046478394E+00
-0.8681017227111E-01 -0.8509762735487E+00 -0.4407596284174E+00  0.5544324263352E+00
-0.9913188987948E-01 -0.7334763907360E+00 -0.3913258908967E+00  0.5146479640106E+00
-0.1146325438424E+00 -0.6280181028323E+00 -0.3490458030518E+00  0.4782809206047E+00
-0.1321131938417E+00 -0.5340169330069E+00 -0.3130811588248E+00  0.4448851559078E+00
-0.1508867709883E+00 -0.4506941513856E+00 -0.2827430327986E+00  0.4136724339694E+00
-0.1698292148293E+00 -0.3770248700014E+00 -0.2570214192185E+00  0.3837079689543E+00
-0.1879040028248E+00 -0.3116930297482E+00 -0.2348106047138E+00  0.3540197139273E+00
-0.2045249720618E+00 -0.2534635607625E+00 -0.2152546098815E+00  0.3239920539749E+00
-0.2195068385596E+00 -0.2017949416427E+00 -0.1980118361928E+00  0.2933139845054E+00
-0.1541472397908E+01 -0.2194724097972E+01 -0.1756012348610E+01  0.1349194985493E+01
-0.1157238989282E+01 -0.2291303174490E+01 -0.1620814812862E+01  0.1391659632516E+01
-0.8046017488057E+00 -0.2291175123449E+01 -0.1455015126269E+01  0.1297972886430E+01
-0.5240717999635E+00 -0.2195244465233E+01 -0.1278078641401E+01  0.1148698719352E+01
-0.3236198703232E+00 -0.2031759085483E+01 -0.1107028106421E+01  0.9957851901143E+00
-0.1923698971643E+00 -0.1834594687454E+01 -0.9526733523545E+00  0.8636054635008E+00
-0.1140255452980E+00 -0.1630289664044E+01 -0.8198281463115E+00  0.7590292403112E+00
-0.7252492733560E-01 -0.1434645099623E+01 -0.7083699108740E+00  0.6794203496246E+00
-0.5485305298486E-01 -0.1254644643239E+01 -0.6154639156641E+00  0.6185596800505E+00
-0.5173137446805E-01 -0.1091888893275E+01 -0.5375015244760E+00  0.5700982251719E+00
-0.5698251375905E-01 -0.9454450805465E+00 -0.4711409681286E+00  0.5287626202075E+00
-0.6648358289365E-01 -0.8135591836572E+00 -0.4136200992298E+00  0.4904437418629E+00
-0.7925998635375E-01 -0.6955708258183E+00 -0.3641704807972E+00  0.4545525525043E+00
-0.9458019495358E-01 -0.5910190550258E+00 -0.3222316466730E+00  0.4219801790402E+00
-0.1116259714344E+00 -0.4990380384339E+00 -0.2870120839102E+00  0.3923548163926E+00
-0.1299882553715E+00 -0.4184808094368E+00 -0.2577804598060E+00  0.3649156663489E+00
-0.1486674709482E+00 -0.3479990036362E+00 -0.2334332424626E+00  0.3387182838083E+00
-0.1665997436432E+00 -0.2860199624517E+00 -0.2127312613251E+00  0.3127327243105E+00
-0.1830178968260E+00 -0.2312145866180E+00 -0.1946892667249E+00  0.2862946029046E+00
-0.1975170120576E+00 -0.1830531523629E+00 -0.1788679768239E+00  0.2592060823867E+00
-0.1609326829308E+01 -0.2349711753874E+01 -0.1860748129376E+01  0.1386655551638E+01
-0.1151474996267E+01 -0.2456961505339E+01 -0.1695965151453E+01  0.1397169176145E+01
-0.7593947264799E+00 -0.2434246300952E+01 -0.1501011279086E+01  0.1262072641102E+01
-0.4625455567951E+00 -0.2296532277011E+01 -0.1296766578600E+01  0.1079527184318E+01
-0.2616959438891E+00 -0.2087932118644E+01 -0.1104325186589E+01  0.9078903796168E+00
-0.1385865848645E+00 -0.1853115829809E+01 -0.9361001325222E+00  0.7698014193604E+00
-0.7110005336690E-01 -0.1622328489696E+01 -0.7959114132209E+00  0.6674447990192E+00
-0.3947259748770E-01 -0.1410165156928E+01 -0.6813297428475E+00  0.5937266762584E+00
-0.2911870211522E-01 -0.1220660639104E+01 -0.5873962888834E+00  0.5395755122423E+00
-0.3064180150207E-01 -0.1052767586652E+01 -0.5092024111411E+00  0.4973482869098E+00
-0.3839475803905E-01 -0.9038214768154E+00 -0.4428416292584E+00  0.4614410465218E+00
-0.4887146376655E-01 -0.7710873017080E+00 -0.3853806187956E+00  0.4278370930279E+00
-0.6164343862445E-01 -0.6535825872452E+00 -0.3361562313061E+00  0.3961848673568E+00
-0.7639328506444E-01 -0.5507880997128E+00 -0.2947752500976E+00  0.3675682951692E+00
-0.9270709065516E-01 -0.4615942781826E+00 -0.2605216426930E+00  0.3417449949417E+00
-0.1104143738983E+00 -0.3844933720826E+00 -0.2326066400210E+00  0.3180266334344E+00
-0.1285991410859E+00 -0.3178078385527E+00 -0.2098112798980E+00  0.2955016583467E+00
-0.1461384973440E+00 -0.2596984475620E+00 -0.1907433636220E+00  0.2731239494491E+00
-0.1620966734576E+00 -0.2087283871440E+00 -0.1742877780407E+00  0.2502098455726E+00
-0.1759476916365E+00 -0.1643595570984E+00 -0.1599444064997E+00  0.2266480572109E+00
-0.1684710170498E+01 -0.2531825550114E+01 -0.1981771783661E+01  0.1431224835253E+01
-0.1137681265168E+01 -0.2647085857897E+01 -0.1778840543329E+01  0.1395325758225E+01
-0.7039553170840E+00 -0.2588322055566E+01 -0.1547370361221E+01  0.1209384409957E+01
-0.3932808377732E+00 -0.2393829615400E+01 -0.1309941909669E+01  0.9911619152787E+00
-0.1965091251831E+00 -0.2130224975988E+01 -0.1093565024777E+01  0.8039592452382E+00
-0.8584849167629E-01 -0.1854592738270E+01 -0.9120073757616E+00  0.6653849776247E+00
-0.3202411745265E-01 -0.1598729124077E+01 -0.7664540215748E+00  0.5702687640482E+00
-0.1132059536648E-01 -0.1373105121678E+01 -0.6506800853607E+00  0.5059314929025E+00
-0.8118128733437E-02 -0.1176996460109E+01 -0.5570038553432E+00  0.4605171004048E+00
-0.1360939151815E-01 -0.1006165045313E+01 -0.4792939840951E+00  0.4255941461093E+00
-0.2313768759460E-01 -0.8562890485446E+00 -0.4133305649371E+00  0.3956872678744E+00
-0.3399178690391E-01 -0.7238578147609E+00 -0.3561893118790E+00  0.3671560533560E+00
-0.4625297411733E-01 -0.6077518672539E+00 -0.3073822746648E+00  0.3399431545018E+00
-0.6003216364965E-01 -0.5075207671550E+00 -0.2667498768016E+00  0.3153373094453E+00
-0.7533290673662E-01 -0.4218510594993E+00 -0.2336764635382E+00  0.2932751617667E+00
-0.9216592917077E-01 -0.3488791967249E+00 -0.2072912086452E+00  0.2731775355152E+00
-0.1096499067219E+00 -0.2865800624091E+00 -0.1862280850192E+00  0.2541992422769E+00
-0.1265702694585E+00 -0.2328255312495E+00 -0.1689160259043E+00  0.2353086534143E+00
-0.1418347839046E+00 -0.1860573156675E+00 -0.1541092864080E+00  0.2158186601020E+00
-0.1548689141990E+00 -0.1457290293476E+00 -0.1412810331085E+00  0.1956744153674E+00
-0.1770621331872E+01 -0.2749860589675E+01 -0.2124626497738E+01  0.1483786669371E+01
-0.1114493641231E+01 -0.2867038836811E+01 -0.1871320259933E+01  0.1381509356853E+01
-0.6371473767786E+00 -0.2751521414052E+01 -0.1592674327651E+01  0.1133906401114E+01
-0.3162290484858E+00 -0.2480210330468E+01 -0.1314326504775E+01  0.8795598862156E+00
-0.1294103968169E+00 -0.2151418125993E+01 -0.1071989403002E+01  0.6831204193536E+00
-0.3632276730180E-01 -0.1834566858561E+01 -0.8793181219251E+00  0.5518013729674E+00
 0.1185152173565E-02 -0.1557965344240E+01 -0.7316866884153E+00  0.4697361357494E+00
 0.1067639704241E-01 -0.1323554064110E+01 -0.6170525019567E+00  0.4180235361606E+00
 0.7621783178767E-02 -0.1124241036093E+01 -0.5248110475386E+00  0.3828140866836E+00
-0.7380783178794E-03 -0.9526671414062E+00 -0.4481004521338E+00  0.3557882607097E+00
-0.1116036638984E-01 -0.8033222589229E+00 -0.3828068329260E+00  0.3321401837061E+00
-0.2175523591823E-01 -0.6722264627057E+00 -0.3261713975259E+00  0.3088514408206E+00
-0.3299370774571E-01 -0.5583442568948E+00 -0.2779288426761E+00  0.2861567027282E+00
-0.4541936092319E-01 -0.4614222064880E+00 -0.2382155360790E+00  0.2655334299608E+00
-0.5946425556747E-01 -0.3799780999422E+00 -0.2065379065657E+00  0.2471389415436E+00
-0.7524284887126E-01 -0.3117913604837E+00 -0.1819060779355E+00  0.2305273595317E+00
-0.9184899956675E-01 -0.2544528707673E+00 -0.1627618786442E+00  0.2149420959432E+00
-0.1079414398544E+00 -0.2055077880127E+00 -0.1473211367239E+00  0.1993875749184E+00
-0.1222858430863E+00 -0.1632612980062E+00 -0.1342071559731E+00  0.1831829148644E+00
-0.1343213438101E+00 -0.1271779899137E+00 -0.1229046865384E+00  0.1663045085893E+00
-0.1872535673787E+01 -0.3017407817637E+01 -0.2298273435140E+01  0.1544898493020E+01
-0.1080783414311E+01 -0.3123751017559E+01 -0.1976131177966E+01  0.1348388157846E+01
-0.5575393504557E+00 -0.2918736958830E+01 -0.1633849861220E+01  0.1027359846133E+01
-0.2313553827618E+00 -0.2544331075633E+01 -0.1304572632137E+01  0.7404729177993E+00
-0.6242120189075E-01 -0.2142256348270E+01 -0.1036198445947E+01  0.5459314488073E+00
 0.6974933185615E-02 -0.1789324078438E+01 -0.8377040961440E+00  0.4320863084088E+00
 0.2629423092945E-01 -0.1500012661650E+01 -0.6926476606820E+00  0.3689243833648E+00
 0.2555883416492E-01 -0.1262633165378E+01 -0.5814249341953E+00  0.3321378358833E+00
 0.1801061565805E-01 -0.1063383544716E+01 -0.4913252754110E+00  0.3077476680667E+00
 0.8135183226117E-02 -0.8930242454852E+00 -0.4158978582069E+00  0.2887048852015E+00
-0.2266172507295E-02 -0.7454584194703E+00 -0.3514305573381E+00  0.2712961870525E+00
-0.1199798065869E-01 -0.6165702312959E+00 -0.2954270588693E+00  0.2532718814825E+00
-0.2172738707242E-01 -0.5056227032274E+00 -0.2478545418123E+00  0.2350845981706E+00
-0.3245451445648E-01 -0.4126849463248E+00 -0.2092155460365E+00  0.2183591466975E+00
-0.4505804356710E-01 -0.3361358723623E+00 -0.1791611400324E+00  0.2035086009497E+00
-0.5965211514573E-01 -0.2733862139916E+00 -0.1565280142975E+00  0.1902273909663E+00
-0.7523186790541E-01 -0.2215792002193E+00 -0.1395012016648E+00  0.1778564034907E+00
-0.9029120605555E-01 -0.1778715348409E+00 -0.1260364879017E+00  0.1654511611315E+00
-0.1034788777607E+00 -0.1404147157457E+00 -0.1146299886572E+00  0.1523481775621E+00
-0.1143140215158E+00 -0.1087239082536E+00 -0.1048278267257E+00  0.1385418820665E+00
-0.2001376638275E+01 -0.3357155037650E+01 -0.2518509881297E+01  0.1614103669986E+01
-0.1035974986860E+01 -0.3425820772179E+01 -0.2097044001429E+01  0.1283862757609E+01
-0.4627945112652E+00 -0.3077926861741E+01 -0.1664139041092E+01  0.8782542125924E+00
-0.1381756867363E+00 -0.2567486993376E+01 -0.1271661456427E+01  0.5704536886557E+00
 0.8514723926005E-03 -0.2092672307866E+01 -0.9831557901788E+00  0.3958208688050E+00
 0.3993392238524E-01 -0.1717795321784E+01 -0.7885948557171E+00  0.3113243365460E+00
 0.4106443683134E-01 -0.1427284417791E+01 -0.6515233893983E+00  0.2713891838529E+00
 0.3324486137084E-01 -0.1192060730875E+01 -0.5446434572853E+00  0.2501147165554E+00
 0.2340312322732E-01 -0.9956095597298E+00 -0.4569370239972E+00  0.2362801500178E+00
 0.1339138922300E-01 -0.8280277686108E+00 -0.3828790973411E+00  0.2248966644753E+00
 0.3826064042882E-02 -0.6832528838987E+00 -0.3193306045223E+00  0.2135046671098E+00
-0.4517780078682E-02 -0.5572592508507E+00 -0.2640352038671E+00  0.2006652910154E+00
-0.1229168435343E-01 -0.4498201302195E+00 -0.2171925522984E+00  0.1869175971334E+00
-0.2102700046773E-01 -0.3614639502493E+00 -0.1797707463810E+00  0.1739778748870E+00
-0.3207920341426E-01 -0.2904610401822E+00 -0.1515939141058E+00  0.1625438592930E+00
-0.4541878559593E-01 -0.2338251087007E+00 -0.1312446299865E+00  0.1524318579326E+00
-0.5984342833919E-01 -0.1881388479310E+00 -0.1165516695514E+00  0.1430726206191E+00
-0.7364807558411E-01 -0.1500774338626E+00 -0.1051509891732E+00  0.1335852315312E+00
-0.8540915661878E-01 -0.1176126712865E+00 -0.9542025887347E-01  0.1233449239821E+00
-0.9481939363631E-01 -0.9038550544112E-01 -0.8704630234561E-01  0.1123710716548E+00
-0.2180405215731E+01 -0.3810277409280E+01 -0.2815620826614E+01  0.1688252322300E+01
-0.9816305695310E+00 -0.3783683243844E+01 -0.2239697486606E+01  0.1166649444211E+01
-0.3456224363853E+00 -0.3198985275075E+01 -0.1665965620161E+01  0.6709370157656E+00
-0.3698766378937E-01 -0.2521864698976E+01 -0.1202660607449E+01  0.3697537784112E+00
 0.5430888383312E-01 -0.1995064712231E+01 -0.9121552370336E+00  0.2413623427433E+00
 0.5587515391819E-01 -0.1626384535728E+01 -0.7381394075783E+00  0.1963922196675E+00
 0.4551704730042E-01 -0.1342895649151E+01 -0.6097679413231E+00  0.1800032277090E+00
 0.3442660213099E-01 -0.1113781507454E+01 -0.5072968042150E+00  0.1731552231075E+00
 0.2452326904002E-01 -0.9220268554444E+00 -0.4218266845401E+00  0.1690069334580E+00
 0.1550093639160E-01 -0.7584592165548E+00 -0.3491903907910E+00  0.1647155704911E+00
 0.7424033252733E-02 -0.6172600672992E+00 -0.2866229352748E+00  0.1589830880069E+00
 0.8961073730784E-03 -0.4946399722078E+00 -0.2320596158837E+00  0.1511815781186E+00
-0.4512994650591E-02 -0.3911076946178E+00 -0.1859417234845E+00  0.1417776422546E+00
-0.1102345249267E-01 -0.3078390478149E+00 -0.1498653747644E+00  0.1325205831268E+00
-0.2051924941226E-01 -0.2430534610252E+00 -0.1238791735914E+00  0.1244075095817E+00
-0.3259988448570E-01 -0.1932805948121E+00 -0.1061638250007E+00  0.1173153232924E+00
-0.4574396716144E-01 -0.1543589989526E+00 -0.9404839383504E-01  0.1107388591059E+00
-0.5801906867902E-01 -0.1223343665377E+00 -0.8476611433687E-01  0.1038778261240E+00
-0.6803162875316E-01 -0.9498821036723E-01 -0.7661932419225E-01  0.9618849756162E-01
-0.7575406967674E-01 -0.7217070693424E-01 -0.6952464483082E-01  0.8774984278927E-01
-0.2475105396446E+01 -0.4471186134656E+01 -0.3264757011337E+01  0.1754932663763E+01
-0.9125798453897E+00 -0.4192473246005E+01 -0.2399374946870E+01  0.9563158708182E+00
-0.1931477007092E+00 -0.3218361552161E+01 -0.1603409344782E+01  0.3861028433928E+00
 0.7787891158432E-01 -0.2360972044262E+01 -0.1073053769637E+01  0.1503474874343E+00
 0.7320122223888E-01 -0.1871247776392E+01 -0.8450818783086E+00  0.9869106878056E-01
 0.5588114498099E-01 -0.1520740620205E+01 -0.6884839516089E+00  0.9226870857256E-01
 0.4091874010242E-01 -0.1250328234250E+01 -0.5684224608076E+00  0.9620013713871E-01
 0.3053093207678E-01 -0.1029262654525E+01 -0.4694039083601E+00  0.1018001336333E+00
 0.2214362388400E-01 -0.8436512201247E+00 -0.3861085692538E+00  0.1062459192566E+00
 0.1494602732218E-01 -0.6850646470678E+00 -0.3149557504816E+00  0.1083674705246E+00
 0.8816629614258E-02 -0.5480500407207E+00 -0.2534397025772E+00  0.1078354210633E+00
 0.4431699803352E-02 -0.4290436619996E+00 -0.1995676217261E+00  0.1048636164672E+00
 0.1806176851885E-02 -0.3295231750178E+00 -0.1540269887473E+00  0.9970687872137E-01
-0.2341723770247E-02 -0.2517606504310E+00 -0.1194281155716E+00  0.9409894298485E-01
-0.1042335284838E-01 -0.1939630872572E+00 -0.9606162660596E-01  0.8929488949325E-01
-0.2131533390735E-01 -0.1519712784701E+00 -0.8144470761083E-01  0.8509897504853E-01
-0.3299311225518E-01 -0.1205215545072E+00 -0.7215189319534E-01  0.8103605685746E-01
-0.4339265642415E-01 -0.9493573427503E-01 -0.6501434346372E-01  0.7642850005189E-01
-0.5122833751906E-01 -0.7271088591657E-01 -0.5825143486700E-01  0.7087857317476E-01
-0.5698701196637E-01 -0.5411662604123E-01 -0.5221870973113E-01  0.6459817456181E-01
-0.3035193274720E+01 -0.5543992292663E+01 -0.4032217206443E+01  0.1779622400198E+01
-0.8659207729481E+00 -0.4657031437512E+01 -0.2595787532333E+01  0.5592145922773E+00
 0.1378373228223E+00 -0.2858954908838E+01 -0.1278925262184E+01  0.1693912734140E-01
 0.9883963623382E-01 -0.2175981281085E+01 -0.9762565706041E+00 -0.4084824865464E-01
 0.6589746414234E-01 -0.1730005677180E+01 -0.7821308581438E+00 -0.2241335678245E-01
 0.4204294007839E-01 -0.1407856939965E+01 -0.6419325783183E+00  0.2522371685540E-03
 0.3037323940527E-01 -0.1151246024963E+01 -0.5268102078759E+00  0.2018576540618E-01
 0.2272594308541E-01 -0.9398653080388E+00 -0.4310555004348E+00  0.3619988119580E-01
 0.1703135639811E-01 -0.7613157302639E+00 -0.3498136548297E+00  0.4815014480363E-01
 0.1220144850905E-01 -0.6085339178187E+00 -0.2802762598647E+00  0.5597647679470E-01
 0.8182412510521E-02 -0.4763501025292E+00 -0.2200388137507E+00  0.6006860164859E-01
 0.6275445608839E-02 -0.3607631520579E+00 -0.1666092216085E+00  0.6160366299030E-01
 0.6870254433647E-02 -0.2648887103902E+00 -0.1212686739920E+00  0.6063000931438E-01
 0.5173173184770E-02 -0.1928294415645E+00 -0.8819844591479E-01  0.5883613766505E-01
-0.2032561307008E-02 -0.1432973908235E+00 -0.6830507732810E-01  0.5751528438120E-01
-0.1177024272145E-01 -0.1102604440214E+00 -0.5735442262367E-01  0.5607674728743E-01
-0.2157018933518E-01 -0.8691197417695E-01 -0.5098661672138E-01  0.5416941353816E-01
-0.2971365083736E-01 -0.6821099138357E-01 -0.4602458172710E-01  0.5137369254524E-01
-0.3496006623453E-01 -0.5124484894823E-01 -0.4051631003313E-01  0.4742076958940E-01
-0.3805515487356E-01 -0.3602714456487E-01 -0.3481868064775E-01  0.4274759132755E-01
-0.5505664185193E+01 -0.8760526254435E+01 -0.6705109489618E+01  0.1432357636807E+01
 0.3118213861461E+00 -0.3545830663976E+01 -0.1519984356725E+01 -0.2399250689708E+00
 0.1356228765315E+00 -0.2545811682890E+01 -0.1132788736116E+01 -0.2719805169616E+00
 0.7525385337012E-01 -0.1971445473106E+01 -0.8912100590152E+00 -0.1811069939092E+00
 0.3496030144270E-01 -0.1586985879237E+01 -0.7294520197133E+00 -0.1232314227318E+00
 0.2185603043351E-01 -0.1288468495139E+01 -0.5953078569017E+00 -0.8052285377440E-01
 0.1569394465752E-01 -0.1047361407935E+01 -0.4848837065108E+00 -0.4828883898739E-01
 0.1201805668909E-01 -0.8467518355198E+00 -0.3923248750553E+00 -0.2362569046313E-01
 0.9726933486565E-02 -0.6758599999011E+00 -0.3130825404207E+00 -0.5285095463371E-02
 0.8021315289441E-02 -0.5290824293997E+00 -0.2448987230107E+00  0.7650032376106E-02
 0.5593403963042E-02 -0.4032370553569E+00 -0.1868925156811E+00  0.1573982065944E-01
 0.5852041462168E-02 -0.2911118250031E+00 -0.1340720979242E+00  0.2091166576498E-01
 0.1195540091422E-01 -0.1951431574868E+00 -0.8609824537073E-01  0.2416426404060E-01
 0.1118036594926E-01 -0.1305114503165E+00 -0.5608560951035E-01  0.2718095628006E-01
 0.3879175477141E-02 -0.9184412004938E-01 -0.4134352384409E-01  0.2962408866884E-01
-0.3825536872094E-02 -0.6838448655965E-01 -0.3393871092684E-01  0.3053960909355E-01
-0.1148412980190E-01 -0.5390249724067E-01 -0.3073171463206E-01  0.3035513266774E-01
-0.1686682897543E-01 -0.4243511155879E-01 -0.2787191198039E-01  0.2888601654486E-01
-0.1910569925707E-01 -0.3107045804298E-01 -0.2358279387121E-01  0.2594188092091E-01
-0.1906645762239E-01 -0.1909999206232E-01 -0.1793823130632E-01  0.2199035947277E-01
-0.1580653607511E+01 -0.7044932605532E+00 -0.1074019025266E+01  0.1321409423322E+01
-0.1644495405620E+01 -0.7510012904908E+00 -0.1125883444316E+01  0.1301402292162E+01
-0.1712461317526E+01 -0.7949053331588E+00 -0.1178462322833E+01  0.1275881148495E+01
-0.1780490485440E+01 -0.8447411934470E+00 -0.1233858885947E+01  0.1246336981073E+01
-0.1848342783628E+01 -0.9015718912943E+00 -0.1292459893935E+01  0.1212992481863E+01
-0.1916244435897E+01 -0.9659415140687E+00 -0.1354627393048E+01  0.1175719627321E+01
-0.1984294245243E+01 -0.1038219486552E+01 -0.1420581450341E+01  0.1134196385955E+01
-0.2052514527822E+01 -0.1118781395761E+01 -0.1490509080304E+01  0.1087995607681E+01
-0.2120878519582E+01 -0.1208001670287E+01 -0.1564573685270E+01  0.1036626814634E+01
-0.2189348384284E+01 -0.1306233804840E+01 -0.1642923624721E+01  0.9795594472025E+00
-0.2257909124930E+01 -0.1413783000406E+01 -0.1725695294531E+01  0.9162390382610E+00
-0.2326602866041E+01 -0.1530877132948E+01 -0.1813015594926E+01  0.8461024342551E+00
-0.2395563427137E+01 -0.1657636258234E+01 -0.1905003847292E+01  0.7685950012553E+00
-0.2465051635196E+01 -0.1794044600246E+01 -0.2001775225581E+01  0.6831907807686E+00
-0.2535478663564E+01 -0.1939920049299E+01 -0.2103437389711E+01  0.5894162894409E+00
-0.2607460022354E+01 -0.2094932242017E+01 -0.2210124358649E+01  0.4868706583222E+00
-0.2681693681137E+01 -0.2258473641901E+01 -0.2321878635938E+01  0.3752540493074E+00
-0.2759835964639E+01 -0.2430524213463E+01 -0.2439469277520E+01  0.2542576985909E+00
-0.2840852776150E+01 -0.2608010741820E+01 -0.2560965846950E+01  0.1237836955580E+00
-0.2951456284056E+01 -0.2813910134932E+01 -0.2709722210051E+01 -0.2040837478429E-01
-0.1548720365479E+01 -0.6429274366029E+00 -0.1030074464366E+01  0.1315356045921E+01
-0.1626503592601E+01 -0.6909651781864E+00 -0.1089210319507E+01  0.1286857172657E+01
-0.1694615597777E+01 -0.7340378639978E+00 -0.1141467124139E+01  0.1259811741640E+01
-0.1761755213830E+01 -0.7802253704637E+00 -0.1194730871588E+01  0.1230292403755E+01
-0.1828321735035E+01 -0.8318130038455E+00 -0.1250263324102E+01  0.1197395875543E+01
-0.1894477346162E+01 -0.8900606614739E+00 -0.1308732860269E+01  0.1160732090098E+01
-0.1960185631677E+01 -0.9557650037590E+00 -0.1370496795179E+01  0.1119956355211E+01
-0.2025342567360E+01 -0.1029556640461E+01 -0.1435802624034E+01  0.1074679075531E+01
-0.2089816942602E+01 -0.1112000989492E+01 -0.1504854424267E+01  0.1024450609344E+01
-0.2153487692491E+01 -0.1203623470653E+01 -0.1577842242676E+01  0.9687656800110E+00
-0.2216281782890E+01 -0.1304901896181E+01 -0.1654956324966E+01  0.9070703549837E+00
-0.2278215238638E+01 -0.1416242502796E+01 -0.1736395134070E+01  0.8387696443348E+00
-0.2339436421834E+01 -0.1537946534395E+01 -0.1822369984806E+01  0.7632369603481E+00
-0.2400265319732E+01 -0.1670168689558E+01 -0.1913103979514E+01  0.6798280509308E+00
-0.2461233530992E+01 -0.1812883166932E+01 -0.2008834842929E+01  0.5879010696741E+00
-0.2523065598826E+01 -0.1965817666921E+01 -0.2109775129550E+01  0.4868477968749E+00
-0.2586836940252E+01 -0.2128611767377E+01 -0.2216260886965E+01  0.3761106227383E+00
-0.2653126080732E+01 -0.2300164241313E+01 -0.2328046445456E+01  0.2552500324220E+00
-0.2726023441962E+01 -0.2482780839766E+01 -0.2448138006203E+01  0.1234995205125E+00
-0.2789538266364E+01 -0.2665612655476E+01 -0.2563920926762E+01 -0.1930990120495E-01
-0.1534167422443E+01 -0.6066056280350E+00 -0.1006163331173E+01  0.1301652537405E+01
-0.1606105770031E+01 -0.6369557512423E+00 -0.1054238912325E+01  0.1272980733827E+01
-0.1674556215112E+01 -0.6746102669276E+00 -0.1104108243758E+01  0.1243787139172E+01
-0.1740282404975E+01 -0.7154487270658E+00 -0.1154193629132E+01  0.1213155385893E+01
-0.1804932399749E+01 -0.7610908808515E+00 -0.1206030938824E+01  0.1179886295088E+01
-0.1868645476206E+01 -0.8126359912421E+00 -0.1260202286504E+01  0.1143338411444E+01
-0.1931342019760E+01 -0.8710420721852E+00 -0.1317120519873E+01  0.1103058094742E+01
-0.1992815236277E+01 -0.9371128166267E+00 -0.1377066181372E+01  0.1058636323000E+01
-0.2052827884297E+01 -0.1011579437854E+01 -0.1440271437758E+01  0.1009640534870E+01
-0.2111157911700E+01 -0.1095131851780E+01 -0.1506956185013E+01  0.9555863246802E+00
-0.2167642265700E+01 -0.1188423504368E+01 -0.1577350907931E+01  0.8959237657835E+00
-0.2222223194529E+01 -0.1292055304520E+01 -0.1651710890364E+01  0.8300294132117E+00
-0.2274998242418E+01 -0.1406543348415E+01 -0.1730324543303E+01  0.7572023653596E+00
-0.2326273107350E+01 -0.1532274498583E+01 -0.1813517370189E+01  0.6766668118709E+00
-0.2376599025704E+01 -0.1669441521804E+01 -0.1901639052506E+01  0.5875872344888E+00
-0.2426829358184E+01 -0.1818006172832E+01 -0.1995072694517E+01  0.4891006233686E+00
-0.2477947423143E+01 -0.1977506669517E+01 -0.2094063418239E+01  0.3803870786776E+00
-0.2531565571812E+01 -0.2147581595923E+01 -0.2199199163257E+01  0.2607381951284E+00
-0.2586353442386E+01 -0.2325456831476E+01 -0.2308550822860E+01  0.1298793107034E+00
-0.2644956901459E+01 -0.2511618543394E+01 -0.2423590452934E+01 -0.1066603030569E-01
-0.1516307776025E+01 -0.5706082880410E+00 -0.9808505476233E+00  0.1284179229951E+01
-0.1585485766469E+01 -0.5911637093703E+00 -0.1023025251049E+01  0.1256703057770E+01
-0.1651684448104E+01 -0.6192246487572E+00 -0.1067327272818E+01  0.1226569263105E+01
-0.1715763299276E+01 -0.6528249674422E+00 -0.1113236482534E+01  0.1194654310086E+01
-0.1778087005850E+01 -0.6912976346279E+00 -0.1160610778081E+01  0.1160521769869E+01
-0.1838929732960E+01 -0.7352968841529E+00 -0.1209886506974E+01  0.1123600636774E+01
-0.1898160862134E+01 -0.7856005856624E+00 -0.1261367877265E+01  0.1083425982108E+01
-0.1955513580890E+01 -0.8430266266654E+00 -0.1315313894215E+01  0.1039587941161E+01
-0.2010658233159E+01 -0.9083837449704E+00 -0.1371949726241E+01  0.9916759198420E+00
-0.2063265838584E+01 -0.9824780383573E+00 -0.1431499618532E+01  0.9392355410227E+00
-0.2113056455409E+01 -0.1066113152310E+01 -0.1494209711838E+01  0.8817372507634E+00
-0.2159849958437E+01 -0.1160079328814E+01 -0.1560366761050E+01  0.8185505898260E+00
-0.2203623628705E+01 -0.1265127442699E+01 -0.1630312999425E+01  0.7489222558754E+00
-0.2244575196271E+01 -0.1381922969905E+01 -0.1704454133780E+01  0.6719606432934E+00
-0.2283196131441E+01 -0.1510982994186E+01 -0.1783264184522E+01  0.5866339598627E+00
-0.2320304928791E+01 -0.1652557135707E+01 -0.1867245165578E+01  0.4917970637005E+00
-0.2357171311361E+01 -0.1806582657134E+01 -0.1956964360229E+01  0.3862637778321E+00
-0.2395024026540E+01 -0.1972154858946E+01 -0.2052574070973E+01  0.2689824071941E+00
-0.2436141695778E+01 -0.2148254023134E+01 -0.2154665982424E+01  0.1394558376166E+00
-0.2483132456126E+01 -0.2332472159074E+01 -0.2263334163403E+01 -0.2092601830702E-02
-0.1496875548769E+01 -0.5353562581319E+00 -0.9551489468210E+00  0.1264699461930E+01
-0.1562627065646E+01 -0.5483002233918E+00 -0.9921358233312E+00  0.1237747382350E+01
-0.1626493760752E+01 -0.5680438138550E+00 -0.1031432657449E+01  0.1207145896596E+01
-0.1688170278435E+01 -0.5933949834519E+00 -0.1072335670367E+01  0.1174187614705E+01
-0.1747835927357E+01 -0.6238711769642E+00 -0.1114702336204E+01  0.1139013943436E+01
-0.1805476592882E+01 -0.6595787936307E+00 -0.1158576028722E+01  0.1101359916893E+01
-0.1860927983848E+01 -0.7010702817490E+00 -0.1204139181777E+01  0.1060878797035E+01
-0.1913861236048E+01 -0.7490540585769E+00 -0.1251570185299E+01  0.1017227535226E+01
-0.1963867946012E+01 -0.8043246952251E+00 -0.1301050538082E+01  0.9700537637931E+00
-0.2010511999308E+01 -0.8677328489934E+00 -0.1352775075270E+01  0.9189622680221E+00
-0.2053378743058E+01 -0.9401789218975E+00 -0.1406972098960E+01  0.8634769592435E+00
-0.2092125294869E+01 -0.1022606615439E+01 -0.1463923994132E+01  0.8030015066707E+00
-0.2126540361347E+01 -0.1115987320871E+01 -0.1523988006777E+01  0.7367786458787E+00
-0.2156620692485E+01 -0.1221288062186E+01 -0.1587617110669E+01  0.6638503862074E+00
-0.2182661453172E+01 -0.1339406268372E+01 -0.1655371824927E+01  0.5830264644521E+00
-0.2205384598461E+01 -0.1471075839410E+01 -0.1727936401416E+01  0.4928760524623E+00
-0.2226005965079E+01 -0.1616647318804E+01 -0.1806047038844E+01  0.3917708360434E+00
-0.2246556710703E+01 -0.1775975574015E+01 -0.1890590169022E+01  0.2780315008211E+00
-0.2269895450691E+01 -0.1947891718586E+01 -0.1982359964532E+01  0.1501386693097E+00
-0.2300018995019E+01 -0.2130084738543E+01 -0.2082148749493E+01  0.7034483615483E-02
-0.1475706350081E+01 -0.5009324112871E+00 -0.9290202154868E+00  0.1243901296950E+01
-0.1537984314542E+01 -0.5077489436917E+00 -0.9614946289314E+00  0.1216632160262E+01
-0.1598938287120E+01 -0.5200447566041E+00 -0.9959220280243E+00  0.1185414085714E+01
-0.1657812563697E+01 -0.5374595176040E+00 -0.1031777875594E+01  0.1151435440540E+01
-0.1714397324435E+01 -0.5596758738060E+00 -0.1068814400462E+01  0.1115104906120E+01
-0.1768532161402E+01 -0.5867364163090E+00 -0.1106976228716E+01  0.1076420721189E+01
-0.1819938968693E+01 -0.6189887137385E+00 -0.1146296007836E+01  0.1035215291762E+01
-0.1868225952591E+01 -0.6570047225978E+00 -0.1186858414328E+01  0.9912656927384E+00
-0.1912906837221E+01 -0.7014960461674E+00 -0.1228769352076E+01  0.9443190657356E+00
-0.1953440971593E+01 -0.7532846102198E+00 -0.1272161020225E+01  0.8940760459930E+00
-0.1989270376965E+01 -0.8132945915681E+00 -0.1317205531870E+01  0.8401559866216E+00
-0.2019861405042E+01 -0.8825549987416E+00 -0.1364135706319E+01  0.7820509368728E+00
-0.2044758068419E+01 -0.9622019181824E+00 -0.1413271190118E+01  0.7190696771831E+00
-0.2063656561217E+01 -0.1053470011625E+01 -0.1465049485520E+01  0.6502721321356E+00
-0.2076517941932E+01 -0.1157662597144E+01 -0.1520064849511E+01  0.5743971531673E+00
-0.2083722327155E+01 -0.1276066693711E+01 -0.1579100835802E+01  0.4897933315644E+00
-0.2086320029597E+01 -0.1409807227198E+01 -0.1643179806526E+01  0.3943779939607E+00
-0.2086333000622E+01 -0.1559552772959E+01 -0.1713566309237E+01  0.2856465866369E+00
-0.2087126267689E+01 -0.1725068437134E+01 -0.1791731506723E+01  0.1607904301952E+00
-0.2093530371394E+01 -0.1904444754378E+01 -0.1879048304347E+01  0.1701701492900E-01
-0.1452932881550E+01 -0.4678211031409E+00 -0.9027543705150E+00  0.1222150280555E+01
-0.1511676943959E+01 -0.4693011710338E+00 -0.9310597116852E+00  0.1193844142240E+01
-0.1569354626891E+01 -0.4750141055430E+00 -0.9608533018067E+00  0.1161629486594E+01
-0.1624987909264E+01 -0.4850300847345E+00 -0.9917084546640E+00  0.1126429956973E+01
-0.1678127275842E+01 -0.4992577924515E+00 -0.1023370979502E+01  0.1088730390495E+01
-0.1728437561014E+01 -0.5177351553195E+00 -0.1055701173999E+01  0.1048695068641E+01
-0.1775541567140E+01 -0.5407093382845E+00 -0.1088637922788E+01  0.1006316146791E+01
-0.1818968740203E+01 -0.5686142348515E+00 -0.1122163995430E+01  0.9615059569980E+00
-0.1858156515294E+01 -0.6020404266110E+00 -0.1156292559762E+01  0.9141333210464E+00
-0.1892463613006E+01 -0.6417153764035E+00 -0.1191064122002E+01  0.8640214531994E+00
-0.1921189980079E+01 -0.6885049486404E+00 -0.1226556613387E+01  0.8109212559744E+00
-0.1943600305456E+01 -0.7434289414269E+00 -0.1262903742832E+01  0.7544663503159E+00
-0.1958957546602E+01 -0.8076855869160E+00 -0.1300322269455E+01  0.6941098196552E+00
-0.1966578715832E+01 -0.8826792062779E+00 -0.1339151219995E+01  0.6290391740155E+00
-0.1965931206256E+01 -0.9700398916076E+00 -0.1379906412496E+01  0.5580644511638E+00
-0.1956805703768E+01 -0.1071619053390E+01 -0.1423359632254E+01  0.4794762982537E+00
-0.1939604291804E+01 -0.1189415027299E+01 -0.1470639076248E+01  0.3908762799109E+00
-0.1915726612088E+01 -0.1325302073819E+01 -0.1523283478513E+01  0.2890170880561E+00
-0.1888263692549E+01 -0.1480714472524E+01 -0.1583419733568E+01  0.1696945530794E+00
-0.1862587515658E+01 -0.1655640175604E+01 -0.1653567010699E+01  0.2782902958382E-01
-0.1428652712500E+01 -0.4363933648057E+00 -0.8765716541102E+00  0.1199674909029E+01
-0.1483862991171E+01 -0.4330729507826E+00 -0.9009598904330E+00  0.1169784758411E+01
-0.1538006179138E+01 -0.4329199728075E+00 -0.9263352890649E+00  0.1136134864575E+01
-0.1590056747737E+01 -0.4362060905628E+00 -0.9523435315856E+00  0.1099390061813E+01
-0.1639405582077E+01 -0.4429780290544E+00 -0.9787202947495E+00  0.1060012500137E+01
-0.1685581907647E+01 -0.4532967328547E+00 -0.1005272958486E+01  0.1018249622237E+01
-0.1728107149781E+01 -0.4673360648176E+00 -0.1031858308244E+01  0.9742073332989E+00
-0.1766433799001E+01 -0.4854080494432E+00 -0.1058365666084E+01  0.9279145800375E+00
-0.1799923105000E+01 -0.5079600308672E+00 -0.1084705071106E+01  0.8793579414247E+00
-0.1827839921070E+01 -0.5355744161481E+00 -0.1110804735675E+01  0.8284879699471E+00
-0.1849351416384E+01 -0.5689804784845E+00 -0.1136615987705E+01  0.7752028231680E+00
-0.1863526889954E+01 -0.6090825794283E+00 -0.1162126447662E+01  0.7193117267772E+00
-0.1869340662210E+01 -0.6570054056192E+00 -0.1187382648868E+01  0.6604760563040E+00
-0.1865686548923E+01 -0.7141570704988E+00 -0.1212526498053E+01  0.5981204219215E+00
-0.1851422971001E+01 -0.7823110523625E+00 -0.1237854987841E+01  0.5313000225809E+00
-0.1825485541858E+01 -0.8637039420047E+00 -0.1263919054210E+01  0.4585026166103E+00
-0.1787124522656E+01 -0.9611219626441E+00 -0.1291675844815E+01  0.3773586476277E+00
-0.1736425152804E+01 -0.1077946247311E+01 -0.1322754554699E+01  0.2842399342037E+00
-0.1674721892591E+01 -0.1217519121974E+01 -0.1359353273398E+01  0.1738552054447E+00
-0.1606622866646E+01 -0.1383577020580E+01 -0.1405393943432E+01  0.3880062612795E-01
-0.1402954776825E+01 -0.4069217058791E+00 -0.8506419447135E+00  0.1176650679223E+01
-0.1454625813600E+01 -0.3992220531944E+00 -0.8713084951836E+00  0.1144776129026E+01
-0.1505053521844E+01 -0.3938281725459E+00 -0.8924743940998E+00  0.1109282901350E+01
-0.1553240625456E+01 -0.3910719635548E+00 -0.9138269145174E+00  0.1070633125749E+01
-0.1598484753574E+01 -0.3910682011536E+00 -0.9350898863504E+00  0.1029227150284E+01
-0.1640208687664E+01 -0.3938852984954E+00 -0.9560241710700E+00  0.9853379230470E+00
-0.1677843787662E+01 -0.3996378794802E+00 -0.9764163810805E+00  0.9391371483508E+00
-0.1710766038881E+01 -0.4085253228408E+00 -0.9960669374830E+00  0.8907358324967E+00
-0.1738262600886E+01 -0.4208459476251E+00 -0.1014781015226E+01  0.8402131615161E+00
-0.1759510508224E+01 -0.4370069075075E+00 -0.1032363182775E+01  0.7876280428936E+00
-0.1773556846986E+01 -0.4575425668106E+00 -0.1048616721825E+01  0.7330137495630E+00
-0.1779293859054E+01 -0.4831482922929E+00 -0.1063347808436E+01  0.6763557560194E+00
-0.1775426230919E+01 -0.5147358004701E+00 -0.1076376152023E+01  0.6175494075982E+00
-0.1760431212640E+01 -0.5535179000053E+00 -0.1087556080185E+01  0.5563283540669E+00
-0.1732518697638E+01 -0.6011352759997E+00 -0.1096817364828E+01  0.4921454605311E+00
-0.1689611564729E+01 -0.6598442229467E+00 -0.1104244217407E+01  0.4239725978012E+00
-0.1629417399663E+01 -0.7328045993336E+00 -0.1110244336713E+01  0.3499587638611E+00
-0.1549711249545E+01 -0.8244654788830E+00 -0.1115863059531E+01  0.2668465486675E+00
-0.1449503877378E+01 -0.9411738808616E+00 -0.1123618543523E+01  0.1690304648146E+00
-0.1327976088938E+01 -0.1088350163369E+01 -0.1135673335704E+01  0.4780420992069E-01
-0.1375820500994E+01 -0.3795953454637E+00 -0.8250454457424E+00  0.1153237755037E+01
-0.1423846874052E+01 -0.3678914837566E+00 -0.8421170260340E+00  0.1119106843103E+01
-0.1470354709343E+01 -0.3578146732201E+00 -0.8592396076253E+00  0.1081457030144E+01
-0.1514387211181E+01 -0.3496838263274E+00 -0.8761133854070E+00  0.1040603938634E+01
-0.1555187440461E+01 -0.3436345983425E+00 -0.8924463559742E+00  0.9968753958640E+00
-0.1592096681662E+01 -0.3397288302896E+00 -0.9079579883142E+00  0.9505340942305E+00
-0.1624466328339E+01 -0.3380284393058E+00 -0.9223725384538E+00  0.9017776503159E+00
-0.1651598944712E+01 -0.3386338932942E+00 -0.9354094314905E+00  0.8507617701499E+00
-0.1672709010440E+01 -0.3417025125091E+00 -0.9467734133847E+00  0.7976230244604E+00
-0.1686891252335E+01 -0.3474608891154E+00 -0.9561455040567E+00  0.7424934715192E+00
-0.1693086329913E+01 -0.3562216688558E+00 -0.9631747569783E+00  0.6855055544215E+00
-0.1690035522647E+01 -0.3684126047792E+00 -0.9674706174362E+00  0.6267868618191E+00
-0.1676216229398E+01 -0.3846256459881E+00 -0.9685956789747E+00  0.5664426300311E+00
-0.1649748964074E+01 -0.4056970671655E+00 -0.9660596322321E+00  0.5045196693172E+00
-0.1608263850286E+01 -0.4328368932466E+00 -0.9593173470269E+00  0.4409373918260E+00
-0.1548715855068E+01 -0.4678434607238E+00 -0.9477828760182E+00  0.3753554080867E+00
-0.1467143323941E+01 -0.5134679958288E+00 -0.9308873179307E+00  0.3069115873579E+00
-0.1358474833279E+01 -0.5741046508537E+00 -0.9083123552388E+00  0.2336812162699E+00
-0.1216849350401E+01 -0.6572145520827E+00 -0.8808100319333E+00  0.1514602846935E+00
-0.1039819484892E+01 -0.7764344263452E+00 -0.8536393361164E+00  0.5134227407282E-01
-0.1347297945880E+01 -0.3545484140916E+00 -0.7998677871577E+00  0.1129620531633E+01
-0.1391529040238E+01 -0.3392360323674E+00 -0.8134595820611E+00  0.1093092468812E+01
-0.1433901883418E+01 -0.3250245133588E+00 -0.8266954043883E+00  0.1053108958905E+01
-0.1473500282067E+01 -0.3121961543089E+00 -0.8392773229681E+00  0.1009881259816E+01
-0.1509534298413E+01 -0.3008843317993E+00 -0.8508967540418E+00  0.9636671809576E+00
-0.1541282140276E+01 -0.2911406318805E+00 -0.8612387007293E+00  0.9146991975068E+00
-0.1568024876812E+01 -0.2829882289402E+00 -0.8699761574970E+00  0.8631718188966E+00
-0.1588994785524E+01 -0.2764535318791E+00 -0.8767607069556E+00  0.8092528907736E+00
-0.1603334748711E+01 -0.2715822418794E+00 -0.8812109833424E+00  0.7531005888677E+00
-0.1610060718277E+01 -0.2684483767205E+00 -0.8828992724096E+00  0.6948788744745E+00
-0.1608018530443E+01 -0.2671635613772E+00 -0.8813355809202E+00  0.6347697178882E+00
-0.1595825727444E+01 -0.2678925372050E+00 -0.8759475821635E+00  0.5729825832939E+00
-0.1571786777049E+01 -0.2708809837666E+00 -0.8660538453867E+00  0.5097619629000E+00
-0.1533764398647E+01 -0.2765039956343E+00 -0.8508261431542E+00  0.4453927189784E+00
-0.1478978754891E+01 -0.2853498976173E+00 -0.8292344645755E+00  0.3802001482461E+00
-0.1403682888620E+01 -0.2983661627767E+00 -0.7999630521273E+00  0.3145345874832E+00
-0.1302624760391E+01 -0.3171291101073E+00 -0.7612843172032E+00  0.2487109987326E+00
-0.1168127335518E+01 -0.3443819583369E+00 -0.7108793663089E+00  0.1828097846983E+00
-0.9884421691693E+00 -0.3852185337886E+00 -0.6456205287527E+00  0.1160354186149E+00
-0.7489658433365E+00 -0.4535507319433E+00 -0.5651827889480E+00  0.4362207702835E-01
-0.1317504173714E+01 -0.3318696533977E+00 -0.7752056967763E+00  0.1105972232557E+01
-0.1357791909829E+01 -0.3133720955857E+00 -0.7854470805526E+00  0.1067017101478E+01
-0.1395845743714E+01 -0.2955860810825E+00 -0.7949729556381E+00  0.1024647686653E+01
-0.1430784142500E+01 -0.2787559621973E+00 -0.8034838471700E+00  0.9790031665857E+00
-0.1461796882106E+01 -0.2630094943039E+00 -0.8106589948565E+00  0.9302811395541E+00
-0.1488112547996E+01 -0.2483966265678E+00 -0.8161593099747E+00  0.8786771106341E+00
-0.1508950310646E+01 -0.2349263519679E+00 -0.8196220293495E+00  0.8243667584112E+00
-0.1523475266485E+01 -0.2225909141794E+00 -0.8206511028309E+00  0.7675093456899E+00
-0.1530758304035E+01 -0.2113786241517E+00 -0.8188043541709E+00  0.7082591420264E+00
-0.1529735351470E+01 -0.2012797647580E+00 -0.8135771025635E+00  0.6467790492410E+00
-0.1519158755803E+01 -0.1922899798657E+00 -0.8043809037243E+00  0.5832551721726E+00
-0.1497531728035E+01 -0.1844147316697E+00 -0.7905148340560E+00  0.5179137742859E+00
-0.1463013198945E+01 -0.1776779509576E+00 -0.7711248384984E+00  0.4510440009049E+00
-0.1413273035993E+01 -0.1721385254950E+00 -0.7451434320095E+00  0.3830319567130E+00
-0.1345261739430E+01 -0.1679196483505E+00 -0.7111952504532E+00  0.3144153472531E+00
-0.1254826383784E+01 -0.1652602386613E+00 -0.6674407108564E+00  0.2459747032496E+00
-0.1136023629960E+01 -0.1645995899037E+00 -0.6112929117854E+00  0.1788906355065E+00
-0.9797676350308E+00 -0.1667093809971E+00 -0.5388441961664E+00  0.1150233867320E+00
-0.7708586516214E+00 -0.1729018573148E+00 -0.4435674380749E+00  0.5742135431509E-01
-0.4764818819327E+00 -0.1833859832141E+00 -0.3101378958324E+00  0.1110024662072E-01
-0.1286580975064E+01 -0.3115944842910E+00 -0.7511424639918E+00  0.1082440954176E+01
-0.1322805315226E+01 -0.2903515540650E+00 -0.7581837266436E+00  0.1041113371304E+01
-0.1356408444975E+01 -0.2695532455511E+00 -0.7642019926092E+00  0.9964067964726E+00
-0.1386536524319E+01 -0.2494165750905E+00 -0.7688979547721E+00  0.9484149179794E+00
-0.1412367274968E+01 -0.2300712917948E+00 -0.7719461244207E+00  0.8972905608297E+00
-0.1433091643426E+01 -0.2115814856930E+00 -0.7729963687254E+00  0.8431978129276E+00
-0.1447877462753E+01 -0.1939711615516E+00 -0.7716688514659E+00  0.7862939025333E+00
-0.1455830832579E+01 -0.1772435589240E+00 -0.7675449620598E+00  0.7267283836157E+00
-0.1455957528934E+01 -0.1613931861952E+00 -0.7601548341827E+00  0.6646507629165E+00
-0.1447121224084E+01 -0.1464127602467E+00 -0.7489609707359E+00  0.6002223574462E+00
-0.1427992866321E+01 -0.1322977526050E+00 -0.7333365890354E+00  0.5336317585374E+00
-0.1396983586565E+01 -0.1190507837638E+00 -0.7125361522473E+00  0.4651160888538E+00
-0.1352150416795E+01 -0.1066874423117E+00 -0.6856537920411E+00  0.3949931887322E+00
-0.1291058192434E+01 -0.9524419930119E-01 -0.6515621224629E+00  0.3237143252439E+00
-0.1210569842158E+01 -0.8478769034970E-01 -0.6088180387345E+00  0.2519553825838E+00
-0.1106512647700E+01 -0.7541907543045E-01 -0.5555079084623E+00  0.1807820490332E+00
-0.9731173937536E+00 -0.6725508819267E-01 -0.4889750652745E+00  0.1119643215893E+00
-0.8019713780238E+00 -0.6029725679136E-01 -0.4052662573352E+00  0.4862146957210E-01
-0.5797754251040E+00 -0.5390455913785E-01 -0.2978295918382E+00 -0.3323521385724E-02
-0.2807963917287E+00 -0.4282268295254E-01 -0.1521009647144E+00 -0.3044657344039E-01
-0.1254681608565E+01 -0.2937125966187E+00 -0.7277452745907E+00  0.1059152119605E+01
-0.1286763296514E+01 -0.2701657405734E+00 -0.7317566455752E+00  0.1015569901372E+01
-0.1315845336929E+01 -0.2469029199942E+00 -0.7344916788911E+00  0.9686539288045E+00
-0.1341096995484E+01 -0.2241286927619E+00 -0.7356560716096E+00  0.9184752322767E+00
-0.1361691984261E+01 -0.2019860294003E+00 -0.7349286645566E+00  0.8651609839711E+00
-0.1376797749192E+01 -0.1805686837851E+00 -0.7319622216429E+00  0.8088588800538E+00
-0.1385547729886E+01 -0.1599399297480E+00 -0.7263791981858E+00  0.7497220124674E+00
-0.1387008796840E+01 -0.1401493179991E+00 -0.7177643121536E+00  0.6879078199690E+00
-0.1380146638425E+01 -0.1212456396756E+00 -0.7056543689176E+00  0.6235857452802E+00
-0.1363787586864E+01 -0.1032870895671E+00 -0.6895250961735E+00  0.5569511973500E+00
-0.1336573496419E+01 -0.8635033328141E-01 -0.6687741982629E+00  0.4882463298437E+00
-0.1296905277926E+01 -0.7053993457487E-01 -0.6426992482451E+00  0.4177910087013E+00
-0.1242869794774E+01 -0.5599879450888E-01 -0.6104682354147E+00  0.3460308855650E+00
-0.1172143960932E+01 -0.4291882270269E-01 -0.5710795068597E+00  0.2736150434105E+00
-0.1081869187872E+01 -0.3154779354572E-01 -0.5233059799392E+00  0.2015257033059E+00
-0.9684927586293E+00 -0.2218236130025E-01 -0.4656173051859E+00  0.1313021185390E+00
-0.8275826853817E+00 -0.1511697679339E-01 -0.3960688402177E+00  0.6544281876497E-01
-0.6537195143333E+00 -0.1050540104515E-01 -0.3121857094361E+00  0.8165089478931E-02
-0.4407210999805E+00 -0.7858477419831E-02 -0.2108324008434E+00 -0.3301570937322E-01
-0.1883309411050E+00 -0.7570242665454E-02 -0.9207355613860E-01 -0.4386205408939E-01
-0.1221964188255E+01 -0.2781774199857E+00 -0.7050665540846E+00  0.1036210591572E+01
-0.1249869948970E+01 -0.2527557361786E+00 -0.7062340702284E+00  0.9905375583669E+00
-0.1274423809604E+01 -0.2275466470289E+00 -0.7059261128268E+00  0.9415987564712E+00
-0.1294817305482E+01 -0.2027561010770E+00 -0.7038594992975E+00  0.8894619085152E+00
-0.1310230317695E+01 -0.1785501069871E+00 -0.6997267978260E+00  0.8342482697513E+00
-0.1319824476747E+01 -0.1550625110621E+00 -0.6931968825122E+00  0.7761080971659E+00
-0.1322722567537E+01 -0.1324096463014E+00 -0.6839121387695E+00  0.7152105040512E+00
-0.1317983022804E+01 -0.1107053194078E+00 -0.6714835191366E+00  0.6517451127272E+00
-0.1304572604945E+01 -0.9007419035057E-01 -0.6554839921263E+00  0.5859327802510E+00
-0.1281337505346E+01 -0.7066369900594E-01 -0.6354405644339E+00  0.5180445889144E+00
-0.1246972268667E+01 -0.5265526416653E-01 -0.6108249388825E+00  0.4484306206729E+00
-0.1199986439337E+01 -0.3627513128767E-01 -0.5810429367197E+00  0.3775626109423E+00
-0.1138670742528E+01 -0.2180421250902E-01 -0.5454232274840E+00  0.3060978156898E+00
-0.1061069026499E+01 -0.9584286341967E-02 -0.5032070557588E+00  0.2349760936527E+00
-0.9649727107046E+00 -0.1466610270295E-04 -0.4535440659491E+00  0.1655694862411E+00
-0.8479785358187E+00  0.6473241069416E-02 -0.3955074875290E+00  0.9991521273755E-01
-0.7077210299817E+00  0.9480253173284E-02 -0.3281731642676E+00  0.4108055505916E-01
-0.5425531869300E+00  0.8782747698639E-02 -0.2508721058024E+00 -0.6272289677894E-02
-0.3538466881999E+00  0.4318324932631E-02 -0.1642783303189E+00 -0.3509314068522E-01
-0.1520357723292E+00 -0.4052025094935E-02 -0.7336126460327E-01 -0.3586378825437E-01
-0.1188586496202E+01 -0.2649134718361E+00 -0.6831449832454E+00  0.1013702289134E+01
-0.1212330662222E+01 -0.2380229916198E+00 -0.6816662155769E+00  0.9661348556190E+00
-0.1232410354607E+01 -0.2113448826055E+00 -0.6785649597687E+00  0.9154009623606E+00
-0.1248042905188E+01 -0.1850969448501E+00 -0.6735757278093E+00  0.8615806061188E+00
-0.1258426845042E+01 -0.1594739462075E+00 -0.6664133701971E+00  0.8048066461737E+00
-0.1262738264519E+01 -0.1346534562171E+00 -0.6567741070800E+00  0.7452496190600E+00
-0.1260116799156E+01 -0.1108075815869E+00 -0.6443344573147E+00  0.6831129989647E+00
-0.1249648248660E+01 -0.8811583146137E-01 -0.6287491160624E+00  0.6186385193532E+00
-0.1230347120165E+01 -0.6677716062884E-01 -0.6096484104269E+00  0.5521205036322E+00
-0.1201140863400E+01 -0.4702065693691E-01 -0.5866359130703E+00  0.4839292708552E+00
-0.1160857721744E+01 -0.2911459569802E-01 -0.5592869877790E+00  0.4145452752946E+00
-0.1108221811539E+01 -0.1337303057672E-01 -0.5271495744575E+00  0.3446073786212E+00
-0.1041862737805E+01 -0.1578214418858E-03 -0.4897496616037E+00  0.2749805343188E+00
-0.9603543186543E+00  0.1012808486042E-01 -0.4466063287503E+00  0.2068501406081E+00
-0.8623110420216E+00  0.1706370834711E-01 -0.3972662458194E+00  0.1418518484117E+00
-0.7466002721796E+00  0.2026112279837E-01 -0.3413793993433E+00  0.8224446926361E-01
-0.6127842636811E+00  0.1946410983279E-01 -0.2788604716014E+00  0.3112140282437E-01
-0.4620427354907E+00  0.1470212591272E-01 -0.2102500859684E+00 -0.7394950257147E-02
-0.2988953157398E+00  0.6570044261635E-02 -0.1373928772463E+00 -0.2826325696987E-01
-0.1320715601356E+00 -0.2203708486474E-02 -0.6310937609233E-01 -0.2671403893584E-01
-0.1154704131451E+01 -0.2538247093754E+00 -0.6620085535092E+00  0.9916955471960E+00
-0.1174346498028E+01 -0.2258402374794E+00 -0.6580877640194E+00  0.9424521834520E+00
-0.1190061939017E+01 -0.1981219900012E+00 -0.6524464449836E+00  0.8901772326777E+00
-0.1201100127817E+01 -0.1709052518559E+00 -0.6448425268106E+00  0.8349744973380E+00
-0.1206692204267E+01 -0.1444145153900E+00 -0.6350201566281E+00  0.7770019407069E+00
-0.1206049487135E+01 -0.1188682504716E+00 -0.6227113350956E+00  0.7164637482188E+00
-0.1198355777108E+01 -0.9448806720183E-01 -0.6076366052844E+00  0.6536101783387E+00
-0.1182758486689E+01 -0.7150867243866E-01 -0.5895055632948E+00  0.5887458991856E+00
-0.1158361949569E+01 -0.5018678267665E-01 -0.5680179027146E+00  0.5222465622470E+00
-0.1124225677249E+01 -0.3080796930631E-01 -0.5428658125040E+00  0.4545838149393E+00
-0.1079371051089E+01 -0.1369036494297E-01 -0.5137388642319E+00  0.3863597345294E+00
-0.1022802033850E+01  0.8165102337356E-03 -0.4803331948814E+00  0.3183523343647E+00
-0.9535493243620E+00  0.1234080435689E-01 -0.4423680032804E+00  0.2515739972922E+00
-0.8707538307487E+00  0.2051022124510E-01 -0.3996144954531E+00  0.1873437846896E+00
-0.7738159184506E+00  0.2499440504184E-01 -0.3519461104094E+00  0.1273710104719E+00
-0.6626523996345E+00  0.2557960326401E-01 -0.2994242135347E+00  0.7383736720804E-01
-0.5381208375284E+00  0.2229305301423E-01 -0.2424390581067E+00  0.2943930485118E-01
-0.4026524103998E+00  0.1561048014690E-01 -0.1819097067575E+00 -0.2712966761911E-02
-0.2607575147367E+00  0.6938874268575E-02 -0.1192947607174E+00 -0.1955432773862E-01
-0.1190527535009E+00 -0.9363903382333E-03 -0.5639489746138E-01 -0.1903385337314E-01
-0.1120466361081E+01 -0.2447987100409E+00 -0.6416745817999E+00  0.9702424528429E+00
-0.1136108680420E+01 -0.2160591509032E+00 -0.6355188791098E+00  0.9195555767777E+00
-0.1147618433201E+01 -0.1876775017057E+00 -0.6275890878144E+00  0.8660079814767E+00
-0.1154286364816E+01 -0.1599078042795E+00 -0.6176712579081E+00  0.8097346201024E+00
-0.1155390185757E+01 -0.1330007928165E+00 -0.6055437583939E+00  0.7509272152937E+00
-0.1150195580677E+01 -0.1072080609562E+00 -0.5909797100687E+00  0.6898312916182E+00
-0.1137954280232E+01 -0.8278862206515E-01 -0.5737491626245E+00  0.6267490321921E+00
-0.1117903135497E+01 -0.6001525962812E-01 -0.5536216443045E+00  0.5620490271410E+00
-0.1089267389178E+01 -0.3917918245954E-01 -0.5303698873244E+00  0.4961828599195E+00
-0.1051271141930E+01 -0.2059167889012E-01 -0.5037755245079E+00  0.4297083529489E+00
-0.1003158906259E+01 -0.4581291935725E-02 -0.4736378919503E+00  0.3633193722733E+00
-0.9442338551442E+00  0.8515608241796E-02 -0.4397875749287E+00  0.2978818363445E+00
-0.8739209999128E+00  0.1837400469878E-01 -0.4021070867307E+00  0.2344744979433E+00
-0.7918669860974E+00  0.2471373661907E-01 -0.3605620263403E+00  0.1744303874548E+00
-0.6980916303382E+00  0.2735375098443E-01 -0.3152468024967E+00  0.1193690430637E+00
-0.5932058197691E+00  0.2629612060656E-01 -0.2664475579306E+00  0.7119821997078E-01
-0.4786946458312E+00  0.2185162168383E-01 -0.2147162208047E+00  0.3204260344555E-01
-0.3571768654594E+00  0.1483751164996E-01 -0.1608994958823E+00  0.4028121135449E-02
-0.2325002941950E+00  0.6778830652976E-02 -0.1060890875957E+00 -0.1114121188340E-01
-0.1094250380847E+00  0.1003110466252E-04 -0.5142505315018E-01 -0.1278217524514E-01
-0.1086014754743E+01 -0.2377121089324E+00 -0.6221516243494E+00  0.9493802811624E+00
-0.1097795561037E+01 -0.2085179442704E+00 -0.6139673459374E+00  0.8974906365923E+00
-0.1105298877883E+01 -0.1797972490337E+00 -0.6039951781189E+00  0.8429444973954E+00
-0.1107865694377E+01 -0.1518198865248E+00 -0.5920522215224E+00  0.7859111873307E+00
-0.1104832998979E+01 -0.1248557974503E+00 -0.5779537328561E+00  0.7266199935580E+00
-0.1095536807955E+01 -0.9917898282613E-01 -0.5615164202430E+00  0.6653598429026E+00
-0.1079314802422E+01 -0.7507106401724E-01 -0.5425613558502E+00  0.6024831984786E+00
-0.1055512123863E+01 -0.5282382163216E-01 -0.5209178930616E+00  0.5384153638656E+00
-0.1023492527147E+01 -0.3273929241782E-01 -0.4964289539361E+00  0.4736688869829E+00
-0.9826575889199E+00 -0.1512621232493E-01 -0.4689583853956E+00  0.4088622956344E+00
-0.9324772590453E+00 -0.2912839416900E-03 -0.4384012140919E+00  0.3447420071455E+00
-0.8725359889782E+00  0.1147671205434E-01 -0.4046978591278E+00  0.2822054679534E+00
-0.8025995999417E+00  0.1993256954360E-01 -0.3678535033541E+00  0.2223219637296E+00
-0.7227082830700E+00  0.2491336081371E-01 -0.3279636126286E+00  0.1663445537267E+00
-0.6332987576622E+00  0.2639409034958E-01 -0.2852451929134E+00  0.1157015392705E+00
-0.5353499114827E+00  0.2456389333485E-01 -0.2400694279206E+00  0.7194829079802E-01
-0.4305200762087E+00  0.1992598141422E-01 -0.1929792240639E+00  0.3665184318210E-01
-0.3212162484494E+00  0.1340045944828E-01 -0.1446734204636E+00  0.1118260221652E-01
-0.2104981912681E+00  0.6386623208478E-02 -0.9593243674469E-01 -0.3584816600775E-02
-0.1017880628163E+00  0.6691358272259E-03 -0.4752589556434E-01 -0.7596624940293E-02
-0.1051480789770E+01 -0.2324331234175E+00 -0.6034395376674E+00  0.9291329834467E+00
-0.1059570466719E+01 -0.2030468636129E+00 -0.5934301437509E+00  0.8762866408889E+00
-0.1063299375656E+01 -0.1742622579837E+00 -0.5816539663355E+00  0.8210162288957E+00
-0.1062066960372E+01 -0.1463573871043E+00 -0.5679594418732E+00  0.7635248721219E+00
-0.1055280823188E+01 -0.1196127920282E+00 -0.5521999977512E+00  0.7040791678372E+00
-0.1042358942269E+01 -0.9431294208397E-01 -0.5342357842907E+00  0.6430087621514E+00
-0.1022736355210E+01 -0.7074722661215E-01 -0.5139372821527E+00  0.5807094790216E+00
-0.9958758338527E+00 -0.4920873809608E-01 -0.4911897475701E+00  0.5176505664696E+00
-0.9612843137044E+00 -0.2999027969460E-01 -0.4658990577158E+00  0.4543853343001E+00
-0.9185368618912E+00 -0.1337653397471E-01 -0.4379992949460E+00  0.3915638420611E+00
-0.8673103639759E+00  0.3688375499666E-03 -0.4074625163867E+00  0.3299457339578E+00
-0.8074292210132E+00  0.1102264973476E-01 -0.3743110875515E+00  0.2704104262460E+00
-0.7389248998029E+00  0.1842985561230E-01 -0.3386326699107E+00  0.2139603785214E+00
-0.6621093396307E+00  0.2254100288792E-01 -0.3005971175067E+00  0.1617109567069E+00
-0.5776576724247E+00  0.2346030385976E-01 -0.2604727625649E+00  0.1148575170453E+00
-0.4866859678491E+00  0.2150315746911E-01 -0.2186359203240E+00  0.7460775939547E-01
-0.3907971142381E+00  0.1725416239344E-01 -0.1755651869217E+00  0.4206851352168E-01
-0.2920537845180E+00  0.1160597361623E-01 -0.1318104707895E+00  0.1808624639165E-01
-0.1928433245540E+00  0.5740614744594E-02 -0.8793827338736E-01  0.3064644910439E-02
-0.9560675525758E-01  0.1028227221207E-02 -0.4445190806435E-01 -0.3189915661036E-02
-0.1016989772780E+01 -0.2288263428388E+00 -0.5855335728559E+00  0.9095130852351E+00
-0.1021587631594E+01 -0.1994785522019E+00 -0.5739011049284E+00  0.8559592094378E+00
-0.1021796997040E+01 -0.1708593078037E+00 -0.5605484618549E+00  0.8002334176165E+00
-0.1017088053819E+01 -0.1432490547979E+00 -0.5453584396666E+00  0.7425702379056E+00
-0.1006946898218E+01 -0.1169289640251E+00 -0.5282216539145E+00  0.6832702291725E+00
-0.9908806700400E+00 -0.9218266684512E-01 -0.5090397670449E+00  0.6226976491671E+00
-0.9684265400272E+00 -0.6929422909161E-01 -0.4877287602488E+00  0.5612813896072E+00
-0.9391656453695E+00 -0.4854379818709E-01 -0.4642234372941E+00  0.4995191027546E+00
-0.9027421713928E+00 -0.3020038265129E-01 -0.4384829992886E+00  0.4379833335042E+00
-0.8588885237855E+00 -0.1451117451073E-01 -0.4104978571581E+00  0.3773278986521E+00
-0.8074575150817E+00 -0.1686586967074E-02 -0.3802977269983E+00  0.3182922626662E+00
-0.7484620916952E+00  0.8119828566918E-02 -0.3479608627877E+00  0.2617009811899E+00
-0.6821219495102E+00  0.1483721730607E-01 -0.3136238233405E+00  0.2084543427738E+00
-0.6089139874227E+00  0.1850898605560E-01 -0.2774903499387E+00  0.1595052553974E+00
-0.5296193014944E+00  0.1932865118631E-01 -0.2398366050365E+00  0.1158166822866E+00
-0.4453537644725E+00  0.1767526934342E-01 -0.2010088922008E+00  0.7829475681634E-01
-0.3575633844548E+00  0.1413884113507E-01 -0.1614095349509E+00  0.4769704138976E-01
-0.2679651186200E+00  0.9519362922366E-02 -0.1214695048698E+00  0.2452522022300E-01
-0.1784219151436E+00  0.4781344081063E-02 -0.8161106819238E-01  0.8925638340261E-02
-0.9074705299560E-01  0.9605764036059E-03 -0.4219964389120E-01  0.6371567160608E-03
-0.9826803642321E+00 -0.2267734379899E+00 -0.5684432856026E+00  0.8905227008302E+00
-0.9839974836316E+00 -0.1976570071279E+00 -0.5553776092483E+00  0.8365016607603E+00
-0.9809542773059E+00 -0.1693888336191E+00 -0.5406612607634E+00  0.7805704033475E+00
-0.9730966084760E+00 -0.1422413433343E+00 -0.5242088360212E+00  0.7229913232986E+00
-0.9599947026672E+00 -0.1164877634416E+00 -0.5059467577879E+00  0.6640937394680E+00
-0.9412472887026E+00 -0.9240111722663E-01 -0.4858147495545E+00  0.6042686014430E+00
-0.9164926513530E+00 -0.7025004571889E-01 -0.4637690664475E+00  0.5439663340576E+00
-0.8854241484553E+00 -0.5029182069759E-01 -0.4397865043864E+00  0.4836974131287E+00
-0.8478098759612E+00 -0.3276294681334E-01 -0.4138692256543E+00  0.4240340694749E+00
-0.8035164205813E+00 -0.1786708346237E-01 -0.3860502459214E+00  0.3656111204435E+00
-0.7525366372453E+00 -0.5759920959815E-02 -0.3563993814524E+00  0.3091236592281E+00
-0.6950207583027E+00  0.3469239217218E-02 -0.3250292131458E+00  0.2553190230010E+00
-0.6313088811631E+00  0.9819004392623E-02 -0.2921002413412E+00  0.2049801398520E+00
-0.5619608465665E+00  0.1339943543238E-01 -0.2578238625791E+00  0.1588972575669E+00
-0.4877768764870E+00  0.1445495401910E-01 -0.2224613029957E+00  0.1178256904030E+00
-0.4097997134520E+00  0.1338161956673E-01 -0.1863165036535E+00  0.8242934566321E-01
-0.3292881928235E+00  0.1073091973582E-01 -0.1497219179715E+00  0.5321417690614E-01
-0.2476555416450E+00  0.7190434610016E-02 -0.1130186000198E+00  0.3046224530769E-01
-0.1663729805583E+00  0.3534931481609E-02 -0.7653388287191E-01  0.1418409393937E-01
-0.8687535817155E-01  0.5336448712401E-03 -0.4058060514822E-01  0.4112245182650E-02
-0.9486563027238E+00 -0.2261367477425E+00 -0.5521527323187E+00  0.8721520469661E+00
-0.9469134566364E+00 -0.1974119359532E+00 -0.5378329331530E+00  0.8178844476822E+00
-0.9408855622713E+00 -0.1696385851175E+00 -0.5219463479489E+00  0.7619693799154E+00
-0.9302004613699E+00 -0.1430743862660E+00 -0.5044391771095E+00  0.7046921817889E+00
-0.9145141787202E+00 -0.1179767514580E+00 -0.4852707359529E+00  0.6464050273487E+00
-0.8935156239774E+00 -0.9460087634090E-01 -0.4644147539717E+00  0.5875173264095E+00
-0.8669384995621E+00 -0.7319323159584E-01 -0.4418619125235E+00  0.5284900009348E+00
-0.8345774398298E+00 -0.5398261254280E-01 -0.4176232235559E+00  0.4698325794456E+00
-0.7963068339546E+00 -0.3716943799854E-01 -0.3917338468244E+00  0.4121011360974E+00
-0.7521016377890E+00 -0.2291346633044E-01 -0.3642570980122E+00  0.3558949211612E+00
-0.7020594489462E+00 -0.1131989209488E-01 -0.3352882894389E+00  0.3018495763904E+00
-0.6464225831023E+00 -0.2423985037948E-02 -0.3049578862524E+00  0.2506249130264E+00
-0.5855978959442E+00  0.3825059562673E-02 -0.2734332324058E+00  0.2028854198233E+00
-0.5201708141058E+00  0.7579538820295E-02 -0.2409178987731E+00  0.1592721867275E+00
-0.4509087961681E+00  0.9105233753059E-02 -0.2076476738084E+00  0.1203661104955E+00
-0.3787489330560E+00  0.8785940534949E-02 -0.1738826060439E+00  0.8664441880534E-01
-0.3047656241274E+00  0.7115562546159E-02 -0.1398955285884E+00  0.5843572795636E-01
-0.2301177310068E+00  0.4673561182817E-02 -0.1059587595485E+00  0.3588232236460E-01
-0.1559838447682E+00  0.2080625519178E-02 -0.7233451286358E-01  0.1892053421246E-01
-0.8349505892973E-01 -0.5407950355302E-04 -0.3926809496404E-01  0.7286173298424E-02
-0.9150049118430E+00 -0.2267821743584E+00 -0.5366399291535E+00  0.8543849438804E+00
-0.9104237021315E+00 -0.1985780024063E+00 -0.5212307998107E+00  0.8000719478572E+00
-0.9016740936879E+00 -0.1714084648775E+00 -0.5043488012465E+00  0.7443669387715E+00
-0.8884693843126E+00 -0.1455091788848E+00 -0.4859699234702E+00  0.6875734077505E+00
-0.8705510410116E+00 -0.1211159588700E+00 -0.4660834887622E+00  0.6300606773288E+00
-0.8476935160712E+00 -0.9846142113059E-01 -0.4446928193569E+00  0.5722490905495E+00
-0.8197169964439E+00 -0.7776641863088E-01 -0.4218172040153E+00  0.5146004638877E+00
-0.7865035810856E+00 -0.5922941304287E-01 -0.3974945062322E+00  0.4576121566703E+00
-0.7480146161779E+00 -0.4301512978333E-01 -0.3717839796588E+00  0.4018122692018E+00
-0.7043079920302E+00 -0.2924288567949E-01 -0.3447689116491E+00  0.3477536563178E+00
-0.6555544303337E+00 -0.1797473608849E-01 -0.3165587074155E+00  0.2960048460096E+00
-0.6020514510126E+00 -0.9203763994818E-02 -0.2872899503248E+00  0.2471363910208E+00
-0.5442331047449E+00 -0.2843303477567E-02 -0.2571259112124E+00  0.2017017057990E+00
-0.4826729483173E+00  0.1281458526936E-02 -0.2262539996276E+00  0.1602122116698E+00
-0.4180774781306E+00  0.3437356816827E-02 -0.1948808565232E+00  0.1231077990513E+00
-0.3512677634903E+00  0.3979965542360E-02 -0.1632252646216E+00  0.9072527330024E-01
-0.2831486237820E+00  0.3340761208942E-02 -0.1315096950758E+00  0.6326934236202E-01
-0.2146678298930E+00  0.2003428673239E-02 -0.9995226831978E-01  0.4079215202481E-01
-0.1467698027938E+00  0.4720810691343E-03 -0.6875992903620E-01  0.2318689450199E-01
-0.8034921581814E-01 -0.7627097547441E-03 -0.3812260492256E-01  0.1019760923619E-01
-0.8818028212465E+00 -0.2285834591235E+00 -0.5218815504502E+00  0.8372016830059E+00
-0.8746003321514E+00 -0.2010035596088E+00 -0.5055338278451E+00  0.7830271428207E+00
-0.8633817341006E+00 -0.1745185006192E+00 -0.4878131090810E+00  0.7277010223929E+00
-0.8479477358331E+00 -0.1493351487103E+00 -0.4687229545465E+00  0.6715409965637E+00
-0.8281228179364E+00 -0.1256636149887E+00 -0.4482796223378E+00  0.6149289907768E+00
-0.8037600912935E+00 -0.1037118405519E+00 -0.4265118068855E+00  0.5582901427537E+00
-0.7747551337789E+00 -0.8367457415705E-01 -0.4034619617065E+00  0.5020794579562E+00
-0.7410623228436E+00 -0.6572113943947E-01 -0.3791882263113E+00  0.4467735971788E+00
-0.7027106502787E+00 -0.4998379002764E-01 -0.3537663860467E+00  0.3928645669786E+00
-0.6598176500984E+00 -0.3654712679800E-01 -0.3272914443112E+00  0.3408527120718E+00
-0.6126005497076E+00 -0.2543866755836E-01 -0.2998784313544E+00  0.2912372256973E+00
-0.5613836531135E+00 -0.1662080935065E-01 -0.2716620966691E+00  0.2445031352084E+00
-0.5066006769441E+00 -0.9984816442011E-02 -0.2427951812756E+00  0.2011044246103E+00
-0.4487905976660E+00 -0.5347915436430E-02 -0.2134451006168E+00  0.1614437335383E+00
-0.3885858181392E+00 -0.2454906776080E-02 -0.1837891402440E+00  0.1258499953059E+00
-0.3266923331128E+00 -0.9856627876232E-03 -0.1540086576826E+00  0.9455640371152E-01
-0.2638631401259E+00 -0.5692605239589E-03 -0.1242832279902E+00  0.6768202762893E-01
-0.2008676595396E+00 -0.8038566277585E-03 -0.9478561235824E-01  0.4522079860933E-01
-0.1384607340407E+00 -0.1279608781093E-02 -0.6567796095964E-01  0.2704102155037E-01
-0.7735375814595E-01 -0.1600930616982E-02 -0.3710870362445E-01  0.1289687503503E-01
-0.8491168035027E+00 -0.2314220440892E+00 -0.5078532570801E+00  0.8205805944096E+00
-0.8395016317921E+00 -0.2045506910324E+00 -0.4907045904829E+00  0.7667128808540E+00
-0.8260526936252E+00 -0.1788087045898E+00 -0.4722848559632E+00  0.7119118575613E+00
-0.8086596449443E+00 -0.1543685055253E+00 -0.4526232295727E+00  0.6565070497495E+00
-0.7872260153322E+00 -0.1314124795840E+00 -0.4317600915155E+00  0.6008903168852E+00
-0.7616748973412E+00 -0.1101244221347E+00 -0.4097456791144E+00  0.5454872837686E+00
-0.7319648045509E+00 -0.9067516787549E-01 -0.3866407860597E+00  0.4907404430210E+00
-0.6981068090539E+00 -0.7320845944436E-01 -0.3625181752747E+00  0.4370996862343E+00
-0.6601793093150E+00 -0.5782912394743E-01 -0.3374639627774E+00  0.3850158473244E+00
-0.6183391703929E+00 -0.4459381157242E-01 -0.3115785007334E+00  0.3349341631280E+00
-0.5728287366017E+00 -0.3350407113086E-01 -0.2849764189115E+00  0.2872858771377E+00
-0.5239782665257E+00 -0.2450169538598E-01 -0.2577855814447E+00  0.2424772344888E+00
-0.4722032168231E+00 -0.1746663383390E-01 -0.2301448292251E+00  0.2008759018201E+00
-0.4179958259856E+00 -0.1221809471424E-01 -0.2022005422161E+00  0.1627955060142E+00
-0.3619108253879E+00 -0.8519566481092E-02 -0.1741022837368E+00  0.1284795692029E+00
-0.3045459980437E+00 -0.6088273442235E-02 -0.1459981072281E+00  0.9808657722926E-01
-0.2465196235252E+00 -0.4608854361092E-02 -0.1180303843072E+00  0.7167816638084E-01
-0.1884481716128E+00 -0.3749864472418E-02 -0.9033307673095E-01  0.4921246699092E-01
-0.1309278192608E+00 -0.3180354733628E-02 -0.6303084161752E-01  0.3054468566467E-01
-0.7452159937050E-01 -0.2583494592990E-02 -0.3623939407092E-01  0.1543709618805E-01
-0.8170056068639E+00 -0.2351880954767E+00 -0.4945310388458E+00  0.8044998991773E+00
-0.8051741485879E+00 -0.2090957285096E+00 -0.4767068410267E+00  0.7510934715169E+00
-0.7897167192949E+00 -0.1841386249178E+00 -0.4577120106191E+00  0.6969429240184E+00
-0.7706136228225E+00 -0.1604501633089E+00 -0.4375999783718E+00  0.6423901604224E+00
-0.7478422138626E+00 -0.1381855863379E+00 -0.4164330650380E+00  0.5878368376714E+00
-0.7213853396642E+00 -0.1175078891958E+00 -0.3942798165642E+00  0.5337067422774E+00
-0.6912510530648E+00 -0.9856858383769E-01 -0.3712152284026E+00  0.4804259453279E+00
-0.6574917188559E+00 -0.8149112117195E-01 -0.3473219339322E+00  0.4284134530692E+00
-0.6202185095254E+00 -0.6635891059980E-01 -0.3226913866404E+00  0.3780760848691E+00
-0.5796105213206E+00 -0.5320753581941E-01 -0.2974244861014E+00  0.3298037402032E+00
-0.5359186914597E+00 -0.4202031400742E-01 -0.2716313318806E+00  0.2839632000569E+00
-0.4894647545959E+00 -0.3272664112748E-01 -0.2454299553675E+00  0.2408899200382E+00
-0.4406353328920E+00 -0.2520300523257E-01 -0.2189440183632E+00  0.2008780887119E+00
-0.3898712327437E+00 -0.1927685550296E-01 -0.1922996009882E+00  0.1641697275772E+00
-0.3376522833639E+00 -0.1473357580243E-01 -0.1656213533881E+00  0.1309438797225E+00
-0.2844786205918E+00 -0.1132653085681E-01 -0.1390284208282E+00  0.1013069519951E+00
-0.2308505106126E+00 -0.8789726252116E-02 -0.1126309110407E+00  0.7528497757748E-01
-0.1772506523676E+00 -0.6851891594159E-02 -0.8652819544256E-01  0.5281818474753E-01
-0.1241343729052E+00 -0.5249460538426E-02 -0.6081040156427E-01  0.3375868041761E-01
-0.7193153974123E-01 -0.3734394304444E-02 -0.3556298891127E-01  0.1787418913554E-01
-0.7855212064772E+00 -0.2397810709532E+00 -0.4818920691701E+00  0.7889382187407E+00
-0.7716539869103E+00 -0.2145293120016E+00 -0.4635061493130E+00  0.7361336794591E+00
-0.7543908100776E+00 -0.1903856627883E+00 -0.4440449411207E+00  0.6827384191170E+00
-0.7338051379608E+00 -0.1674418770451E+00 -0.4235860959784E+00  0.6291117080849E+00
-0.7099414544333E+00 -0.1458301102681E+00 -0.4022126343895E+00  0.5756679285357E+00
-0.6828304873442E+00 -0.1256990594629E+00 -0.3800088860355E+00  0.5228285006451E+00
-0.6525156469970E+00 -0.1071876481230E+00 -0.3570605478007E+00  0.4710004297025E+00
-0.6190756745266E+00 -0.9040541802615E-01 -0.3334561126540E+00  0.4205689825042E+00
-0.5826397240100E+00 -0.7542056088275E-01 -0.3092883331151E+00  0.3718955338478E+00
-0.5433951494752E+00 -0.6225388469989E-01 -0.2846550453403E+00  0.3253158100530E+00
-0.5015891995426E+00 -0.5087689976041E-01 -0.2596590660138E+00  0.2811366100026E+00
-0.4575256633411E+00 -0.4121284273598E-01 -0.2344070972617E+00  0.2396306968069E+00
-0.4115571599721E+00 -0.3314010345088E-01 -0.2090077132787E+00  0.2010303653552E+00
-0.3640735449091E+00 -0.2649792559118E-01 -0.1835685906695E+00  0.1655205331300E+00
-0.3154868626312E+00 -0.2109434019421E-01 -0.1581931649267E+00  0.1332322324661E+00
-0.2662134609588E+00 -0.1671614956989E-01 -0.1329769166112E+00  0.1042371137290E+00
-0.2166540554627E+00 -0.1314021168647E-01 -0.1080033052862E+00  0.7854290015376E-01
-0.1671747834725E+00 -0.1014553556227E-01 -0.8334054973497E-01  0.5608843858902E-01
-0.1180977872834E+00 -0.7525536785143E-02 -0.5904296216248E-01  0.3673613011605E-01
-0.6971348246483E-01 -0.5095781169387E-02 -0.3516035381890E-01  0.2026277057218E-01
-0.7547106675902E+00 -0.2451121598057E+00 -0.4699167276842E+00  0.7738757478891E+00
-0.7389673451273E+00 -0.2207573284843E+00 -0.4510705954534E+00  0.7217971203285E+00
-0.7200797957982E+00 -0.1974431273355E+00 -0.4312357727791E+00  0.6692390728354E+00
-0.6982176079804E+00 -0.1752211758900E+00 -0.4105162273778E+00  0.6165898473094E+00
-0.6734834314121E+00 -0.1542096697035E+00 -0.3890157565376E+00  0.5642827447940E+00
-0.6459418803209E+00 -0.1345530630165E+00 -0.3668326224382E+00  0.5127374104434E+00
-0.6156567367121E+00 -0.1163861392079E+00 -0.3440601508097E+00  0.4623395432561E+00
-0.5827188966422E+00 -0.9981124646240E-01 -0.3207891664455E+00  0.4134382753661E+00
-0.5472626670905E+00 -0.8488695990595E-01 -0.2971103239347E+00  0.3663487834686E+00
-0.5094726123556E+00 -0.7162439094510E-01 -0.2731155908586E+00  0.3213544737365E+00
-0.4695835738527E+00 -0.5998804252988E-01 -0.2488986590685E+00  0.2787069596704E+00
-0.4278758080282E+00 -0.4989933169645E-01 -0.2245543151010E+00  0.2386239267377E+00
-0.3846664725766E+00 -0.4124191345455E-01 -0.2001769409269E+00  0.2012857231222E+00
-0.3402981768358E+00 -0.3386851826377E-01 -0.1758583462508E+00  0.1668316822733E+00
-0.2951249899894E+00 -0.2760922942205E-01 -0.1516850827386E+00  0.1353570461434E+00
-0.2494958893330E+00 -0.2228099328729E-01 -0.1277351345076E+00  0.1069109850723E+00
-0.2037353019430E+00 -0.1769810640546E-01 -0.1040737016598E+00  0.8149548117300E-01
-0.1581178250807E+00 -0.1368157837269E-01 -0.8074571941831E-01  0.5906319666430E-01
-0.1128417243884E+00 -0.1006932080773E-01 -0.5776819109566E-01  0.3950783786198E-01
-0.6803076387824E-01 -0.6732228668686E-02 -0.3513860640793E-01  0.2263740377627E-01
-0.7246172465843E+00 -0.2511065882320E+00 -0.4585902012005E+00  0.7592922138692E+00
-0.7071298738604E+00 -0.2276991744869E+00 -0.4393696516088E+00  0.7080376788251E+00
-0.6867753186349E+00 -0.2052129125377E+00 -0.4192344675878E+00  0.6563688028161E+00
-0.6638213266412E+00 -0.1836695054865E+00 -0.3983206900898E+00  0.6047230562111E+00
-0.6384157622214E+00 -0.1631894671259E+00 -0.3767544568377E+00  0.5535613679115E+00
-0.6106401731079E+00 -0.1439265460728E+00 -0.3546463571154E+00  0.5033019269939E+00
-0.5805629769605E+00 -0.1260207372199E+00 -0.3320943448225E+00  0.4543061268576E+00
-0.5482740079165E+00 -0.1095732086504E+00 -0.3091881910022E+00  0.4068842130594E+00
-0.5139020412137E+00 -0.9463698873670E-01 -0.2860133433512E+00  0.3613045410581E+00
-0.4776205774841E+00 -0.8121672919256E-01 -0.2626535334719E+00  0.3178003627004E+00
-0.4396462965393E+00 -0.6927283148856E-01 -0.2391919895664E+00  0.2765729683265E+00
-0.4002331072539E+00 -0.5872743520025E-01 -0.2157114544063E+00  0.2377919986744E+00
-0.3596634696785E+00 -0.4947124363562E-01 -0.1922933147699E+00  0.2015942786225E+00
-0.3182378685038E+00 -0.4137096617581E-01 -0.1690161518708E+00  0.1680824500299E+00
-0.2762627764705E+00 -0.3427744874226E-01 -0.1459539054798E+00  0.1373243969301E+00
-0.2340369448748E+00 -0.2803465268087E-01 -0.1231736505387E+00  0.1093541332752E+00
-0.1918343539793E+00 -0.2248928117876E-01 -0.1007321082688E+00  0.8417441409883E-01
-0.1498805947613E+00 -0.1750191356453E-01 -0.7866977871359E-01  0.6176060241426E-01
-0.1082978585823E+00 -0.1294864425556E-01 -0.5698585618925E-01  0.4206148796342E-01
-0.6702577532089E-01 -0.8727978524815E-02 -0.3560426421718E-01  0.2497143531448E-01
-0.6952799756846E+00 -0.2577070378655E+00 -0.4479038952325E+00  0.7451601044468E+00
-0.6761423774607E+00 -0.2352807093306E+00 -0.4283688497054E+00  0.6947815951605E+00
-0.6544500904580E+00 -0.2135892142878E+00 -0.4079784721957E+00  0.6440096552014E+00
-0.6305664175793E+00 -0.1926505276398E+00 -0.3869119632716E+00  0.5933601342741E+00
-0.6046640773571E+00 -0.1726112277537E+00 -0.3653193924755E+00  0.5433304300879E+00
-0.5768211400213E+00 -0.1536506570452E+00 -0.3433217437505E+00  0.4943352525950E+00
-0.5470946225033E+00 -0.1359229096956E+00 -0.3210182393193E+00  0.4467065667240E+00
-0.5155616554068E+00 -0.1195317655737E+00 -0.2984939071037E+00  0.4007119190916E+00
-0.4823373390462E+00 -0.1045260828648E+00 -0.2758258075986E+00  0.3565720962452E+00
-0.4475786160295E+00 -0.9090472551645E-01 -0.2530871698847E+00  0.3144726651858E+00
-0.4114808128110E+00 -0.7862472117946E-01 -0.2303496003913E+00  0.2745696613695E+00
-0.3742706447005E+00 -0.6760971691036E-01 -0.2076837694303E+00  0.2369914329921E+00
-0.3361976859931E+00 -0.5775792785466E-01 -0.1851591380388E+00  0.2018387180423E+00
-0.2975252232913E+00 -0.4894968373857E-01 -0.1628432058910E+00  0.1691845661036E+00
-0.2585208548143E+00 -0.4105497839025E-01 -0.1408006412490E+00  0.1390752412997E+00
-0.2194468460675E+00 -0.3394150953609E-01 -0.1190925268316E+00  0.1115329612933E+00
-0.1805498353626E+00 -0.2748407972284E-01 -0.9777593984218E-01  0.8656147567402E-01
-0.1420459525617E+00 -0.2157567434557E-01 -0.7690216445137E-01  0.6415614722945E-01
-0.1040971799019E+00 -0.1615009119579E-01 -0.5651621727258E-01  0.4432348430014E-01
-0.6662291564411E-01 -0.1114091857509E-01 -0.3654900199033E-01  0.2710820431562E-01
-0.6667278154085E+00 -0.2648728566828E+00 -0.4378523147723E+00  0.7314300059914E+00
-0.6459793659211E+00 -0.2434123924810E+00 -0.4180141253887E+00  0.6818995152452E+00
-0.6230466695626E+00 -0.2224286220001E+00 -0.3973733860266E+00  0.6319658613466E+00
-0.5983682661826E+00 -0.2019744633348E+00 -0.3761610819191E+00  0.5822575012734E+00
-0.5721120552968E+00 -0.1822538775420E+00 -0.3545519875349E+00  0.5333138886852E+00
-0.5443292570356E+00 -0.1634898714319E+00 -0.3326749895360E+00  0.4855392080786E+00
-0.5150500072274E+00 -0.1458565917662E+00 -0.3106261007391E+00  0.4392272539559E+00
-0.4843297358973E+00 -0.1294598916014E+00 -0.2884811241927E+00  0.3945975630788E+00
-0.4522648872526E+00 -0.1143416090698E+00 -0.2663050525961E+00  0.3518226336622E+00
-0.4189933876502E+00 -0.1004921868485E+00 -0.2441582193951E+00  0.3110434946664E+00
-0.3846884409420E+00 -0.8786355903960E-01 -0.2220994394280E+00  0.2723766336837E+00
-0.3495502863937E+00 -0.7637989691908E-01 -0.2001871856493E+00  0.2359161000885E+00
-0.3137978636222E+00 -0.6594611081461E-01 -0.1784796675326E+00  0.2017337448957E+00
-0.2776611280025E+00 -0.5645488684769E-01 -0.1570345265813E+00  0.1698795117533E+00
-0.2413743470455E+00 -0.4779313684086E-01 -0.1359087170819E+00  0.1403829176251E+00
-0.2051706810342E+00 -0.3984854818498E-01 -0.1151590374409E+00  0.1132565319532E+00
-0.1692792463640E+00 -0.3251731234841E-01 -0.9484438235425E-01  0.8850251076872E-01
-0.1339277071722E+00 -0.2571565208586E-01 -0.7503237866098E-01  0.6612513017428E-01
-0.9935645294901E-01 -0.1940070531097E-01 -0.5581586424062E-01  0.4615737119011E-01
-0.6590997002270E-01 -0.1368469900797E-01 -0.3740949434953E-01  0.2874838067264E-01
-0.6389343862444E+00 -0.2725558720194E+00 -0.4284004202974E+00  0.7180410687612E+00
-0.6165635974953E+00 -0.2519806742925E+00 -0.4082158067049E+00  0.6692333840213E+00
-0.5924583648274E+00 -0.2315497561477E+00 -0.3872838158760E+00  0.6200048917578E+00
-0.5670921073184E+00 -0.2114041998258E+00 -0.3658932634297E+00  0.5711341843412E+00
-0.5405898546951E+00 -0.1918489797120E+00 -0.3442462512982E+00  0.5232002335381E+00
-0.5129495614637E+00 -0.1731666662293E+00 -0.3224746261978E+00  0.4765804291084E+00
-0.4841616043450E+00 -0.1555505235018E+00 -0.3006646993254E+00  0.4315163044017E+00
-0.4542545662152E+00 -0.1391000079722E+00 -0.2788766491607E+00  0.3881725812055E+00
-0.4233054058652E+00 -0.1238413641385E+00 -0.2571589812495E+00  0.3466734798214E+00
-0.3914338834543E+00 -0.1097502555134E+00 -0.2355565447173E+00  0.3071200207601E+00
-0.3587927701031E+00 -0.9676966322469E-01 -0.2141143431210E+00  0.2695959727283E+00
-0.3255580546221E+00 -0.8482191489087E-01 -0.1928785851819E+00  0.2341686172429E+00
-0.2919208225859E+00 -0.7381666226551E-01 -0.1718966174442E+00  0.2008881372938E+00
-0.2580810502012E+00 -0.6365656155784E-01 -0.1512166771432E+00  0.1697876089436E+00
-0.2242430556169E+00 -0.5424174698069E-01 -0.1308878568889E+00  0.1408845381182E+00
-0.1906132376086E+00 -0.4547419551876E-01 -0.1109610932884E+00  0.1141843150575E+00
-0.1574011486094E+00 -0.3726185248650E-01 -0.9149161028300E-01  0.8968591273452E-01
-0.1248315770437E+00 -0.2952458315774E-01 -0.7254739511068E-01  0.6739068189987E-01
-0.9318160097964E-01 -0.2220080523729E-01 -0.5422973078441E-01  0.4731846484015E-01
-0.6298321160450E-01 -0.1530616321800E-01 -0.3679600607325E-01  0.2954377767594E-01
-0.6118077338190E+00 -0.2807250240388E+00 -0.4194903951292E+00  0.7049918897940E+00
-0.5877808022448E+00 -0.2609248775419E+00 -0.3988916684880E+00  0.6567295135785E+00
-0.5625646251125E+00 -0.2408307381932E+00 -0.3775958197960E+00  0.6080526236121E+00
-0.5366186147675E+00 -0.2207857905146E+00 -0.3559800695797E+00  0.5599293914461E+00
-0.5099687931422E+00 -0.2012457674652E+00 -0.3342708426376E+00  0.5129551346902E+00
-0.4825342663807E+00 -0.1825593710287E+00 -0.3125940087896E+00  0.4674483583286E+00
-0.4542566143821E+00 -0.1649209121277E+00 -0.2910134367215E+00  0.4235778753524E+00
-0.4251387235720E+00 -0.1484036467992E+00 -0.2695649133908E+00  0.3814469101485E+00
-0.3952414242359E+00 -0.1330029894342E+00 -0.2482748737952E+00  0.3411340423112E+00
-0.3646702051916E+00 -0.1186714541336E+00 -0.2271705793067E+00  0.3027073926091E+00
-0.3335607069497E+00 -0.1053390254583E+00 -0.2062828737085E+00  0.2662262913477E+00
-0.3020676686144E+00 -0.9292417109642E-01 -0.1856461641932E+00  0.2317389844170E+00
-0.2703574298693E+00 -0.8133949352210E-01 -0.1652975535747E+00  0.1992802910714E+00
-0.2386033211787E+00 -0.7049467908693E-01 -0.1452760597564E+00  0.1688707474190E+00
-0.2069836146128E+00 -0.6029841576621E-01 -0.1256225539595E+00  0.1405176800153E+00
-0.1756803758927E+00 -0.5065875666503E-01 -0.1063793920323E+00  0.1142181364947E+00
-0.1448818411471E+00 -0.4148381983456E-01 -0.8759186043923E-01  0.8996259557872E-01
-0.1147862508685E+00 -0.3267618864443E-01 -0.6930734639530E-01  0.6773718185504E-01
-0.8562995028413E-01 -0.2412526639191E-01 -0.5158495170690E-01  0.4751844610404E-01
-0.5764912468298E-01 -0.1557141229000E-01 -0.3441365229001E-01  0.2922734414916E-01
-0.5853554741962E+00 -0.2894189516028E+00 -0.4111439790827E+00  0.6922904381293E+00
-0.5596084562667E+00 -0.2701772240558E+00 -0.3899992687624E+00  0.6443575841398E+00
-0.5333788502308E+00 -0.2501134343169E+00 -0.3682413728034E+00  0.5961161572188E+00
-0.5069896640298E+00 -0.2299341888679E+00 -0.3463542099834E+00  0.5487308861266E+00
-0.4803068640337E+00 -0.2102970885212E+00 -0.3245838568775E+00  0.5027463412362E+00
-0.4531449801195E+00 -0.1915836166950E+00 -0.3030224397342E+00  0.4583694912060E+00
-0.4254007248456E+00 -0.1739473998995E+00 -0.2816936179157E+00  0.4156742392385E+00
-0.3970570076647E+00 -0.1573994621891E+00 -0.2605945401703E+00  0.3747020293403E+00
-0.3681659332395E+00 -0.1418875516412E+00 -0.2397251372859E+00  0.3354953984305E+00
-0.3388230704603E+00 -0.1273349816636E+00 -0.2190942839425E+00  0.2981010164178E+00
-0.3091493552390E+00 -0.1136582058175E+00 -0.1987195531925E+00  0.2625638845668E+00
-0.2792796308139E+00 -0.1007729855008E+00 -0.1786247292149E+00  0.2289210284473E+00
-0.2493563780271E+00 -0.8859576802345E-01 -0.1588375082409E+00  0.1971972471002E+00
-0.2195271976633E+00 -0.7704329876243E-01 -0.1393881329666E+00  0.1674032918905E+00
-0.1899443335756E+00 -0.6603101249555E-01 -0.1203084123483E+00  0.1395362609246E+00
-0.1607673815742E+00 -0.5547227701383E-01 -0.1016326392786E+00  0.1135818393259E+00
-0.1321589993537E+00 -0.4527129938920E-01 -0.8339224019766E-01  0.8951762336601E-01
-0.1042840613373E+00 -0.3532152137027E-01 -0.6561462370612E-01  0.6731231477803E-01
-0.7727405376338E-01 -0.2547206320667E-01 -0.4829067485344E-01  0.4691005609693E-01
-0.5118146134423E-01 -0.1551086201568E-01 -0.3134539189966E-01  0.2818102742397E-01
-0.5595927815637E+00 -0.2986924398482E+00 -0.4033940530405E+00  0.6799166748177E+00
-0.5320539135271E+00 -0.2795717059120E+00 -0.3814640401689E+00  0.6320391118291E+00
-0.5049438340912E+00 -0.2590884564025E+00 -0.3590951756212E+00  0.5842085394071E+00
-0.4782774893928E+00 -0.2385676424090E+00 -0.3369172110923E+00  0.5376775802717E+00
-0.4516664431390E+00 -0.2188180868648E+00 -0.3151277283025E+00  0.4928045493159E+00
-0.4248362671875E+00 -0.2001743934062E+00 -0.2937550097340E+00  0.4496191290547E+00
-0.3976415751806E+00 -0.1826516459839E+00 -0.2727378132555E+00  0.4080931336280E+00
-0.3700622947086E+00 -0.1661635672184E+00 -0.2520261544664E+00  0.3682242967491E+00
-0.3421489233214E+00 -0.1506010832419E+00 -0.2315925024973E+00  0.3300392086593E+00
-0.3139896097854E+00 -0.1358616493076E+00 -0.2114300912374E+00  0.2935788059560E+00
-0.2856903698814E+00 -0.1218544927699E+00 -0.1915460849603E+00  0.2588845834985E+00
-0.2573649824715E+00 -0.1084985402855E+00 -0.1719558552597E+00  0.2259894139162E+00
-0.2291305334377E+00 -0.9571865540772E-01 -0.1526791183701E+00  0.1949123874720E+00
-0.2011063841870E+00 -0.8344169570935E-01 -0.1337375972121E+00  0.1656564937380E+00
-0.1734166358050E+00 -0.7159345424747E-01 -0.1151547420326E+00  0.1382083918887E+00
-0.1461914619602E+00 -0.6009301128802E-01 -0.9695370218077E-01  0.1125399615181E+00
-0.1195799244685E+00 -0.4885718597410E-01 -0.7916544170723E-01  0.8861213319808E-01
-0.9371402534680E-01 -0.3777391663167E-01 -0.6179933257314E-01  0.6638242816738E-01
-0.6869500511761E-01 -0.2673369983857E-01 -0.4485149121564E-01  0.4580067805552E-01
-0.4449270073224E-01 -0.1562542872842E-01 -0.2825552077485E-01  0.2679265568635E-01
-0.5345439067782E+00 -0.3085959307084E+00 -0.3962757226136E+00  0.6677682568860E+00
-0.5050980284090E+00 -0.2886585963209E+00 -0.3730656126768E+00  0.6196444223537E+00
-0.4773206991750E+00 -0.2672393719572E+00 -0.3499432325445E+00  0.5723958357486E+00
-0.4504866822964E+00 -0.2462836014984E+00 -0.3274820325529E+00  0.5270052909190E+00
-0.4240415462210E+00 -0.2266709087047E+00 -0.3058348530394E+00  0.4834263700364E+00
-0.3975666399742E+00 -0.2083574259822E+00 -0.2847843102772E+00  0.4414796854473E+00
-0.3709237259339E+00 -0.1911472643770E+00 -0.2641733647761E+00  0.4010810497894E+00
-0.3441021366099E+00 -0.1748465548862E+00 -0.2439058843845E+00  0.3622272975312E+00
-0.3171537289576E+00 -0.1593059251391E+00 -0.2239360368575E+00  0.3249567248620E+00
-0.2901566459670E+00 -0.1444149790937E+00 -0.2042486632605E+00  0.2893198255731E+00
-0.2631987129982E+00 -0.1300898004028E+00 -0.1848456008296E+00  0.2553627145358E+00
-0.2363697841417E+00 -0.1162622492376E+00 -0.1657370552679E+00  0.2231186510805E+00
-0.2097586629304E+00 -0.1028721981397E+00 -0.1469365043302E+00  0.1926038644068E+00
-0.1834532425025E+00 -0.8986202445383E-01 -0.1284581751437E+00  0.1638155130527E+00
-0.1575422577756E+00 -0.7717106303222E-01 -0.1103152604999E+00  0.1367307555280E+00
-0.1321249745472E+00 -0.6473457294438E-01 -0.9252398708638E-01  0.1113072410522E+00
-0.1073067221583E+00 -0.5246786025717E-01 -0.7509405354483E-01  0.8748573955115E-01
-0.8327978524347E-01 -0.4032361003284E-01 -0.5809359563252E-01  0.6520322393289E-01
-0.6014133907618E-01 -0.2817015335221E-01 -0.4150640133607E-01  0.4443958276372E-01
-0.3795136872458E-01 -0.1600812358367E-01 -0.2536096132055E-01  0.2522606179735E-01
-0.5100613836895E+00 -0.3188492289545E+00 -0.3895879869545E+00  0.6555514822499E+00
-0.4788669195180E+00 -0.2965914455573E+00 -0.3644654306610E+00  0.6070567578350E+00
-0.4503347931689E+00 -0.2735335590540E+00 -0.3402181246819E+00  0.5609874456246E+00
-0.4235577475778E+00 -0.2528157350532E+00 -0.3178955360303E+00  0.5171637809737E+00
-0.3972917729220E+00 -0.2339378142151E+00 -0.2966779052020E+00  0.4749825619246E+00
-0.3711704336679E+00 -0.2163581884392E+00 -0.2761384516899E+00  0.4342093712057E+00
-0.3450839491170E+00 -0.1996874896988E+00 -0.2560425755940E+00  0.3948091226677E+00
-0.3190332504223E+00 -0.1836884176722E+00 -0.2362791834051E+00  0.3568293435416E+00
-0.2930626748207E+00 -0.1682197413074E+00 -0.2168027350303E+00  0.3203396621351E+00
-0.2672330266766E+00 -0.1531935752353E+00 -0.1976005023974E+00  0.2854057714490E+00
-0.2416096748641E+00 -0.1385502028731E+00 -0.1786751420833E+00  0.2520793461767E+00
-0.2162565371798E+00 -0.1242440331314E+00 -0.1600352676404E+00  0.2203942912260E+00
-0.1912330538640E+00 -0.1102357193222E+00 -0.1416903230381E+00  0.1903650623064E+00
-0.1665929655483E+00 -0.9648673877671E-01 -0.1236474607191E+00  0.1619852586470E+00
-0.1423868004625E+00 -0.8295588307758E-01 -0.1059110609952E+00  0.1352259612133E+00
-0.1186624003086E+00 -0.6959008436214E-01 -0.8847866757082E-01  0.1100334481607E+00
-0.9549948236891E-01 -0.5633792860978E-01 -0.7136358297898E-01  0.8632939103510E-01
-0.7295028379865E-01 -0.4306480537592E-01 -0.5452709177375E-01  0.6401050868296E-01
-0.5159299499191E-01 -0.2994061394255E-01 -0.3832079610200E-01  0.4299897351374E-01
-0.3145255164598E-01 -0.1660221272814E-01 -0.2258573919855E-01  0.2347557357897E-01
-0.4868981506766E+00 -0.3290217274788E+00 -0.3834823417604E+00  0.6423714950687E+00
-0.4521370963488E+00 -0.2998246492015E+00 -0.3534220195122E+00  0.5947068869678E+00
-0.4239068343399E+00 -0.2774711486731E+00 -0.3296476511800E+00  0.5509199680296E+00
-0.3971902459450E+00 -0.2585098400879E+00 -0.3081790396538E+00  0.5087899816090E+00
-0.3710944913828E+00 -0.2411652362154E+00 -0.2877620712413E+00  0.4677986685419E+00
-0.3453564968178E+00 -0.2246674531558E+00 -0.2679112558081E+00  0.4279398494693E+00
-0.3198848182973E+00 -0.2086622440948E+00 -0.2484171186942E+00  0.3893141881182E+00
-0.2946672795538E+00 -0.1929944726224E+00 -0.2292010229415E+00  0.3520314325123E+00
-0.2697254508292E+00 -0.1775903990953E+00 -0.2102384489313E+00  0.3161829307058E+00
-0.2450970666575E+00 -0.1624109902517E+00 -0.1915287862615E+00  0.2818382743170E+00
-0.2208249694978E+00 -0.1474313652087E+00 -0.1730804768731E+00  0.2490467813241E+00
-0.1969499895287E+00 -0.1326322317156E+00 -0.1549036435920E+00  0.2178390998665E+00
-0.1735058091018E+00 -0.1179958459390E+00 -0.1370057775217E+00  0.1882276096339E+00
-0.1505156923337E+00 -0.1035036849347E+00 -0.1193891070133E+00  0.1602053549081E+00
-0.1279895568141E+00 -0.8913244875782E-01 -0.1020473423600E+00  0.1337432027939E+00
-0.1059294977638E+00 -0.7485391528973E-01 -0.8496820391964E-01  0.1087855343545E+00
-0.8431121191840E-01 -0.6060254097124E-01 -0.6810946368538E-01  0.8524097549276E-01
-0.6321655913233E-01 -0.4636075794423E-01 -0.5150133889536E-01  0.6297941355054E-01
-0.4229991008335E-01 -0.3155645171953E-01 -0.3471248995931E-01  0.4176036102930E-01
-0.2446047462933E-01 -0.1760001957022E-01 -0.1976843222365E-01  0.2142699465249E-01
-0.4537665854582E+00 -0.3244393455600E+00 -0.3657567866508E+00  0.6261360425894E+00
-0.4250753981648E+00 -0.2978880299241E+00 -0.3397928103400E+00  0.5849912275449E+00
-0.3974404261108E+00 -0.2806731772586E+00 -0.3187133927752E+00  0.5434299690083E+00
-0.3707633525209E+00 -0.2648441069314E+00 -0.2987355051849E+00  0.5022457109556E+00
-0.3449780205779E+00 -0.2493672611856E+00 -0.2793422817203E+00  0.4618537282382E+00
-0.3197998047458E+00 -0.2339276844534E+00 -0.2602519192635E+00  0.4225316968421E+00
-0.2951060223412E+00 -0.2184883578927E+00 -0.2413893580977E+00  0.3844503085437E+00
-0.2708462111078E+00 -0.2030563258363E+00 -0.2227341917988E+00  0.3477185437806E+00
-0.2470180446444E+00 -0.1876460867282E+00 -0.2042921412270E+00  0.3124093786661E+00
-0.2236424186726E+00 -0.1722678090757E+00 -0.1860778065697E+00  0.2785736167144E+00
-0.2007487497084E+00 -0.1569267143250E+00 -0.1681074676693E+00  0.2462464833355E+00
-0.1783647348599E+00 -0.1416241799222E+00 -0.1503947895661E+00  0.2154503152358E+00
-0.1565089159213E+00 -0.1263590288261E+00 -0.1329479336941E+00  0.1861949513912E+00
-0.1351841950106E+00 -0.1111278619592E+00 -0.1157666664821E+00  0.1584763613660E+00
-0.1143727337927E+00 -0.9592509972247E-01 -0.9883998150143E-01  0.1322735259164E+00
-0.9402532620991E-01 -0.8073548912330E-01 -0.8213758299828E-01  0.1075422054706E+00
-0.7407378376071E-01 -0.6554579702787E-01 -0.6562120280419E-01  0.8420671891972E-01
-0.5430147890777E-01 -0.5020936625930E-01 -0.4912009710394E-01  0.6212733841494E-01
-0.3485034373970E-01 -0.3492233853920E-01 -0.3279316058791E-01  0.4110338384735E-01
-0.1197074827751E-01 -0.1592559671050E-01 -0.1311128211111E-01  0.2019276383542E-01
</DataArray>
<DataArray type="Float64" Name="S_Mises" NumberOfComponents="1" ComponentName0="S_Mises" format="ascii">
 0.1510182769257E+02
 0.1358276979960E+02
 0.1234847292314E+02
 0.1185429087710E+02
 0.1145487512737E+02
 0.1114280821198E+02
 0.1086669001694E+02
 0.1061213070567E+02
 0.1036894460539E+02
 0.1013206855572E+02
 0.9898622288329E+01
 0.9667301850228E+01
 0.9437965798494E+01
 0.9211715831100E+01
 0.8991801935067E+01
 0.8786146573863E+01
 0.8593743296475E+01
 0.8388575984898E+01
 0.8146950393717E+01
 0.7869459098656E+01
 0.7567229311897E+01
 0.7251618152591E+01
 0.6931425221146E+01
 0.6613139310721E+01
 0.6301688126141E+01
 0.6000767185381E+01
 0.5712616480832E+01
 0.5441369917110E+01
 0.5195918629921E+01
 0.4985968581659E+01
 0.4819714227006E+01
 0.4704925064447E+01
 0.4648878875679E+01
 0.4657277479732E+01
 0.4734415503769E+01
 0.4888036730711E+01
 0.5176714046251E+01
 0.5632745988426E+01
 0.6606974712923E+01
 0.7050384963552E+01
 0.1262047044587E+02
 0.1280186461856E+02
 0.1319745951787E+02
 0.1223263563344E+02
 0.1162732403368E+02
 0.1122640142821E+02
 0.1089562504727E+02
 0.1061170073958E+02
 0.1035212079756E+02
 0.1010702596897E+02
 0.9870257696442E+01
 0.9638462165071E+01
 0.9409903367516E+01
 0.9184060676552E+01
 0.8961603839723E+01
 0.8744229110001E+01
 0.8532400700430E+01
 0.8321174402399E+01
 0.8099820362134E+01
 0.7858377637061E+01
 0.7593963660551E+01
 0.7310545013532E+01
 0.7014871139749E+01
 0.6713492536214E+01
 0.6411877764920E+01
 0.6114393950365E+01
 0.5824571012279E+01
 0.5545792286663E+01
 0.5282334720838E+01
 0.5039797653883E+01
 0.4824404783399E+01
 0.4641988568255E+01
 0.4497437507920E+01
 0.4394382628520E+01
 0.4335201504529E+01
 0.4322291274946E+01
 0.4364924789552E+01
 0.4466846164602E+01
 0.4647603772342E+01
 0.4772830080683E+01
 0.4103354587429E+01
 0.8543510822729E+01
 0.1141643096384E+02
 0.1228200157643E+02
 0.1191695469478E+02
 0.1135821511066E+02
 0.1096074550622E+02
 0.1063273367674E+02
 0.1034676269684E+02
 0.1008663171841E+02
 0.9841859055037E+01
 0.9606528959162E+01
 0.9377046477088E+01
 0.9151438962288E+01
 0.8928842702006E+01
 0.8709238366079E+01
 0.8492325550065E+01
 0.8275407436410E+01
 0.8053947463061E+01
 0.7824263399789E+01
 0.7583219390173E+01
 0.7328204700662E+01
 0.7059506304649E+01
 0.6780375460277E+01
 0.6495193166385E+01
 0.6208229469674E+01
 0.5923207705246E+01
 0.5643479419370E+01
 0.5372548328925E+01
 0.5114134043012E+01
 0.4871918952345E+01
 0.4649639804979E+01
 0.4450820087899E+01
 0.4278005910951E+01
 0.4132342309888E+01
 0.4013819397529E+01
 0.3923098645527E+01
 0.3859825741801E+01
 0.3810589050399E+01
 0.3735011507136E+01
 0.3394516022072E+01
 0.2987111927415E+01
 0.7141646770346E+01
 0.1044828366927E+02
 0.1138221918067E+02
 0.1141510603311E+02
 0.1102904347033E+02
 0.1066313024444E+02
 0.1035061190455E+02
 0.1007114886639E+02
 0.9814604245424E+01
 0.9572767541420E+01
 0.9340343368137E+01
 0.9113983958337E+01
 0.8891649918551E+01
 0.8672199460924E+01
 0.8454860996008E+01
 0.8237957324124E+01
 0.8017863448860E+01
 0.7791307924409E+01
 0.7558081767124E+01
 0.7318455602584E+01
 0.7070794998543E+01
 0.6813821604292E+01
 0.6548427934398E+01
 0.6277127417949E+01
 0.6002984152340E+01
 0.5729022683407E+01
 0.5458229091907E+01
 0.5193754923120E+01
 0.4938574220799E+01
 0.4695034515207E+01
 0.4465102212025E+01
 0.4250425354998E+01
 0.4051766090064E+01
 0.3868615764576E+01
 0.3699570170830E+01
 0.3542901727902E+01
 0.3392595297325E+01
 0.3227023579902E+01
 0.2981761478085E+01
 0.2561494218397E+01
 0.2675980744457E+01
 0.6387667589846E+01
 0.9704475419864E+01
 0.1058500914584E+02
 0.1083972860652E+02
 0.1063587891419E+02
 0.1033568571484E+02
 0.1004957234765E+02
 0.9784159529804E+01
 0.9535569224367E+01
 0.9299261370110E+01
 0.9071324145943E+01
 0.8848990028866E+01
 0.8630368883815E+01
 0.8414133522540E+01
 0.8198936008494E+01
 0.7982407125886E+01
 0.7761003467799E+01
 0.7532674416271E+01
 0.7298957264858E+01
 0.7061788965444E+01
 0.6820420309449E+01
 0.6573061129866E+01
 0.6319161093407E+01
 0.6059759699334E+01
 0.5796812000822E+01
 0.5532610980988E+01
 0.5269627523585E+01
 0.5010455973619E+01
 0.4757308734025E+01
 0.4511525987818E+01
 0.4273813663294E+01
 0.4044450220177E+01
 0.3822968404442E+01
 0.3607938368247E+01
 0.3397259577513E+01
 0.3187964851912E+01
 0.2972649875053E+01
 0.2729625355236E+01
 0.2418545091833E+01
 0.2104535793883E+01
 0.2659129344763E+01
 0.5859623849534E+01
 0.9094896752340E+01
 0.9888782116340E+01
 0.1025459173705E+02
 0.1019972872743E+02
 0.9980327541837E+01
 0.9731321596296E+01
 0.9485953523221E+01
 0.9249384030925E+01
 0.9021113148583E+01
 0.8799240826691E+01
 0.8581890157835E+01
 0.8367513748414E+01
 0.8154743799396E+01
 0.7941920314504E+01
 0.7726489223858E+01
 0.7505392099072E+01
 0.7277553325328E+01
 0.7045368283569E+01
 0.6811532932728E+01
 0.6575935239905E+01
 0.6336743285588E+01
 0.6092594154443E+01
 0.5843440137223E+01
 0.5590276338391E+01
 0.5334669239666E+01
 0.5078495966904E+01
 0.4823725577489E+01
 0.4571862808830E+01
 0.4323471890819E+01
 0.4078383850493E+01
 0.3835974926565E+01
 0.3595075074145E+01
 0.3353946222037E+01
 0.3110537460022E+01
 0.2862260137433E+01
 0.2603640056896E+01
 0.2322164626717E+01
 0.2019873049439E+01
 0.1875774676906E+01
 0.2710306724588E+01
 0.5439622418198E+01
 0.8572058034479E+01
 0.9276177146097E+01
 0.9688560611862E+01
 0.9742683393918E+01
 0.9603093548003E+01
 0.9397970536470E+01
 0.9177440947274E+01
 0.8956262748234E+01
 0.8738321792864E+01
 0.8524013938463E+01
 0.8312611950688E+01
 0.8103080888913E+01
 0.7894178351911E+01
 0.7684189981865E+01
 0.7470701177369E+01
 0.7251260051058E+01
 0.7025517852492E+01
 0.6796255013811E+01
 0.6566447622016E+01
 0.6336391387474E+01
 0.6104393345707E+01
 0.5868675191480E+01
 0.5628427565967E+01
 0.5383852021300E+01
 0.5135830874782E+01
 0.4885630935684E+01
 0.4634602307400E+01
 0.4383627472098E+01
 0.4132683105331E+01
 0.3881030981698E+01
 0.3627546871356E+01
 0.3370820446187E+01
 0.3109329926627E+01
 0.2841811985804E+01
 0.2567427440106E+01
 0.2285264613327E+01
 0.1997148120679E+01
 0.1745772076821E+01
 0.1773868117157E+01
 0.2751146862199E+01
 0.5084720010401E+01
 0.8108695523839E+01
 0.8729944333810E+01
 0.9152539132543E+01
 0.9280993355035E+01
 0.9211701835969E+01
 0.9052429966160E+01
 0.8859951937436E+01
 0.8656761994151E+01
 0.8451087771242E+01
 0.8245702857385E+01
 0.8041177738263E+01
 0.7837130894611E+01
 0.7632602040347E+01
 0.7426032714356E+01
 0.7215336344919E+01
 0.6998666009014E+01
 0.6776199132141E+01
 0.6550845870671E+01
 0.6325610805155E+01
 0.6101023744830E+01
 0.5875577381789E+01
 0.5647313519783E+01
 0.5414911568959E+01
 0.5177940648694E+01
 0.4936668639531E+01
 0.4691780364386E+01
 0.4444054989266E+01
 0.4193851906918E+01
 0.3940723669839E+01
 0.3683611324590E+01
 0.3421221731234E+01
 0.3152287977322E+01
 0.2875941590749E+01
 0.2592307276281E+01
 0.2303263920796E+01
 0.2013973415246E+01
 0.1741347747427E+01
 0.1559786847489E+01
 0.1734310746911E+01
 0.2761980753093E+01
 0.4774443214596E+01
 0.7688100484936E+01
 0.8236028548221E+01
 0.8648955921367E+01
 0.8824982356950E+01
 0.8813394865389E+01
 0.8698134368629E+01
 0.8535127428416E+01
 0.8351688239937E+01
 0.8159789702491E+01
 0.7964487772306E+01
 0.7767693321627E+01
 0.7569774030074E+01
 0.7370180250911E+01
 0.7167662225276E+01
 0.6960559564739E+01
 0.6747580666270E+01
 0.6529279803778E+01
 0.6308560272525E+01
 0.6088326817033E+01
 0.5869222863475E+01
 0.5649916809918E+01
 0.5428402746620E+01
 0.5203031095327E+01
 0.4972882388450E+01
 0.4737695193515E+01
 0.4497629556280E+01
 0.4252964478934E+01
 0.4003639473081E+01
 0.3748927095463E+01
 0.3487650547634E+01
 0.3218611902070E+01
 0.2940989115349E+01
 0.2654898396069E+01
 0.2362256519398E+01
 0.2068170532595E+01
 0.1784191568554E+01
 0.1540474294903E+01
 0.1433203762169E+01
 0.1719332871264E+01
 0.2742684791978E+01
 0.4496827733900E+01
 0.7299479585929E+01
 0.7783590145621E+01
 0.8176500859795E+01
 0.8380553488685E+01
 0.8414014225992E+01
 0.8338553461301E+01
 0.8204799201266E+01
 0.8042017712613E+01
 0.7864945728465E+01
 0.7680650213639E+01
 0.7492333986297E+01
 0.7301157893410E+01
 0.7107072770305E+01
 0.6909236893012E+01
 0.6706456725871E+01
 0.6497932368449E+01
 0.6284488227803E+01
 0.6068950517076E+01
 0.5854063648773E+01
 0.5640505638688E+01
 0.5427090927871E+01
 0.5211835506036E+01
 0.4992888896598E+01
 0.4768965201311E+01
 0.4539363968198E+01
 0.4303793682822E+01
 0.4062114783418E+01
 0.3813948028140E+01
 0.3558412079848E+01
 0.3294375670250E+01
 0.3020937997493E+01
 0.2737941348918E+01
 0.2446702139843E+01
 0.2151124083013E+01
 0.1859615072192E+01
 0.1589553802067E+01
 0.1381570911526E+01
 0.1344664708576E+01
 0.1708822008628E+01
 0.2698313401589E+01
 0.4243884093084E+01
 0.6935548036615E+01
 0.7364389639522E+01
 0.7732406756691E+01
 0.7950666928997E+01
 0.8017848232453E+01
 0.7976825659118E+01
 0.7870839954265E+01
 0.7728824864793E+01
 0.7567171645194E+01
 0.7394550551992E+01
 0.7215329906784E+01
 0.7031457352558E+01
 0.6843432697214E+01
 0.6650876475812E+01
 0.6453066889214E+01
 0.6249632480956E+01
 0.6041593067860E+01
 0.5831665016697E+01
 0.5622409319583E+01
 0.5414489404714E+01
 0.5206833089404E+01
 0.4997511688579E+01
 0.4784561956742E+01
 0.4566432092750E+01
 0.4342070832445E+01
 0.4110814736179E+01
 0.3872190144787E+01
 0.3625593958289E+01
 0.3370098955101E+01
 0.3104747191120E+01
 0.2829080414151E+01
 0.2543746466939E+01
 0.2251363857679E+01
 0.1957825646088E+01
 0.1674570265046E+01
 0.1423785902061E+01
 0.1253815651266E+01
 0.1278887585554E+01
 0.1693084929007E+01
 0.2634345379555E+01
 0.4009873834910E+01
 0.6591201953069E+01
 0.6972157669777E+01
 0.7313518035822E+01
 0.7536442357367E+01
 0.7627818188970E+01
 0.7615573543388E+01
 0.7535028194796E+01
 0.7413214027586E+01
 0.7267140880197E+01
 0.7106604330296E+01
 0.6936951595672E+01
 0.6760866308273E+01
 0.6579407216155E+01
 0.6392675181828E+01
 0.6200402885290E+01
 0.6002589490104E+01
 0.5800398236617E+01
 0.5596423858845E+01
 0.5393041181653E+01
 0.5190870461524E+01
 0.4988924045293E+01
 0.4785342095461E+01
 0.4578108549462E+01
 0.4365486822695E+01
 0.4146156493206E+01
 0.3919161532162E+01
 0.3683776106619E+01
 0.3439259084201E+01
 0.3184727089027E+01
 0.2919490867338E+01
 0.2643629621461E+01
 0.2358666950299E+01
 0.2068523860663E+01
 0.1780929752416E+01
 0.1509867405628E+01
 0.1281194438432E+01
 0.1148554453761E+01
 0.1225359846436E+01
 0.1668069655784E+01
 0.2555360410946E+01
 0.3790511245917E+01
 0.6262748205860E+01
 0.6602086598610E+01
 0.6916767600422E+01
 0.7137903398890E+01
 0.7245763451363E+01
 0.7256857323585E+01
 0.7198954342190E+01
 0.7096258856443E+01
 0.6965547793556E+01
 0.6817259387583E+01
 0.6657495929093E+01
 0.6489590677767E+01
 0.6315138605658E+01
 0.6134711077418E+01
 0.5948464289550E+01
 0.5756716602025E+01
 0.5560738222442E+01
 0.5363001823912E+01
 0.5165703921789E+01
 0.4969406796299E+01
 0.4773184435084E+01
 0.4575249144404E+01
 0.4373572700507E+01
 0.4166298398061E+01
 0.3951909423128E+01
 0.3729231790731E+01
 0.3497363272788E+01
 0.3255499636931E+01
 0.3002872958734E+01
 0.2739128655049E+01
 0.2464934118490E+01
 0.2182697790988E+01
 0.1897560825224E+01
 0.1618827566752E+01
 0.1362441998019E+01
 0.1156867580701E+01
 0.1059051915746E+01
 0.1177141942405E+01
 0.1632589863459E+01
 0.2464863413296E+01
 0.3582523251679E+01
 0.5947438189207E+01
 0.6250449332105E+01
 0.6539367784955E+01
 0.6754455889113E+01
 0.6872718409298E+01
 0.6902208899673E+01
 0.6863970910104E+01
 0.6778955146953E+01
 0.6663075692565E+01
 0.6526974976696E+01
 0.6377273228200E+01
 0.6217842172338E+01
 0.6050764772029E+01
 0.5877052384292E+01
 0.5697245329180E+01
 0.5511935484723E+01
 0.5322473796385E+01
 0.5131216109750E+01
 0.4940193478212E+01
 0.4749904350167E+01
 0.4559467454745E+01
 0.4367165838230E+01
 0.4170986791011E+01
 0.3969004620825E+01
 0.3759569109329E+01
 0.3541355599686E+01
 0.3313352855096E+01
 0.3074756592935E+01
 0.2824968453055E+01
 0.2564008328310E+01
 0.2293145097323E+01
 0.2015631580831E+01
 0.1737685803791E+01
 0.1469864084834E+01
 0.1229480321985E+01
 0.1046703479673E+01
 0.9801756348707E+00
 0.1129845788873E+01
 0.1586825897291E+01
 0.2365443083471E+01
 0.3383373400184E+01
 0.5643174955172E+01
 0.5914320908101E+01
 0.6178865941496E+01
 0.6385185476171E+01
 0.6509143694465E+01
 0.6552703278821E+01
 0.6531177930411E+01
 0.6462189238865E+01
 0.6360370905725E+01
 0.6236203622850E+01
 0.6096595732638E+01
 0.5945832668938E+01
 0.5786419104867E+01
 0.5619761335359E+01
 0.5446739408781E+01
 0.5268177683519E+01
 0.5085488084885E+01
 0.4900917143520E+01
 0.4716345044300E+01
 0.4532206140182E+01
 0.4347652175905E+01
 0.4161033829503E+01
 0.3970372913514E+01
 0.3773714926221E+01
 0.3569329461625E+01
 0.3355799757417E+01
 0.3132063347201E+01
 0.2897366768283E+01
 0.2651318944177E+01
 0.2394331317042E+01
 0.2128257047231E+01
 0.1857115467136E+01
 0.1588019105130E+01
 0.1332431148278E+01
 0.1108490348544E+01
 0.9473518716767E+00
 0.9080910184909E+00
 0.1080830374243E+01
 0.1531551185440E+01
 0.2258988381260E+01
 0.3191075188271E+01
 0.5348323180322E+01
 0.5591376595913E+01
 0.5833138725091E+01
 0.6029037880884E+01
 0.6155105191402E+01
 0.6209040743043E+01
 0.6201432059606E+01
 0.6146720994123E+01
 0.6058023616241E+01
 0.5945376191808E+01
 0.5815767674347E+01
 0.5673769128336E+01
 0.5522229708212E+01
 0.5362896212236E+01
 0.5196941385484E+01
 0.5025384627560E+01
 0.4849682987711E+01
 0.4671981493320E+01
 0.4494023947489E+01
 0.4316183633036E+01
 0.4137637693604E+01
 0.3956801121693E+01
 0.3771743448906E+01
 0.3580512706863E+01
 0.3381342265209E+01
 0.3172772625545E+01
 0.2953737827274E+01
 0.2723574181773E+01
 0.2482120715486E+01
 0.2230178375777E+01
 0.1970143794060E+01
 0.1706699317811E+01
 0.1447649990835E+01
 0.1205027449725E+01
 0.9973218403021E+00
 0.8561207555668E+00
 0.8399897338225E+00
 0.1028610942665E+01
 0.1467748813182E+01
 0.2146880907002E+01
 0.3004060782686E+01
 0.5061582257635E+01
 0.5279745227351E+01
 0.5500361270660E+01
 0.5684924846409E+01
 0.5810406583658E+01
 0.5871625581444E+01
 0.5875369282899E+01
 0.5833178563902E+01
 0.5756555330579E+01
 0.5654890369604E+01
 0.5535077064349E+01
 0.5401849089899E+01
 0.5258318172717E+01
 0.5106512090276E+01
 0.4947848362557E+01
 0.4783506795749E+01
 0.4614975920196E+01
 0.4444306258577E+01
 0.4273118590775E+01
 0.4101729881962E+01
 0.3929338125444E+01
 0.3754419738395E+01
 0.3575101201583E+01
 0.3389457278373E+01
 0.3195720599765E+01
 0.2992429220614E+01
 0.2778551513146E+01
 0.2553541297936E+01
 0.2317477407450E+01
 0.2071532802263E+01
 0.1818589741853E+01
 0.1563875127030E+01
 0.1315680678961E+01
 0.1086292862933E+01
 0.8941559416104E+00
 0.7708756705284E+00
 0.7738585630931E+00
 0.9724454464952E+00
 0.1396430757285E+01
 0.2030149918585E+01
 0.2821087990342E+01
 0.4781899339538E+01
 0.4977901983957E+01
 0.5178968605276E+01
 0.5351783851110E+01
 0.5474684575623E+01
 0.5540635024511E+01
 0.5553433822776E+01
 0.5522061670539E+01
 0.5456412218050E+01
 0.5365102488967E+01
 0.5254789221188E+01
 0.5130256798571E+01
 0.4994798083883E+01
 0.4850660713962E+01
 0.4699459532100E+01
 0.4542502404402E+01
 0.4381296860954E+01
 0.4217804538035E+01
 0.4053534904825E+01
 0.3888754045235E+01
 0.3722678411196E+01
 0.3553843550566E+01
 0.3380439323236E+01
 0.3200585603365E+01
 0.3012542172741E+01
 0.2814876346668E+01
 0.2606619287330E+01
 0.2387359851785E+01
 0.2157415229028E+01
 0.1918301048011E+01
 0.1673316342683E+01
 0.1428108248212E+01
 0.1191257142862E+01
 0.9750244363462E+00
 0.7974793634120E+00
 0.6899433472683E+00
 0.7082920200968E+00
 0.9120531966851E+00
 0.1318553286368E+01
 0.1909601556664E+01
 0.2641175169359E+01
 0.4508408366663E+01
 0.4684589352112E+01
 0.4867617253445E+01
 0.5028609497438E+01
 0.5147475728264E+01
 0.5216076450065E+01
 0.5235908417859E+01
 0.5213750396026E+01
 0.5157963216042E+01
 0.5076322415580E+01
 0.4975141989476E+01
 0.4859160012997E+01
 0.4731773448411E+01
 0.4595389832066E+01
 0.4451775437174E+01
 0.4302335853271E+01
 0.4148585689235E+01
 0.3992401709895E+01
 0.3835191930483E+01
 0.3677176993087E+01
 0.3517590831431E+01
 0.3355026359580E+01
 0.3187741174265E+01
 0.3013913856534E+01
 0.2831852531190E+01
 0.2640177624920E+01
 0.2438002983389E+01
 0.2225061037082E+01
 0.2001896769242E+01
 0.1770330683165E+01
 0.1534004049566E+01
 0.1298861437525E+01
 0.1073589619891E+01
 0.8701807258956E+00
 0.7060526256359E+00
 0.6120271326486E+00
 0.6423390134089E+00
 0.8474500914436E+00
 0.1234936575574E+01
 0.1785949449995E+01
 0.2463589116843E+01
 0.4240386420553E+01
 0.4398758275847E+01
 0.4565150353101E+01
 0.4714467850876E+01
 0.4828262412644E+01
 0.4897833198959E+01
 0.4922943124663E+01
 0.4908517053711E+01
 0.4861501712320E+01
 0.4788811061239E+01
 0.4696342525767E+01
 0.4588707519536E+01
 0.4469337188557E+01
 0.4340742242339E+01
 0.4204796913560E+01
 0.4062976087439E+01
 0.3916789798784E+01
 0.3768032344601E+01
 0.3618018266113E+01
 0.3466927779249E+01
 0.3314012155671E+01
 0.3157920275945E+01
 0.2996980212863E+01
 0.2829438885579E+01
 0.2653668127054E+01
 0.2468358317816E+01
 0.2272718284580E+01
 0.2066624909754E+01
 0.1850833322954E+01
 0.1627425793215E+01
 0.1400310173597E+01
 0.1175612990268E+01
 0.9619657429110E+00
 0.7708803833520E+00
 0.6188784936882E+00
 0.5361365177773E+00
 0.5753804949904E+00
 0.7788554505244E+00
 0.1146266406168E+01
 0.1659657871582E+01
 0.2288144763988E+01
 0.3977221886243E+01
 0.4119523895893E+01
 0.4270567352287E+01
 0.4408500754100E+01
 0.4516503739989E+01
 0.4585700341289E+01
 0.4614581177395E+01
 0.4606539360921E+01
 0.4567249702197E+01
 0.4502780024476E+01
 0.4418565475434E+01
 0.4319027346417E+01
 0.4207569816249E+01
 0.4086754730335E+01
 0.3958523894559E+01
 0.3824394981597E+01
 0.3685861977739E+01
 0.3544637626805E+01
 0.3401949192146E+01
 0.3257940806917E+01
 0.3111881334185E+01
 0.2962474399291E+01
 0.2808119961368E+01
 0.2647139601773E+01
 0.2477979218241E+01
 0.2299409876561E+01
 0.2110741134282E+01
 0.1911988917283E+01
 0.1704095718727E+01
 0.1489359973713E+01
 0.1271883231172E+01
 0.1057870330034E+01
 0.8557595343101E+00
 0.6763994770541E+00
 0.5351784147899E+00
 0.4615204576358E+00
 0.5070754026701E+00
 0.7065205838180E+00
 0.1053473959325E+01
 0.1530035320236E+01
 0.2117002557501E+01
 0.3718390830231E+01
 0.3846131913038E+01
 0.3982998313100E+01
 0.4109924453012E+01
 0.4211655858022E+01
 0.4279412045796E+01
 0.4310781328178E+01
 0.4307913697270E+01
 0.4275363488820E+01
 0.4218392855405E+01
 0.4141952330104E+01
 0.4050225640746E+01
 0.3946538359052E+01
 0.3833457031930E+01
 0.3712954204683E+01
 0.3586565816357E+01
 0.3455758543248E+01
 0.3322163197333E+01
 0.3186924335793E+01
 0.3050153556632E+01
 0.2911137653159E+01
 0.2768633783035E+01
 0.2621114069746E+01
 0.2466978315888E+01
 0.2304752590006E+01
 0.2133294162737E+01
 0.1952013593482E+01
 0.1761055512437E+01
 0.1561523692445E+01
 0.1355887177859E+01
 0.1148374442126E+01
 0.9451807216275E+00
 0.7544392319080E+00
 0.5861747110507E+00
 0.4543780515408E+00
 0.3876289174690E+00
 0.4372547724742E+00
 0.6309548396799E+00
 0.9567513783915E+00
 0.1399324384276E+01
 0.1939480304848E+01
 0.3463439199518E+01
 0.3577932762528E+01
 0.3701682409038E+01
 0.3818025184750E+01
 0.3913184821547E+01
 0.3978662174376E+01
 0.4011436622343E+01
 0.4012667687675E+01
 0.3985940196434E+01
 0.3935767486059E+01
 0.3866611747423E+01
 0.3782386150973E+01
 0.3686295580806E+01
 0.3580870911066E+01
 0.3468082432069E+01
 0.3349461896770E+01
 0.3226437724924E+01
 0.3100557355215E+01
 0.2972885780396E+01
 0.2843504778844E+01
 0.2711719287897E+01
 0.2576338662288E+01
 0.2435906484022E+01
 0.2288902029844E+01
 0.2133934090074E+01
 0.1969947318148E+01
 0.1796449116275E+01
 0.1613698854104E+01
 0.1422933910340E+01
 0.1226750738024E+01
 0.1029447228544E+01
 0.8371409067267E+00
 0.6575786980755E+00
 0.4998199692619E+00
 0.3761230664683E+00
 0.3140618580798E+00
 0.3659758810478E+00
 0.5526161709157E+00
 0.8571163000884E+00
 0.1265993322060E+01
 0.1762860568680E+01
 0.3211969214913E+01
 0.3314361586175E+01
 0.3425950054464E+01
 0.3532153323180E+01
 0.3620574340314E+01
 0.3683119538386E+01
 0.3716389850847E+01
 0.3720771681141E+01
 0.3699024555055E+01
 0.3654979431339E+01
 0.3592620619692E+01
 0.3515570240217E+01
 0.3426879511415E+01
 0.3329009409998E+01
 0.3223898938216E+01
 0.3113055344585E+01
 0.2997858290053E+01
 0.2879769574901E+01
 0.2759776548135E+01
 0.2637933075269E+01
 0.2513562197218E+01
 0.2385523918174E+01
 0.2252431715673E+01
 0.2112843686156E+01
 0.1965450972195E+01
 0.1809283269139E+01
 0.1643937235709E+01
 0.1469770629666E+01
 0.1288126786647E+01
 0.1101690982712E+01
 0.9147857325384E+00
 0.7334084538927E+00
 0.5648790718051E+00
 0.4171773630484E+00
 0.3003522063123E+00
 0.2405569209263E+00
 0.2935070217324E+00
 0.4723009431585E+00
 0.7551184659340E+00
 0.1130921818091E+01
 0.1587108893529E+01
 0.2963628832842E+01
 0.3054922548572E+01
 0.3155208095091E+01
 0.3251717021786E+01
 0.3333330036725E+01
 0.3392439019862E+01
 0.3425446055644E+01
 0.3432148927126E+01
 0.3414615577673E+01
 0.3376065438313E+01
 0.3320025695058E+01
 0.3249817346950E+01
 0.3168313278922E+01
 0.3077876303214E+01
 0.2980389040692E+01
 0.2877316082500E+01
 0.2769978402610E+01
 0.2659749304511E+01
 0.2547539402461E+01
 0.2433375810036E+01
 0.2316599311111E+01
 0.2196118750972E+01
 0.2070615202073E+01
 0.1938723372551E+01
 0.1799214044140E+01
 0.1651196860319E+01
 0.1494347668562E+01
 0.1329105058114E+01
 0.1156892295344E+01
 0.9804519943477E+00
 0.8041039134762E+00
 0.6337192396246E+00
 0.4762156894734E+00
 0.3384490690512E+00
 0.2275589790834E+00
 0.1669828950674E+00
 0.2206098932560E+00
 0.3911641634571E+00
 0.6516972394891E+00
 0.9949369962751E+00
 0.1412094361233E+01
 0.2718103483642E+01
 0.2799176439013E+01
 0.2888927538981E+01
 0.2976175890814E+01
 0.3050981361663E+01
 0.3106269533602E+01
 0.3138382509064E+01
 0.3146684407171E+01
 0.3132672886886E+01
 0.3099027338303E+01
 0.3048845585309E+01
 0.2985145813981E+01
 0.2910605228921E+01
 0.2827465773998E+01
 0.2737532395064E+01
 0.2642211026895E+01
 0.2542754715707E+01
 0.2440445027117E+01
 0.2336115938468E+01
 0.2229768313973E+01
 0.2120759981470E+01
 0.2008046545760E+01
 0.1890373754983E+01
 0.1766449485963E+01
 0.1635119625876E+01
 0.1495566626614E+01
 0.1347533866921E+01
 0.1191523167099E+01
 0.1029015056005E+01
 0.8627883557297E+00
 0.6971578583244E+00
 0.5379203511697E+00
 0.3917446003775E+00
 0.2645500619042E+00
 0.1597403801277E+00
 0.9348767370568E-01
 0.1495349035982E+00
 0.3113342237150E+00
 0.5482779462793E+00
 0.8589209506739E+00
 0.1237942456201E+01
 0.2475109520238E+01
 0.2546730780611E+01
 0.2626633376879E+01
 0.2705034997350E+01
 0.2773081967871E+01
 0.2824259601485E+01
 0.2854956578423E+01
 0.2864232373550E+01
 0.2853122549096E+01
 0.2823835921918E+01
 0.2779073023794E+01
 0.2721554012498E+01
 0.2653749309689E+01
 0.2577762321844E+01
 0.2495302593501E+01
 0.2407703502440E+01
 0.2316141701093E+01
 0.2221803577679E+01
 0.2125445944729E+01
 0.2027043361916E+01
 0.1925969679679E+01
 0.1821224923644E+01
 0.1711616099638E+01
 0.1595919863750E+01
 0.1473051327187E+01
 0.1342257216865E+01
 0.1203336053640E+01
 0.1056836470658E+01
 0.9042791258906E+00
 0.7484733622235E+00
 0.5937667422529E+00
 0.4460399218740E+00
 0.3121620817256E+00
 0.1981182394638E+00
 0.1044914092483E+00
 0.2388978361225E-01
 0.8969818385595E-01
 0.2374811038400E+00
 0.4472636263734E+00
 0.7241572484803E+00
 0.1065124021326E+01
 0.2234388966765E+01
 0.2297231868789E+01
 0.2367896112335E+01
 0.2437839327603E+01
 0.2499209093965E+01
 0.2546061140410E+01
 0.2574911853211E+01
 0.2584622702904E+01
 0.2575862352179E+01
 0.2550434717400E+01
 0.2510677271476E+01
 0.2459021702903E+01
 0.2397725705694E+01
 0.2328740909618E+01
 0.2253667000130E+01
 0.2173752899712E+01
 0.2090091233154E+01
 0.2003769728029E+01
 0.1915467044561E+01
 0.1825130929549E+01
 0.1732149950622E+01
 0.1635565994331E+01
 0.1534243525651E+01
 0.1427022904544E+01
 0.1312881664073E+01
 0.1191121488430E+01
 0.1061583790227E+01
 0.9248502416570E+00
 0.7824732709745E+00
 0.6373117741801E+00
 0.4938552281718E+00
 0.3584515292817E+00
 0.2393916081993E+00
 0.1464249820725E+00
 0.8725527089065E-01
 0.5953046910634E-01
 0.8056295982008E-01
 0.1811619747944E+00
 0.3533965447888E+00
 0.5929174786861E+00
 0.8946803092839E+00
 0.1995705265454E+01
 0.2050358306184E+01
 0.2112324687554E+01
 0.2174168762185E+01
 0.2228962339113E+01
 0.2271331928633E+01
 0.2297982869299E+01
 0.2307666204075E+01
 0.2300766521912E+01
 0.2278743607070E+01
 0.2243606607277E+01
 0.2197511597970E+01
 0.2142501717682E+01
 0.2080367373003E+01
 0.2012586859565E+01
 0.1940314618820E+01
 0.1864552473531E+01
 0.1786286087693E+01
 0.1706114665937E+01
 0.1623958281420E+01
 0.1539218678680E+01
 0.1450976869469E+01
 0.1358150709242E+01
 0.1259638730830E+01
 0.1154473550771E+01
 0.1042002297395E+01
 0.9220981407955E+00
 0.7953667216145E+00
 0.6633983523956E+00
 0.5291645096703E+00
 0.3975520855204E+00
 0.2763076219990E+00
 0.1784932590619E+00
 0.1257439085031E+00
 0.1237321626056E+00
 0.1335417492191E+00
 0.1355930723137E+00
 0.1656366093643E+00
 0.2770951386793E+00
 0.4698157439840E+00
 0.7287909218658E+00
 0.1758839797235E+01
 0.1805815706459E+01
 0.1859560547428E+01
 0.1913633564914E+01
 0.1961962088938E+01
 0.1999737110462E+01
 0.2023898724296E+01
 0.2033159039760E+01
 0.2027689923668E+01
 0.2008662272730E+01
 0.1977790887967E+01
 0.1936971135207E+01
 0.1888032925354E+01
 0.1832599154128E+01
 0.1772017760395E+01
 0.1707340396321E+01
 0.1639472167011E+01
 0.1569293443663E+01
 0.1497322474675E+01
 0.1423450534999E+01
 0.1347090818438E+01
 0.1267360591688E+01
 0.1183226852745E+01
 0.1093640512917E+01
 0.9976817421663E+00
 0.8947340154000E+00
 0.7846935259457E+00
 0.6681889997889E+00
 0.5468809045105E+00
 0.4240060687441E+00
 0.3054553797741E+00
 0.2028296438416E+00
 0.1417353702538E+00
 0.1474464055748E+00
 0.1837558959937E+00
 0.2087992859627E+00
 0.2105572176649E+00
 0.2032795778258E+00
 0.2390842403714E+00
 0.3651875853585E+00
 0.5722473370518E+00
 0.1523589006849E+01
 0.1563332317021E+01
 0.1609272631714E+01
 0.1655870359557E+01
 0.1697847774133E+01
 0.1730950025926E+01
 0.1752385852612E+01
 0.1760886448380E+01
 0.1756471857238E+01
 0.1740073537365E+01
 0.1713144243850E+01
 0.1677334548983E+01
 0.1634264758202E+01
 0.1585386521642E+01
 0.1531910651350E+01
 0.1474779247925E+01
 0.1414795616512E+01
 0.1352731842476E+01
 0.1289023608217E+01
 0.1223532067472E+01
 0.1155679976601E+01
 0.1084617867907E+01
 0.1009357502463E+01
 0.9288962448130E+00
 0.8423543973540E+00
 0.7491438164953E+00
 0.6491794420080E+00
 0.5431274619922E+00
 0.4328049709883E+00
 0.3220846410995E+00
 0.2194850098017E+00
 0.1472493445629E+00
 0.1453772397274E+00
 0.1967060171946E+00
 0.2505421655185E+00
 0.2845359234591E+00
 0.2912817235686E+00
 0.2745964689407E+00
 0.2593963036619E+00
 0.3013121546416E+00
 0.4364606503535E+00
 0.1289762003529E+01
 0.1322655367984E+01
 0.1361153124666E+01
 0.1400538560210E+01
 0.1436276100199E+01
 0.1464652618618E+01
 0.1483170241226E+01
 0.1490626021192E+01
 0.1486939668527E+01
 0.1472846820638E+01
 0.1449568153157E+01
 0.1418525535311E+01
 0.1381134832319E+01
 0.1338674708566E+01
 0.1292213921348E+01
 0.1242579624776E+01
 0.1190469028207E+01
 0.1136543203033E+01
 0.1081153594016E+01
 0.1024129733480E+01
 0.9649018715350E+00
 0.9026506436361E+00
 0.8364280129476E+00
 0.7652717540162E+00
 0.6883352174004E+00
 0.6050528125995E+00
 0.5153624879341E+00
 0.4200148815290E+00
 0.3212063193397E+00
 0.2244843227499E+00
 0.1462325030970E+00
 0.1302255555618E+00
 0.1850915609361E+00
 0.2573014088879E+00
 0.3195695749398E+00
 0.3605627444141E+00
 0.3746005052933E+00
 0.3611776411686E+00
 0.3290127702017E+00
 0.3069895716573E+00
 0.3483682769553E+00
 0.1057178537980E+01
 0.1083547997578E+01
 0.1114913824670E+01
 0.1147317230810E+01
 0.1176919393243E+01
 0.1200535720999E+01
 0.1215979490369E+01
 0.1222151006985E+01
 0.1218912713847E+01
 0.1206842327538E+01
 0.1186955628414E+01
 0.1160461386615E+01
 0.1128577101505E+01
 0.1092408212525E+01
 0.1052878010636E+01
 0.1010694501110E+01
 0.9664452221816E+00
 0.9206777522346E+00
 0.8736575432497E+00
 0.8251807570225E+00
 0.7746827367826E+00
 0.7213706531948E+00
 0.6643316308959E+00
 0.6026373961125E+00
 0.5354676056229E+00
 0.4622772456225E+00
 0.3830502277574E+00
 0.2987553211904E+00
 0.2126477696567E+00
 0.1358888873831E+00
 0.1088400160390E+00
 0.1615663052235E+00
 0.2425409796831E+00
 0.3222685443906E+00
 0.3893894263577E+00
 0.4367608796821E+00
 0.4594347956661E+00
 0.4550671861759E+00
 0.4254221754583E+00
 0.3805999127088E+00
 0.3481788529531E+00
 0.8256672789618E+00
 0.8457866367242E+00
 0.8702830280620E+00
 0.8959024027788E+00
 0.9194643444682E+00
 0.9382998151916E+00
 0.9505456468211E+00
 0.9552349044264E+00
 0.9522082853638E+00
 0.9419179632562E+00
 0.9251989446950E+00
 0.9030615277649E+00
 0.8765313314961E+00
 0.8465414341130E+00
 0.8138674988651E+00
 0.7790952237330E+00
 0.7426995387845E+00
 0.7051122062944E+00
 0.6665106754422E+00
 0.6266554361606E+00
 0.5849836980460E+00
 0.5407244496820E+00
 0.4929934046531E+00
 0.4408880188373E+00
 0.3836068058834E+00
 0.3206305835733E+00
 0.2520645297722E+00
 0.1795635037931E+00
 0.1107017120225E+00
 0.8292289590572E-01
 0.1365385557394E+00
 0.2199619689800E+00
 0.3070599744041E+00
 0.3889387669038E+00
 0.4594081003911E+00
 0.5130238243727E+00
 0.5452594754218E+00
 0.5529872046226E+00
 0.5350421484521E+00
 0.4936165428763E+00
 0.4373648551383E+00
 0.5950643322877E+00
 0.6091587616538E+00
 0.6270028698168E+00
 0.6460051239900E+00
 0.6636121532193E+00
 0.6776583332038E+00
 0.6866121669379E+00
 0.6896621465822E+00
 0.6866558835651E+00
 0.6779470975490E+00
 0.6642109756026E+00
 0.6462727337902E+00
 0.6249727442110E+00
 0.6010735075999E+00
 0.5752020639551E+00
 0.5478196710600E+00
 0.5192862989538E+00
 0.4899154726937E+00
 0.4597937965923E+00
 0.4286422412963E+00
 0.3958942341927E+00
 0.3607922030220E+00
 0.3224683626346E+00
 0.2800296086754E+00
 0.2326766516789E+00
 0.1799324834888E+00
 0.1223361399440E+00
 0.6578125394154E-01
 0.5733582630043E-01
 0.1213719478296E+00
 0.2025139421577E+00
 0.2884094852411E+00
 0.3743796565202E+00
 0.4561807302465E+00
 0.5293267570731E+00
 0.5892454391514E+00
 0.6317423545532E+00
 0.6533857423461E+00
 0.6517166871325E+00
 0.6257475106431E+00
 0.5768118855504E+00
 0.3652119788450E+00
 0.3734609548721E+00
 0.3848272679937E+00
 0.3973521172118E+00
 0.4090858957288E+00
 0.4183553322392E+00
 0.4239644206537E+00
 0.4252730494635E+00
 0.4221578481912E+00
 0.4148962744023E+00
 0.4040219467375E+00
 0.3901877419238E+00
 0.3740563433452E+00
 0.3562233660302E+00
 0.3371685615615E+00
 0.3172288781853E+00
 0.2966485182350E+00
 0.2756202674389E+00
 0.2541349631676E+00
 0.2318661476152E+00
 0.2082311023445E+00
 0.1824660683249E+00
 0.1536869393888E+00
 0.1209498049311E+00
 0.8333474299710E-01
 0.4019585407213E-01
 0.1345674106402E-01
 0.6836420196920E-01
 0.1323790890639E+00
 0.2032582560035E+00
 0.2798851777971E+00
 0.3605300752740E+00
 0.4427574905221E+00
 0.5234564007015E+00
 0.5989655331607E+00
 0.6653168741651E+00
 0.7186316636078E+00
 0.7554030459930E+00
 0.7725613177020E+00
 0.7676970013552E+00
 0.7393505925021E+00
 0.1359579658610E+00
 0.1384974414265E+00
 0.1435236603285E+00
 0.1497163280059E+00
 0.1557265105085E+00
 0.1603607470038E+00
 0.1627512119984E+00
 0.1624350903624E+00
 0.1593361515723E+00
 0.1536814325759E+00
 0.1458929078284E+00
 0.1364840006856E+00
 0.1259769249224E+00
 0.1148453185608E+00
 0.1034794510352E+00
 0.9217066911498E-01
 0.8115535821873E-01
 0.7065253756496E-01
 0.6079127296103E-01
 0.5166577489028E-01
 0.4373618663091E-01
 0.3866488793653E-01
 0.4000581740527E-01
 0.5087622104850E-01
 0.7115574954191E-01
 0.9975760102654E-01
 0.1362740871253E+00
 0.1807295171103E+00
 0.2331704986491E+00
 0.2933886213026E+00
 0.3607382994418E+00
 0.4340211078242E+00
 0.5114191354259E+00
 0.5904845149080E+00
 0.6681981339230E+00
 0.7411258058403E+00
 0.8057132041205E+00
 0.8584897950025E+00
 0.8960670353075E+00
 0.9152707230988E+00
 0.9133221636300E+00
 0.9285168290822E-01
 0.9592518638569E-01
 0.9718272169831E-01
 0.9754953383923E-01
 0.9793151354412E-01
 0.9903103901392E-01
 0.1012639822854E+00
 0.1047678181801E+00
 0.1094640621924E+00
 0.1151350160393E+00
 0.1214917715117E+00
 0.1282276545259E+00
 0.1350583391599E+00
 0.1417505881039E+00
 0.1481415324899E+00
 0.1541496698305E+00
 0.1597456608715E+00
 0.1649288477032E+00
 0.1698099529883E+00
 0.1746786602384E+00
 0.1799834931447E+00
 0.1863147281177E+00
 0.1944067461846E+00
 0.2051472463463E+00
 0.2195733747421E+00
 0.2388333437735E+00
 0.2641014469533E+00
 0.2964611148239E+00
 0.3367722135824E+00
 0.3855340981534E+00
 0.4427743359898E+00
 0.5079711286141E+00
 0.5799998151741E+00
 0.6571069337761E+00
 0.7369243798355E+00
 0.8165563541126E+00
 0.8927913811561E+00
 0.9622495679757E+00
 0.1021345446835E+01
 0.1066385093857E+01
 0.1093749122951E+01
 0.3213535312873E+00
 0.3299872918317E+00
 0.3374345713309E+00
 0.3439809268694E+00
 0.3499239846068E+00
 0.3554976478072E+00
 0.3608289361820E+00
 0.3659291790219E+00
 0.3707121520880E+00
 0.3750275397889E+00
 0.3786985468633E+00
 0.3815557803527E+00
 0.3834634213171E+00
 0.3843370338709E+00
 0.3841545007124E+00
 0.3829618039837E+00
 0.3808544032455E+00
 0.3779632926561E+00
 0.3745074972913E+00
 0.3708359667224E+00
 0.3674142942974E+00
 0.3648123107603E+00
 0.3637043887957E+00
 0.3648786831190E+00
 0.3692488619712E+00
 0.3778590465900E+00
 0.3918681862823E+00
 0.4125031038570E+00
 0.4409669421573E+00
 0.4783003244965E+00
 0.5252256107518E+00
 0.5820051453959E+00
 0.6483277564490E+00
 0.7232301737280E+00
 0.8050577390346E+00
 0.8914892075912E+00
 0.9796797097350E+00
 0.1066366587625E+01
 0.1147812106971E+01
 0.1219884159976E+01
 0.1278268850599E+01
 0.5496976351518E+00
 0.5638755599106E+00
 0.5775075517766E+00
 0.5903126655084E+00
 0.6020349289421E+00
 0.6124384236727E+00
 0.6213080701207E+00
 0.6284549460395E+00
 0.6337238316612E+00
 0.6370005124762E+00
 0.6382171221846E+00
 0.6373549457089E+00
 0.6344449949774E+00
 0.6295672570867E+00
 0.6228496236359E+00
 0.6144672919734E+00
 0.6046358449311E+00
 0.5936083452138E+00
 0.5816969046229E+00
 0.5692906870016E+00
 0.5568570253812E+00
 0.5449445556875E+00
 0.5341928599860E+00
 0.5253475680414E+00
 0.5192790584973E+00
 0.5170022906157E+00
 0.5196906896816E+00
 0.5286729881646E+00
 0.5453956325526E+00
 0.5713329411309E+00
 0.6078429098101E+00
 0.6559853582373E+00
 0.7163318507265E+00
 0.7887979283289E+00
 0.8725194628698E+00
 0.9658018177124E+00
 0.1066195523351E+01
 0.1170569365581E+01
 0.1275042095056E+01
 0.1375055848463E+01
 0.1465627736023E+01
 0.7780255391980E+00
 0.7977705599886E+00
 0.8176110382140E+00
 0.8367082436060E+00
 0.8542583985305E+00
 0.8695553638276E+00
 0.8820369486262E+00
 0.8913075368079E+00
 0.8971376029271E+00
 0.8994459978390E+00
 0.8982729488912E+00
 0.8937510627965E+00
 0.8860794290969E+00
 0.8755035406174E+00
 0.8623016324883E+00
 0.8467772763452E+00
 0.8292639820979E+00
 0.8101332833072E+00
 0.7897850988803E+00
 0.7686418949753E+00
 0.7471653241025E+00
 0.7258771775195E+00
 0.7053817781135E+00
 0.6863907414499E+00
 0.6697507203729E+00
 0.6564750984467E+00
 0.6477765057056E+00
 0.6450907013783E+00
 0.6500803251487E+00
 0.6645996049885E+00
 0.6905899122508E+00
 0.7298928013726E+00
 0.7839991306373E+00
 0.8537776289445E+00
 0.9392359216680E+00
 0.1039368633505E+01
 0.1152156722093E+01
 0.1274610848194E+01
 0.1402698557179E+01
 0.1531417344296E+01
 0.1655091478124E+01
 0.1006479378988E+01
 0.1031852924215E+01
 0.1057962469170E+01
 0.1083408848274E+01
 0.1106837801324E+01
 0.1127070536411E+01
 0.1143196524407E+01
 0.1154614002706E+01
 0.1161021305253E+01
 0.1162373466449E+01
 0.1158822089525E+01
 0.1150653919176E+01
 0.1138238108014E+01
 0.1121986679195E+01
 0.1102328284703E+01
 0.1079694043331E+01
 0.1054533772395E+01
 0.1027335149983E+01
 0.9985826957999E+00
 0.9687279568897E+00
 0.9382219679439E+00
 0.9075547963131E+00
 0.8772920261540E+00
 0.8481110061348E+00
 0.8208393658732E+00
 0.7964988480497E+00
 0.7763533432510E+00
 0.7619521079796E+00
 0.7551648608999E+00
 0.7581965252025E+00
 0.7735331061249E+00
 0.8037757543635E+00
 0.8513542114982E+00
 0.9181539248765E+00
 0.1005137648189E+01
 0.1112061390051E+01
 0.1237379591239E+01
 0.1378256722934E+01
 0.1530494648531E+01
 0.1688611764120E+01
 0.1846191314342E+01
 0.1235201804257E+01
 0.1266304039806E+01
 0.1298780876747E+01
 0.1330662412428E+01
 0.1360035342880E+01
 0.1385243544112E+01
 0.1405028336908E+01
 0.1418586295660E+01
 0.1425550734553E+01
 0.1425920697583E+01
 0.1419966141100E+01
 0.1408133188548E+01
 0.1390964309422E+01
 0.1369039509201E+01
 0.1342937888015E+01
 0.1313217105475E+01
 0.1280441596638E+01
 0.1245213041198E+01
 0.1208097826404E+01
 0.1169573039839E+01
 0.1130074802301E+01
 0.1090056707291E+01
 0.1050041019246E+01
 0.1010667383349E+01
 0.9727432620529E+00
 0.9373006389487E+00
 0.9056587841888E+00
 0.8794831862922E+00
 0.8608455533839E+00
 0.8522829432971E+00
 0.8567968170744E+00
 0.8777257867961E+00
 0.9184492806586E+00
 0.9819258642580E+00
 0.1070159402876E+01
 0.1183749482215E+01
 0.1321677225805E+01
 0.1481278009158E+01
 0.1658171856853E+01
 0.1846354687948E+01
 0.2038604864854E+01
 0.1464336770943E+01
 0.1501307272619E+01
 0.1540287969288E+01
 0.1578720816109E+01
 0.1614119433517E+01
 0.1644343432776E+01
 0.1667787291730E+01
 0.1683453976323E+01
 0.1690923571054E+01
 0.1690251500952E+01
 0.1681836689517E+01
 0.1666292307213E+01
 0.1644338684437E+01
 0.1616725694857E+01
 0.1584182838020E+01
 0.1547393017777E+01
 0.1507033321524E+01
 0.1463817153927E+01
 0.1418390053134E+01
 0.1371251201601E+01
 0.1322817552432E+01
 0.1273501244400E+01
 0.1223775805035E+01
 0.1174237874392E+01
 0.1125670326722E+01
 0.1079112553642E+01
 0.1035937980033E+01
 0.9979270108244E+00
 0.9673479254861E+00
 0.9470555910498E+00
 0.9405433827580E+00
 0.9518664187592E+00
 0.9853595705169E+00
 0.1045106237941E+01
 0.1134240945488E+01
 0.1254300466590E+01
 0.1404858328422E+01
 0.1583446006101E+01
 0.1785486840653E+01
 0.2004404710258E+01
 0.2232096014816E+01
 0.1694030417095E+01
 0.1737049274637E+01
 0.1782709691157E+01
 0.1827840786822E+01
 0.1869363558601E+01
 0.1904644241583E+01
 0.1931733076033E+01
 0.1949451267643E+01
 0.1957342318951E+01
 0.1955535056103E+01
 0.1944571629996E+01
 0.1925242292156E+01
 0.1898450968832E+01
 0.1865119612978E+01
 0.1826127891897E+01
 0.1782282270442E+01
 0.1734370147702E+01
 0.1683214125465E+01
 0.1629536039086E+01
 0.1573853618459E+01
 0.1516560227398E+01
 0.1458021195287E+01
 0.1398655123361E+01
 0.1339008927336E+01
 0.1279834155784E+01
 0.1222171449088E+01
 0.1167443131181E+01
 0.1117539455024E+01
 0.1074917944360E+01
 0.1042738013294E+01
 0.1024964245442E+01
 0.1026348059508E+01
 0.1052181920391E+01
 0.1107722327611E+01
 0.1197328382790E+01
 0.1323580745133E+01
 0.1486726263238E+01
 0.1684528581106E+01
 0.1912202903603E+01
 0.2162546311319E+01
 0.2426482849697E+01
 0.1924432004720E+01
 0.1973721384209E+01
 0.2026277955489E+01
 0.2078285495386E+01
 0.2126047085391E+01
 0.2166424440759E+01
 0.2197127894708E+01
 0.2216813043162E+01
 0.2225008718837E+01
 0.2221939029836E+01
 0.2208307280494E+01
 0.2185093088896E+01
 0.2153390726807E+01
 0.2114296582630E+01
 0.2068839926928E+01
 0.2017948607625E+01
 0.1962517547763E+01
 0.1903475716250E+01
 0.1841618207602E+01
 0.1777477593770E+01
 0.1711418998729E+01
 0.1643755178219E+01
 0.1574842895122E+01
 0.1505171420182E+01
 0.1435452375333E+01
 0.1366718841468E+01
 0.1300433457867E+01
 0.1238587785533E+01
 0.1183818681631E+01
 0.1139576178916E+01
 0.1110276266108E+01
 0.1101346333423E+01
 0.1119035238597E+01
 0.1169817685106E+01
 0.1259376063942E+01
 0.1391456496485E+01
 0.1567078311297E+01
 0.1784287230692E+01
 0.2038084077302E+01
 0.2320579391920E+01
 0.2621619885934E+01
 0.2155694944926E+01
 0.2211521151126E+01
 0.2271232540215E+01
 0.2330326430275E+01
 0.2384456610649E+01
 0.2429967336587E+01
 0.2464235733775E+01
 0.2485772979773E+01
 0.2494120981245E+01
 0.2489626146584E+01
 0.2473174530467E+01
 0.2445949480517E+01
 0.2409243129292E+01
 0.2364328557384E+01
 0.2312383547357E+01
 0.2254454530573E+01
 0.2191540653264E+01
 0.2124674096638E+01
 0.2054719992768E+01
 0.1982221899903E+01
 0.1907511831198E+01
 0.1830843816850E+01
 0.1752505212410E+01
 0.1672918672839E+01
 0.1592745701901E+01
 0.1513000754610E+01
 0.1435175284565E+01
 0.1361350340149E+01
 0.1294329258117E+01
 0.1237837029207E+01
 0.1196720754780E+01
 0.1177062389370E+01
 0.1186062256846E+01
 0.1231454773839E+01
 0.1320349059168E+01
 0.1457794937572E+01
 0.1645705111444E+01
 0.1882474579286E+01
 0.2162890691232E+01
 0.2478312574992E+01
 0.2817388056246E+01
 0.2387977931509E+01
 0.2450654026303E+01
 0.2517823182035E+01
 0.2584245482796E+01
 0.2644887537093E+01
 0.2695561760166E+01
 0.2733322020717E+01
 0.2756562280405E+01
 0.2764871806745E+01
 0.2758751781731E+01
 0.2739296247233E+01
 0.2707908473652E+01
 0.2666086407767E+01
 0.2615281670589E+01
 0.2556818701677E+01
 0.2491858947221E+01
 0.2421501897042E+01
 0.2346879458541E+01
 0.2268923425113E+01
 0.2188184378803E+01
 0.2104956178270E+01
 0.2019427646357E+01
 0.1931808592217E+01
 0.1842445174421E+01
 0.1751937208079E+01
 0.1661267472045E+01
 0.1571942088524E+01
 0.1486116613298E+01
 0.1406744818619E+01
 0.1337808505407E+01
 0.1284564026524E+01
 0.1253724477177E+01
 0.1253432264692E+01
 0.1292718418679E+01
 0.1380226304480E+01
 0.1522466020729E+01
 0.1722390299327E+01
 0.1978832103664E+01
 0.2286375771516E+01
 0.2635558716099E+01
 0.3013689159230E+01
 0.2621446213553E+01
 0.2691335263345E+01
 0.2766311918215E+01
 0.2840337251477E+01
 0.2907645791558E+01
 0.2963502818175E+01
 0.3004653311166E+01
 0.3029408453144E+01
 0.3037446551786E+01
 0.3029461826132E+01
 0.3006785090072E+01
 0.2971057221759E+01
 0.2923989959081E+01
 0.2867214527399E+01
 0.2802199125613E+01
 0.2730215711008E+01
 0.2652459592590E+01
 0.2570158593164E+01
 0.2484307686623E+01
 0.2395460477941E+01
 0.2303867528372E+01
 0.2209645724344E+01
 0.2112918727332E+01
 0.2013945559718E+01
 0.1913251599507E+01
 0.1811773151258E+01
 0.1711014431403E+01
 0.1613187447987E+01
 0.1521376967962E+01
 0.1439800357096E+01
 0.1374098877009E+01
 0.1331590411264E+01
 0.1321344669577E+01
 0.1353720081266E+01
 0.1439004536464E+01
 0.1585344702696E+01
 0.1796910383620E+01
 0.2073087935767E+01
 0.2408281849607E+01
 0.2792131749356E+01
 0.3210443044997E+01
 0.2856273044021E+01
 0.2933792088637E+01
 0.3016975737381E+01
 0.3098911597630E+01
 0.3173049655665E+01
 0.3234092601802E+01
 0.3278496829778E+01
 0.3304533922435E+01
 0.3312021279107E+01
 0.3301890533171E+01
 0.3275741419018E+01
 0.3235471147597E+01
 0.3183012736036E+01
 0.3120176849251E+01
 0.3048571186475E+01
 0.2969572595254E+01
 0.2884466970727E+01
 0.2794573935924E+01
 0.2700948128845E+01
 0.2604142226256E+01
 0.2504358342000E+01
 0.2401634551160E+01
 0.2295999431844E+01
 0.2187613641712E+01
 0.2076914410967E+01
 0.1964775263446E+01
 0.1852679714480E+01
 0.1742875171416E+01
 0.1638554372966E+01
 0.1544145361497E+01
 0.1465646645980E+01
 0.1410950712881E+01
 0.1390033315552E+01
 0.1414603024375E+01
 0.1496703182203E+01
 0.1646313964794E+01
 0.1869034930275E+01
 0.2164954627211E+01
 0.2528337878053E+01
 0.2947844361870E+01
 0.3407586609318E+01
 0.3092641349396E+01
 0.3178266208871E+01
 0.3270109612811E+01
 0.3360296494581E+01
 0.3441431693567E+01
 0.3507640778147E+01
 0.3555119747249E+01
 0.3582154335324E+01
 0.3588760553420E+01
 0.3576158213133E+01
 0.3546251165729E+01
 0.3501212129980E+01
 0.3443201781517E+01
 0.3374208317733E+01
 0.3295972963028E+01
 0.3209970523904E+01
 0.3117571481980E+01
 0.3020182877195E+01
 0.2918915547798E+01
 0.2814317446154E+01
 0.2706537187857E+01
 0.2595527131420E+01
 0.2481211647842E+01
 0.2363641408185E+01
 0.2243151067244E+01
 0.2120533822234E+01
 0.1997231703427E+01
 0.1875503564690E+01
 0.1758623349819E+01
 0.1651200731553E+01
 0.1559559669364E+01
 0.1492132311138E+01
 0.1459771542986E+01
 0.1475548461735E+01
 0.1553370413100E+01
 0.1705268822620E+01
 0.1938527170583E+01
 0.2254126768565E+01
 0.2646255983836E+01
 0.3102506191589E+01
 0.3605074107115E+01
 0.3330745676225E+01
 0.3425016740990E+01
 0.3526030006733E+01
 0.3624841219547E+01
 0.3713140759012E+01
 0.3784464985356E+01
 0.3834788082498E+01
 0.3862476450167E+01
 0.3867814886395E+01
 0.3852368699164E+01
 0.3818383605401E+01
 0.3768326700278E+01
 0.3704590851403E+01
 0.3629337558654E+01
 0.3544433495276E+01
 0.3451442986046E+01
 0.3351814285401E+01
 0.3247037254188E+01
 0.3138275627833E+01
 0.3026069113627E+01
 0.2910507993876E+01
 0.2791452100726E+01
 0.2668712449359E+01
 0.2542217932470E+01
 0.2412185769916E+01
 0.2279310363456E+01
 0.2144969767898E+01
 0.2011407575939E+01
 0.1881948303417E+01
 0.1761349555774E+01
 0.1656223982472E+01
 0.1575502727017E+01
 0.1530877998508E+01
 0.1536782813257E+01
 0.1609090618379E+01
 0.1762121643476E+01
 0.2005145219955E+01
 0.2340278356629E+01
 0.2761727749024E+01
 0.3255922342652E+01
 0.3802878571476E+01
 0.3570794484508E+01
 0.3674323670626E+01
 0.3785078952828E+01
 0.3892919941640E+01
 0.3988544052247E+01
 0.4064890934254E+01
 0.4117765106617E+01
 0.4145695496851E+01
 0.4149317751547E+01
 0.4130606536954E+01
 0.4092189003228E+01
 0.4036844231988E+01
 0.3967199111058E+01
 0.3885581248316E+01
 0.3793972181807E+01
 0.3694015607293E+01
 0.3587229892860E+01
 0.3475182989895E+01
 0.3359088518414E+01
 0.3239474829930E+01
 0.3116369377216E+01
 0.2989532883281E+01
 0.2858654011437E+01
 0.2723528167783E+01
 0.2584240178240E+01
 0.2441366636186E+01
 0.2296197777865E+01
 0.2150932690015E+01
 0.2008911900748E+01
 0.1875002136555E+01
 0.1756062160052E+01
 0.1661474681908E+01
 0.1603723216509E+01
 0.1598586201559E+01
 0.1663993602194E+01
 0.1816809193803E+01
 0.2068644211610E+01
 0.2423059813582E+01
 0.2874419576908E+01
 0.3407892014976E+01
 0.4000994334272E+01
 0.3813012876759E+01
 0.3926491972921E+01
 0.4047628847516E+01
 0.4164935762026E+01
 0.4268029176700E+01
 0.4349252088749E+01
 0.4404309101393E+01
 0.4431991889645E+01
 0.4433382097240E+01
 0.4410933867865E+01
 0.4367696130507E+01
 0.4306775128533E+01
 0.4231029911075E+01
 0.4142943344142E+01
 0.4044598322694E+01
 0.3937705872488E+01
 0.3823845960567E+01
 0.3704659869034E+01
 0.3581408532932E+01
 0.3454606393508E+01
 0.3324214041404E+01
 0.3189886867245E+01
 0.3051182528507E+01
 0.2907751604732E+01
 0.2759531855781E+01
 0.2606962963367E+01
 0.2451222594221E+01
 0.2294433864433E+01
 0.2139914859706E+01
 0.1992597094440E+01
 0.1859536178534E+01
 0.1750511070894E+01
 0.1678736994269E+01
 0.1661302334780E+01
 0.1718265853760E+01
 0.1869301963787E+01
 0.2128779840782E+01
 0.2502094633343E+01
 0.2983966445253E+01
 0.3558206881467E+01
 0.4199440860274E+01
 0.4057645876718E+01
 0.4181856566444E+01
 0.4314088109754E+01
 0.4441325261606E+01
 0.4552006113796E+01
 0.4637888754460E+01
 0.4694670292923E+01
 0.4721527162008E+01
 0.4720096292185E+01
 0.4693386991053E+01
 0.4644909663412E+01
 0.4578109030363E+01
 0.4496069660864E+01
 0.4401414452680E+01
 0.4296310816073E+01
 0.4182523004609E+01
 0.4061683230925E+01
 0.3935501453505E+01
 0.3805283972150E+01
 0.3671529474963E+01
 0.3534128242517E+01
 0.3392624596934E+01
 0.3246437075957E+01
 0.3095060777806E+01
 0.2938272456800E+01
 0.2776356228974E+01
 0.2610352086691E+01
 0.2442273934227E+01
 0.2275375224962E+01
 0.2114602092020E+01
 0.1967150168346E+01
 0.1843130224419E+01
 0.1756416571872E+01
 0.1725349923339E+01
 0.1772164280490E+01
 0.1919616442457E+01
 0.2185314103169E+01
 0.2576975886281E+01
 0.3089962944248E+01
 0.3706648290372E+01
 0.4398268407041E+01
 0.4304962405743E+01
 0.4440788319937E+01
 0.4584907905347E+01
 0.4722563605331E+01
 0.4840908987622E+01
 0.4931146347310E+01
 0.4989086740764E+01
 0.5014438980330E+01
 0.5009519446842E+01
 0.4977972608549E+01
 0.4923807495791E+01
 0.4850813076308E+01
 0.4762286827815E+01
 0.4660971353999E+01
 0.4549098021344E+01
 0.4428468009810E+01
 0.4300755633838E+01
 0.4167735147040E+01
 0.4030757083299E+01
 0.3890303406960E+01
 0.3746191335447E+01
 0.3597848989211E+01
 0.3444548415388E+01
 0.3285619611112E+01
 0.3120665628434E+01
 0.2949797447900E+01
 0.2773892607992E+01
 0.2594821379851E+01
 0.2415726987411E+01
 0.2241514007383E+01
 0.2079452892192E+01
 0.1939911350826E+01
 0.1837335603874E+01
 0.1791235769401E+01
 0.1826032842476E+01
 0.1967831108794E+01
 0.2238024343972E+01
 0.2647263535080E+01
 0.3191950067537E+01
 0.3852980811552E+01
 0.4597566565291E+01
 0.4555260151244E+01
 0.4703701397446E+01
 0.4860590176479E+01
 0.5009170236448E+01
 0.5135197423249E+01
 0.5229372537717E+01
 0.5287778915674E+01
 0.5310835083804E+01
 0.5301676069656E+01
 0.5264663781079E+01
 0.5204338018012E+01
 0.5124830267538E+01
 0.5029631096618E+01
 0.4921576704406E+01
 0.4802937803507E+01
 0.4675533900526E+01
 0.4541070559803E+01
 0.4401382423506E+01
 0.4257864171990E+01
 0.4110981108102E+01
 0.3960475418509E+01
 0.3805654587956E+01
 0.3645637749350E+01
 0.3479581597563E+01
 0.3306904607039E+01
 0.3127528875114E+01
 0.2942145850321E+01
 0.2752447343691E+01
 0.2561417885601E+01
 0.2373858355300E+01
 0.2197039740120E+01
 0.2041500001399E+01
 0.1922153878670E+01
 0.1859569621722E+01
 0.1880322609210E+01
 0.2014107000406E+01
 0.2286716763094E+01
 0.2712485153933E+01
 0.3289396715351E+01
 0.3996935383110E+01
 0.4797477262359E+01
 0.4808871585345E+01
 0.4971062316278E+01
 0.5141697271676E+01
 0.5301715162045E+01
 0.5435357204487E+01
 0.5532912866821E+01
 0.5590942645566E+01
 0.5610785994356E+01
 0.5596550042735E+01
 0.5553395653931E+01
 0.5486417438067E+01
 0.5400077995968E+01
 0.5298032728186E+01
 0.5183178939607E+01
 0.5057797772117E+01
 0.4923706108372E+01
 0.4782629318755E+01
 0.4636459236913E+01
 0.4486635889531E+01
 0.4333609166307E+01
 0.4177045101265E+01
 0.4016126876277E+01
 0.3849815435981E+01
 0.3677087809296E+01
 0.3497169489945E+01
 0.3309780612265E+01
 0.3115405009092E+01
 0.2915521773306E+01
 0.2712906208488E+01
 0.2512187716237E+01
 0.2320553974286E+01
 0.2148613328619E+01
 0.2011627680419E+01
 0.1931080876878E+01
 0.1935615608644E+01
 0.2058714517927E+01
 0.2331244109050E+01
 0.2772144963409E+01
 0.3381680809460E+01
 0.4138163387524E+01
 0.4998216973639E+01
 0.5066171480939E+01
 0.5243401213381E+01
 0.5428863536717E+01
 0.5600825772762E+01
 0.5741899796099E+01
 0.5842104303726E+01
 0.5898740052312E+01
 0.5914316349609E+01
 0.5894077941972E+01
 0.5844061053404E+01
 0.5769927248999E+01
 0.5676446812023E+01
 0.5567402160250E+01
 0.5445712397794E+01
 0.5313635724700E+01
 0.5172963096581E+01
 0.5025427799224E+01
 0.4872976634599E+01
 0.4717097723948E+01
 0.4558228114183E+01
 0.4395957427167E+01
 0.4229341671614E+01
 0.4057179678118E+01
 0.3878264740675E+01
 0.3691624167388E+01
 0.3496766673334E+01
 0.3293950180180E+01
 0.3084408564820E+01
 0.2870656399911E+01
 0.2657078892971E+01
 0.2450686878640E+01
 0.2262044829233E+01
 0.2106620557031E+01
 0.2006637254248E+01
 0.1992652606649E+01
 0.2102068303106E+01
 0.2371530373916E+01
 0.2825731413022E+01
 0.3468116863164E+01
 0.4276103284706E+01
 0.5200097479611E+01
 0.5327586397822E+01
 0.5521325982247E+01
 0.5722809302666E+01
 0.5907194037688E+01
 0.6055360094401E+01
 0.6157266051487E+01
 0.6211288047140E+01
 0.6221394741166E+01
 0.6194141786751E+01
 0.6136506106852E+01
 0.6054711978159E+01
 0.5953799518800E+01
 0.5837629891229E+01
 0.5709097676016E+01
 0.5570400298005E+01
 0.5423277177867E+01
 0.5269457342311E+01
 0.5110941598673E+01
 0.4949270729617E+01
 0.4784872936836E+01
 0.4617261989906E+01
 0.4445364634227E+01
 0.4267815205144E+01
 0.4083221988556E+01
 0.3890412903761E+01
 0.3688680476328E+01
 0.3478042921709E+01
 0.3259459578706E+01
 0.3035133250827E+01
 0.2809128467132E+01
 0.2588176397218E+01
 0.2382668089741E+01
 0.2208114304250E+01
 0.2087264872795E+01
 0.2052366887351E+01
 0.2144766139916E+01
 0.2407621095558E+01
 0.2872690667233E+01
 0.3548047931102E+01
 0.4409978718196E+01
 0.5403008846092E+01
 0.5593606791258E+01
 0.5805540173028E+01
 0.6024357790248E+01
 0.6221583743352E+01
 0.6376291484388E+01
 0.6478686710229E+01
 0.6528643909540E+01
 0.6531922001425E+01
 0.6496561389905E+01
 0.6430526103737E+01
 0.6340577387091E+01
 0.6231970688941E+01
 0.6108586684071E+01
 0.5973242222461E+01
 0.5828031820013E+01
 0.5674615537182E+01
 0.5514705843854E+01
 0.5350358144889E+01
 0.5183172538305E+01
 0.5013573861748E+01
 0.4841001289927E+01
 0.4664250924028E+01
 0.4481791967913E+01
 0.4292049776647E+01
 0.4093656561691E+01
 0.3885689735302E+01
 0.3667919919529E+01
 0.3441007404737E+01
 0.3206794452982E+01
 0.2968946392246E+01
 0.2733803721199E+01
 0.2511438995339E+01
 0.2317219394510E+01
 0.2174170563816E+01
 0.2115919948771E+01
 0.2187650645288E+01
 0.2439699615456E+01
 0.2912580520487E+01
 0.3620372481396E+01
 0.4540328041415E+01
 0.5603696592142E+01
 0.5864802656407E+01
 0.6096865871392E+01
 0.6334455531718E+01
 0.6544837161663E+01
 0.6705256879537E+01
 0.6806606669323E+01
 0.6850787463478E+01
 0.6845717992237E+01
 0.6801086597612E+01
 0.6725861893140E+01
 0.6627289326691E+01
 0.6510766708193E+01
 0.6380124119211E+01
 0.6238041153918E+01
 0.6086463343761E+01
 0.5926941452881E+01
 0.5761159099795E+01
 0.5591228716884E+01
 0.5418818708342E+01
 0.5244357495510E+01
 0.5067211389777E+01
 0.4886045048086E+01
 0.4699163871498E+01
 0.4504816335869E+01
 0.4301448471482E+01
 0.4087930740983E+01
 0.3863785713058E+01
 0.3629356767557E+01
 0.3386081292252E+01
 0.3137147216994E+01
 0.2888387226480E+01
 0.2649395505034E+01
 0.2435184502766E+01
 0.2268764214734E+01
 0.2184746669931E+01
 0.2231863206292E+01
 0.2468209316659E+01
 0.2944867577971E+01
 0.3684538312121E+01
 0.4664906698757E+01
 0.5812378653640E+01
 0.6141844007305E+01
 0.6396273225563E+01
 0.6654196969414E+01
 0.6877880064492E+01
 0.7042813855522E+01
 0.7141194330382E+01
 0.7177599409638E+01
 0.7162507122352E+01
 0.7107389859559E+01
 0.7022197194902E+01
 0.6914573479359E+01
 0.6789966445647E+01
 0.6652075505863E+01
 0.6503378261649E+01
 0.6345621819973E+01
 0.6180215693692E+01
 0.6008802403890E+01
 0.5833555917584E+01
 0.5656224478908E+01
 0.5477248382941E+01
 0.5295922932128E+01
 0.5110780938801E+01
 0.4919967563629E+01
 0.4721565147119E+01
 0.4513849949025E+01
 0.4295502026646E+01
 0.4065804452444E+01
 0.3824774480491E+01
 0.3573407261565E+01
 0.3314338516274E+01
 0.3052773004566E+01
 0.2797654081041E+01
 0.2563403498904E+01
 0.2372682598241E+01
 0.2260599566722E+01
 0.2278937496520E+01
 0.2493884259748E+01
 0.2969263765657E+01
 0.3739200997857E+01
 0.4784741035230E+01
 0.6023902148210E+01
 0.6425528068475E+01
 0.6704918936945E+01
 0.6984853882591E+01
 0.7221723248201E+01
 0.7389491213340E+01
 0.7482514491141E+01
 0.7508835527655E+01
 0.7481903090618E+01
 0.7415059762329E+01
 0.7319157290366E+01
 0.7202116244324E+01
 0.7069322644504E+01
 0.6924257139736E+01
 0.6769127141515E+01
 0.6605429341149E+01
 0.6434398055513E+01
 0.6257622408190E+01
 0.6077344634825E+01
 0.5895407020543E+01
 0.5712271087881E+01
 0.5527162599088E+01
 0.5338482306311E+01
 0.5144221294707E+01
 0.4942312053696E+01
 0.4730885475393E+01
 0.4508457437197E+01
 0.4274090689070E+01
 0.4027477889773E+01
 0.3769144406048E+01
 0.3501106091880E+01
 0.3227821205218E+01
 0.2957401361556E+01
 0.2703418875098E+01
 0.2487810965840E+01
 0.2345602307410E+01
 0.2330883415166E+01
 0.2517928917242E+01
 0.2985552230180E+01
 0.3783338755876E+01
 0.4898801925660E+01
 0.6238902344375E+01
 0.6716815944562E+01
 0.7024196952823E+01
 0.7327910128698E+01
 0.7577457514870E+01
 0.7745753257563E+01
 0.7830487002229E+01
 0.7844096794935E+01
 0.7803393739793E+01
 0.7723596382290E+01
 0.7616309637665E+01
 0.7489567032748E+01
 0.7348564111908E+01
 0.7196469866375E+01
 0.7035152347471E+01
 0.6865804355823E+01
 0.6689448982537E+01
 0.6507609257850E+01
 0.6322604639294E+01
 0.6136388305814E+01
 0.5949452925352E+01
 0.5760955107008E+01
 0.5569163307897E+01
 0.5371923857086E+01
 0.5167042247610E+01
 0.4952537561690E+01
 0.4726798645276E+01
 0.4488699240380E+01
 0.4237621799915E+01
 0.3973607256710E+01
 0.3697995543911E+01
 0.3414387296646E+01
 0.3129879658174E+01
 0.2856918951771E+01
 0.2616302467206E+01
 0.2442301326706E+01
 0.2390306544355E+01
 0.2542151305456E+01
 0.2993852068860E+01
 0.3815665104221E+01
 0.5005674007302E+01
 0.6458435362817E+01
 0.7016882921392E+01
 0.7355805924848E+01
 0.7685101680976E+01
 0.7946237104779E+01
 0.8111946696607E+01
 0.8184833761087E+01
 0.8182796077678E+01
 0.8126327427959E+01
 0.8032409544131E+01
 0.7913167003435E+01
 0.7776542224486E+01
 0.7627398756527E+01
 0.7468500867583E+01
 0.7301310413804E+01
 0.7126662698392E+01
 0.6945331182157E+01
 0.6758759005872E+01
 0.6569353755650E+01
 0.6379198762541E+01
 0.6188827506668E+01
 0.5997325838901E+01
 0.5802829560993E+01
 0.5603053586216E+01
 0.5395707117397E+01
 0.5178741325055E+01
 0.4950467181116E+01
 0.4709614210521E+01
 0.4455283923371E+01
 0.4187034271896E+01
 0.3905489852030E+01
 0.3613297390259E+01
 0.3316364425619E+01
 0.3025726404986E+01
 0.2760590484650E+01
 0.2553720166284E+01
 0.2460530679259E+01
 0.2569196749834E+01
 0.2994774943751E+01
 0.3834648814386E+01
 0.5103753741772E+01
 0.6683790574362E+01
 0.7327188772895E+01
 0.7701839903491E+01
 0.8058460748767E+01
 0.8329243464466E+01
 0.8488223359487E+01
 0.8545012459865E+01
 0.8524123078291E+01
 0.8449902987891E+01
 0.8340821275558E+01
 0.8209193704306E+01
 0.8062631004663E+01
 0.7905517491977E+01
 0.7740125547678E+01
 0.7567450531284E+01
 0.7387918215095E+01
 0.7202011101518E+01
 0.7011076314516E+01
 0.6817621751860E+01
 0.6623881937664E+01
 0.6430439311319E+01
 0.6236304231151E+01
 0.6039479507212E+01
 0.5837567377101E+01
 0.5628220930378E+01
 0.5409378813683E+01
 0.5179336081643E+01
 0.4936737308479E+01
 0.4680448975019E+01
 0.4409566792808E+01
 0.4123982713304E+01
 0.3825316804956E+01
 0.3518131891848E+01
 0.3211774300852E+01
 0.2923389994906E+01
 0.2683408284125E+01
 0.2545735823840E+01
 0.2602833784734E+01
 0.2989705449930E+01
 0.3838667796447E+01
 0.5191054146265E+01
 0.6916558925955E+01
 0.7649578091382E+01
 0.8064911466534E+01
 0.8450360182178E+01
 0.8727616310975E+01
 0.8874429995591E+01
 0.8910136651101E+01
 0.8867010825240E+01
 0.8773166092858E+01
 0.8648073852469E+01
 0.8503815475978E+01
 0.8347403237138E+01
 0.8182598990319E+01
 0.8011109353094E+01
 0.7833414585138E+01
 0.7649482672690E+01
 0.7459460067911E+01
 0.7264577447722E+01
 0.7067455154666E+01
 0.6870500491782E+01
 0.6674349564835E+01
 0.6477928037375E+01
 0.6279106094124E+01
 0.6075399619844E+01
 0.5864457295852E+01
 0.5644273128910E+01
 0.5413201308645E+01
 0.5169875675492E+01
 0.4912991620319E+01
 0.4641225628474E+01
 0.4353747509652E+01
 0.4051111229247E+01
 0.3736414975502E+01
 0.3417065613574E+01
 0.3107680519076E+01
 0.2835478425253E+01
 0.2651101695364E+01
 0.2648303258373E+01
 0.2981278151103E+01
 0.3826177591847E+01
 0.5265005146685E+01
 0.7158731184834E+01
 0.7986426799030E+01
 0.8448320321356E+01
 0.8863549016818E+01
 0.9142331250560E+01
 0.9269954725808E+01
 0.9278884306993E+01
 0.9210109299202E+01
 0.9095015535104E+01
 0.8953344737405E+01
 0.8796433319766E+01
 0.8630419451080E+01
 0.8458315245108E+01
 0.8281209324654E+01
 0.8099036170254E+01
 0.7911264503657E+01
 0.7717654795671E+01
 0.7519293555899E+01
 0.7318923297778E+01
 0.7119143981979E+01
 0.6920643788994E+01
 0.6722248587310E+01
 0.6521698674351E+01
 0.6316460886361E+01
 0.6104245320511E+01
 0.5883182406659E+01
 0.5651773143104E+01
 0.5408729520304E+01
 0.5152658592157E+01
 0.4881885509742E+01
 0.4594901952066E+01
 0.4291200078296E+01
 0.3972345956161E+01
 0.3643611785904E+01
 0.3316661357593E+01
 0.3014620386192E+01
 0.2782944259145E+01
 0.2712736464446E+01
 0.2974087564965E+01
 0.3796033648054E+01
 0.5322213424199E+01
 0.7412825227892E+01
 0.8340861663233E+01
 0.8856285622385E+01
 0.9301159183019E+01
 0.9573991404927E+01
 0.9673519421311E+01
 0.9649402168819E+01
 0.9551774770454E+01
 0.9414223245693E+01
 0.9255769323021E+01
 0.9086441419204E+01
 0.8911242924966E+01
 0.8732337900232E+01
 0.8550175172438E+01
 0.8364138091807E+01
 0.8173165749200E+01
 0.7976576804972E+01
 0.7775274248612E+01
 0.7572126065968E+01
 0.7369939097309E+01
 0.7169441503158E+01
 0.6969337128819E+01
 0.6767244913593E+01
 0.6560636100246E+01
 0.6347365322221E+01
 0.6125793740509E+01
 0.5894667836656E+01
 0.5652879968124E+01
 0.5399050413635E+01
 0.5131247789822E+01
 0.4847368640172E+01
 0.4545901995883E+01
 0.4226884928531E+01
 0.3893346327610E+01
 0.3553667832514E+01
 0.3226070804792E+01
 0.2948828294248E+01
 0.2805618240819E+01
 0.2975717353565E+01
 0.3748139020925E+01
 0.5358173758108E+01
 0.7682061516417E+01
 0.8717098791260E+01
 0.9294266640933E+01
 0.9766641624999E+01
 0.1002248308935E+02
 0.1008291114689E+02
 0.1001922224526E+02
 0.9890086574268E+01
 0.9729471336521E+01
 0.9554471653132E+01
 0.9373248907511E+01
 0.9189453755041E+01
 0.9004345336194E+01
 0.8817749706668E+01
 0.8628527743815E+01
 0.8435076276113E+01
 0.8236210041446E+01
 0.8032591439224E+01
 0.7827204052938E+01
 0.7623063325939E+01
 0.7420908693963E+01
 0.7219292262529E+01
 0.7015732332589E+01
 0.6807781788777E+01
 0.6593543913763E+01
 0.6371717156602E+01
 0.6141399897668E+01
 0.5901777663868E+01
 0.5651603304334E+01
 0.5388811907744E+01
 0.5110831974426E+01
 0.4815272864292E+01
 0.4500733949707E+01
 0.4168010851501E+01
 0.3822036616461E+01
 0.3475509458047E+01
 0.3157620455968E+01
 0.2939253986618E+01
 0.2998168468051E+01
 0.3684719921429E+01
 0.5366964496623E+01
 0.7970612462507E+01
 0.9120982798670E+01
 0.9769402235422E+01
 0.1026354626739E+02
 0.1048642191177E+02
 0.1049465976829E+02
 0.1038522123562E+02
 0.1022290481740E+02
 0.1003940741274E+02
 0.9848602335138E+01
 0.9656304951601E+01
 0.9464664682588E+01
 0.9274030602336E+01
 0.9083668602506E+01
 0.8891989654704E+01
 0.8696863913059E+01
 0.8496535553067E+01
 0.8291343423082E+01
 0.8084352277216E+01
 0.7878763516478E+01
 0.7675273824374E+01
 0.7472248307737E+01
 0.7267148861066E+01
 0.7057721850943E+01
 0.6842448205746E+01
 0.6620479787382E+01
 0.6391375517698E+01
 0.6154732844601E+01
 0.5909572006287E+01
 0.5653846257604E+01
 0.5384692032730E+01
 0.5099037123469E+01
 0.4794237909177E+01
 0.4469013387432E+01
 0.4124911017721E+01
 0.3768843456271E+01
 0.3419414351522E+01
 0.3129175635593E+01
 0.3059700800545E+01
 0.3612770718506E+01
 0.5341076021130E+01
 0.8283976268767E+01
 0.9560877913021E+01
 0.1029109760144E+02
 0.1079497171030E+02
 0.1096228960485E+02
 0.1090370490878E+02
 0.1074367304211E+02
 0.1054797944485E+02
 0.1034271566816E+02
 0.1013738209815E+02
 0.9935126287129E+01
 0.9736538301149E+01
 0.9541110467974E+01
 0.9347659799271E+01
 0.9154274454221E+01
 0.8958358492375E+01
 0.8757521326109E+01
 0.8551659108698E+01
 0.8343839338653E+01
 0.8137381545706E+01
 0.7932848282087E+01
 0.7728384098843E+01
 0.7521481434513E+01
 0.7310241091522E+01
 0.7093678808537E+01
 0.6871520431380E+01
 0.6643887817830E+01
 0.6410907833398E+01
 0.6172014443406E+01
 0.5925359197252E+01
 0.5668016138866E+01
 0.5396513605534E+01
 0.5107274384642E+01
 0.4797262131095E+01
 0.4464984471701E+01
 0.4111840165051E+01
 0.3745206075420E+01
 0.3394366339356E+01
 0.3186957145509E+01
 0.3548578970151E+01
 0.5271842691803E+01
 0.8629590796448E+01
 0.1004920486099E+02
 0.1087175220304E+02
 0.1136233049572E+02
 0.1144315397828E+02
 0.1130317548836E+02
 0.1109046118155E+02
 0.1086310763837E+02
 0.1063819736518E+02
 0.1042014938185E+02
 0.1020932580059E+02
 0.1000480508736E+02
 0.9805336133095E+01
 0.9609443456565E+01
 0.9415083694738E+01
 0.9219326763912E+01
 0.9019104014763E+01
 0.8813702246520E+01
 0.8606035226258E+01
 0.8399390469928E+01
 0.8194052157722E+01
 0.7987931076120E+01
 0.7778711215495E+01
 0.7565075606747E+01
 0.7346761231790E+01
 0.7124184708475E+01
 0.6898114836684E+01
 0.6669313255038E+01
 0.6437779319199E+01
 0.6202070939079E+01
 0.5959488888578E+01
 0.5706537360474E+01
 0.5439135976894E+01
 0.5152981398950E+01
 0.4844192040491E+01
 0.4509590055395E+01
 0.4146141577540E+01
 0.3757017634802E+01
 0.3417053047326E+01
 0.3525610843420E+01
 0.5151822877209E+01
 0.9017996357521E+01
 0.1060522827388E+02
 0.1152747187147E+02
 0.1196271019042E+02
 0.1191694934181E+02
 0.1168455930152E+02
 0.1142150292396E+02
 0.1116630932038E+02
 0.1092485535159E+02
 0.1069641022557E+02
 0.1047863986649E+02
 0.1026928161814E+02
 0.1006650634260E+02
 0.9868734507348E+01
 0.9674050699548E+01
 0.9479433576584E+01
 0.9281156712383E+01
 0.9077675377971E+01
 0.8871453485088E+01
 0.8665446327900E+01
 0.8459445808758E+01
 0.8251178409917E+01
 0.8038803524841E+01
 0.7821899042113E+01
 0.7601135164513E+01
 0.7377720963521E+01
 0.7153121533000E+01
 0.6928809836199E+01
 0.6705497946854E+01
 0.6482386875099E+01
 0.6257361402286E+01
 0.6027379010190E+01
 0.5788409432831E+01
 0.5535520517354E+01
 0.5263371101462E+01
 0.4965831159265E+01
 0.4632163609359E+01
 0.4241139782330E+01
 0.3799126389491E+01
 0.3606782813334E+01
 0.4982831416195E+01
 0.9465464738757E+01
 0.1126043167177E+02
 0.1227804743811E+02
 0.1258339002967E+02
 0.1236471462188E+02
 0.1203876618693E+02
 0.1173331722973E+02
 0.1145596901235E+02
 0.1120198874781E+02
 0.1096588455366E+02
 0.1074295223659E+02
 0.1052988816800E+02
 0.1032448343930E+02
 0.1012525170296E+02
 0.9930719729755E+01
 0.9738182393260E+01
 0.9543431749309E+01
 0.9343823069826E+01
 0.9140818388966E+01
 0.8936463390433E+01
 0.8729766126492E+01
 0.8518471059540E+01
 0.8301690204326E+01
 0.8080303913078E+01
 0.7856140918654E+01
 0.7631276779604E+01
 0.7407867610730E+01
 0.7188118660316E+01
 0.6973581748455E+01
 0.6764372224245E+01
 0.6559400606846E+01
 0.6356663454209E+01
 0.6152854671965E+01
 0.5943171905077E+01
 0.5721919932961E+01
 0.5482225608409E+01
 0.5210095682063E+01
 0.4868783935940E+01
 0.4393993777347E+01
 0.3900194190821E+01
 0.4799559678399E+01
 0.1000116575986E+02
 0.1206972344319E+02
 0.1314339423697E+02
 0.1319084869669E+02
 0.1276065823453E+02
 0.1235861958060E+02
 0.1202335177765E+02
 0.1173096571209E+02
 0.1146930243509E+02
 0.1122853495564E+02
 0.1100231625484E+02
 0.1078666316383E+02
 0.1057921218781E+02
 0.1037873932923E+02
 0.1018453132426E+02
 0.9994825155863E+01
 0.9805456478299E+01
 0.9612433973835E+01
 0.9415178137018E+01
 0.9213723931018E+01
 0.9005962268200E+01
 0.8790194111399E+01
 0.8567242262208E+01
 0.8339777770479E+01
 0.8111001994771E+01
 0.7883895026762E+01
 0.7661223818863E+01
 0.7445844800563E+01
 0.7240226700379E+01
 0.7045726355399E+01
 0.6862839108092E+01
 0.6691292095854E+01
 0.6529281553905E+01
 0.6373016281327E+01
 0.6217508608146E+01
 0.6057657322457E+01
 0.5881706255239E+01
 0.5652750154518E+01
 0.5266633539442E+01
 0.4575148527410E+01
 0.4733172033217E+01
 0.1068969501995E+02
 0.1313738498571E+02
 0.1412519480433E+02
 0.1371110277547E+02
 0.1308011132459E+02
 0.1264169788182E+02
 0.1228953617078E+02
 0.1199105887308E+02
 0.1172692636745E+02
 0.1148459688237E+02
 0.1125697022703E+02
 0.1103977312941E+02
 0.1083073829851E+02
 0.1062900859652E+02
 0.1043483549347E+02
 0.1024822959889E+02
 0.1006633423734E+02
 0.9883842335033E+01
 0.9696108485462E+01
 0.9499035029543E+01
 0.9289215940594E+01
 0.9066734590322E+01
 0.8835231559700E+01
 0.8599675233466E+01
 0.8364802521400E+01
 0.8134505656857E+01
 0.7912000680315E+01
 0.7700524054879E+01
 0.7503424637817E+01
 0.7323751514829E+01
 0.7164327100460E+01
 0.7027374465558E+01
 0.6913427615552E+01
 0.6820764156613E+01
 0.6746016824822E+01
 0.6687477515119E+01
 0.6642529135095E+01
 0.6587911803236E+01
 0.6457662025525E+01
 0.5872989092071E+01
 0.5156412398282E+01
 0.1171677032130E+02
 0.1468682124699E+02
 0.1512284036429E+02
 0.1401334586204E+02
 0.1332707472956E+02
 0.1288537958758E+02
 0.1253142596116E+02
 0.1223701860035E+02
 0.1197538318556E+02
 0.1173462209202E+02
 0.1150733323688E+02
 0.1128952311270E+02
 0.1107921793675E+02
 0.1087599673418E+02
 0.1068098611941E+02
 0.1049670353102E+02
 0.1032433402813E+02
 0.1015843710903E+02
 0.9986108689930E+01
 0.9794930747625E+01
 0.9580913732510E+01
 0.9348414184309E+01
 0.9105280854091E+01
 0.8859189182516E+01
 0.8616459884443E+01
 0.8381901674519E+01
 0.8158995086990E+01
 0.7950715468079E+01
 0.7760975510755E+01
 0.7595301220552E+01
 0.7459896367034E+01
 0.7360169961253E+01
 0.7299858715208E+01
 0.7280522205982E+01
 0.7301717615352E+01
 0.7363636532318E+01
 0.7478899286162E+01
 0.7653389958002E+01
 0.7918389397131E+01
 0.8061092197475E+01
 0.6904665017569E+01
 0.1376605967684E+02
 0.1729372523073E+02
 0.1550532550956E+02
 0.1408008056223E+02
 0.1352186898613E+02
 0.1308351567799E+02
 0.1275302907717E+02
 0.1246967334043E+02
 0.1221589352664E+02
 0.1197939210857E+02
 0.1175402433607E+02
 0.1153635394516E+02
 0.1132492636375E+02
 0.1111979113273E+02
 0.1092262396335E+02
 0.1073787366149E+02
 0.1057593095105E+02
 0.1043673277842E+02
 0.1028944750456E+02
 0.1010481786354E+02
 0.9882540358652E+01
 0.9635389037559E+01
 0.9376803220099E+01
 0.9117323836042E+01
 0.8864705538867E+01
 0.8624665400632E+01
 0.8401055990909E+01
 0.8195207347372E+01
 0.8010463510797E+01
 0.7856681883601E+01
 0.7744959070349E+01
 0.7684069303811E+01
 0.7681807726694E+01
 0.7744754964145E+01
 0.7876592229603E+01
 0.8078792114629E+01
 0.8360545278629E+01
 0.8818235666463E+01
 0.9511303742911E+01
 0.1099379806028E+02
 0.1160877978512E+02
 0.2017500571444E+02
 0.4990276996305E-01
 0.1541202022184E+00
 0.2104462685424E+00
 0.2387421054615E+00
 0.2523916349577E+00
 0.2586394415189E+00
 0.2602203330110E+00
 0.2566116397518E+00
 0.2451577060374E+00
 0.2221410789750E+00
 0.1841392886622E+00
 0.1298172924989E+00
 0.6437960344795E-01
 0.5913863897479E-01
 0.1503843939627E+00
 0.2599686792602E+00
 0.3767420748587E+00
 0.4960161100059E+00
 0.6148418875237E+00
 0.7090671227046E+00
 0.5962392480170E-01
 0.1667822878825E+00
 0.2272586038097E+00
 0.2587234833318E+00
 0.2735420269593E+00
 0.2788559116283E+00
 0.2776456021689E+00
 0.2698380202324E+00
 0.2533407204566E+00
 0.2250710046411E+00
 0.1822613572369E+00
 0.1241238859011E+00
 0.5755376873144E-01
 0.6768372188807E-01
 0.1637056657075E+00
 0.2757624096347E+00
 0.3949375383966E+00
 0.5171830157550E+00
 0.6306397557782E+00
 0.7139599560983E+00
 0.6793490141216E-01
 0.1770841739491E+00
 0.2408570185930E+00
 0.2749971479232E+00
 0.2909356355115E+00
 0.2955600059988E+00
 0.2920132270264E+00
 0.2806010047959E+00
 0.2597347521758E+00
 0.2269121940670E+00
 0.1799257114080E+00
 0.1184569744914E+00
 0.5169332860295E-01
 0.7653304738186E-01
 0.1761998096502E+00
 0.2902320759543E+00
 0.4110355150406E+00
 0.5323208880587E+00
 0.6409691375517E+00
 0.7286803994160E+00
 0.7521759083200E-01
 0.1852293700326E+00
 0.2515580208053E+00
 0.2879521577068E+00
 0.3049377826910E+00
 0.3090919515805E+00
 0.3036319324722E+00
 0.2891737733511E+00
 0.2645736910068E+00
 0.2278422846388E+00
 0.1772558724342E+00
 0.1129449177497E+00
 0.4703609553334E-01
 0.8518973188672E-01
 0.1876040306855E+00
 0.3030248514091E+00
 0.4240968149577E+00
 0.5435524803157E+00
 0.6512625979067E+00
 0.7442759280599E+00
 0.8164369854322E-01
 0.1915461720964E+00
 0.2596874966414E+00
 0.2979465417587E+00
 0.3159058535106E+00
 0.3197830738304E+00
 0.3128014711686E+00
 0.2958197774844E+00
 0.2680776973712E+00
 0.2280341160046E+00
 0.1743912211079E+00
 0.1077137314122E+00
 0.4372492434428E-01
 0.9328366967273E-01
 0.1976852140225E+00
 0.3137982919225E+00
 0.4344160800768E+00
 0.5526360839584E+00
 0.6607975075989E+00
 0.7583740304444E+00
 0.8734260181615E-01
 0.1962993833804E+00
 0.2655744481712E+00
 0.3053233740425E+00
 0.3241811568413E+00
 0.3279541960930E+00
 0.3198114789566E+00
 0.3007918131360E+00
 0.2704581514247E+00
 0.2276588084771E+00
 0.1714723653471E+00
 0.1028834508939E+00
 0.4174758182210E-01
 0.1005378462671E+00
 0.2062505660176E+00
 0.3225199605617E+00
 0.4424889713507E+00
 0.5599399862296E+00
 0.6689888073050E+00
 0.7700718342908E+00
 0.9241796776223E-01
 0.1997176369150E+00
 0.2695202814700E+00
 0.3104107485284E+00
 0.3300897308978E+00
 0.3339132355332E+00
 0.3249406234887E+00
 0.3043327520520E+00
 0.2719191000947E+00
 0.2268834292997E+00
 0.1686366616833E+00
 0.9856515295793E-01
 0.4090807102034E-01
 0.1067464271384E+00
 0.2132090131277E+00
 0.3292904273888E+00
 0.4485644882335E+00
 0.5655000413965E+00
 0.6754156270220E+00
 0.7789989865008E+00
 0.9695764261485E-01
 0.2020000518030E+00
 0.2717994863987E+00
 0.3135160314697E+00
 0.3339417772825E+00
 0.3379545344311E+00
 0.3284560496477E+00
 0.3066757878073E+00
 0.2726569745488E+00
 0.2258692515010E+00
 0.1660155497243E+00
 0.9485775251377E-01
 0.4087129481591E-01
 0.1117719902630E+00
 0.2185389028983E+00
 0.3341997780962E+00
 0.4527539695425E+00
 0.5692515578877E+00
 0.6798084192233E+00
 0.7850125140860E+00
 0.1010381731529E+00
 0.2033226612933E+00
 0.2726613698464E+00
 0.3149251648011E+00
 0.3360303080319E+00
 0.3403584294109E+00
 0.3306131211786E+00
 0.3080442242609E+00
 0.2728599856699E+00
 0.2247703469564E+00
 0.1637324512640E+00
 0.9184577845735E-01
 0.4125929883199E-01
 0.1155297857080E+00
 0.2222448297438E+00
 0.3373100447328E+00
 0.4550983038014E+00
 0.5711181287424E+00
 0.6820024427268E+00
 0.7880769657953E+00
 0.1047275249557E+00
 0.2038426706462E+00
 0.2723327502642E+00
 0.3149031832323E+00
 0.3366308283142E+00
 0.3413908578167E+00
 0.3316551890809E+00
 0.3086511569426E+00
 0.2727074755922E+00
 0.2237324284287E+00
 0.1619012109798E+00
 0.8959905824813E-01
 0.4173783735327E-01
 0.1179694561067E+00
 0.2243393272166E+00
 0.3386606135248E+00
 0.4556092668840E+00
 0.5710397633854E+00
 0.6819071609047E+00
 0.7882023328739E+00
 0.1080868038068E+00
 0.2037015862953E+00
 0.2710204871607E+00
 0.3136954282435E+00
 0.3360015954146E+00
 0.3413032727373E+00
 0.3318134089945E+00
 0.3086991748242E+00
 0.2723693633542E+00
 0.2228919911113E+00
 0.1606252569355E+00
 0.8817497188337E-01
 0.4206196344413E-01
 0.1190626937501E+00
 0.2248366006277E+00
 0.3382780245688E+00
 0.4542910202758E+00
 0.5689808740047E+00
 0.6794860655682E+00
 0.7854298173106E+00
 0.1111714461019E+00
 0.2030275613146E+00
 0.2689137426761E+00
 0.3115289835460E+00
 0.3343842573081E+00
 0.3403328094663E+00
 0.3313066836914E+00
 0.3083801459173E+00
 0.2720057584929E+00
 0.2223758375260E+00
 0.1599976272249E+00
 0.8762249566140E-01
 0.4208936686164E-01
 0.1187962221986E+00
 0.2237517030693E+00
 0.3361838734774E+00
 0.4511509053635E+00
 0.5649305258459E+00
 0.6747448944508E+00
 0.7798387701137E+00
 0.1140320842525E+00
 0.2019372174232E+00
 0.2661859543936E+00
 0.3086141565443E+00
 0.3320047034360E+00
 0.3387026632406E+00
 0.3303417575462E+00
 0.3078751431135E+00
 0.2717667929925E+00
 0.2223010187083E+00
 0.1601016717814E+00
 0.8798649037771E-01
 0.4178247335601E-01
 0.1171684978462E+00
 0.2211015614015E+00
 0.3324001742534E+00
 0.4462044649086E+00
 0.5589006955050E+00
 0.6677232866352E+00
 0.7715419506022E+00
 0.1167152102397E+00
 0.2005371046550E+00
 0.2629965569875E+00
 0.3051459242780E+00
 0.3290740314959E+00
 0.3366226280569E+00
 0.3291134659006E+00
 0.3073545348132E+00
 0.2717926879872E+00
 0.2227751266033E+00
 0.1610120703122E+00
 0.8931108767820E-01
 0.4121371979415E-01
 0.1141887991248E+00
 0.2169063732653E+00
 0.3269526488282E+00
 0.4394775471310E+00
 0.5509239274167E+00
 0.6584879817949E+00
 0.7606771230862E+00
 0.1192637079876E+00
 0.1989249066595E+00
 0.2594924981877E+00
 0.3013053174504E+00
 0.3257895773013E+00
 0.3342897612543E+00
 0.3278051308862E+00
 0.3069782422071E+00
 0.2722140283730E+00
 0.2238968088663E+00
 0.1627958853989E+00
 0.9164146609139E-01
 0.4057903784322E-01
 0.1098780465222E+00
 0.2111908579102E+00
 0.3198725916440E+00
 0.4310068538088E+00
 0.5410507127679E+00
 0.6471272242412E+00
 0.7474002411204E+00
 0.1217172980923E+00
 0.1971904661091E+00
 0.2558095925481E+00
 0.2972607394208E+00
 0.3223359796272E+00
 0.3318891468778E+00
 0.3265890871800E+00
 0.3068961446808E+00
 0.2731521930600E+00
 0.2257563893246E+00
 0.1655134840280E+00
 0.9502382284435E-01
 0.4021393983593E-01
 0.1042713428328E+00
 0.2039852590369E+00
 0.3111977845287E+00
 0.4208395902972E+00
 0.5293468156015E+00
 0.6337460650849E+00
 0.7318799875274E+00
 0.1241129218531E+00
 0.1954166829826E+00
 0.2520737513706E+00
 0.2931692288700E+00
 0.3188862675342E+00
 0.3295947388882E+00
 0.3256273181725E+00
 0.3072486048634E+00
 0.2747198869240E+00
 0.2284365111744E+00
 0.1692192524704E+00
 0.9950384402907E-01
 0.4059021474466E-01
 0.9742299090789E-01
 0.1953261682081E+00
 0.3009727873847E+00
 0.4090326034534E+00
 0.5158906633210E+00
 0.6184623660767E+00
 0.7142932552828E+00
 0.1264850852992E+00
 0.1936803256661E+00
 0.2484021232304E+00
 0.2891776807593E+00
 0.3156029666962E+00
 0.3275702702077E+00
 0.3250721815616E+00
 0.3081670817525E+00
 0.2770217277652E+00
 0.2320127502334E+00
 0.1739620883801E+00
 0.1051243278028E+00
 0.4225562453874E-01
 0.8941601426825E-01
 0.1852573289526E+00
 0.2892488429851E+00
 0.3956512466937E+00
 0.5007708675268E+00
 0.6014033268844E+00
 0.6948214747767E+00
 0.1288661762926E+00
 0.1920527852445E+00
 0.2449041745293E+00
 0.2854240416753E+00
 0.3126392255810E+00
 0.3259702166602E+00
 0.3250672043851E+00
 0.3097748033053E+00
 0.2801548535476E+00
 0.2365541704139E+00
 0.1797856947323E+00
 0.1119227201222E+00
 0.4570080657598E-01
 0.8038086769817E-01
 0.1738306673169E+00
 0.2760835667551E+00
 0.3807681265796E+00
 0.4840838932838E+00
 0.5827024235179E+00
 0.6736474233434E+00
 0.1312867649501E+00
 0.1906007977923E+00
 0.2416827369676E+00
 0.2820384970487E+00
 0.3101399657130E+00
 0.3249408079184E+00
 0.3257479301253E+00
 0.3121874747380E+00
 0.2842095255732E+00
 0.2421238099364E+00
 0.1867287232112E+00
 0.1199291701968E+00
 0.5121940168785E-01
 0.7053437850993E-01
 0.1611079572840E+00
 0.2615405622629E+00
 0.3644618298796E+00
 0.4659319409798E+00
 0.5624966098788E+00
 0.6509523952610E+00
 0.1337758954869E+00
 0.1893871555553E+00
 0.2388350468225E+00
 0.2791446681421E+00
 0.3082430619297E+00
 0.3246210794755E+00
 0.3272428029660E+00
 0.3155140033520E+00
 0.2892697112491E+00
 0.2487790976712E+00
 0.1948248239995E+00
 0.1291654125258E+00
 0.5886880087672E-01
 0.6026580887434E-01
 0.1471638665092E+00
 0.2456891013922E+00
 0.3468156844222E+00
 0.4464210719276E+00
 0.5409239687486E+00
 0.6269135289031E+00
 0.1363613764009E+00
 0.1884714255878E+00
 0.2364537998508E+00
 0.2768608369258E+00
 0.3070805593642E+00
 0.3251439607821E+00
 0.3296740762521E+00
 0.3198572245348E+00
 0.2954136362447E+00
 0.2565722064030E+00
 0.2041026567927E+00
 0.1396444814077E+00
 0.6854275194124E-01
 0.5033349176965E-01
 0.1320919031463E+00
 0.2286040271185E+00
 0.3279166231268E+00
 0.4256594907289E+00
 0.5181221068894E+00
 0.6017025162294E+00
 0.1390700753753E+00
 0.1879106931443E+00
 0.2346282452155E+00
 0.2753012169245E+00
 0.3067799338262E+00
 0.3266373948518E+00
 0.3331587333399E+00
 0.3253146164449E+00
 0.3027143004913E+00
 0.2655503544932E+00
 0.2145859072026E+00
 0.1513710658035E+00
 0.8007021801112E-01
 0.4227264890868E-01
 0.1160166832524E+00
 0.2103661259454E+00
 0.3078541789487E+00
 0.4037561017547E+00
 0.4942266679583E+00
 0.5754860507690E+00
 0.1419282254257E+00
 0.1877603468217E+00
 0.2334453419022E+00
 0.2745772877403E+00
 0.3074654012924E+00
 0.3292254838190E+00
 0.3378094092803E+00
 0.3319789927983E+00
 0.3112399557973E+00
 0.2757560695739E+00
 0.2262933376022E+00
 0.1643422430903E+00
 0.9327832055252E-01
 0.3878209079888E-01
 0.9912103753155E-01
 0.1910633907972E+00
 0.2867196983928E+00
 0.3808192126591E+00
 0.4693702633820E+00
 0.5484234632484E+00
 0.1449617495167E+00
 0.1880749230639E+00
 0.2329910014162E+00
 0.2747992100281E+00
 0.3092592803373E+00
 0.3330296533003E+00
 0.3437353014366E+00
 0.3399391645206E+00
 0.3210545453200E+00
 0.2872274284714E+00
 0.2392388873260E+00
 0.1785483578561E+00
 0.1080162454353E+00
 0.4241234853128E-01
 0.8171160321200E-01
 0.1707940261663E+00
 0.2646058401212E+00
 0.3569554079884E+00
 0.4436811536528E+00
 0.5206652857479E+00
 0.1481966121716E+00
 0.1889090293539E+00
 0.2333514411631E+00
 0.2760773362835E+00
 0.3122834087447E+00
 0.3381698262135E+00
 0.3510430562972E+00
 0.3492805615742E+00
 0.3322181061856E+00
 0.2999982863338E+00
 0.2534318266885E+00
 0.1939738849984E+00
 0.1241580939825E+00
 0.5278626204081E-01
 0.6439640417214E-01
 0.1496730510430E+00
 0.2416065259408E+00
 0.3322684894202E+00
 0.4172820031264E+00
 0.4923531046860E+00
 0.1516592087811E+00
 0.1903183686505E+00
 0.2346146740723E+00
 0.2785238310652E+00
 0.3166606124456E+00
 0.3447655941166E+00
 0.3598376183946E+00
 0.3600858057048E+00
 0.3447871356280E+00
 0.3140985048777E+00
 0.2688769637105E+00
 0.2105981949708E+00
 0.1415983143340E+00
 0.6768561928925E-01
 0.4861720958476E-01
 0.1278470326344E+00
 0.2178176420636E+00
 0.3068585634440E+00
 0.3902889523809E+00
 0.4636200317363E+00
 0.1553768065911E+00
 0.1923608929218E+00
 0.2368721620192E+00
 0.2822544122514E+00
 0.3225162211272E+00
 0.3529373706938E+00
 0.3702230247081E+00
 0.3724352222107E+00
 0.3588149167892E+00
 0.3295541834692E+00
 0.2855748997683E+00
 0.2283962019831E+00
 0.1602459385026E+00
 0.8541634862655E-01
 0.3808386847428E-01
 0.1055293583868E+00
 0.1933391520679E+00
 0.2808214006027E+00
 0.3628108961186E+00
 0.4345913624427E+00
 0.1593780564285E+00
 0.1950981223154E+00
 0.2402206647067E+00
 0.2873902238708E+00
 0.3299796219899E+00
 0.3628075103579E+00
 0.3823031283419E+00
 0.3864072798966E+00
 0.3743517999203E+00
 0.3463878954895E+00
 0.3035223382775E+00
 0.2473389308038E+00
 0.1800196882039E+00
 0.1050642706808E+00
 0.3903789872700E-01
 0.8309511674493E-01
 0.1682800808639E+00
 0.2542481280867E+00
 0.3349488427668E+00
 0.4053852528789E+00
 0.1636936015196E+00
 0.1985966792183E+00
 0.2447643211727E+00
 0.2940598480837E+00
 0.3391858358056E+00
 0.3745013672339E+00
 0.3961822285103E+00
 0.4020789404537E+00
 0.3914454217060E+00
 0.3646189138728E+00
 0.3227124386919E+00
 0.2673940563520E+00
 0.2008443507575E+00
 0.1261405176009E+00
 0.5189321531662E-01
 0.6138055911860E-01
 0.1427699851684E+00
 0.2272254234391E+00
 0.3067951209336E+00
 0.3761130935130E+00
 0.1683568220706E+00
 0.2029301069738E+00
 0.2506170109510E+00
 0.3024014610547E+00
 0.3502770905517E+00
 0.3881482618114E+00
 0.4119655798342E+00
 0.4195258963568E+00
 0.4101408388149E+00
 0.3842633936305E+00
 0.3431351932060E+00
 0.2885264786392E+00
 0.2226483505490E+00
 0.1483556447199E+00
 0.7110277459452E-01
 0.4278959220800E-01
 0.1169869091262E+00
 0.1998367184080E+00
 0.2784318617285E+00
 0.3468780053128E+00
 0.1734047731001E+00
 0.2081810737821E+00
 0.2579050543700E+00
 0.3125651298108E+00
 0.3634043529511E+00
 0.4038823121324E+00
 0.4297597532053E+00
 0.4388226839578E+00
 0.4304805597846E+00
 0.4053344742762E+00
 0.3647777841582E+00
 0.3106989898304E+00
 0.2453624192337E+00
 0.1715146951974E+00
 0.9326333173380E-01
 0.3447160732307E-01
 0.9123374129903E-01
 0.1721659576234E+00
 0.2499277949525E+00
 0.3177688863813E+00
 0.1788794060347E+00
 0.2144441111625E+00
 0.2667703255392E+00
 0.3247152290309E+00
 0.3787287515018E+00
 0.4218430705375E+00
 0.4496728178503E+00
 0.4600426672045E+00
 0.4525044755181E+00
 0.4278422657058E+00
 0.3876248344615E+00
 0.3338730114964E+00
 0.2689193322864E+00
 0.1954697765983E+00
 0.1170094184732E+00
 0.4379670833457E-01
 0.6618710300725E-01
 0.1443079566478E+00
 0.2213336225349E+00
 0.2888549978727E+00
 0.1848292235973E+00
 0.2218291093746E+00
 0.2773738553632E+00
 0.3390328992173E+00
 0.3964227650604E+00
 0.4421758644512E+00
 0.4718142866829E+00
 0.4832578626802E+00
 0.4762496757026E+00
 0.4517936774199E+00
 0.4116583758495E+00
 0.3580091563090E+00
 0.2932545648453E+00
 0.2200987951313E+00
 0.1417322504801E+00
 0.6388273794713E-01
 0.4391699453279E-01
 0.1163965155883E+00
 0.1926787161814E+00
 0.2601993065330E+00
 0.1913116294823E+00
 0.2304659320293E+00
 0.2898999731534E+00
 0.3557183841190E+00
 0.4166709901586E+00
 0.4650317626849E+00
 0.4962948056156E+00
 0.5085386296188E+00
 0.5017502143033E+00
 0.4771921907942E+00
 0.4368575358962E+00
 0.3830671850135E+00
 0.3183074348239E+00
 0.2452975880839E+00
 0.1670958152223E+00
 0.8782921590118E-01
 0.3199469465764E-01
 0.8869025653552E-01
 0.1639677059770E+00
 0.2318583401572E+00
 0.1983965010076E+00
 0.2405106512656E+00
 0.3045609472588E+00
 0.3749927514524E+00
 0.4396702238352E+00
 0.4905670359971E+00
 0.5232255451479E+00
 0.5359531470712E+00
 0.5290368143341E+00
 0.5040376480427E+00
 0.4631980625973E+00
 0.4090050564119E+00
 0.3440208541623E+00
 0.2709798830935E+00
 0.1928795185278E+00
 0.1132406801065E+00
 0.4122877579564E-01
 0.6188576657918E-01
 0.1351750265454E+00
 0.2038502778739E+00
 0.2061719726488E+00
 0.2521546884568E+00
 0.3216011335075E+00
 0.3970983717449E+00
 0.4656283659452E+00
 0.5189423795093E+00
 0.5527172506484E+00
 0.5655666307956E+00
 0.5581365605820E+00
 0.5323262944633E+00
 0.4906520254544E+00
 0.4357776043695E+00
 0.3703384466465E+00
 0.2970763451905E+00
 0.2189383564956E+00
 0.1392075421331E+00
 0.6287044048539E-01
 0.3859830587843E-01
 0.1062524118607E+00
 0.1760910455330E+00
 0.2147562050843E+00
 0.2656356477815E+00
 0.3413003578579E+00
 0.4222941919589E+00
 0.4947636191132E+00
 0.5503218714804E+00
 0.5848787109125E+00
 0.5974400303323E+00
 0.5890724439249E+00
 0.5620511180856E+00
 0.5191881395438E+00
 0.4633350973709E+00
 0.3972008227110E+00
 0.3235249833801E+00
 0.2451922475247E+00
 0.1653208211235E+00
 0.8776908892774E-01
 0.2964701579613E-01
 0.7724779797817E-01
 0.1482299853666E+00
 0.2243177228661E+00
 0.2812696015794E+00
 0.3639478158872E+00
 0.4508545431942E+00
 0.5273046283676E+00
 0.5848707066641E+00
 0.6198150887722E+00
 0.6316279417658E+00
 0.6218618450924E+00
 0.5932032697616E+00
 0.5487728762196E+00
 0.4916227384456E+00
 0.4245406156733E+00
 0.3502631502528E+00
 0.2715861420738E+00
 0.1914665194564E+00
 0.1131977136506E+00
 0.4376817673173E-01
 0.4900027487956E-01
 0.1191616235060E+00
 0.2352425236276E+00
 0.2992913981506E+00
 0.3898333388876E+00
 0.4830784138632E+00
 0.5634846884351E+00
 0.6227542687131E+00
 0.6576254592965E+00
 0.6681765705508E+00
 0.6565134559766E+00
 0.6257708142761E+00
 0.5793802200544E+00
 0.5205766700394E+00
 0.4522795853169E+00
 0.3772180611356E+00
 0.2980744091213E+00
 0.2176027041659E+00
 0.1387089668624E+00
 0.6551179026344E-01
 0.2852171805013E-01
 0.8466029950174E-01
 0.1879094950715E+01
 0.2302334433325E+01
 0.1670925599570E+01
 0.1282849991090E+01
 0.9924116156157E+00
 0.7579449901508E+00
 0.5567582824815E+00
 0.3755062999009E+00
 0.1938985921004E+00
 0.8874990420526E-02
 0.1350998614093E+00
 0.1550524956084E+00
 0.1513992332534E+00
 0.1537541134425E+00
 0.1615375152363E+00
 0.1703049668245E+00
 0.1782453143740E+00
 0.1837360011206E+00
 0.1860882870289E+00
 0.1849260675073E+00
 0.1429771144188E+01
 0.2178452149245E+01
 0.1746932713663E+01
 0.1319810089423E+01
 0.1003069467362E+01
 0.7465797387878E+00
 0.5226435239590E+00
 0.3118453361388E+00
 0.9892243287519E-01
 0.1037576025549E+00
 0.1986851591967E+00
 0.1676540696637E+00
 0.1264998095212E+00
 0.1235408423464E+00
 0.1420169393287E+00
 0.1645246085629E+00
 0.1845479715324E+00
 0.1999398683303E+00
 0.2098261284218E+00
 0.2131204719888E+00
 0.1117040352303E+01
 0.1832695502845E+01
 0.1678754810448E+01
 0.1324649536790E+01
 0.1001454203243E+01
 0.7313033051005E+00
 0.4912747523783E+00
 0.2633035043811E+00
 0.3997913607912E-01
 0.1559274995101E+00
 0.2365469648768E+00
 0.1878661981350E+00
 0.1189193138863E+00
 0.1111370073492E+00
 0.1458123712493E+00
 0.1839333880247E+00
 0.2160761911853E+00
 0.2408338692760E+00
 0.2575041449536E+00
 0.2667625771889E+00
 0.8874836869770E+00
 0.1513527302907E+01
 0.1512214188260E+01
 0.1271384967713E+01
 0.9797041852477E+00
 0.7092370559403E+00
 0.4621100695363E+00
 0.2275071071393E+00
 0.6946313568580E-02
 0.1812836610459E+00
 0.2549482228620E+00
 0.2033653228780E+00
 0.1186132735785E+00
 0.1042652311149E+00
 0.1558816543540E+00
 0.2103327967747E+00
 0.2553535101345E+00
 0.2904239041540E+00
 0.3154893794889E+00
 0.3319301540149E+00
 0.7114191494766E+00
 0.1236888115669E+01
 0.1317529232635E+01
 0.1169804276567E+01
 0.9303290657429E+00
 0.6767940855710E+00
 0.4329557993896E+00
 0.2003745340838E+00
 0.1741077229673E-01
 0.1899563876993E+00
 0.2593355522056E+00
 0.2113135861339E+00
 0.1201444014626E+00
 0.9837775110139E-01
 0.1645702336228E+00
 0.2349451443517E+00
 0.2937083092247E+00
 0.3404988683610E+00
 0.3754887430913E+00
 0.4002929873896E+00
 0.5727926622697E+00
 0.1001881633106E+01
 0.1121282391563E+01
 0.1042000754814E+01
 0.8558952498992E+00
 0.6312236787904E+00
 0.4009939576256E+00
 0.1778533420025E+00
 0.2834301887659E-01
 0.1884156500972E+00
 0.2540789504966E+00
 0.2119040682736E+00
 0.1205666001854E+00
 0.9281408162657E-01
 0.1705855326363E+00
 0.2553961473084E+00
 0.3279803236585E+00
 0.3873196601908E+00
 0.4332936304095E+00
 0.4672894349744E+00
 0.4615696202296E+00
 0.8031909906986E+00
 0.9353623783435E+00
 0.9031245101202E+00
 0.7642153162768E+00
 0.5730392288498E+00
 0.3640277219176E+00
 0.1565097218981E+00
 0.3482163123885E-01
 0.1811708168352E+00
 0.2426501470880E+00
 0.2064670669810E+00
 0.1185597638571E+00
 0.8781144710579E-01
 0.1745866564556E+00
 0.2717124148461E+00
 0.3573207701889E+00
 0.4292647729089E+00
 0.4866735527218E+00
 0.5303044909189E+00
 0.3710773293768E+00
 0.6354031565683E+00
 0.7646933680392E+00
 0.7629227721366E+00
 0.6627816736472E+00
 0.5050354948942E+00
 0.3213512490678E+00
 0.1338788571985E+00
 0.3985370491548E-01
 0.1714987073534E+00
 0.2278208680083E+00
 0.1966788374693E+00
 0.1139232224234E+00
 0.8363574530760E-01
 0.1774318713771E+00
 0.2845241191459E+00
 0.3817517238040E+00
 0.4656851525079E+00
 0.5344140775515E+00
 0.5877237449839E+00
 0.2966555559949E+00
 0.4937441301862E+00
 0.6109644712664E+00
 0.6273448644534E+00
 0.5576003533948E+00
 0.4306304217856E+00
 0.2735395451459E+00
 0.1086206452148E+00
 0.4561108794529E-01
 0.1617720524902E+00
 0.2117832988342E+00
 0.1842202307847E+00
 0.1071159889591E+00
 0.8046274379006E-01
 0.1796956090121E+00
 0.2944353372567E+00
 0.4015490070458E+00
 0.4963875837515E+00
 0.5758715816938E+00
 0.6385562918492E+00
 0.2349320108924E+00
 0.3741877330138E+00
 0.4742725794830E+00
 0.4998829229398E+00
 0.4530916362462E+00
 0.3530663779020E+00
 0.2218716356460E+00
 0.8036441504260E-01
 0.5342487589529E-01
 0.1536201615026E+00
 0.1962172895534E+00
 0.1706111037604E+00
 0.9891635084918E-01
 0.7836534485302E-01
 0.1816106968702E+00
 0.3018466160951E+00
 0.4169966192557E+00
 0.5213835589545E+00
 0.6107538763068E+00
 0.6822465675405E+00
 0.1833963170914E+00
 0.2733804159043E+00
 0.3539298781136E+00
 0.3824487943205E+00
 0.3523464827412E+00
 0.2750845459207E+00
 0.1678879730254E+00
 0.4945806564188E-01
 0.6393280584192E-01
 0.1480433284191E+00
 0.1823348596746E+00
 0.1571252507356E+00
 0.9018814424262E-01
 0.7726999597098E-01
 0.1831365872956E+00
 0.3069460559507E+00
 0.4283026664769E+00
 0.5407662771132E+00
 0.6389955495490E+00
 0.7185664905810E+00
 0.1401358703848E+00
 0.1885415076783E+00
 0.2488788414665E+00
 0.2759408962887E+00
 0.2574260316747E+00
 0.1988511384624E+00
 0.1131173147783E+00
 0.1731151021462E-01
 0.7724531083609E-01
 0.1455321736185E+00
 0.1709283090419E+00
 0.1447516539218E+00
 0.8172424375859E-01
 0.7692395232502E-01
 0.1840574899470E+00
 0.3097591219840E+00
 0.4355863275137E+00
 0.5546489956344E+00
 0.6606781136588E+00
 0.7475412206032E+00
 0.1036651159544E+00
 0.1173964762334E+00
 0.1579278245262E+00
 0.1806139222745E+00
 0.1696239459635E+00
 0.1259923105216E+00
 0.5894581233926E-01
 0.2032984583013E-01
 0.9310765692811E-01
 0.1461929651401E+00
 0.1624331706384E+00
 0.1341909739701E+00
 0.7414767530720E-01
 0.7692674368226E-01
 0.1840802353822E+00
 0.3102165859938E+00
 0.4388955395885E+00
 0.5631322907613E+00
 0.6759703584531E+00
 0.7693941643074E+00
 0.7281208763496E-01
 0.5830212462163E-01
 0.7997786407590E-01
 0.9635291398432E-01
 0.8968460578722E-01
 0.5766908248406E-01
 0.7184332633094E-02
 0.5447735722976E-01
 0.1110462865628E+00
 0.1498649011903E+00
 0.1570031288359E+00
 0.1258816535645E+00
 0.6786573468971E-01
 0.7682133232115E-01
 0.1829228529616E+00
 0.3082281666055E+00
 0.4382405365465E+00
 0.5662841288787E+00
 0.6850738937392E+00
 0.7845050931088E+00
 0.4664368837933E-01
 0.1471062931473E-01
 0.1672130144995E-01
 0.2353432258288E-01
 0.1826102957235E-01
 0.5376764430106E-02
 0.4367286502174E-01
 0.8899173345733E-01
 0.1304850684678E+00
 0.1562190921306E+00
 0.1545878024231E+00
 0.1200490258254E+00
 0.6308213790059E-01
 0.7619638688379E-01
 0.1803907524295E+00
 0.3037633890243E+00
 0.4336440429873E+00
 0.5641280105835E+00
 0.6881600836257E+00
 0.7933771584807E+00
 0.2443420497952E-01
 0.3694024391782E-01
 0.4565447888083E-01
 0.4259406496772E-01
 0.4615290333317E-01
 0.6258412601981E-01
 0.9018977587045E-01
 0.1225911277647E+00
 0.1508271064470E+00
 0.1648357190802E+00
 0.1550038648111E+00
 0.1167672957277E+00
 0.5986752821665E-01
 0.7475097629528E-01
 0.1764347342761E+00
 0.2969472484057E+00
 0.4252287976681E+00
 0.5566455010241E+00
 0.6852824044907E+00
 0.7966021384252E+00
 0.6077864892307E-02
 0.7003191274147E-01
 0.9231595016783E-01
 0.9690326935477E-01
 0.1017463935358E+00
 0.1138110147536E+00
 0.1329703690734E+00
 0.1546216447516E+00
 0.1715066075430E+00
 0.1752603269455E+00
 0.1579921420909E+00
 0.1160205675124E+00
 0.5826676488029E-01
 0.7228825736893E-01
 0.1711577646214E+00
 0.2881827336915E+00
 0.4133832209774E+00
 0.5438467209522E+00
 0.6762271918753E+00
 0.7947984459283E+00
 0.1156004387860E-01
 0.9774191169057E-01
 0.1313712780879E+00
 0.1430403691173E+00
 0.1497806656198E+00
 0.1589929802701E+00
 0.1716700238627E+00
 0.1846051606526E+00
 0.1920180933798E+00
 0.1870419958931E+00
 0.1632574985161E+00
 0.1177473503045E+00
 0.5839960430046E-01
 0.6865809207203E-01
 0.1646575216076E+00
 0.2781961615345E+00
 0.3991836106177E+00
 0.5260003392647E+00
 0.6603331936823E+00
 0.7883645098034E+00
 0.2533700021866E-01
 0.1203860268333E+00
 0.1633498422600E+00
 0.1814946620761E+00
 0.1906217995868E+00
 0.1982312441350E+00
 0.2061179310835E+00
 0.2121929938258E+00
 0.2119300104198E+00
 0.1997560356235E+00
 0.1704931628231E+00
 0.1218609558459E+00
 0.6050402306535E-01
 0.6371806335445E-01
 0.1567817642587E+00
 0.2674396788862E+00
 0.3847464919285E+00
 0.5053196930726E+00
 0.6359195275486E+00
 0.7767583768031E+00
 0.3750049512603E-01
 0.1385189529303E+00
 0.1890300223950E+00
 0.2129880827883E+00
 0.2247538238597E+00
 0.2317318283332E+00
 0.2362626882512E+00
 0.2371446353397E+00
 0.2308923468163E+00
 0.2130143789169E+00
 0.1793861544632E+00
 0.1282584304728E+00
 0.6489531122475E-01
 0.5746069873524E-01
 0.1470039534286E+00
 0.2554530734622E+00
 0.3706672783644E+00
 0.4878450941512E+00
 0.6073273702712E+00
 0.7508972043768E+00
 0.2499093695905E+00
 0.3229910295024E+00
 0.4242495357548E+00
 0.5257300084396E+00
 0.6109288705287E+00
 0.6716418015571E+00
 0.7052685847153E+00
 0.7127095356459E+00
 0.6968588874421E+00
 0.6615001284915E+00
 0.6105477864879E+00
 0.5475966982708E+00
 0.4758134637745E+00
 0.3978755438370E+00
 0.3164292469757E+00
 0.2341007653931E+00
 0.1535723908860E+00
 0.7839252744406E-01
 0.2626365667066E-01
 0.4686983953995E-01
 0.2656983953328E+00
 0.3524459557011E+00
 0.4674745564309E+00
 0.5793711392732E+00
 0.6702039959295E+00
 0.7320272397745E+00
 0.7631777866813E+00
 0.7656870510515E+00
 0.7435005033345E+00
 0.7012479076788E+00
 0.6434747480049E+00
 0.5742563265979E+00
 0.4970213516651E+00
 0.4144257501804E+00
 0.3291105370866E+00
 0.2437133742250E+00
 0.1611115884398E+00
 0.8524510458290E-01
 0.2893976508330E-01
 0.4106741500341E-01
 0.2832113912111E+00
 0.3868044151637E+00
 0.5175342015047E+00
 0.6402909240792E+00
 0.7361165752325E+00
 0.7976959687076E+00
 0.8247047588802E+00
 0.8206257282280E+00
 0.7906790356222E+00
 0.7404643099240E+00
 0.6751950113198E+00
 0.5993733643514E+00
 0.5165619954713E+00
 0.4293943411624E+00
 0.3405386087870E+00
 0.2527351170615E+00
 0.1691087311000E+00
 0.9394145243873E-01
 0.3443491951667E-01
 0.3966726773023E-01
 0.3031138887867E+00
 0.4267938714965E+00
 0.5752445579323E+00
 0.7091017086859E+00
 0.8088468511222E+00
 0.8683858520362E+00
 0.8892294957630E+00
 0.8766796607498E+00
 0.8374492497122E+00
 0.7781949827401E+00
 0.7047860446850E+00
 0.6220848336666E+00
 0.5337024022950E+00
 0.4422233509339E+00
 0.3503399478018E+00
 0.2608149859401E+00
 0.1767630688231E+00
 0.1014436747774E+00
 0.3834260333199E-01
 0.3804566837378E-01
 0.3259796933095E+00
 0.4735143957548E+00
 0.6415751096147E+00
 0.7863952739203E+00
 0.8884561272168E+00
 0.9436405009495E+00
 0.9559085126248E+00
 0.9327858013577E+00
 0.8826794574573E+00
 0.8133448620738E+00
 0.7312509275026E+00
 0.6415253658304E+00
 0.5477262100310E+00
 0.4523405861608E+00
 0.3579936098884E+00
 0.2672706938874E+00
 0.1828281449034E+00
 0.1068345687531E+00
 0.4101138923229E-01
 0.3575914191910E-01
 0.3524818309633E+00
 0.5282472793980E+00
 0.7176507575008E+00
 0.8727340421285E+00
 0.9748323479949E+00
 0.1022751103847E+01
 0.1023627645755E+01
 0.9876418346383E+00
 0.9250588004022E+00
 0.8447121407898E+00
 0.7535558625388E+00
 0.6568406478044E+00
 0.5579431377633E+00
 0.4591689484530E+00
 0.3629378881370E+00
 0.2714421479575E+00
 0.1867603789298E+00
 0.1102733721360E+00
 0.4284102275783E-01
 0.3290585543191E-01
 0.3834391691429E+00
 0.5925171802730E+00
 0.8047146773105E+00
 0.9686084224510E+00
 0.1067621821890E+01
 0.1104685373564E+01
 0.1090954041900E+01
 0.1039692059194E+01
 0.9631160383971E+00
 0.8710270560515E+00
 0.7706711560080E+00
 0.6672228660373E+00
 0.5637218759547E+00
 0.4621910587905E+00
 0.3647056420514E+00
 0.2729444959917E+00
 0.1884295456293E+00
 0.1119840377345E+00
 0.4406579271434E-01
 0.2970432147041E-01
 0.4198700194898E+00
 0.6681480446530E+00
 0.9041167658279E+00
 0.1074362273104E+01
 0.1166133875109E+01
 0.1188002591628E+01
 0.1156088882344E+01
 0.1087126113509E+01
 0.9952545349735E+00
 0.8910043905274E+00
 0.7816245504906E+00
 0.6719572718652E+00
 0.5645370712680E+00
 0.4610076769031E+00
 0.3629929652859E+00
 0.2716022675999E+00
 0.1878462280156E+00
 0.1121454923983E+00
 0.4476676469065E-01
 0.2636062041179E-01
 0.4630577392011E+00
 0.7573347880400E+00
 0.1017289581955E+01
 0.1190088969934E+01
 0.1269210288154E+01
 0.1270752668553E+01
 0.1216826795743E+01
 0.1127899167405E+01
 0.1019811570950E+01
 0.9034147773033E+00
 0.7855651222588E+00
 0.6704726499331E+00
 0.5600089879194E+00
 0.4553667639582E+00
 0.3576462263892E+00
 0.2673666332706E+00
 0.1850721379280E+00
 0.1108753103400E+00
 0.4494245880769E-01
 0.2304220445125E-01
 0.5146392635358E+00
 0.8627316786707E+00
 0.1145700181792E+01
 0.1315476886964E+01
 0.1375050546866E+01
 0.1350360922783E+01
 0.1270533787337E+01
 0.1159787289533E+01
 0.1035150510008E+01
 0.9071755091150E+00
 0.7818321639222E+00
 0.6623849876736E+00
 0.5499260152683E+00
 0.4451628085978E+00
 0.3486320669550E+00
 0.2602672831475E+00
 0.1801851106893E+00
 0.1082470779435E+00
 0.4455353251527E-01
 0.1987534032392E-01
 0.5767292142388E+00
 0.9875623432118E+00
 0.1290755883323E+01
 0.1449575376185E+01
 0.1480978633605E+01
 0.1423507788374E+01
 0.1314165526317E+01
 0.1180496898903E+01
 0.1039792383580E+01
 0.9014559493547E+00
 0.7700186195687E+00
 0.6475248973912E+00
 0.5342467732077E+00
 0.4304203736748E+00
 0.3360084846383E+00
 0.2503831100901E+00
 0.1732680143268E+00
 0.1043085310431E+00
 0.4355020536986E-01
 0.1694853159868E-01
 0.6520996598431E+00
 0.1135755256446E+01
 0.1453624867985E+01
 0.1590434446129E+01
 0.1583136949765E+01
 0.1486027620796E+01
 0.1344363483835E+01
 0.1187850947799E+01
 0.1032586506970E+01
 0.8857834040542E+00
 0.7500143655507E+00
 0.6259408012085E+00
 0.5130831903603E+00
 0.4112685874128E+00
 0.3198981757843E+00
 0.2378232815793E+00
 0.1644058991776E+00
 0.9909656903835E-01
 0.4188851458155E-01
 0.1431578764953E-01
 0.7444491971876E+00
 0.1312104677759E+01
 0.1634895619257E+01
 0.1734542517644E+01
 0.1676101150452E+01
 0.1532883211016E+01
 0.1357688054763E+01
 0.1180071096724E+01
 0.1012902493925E+01
 0.8601226600879E+00
 0.7220124271719E+00
 0.5978739455365E+00
 0.4866679621416E+00
 0.3879103535867E+00
 0.3004639668411E+00
 0.2227135941976E+00
 0.1536863961919E+00
 0.9264925423526E-01
 0.3954094270999E-01
 0.1199901408796E-01
 0.8588209508402E+00
 0.1522441571566E+01
 0.1833921466830E+01
 0.1875939580055E+01
 0.1752446405424E+01
 0.1558336152521E+01
 0.1351071393796E+01
 0.1156148552616E+01
 0.9807941863751E+00
 0.8248907741579E+00
 0.6864673275443E+00
 0.5637092000592E+00
 0.4553126532099E+00
 0.3605897602455E+00
 0.2778860233372E+00
 0.2051858053121E+00
 0.1412017942254E+00
 0.8501658428413E-01
 0.3650512824329E-01
 0.9990712934586E-02
 0.1002282177656E+01
 0.1773752454829E+01
 0.2047514751470E+01
 0.2004825780260E+01
 0.1802404011376E+01
 0.1556559249186E+01
 0.1322559718621E+01
 0.1116224121082E+01
 0.9370397652988E+00
 0.7808783277885E+00
 0.6440141456974E+00
 0.5239143946352E+00
 0.4193641568773E+00
 0.3295598886831E+00
 0.2523400577472E+00
 0.1853686107216E+00
 0.1270529157162E+00
 0.7627224677304E-01
 0.3281353038694E-01
 0.8258834940567E-02
 0.1185092308119E+01
 0.2073991084573E+01
 0.2267260670023E+01
 0.2105410558165E+01
 0.1814130509958E+01
 0.1523070178634E+01
 0.1272307240623E+01
 0.1061715081688E+01
 0.8829727079066E+00
 0.7291000744838E+00
 0.5953768296505E+00
 0.4789847432280E+00
 0.3791642761628E+00
 0.2950502617988E+00
 0.2239743493662E+00
 0.1633795776168E+00
 0.1113558786458E+00
 0.6652918834575E-01
 0.2854638062890E-01
 0.6753909610516E-02
 0.1422906173480E+01
 0.2430856184148E+01
 0.2473371673901E+01
 0.2153335404283E+01
 0.1775764337496E+01
 0.1457641278737E+01
 0.1203030437680E+01
 0.9949044695753E+00
 0.8201785263572E+00
 0.6706396402738E+00
 0.5413015602489E+00
 0.4294023862834E+00
 0.3350111351882E+00
 0.2572277768668E+00
 0.1928824253915E+00
 0.1393184761570E+00
 0.9425473955429E-01
 0.5596085937287E-01
 0.2385185301585E-01
 0.5415157759034E-02
 0.1741171906496E+01
 0.2844596799509E+01
 0.2621910313481E+01
 0.2113217156807E+01
 0.1684805954913E+01
 0.1366101524394E+01
 0.1118841126290E+01
 0.9182970942299E+00
 0.7502052527408E+00
 0.6065602701258E+00
 0.4825319282936E+00
 0.3756167365376E+00
 0.2871080165256E+00
 0.2161375995795E+00
 0.1590682935671E+00
 0.1132707257607E+00
 0.7594163042501E-01
 0.4483010067389E-01
 0.1897234179885E-01
 0.4157998790647E-02
 0.2187874898637E+01
 0.3287376272412E+01
 0.2596581751681E+01
 0.1971037980452E+01
 0.1556098775941E+01
 0.1256318490606E+01
 0.1023864632046E+01
 0.8340824106580E+00
 0.6744380652308E+00
 0.5378701957309E+00
 0.4198524520603E+00
 0.3180425985972E+00
 0.2354774243906E+00
 0.1715676833665E+00
 0.1224165951199E+00
 0.8537354481806E-01
 0.5668115363499E-01
 0.3346885469407E-01
 0.1433819271099E-01
 0.2832664493500E-02
 0.2851099279681E+01
 0.3342233151654E+01
 0.2323315859249E+01
 0.1773406210770E+01
 0.1405418074807E+01
 0.1135410343565E+01
 0.9211530361796E+00
 0.7441380236935E+00
 0.5940719168515E+00
 0.4654080775566E+00
 0.3542584745468E+00
 0.2573205963871E+00
 0.1794367901239E+00
 0.1227609221840E+00
 0.8294079833667E-01
 0.5595164293994E-01
 0.3678771931406E-01
 0.2221413635694E-01
 0.1047055260572E-01
 0.1145361784140E-02
 0.7618677195864E+00
 0.7771186297581E+00
 0.7981791387618E+00
 0.8142006575918E+00
 0.8240674548337E+00
 0.8275161806796E+00
 0.8243270696515E+00
 0.8142140862222E+00
 0.7968572056918E+00
 0.7719557672240E+00
 0.7392867355084E+00
 0.6987680012294E+00
 0.6505289893992E+00
 0.5949905399925E+00
 0.5329576183683E+00
 0.4657411185431E+00
 0.3953493781652E+00
 0.3249315757580E+00
 0.2595817098926E+00
 0.2100112251339E+00
 0.7871903270019E+00
 0.8131775263562E+00
 0.8350692841139E+00
 0.8534436854811E+00
 0.8666838663287E+00
 0.8738523586043E+00
 0.8742414370450E+00
 0.8672320209016E+00
 0.8522438052655E+00
 0.8287488802877E+00
 0.7963157887180E+00
 0.7546733499869E+00
 0.7037898973100E+00
 0.6439661543512E+00
 0.5759426303304E+00
 0.5010279536381E+00
 0.4212951984603E+00
 0.3398795718082E+00
 0.2622855360552E+00
 0.1957063471787E+00
 0.8058553098977E+00
 0.8420017886194E+00
 0.8688415561576E+00
 0.8905844175694E+00
 0.9072650471782E+00
 0.9180617452226E+00
 0.9220873091092E+00
 0.9184806640923E+00
 0.9064216894465E+00
 0.8851463049720E+00
 0.8539841318322E+00
 0.8124188369422E+00
 0.7601702452706E+00
 0.6972982824962E+00
 0.6243294021293E+00
 0.5424168326773E+00
 0.4535379547429E+00
 0.3609539420289E+00
 0.2697472429215E+00
 0.1930429576214E+00
 0.8213892732951E+00
 0.8635805045909E+00
 0.8967280823267E+00
 0.9232700648792E+00
 0.9440982088428E+00
 0.9588889808558E+00
 0.9668635348696E+00
 0.9670930992489E+00
 0.9586060252029E+00
 0.9404390478339E+00
 0.9116820268640E+00
 0.8715364146760E+00
 0.8193963203579E+00
 0.7549589318207E+00
 0.6783738377585E+00
 0.5904410276999E+00
 0.4929138497361E+00
 0.3889457254121E+00
 0.2847358446794E+00
 0.1946662233634E+00
 0.8349290266255E+00
 0.8807125638504E+00
 0.9190057744967E+00
 0.9505707213521E+00
 0.9759790292964E+00
 0.9951282195946E+00
 0.1007402535688E+01
 0.1011910977855E+01
 0.1007621960277E+01
 0.9934354556052E+00
 0.9682332522477E+00
 0.9309318204446E+00
 0.8805541855307E+00
 0.8163360757627E+00
 0.7378847781583E+00
 0.6454236913821E+00
 0.5401646570563E+00
 0.4250266405722E+00
 0.3062279537113E+00
 0.1982964377589E+00
 0.8462591593640E+00
 0.8943182945242E+00
 0.9365092194894E+00
 0.9724867653707E+00
 0.1002342501242E+01
 0.1025901286091E+01
 0.1042623934120E+01
 0.1051680446910E+01
 0.1052040242193E+01
 0.1042533067279E+01
 0.1021889534052E+01
 0.9887775360742E+00
 0.9418510986258E+00
 0.8798309381298E+00
 0.8016453646192E+00
 0.7066753720922E+00
 0.5951913935429E+00
 0.4691335544490E+00
 0.3337573237548E+00
 0.2029789488121E+00
 0.8550755981296E+00
 0.9046780013518E+00
 0.9497091038625E+00
 0.9892597434142E+00
 0.1023018499175E+01
 0.1050662171876E+01
 0.1071651292110E+01
 0.1085205183094E+01
 0.1090329323513E+01
 0.1085844473587E+01
 0.1070403544181E+01
 0.1042500163716E+01
 0.1000479498652E+01
 0.9425683287303E+00
 0.8669530363405E+00
 0.7719590507404E+00
 0.6564294599144E+00
 0.5204850550617E+00
 0.3671338834237E+00
 0.2079916717825E+00
 0.8611414037467E+00
 0.9118261682264E+00
 0.9588575169185E+00
 0.1001111218382E+01
 0.1038018235335E+01
 0.1069117573512E+01
 0.1093844491082E+01
 0.1111455775627E+01
 0.1121012993317E+01
 0.1121378507197E+01
 0.1111204661896E+01
 0.1088910149840E+01
 0.1052645126928E+01
 0.1000252537626E+01
 0.9292433055140E+00
 0.8368252212690E+00
 0.7200748192165E+00
 0.5764759058631E+00
 0.4053447088232E+00
 0.2129771197901E+00
 0.8642971113236E+00
 0.9156969477274E+00
 0.9640339773426E+00
 0.1008156394415E+01
 0.1047355497165E+01
 0.1081071356385E+01
 0.1108711908100E+01
 0.1129564260454E+01
 0.1142753496517E+01
 0.1147215782082E+01
 0.1141665543717E+01
 0.1124545142749E+01
 0.1093949555218E+01
 0.1047520278081E+01
 0.9823047807272E+00
 0.8945856763298E+00
 0.7797165954246E+00
 0.6321068856808E+00
 0.4460306554003E+00
 0.2198185794535E+00
 0.8643620519888E+00
 0.9160625708205E+00
 0.9650476579857E+00
 0.1010211743159E+01
 0.1050780752495E+01
 0.1086129679853E+01
 0.1115642451314E+01
 0.1138627614298E+01
 0.1154268509423E+01
 0.1161585125380E+01
 0.1159389942484E+01
 0.1146223730735E+01
 0.1120257577069E+01
 0.1079143741353E+01
 0.1019789626256E+01
 0.9380158368912E+00
 0.8280416734368E+00
 0.6817542186833E+00
 0.4879080188184E+00
 0.2345158149857E+00
 0.8612609231736E+00
 0.9127904600655E+00
 0.9617646315268E+00
 0.1007144626494E+01
 0.1048129720329E+01
 0.1084049048427E+01
 0.1114258953112E+01
 0.1138070874252E+01
 0.1154702272099E+01
 0.1163236292975E+01
 0.1162576325835E+01
 0.1151382221396E+01
 0.1127972869584E+01
 0.1090172993367E+01
 0.1035067126782E+01
 0.9585932778840E+00
 0.8548464774883E+00
 0.7148260284238E+00
 0.5240298800646E+00
 0.2583679694457E+00
 0.8550175124191E+00
 0.9058824822829E+00
 0.9542029876141E+00
 0.9990029884845E+00
 0.1039469029077E+01
 0.1074888641813E+01
 0.1104576742881E+01
 0.1127816007233E+01
 0.1143810994855E+01
 0.1151647713762E+01
 0.1150248543892E+01
 0.1138311571721E+01
 0.1114220671899E+01
 0.1075905819242E+01
 0.1020618217482E+01
 0.9445532118446E+00
 0.8421822593741E+00
 0.7049686248527E+00
 0.5186191873284E+00
 0.2545992683707E+00
 0.8457232061346E+00
 0.8954399055568E+00
 0.9425073181960E+00
 0.9859969790421E+00
 0.1025083259089E+01
 0.1059008854547E+01
 0.1087031213697E+01
 0.1108372365781E+01
 0.1122175061792E+01
 0.1127460552130E+01
 0.1123080774962E+01
 0.1107656404627E+01
 0.1079490112446E+01
 0.1036440051646E+01
 0.9757301092727E+00
 0.8936569434183E+00
 0.7851203888358E+00
 0.6428293188019E+00
 0.4558141299618E+00
 0.2063198268076E+00
 0.8335189582523E+00
 0.8816374359430E+00
 0.9269176781786E+00
 0.9684619664441E+00
 0.1005429762100E+01
 0.1037017759758E+01
 0.1062419662321E+01
 0.1080783470851E+01
 0.1091170268357E+01
 0.1092512336412E+01
 0.1083566199815E+01
 0.1062855532248E+01
 0.1028598771254E+01
 0.9786167786847E+00
 0.9102181064234E+00
 0.8200675701514E+00
 0.7040699711131E+00
 0.5573960638054E+00
 0.3751115018171E+00
 0.1566536374440E+00
 0.8185813829368E+00
 0.8647020647186E+00
 0.9077412456362E+00
 0.9468192590366E+00
 0.9810809829355E+00
 0.1009683410852E+01
 0.1031765141290E+01
 0.1046411307912E+01
 0.1052618323583E+01
 0.1049258507557E+01
 0.1035043457591E+01
 0.1008485753431E+01
 0.9678611297148E+00
 0.9111787902677E+00
 0.8361794672926E+00
 0.7404074536133E+00
 0.6214676553276E+00
 0.4777393687186E+00
 0.3103571902695E+00
 0.1282432031194E+00
 0.8011119073193E+00
 0.8448962960304E+00
 0.8853287581462E+00
 0.9215416902897E+00
 0.9526712465091E+00
 0.9778491368505E+00
 0.9961803293670E+00
 0.1006716851325E+01
 0.1008432231948E+01
 0.1000198582682E+01
 0.9807682235470E+00
 0.9487637047559E+00
 0.9026843722032E+00
 0.8409457227545E+00
 0.7619829148283E+00
 0.6644788266547E+00
 0.5478323925325E+00
 0.4130912119969E+00
 0.2646860844182E+00
 0.1125409749081E+00
 0.7813279453130E+00
 0.8225038391826E+00
 0.8600540658216E+00
 0.8931238832674E+00
 0.9208519733246E+00
 0.9423651879448E+00
 0.9567639424303E+00
 0.9631059027240E+00
 0.9603924622393E+00
 0.9475612938377E+00
 0.9234889271869E+00
 0.8870096966147E+00
 0.8369618221646E+00
 0.7722786612422E+00
 0.6921546864839E+00
 0.5963327451703E+00
 0.4855793107483E+00
 0.3624123418528E+00
 0.2319568904591E+00
 0.1023550882531E+00
 0.7594556802639E+00
 0.7978181965605E+00
 0.8322978179763E+00
 0.8620591261895E+00
 0.8862584326254E+00
 0.9040410291350E+00
 0.9145338247698E+00
 0.9168390322748E+00
 0.9100329576485E+00
 0.8931736212226E+00
 0.8653218622109E+00
 0.8255826226509E+00
 0.7731762710329E+00
 0.7075540468922E+00
 0.6285762892175E+00
 0.5367739175540E+00
 0.4337023858030E+00
 0.3223375547470E+00
 0.2073324139054E+00
 0.9483037623353E-01
 0.7357241750962E+00
 0.7711334640390E+00
 0.8024345915525E+00
 0.8288219453746E+00
 0.8494865554135E+00
 0.8636152488885E+00
 0.8703898326295E+00
 0.8689898971637E+00
 0.8586023772765E+00
 0.8384412554590E+00
 0.8077815735930E+00
 0.7660131346875E+00
 0.7127206243227E+00
 0.6477976673434E+00
 0.5716008137349E+00
 0.4851416429851E+00
 0.3902921558175E+00
 0.2899336672654E+00
 0.1879275457320E+00
 0.8878237831800E-01
 0.7103611063244E+00
 0.7427377022834E+00
 0.7708233588031E+00
 0.7938559551315E+00
 0.8110785017533E+00
 0.8217397608839E+00
 0.8250991525391E+00
 0.8204370325050E+00
 0.8070723611886E+00
 0.7843902286535E+00
 0.7518821892248E+00
 0.7092026760226E+00
 0.6562445207371E+00
 0.5932349547641E+00
 0.5208488622741E+00
 0.4403258973494E+00
 0.3535604109394E+00
 0.2631116158884E+00
 0.1720703123570E+00
 0.8373643453011E-01
 0.6835920174699E+00
 0.7129091150234E+00
 0.7378017345328E+00
 0.7575669549543E+00
 0.7715152167893E+00
 0.7789732340500E+00
 0.7792935021277E+00
 0.7718701115014E+00
 0.7561615062377E+00
 0.7317215148952E+00
 0.6982401694638E+00
 0.6555954908247E+00
 0.6039162211857E+00
 0.5436528405336E+00
 0.4756492909444E+00
 0.4012001154488E+00
 0.3220684007553E+00
 0.2404336559535E+00
 0.1587441702494E+00
 0.7946680073045E-01
 0.6556393533111E+00
 0.6819128869899E+00
 0.7036830341000E+00
 0.7203193282644E+00
 0.7312119395388E+00
 0.7357760891215E+00
 0.7334652042174E+00
 0.7237903782516E+00
 0.7063455176024E+00
 0.6808383541704E+00
 0.6471275842783E+00
 0.6052657487946E+00
 0.5555459917556E+00
 0.4985483108561E+00
 0.4351772500651E+00
 0.3666786918373E+00
 0.2946202276645E+00
 0.2208209565125E+00
 0.1472256381865E+00
 0.7574272085517E-01
 0.6267120594314E+00
 0.6499945613367E+00
 0.6687498503989E+00
 0.6824311838365E+00
 0.6905167185645E+00
 0.6925152109229E+00
 0.6879819225693E+00
 0.6765403154409E+00
 0.6579075952824E+00
 0.6319233542604E+00
 0.5985807135730E+00
 0.5580587311779E+00
 0.5107535404213E+00
 0.4573038389440E+00
 0.3986042550653E+00
 0.3357985170469E+00
 0.2702445965422E+00
 0.2034476732136E+00
 0.1369656897107E+00
 0.7230546451603E-01
 0.5970018528963E+00
 0.6173735672617E+00
 0.6332474019753E+00
 0.6441696986941E+00
 0.6497112973650E+00
 0.6494745856302E+00
 0.6431119061467E+00
 0.6303487324850E+00
 0.6110084796141E+00
 0.5850375719549E+00
 0.5525297976598E+00
 0.5137485325260E+00
 0.4691444884525E+00
 0.4193655504859E+00
 0.3652544330464E+00
 0.3078299200515E+00
 0.2482490462941E+00
 0.1877512430120E+00
 0.1275907206470E+00
 0.6896687749222E-01
 0.5666844918470E+00
 0.5842436909599E+00
 0.5973850760743E+00
 0.6057555415121E+00
 0.6090200625785E+00
 0.6068705132564E+00
 0.5990471320149E+00
 0.5853632164283E+00
 0.5657288746731E+00
 0.5401722322170E+00
 0.5088572408391E+00
 0.4720970209873E+00
 0.4303610800369E+00
 0.3842742210221E+00
 0.3346048895446E+00
 0.2822414957275E+00
 0.2281571439314E+00
 0.1733659372252E+00
 0.1188762822184E+00
 0.6564661924281E-01
 0.5359206281901E+00
 0.5507749664647E+00
 0.5613397882440E+00
 0.5673687974367E+00
 0.5686194266196E+00
 0.5648650697369E+00
 0.5559211828134E+00
 0.5416723133687E+00
 0.5220950985169E+00
 0.4972759140881E+00
 0.4674229312321E+00
 0.4328722457047E+00
 0.3940873238954E+00
 0.3516507514933E+00
 0.3062475032083E+00
 0.2586399124713E+00
 0.2096362901404E+00
 0.1600573165295E+00
 0.1107056797243E+00
 0.6234315411995E-01
 0.5048565270701E+00
 0.5171150561346E+00
 0.5252591514369E+00
 0.5291547763676E+00
 0.5286468040253E+00
 0.5235784077892E+00
 0.5138246934455E+00
 0.4993235449209E+00
 0.4800985224136E+00
 0.4562734818190E+00
 0.4280798028476E+00
 0.3958569106494E+00
 0.3600462733948E+00
 0.3211787762074E+00
 0.2798555466542E+00
 0.2367230422246E+00
 0.1924446119433E+00
 0.1476729752842E+00
 0.1030304952490E+00
 0.5910406741437E-01
 0.4736246847458E+00
 0.4833903488515E+00
 0.4892644448719E+00
 0.4912296093563E+00
 0.4892088684684E+00
 0.4830992848492E+00
 0.4728175165909E+00
 0.4583363472340E+00
 0.4397080834125E+00
 0.4170765124120E+00
 0.3906800222879E+00
 0.3608478066383E+00
 0.3279902157142E+00
 0.2925837752602E+00
 0.2551512809564E+00
 0.2162376598710E+00
 0.1763829309341E+00
 0.1360953223762E+00
 0.9583251031835E-01
 0.5600555574462E-01
 0.4423433740220E+00
 0.4497056597175E+00
 0.4534528409434E+00
 0.4536855263476E+00
 0.4503892738853E+00
 0.4434942468765E+00
 0.4329383850878E+00
 0.4187112509135E+00
 0.4008779400393E+00
 0.3795882046678E+00
 0.3550757327205E+00
 0.3276508884272E+00
 0.2976887284179E+00
 0.2656131630654E+00
 0.2318776687396E+00
 0.1969427154038E+00
 0.1612498312403E+00
 0.1251915953887E+00
 0.8907986089414E-01
 0.5313344868421E-01
 0.4111156662664E+00
 0.4161452408757E+00
 0.4179029097596E+00
 0.4166002222869E+00
 0.4122600363338E+00
 0.4048192697072E+00
 0.3942154490981E+00
 0.3804382737749E+00
 0.3635528516925E+00
 0.3437049278806E+00
 0.3211159861168E+00
 0.2960729189748E+00
 0.2689146052696E+00
 0.2400163491835E+00
 0.2097724143972E+00
 0.1785763748842E+00
 0.1467980123270E+00
 0.1147532206181E+00
 0.8265491605827E-01
 0.5053849623769E-01
 0.3800262133352E+00
 0.3827752352465E+00
 0.3826837822122E+00
 0.3800495527818E+00
 0.3748946383865E+00
 0.3671310030854E+00
 0.3566742137408E+00
 0.3435007489771E+00
 0.3276674790180E+00
 0.3093107919702E+00
 0.2886365645762E+00
 0.2659067993064E+00
 0.2414253613819E+00
 0.2155235243114E+00
 0.1885452907790E+00
 0.1608320786059E+00
 0.1327056685456E+00
 0.1044457312920E+00
 0.7624979524912E-01
 0.4810542060962E-01
 0.3491370043155E+00
 0.3496527449699E+00
 0.3478713277888E+00
 0.3441257457445E+00
 0.3383847075105E+00
 0.3304994483851E+00
 0.3203450504152E+00
 0.3078774411289E+00
 0.2931433865975E+00
 0.2762700489363E+00
 0.2574485050582E+00
 0.2369173297718E+00
 0.2149480250553E+00
 0.1918322731258E+00
 0.1678705446604E+00
 0.1433617337091E+00
 0.1185939273979E+00
 0.9383668820493E-01
 0.6933530213860E-01
 0.4529140072993E-01
 0.3184692212216E+00
 0.3168114000619E+00
 0.3135320691061E+00
 0.3089188672547E+00
 0.3028167241631E+00
 0.2949796465592E+00
 0.2852319062006E+00
 0.2735117171107E+00
 0.2598623998696E+00
 0.2444080945723E+00
 0.2273298590948E+00
 0.2088468033967E+00
 0.1892021566695E+00
 0.1686529718900E+00
 0.1474623074410E+00
 0.1258934855603E+00
 0.1042074477808E+00
 0.8266807458846E-01
 0.6156855377393E-01
 0.4135628139913E-01
 0.2879735644899E+00
 0.2842083177607E+00
 0.2796701990544E+00
 0.2744614271396E+00
 0.2682119935977E+00
 0.2605509892604E+00
 0.2512596350493E+00
 0.2402764716455E+00
 0.2276573861747E+00
 0.2135340637978E+00
 0.1980838752106E+00
 0.1815107947886E+00
 0.1640340112839E+00
 0.1458813698958E+00
 0.1272859237739E+00
 0.1084846091481E+00
 0.8971968599273E-01
 0.7124687638310E-01
 0.5336629266871E-01
 0.3650651356791E-01
 0.2576286598472E+00
 0.2518879086645E+00
 0.2464385239315E+00
 0.2409534257180E+00
 0.2347513570263E+00
 0.2273430615265E+00
 0.2185060121660E+00
 0.2082149949662E+00
 0.1965593259155E+00
 0.1836871846083E+00
 0.1697747971570E+00
 0.1550111699785E+00
 0.1395914424041E+00
 0.1237150142230E+00
 0.1075864972964E+00
 0.9141869566770E-01
 0.7543498966605E-01
 0.5986998152053E-01
 0.4496760787589E-01
 0.3095636965242E-01
 0.2274087277399E+00
 0.2200075258946E+00
 0.2141471944771E+00
 0.2087057458270E+00
 0.2026533057991E+00
 0.1954643002427E+00
 0.1869988461632E+00
 0.1773127256633E+00
 0.1665426480178E+00
 0.1548525339871E+00
 0.1424118306782E+00
 0.1293884991874E+00
 0.1159483557585E+00
 0.1022575427071E+00
 0.8848727129354E-01
 0.7481981933065E-01
 0.6145578297685E-01
 0.4860588436114E-01
 0.3645215124170E-01
 0.2506476242669E-01
 0.1973047446854E+00
 0.1889485789532E+00
 0.1833018161487E+00
 0.1780761456114E+00
 0.1720391248367E+00
 0.1648651709646E+00
 0.1566014480724E+00
 0.1474040906750E+00
 0.1374454776111E+00
 0.1268875185285E+00
 0.1158779324963E+00
 0.1045527588365E+00
 0.9304032202948E-01
 0.8146605543941E-01
 0.6995875942988E-01
 0.5865984987376E-01
 0.4773311961580E-01
 0.3738548865574E-01
 0.2781432303204E-01
 0.1907223033163E-01
 0.1674513352031E+00
 0.1595602189052E+00
 0.1546466752896E+00
 0.1492526687957E+00
 0.1427304894194E+00
 0.1352249768825E+00
 0.1269732103958E+00
 0.1181783567334E+00
 0.1089991828963E+00
 0.9956319626872E-01
 0.8997783318696E-01
 0.8033724079639E-01
 0.7072638289734E-01
 0.6122460385178E-01
 0.5191075853868E-01
 0.4287148522014E-01
 0.3421943323181E-01
 0.2611455374315E-01
 0.1891037177722E-01
 0.1294131983174E-01
 0.1388987995691E+00
 0.1338215716077E+00
 0.1285507507962E+00
 0.1217010254673E+00
 0.1140113341502E+00
 0.1059094827740E+00
 0.9761798797660E-01
 0.8925834613673E-01
 0.8091188513098E-01
 0.7264431822385E-01
 0.6451369876126E-01
 0.5657156955445E-01
 0.4886197813471E-01
 0.4142064574581E-01
 0.3427585020121E-01
 0.2745329215423E-01
 0.2098751548567E-01
 0.1496312118858E-01
 0.9564293469063E-02
 0.6073842234957E-02
 0.1144080211439E+00
 0.1122625428355E+00
 0.1031493920944E+00
 0.9368971195835E-01
 0.8469937834186E-01
 0.7620018716271E-01
 0.6811828804874E-01
 0.6040469086070E-01
 0.5304537369089E-01
 0.4604979166324E-01
 0.3943877104860E-01
 0.3323484474454E-01
 0.2745495622579E-01
 0.2210504559412E-01
 0.1717670125949E-01
 0.1264721462790E-01
 0.8490534982347E-02
 0.4731733858620E-02
 0.2094108941704E-02
 0.3525763053429E-02
</DataArray>
<DataArray type="Float64" Name="S_Hyd" NumberOfComponents="1" ComponentName0="S_Hyd" format="ascii">
-0.8160738404432E+01
-0.5690827649115E+01
-0.5433917049132E+01
-0.5165859159364E+01
-0.5001488612718E+01
-0.4862872445006E+01
-0.4742789512474E+01
-0.4631523147493E+01
-0.4525391985738E+01
-0.4421992020998E+01
-0.4320106685529E+01
-0.4219154716256E+01
-0.4119080208594E+01
-0.4020364825641E+01
-0.3924483262156E+01
-0.3836018794581E+01
-0.3755471134009E+01
-0.3669456179801E+01
-0.3566033321324E+01
-0.3446308636420E+01
-0.3315925590523E+01
-0.3180140285926E+01
-0.3042862061720E+01
-0.2906954026337E+01
-0.2774646103231E+01
-0.2647716662847E+01
-0.2527049011818E+01
-0.2414184512321E+01
-0.2313271468201E+01
-0.2229160462486E+01
-0.2166083255962E+01
-0.2128346190042E+01
-0.2120340825314E+01
-0.2146076512607E+01
-0.2207377224395E+01
-0.2306365559220E+01
-0.2453580764580E+01
-0.2722507733902E+01
-0.3025149888325E+01
-0.4327911581563E+01
-0.1057984324244E+01
-0.7216280940663E+01
-0.5977256623090E+01
-0.5338130652838E+01
-0.5099496255124E+01
-0.4905136281449E+01
-0.4759634364734E+01
-0.4633354770445E+01
-0.4519201216458E+01
-0.4411660139574E+01
-0.4308039404109E+01
-0.4206745123179E+01
-0.4106992451451E+01
-0.4008567538429E+01
-0.3911802438864E+01
-0.3818118233917E+01
-0.3729741689955E+01
-0.3645023582443E+01
-0.3555688005884E+01
-0.3454028688866E+01
-0.3339288640907E+01
-0.3215146296653E+01
-0.3085783820178E+01
-0.2954642936988E+01
-0.2824377053897E+01
-0.2697080684590E+01
-0.2574355312387E+01
-0.2457422956641E+01
-0.2348043946136E+01
-0.2249308025303E+01
-0.2164946755090E+01
-0.2098441777556E+01
-0.2052967090235E+01
-0.2031348659429E+01
-0.2035382496370E+01
-0.2065370183958E+01
-0.2120230245489E+01
-0.2211282337211E+01
-0.2326623118142E+01
-0.2546830762336E+01
-0.2478944795122E+01
 0.4958134546145E+00
-0.6664525379790E+01
-0.5888007006653E+01
-0.5302368998509E+01
-0.5004636165078E+01
-0.4808378383900E+01
-0.4652798658563E+01
-0.4522683261190E+01
-0.4405975580185E+01
-0.4297447518672E+01
-0.4193790333896E+01
-0.4093193010142E+01
-0.3994668814428E+01
-0.3897846280912E+01
-0.3802933264218E+01
-0.3710867019280E+01
-0.3622402080864E+01
-0.3535460374976E+01
-0.3444495909588E+01
-0.3344340902371E+01
-0.3233834761000E+01
-0.3115221630963E+01
-0.2991733407158E+01
-0.2866314897456E+01
-0.2741368612501E+01
-0.2618818536486E+01
-0.2500184060308E+01
-0.2386800186573E+01
-0.2280355915912E+01
-0.2183262112496E+01
-0.2098337469182E+01
-0.2028220109903E+01
-0.1975067461971E+01
-0.1940287993029E+01
-0.1924038596728E+01
-0.1924457131984E+01
-0.1939472142300E+01
-0.1963187582268E+01
-0.1985207531433E+01
-0.1947738945155E+01
-0.1357117572305E+01
 0.1080389957527E+01
-0.6254920121523E+01
-0.5709322329618E+01
-0.5219481595073E+01
-0.4908969962405E+01
-0.4703273252654E+01
-0.4543725911736E+01
-0.4410078518042E+01
-0.4291761447826E+01
-0.4182595500533E+01
-0.4079152281838E+01
-0.3979376154008E+01
-0.3882128409244E+01
-0.3786892980305E+01
-0.3693694816312E+01
-0.3602962978319E+01
-0.3514621413808E+01
-0.3426646968776E+01
-0.3335156808152E+01
-0.3236584867982E+01
-0.3129795998392E+01
-0.3016134683590E+01
-0.2898032180258E+01
-0.2777952002921E+01
-0.2658020878881E+01
-0.2539987844265E+01
-0.2425286363571E+01
-0.2315235032807E+01
-0.2211350729173E+01
-0.2115515274083E+01
-0.2029796218598E+01
-0.1956028220918E+01
-0.1895426836332E+01
-0.1848218631509E+01
-0.1813060276847E+01
-0.1786603134458E+01
-0.1762879045305E+01
-0.1729471028500E+01
-0.1656700041474E+01
-0.1429201251730E+01
-0.6593665671629E+00
 0.1261085207124E+01
-0.5915385615700E+01
-0.5505980365715E+01
-0.5099893192187E+01
-0.4802612057340E+01
-0.4592980083081E+01
-0.4431057311664E+01
-0.4295628215805E+01
-0.4176330472194E+01
-0.4067010666878E+01
-0.3964035666171E+01
-0.3865232077551E+01
-0.3769328067082E+01
-0.3675677926100E+01
-0.3584101103227E+01
-0.3494615858091E+01
-0.3406691228501E+01
-0.3318496595764E+01
-0.3227239047179E+01
-0.3130408998318E+01
-0.3027014000192E+01
-0.2917845463675E+01
-0.2804705587569E+01
-0.2689614469131E+01
-0.2574419740255E+01
-0.2460690797768E+01
-0.2349752142413E+01
-0.2242832918312E+01
-0.2141238076321E+01
-0.2046401503875E+01
-0.1959758583869E+01
-0.1882417942711E+01
-0.1814758133715E+01
-0.1755983720100E+01
-0.1703559585895E+01
-0.1652530566177E+01
-0.1594046027283E+01
-0.1510209141581E+01
-0.1357341028327E+01
-0.1014980710675E+01
-0.2183883925265E+00
 0.1314078930164E+01
-0.5617618200156E+01
-0.5296985419949E+01
-0.4957891957038E+01
-0.4683739238774E+01
-0.4477152771176E+01
-0.4314917796880E+01
-0.4179077031473E+01
-0.4059607551952E+01
-0.3950591360793E+01
-0.3848373348902E+01
-0.3750707264146E+01
-0.3656232146801E+01
-0.3564184407579E+01
-0.3474193548346E+01
-0.3385976429564E+01
-0.3298761806065E+01
-0.3210936979557E+01
-0.3120456822967E+01
-0.3025532810929E+01
-0.2925331727218E+01
-0.2820301171691E+01
-0.2711764250055E+01
-0.2601351145892E+01
-0.2490639991662E+01
-0.2381016958725E+01
-0.2273676397205E+01
-0.2169716931615E+01
-0.2070217743242E+01
-0.1976220558503E+01
-0.1888620612469E+01
-0.1807890228669E+01
-0.1733677621374E+01
-0.1664337911986E+01
-0.1596337204992E+01
-0.1523380746181E+01
-0.1434499943424E+01
-0.1307890596723E+01
-0.1095161796631E+01
-0.6925876528514E+00
 0.7193616122902E-01
 0.1322269199236E+01
-0.5347770961471E+01
-0.5088919328734E+01
-0.4802798111730E+01
-0.4554151734737E+01
-0.4355520875500E+01
-0.4195372792192E+01
-0.4060356419547E+01
-0.3941510392465E+01
-0.3833274316588E+01
-0.3732108796145E+01
-0.3635760002138E+01
-0.3542812912405E+01
-0.3452407711078E+01
-0.3364016577268E+01
-0.3277147495173E+01
-0.3190912310606E+01
-0.3103903862853E+01
-0.3014606597092E+01
-0.2921737047968E+01
-0.2824605842905E+01
-0.2723442340420E+01
-0.2619207990032E+01
-0.2513200477317E+01
-0.2406746186000E+01
-0.2301047855747E+01
-0.2197155347521E+01
-0.2096014947202E+01
-0.1998479681517E+01
-0.1905243794125E+01
-0.1816738957653E+01
-0.1732889453998E+01
-0.1652724035333E+01
-0.1573902478359E+01
-0.1492094195628E+01
-0.1400011136790E+01
-0.1285280910424E+01
-0.1124341201060E+01
-0.8706948987684E+00
-0.4421264157472E+00
 0.2707158764103E+00
 0.1315699710368E+01
-0.5098001767038E+01
-0.4884208590469E+01
-0.4640250767196E+01
-0.4416335362308E+01
-0.4228439301002E+01
-0.4072489604708E+01
-0.3939479844080E+01
-0.3821998505669E+01
-0.3715016159622E+01
-0.3615202060956E+01
-0.3520358450396E+01
-0.3429051203100E+01
-0.3340350349056E+01
-0.3253608958845E+01
-0.3168197503246E+01
-0.3083182725474E+01
-0.2997339335507E+01
-0.2909535725180E+01
-0.2818849273489E+01
-0.2724711019691E+01
-0.2627208339213E+01
-0.2527029020712E+01
-0.2425192010070E+01
-0.2322794078660E+01
-0.2220858488002E+01
-0.2120283385999E+01
-0.2021853263072E+01
-0.1926202433586E+01
-0.1833716954100E+01
-0.1744431366235E+01
-0.1657805877669E+01
-0.1572356865588E+01
-0.1485192767039E+01
-0.1391392469067E+01
-0.1283020884702E+01
-0.1147027834870E+01
-0.9599924490595E+00
-0.6805801256215E+00
-0.2462377609193E+00
 0.4115940569381E+00
 0.1304731133273E+01
-0.4863412719795E+01
-0.4683679721731E+01
-0.4473668630791E+01
-0.4272516085039E+01
-0.4096625530706E+01
-0.3946448152213E+01
-0.3816506130400E+01
-0.3701072198888E+01
-0.3595795007985E+01
-0.3497627853662E+01
-0.3404480976147E+01
-0.3314935345357E+01
-0.3228018623393E+01
-0.3143001763027E+01
-0.3059171066829E+01
-0.2975590345138E+01
-0.2891191137176E+01
-0.2805125346055E+01
-0.2716732127217E+01
-0.2625539822995E+01
-0.2531540981225E+01
-0.2435214665915E+01
-0.2337348017688E+01
-0.2238831886431E+01
-0.2140517760798E+01
-0.2043150939545E+01
-0.1947352953165E+01
-0.1853551732151E+01
-0.1761861332321E+01
-0.1671978408724E+01
-0.1582977179999E+01
-0.1492962160574E+01
-0.1398625550008E+01
-0.1294651843399E+01
-0.1172783815471E+01
-0.1019945357863E+01
-0.8141371648086E+00
-0.5202254997285E+00
-0.9161575071946E-01
 0.5141868492818E+00
 0.1292612402768E+01
-0.4640729647571E+01
-0.4487491360058E+01
-0.4305154728934E+01
-0.4124464408510E+01
-0.3960905023026E+01
-0.3817537314953E+01
-0.3691539371997E+01
-0.3578763686155E+01
-0.3475610303435E+01
-0.3379374544095E+01
-0.3288115524499E+01
-0.3200460044854E+01
-0.3115420588475E+01
-0.3032218870015E+01
-0.2950096430305E+01
-0.2868139022828E+01
-0.2785412169905E+01
-0.2701280273503E+01
-0.2615274660230E+01
-0.2527000874445E+01
-0.2436386415618E+01
-0.2343749500190E+01
-0.2249685007880E+01
-0.2154901287077E+01
-0.2060088587316E+01
-0.1965843007111E+01
-0.1872627644092E+01
-0.1780679471932E+01
-0.1689874550761E+01
-0.1599625200764E+01
-0.1508691247721E+01
-0.1414857976405E+01
-0.1314525267660E+01
-0.1202160800010E+01
-0.1069470024705E+01
-0.9038522826454E+00
-0.6854148966981E+00
-0.3850734536725E+00
 0.3150479668434E-01
 0.5902924294848E+00
 0.1280001891769E+01
-0.4427652191325E+01
-0.4295516076197E+01
-0.4136018826897E+01
-0.3973526456355E+01
-0.3822071007849E+01
-0.3686109368145E+01
-0.3564725004749E+01
-0.3455131479467E+01
-0.3354480287420E+01
-0.3260443204945E+01
-0.3171258718430E+01
-0.3085625337134E+01
-0.3002565067515E+01
-0.2921278263798E+01
-0.2840990683604E+01
-0.2760824649791E+01
-0.2679960063164E+01
-0.2597922631741E+01
-0.2514386065329E+01
-0.2429016570821E+01
-0.2341695865420E+01
-0.2252616874281E+01
-0.2162214994413E+01
-0.2071038211889E+01
-0.1979627915809E+01
-0.1888438191866E+01
-0.1797782137098E+01
-0.1707723092398E+01
-0.1617931264822E+01
-0.1527583260893E+01
-0.1435189454240E+01
-0.1338299693338E+01
-0.1233131976031E+01
-0.1114090733176E+01
-0.9730734336599E+00
-0.7982867168578E+00
-0.5721945992059E+00
-0.2710875913210E+00
 0.1302074121754E+00
 0.6472388815173E+00
 0.1266690022445E+01
-0.4222500955559E+01
-0.4107509028353E+01
-0.3967081118163E+01
-0.3820706050863E+01
-0.3680824948998E+01
-0.3552535970019E+01
-0.3436238266059E+01
-0.3330255652987E+01
-0.3232439027912E+01
-0.3140846209823E+01
-0.3053914883288E+01
-0.2970435695226E+01
-0.2889461265600E+01
-0.2810193426950E+01
-0.2731863398200E+01
-0.2653638526871E+01
-0.2574796761956E+01
-0.2494987635234E+01
-0.2413991117536E+01
-0.2331520879371E+01
-0.2247425684864E+01
-0.2161799905938E+01
-0.2074946495895E+01
-0.1987273479408E+01
-0.1899186771721E+01
-0.1811008094785E+01
-0.1722911589096E+01
-0.1634805315883E+01
-0.1546183954982E+01
-0.1456032500047E+01
-0.1362670141154E+01
-0.1263485594012E+01
-0.1154610419944E+01
-0.1030511998507E+01
-0.8834479331402E+00
-0.7026150207557E+00
-0.4728119766578E+00
-0.1748712834785E+00
 0.2096412961999E+00
 0.6897291495243E+00
 0.1252240496172E+01
-0.4024011318884E+01
-0.3923185634695E+01
-0.3798852987973E+01
-0.3666744860912E+01
-0.3537760171021E+01
-0.3417177756183E+01
-0.3306270299734E+01
-0.3204232463299E+01
-0.3109533435697E+01
-0.3020605559781E+01
-0.2936095003862E+01
-0.2854899298214E+01
-0.2776118676588E+01
-0.2698974581419E+01
-0.2622719169130E+01
-0.2546569489780E+01
-0.2469888135933E+01
-0.2392420667492E+01
-0.2314026814041E+01
-0.2234457388594E+01
-0.2153537052249E+01
-0.2071282059206E+01
-0.1987885276105E+01
-0.1903633302842E+01
-0.1818810339189E+01
-0.1733616976170E+01
-0.1648101086422E+01
-0.1562034179652E+01
-0.1474763854402E+01
-0.1385123311790E+01
-0.1291292220357E+01
-0.1190562687225E+01
-0.1079059635008E+01
-0.9514112829418E+00
-0.8003457244650E+00
-0.6161195549044E+00
-0.3856957222541E+00
-0.9363422076590E-01
 0.2735829449488E+00
 0.7208804715711E+00
 0.1236218432328E+01
-0.3831205996934E+01
-0.3742257686398E+01
-0.3631647410691E+01
-0.3512187800664E+01
-0.3393365577614E+01
-0.3280366952488E+01
-0.3175015838776E+01
-0.3077168567552E+01
-0.2985820248826E+01
-0.2899751117337E+01
-0.2817815648691E+01
-0.2739027413049E+01
-0.2662547110223E+01
-0.2587629699925E+01
-0.2513559394433E+01
-0.2439605265272E+01
-0.2365203611148E+01
-0.2290175184109E+01
-0.2214439858428E+01
-0.2137777650297E+01
-0.2059995489999E+01
-0.1981047431076E+01
-0.1901034866112E+01
-0.1820139695149E+01
-0.1738538082530E+01
-0.1656321617336E+01
-0.1573425504544E+01
-0.1489503304814E+01
-0.1403782009862E+01
-0.1314978736126E+01
-0.1221178838702E+01
-0.1119632620945E+01
-0.1006522685140E+01
-0.8767091006901E+00
-0.7234520584427E+00
-0.5380602296039E+00
-0.3094235412455E+00
-0.2510758068479E-01
 0.3248363037106E+00
 0.7428248102567E+00
 0.1218260637039E+01
-0.3643312746995E+01
-0.3564449617323E+01
-0.3465647982049E+01
-0.3357433137055E+01
-0.3248037339681E+01
-0.3142399331848E+01
-0.3042663973890E+01
-0.2949175552931E+01
-0.2861363043065E+01
-0.2778318841320E+01
-0.2699097903967E+01
-0.2622833846195E+01
-0.2548756744839E+01
-0.2476165287039E+01
-0.2404383517417E+01
-0.2332733336577E+01
-0.2260715825373E+01
-0.2188211159627E+01
-0.2115184746036E+01
-0.2041439793674E+01
-0.1966770322261E+01
-0.1891080842195E+01
-0.1814396915568E+01
-0.1736810792099E+01
-0.1658403900790E+01
-0.1579171332086E+01
-0.1498949579631E+01
-0.1417292350670E+01
-0.1333330453023E+01
-0.1245696666918E+01
-0.1152421036775E+01
-0.1050757520899E+01
-0.9369961505338E+00
-0.8062761049156E+00
-0.6524135106783E+00
-0.4677135300208E+00
-0.2427381629562E+00
 0.3254891342509E-01
 0.3655124215191E+00
 0.7570644270760E+00
 0.1198087791974E+01
-0.3459709312861E+01
-0.3389505069721E+01
-0.3300952979528E+01
-0.3202769929120E+01
-0.3102092690450E+01
-0.3003532045976E+01
-0.2909392053497E+01
-0.2820365299748E+01
-0.2736229417739E+01
-0.2656349084077E+01
-0.2579966347953E+01
-0.2506334439117E+01
-0.2434758159191E+01
-0.2364586956573E+01
-0.2295189886671E+01
-0.2225941487367E+01
-0.2156400306852E+01
-0.2086493905464E+01
-0.2016222283624E+01
-0.1945407374879E+01
-0.1873834130833E+01
-0.1801367803834E+01
-0.1727971417626E+01
-0.1653661111452E+01
-0.1578436307465E+01
-0.1502208089803E+01
-0.1424728137354E+01
-0.1345467609353E+01
-0.1263483452069E+01
-0.1177352067567E+01
-0.1085081331836E+01
-0.9839656027860E+00
-0.8704389974715E+00
-0.7399473155764E+00
-0.5868592597035E+00
-0.4043948723493E+00
-0.1845425415834E+00
 0.8083160785977E-01
 0.3972242251291E+00
 0.7646872932138E+00
 0.1175496521025E+01
-0.3279885499240E+01
-0.3217188698471E+01
-0.3137603978877E+01
-0.3048405740881E+01
-0.2955783212772E+01
-0.2863984812308E+01
-0.2775362163551E+01
-0.2690846391267E+01
-0.2610488504214E+01
-0.2533885006932E+01
-0.2460448087411E+01
-0.2389546595466E+01
-0.2320562325571E+01
-0.2252899839553E+01
-0.2185976341814E+01
-0.2119218130993E+01
-0.2052235175726E+01
-0.1984993148606E+01
-0.1917518427738E+01
-0.1849648423786E+01
-0.1781162241149E+01
-0.1711894412340E+01
-0.1641756844923E+01
-0.1570701764212E+01
-0.1498658628665E+01
-0.1425466720871E+01
-0.1350806436952E+01
-0.1274082701849E+01
-0.1194298811838E+01
-0.1109999158518E+01
-0.1019197157411E+01
-0.9192564319945E+00
-0.8067805341583E+00
-0.6775338966423E+00
-0.5264160808517E+00
-0.3474695919278E+00
-0.1338856753158E+00
 0.1209645082262E+00
 0.4212236490059E+00
 0.7664991274526E+00
 0.1150345212866E+01
-0.3103416388485E+01
-0.3047285692365E+01
-0.2975604714392E+01
-0.2894487113420E+01
-0.2809306604666E+01
-0.2723942818547E+01
-0.2640719510796E+01
-0.2560721556301E+01
-0.2484208888858E+01
-0.2410971162164E+01
-0.2340571873074E+01
-0.2272488836707E+01
-0.2206180562352E+01
-0.2141108856657E+01
-0.2076740601470E+01
-0.2012552494426E+01
-0.1948200867077E+01
-0.1883682298553E+01
-0.1819043360683E+01
-0.1754134653425E+01
-0.1688732253320E+01
-0.1622647206129E+01
-0.1555750226111E+01
-0.1487940631438E+01
-0.1419089214571E+01
-0.1348975181757E+01
-0.1277220597573E+01
-0.1203179341982E+01
-0.1125819192453E+01
-0.1043673539641E+01
-0.9547841082395E+00
-0.8566057129159E+00
-0.7459273439173E+00
-0.6188323435191E+00
-0.4707186074180E+00
-0.2963559875120E+00
-0.8994604240107E-01
 0.1539576150709E+00
 0.4385014336120E+00
 0.7631058033943E+00
 0.1122528697528E+01
-0.2929943013995E+01
-0.2879600274188E+01
-0.2814933661072E+01
-0.2741114712832E+01
-0.2662816663568E+01
-0.2583560349531E+01
-0.2505592107640E+01
-0.2430086010411E+01
-0.2357456979465E+01
-0.2287652274660E+01
-0.2220367308054E+01
-0.2155180388137E+01
-0.2091624452157E+01
-0.2029218885563E+01
-0.1967480508515E+01
-0.1905934703356E+01
-0.1844279874540E+01
-0.1782537853525E+01
-0.1720770746448E+01
-0.1658840802992E+01
-0.1596523623803E+01
-0.1533613008508E+01
-0.1469947185186E+01
-0.1405382517500E+01
-0.1339741660315E+01
-0.1272754862060E+01
-0.1203998080536E+01
-0.1132788140366E+01
-0.1058073418237E+01
-0.9783942188127E+00
-0.8918389369291E+00
-0.7959695785559E+00
-0.6877690328238E+00
-0.5636317202328E+00
-0.4194148318496E+00
-0.2505268785721E+00
-0.5200707709530E-01
 0.1806362905169E+00
 0.4498860944767E+00
 0.7549452307228E+00
 0.1091963266962E+01
-0.2759158146869E+01
-0.2713953822454E+01
-0.2655552511456E+01
-0.2588354577751E+01
-0.2516431562251E+01
-0.2442964564387E+01
-0.2370091289189E+01
-0.2299026518975E+01
-0.2230295796040E+01
-0.2163972238054E+01
-0.2099864159082E+01
-0.2037640799753E+01
-0.1976905735288E+01
-0.1917234849338E+01
-0.1858194172793E+01
-0.1799355800270E+01
-0.1740456513532E+01
-0.1681538912172E+01
-0.1622677125083E+01
-0.1563744090595E+01
-0.1504517298147E+01
-0.1444778771299E+01
-0.1384341959758E+01
-0.1323029288196E+01
-0.1260625033323E+01
-0.1196820919631E+01
-0.1131158206470E+01
-0.1062929424587E+01
-0.9910777543472E+00
-0.9141655173825E+00
-0.8303422876243E+00
-0.7372882970783E+00
-0.6321830522077E+00
-0.5117184966278E+00
-0.3721707354422E+00
-0.2095019848314E+00
-0.1945664438872E-01
 0.2017306383085E+00
 0.4559349903989E+00
 0.7427223437957E+00
 0.1057823591852E+01
-0.2590795664207E+01
-0.2550182936647E+01
-0.2497411930277E+01
-0.2436246507450E+01
-0.2370240617300E+01
-0.2302259116066E+01
-0.2234312722290E+01
-0.2167621007400E+01
-0.2102784138191E+01
-0.2039973323739E+01
-0.1979091775752E+01
-0.1919889607108E+01
-0.1862036188968E+01
-0.1805161747775E+01
-0.1748880041253E+01
-0.1692807718025E+01
-0.1636716703475E+01
-0.1580666767218E+01
-0.1524741415463E+01
-0.1468823756707E+01
-0.1412695392764E+01
-0.1356131428740E+01
-0.1298927409861E+01
-0.1240880000182E+01
-0.1181744105001E+01
-0.1121182633080E+01
-0.1058712690594E+01
-0.9936140569331E+00
-0.9248371307655E+00
-0.8509788393723E+00
-0.7702611305528E+00
-0.6804894843496E+00
-0.5790383720791E+00
-0.4628806055234E+00
-0.3286700489229E+00
-0.1728506293041E+00
 0.8255525850621E-02
 0.2177960102224E+00
 0.4573665754882E+00
 0.7260841837824E+00
 0.1022681748699E+01
-0.2424622473840E+01
-0.2388137599419E+01
-0.2340455481813E+01
-0.2284810347046E+01
-0.2224309782419E+01
-0.2161527463535E+01
-0.2098337671726E+01
-0.2035938565537E+01
-0.1974976068126E+01
-0.1915695587975E+01
-0.1858078616996E+01
-0.1801946035589E+01
-0.1747027501362E+01
-0.1693004648669E+01
-0.1639536916948E+01
-0.1586283223993E+01
-0.1533047767482E+01
-0.1479904563136E+01
-0.1426944503180E+01
-0.1374060681936E+01
-0.1321040921217E+01
-0.1267657766020E+01
-0.1213695024037E+01
-0.1158931025121E+01
-0.1103099583795E+01
-0.1045843762016E+01
-0.9866661818865E+00
-0.9248442330083E+00
-0.8593462995399E+00
-0.7888142851509E+00
-0.7115509202690E+00
-0.6254907469810E+00
-0.5281985512252E+00
-0.4169093557072E+00
-0.2886166158584E+00
-0.1401780757651E+00
 0.3159327658511E-01
 0.2293913599754E+00
 0.4544310872456E+00
 0.7063296717277E+00
 0.9819465968255E+00
-0.2260432294768E+01
-0.2227679501306E+01
-0.2184622317987E+01
-0.2134050720106E+01
-0.2078686089086E+01
-0.2020835819816E+01
-0.1962234369201E+01
-0.1904039723486E+01
-0.1846920647853E+01
-0.1791176456117E+01
-0.1736851881070E+01
-0.1683828751446E+01
-0.1631891149496E+01
-0.1580768654144E+01
-0.1530163944570E+01
-0.1479775847286E+01
-0.1429438249988E+01
-0.1379237006542E+01
-0.1329268897934E+01
-0.1279437067857E+01
-0.1229537562132E+01
-0.1179344306351E+01
-0.1128634928885E+01
-0.1077176172661E+01
-0.1024688349064E+01
-0.9708029094265E+00
-0.9150167966734E+00
-0.8566142510091E+00
-0.7945909141384E+00
-0.7276421125715E+00
-0.6541574573103E+00
-0.5722019227535E+00
-0.4795238435599E+00
-0.3736015097785E+00
-0.2517314802573E+00
-0.1111305464849E+00
 0.5098650878144E-01
 0.2369158434401E+00
 0.4477237126854E+00
 0.6828595812490E+00
 0.9400288983498E+00
-0.2098040805151E+01
-0.2068680547697E+01
-0.2029849018215E+01
-0.1983960609189E+01
-0.1933401230008E+01
-0.1880235729797E+01
-0.1826059387009E+01
-0.1771976903553E+01
-0.1718661873261E+01
-0.1666450458736E+01
-0.1615437231195E+01
-0.1565555660293E+01
-0.1516638287549E+01
-0.1468458853179E+01
-0.1420760575142E+01
-0.1373279797473E+01
-0.1325877751823E+01
-0.1278650120140E+01
-0.1231698447779E+01
-0.1184936170904E+01
-0.1138169464608E+01
-0.1091177217597E+01
-0.1043735905130E+01
-0.9956068140399E+00
-0.9465036842230E+00
-0.8960538808280E+00
-0.8437566387347E+00
-0.7889112425256E+00
-0.7305485262639E+00
-0.6674240379795E+00
-0.5980185004538E+00
-0.5205268439871E+00
-0.4328729873898E+00
-0.3327596047150E+00
-0.2177539940601E+00
-0.8538150780420E-01
 0.6680130788061E-01
 0.2407888165451E+00
 0.4374732675988E+00
 0.6563927841517E+00
 0.8957723527882E+00
-0.1937281812067E+01
-0.1911021544876E+01
-0.1876070843921E+01
-0.1834524076846E+01
-0.1788474449805E+01
-0.1739766298018E+01
-0.1689858957003E+01
-0.1639794977015E+01
-0.1590238754739E+01
-0.1541549093190E+01
-0.1493858606136E+01
-0.1447143751176E+01
-0.1401279649295E+01
-0.1356080267891E+01
-0.1311326518298E+01
-0.1266789879867E+01
-0.1222356781151E+01
-0.1178131032179E+01
-0.1134218099339E+01
-0.1090542080051E+01
-0.1046921085977E+01
-0.1003142237125E+01
-0.9589854106240E+00
-0.9142120060402E+00
-0.8685355065376E+00
-0.8215860348680E+00
-0.7728722985925E+00
-0.7217158581149E+00
-0.6671894939744E+00
-0.6081143877155E+00
-0.5430651196384E+00
-0.4703647992962E+00
-0.3881042888929E+00
-0.2941927544166E+00
-0.1864386542929E+00
-0.6263483107837E-01
 0.7937714049647E-01
 0.2413404700584E+00
 0.4240308135085E+00
 0.6270997906917E+00
 0.8491740299308E+00
-0.1778004194263E+01
-0.1754591051600E+01
-0.1723222586868E+01
-0.1685718342449E+01
-0.1643914879038E+01
-0.1599456099971E+01
-0.1553670202750E+01
-0.1507531875294E+01
-0.1461685503859E+01
-0.1416500787017E+01
-0.1372138105426E+01
-0.1328608984499E+01
-0.1285825468439E+01
-0.1243637800677E+01
-0.1201861689958E+01
-0.1160301412648E+01
-0.1118866620651E+01
-0.1077667796987E+01
-0.1036813697343E+01
-0.9962395326241E+00
-0.9557770591559E+00
-0.9152246150790E+00
-0.8743696119504E+00
-0.8329786166528E+00
-0.7907705933309E+00
-0.7473846232402E+00
-0.7023453288413E+00
-0.6550029045854E+00
-0.6044778034269E+00
-0.5496611023160E+00
-0.4892228404543E+00
-0.4216116419337E+00
-0.3450765230509E+00
-0.2577163508325E+00
-0.1575548168591E+00
-0.4261647063381E-01
 0.8901606408754E-01
 0.2388810159701E+00
 0.4076755268202E+00
 0.5951619847346E+00
 0.8002790364521E+00
-0.1620069436329E+01
-0.1599284378436E+01
-0.1571239133987E+01
-0.1537515373585E+01
-0.1499723421713E+01
-0.1459324814181E+01
-0.1417522269532E+01
-0.1375219219957E+01
-0.1333031793198E+01
-0.1291330941353E+01
-0.1250295938096E+01
-0.1209966220249E+01
-0.1170285418324E+01
-0.1131136186609E+01
-0.1092366160378E+01
-0.1053810148834E+01
-0.1015399210201E+01
-0.9772492422225E+00
-0.9394718172832E+00
-0.9020137625735E+00
-0.8647220860212E+00
-0.8274090746488E+00
-0.7898734244564E+00
-0.7518914522116E+00
-0.7131928033690E+00
-0.6734311174801E+00
-0.6321526924541E+00
-0.5887419323964E+00
-0.5423718047141E+00
-0.4920066083105E+00
-0.4364125842433E+00
-0.3741606736004E+00
-0.3036494152828E+00
-0.2231520106236E+00
-0.1308845560098E+00
-0.2507323631402E-01
 0.9599452531743E-01
 0.2336894842994E+00
 0.3886550048555E+00
 0.5607536379883E+00
 0.7491738456707E+00
-0.1463349620032E+01
-0.1445002716317E+01
-0.1420055833649E+01
-0.1389883109845E+01
-0.1355894285024E+01
-0.1319384612296E+01
-0.1281437347839E+01
-0.1242882947722E+01
-0.1204303063852E+01
-0.1166062035734E+01
-0.1128350424392E+01
-0.1091229182566E+01
-0.1054668571521E+01
-0.1018579954135E+01
-0.9828401062030E+00
-0.9473122052902E+00
-0.9119470444896E+00
-0.8768648395042E+00
-0.8421796264288E+00
-0.8078503767236E+00
-0.7737408537642E+00
-0.7396797879817E+00
-0.7054805603772E+00
-0.6709333857827E+00
-0.6357832926307E+00
-0.5997035211562E+00
-0.5622671826299E+00
-0.5228977728493E+00
-0.4808248664829E+00
-0.4350885652839E+00
-0.3845514419202E+00
-0.3279032942406E+00
-0.2636839673413E+00
-0.1903271129234E+00
-0.1062213830123E+00
-0.9769314548044E-02
 0.1005667256350E+00
 0.2260195334206E+00
 0.3671950027343E+00
 0.5240447788692E+00
 0.6959620086538E+00
-0.1307725772251E+01
-0.1291652376647E+01
-0.1269608722488E+01
-0.1242786406953E+01
-0.1212416222490E+01
-0.1179641341903E+01
-0.1145431592803E+01
-0.1110543915216E+01
-0.1075520861435E+01
-0.1040713778757E+01
-0.1006318040900E+01
-0.9724104563948E+00
-0.9389833789477E+00
-0.9059733960575E+00
-0.8732837690503E+00
-0.8408040002477E+00
-0.8085030849380E+00
-0.7765045956858E+00
-0.7449247693052E+00
-0.7137352552455E+00
-0.6828179715292E+00
-0.6520203662910E+00
-0.6211735844869E+00
-0.5900854864802E+00
-0.5585207238980E+00
-0.5261766666574E+00
-0.4926578136726E+00
-0.4574310264138E+00
-0.4197859537144E+00
-0.3788405022892E+00
-0.3335532963857E+00
-0.2827294838922E+00
-0.2250425807637E+00
-0.1590743185595E+00
-0.8336878975050E-01
 0.3516320404579E-02
 0.1029681247899E+00
 0.2161045213466E+00
 0.3435051581278E+00
 0.4852009432843E+00
 0.6407565346911E+00
-0.1153086493334E+01
-0.1139144126891E+01
-0.1119834654193E+01
-0.1096187767174E+01
-0.1069273547365E+01
-0.1040095533337E+01
-0.1009515945841E+01
-0.9782184744558E+00
-0.9467031863906E+00
-0.9153032919809E+00
-0.8842135005910E+00
-0.8535215119969E+00
-0.8232376675871E+00
-0.7933205518043E+00
-0.7636974222203E+00
-0.7342822001898E+00
-0.7050606852191E+00
-0.6761589625017E+00
-0.6476952744369E+00
-0.6196544731793E+00
-0.5919379249263E+00
-0.5644138627426E+00
-0.5369339766098E+00
-0.5093271493629E+00
-0.4813814698388E+00
-0.4528224962995E+00
-0.4232901832810E+00
-0.3922985042538E+00
-0.3592001347585E+00
-0.3231923544436E+00
-0.2833293181504E+00
-0.2385281368315E+00
-0.1875890552370E+00
-0.1292310091055E+00
-0.6213889023345E-01
 0.1499216044687E-01
 0.1034186142543E+00
 0.2041615747448E+00
 0.3177824933485E+00
 0.4443833714770E+00
 0.5836755994802E+00
-0.9993268075053E+00
-0.9873926073634E+00
-0.9706713594098E+00
-0.9500479057573E+00
-0.9264469618276E+00
-0.9007432580174E+00
-0.8736968669179E+00
-0.8459190143769E+00
-0.8178648485517E+00
-0.7898453170292E+00
-0.7620498604723E+00
-0.7345727532669E+00
-0.7074386554320E+00
-0.6806252013366E+00
-0.6540813464248E+00
-0.6277436765010E+00
-0.6016135296258E+00
-0.5758187625958E+00
-0.5504794796596E+00
-0.5255942403105E+00
-0.5010850462841E+00
-0.4768427867589E+00
-0.4527422002888E+00
-0.4286362256046E+00
-0.4043398094719E+00
-0.3796103279534E+00
-0.3541268072787E+00
-0.3274536258701E+00
-0.2990090237394E+00
-0.2680709116971E+00
-0.2337883518121E+00
-0.1951872780785E+00
-0.1511884866201E+00
-0.1006386869417E+00
-0.4235115818441E-01
 0.2485617307510E-01
 0.1021252701091E+00
 0.1903947644240E+00
 0.2902139203911E+00
 0.4017492932110E+00
 0.5248403175604E+00
-0.8463471900478E+00
-0.8363158167310E+00
-0.8220574572948E+00
-0.8043261911076E+00
-0.7839142383445E+00
-0.7615768622124E+00
-0.7379769866597E+00
-0.7136544668502E+00
-0.6890178190261E+00
-0.6643524381550E+00
-0.6398386507177E+00
-0.6155735861041E+00
-0.5915929820839E+00
-0.5678908705378E+00
-0.5444358148892E+00
-0.5211854719101E+00
-0.4981555834610E+00
-0.4754751302063E+00
-0.4532659737007E+00
-0.4315408570753E+00
-0.4102434987511E+00
-0.3892891284876E+00
-0.3685777769460E+00
-0.3479891526984E+00
-0.3273681181267E+00
-0.3065071057948E+00
-0.2851274283390E+00
-0.2628467762278E+00
-0.2391511648166E+00
-0.2134001906247E+00
-0.1848372102580E+00
-0.1525941842467E+00
-0.1157070890884E+00
-0.7314235811496E-01
-0.2383125065650E-01
 0.3329759487437E-01
 0.9928469731152E-01
 0.1749976367900E+00
 0.2609781595220E+00
 0.3574523135237E+00
 0.4643734793024E+00
-0.6940527358251E+00
-0.6858346553765E+00
-0.6739324332638E+00
-0.6589809874626E+00
-0.6416507824135E+00
-0.6225855967837E+00
-0.6023556877753E+00
-0.5814307776627E+00
-0.5601715749421E+00
-0.5388353143770E+00
-0.5175900201928E+00
-0.4965325034713E+00
-0.4757067533017E+00
-0.4551208475510E+00
-0.4347610877686E+00
-0.4146047764699E+00
-0.3946810545711E+00
-0.3751194649331E+00
-0.3560435520296E+00
-0.3374806844763E+00
-0.3193972725637E+00
-0.3017343922797E+00
-0.2844193649231E+00
-0.2673610845572E+00
-0.2504370512072E+00
-0.2334776370946E+00
-0.2162493006709E+00
-0.1984256261034E+00
-0.1795623647491E+00
-0.1591017394578E+00
-0.1363808911709E+00
-0.1106354268618E+00
-0.8101196051228E-01
-0.4658990981481E-01
-0.6409910443785E-02
 0.4049853045442E-01
 0.9508502856058E-01
 0.1581552789305E+00
 0.2302472855074E+00
 0.3116428459075E+00
 0.4023987765377E+00
-0.5423524410195E+00
-0.5358725172002E+00
-0.5262365931903E+00
-0.5139699221087E+00
-0.4996301001929E+00
-0.4837561605603E+00
-0.4668296249634E+00
-0.4492513443581E+00
-0.4313334344516E+00
-0.4133029168932E+00
-0.3953128942961E+00
-0.3774571841662E+00
-0.3597855977921E+00
-0.3423182092897E+00
-0.3250574155080E+00
-0.3079989125966E+00
-0.2911843650974E+00
-0.2747433971512E+00
-0.2588011852139E+00
-0.2434001262313E+00
-0.2285301919936E+00
-0.2141596381498E+00
-0.2002448428815E+00
-0.1867260214851E+00
-0.1735157222638E+00
-0.1604848162543E+00
-0.1474474529432E+00
-0.1341354195809E+00
-0.1201759800938E+00
-0.1050948857427E+00
-0.8832272845766E-01
-0.6919685300287E-01
-0.4697080511917E-01
-0.2083148924281E-01
 0.1007805951895E-01
 0.4663538294267E-01
 0.8970764517147E-01
 0.1400460431071E+00
 0.1981880184492E+00
 0.2644685531531E+00
 0.3390403010671E+00
-0.3911585755341E+00
-0.3863549216873E+00
-0.3789110012836E+00
-0.3692500941674E+00
-0.3578241900338E+00
-0.3450731724271E+00
-0.3313931920195E+00
-0.3171174237089E+00
-0.3025088807792E+00
-0.2877627687329E+00
-0.2730151418734E+00
-0.2583546027383E+00
-0.2438347345714E+00
-0.2294858571799E+00
-0.2153250505521E+00
-0.2013653285187E+00
-0.1876601324774E+00
-0.1743387637255E+00
-0.1615279981959E+00
-0.1492856215829E+00
-0.1376259316442E+00
-0.1265455302995E+00
-0.1160313971296E+00
-0.1060569401000E+00
-0.9657187603608E-01
-0.8748983750951E-01
-0.7867493195087E-01
-0.6991923275934E-01
-0.6092316515857E-01
-0.5129693519525E-01
-0.4056448947182E-01
-0.2816351528288E-01
-0.1345162363700E-01
 0.4281112604698E-02
 0.2579475823079E-01
 0.5188014411386E-01
 0.8332867988421E-01
 0.1208430200656E+00
 0.1649628301866E+00
 0.2160747775367E+00
 0.2744221964595E+00
-0.2403861277185E+00
-0.2372091791008E+00
-0.2318974067070E+00
-0.2247782381840E+00
-0.2162038734027E+00
-0.2065195850874E+00
-0.1960389442829E+00
-0.1850285121462E+00
-0.1737018751459E+00
-0.1622211846325E+00
-0.1507037486943E+00
-0.1392311483536E+00
-0.1278590493201E+00
-0.1166265610948E+00
-0.1055642666465E+00
-0.9470159936338E-01
-0.8410315869626E-01
-0.7389759275030E-01
-0.6421325904878E-01
-0.5512364734747E-01
-0.4666804091120E-01
-0.3887239189878E-01
-0.3175561253406E-01
-0.2532592340288E-01
-0.1957205728656E-01
-0.1445239791094E-01
-0.9883029702333E-02
-0.5718207769357E-02
-0.1733086595287E-02
 0.2376670437611E-02
 0.6993572594650E-02
 0.1258043918837E-01
 0.1967762180276E-01
 0.2889507121678E-01
 0.4090009524319E-01
 0.5640157165819E-01
 0.7612035199668E-01
 0.1007153264391E+00
 0.1307309152629E+00
 0.1666049518780E+00
 0.2086684060450E+00
-0.8995230628240E-01
-0.8836408251905E-01
-0.8513816244649E-01
-0.8051085291185E-01
-0.7473907791982E-01
-0.6807705167290E-01
-0.6075798397483E-01
-0.5298270278635E-01
-0.4491515915276E-01
-0.3668350991800E-01
-0.2838499559205E-01
-0.2009275075498E-01
-0.1186317824716E-01
-0.3743010389711E-02
 0.4224615145595E-02
 0.1199456499438E-01
 0.1949157323977E-01
 0.2658790390503E-01
 0.3315362412365E-01
 0.3909927208208E-01
 0.4436002446853E-01
 0.4887973458944E-01
 0.5260643322448E-01
 0.5549570870545E-01
 0.5751822362698E-01
 0.5866910765332E-01
 0.5897850326605E-01
 0.5852823378351E-01
 0.5746688974444E-01
 0.5601222939965E-01
 0.5445270306744E-01
 0.5315191312306E-01
 0.5254936297242E-01
 0.5315713389742E-01
 0.5555265692094E-01
 0.6036627928211E-01
 0.6825217672190E-01
 0.7982925608641E-01
 0.9564906271190E-01
 0.1162009919972E+00
 0.1419024829476E+00
 0.6022391331069E-01
 0.6025037886362E-01
 0.6142386117309E-01
 0.6359569645469E-01
 0.6660091689953E-01
 0.7027374506897E-01
 0.7445968457585E-01
 0.7902297713540E-01
 0.8384945223498E-01
 0.8884564219457E-01
 0.9393536013799E-01
 0.9905498823872E-01
 0.1041484019046E+00
 0.1091621290799E+00
 0.1140411946620E+00
 0.1187253062621E+00
 0.1231288966564E+00
 0.1271253314293E+00
 0.1305830993921E+00
 0.1333965479658E+00
 0.1354748647454E+00
 0.1367310221589E+00
 0.1370790722240E+00
 0.1364372680748E+00
 0.1347343273792E+00
 0.1319173975097E+00
 0.1279612554472E+00
 0.1228821938462E+00
 0.1167510342915E+00
 0.1096976833042E+00
 0.1019156598693E+00
 0.9366903044466E-01
 0.8529679778045E-01
 0.7721422263736E-01
 0.6991054193606E-01
 0.6393976321303E-01
 0.5989208404461E-01
 0.5834933493048E-01
 0.5987245795991E-01
 0.6500367431814E-01
 0.7424744672785E-01
 0.2102222088523E+00
 0.2087032902055E+00
 0.2078453667211E+00
 0.2075850959296E+00
 0.2078472622565E+00
 0.2085527924393E+00
 0.2096248233084E+00
 0.2109922445456E+00
 0.2125907855717E+00
 0.2143621549947E+00
 0.2162519010816E+00
 0.2182066590003E+00
 0.2201712789847E+00
 0.2220861530731E+00
 0.2238849561026E+00
 0.2254925992308E+00
 0.2268134534546E+00
 0.2277221074345E+00
 0.2280854615009E+00
 0.2277815047888E+00
 0.2266930932606E+00
 0.2247017896405E+00
 0.2216869457927E+00
 0.2175285656462E+00
 0.2121123233420E+00
 0.2053361183310E+00
 0.1971179598145E+00
 0.1874071133277E+00
 0.1761951063842E+00
 0.1635225418278E+00
 0.1494867511348E+00
 0.1342513297130E+00
 0.1180542774784E+00
 0.1012140381224E+00
 0.8413217775306E-01
 0.6728738676670E-01
 0.5120747744611E-01
 0.3643931221815E-01
 0.2355543944318E-01
 0.1315300586208E-01
 0.5825672718905E-02
 0.3601213073437E+00
 0.3570630698659E+00
 0.3541827225987E+00
 0.3515010147588E+00
 0.3490313433104E+00
 0.3467804686199E+00
 0.3447486463028E+00
 0.3429292506245E+00
 0.3413080298715E+00
 0.3398621741243E+00
 0.3385593644871E+00
 0.3373569052340E+00
 0.3362010068697E+00
 0.3350262533265E+00
 0.3337552277752E+00
 0.3322982294817E+00
 0.3305496823257E+00
 0.3283854529921E+00
 0.3256708378021E+00
 0.3222673532224E+00
 0.3180312891585E+00
 0.3128124282007E+00
 0.3064549009512E+00
 0.2987997769412E+00
 0.2896888270464E+00
 0.2789696622705E+00
 0.2665023041173E+00
 0.2521675957987E+00
 0.2358762189701E+00
 0.2175778230305E+00
 0.1972718908060E+00
 0.1750199754241E+00
 0.1509577078830E+00
 0.1253056692681E+00
 0.9837712986762E-01
 0.7057534310179E-01
 0.4236625945406E-01
 0.1426311670959E-01
-0.1314776804020E-01
-0.3921140581881E-01
-0.6324119274904E-01
 0.5099993654929E+00
 0.5053977209388E+00
 0.5004920580236E+00
 0.4953870471243E+00
 0.4901845962062E+00
 0.4849772776409E+00
 0.4798425173509E+00
 0.4748382788076E+00
 0.4700004616054E+00
 0.4653418743777E+00
 0.4608524559506E+00
 0.4565002829402E+00
 0.4522330043203E+00
 0.4479794492698E+00
 0.4436511391920E+00
 0.4391437683560E+00
 0.4343418040257E+00
 0.4291223804619E+00
 0.4233491707376E+00
 0.4168671594841E+00
 0.4095059464945E+00
 0.4010833244120E+00
 0.3914078837959E+00
 0.3802813051045E+00
 0.3675008361337E+00
 0.3528629839481E+00
 0.3361687429146E+00
 0.3172292353807E+00
 0.2958727104151E+00
 0.2719560038582E+00
 0.2453786670815E+00
 0.2160979836499E+00
 0.1841449643482E+00
 0.1496402131988E+00
 0.1128069155584E+00
 0.7397161527423E-01
 0.3353784877010E-01
-0.8014196333046E-02
-0.5008232295122E-01
-0.9194997406442E-01
-0.1328322970383E+00
 0.6599343427438E+00
 0.6537750795840E+00
 0.6468293596520E+00
 0.6392866593686E+00
 0.6313383326155E+00
 0.6231635918808E+00
 0.6149176536366E+00
 0.6067234468036E+00
 0.5986671716300E+00
 0.5907972267877E+00
 0.5831256623222E+00
 0.5756311180573E+00
 0.5682624523207E+00
 0.5609425181932E+00
 0.5535715765978E+00
 0.5460305462665E+00
 0.5381938048134E+00
 0.5299396792364E+00
 0.5211301979653E+00
 0.5115938120848E+00
 0.5011334205073E+00
 0.4895347803143E+00
 0.4765708297765E+00
 0.4620036408576E+00
 0.4455855634221E+00
 0.4270614150579E+00
 0.4061723081665E+00
 0.3826584446718E+00
 0.3562640184461E+00
 0.3267509754698E+00
 0.2939164188115E+00
 0.2576104588214E+00
 0.2177563206621E+00
 0.1743714109856E+00
 0.1275858339731E+00
 0.7764695214771E-01
 0.2489421255204E-01
-0.3022548286733E-01
-0.8709201996678E-01
-0.1449227366418E+00
-0.2028276299843E+00
 0.8100043745111E+00
 0.8022630641700E+00
 0.7932505695686E+00
 0.7832431388579E+00
 0.7725235658241E+00
 0.7613593957200E+00
 0.7499848300385E+00
 0.7385884087265E+00
 0.7273067918546E+00
 0.7162237652352E+00
 0.7053730640671E+00
 0.6947433635772E+00
 0.6842841909423E+00
 0.6739119249679E+00
 0.6635151380280E+00
 0.6529596254471E+00
 0.6421094191598E+00
 0.6308439005256E+00
 0.6190234312230E+00
 0.6064599869360E+00
 0.5929298718059E+00
 0.5781869308764E+00
 0.5619685508051E+00
 0.5439972187032E+00
 0.5239802656986E+00
 0.5016104743348E+00
 0.4765684151396E+00
 0.4485222784802E+00
 0.4171305511919E+00
 0.3820579980161E+00
 0.3429963149741E+00
 0.2996848385915E+00
 0.2519348922444E+00
 0.1996563046769E+00
 0.1428818245201E+00
 0.8177587869274E-01
 0.1661093716207E-01
-0.5220050831661E-01
-0.1240185065416E+00
-0.1979889313002E+00
-0.2731080599367E+00
 0.9602881532681E+00
 0.9509299292552E+00
 0.9398116844149E+00
 0.9272995406638E+00
 0.9137708324408E+00
 0.8995840239891E+00
 0.8850540785656E+00
 0.8704360534232E+00
 0.8559172194237E+00
 0.8416163518007E+00
 0.8275881473009E+00
 0.8138304569287E+00
 0.8002926167734E+00
 0.7868837524267E+00
 0.7734800890014E+00
 0.7599317732422E+00
 0.7460921128529E+00
 0.7318413423144E+00
 0.7170381350293E+00
 0.7014781118102E+00
 0.6849112092395E+00
 0.6670596592792E+00
 0.6476256191392E+00
 0.6262922687001E+00
 0.6027220667902E+00
 0.5765556705391E+00
 0.5474126602898E+00
 0.5148882490215E+00
 0.4785535501384E+00
 0.4379736493146E+00
 0.3927314321913E+00
 0.3424511435859E+00
 0.2868270940137E+00
 0.2256559213251E+00
 0.1588673658881E+00
 0.8653775967755E-01
 0.8868361264940E-02
-0.7376488146095E-01
-0.1607004424614E+00
-0.2510065321855E+00
-0.3435553591611E+00
 0.1110865325371E+01
 0.1099844528531E+01
 0.1086568855373E+01
 0.1071498628071E+01
 0.1055110003601E+01
 0.1037855888680E+01
 0.1020134377328E+01
 0.1002268195040E+01
 0.9844953362129E+00
 0.9669689401199E+00
 0.9497636157734E+00
 0.9328851784675E+00
 0.9162815819905E+00
 0.8998536335307E+00
 0.8834643199598E+00
 0.8669474370495E+00
 0.8501450676281E+00
 0.8329380356420E+00
 0.8151833063459E+00
 0.7966603311621E+00
 0.7770930322353E+00
 0.7561725104509E+00
 0.7335662479884E+00
 0.7089186631423E+00
 0.6818477734779E+00
 0.6519422960997E+00
 0.6187606077165E+00
 0.5818241280909E+00
 0.5406149395823E+00
 0.4945957615525E+00
 0.4432368248724E+00
 0.3860422284834E+00
 0.3225831130296E+00
 0.2525359897161E+00
 0.1757204284547E+00
 0.9211793671772E-01
 0.1852796560206E-02
-0.9473889747332E-01
-0.1969725801814E+00
-0.3038317344688E+00
-0.4140522195750E+00
 0.1261816912040E+01
 0.1249076591067E+01
 0.1233578488570E+01
 0.1215882802516E+01
 0.1196570079063E+01
 0.1176192187001E+01
 0.1155233323223E+01
 0.1134085251815E+01
 0.1113036721499E+01
 0.1092274336128E+01
 0.1071891203198E+01
 0.1051899512004E+01
 0.1032244296198E+01
 0.1012816686471E+01
 0.9934653065770E+00
 0.9740067220268E+00
 0.9542711684619E+00
 0.9341397333729E+00
 0.9134676563595E+00
 0.8920184723656E+00
 0.8694905734358E+00
 0.8455446033387E+00
 0.8198141688350E+00
 0.7919057574922E+00
 0.7613936828157E+00
 0.7278152090128E+00
 0.6906675606780E+00
 0.6493977315323E+00
 0.6033971568634E+00
 0.5520233396971E+00
 0.4946295819739E+00
 0.4305940302203E+00
 0.3593573955235E+00
 0.2804676954387E+00
 0.1936254934863E+00
 0.9870896020060E-01
-0.4242136225448E-02
-0.1149362609728E+00
-0.2326647413826E+00
-0.3563183727063E+00
-0.4844822585025E+00
 0.1413225763760E+01
 0.1398697015508E+01
 0.1380897345189E+01
 0.1360494017894E+01
 0.1338178956833E+01
 0.1314608583250E+01
 0.1290356782199E+01
 0.1265885909033E+01
 0.1241535355791E+01
 0.1217523955781E+01
 0.1193961486520E+01
 0.1170864508448E+01
 0.1148173232251E+01
 0.1125767453878E+01
 0.1103480074053E+01
 0.1081109372671E+01
 0.1058472994679E+01
 0.1035451902660E+01
 0.1011899595581E+01
 0.9875640144759E+00
 0.9621186425282E+00
 0.9351945424489E+00
 0.9063925055085E+00
 0.8752822249651E+00
 0.8413953794277E+00
 0.8042186005841E+00
 0.7631883145757E+00
 0.7176766811122E+00
 0.6669829572500E+00
 0.6103564546680E+00
 0.5470288635452E+00
 0.4762458081760E+00
 0.3973091471128E+00
 0.3096284796495E+00
 0.2127746533131E+00
 0.1065119397511E+00
-0.9214025128178E-02
-0.1341626562388E+00
-0.2676006620942E+00
-0.4083172563286E+00
-0.5547300122913E+00
 0.1565177058597E+01
 0.1548778187320E+01
 0.1528582640161E+01
 0.1505373673195E+01
 0.1479963169882E+01
 0.1453118856162E+01
 0.1425508510507E+01
 0.1397666762018E+01
 0.1369983313999E+01
 0.1342707579631E+01
 0.1315963701001E+01
 0.1289770153852E+01
 0.1264060037372E+01
 0.1238699847357E+01
 0.1213505166504E+01
 0.1188254759361E+01
 0.1162752816026E+01
 0.1136879722336E+01
 0.1110487223537E+01
 0.1083308060707E+01
 0.1054991572235E+01
 0.1025140329267E+01
 0.9933236451198E+00
 0.9590758842169E+00
 0.9218875214208E+00
 0.8811957465990E+00
 0.8363768877289E+00
 0.7867281386821E+00
 0.7314551869005E+00
 0.6696961035666E+00
 0.6005559091380E+00
 0.5231403699171E+00
 0.4366028438199E+00
 0.3402028863842E+00
 0.2333688075335E+00
 0.1157380397507E+00
-0.1285000293423E-01
-0.1522141266688E+00
-0.3015966749715E+00
-0.4596754034794E+00
-0.6246809135295E+00
 0.1717758856568E+01
 0.1699394324752E+01
 0.1676692137694E+01
 0.1650562476064E+01
 0.1621947580003E+01
 0.1591734502237E+01
 0.1560689739852E+01
 0.1529421935019E+01
 0.1498370446440E+01
 0.1467813104561E+01
 0.1437885558358E+01
 0.1408605243377E+01
 0.1379895451007E+01
 0.1351607098564E+01
 0.1323536622525E+01
 0.1295441870927E+01
 0.1267112594864E+01
 0.1238428086507E+01
 0.1209238324387E+01
 0.1179261315905E+01
 0.1148123167541E+01
 0.1115399274262E+01
 0.1080629106052E+01
 0.1043313519672E+01
 0.1002903613596E+01
 0.9587887395379E+00
 0.9102862261969E+00
 0.8566185072497E+00
 0.7968965167747E+00
 0.7301440283249E+00
 0.6553340088108E+00
 0.5714242743891E+00
 0.4774087498823E+00
 0.3723834623680E+00
 0.2556189712165E+00
 0.1266101501015E+00
-0.1492485949752E-01
-0.1688752187435E+00
-0.3344601928795E+00
-0.5102351529763E+00
-0.6942212445659E+00
 0.1871062724449E+01
 0.1850621859905E+01
 0.1825284241016E+01
 0.1796100268031E+01
 0.1764155016961E+01
 0.1730464284219E+01
 0.1695898718678E+01
 0.1661142671892E+01
 0.1626684046575E+01
 0.1592826293519E+01
 0.1559713069683E+01
 0.1527357263022E+01
 0.1495669230991E+01
 0.1464481718082E+01
 0.1433569957973E+01
 0.1402669314268E+01
 0.1371553995637E+01
 0.1340101615683E+01
 0.1308160369922E+01
 0.1275434070434E+01
 0.1241526659350E+01
 0.1205987910300E+01
 0.1168329403303E+01
 0.1128020694124E+01
 0.1084475766750E+01
 0.1037038199506E+01
 0.9849678788641E+00
 0.9274130933595E+00
 0.8633891297969E+00
 0.7918024830649E+00
 0.7114884257919E+00
 0.6212480023178E+00
 0.5199034361115E+00
 0.4063717118436E+00
 0.2797477118471E+00
 0.1393647669980E+00
-0.1519888000974E-01
-0.1839168364721E+00
-0.3659879530823E+00
-0.5598331345029E+00
-0.7632380578925E+00
 0.2025184448281E+01
 0.2002539862199E+01
 0.1974418072500E+01
 0.1942025799708E+01
 0.1906605848536E+01
 0.1869313712085E+01
 0.1831130201179E+01
 0.1792816894624E+01
 0.1754908505031E+01
 0.1717730524822E+01
 0.1681430375442E+01
 0.1646012281312E+01
 0.1611370089740E+01
 0.1577315463318E+01
 0.1543600156907E+01
 0.1509935321960E+01
 0.1476078402748E+01
 0.1441904676849E+01
 0.1407260531496E+01
 0.1371836192008E+01
 0.1335214663903E+01
 0.1296921908401E+01
 0.1256443911609E+01
 0.1213221553375E+01
 0.1166634441977E+01
 0.1115982961660E+01
 0.1060471639016E+01
 0.9991757249425E+00
 0.9310143529385E+00
 0.8547739392221E+00
 0.7691462578939E+00
 0.6727660808923E+00
 0.5642702896413E+00
 0.4423791067471E+00
 0.3059907320940E+00
 0.1542541239447E+00
-0.1341534716278E-01
-0.1970937390338E+00
-0.3959639759088E+00
-0.6082990826636E+00
-0.8316190515240E+00
 0.2180224854677E+01
 0.2155230512653E+01
 0.2124153538571E+01
 0.2088376440947E+01
 0.2049317463833E+01
 0.2008284441849E+01
 0.1966374874842E+01
 0.1924428726078E+01
 0.1883024950302E+01
 0.1842506543516E+01
 0.1803019585583E+01
 0.1764554853557E+01
 0.1726985642324E+01
 0.1690099316604E+01
 0.1653621671531E+01
 0.1617237768707E+01
 0.1580686947980E+01
 0.1543841413929E+01
 0.1506545702615E+01
 0.1468477127232E+01
 0.1429199149482E+01
 0.1388215996949E+01
 0.1344990726889E+01
 0.1298938622798E+01
 0.1249408179031E+01
 0.1195659738046E+01
 0.1136845148686E+01
 0.1071968318646E+01
 0.9998522252687E+00
 0.9191607161376E+00
 0.8284362224447E+00
 0.7261371465129E+00
 0.6107000020921E+00
 0.4806281493463E+00
 0.3345986149521E+00
 0.1715486193122E+00
-0.9297629121152E-02
-0.2081415943103E+00
-0.4241571855032E+00
-0.6554544961465E+00
-0.8992523930351E+00
 0.2336290767004E+01
 0.2308779638674E+01
 0.2274551371430E+01
 0.2235187806611E+01
 0.2192303648142E+01
 0.2147373574931E+01
 0.2101618716633E+01
 0.2055957973914E+01
 0.2011010877680E+01
 0.1967132218474E+01
 0.1924460633611E+01
 0.1882967941728E+01
 0.1842502368377E+01
 0.1802823474587E+01
 0.1763628431781E+01
 0.1724574197322E+01
 0.1685380548539E+01
 0.1645915790243E+01
 0.1606022534089E+01
 0.1565365914767E+01
 0.1523491412085E+01
 0.1479883885603E+01
 0.1433986526720E+01
 0.1385192595895E+01
 0.1332823308036E+01
 0.1276102752005E+01
 0.1214133462227E+01
 0.1145850390560E+01
 0.1069980992428E+01
 0.9850645233639E+00
 0.8894883468313E+00
 0.7815239253367E+00
 0.6593910182610E+00
 0.5213534800232E+00
 0.3658387458386E+00
 0.1915395922471E+00
-0.2545753638690E-02
-0.2167734685545E+00
-0.4503186303446E+00
-0.7011111809957E+00
-0.9660265075547E+00
 0.2493496129081E+01
 0.2463277320696E+01
 0.2425673136159E+01
 0.2382493272798E+01
 0.2335573822370E+01
 0.2286572837811E+01
 0.2236842267338E+01
 0.2187379573672E+01
 0.2138839769627E+01
 0.2091582310362E+01
 0.2045731149525E+01
 0.2001232853503E+01
 0.1957905589877E+01
 0.1915477349782E+01
 0.1873613864938E+01
 0.1831941854763E+01
 0.1790159956776E+01
 0.1748131644633E+01
 0.1705697483876E+01
 0.1662511212369E+01
 0.1618102062027E+01
 0.1571938195347E+01
 0.1523446430676E+01
 0.1472002115070E+01
 0.1416903644005E+01
 0.1357343343547E+01
 0.1292378565782E+01
 0.1220878504284E+01
 0.1141476517467E+01
 0.1052585899416E+01
 0.9524335437549E+00
 0.8390931065337E+00
 0.7105499210650E+00
 0.5648030169722E+00
 0.3999974225602E+00
 0.2145425012636E+00
 0.7167657738183E-02
-0.2226755762696E+00
-0.4741782190877E+00
-0.7450697970082E+00
-0.1031829918111E+01
 0.2651963337710E+01
 0.2618818583816E+01
 0.2577581187019E+01
 0.2530323350655E+01
 0.2479132113444E+01
 0.2425867618286E+01
 0.2372019813180E+01
 0.2318662990511E+01
 0.2266480712861E+01
 0.2215828257432E+01
 0.2166806357611E+01
 0.2119329204482E+01
 0.2073179466808E+01
 0.2028049584922E+01
 0.1983570925298E+01
 0.1939337738453E+01
 0.1895025822589E+01
 0.1850492763126E+01
 0.1805576884067E+01
 0.1759921340297E+01
 0.1713041023643E+01
 0.1664390396272E+01
 0.1613383861529E+01
 0.1559383545020E+01
 0.1501670163969E+01
 0.1439409544524E+01
 0.1371618849754E+01
 0.1297105650493E+01
 0.1214411597632E+01
 0.1121823530206E+01
 0.1017403046944E+01
 0.8990150775384E+00
 0.7643917202070E+00
 0.6112391062547E+00
 0.4373821603941E+00
 0.2409005554982E+00
 0.2020224512580E-01
-0.2255020167300E+00
-0.4954408163966E+00
-0.7871187022863E+00
-0.1096551410426E+01
 0.2811824836854E+01
 0.2775504189731E+01
 0.2730338549894E+01
 0.2678704874563E+01
 0.2622976213695E+01
 0.2565235830625E+01
 0.2507118463996E+01
 0.2449771581521E+01
 0.2393898020321E+01
 0.2339837988320E+01
 0.2287659006397E+01
 0.2237234908053E+01
 0.2188307012624E+01
 0.2140528080274E+01
 0.2093492133438E+01
 0.2046758652792E+01
 0.1999978769424E+01
 0.1953002968202E+01
 0.1905667027809E+01
 0.1857604344048E+01
 0.1808317550584E+01
 0.1757250754902E+01
 0.1703810408408E+01
 0.1647350739333E+01
 0.1587140666779E+01
 0.1522325622837E+01
 0.1451888531908E+01
 0.1374580552577E+01
 0.1288855176517E+01
 0.1192873429115E+01
 0.1084527679351E+01
 0.9614634841031E+00
 0.8211400022480E+00
 0.6609396467811E+00
 0.4783241979099E+00
 0.2709888445627E+00
 0.3695568394908E-01
-0.2248680438357E+00
-0.5137813543218E+00
-0.8270336638396E+00
-0.1160081512862E+01
 0.2973225041782E+01
 0.2933441546655E+01
 0.2884008698117E+01
 0.2827659947589E+01
 0.2767095976632E+01
 0.2704646577679E+01
 0.2642097118186E+01
 0.2580661924003E+01
 0.2521050869786E+01
 0.2463575773607E+01
 0.2408259339411E+01
 0.2354926197764E+01
 0.2303270131158E+01
 0.2252900033535E+01
 0.2203369623978E+01
 0.2154201275330E+01
 0.2105019484733E+01
 0.2055666227999E+01
 0.2005974279471E+01
 0.1955568079792E+01
 0.1903940259519E+01
 0.1850528292982E+01
 0.1794735693125E+01
 0.1735914801016E+01
 0.1673329415996E+01
 0.1606111595551E+01
 0.1533217029483E+01
 0.1453346893583E+01
 0.1364871441323E+01
 0.1265827959122E+01
 0.1153936923384E+01
 0.1026614567371E+01
 0.8810268938973E+00
 0.7141991283223E+00
 0.5231812028477E+00
 0.3052190490994E+00
 0.5787038811696E-01
-0.2203413155969E+00
-0.5288376708911E+00
-0.8645801200965E+00
-0.1222316860511E+01
 0.3136322682414E+01
 0.3092745757387E+01
 0.3038655174937E+01
 0.2977204568338E+01
 0.2911471683177E+01
 0.2844058573479E+01
 0.2776905306939E+01
 0.2711283120154E+01
 0.2647892975673E+01
 0.2587002131010E+01
 0.2528575116813E+01
 0.2472377687284E+01
 0.2418049676178E+01
 0.2365151991100E+01
 0.2313195199888E+01
 0.2261662231475E+01
 0.2210148825631E+01
 0.2158486788198E+01
 0.2106505211980E+01
 0.2053820326520E+01
 0.1999917185429E+01
 0.1944230759828E+01
 0.1886167240885E+01
 0.1825083837807E+01
 0.1760246766688E+01
 0.1690782711461E+01
 0.1615628279689E+01
 0.1533442460841E+01
 0.1442518795222E+01
 0.1340774677963E+01
 0.1225757755189E+01
 0.1094646234034E+01
 0.9442927391241E+00
 0.7713295971538E+00
 0.5723399250380E+00
 0.3440452652339E+00
 0.8344061619497E-01
-0.2114306361256E+00
-0.5401982390296E+00
-0.8995178298949E+00
-0.1283181935137E+01
 0.3301293683812E+01
 0.3253540828079E+01
 0.3194340995658E+01
 0.3127346837907E+01
 0.3056071895789E+01
 0.2983418285672E+01
 0.2911481914649E+01
 0.2841576095753E+01
 0.2774372316398E+01
 0.2710073802406E+01
 0.2648571699268E+01
 0.2589562473094E+01
 0.2532625534110E+01
 0.2477269908453E+01
 0.2422960390341E+01
 0.2369138175922E+01
 0.2315367940412E+01
 0.2261469329800E+01
 0.2207266776050E+01
 0.2152368929630E+01
 0.2096255862083E+01
 0.2038364620385E+01
 0.1978110356537E+01
 0.1914862713181E+01
 0.1847898777298E+01
 0.1776348904491E+01
 0.1699140009203E+01
 0.1614898205887E+01
 0.1521848696791E+01
 0.1417794984527E+01
 0.1300113211587E+01
 0.1165736773290E+01
 0.1011185483758E+01
 0.8326611788388E+00
 0.6262196061178E+00
 0.3879683719600E+00
 0.1142273386899E+00
-0.1975883034941E+00
-0.5473555974894E+00
-0.9316349811915E+00
-0.1342649494394E+01
 0.3468334741441E+01
 0.3415961061983E+01
 0.3351127732993E+01
 0.3278084610903E+01
 0.3200850797218E+01
 0.3122657754080E+01
 0.3045753780062E+01
 0.2971472920330E+01
 0.2900430946927E+01
 0.2832743824584E+01
 0.2768212206550E+01
 0.2706452284773E+01
 0.2646976729461E+01
 0.2589239216081E+01
 0.2532656507680E+01
 0.2476625877999E+01
 0.2420678406464E+01
 0.2364619156729E+01
 0.2308266507140E+01
 0.2251221981593E+01
 0.2192963431724E+01
 0.2132935061106E+01
 0.2070568007299E+01
 0.2005252793892E+01
 0.1936286808187E+01
 0.1862814220303E+01
 0.1783762954760E+01
 0.1697737219530E+01
 0.1602904359021E+01
 0.1496962550560E+01
 0.1377120637509E+01
 0.1240063193491E+01
 0.1081959491745E+01
 0.8985426353887E+00
 0.6852738523372E+00
 0.4375465780023E+00
 0.1508557840129E+00
-0.1781462807428E+00
-0.5498490497914E+00
-0.9602688733898E+00
-0.1401826006258E+01
 0.3637667804507E+01
 0.3580152662516E+01
 0.3509074145684E+01
 0.3429402406900E+01
 0.3345744885361E+01
 0.3261692040997E+01
 0.3179634195174E+01
 0.3100896189647E+01
 0.3026004934561E+01
 0.2954961719011E+01
 0.2887457763860E+01
 0.2823017686962E+01
 0.2761081551056E+01
 0.2701044885400E+01
 0.2642274697138E+01
 0.2584122306768E+01
 0.2526082384784E+01
 0.2467942417925E+01
 0.2409512777147E+01
 0.2350388046289E+01
 0.2290046788196E+01
 0.2227946015372E+01
 0.2163540712241E+01
 0.2096251694460E+01
 0.2025407108556E+01
 0.1950176219342E+01
 0.1869500038626E+01
 0.1781973623573E+01
 0.1685719304757E+01
 0.1578341515867E+01
 0.1456889590517E+01
 0.1317799027673E+01
 0.1156873933515E+01
 0.9693407150298E+00
 0.7499948908212E+00
 0.4933966043621E+00
 0.1940538602816E+00
-0.1523952266552E+00
-0.5468673133643E+00
-0.9856788300830E+00
-0.1458154415812E+01
 0.3809545759853E+01
 0.3746275566690E+01
 0.3668234146143E+01
 0.3581267333495E+01
 0.3490668865942E+01
 0.3400416273897E+01
 0.3313021339229E+01
 0.3229758529818E+01
 0.3151024466300E+01
 0.3076673829701E+01
 0.3006267849594E+01
 0.2939228336836E+01
 0.2874917696492E+01
 0.2812671488071E+01
 0.2751805971679E+01
 0.2691624711155E+01
 0.2631582792298E+01
 0.2571446371048E+01
 0.2511015100973E+01
 0.2449876436264E+01
 0.2387512759529E+01
 0.2323400211044E+01
 0.2257026439404E+01
 0.2187853019997E+01
 0.2115250395233E+01
 0.2038425362280E+01
 0.1956345506239E+01
 0.1867611385782E+01
 0.1770315777890E+01
 0.1661984440723E+01
 0.1539519340701E+01
 0.1399111616668E+01
 0.1236190209955E+01
 0.1045439583828E+01
 0.8209138349351E+00
 0.5562099503749E+00
 0.2446338358263E+00
-0.1194175202554E+00
-0.5378227435796E+00
-0.1006515171156E+01
-0.1515681533720E+01
 0.3984259723115E+01
 0.3914505519250E+01
 0.3828653805439E+01
 0.3733623681014E+01
 0.3635510549613E+01
 0.3538702254273E+01
 0.3445796714581E+01
 0.3357962304333E+01
 0.3275414184996E+01
 0.3197823838762E+01
 0.3124600755818E+01
 0.3055053297921E+01
 0.2988462428746E+01
 0.2924103237795E+01
 0.2861241219594E+01
 0.2799130686392E+01
 0.2737183491054E+01
 0.2675139694727E+01
 0.2612784508528E+01
 0.2549697551842E+01
 0.2485368334065E+01
 0.2419299239672E+01
 0.2351020507954E+01
 0.2280046105627E+01
 0.2205801424651E+01
 0.2127544382806E+01
 0.2044284033529E+01
 0.1954643064872E+01
 0.1856703014557E+01
 0.1747929999194E+01
 0.1625095956881E+01
 0.1484158667389E+01
 0.1320168682314E+01
 0.1127238166542E+01
 0.8986042615932E+00
 0.6267522929626E+00
 0.3035492481829E+00
-0.7822138222607E-01
-0.5216033648190E+00
-0.1022960695320E+01
-0.1570544672464E+01
 0.4162148511321E+01
 0.4085036374078E+01
 0.3990366946553E+01
 0.3886385723537E+01
 0.3780124523893E+01
 0.3676394637204E+01
 0.3577823697060E+01
 0.3485399634363E+01
 0.3399093821260E+01
 0.3318353489504E+01
 0.3242414171231E+01
 0.3170461410035E+01
 0.3101692737823E+01
 0.3035324001650E+01
 0.2970571169763E+01
 0.2906638216347E+01
 0.2842889494392E+01
 0.2779032860047E+01
 0.2714833997522E+01
 0.2649863294643E+01
 0.2583620935913E+01
 0.2515643646973E+01
 0.2445515492515E+01
 0.2372815751252E+01
 0.2297038561097E+01
 0.2217507655938E+01
 0.2133289815750E+01
 0.2043048498761E+01
 0.1944875382085E+01
 0.1836200419597E+01
 0.1713688923596E+01
 0.1573084118794E+01
 0.1409064019037E+01
 0.1215147013257E+01
 0.9836802565794E+00
 0.7058802893924E+00
 0.3718810803179E+00
-0.2755197325040E-01
-0.4971825312151E+00
-0.1033818485873E+01
-0.1623778527078E+01
 0.4343611121705E+01
 0.4258082560286E+01
 0.4153388649712E+01
 0.4039428086744E+01
 0.3924324338427E+01
 0.3813306745397E+01
 0.3708946379873E+01
 0.3611952876307E+01
 0.3521979194465E+01
 0.3438203543808E+01
 0.3359665893397E+01
 0.3285421714030E+01
 0.3214585499265E+01
 0.3146317265404E+01
 0.3079786295510E+01
 0.3014145678409E+01
 0.2948707191098E+01
 0.2883138576816E+01
 0.2817179088404E+01
 0.2750387572308E+01
 0.2682278756788E+01
 0.2612433043518E+01
 0.2540501125729E+01
 0.2466141950282E+01
 0.2388933345933E+01
 0.2308280573456E+01
 0.2223325654844E+01
 0.2132793454658E+01
 0.2034810404540E+01
 0.1926798674700E+01
 0.1805347304721E+01
 0.1666013130349E+01
 0.1503119413820E+01
 0.1309582314173E+01
 0.1076796061205E+01
 0.7945421983779E+00
 0.4508907898489E+00
 0.3404178406212E-01
-0.4631040693129E+00
-0.1038214143188E+01
-0.1675507120834E+01
 0.4529123423189E+01
 0.4433881552849E+01
 0.4317705637287E+01
 0.4192572800403E+01
 0.4067872927024E+01
 0.3949216186499E+01
 0.3838988981415E+01
 0.3737495733377E+01
 0.3643983653319E+01
 0.3557314990433E+01
 0.3476314670631E+01
 0.3399903926764E+01
 0.3327117618230E+01
 0.3257066031472E+01
 0.3188876629549E+01
 0.3121651790251E+01
 0.3054644586421E+01
 0.2987472333444E+01
 0.2919838507510E+01
 0.2851286912895E+01
 0.2781351148686E+01
 0.2709666229196E+01
 0.2635964189482E+01
 0.2559999606752E+01
 0.2481450070407E+01
 0.2399818938157E+01
 0.2314342063843E+01
 0.2223828263150E+01
 0.2126466694660E+01
 0.2019705445021E+01
 0.1900095431383E+01
 0.1763046244481E+01
 0.1602559067840E+01
 0.1410958157255E+01
 0.1178639627640E+01
 0.8937880784688E+00
 0.5420301386040E+00
 0.1083306635256E+00
-0.4176091149172E+00
-0.1035011967544E+01
-0.1725859835489E+01
 0.4719260862972E+01
 0.4612695999787E+01
 0.4483261940099E+01
 0.4345571820492E+01
 0.4210471024323E+01
 0.4083860626054E+01
 0.3967756211007E+01
 0.3861895205265E+01
 0.3765020012889E+01
 0.3675630507454E+01
 0.3592321168854E+01
 0.3513878961830E+01
 0.3439266148201E+01
 0.3367552624560E+01
 0.3297831454556E+01
 0.3229155470849E+01
 0.3160711559647E+01
 0.3092053058254E+01
 0.3022835035174E+01
 0.2952581213457E+01
 0.2880849081847E+01
 0.2807341321816E+01
 0.2731888382081E+01
 0.2654358234121E+01
 0.2574545356343E+01
 0.2492068393011E+01
 0.2406276413368E+01
 0.2316086465020E+01
 0.2219781823292E+01
 0.2114875879706E+01
 0.1997928159943E+01
 0.1864252634276E+01
 0.1707579098670E+01
 0.1519675191803E+01
 0.1289923619800E+01
 0.1004768487183E+01
 0.6469789593518E+00
 0.1974577095698E+00
-0.3584872092342E+00
-0.1022729541117E+01
-0.1774971530914E+01
 0.4914729945435E+01
 0.4794814795712E+01
 0.4649937329999E+01
 0.4498083356162E+01
 0.4351743479139E+01
 0.4216934374049E+01
 0.4095035137388E+01
 0.3985014582834E+01
 0.3885003011727E+01
 0.3793096162573E+01
 0.3707649052942E+01
 0.3627319492220E+01
 0.3551008374460E+01
 0.3477758374946E+01
 0.3406638821142E+01
 0.3336655576088E+01
 0.3266920137238E+01
 0.3196903941395E+01
 0.3126196568913E+01
 0.3054294653038E+01
 0.2980785669422E+01
 0.2905455873191E+01
 0.2828254142454E+01
 0.2749181625854E+01
 0.2668167749299E+01
 0.2584963904934E+01
 0.2499052150845E+01
 0.2409483506396E+01
 0.2314670161851E+01
 0.2212236199022E+01
 0.2098805733364E+01
 0.1969662539154E+01
 0.1818336588908E+01
 0.1636105983640E+01
 0.1411369078914E+01
 0.1128729377018E+01
 0.7676720979466E+00
 0.3040318444699E+00
-0.2829114564997E+00
-0.9993837032753E+00
-0.1823007373467E+01
 0.5116412818106E+01
 0.4980551688352E+01
 0.4817514486270E+01
 0.4649639755482E+01
 0.4491223746991E+01
 0.4348086933863E+01
 0.4220599260131E+01
 0.4106717646568E+01
 0.4003852257141E+01
 0.3909663313656E+01
 0.3822266167457E+01
 0.3740200554375E+01
 0.3662321857064E+01
 0.3587663144696E+01
 0.3515284827393E+01
 0.3444150451193E+01
 0.3373284779782E+01
 0.3302053474244E+01
 0.3229957471322E+01
 0.3156456807236E+01
 0.3081176754617E+01
 0.3004006946281E+01
 0.2925038404922E+01
 0.2844427484291E+01
 0.2762257329450E+01
 0.2678429327722E+01
 0.2592578130601E+01
 0.2503915524523E+01
 0.2411020741350E+01
 0.2311680185329E+01
 0.2202648327141E+01
 0.2079258958459E+01
 0.1934936985061E+01
 0.1760576238098E+01
 0.1543681265256E+01
 0.1266994048279E+01
 0.9063215559508E+00
 0.4312432400747E+00
-0.1872113901136E+00
-0.9622603567116E+00
-0.1870168444538E+01
 0.5325432002094E+01
 0.5170238614443E+01
 0.4985628292630E+01
 0.4799604028907E+01
 0.4628337712654E+01
 0.4476925409071E+01
 0.4344215573934E+01
 0.4226874089466E+01
 0.4121495553689E+01
 0.4025290654006E+01
 0.3936145797928E+01
 0.3852500199487E+01
 0.3773184438266E+01
 0.3697244658771E+01
 0.3623752568656E+01
 0.3551637213839E+01
 0.3479822679588E+01
 0.3407536790686E+01
 0.3334160300783E+01
 0.3259104008908E+01
 0.3182041545649E+01
 0.3102991113112E+01
 0.3022214248921E+01
 0.2940046990387E+01
 0.2856745346302E+01
 0.2772377074994E+01
 0.2686748102359E+01
 0.2599258274821E+01
 0.2508695175523E+01
 0.2413065620350E+01
 0.2309330364456E+01
 0.2192968789421E+01
 0.2057420057731E+01
 0.1893342088374E+01
 0.1687515306853E+01
 0.1420926430849E+01
 0.1065422788325E+01
 0.5829991776604E+00
-0.6655354017743E-01
-0.9075503481043E+00
-0.1916679134340E+01
 0.5543247140681E+01
 0.5364208134269E+01
 0.5153686190211E+01
 0.4947111536020E+01
 0.4762389842925E+01
 0.4603023691801E+01
 0.4465655276360E+01
 0.4345365922815E+01
 0.4237872445173E+01
 0.4139946337493E+01
 0.4049267988339E+01
 0.3964200208631E+01
 0.3883574239232E+01
 0.3806477603787E+01
 0.3732020629013E+01
 0.3659110635935E+01
 0.3586554063457E+01
 0.3513397438874E+01
 0.3438858065119E+01
 0.3362281005617E+01
 0.3283403264822E+01
 0.3202404314067E+01
 0.3119750398008E+01
 0.3035984292570E+01
 0.2951553884071E+01
 0.2866707942169E+01
 0.2781440418425E+01
 0.2695366258811E+01
 0.2607525699195E+01
 0.2516210726824E+01
 0.2418674706231E+01
 0.2310653618102E+01
 0.2185744915067E+01
 0.2034564083717E+01
 0.1843430551053E+01
 0.1591867199650E+01
 0.1247726587896E+01
 0.7640715775131E+00
 0.8551257596232E-01
-0.8297580538830E+00
-0.1962729335204E+01
 0.5771804764430E+01
 0.5562753351510E+01
 0.5320740514365E+01
 0.5090993691435E+01
 0.4892558429964E+01
 0.4725942469447E+01
 0.4584708084039E+01
 0.4462094264602E+01
 0.4352937796730E+01
 0.4253610111528E+01
 0.4161620879079E+01
 0.4075286904655E+01
 0.3993469706078E+01
 0.3915332468284E+01
 0.3840060930774E+01
 0.3766561415389E+01
 0.3693502491153E+01
 0.3619689785495E+01
 0.3544117200934E+01
 0.3466042964292E+01
 0.3385289744525E+01
 0.3302241494316E+01
 0.3217610513315E+01
 0.3132175888534E+01
 0.3046595564008E+01
 0.2961311127426E+01
 0.2876518037820E+01
 0.2792072123041E+01
 0.2707313372150E+01
 0.2620890670621E+01
 0.2530446823431E+01
 0.2432100408340E+01
 0.2319774687763E+01
 0.2184279380158E+01
 0.2011834557476E+01
 0.1781033402390E+01
 0.1456145432104E+01
 0.9802284124430E+00
 0.2776982430956E+00
-0.7207141031005E+00
-0.2008303477447E+01
 0.6013780437883E+01
 0.5766040345909E+01
 0.5485279051309E+01
 0.5229684152171E+01
 0.5017913945757E+01
 0.4845264350368E+01
 0.4701198434715E+01
 0.4576985685462E+01
 0.4466665348285E+01
 0.4366275348565E+01
 0.4273202015298E+01
 0.4185752113767E+01
 0.4102849823852E+01
 0.4023774134509E+01
 0.3947835675975E+01
 0.3873973495955E+01
 0.3800695133724E+01
 0.3726482381550E+01
 0.3650021575128E+01
 0.3570457856090E+01
 0.3487733845030E+01
 0.3402495904063E+01
 0.3315752222453E+01
 0.3228549868451E+01
 0.3141773285398E+01
 0.3056064516380E+01
 0.2971828933522E+01
 0.2889186410639E+01
 0.2807826491387E+01
 0.2726834171611E+01
 0.2644349051061E+01
 0.2557012344693E+01
 0.2459261535784E+01
 0.2342374321634E+01
 0.2192921438590E+01
 0.1989375855147E+01
 0.1693545709973E+01
 0.1238277978329E+01
 0.5218712023728E+00
-0.5678824904653E+00
-0.2052725318873E+01
 0.6272992674309E+01
 0.5973916121148E+01
 0.5644872590745E+01
 0.5361122076149E+01
 0.5137487253653E+01
 0.4960644878801E+01
 0.4814999042515E+01
 0.4689997825455E+01
 0.4579051262244E+01
 0.4477950767138E+01
 0.4384019582673E+01
 0.4295594333530E+01
 0.4211694712384E+01
 0.4131760325834E+01
 0.4055292991382E+01
 0.3981319851092E+01
 0.3908163006272E+01
 0.3833862848698E+01
 0.3756677943952E+01
 0.3675609193045E+01
 0.3590773472693E+01
 0.3503157922813E+01
 0.3414125833184E+01
 0.3325024980157E+01
 0.3236979992065E+01
 0.3150835315873E+01
 0.3067207055889E+01
 0.2986497759670E+01
 0.2908799229163E+01
 0.2833720268222E+01
 0.2760014999133E+01
 0.2685000057810E+01
 0.2603832639488E+01
 0.2508559464741E+01
 0.2386613984119E+01
 0.2217402527174E+01
 0.1962360651847E+01
 0.1545863100758E+01
 0.8342353916494E+00
-0.3513809297515E+00
-0.2093492349916E+01
 0.6555164066954E+01
 0.6185470896857E+01
 0.5795567816153E+01
 0.5482713377833E+01
 0.5250431262382E+01
 0.5071865636017E+01
 0.4926035706339E+01
 0.4801126023296E+01
 0.4690117159043E+01
 0.4588661638360E+01
 0.4494093556401E+01
 0.4404820100418E+01
 0.4319986971290E+01
 0.4239240237269E+01
 0.4162360714669E+01
 0.4088555681474E+01
 0.4015941118695E+01
 0.3941945285830E+01
 0.3864223500316E+01
 0.3781598922992E+01
 0.3694450827958E+01
 0.3604213262426E+01
 0.3512672713447E+01
 0.3421509462205E+01
 0.3332098411332E+01
 0.3245481152034E+01
 0.3162474091199E+01
 0.3083773656613E+01
 0.3009930443701E+01
 0.2941175287475E+01
 0.2877004222428E+01
 0.2815573212583E+01
 0.2752978135178E+01
 0.2682348043067E+01
 0.2592520025470E+01
 0.2465008014149E+01
 0.2263970422004E+01
 0.1910658747721E+01
 0.1236665090809E+01
-0.3861473519007E-01
-0.2123303626442E+01
 0.6869464384410E+01
 0.6397964803031E+01
 0.5930834640296E+01
 0.5591552881765E+01
 0.5356315601676E+01
 0.5178839270510E+01
 0.5034287655393E+01
 0.4910413744231E+01
 0.4799910438533E+01
 0.4698451034748E+01
 0.4603456534041E+01
 0.4513445431992E+01
 0.4427714319593E+01
 0.4346154200928E+01
 0.4268937552139E+01
 0.4195607008493E+01
 0.4124068511054E+01
 0.4050882095883E+01
 0.3972836367084E+01
 0.3888549888526E+01
 0.3798810319686E+01
 0.3705640453772E+01
 0.3611323387886E+01
 0.3517899568553E+01
 0.3427000611992E+01
 0.3339851791225E+01
 0.3257442426975E+01
 0.3180761860785E+01
 0.3110882458926E+01
 0.3048770028563E+01
 0.2994797573752E+01
 0.2948131770627E+01
 0.2906041821716E+01
 0.2863040912893E+01
 0.2809899494313E+01
 0.2731392990519E+01
 0.2597919654811E+01
 0.2338320091598E+01
 0.1757441060358E+01
 0.4256085071264E+00
-0.2122501164380E+01
 0.7232077538817E+01
 0.6603877619569E+01
 0.6039863470472E+01
 0.5685512606595E+01
 0.5455432807554E+01
 0.5281482460584E+01
 0.5139829979599E+01
 0.5017953976724E+01
 0.4908502537057E+01
 0.4807382151105E+01
 0.4712153442838E+01
 0.4621497225065E+01
 0.4534873932555E+01
 0.4452436547631E+01
 0.4374880736175E+01
 0.4302350455647E+01
 0.4232588231781E+01
 0.4160884124445E+01
 0.4082749935748E+01
 0.3996606357093E+01
 0.3903894467894E+01
 0.3807407654691E+01
 0.3709995511766E+01
 0.3614077708780E+01
 0.3521546976895E+01
 0.3433791684353E+01
 0.3351920160214E+01
 0.3277192508224E+01
 0.3211279402761E+01
 0.3156016913536E+01
 0.3112794377360E+01
 0.3081956487522E+01
 0.3062210038025E+01
 0.3049734113704E+01
 0.3037617024515E+01
 0.3015110539472E+01
 0.2961503242744E+01
 0.2828218895021E+01
 0.2428676166052E+01
 0.1137153926300E+01
-0.2038458874446E+01
 0.7676024302455E+01
 0.6781352730018E+01
 0.6106047294534E+01
 0.5766636136989E+01
 0.5548169641862E+01
 0.5379644460298E+01
 0.5242954945444E+01
 0.5123832928657E+01
 0.5016010328126E+01
 0.4915531507531E+01
 0.4820243860464E+01
 0.4729012570389E+01
 0.4641478325776E+01
 0.4558026580787E+01
 0.4479990336271E+01
 0.4408574325768E+01
 0.4341547897372E+01
 0.4272257830505E+01
 0.4194270693954E+01
 0.4105929410089E+01
 0.4009737556158E+01
 0.3909468893102E+01
 0.3808592040848E+01
 0.3709910325424E+01
 0.3615583508727E+01
 0.3527143535360E+01
 0.3445720009732E+01
 0.3372780766666E+01
 0.3310703305746E+01
 0.3262368970322E+01
 0.3230307978545E+01
 0.3216210949964E+01
 0.3220468469653E+01
 0.3241384651540E+01
 0.3274112167657E+01
 0.3313930420259E+01
 0.3350884779754E+01
 0.3367787450690E+01
 0.3270169238452E+01
 0.2266394083534E+01
-0.1731998027206E+01
 0.8285148270046E+01
 0.6855642090214E+01
 0.6117114577422E+01
 0.5846292349946E+01
 0.5630876497497E+01
 0.5474885394854E+01
 0.5343562655765E+01
 0.5228314665829E+01
 0.5122542616329E+01
 0.5023002612273E+01
 0.4927798857320E+01
 0.4836038372490E+01
 0.4747556595547E+01
 0.4662898506379E+01
 0.4583997610435E+01
 0.4513893612239E+01
 0.4451004722310E+01
 0.4385481240556E+01
 0.4307791211907E+01
 0.4216682750910E+01
 0.4116358529028E+01
 0.4011759264522E+01
 0.3907000125509E+01
 0.3805246689426E+01
 0.3708934614956E+01
 0.3619752417065E+01
 0.3538677636558E+01
 0.3467227774725E+01
 0.3408685882522E+01
 0.3367218995448E+01
 0.3346573799361E+01
 0.3349911069542E+01
 0.3379670784277E+01
 0.3436482395824E+01
 0.3518518866909E+01
 0.3622377210900E+01
 0.3765845838753E+01
 0.3931460832276E+01
 0.4243991046571E+01
 0.4077320507840E+01
-0.7494106671894E+00
 0.9349941491474E+01
 0.6496090294607E+01
 0.6196280425769E+01
 0.5892628586262E+01
 0.5712669969083E+01
 0.5565645277350E+01
 0.5442456299161E+01
 0.5331500326596E+01
 0.5228284526678E+01
 0.5129903656085E+01
 0.5034904127245E+01
 0.4942637164682E+01
 0.4853131414789E+01
 0.4767119987148E+01
 0.4686611502506E+01
 0.4617522791022E+01
 0.4561059109358E+01
 0.4501379877309E+01
 0.4423746788946E+01
 0.4329023014830E+01
 0.4223748853412E+01
 0.4114191639218E+01
 0.4005087797623E+01
 0.3899925711825E+01
 0.3801383900159E+01
 0.3711464519124E+01
 0.3630699690983E+01
 0.3560208134631E+01
 0.3504688570220E+01
 0.3469915892166E+01
 0.3460737544816E+01
 0.3481970386201E+01
 0.3538338668035E+01
 0.3633678697230E+01
 0.3768109545463E+01
 0.3942521356923E+01
 0.4174494709163E+01
 0.4583794374963E+01
 0.5034373341182E+01
 0.7039585985866E+01
 0.1815151146884E+01
 0.1513815590076E+00
 0.1326981779486E+00
 0.1323317093263E+00
 0.1483372496119E+00
 0.1771992629200E+00
 0.2165950966973E+00
 0.2645783194453E+00
 0.3195167636151E+00
 0.3798846185735E+00
 0.4442986491575E+00
 0.5113931248057E+00
 0.5799457232970E+00
 0.6494419227774E+00
 0.7193180877386E+00
 0.7887953421312E+00
 0.8569955596440E+00
 0.9233548927302E+00
 0.9843872071924E+00
 0.1044899952508E+01
 0.1010905555325E+01
 0.2017850685829E+00
 0.1792681043621E+00
 0.1763615953281E+00
 0.1887121583823E+00
 0.2138054783017E+00
 0.2493025624304E+00
 0.2933497563135E+00
 0.3443156890729E+00
 0.4007056765385E+00
 0.4611027439481E+00
 0.5241750420642E+00
 0.5888383485205E+00
 0.6543312267388E+00
 0.7200242623243E+00
 0.7851644883879E+00
 0.8489787236579E+00
 0.9097838869846E+00
 0.9666652188507E+00
 0.9982934793391E+00
 0.1026943245750E+01
 0.2474176841127E+00
 0.2234773823008E+00
 0.2177739032960E+00
 0.2270694115962E+00
 0.2486728331649E+00
 0.2805138714134E+00
 0.3207865202974E+00
 0.3679078956761E+00
 0.4204009609904E+00
 0.4768678936786E+00
 0.5360193463401E+00
 0.5967640752985E+00
 0.6582818722700E+00
 0.7198684244849E+00
 0.7807812612128E+00
 0.8399317370186E+00
 0.8959138570035E+00
 0.9428263774482E+00
 0.9796794396033E+00
 0.1010995452016E+01
 0.2897252780401E+00
 0.2647741458800E+00
 0.2569443987221E+00
 0.2634313931874E+00
 0.2818677322285E+00
 0.3102668446085E+00
 0.3469327579309E+00
 0.3903314511933E+00
 0.4390250619326E+00
 0.4916482338104E+00
 0.5469359405291E+00
 0.6038000227158E+00
 0.6613812173008E+00
 0.7189353159931E+00
 0.7756091859235E+00
 0.8302722381943E+00
 0.8805278428866E+00
 0.9240390634791E+00
 0.9600409400778E+00
 0.9903095953728E+00
 0.3290201947213E+00
 0.3034538070457E+00
 0.2938890818109E+00
 0.2979247280291E+00
 0.3134422012810E+00
 0.3386138596723E+00
 0.3718324414046E+00
 0.4116330944162E+00
 0.4566267080199E+00
 0.5054860721152E+00
 0.5569731552123E+00
 0.6100073124595E+00
 0.6637082098994E+00
 0.7172763450427E+00
 0.7698003665266E+00
 0.8199189640495E+00
 0.8658672564954E+00
 0.9061226305043E+00
 0.9399576835040E+00
 0.9675805531900E+00
 0.3655921505338E+00
 0.3397102761308E+00
 0.3287448427587E+00
 0.3306257686060E+00
 0.3434711677912E+00
 0.3656084729160E+00
 0.3955354006351E+00
 0.4318605666836E+00
 0.4732528327927E+00
 0.5184290267345E+00
 0.5661829410151E+00
 0.6154483426773E+00
 0.6653278775539E+00
 0.7149837408466E+00
 0.7634300795411E+00
 0.8094059055981E+00
 0.8514949370540E+00
 0.8885008334608E+00
 0.9194727619515E+00
 0.9440477655604E+00
 0.3996818121346E+00
 0.3737336669506E+00
 0.3616438885456E+00
 0.3616305363914E+00
 0.3720259415353E+00
 0.3913113570402E+00
 0.4180937990546E+00
 0.4510630414170E+00
 0.4889516200845E+00
 0.5305266167696E+00
 0.5746193870993E+00
 0.6201829004077E+00
 0.6663120940915E+00
 0.7121386545547E+00
 0.7566808940943E+00
 0.7987885274677E+00
 0.8372495844596E+00
 0.8709485488812E+00
 0.8988073681995E+00
 0.9202022116282E+00
 0.4315075239290E+00
 0.4057003213007E+00
 0.3927201843686E+00
 0.3910382174924E+00
 0.3991833743720E+00
 0.4157852696677E+00
 0.4395626001385E+00
 0.4692911136952E+00
 0.5037724756999E+00
 0.5418295837201E+00
 0.5823367078871E+00
 0.6242718643041E+00
 0.6667304989913E+00
 0.7088388941200E+00
 0.7496436249776E+00
 0.7880831123036E+00
 0.8230472677383E+00
 0.8534373774975E+00
 0.8781143787332E+00
 0.8963250747330E+00
 0.4612708798400E+00
 0.4357772224959E+00
 0.4221051003284E+00
 0.4189503395255E+00
 0.4250231483776E+00
 0.4390956834532E+00
 0.4599985228683E+00
 0.4865967748872E+00
 0.5177657056753E+00
 0.5523890767719E+00
 0.5893892560727E+00
 0.6277750713216E+00
 0.6666536359894E+00
 0.7051609300097E+00
 0.7423766262484E+00
 0.7772988276183E+00
 0.8088692189421E+00
 0.8359912610606E+00
 0.8575093168381E+00
 0.8725967361192E+00
 0.4891605898698E+00
 0.4641232565003E+00
 0.4499270215920E+00
 0.4454688167321E+00
 0.4496268378062E+00
 0.4613099399766E+00
 0.4794597786212E+00
 0.5030330034838E+00
 0.5309821390614E+00
 0.5622562779747E+00
 0.5958306845310E+00
 0.6307510602073E+00
 0.6661450005038E+00
 0.7011660067199E+00
 0.7349232152405E+00
 0.7664537411678E+00
 0.7947274740980E+00
 0.8186515873459E+00
 0.8370779939760E+00
 0.8491311039379E+00
 0.5153547612961E+00
 0.4908903630785E+00
 0.4763110956607E+00
 0.4706950846810E+00
 0.4730769294058E+00
 0.4824966454912E+00
 0.4980056169374E+00
 0.5186534095864E+00
 0.5434727400304E+00
 0.5714818834524E+00
 0.6017133690354E+00
 0.6332549512051E+00
 0.6652607772241E+00
 0.6969050719776E+00
 0.7273214784739E+00
 0.7555733459331E+00
 0.7806487375662E+00
 0.8014632205569E+00
 0.8168855752023E+00
 0.8260097134589E+00
 0.5400224129058E+00
 0.5162243086868E+00
 0.5013792016384E+00
 0.4947295212687E+00
 0.4954561316944E+00
 0.5027250804979E+00
 0.5156958892136E+00
 0.5335118595594E+00
 0.5552882197533E+00
 0.5801156585720E+00
 0.6070876219699E+00
 0.6353378702017E+00
 0.6640509070074E+00
 0.6924227435439E+00
 0.7196075078601E+00
 0.7446876683382E+00
 0.7666657514447E+00
 0.7844694581536E+00
 0.7969881992657E+00
 0.8032971829109E+00
 0.5633246140982E+00
 0.5402653036466E+00
 0.5252500064691E+00
 0.5176711056008E+00
 0.5168468715391E+00
 0.5220647174325E+00
 0.5325906399962E+00
 0.5476621145474E+00
 0.5664786733649E+00
 0.5882059979328E+00
 0.6120012685840E+00
 0.6370470148511E+00
 0.6625603910358E+00
 0.6877594613315E+00
 0.7118162194795E+00
 0.7338286744648E+00
 0.7528128373435E+00
 0.7677112774233E+00
 0.7774353100813E+00
 0.7810490680125E+00
 0.5854153697717E+00
 0.5631485040835E+00
 0.5480390556119E+00
 0.5396171989236E+00
 0.5373309186043E+00
 0.5405848155047E+00
 0.5487497324480E+00
 0.5611574873001E+00
 0.5770932429764E+00
 0.5957996074536E+00
 0.6164994951072E+00
 0.6384259962383E+00
 0.6608302818789E+00
 0.6829525644640E+00
 0.7039812864543E+00
 0.7230284686649E+00
 0.7391238272018E+00
 0.7512267234604E+00
 0.7582705042151E+00
 0.7593136468170E+00
 0.6064423516343E+00
 0.5850044429153E+00
 0.5698588859647E+00
 0.5606634087522E+00
 0.5569891044679E+00
 0.5583540881536E+00
 0.5642325193273E+00
 0.5740505341931E+00
 0.5871798404587E+00
 0.6029413064348E+00
 0.6206248587398E+00
 0.6395152021552E+00
 0.6588983369321E+00
 0.6780367711749E+00
 0.6961348328383E+00
 0.7123181736171E+00
 0.7256309142823E+00
 0.7350505208530E+00
 0.7395320945685E+00
 0.7381325555007E+00
 0.6265475279143E+00
 0.6059594176842E+00
 0.5908191557897E+00
 0.5809035126598E+00
 0.5759011151907E+00
 0.5754404354866E+00
 0.5790975651549E+00
 0.5863927966940E+00
 0.5967849379032E+00
 0.6096739221338E+00
 0.6244173661359E+00
 0.6403520977123E+00
 0.6567994171938E+00
 0.6730443636113E+00
 0.6883071275441E+00
 0.7017272157092E+00
 0.7123639819848E+00
 0.7192138833166E+00
 0.7212533783957E+00
 0.7175412940530E+00
 0.6458677397192E+00
 0.6261358569840E+00
 0.6110267925143E+00
 0.6004294272433E+00
 0.5941453396022E+00
 0.5919107291371E+00
 0.5934024138613E+00
 0.5982345878407E+00
 0.6059534101084E+00
 0.6160382339710E+00
 0.6279145590274E+00
 0.6409714390694E+00
 0.6545657118888E+00
 0.6680052322943E+00
 0.6805263272705E+00
 0.6912828591204E+00
 0.6993502130589E+00
 0.7037444049650E+00
 0.7034628869663E+00
 0.6975691976363E+00
 0.6645352330744E+00
 0.6456526713036E+00
 0.6305861515078E+00
 0.6193312082879E+00
 0.6117987585344E+00
 0.6078306394237E+00
 0.6072033972802E+00
 0.6096248200811E+00
 0.6147284183657E+00
 0.6220729464425E+00
 0.6311515904158E+00
 0.6414054214342E+00
 0.6522268670691E+00
 0.6629468719839E+00
 0.6728182924250E+00
 0.6810099194024E+00
 0.6866138659496E+00
 0.6886660617238E+00
 0.6861845282339E+00
 0.6782398483190E+00
 0.6826781723120E+00
 0.6646256009332E+00
 0.6495991903599E+00
 0.6376970796767E+00
 0.6289368699769E+00
 0.6232645003550E+00
 0.6205554808581E+00
 0.6206108685480E+00
 0.6231513236581E+00
 0.6278146745288E+00
 0.6341612825463E+00
 0.6416837759994E+00
 0.6498100556594E+00
 0.6578943600934E+00
 0.6652064586462E+00
 0.6709305957850E+00
 0.6741761471604E+00
 0.6739992127880E+00
 0.6694378929274E+00
 0.6595710630507E+00
 0.7004211460552E+00
 0.6831675675333E+00
 0.6681656580485E+00
 0.6556134858015E+00
 0.6456336426269E+00
 0.6382752047875E+00
 0.6335121390774E+00
 0.6312384612681E+00
 0.6312616192558E+00
 0.6332979333802E+00
 0.6369741679658E+00
 0.6418338327392E+00
 0.6473400167219E+00
 0.6528703353904E+00
 0.6577117594253E+00
 0.6610643754772E+00
 0.6620551961280E+00
 0.6597605471999E+00
 0.6532384801053E+00
 0.6415757218880E+00
 0.7178856768724E+00
 0.7013890352180E+00
 0.6863832997786E+00
 0.6731651641427E+00
 0.6619614922553E+00
 0.6529241232820E+00
 0.6461252537731E+00
 0.6415515890786E+00
 0.6390968758790E+00
 0.6385551287253E+00
 0.6396185174261E+00
 0.6418805616798E+00
 0.6448390789196E+00
 0.6478949851914E+00
 0.6503525828650E+00
 0.6514280102876E+00
 0.6502660696642E+00
 0.6459633220934E+00
 0.6375972114950E+00
 0.6242636118621E+00
 0.7351907439669E+00
 0.7193983864591E+00
 0.7043480782271E+00
 0.6904352352588E+00
 0.6779912758979E+00
 0.6672710405842E+00
 0.6584450289392E+00
 0.6515924291787E+00
 0.6466926949414E+00
 0.6436165471571E+00
 0.6421203592742E+00
 0.6418466017306E+00
 0.6423271775595E+00
 0.6429860402784E+00
 0.6431447611494E+00
 0.6420355156709E+00
 0.6388208491745E+00
 0.6326173232093E+00
 0.6225216633803E+00
 0.6076384108800E+00
 0.7524533282687E+00
 0.7373023181088E+00
 0.7221544121963E+00
 0.7075053077428E+00
 0.6937922991337E+00
 0.6813741037873E+00
 0.6705199158579E+00
 0.6614012769393E+00
 0.6540826665719E+00
 0.6485103464731E+00
 0.6445034943747E+00
 0.6417522835284E+00
 0.6398218690384E+00
 0.6381587780593E+00
 0.6361015732727E+00
 0.6328982192478E+00
 0.6277286969550E+00
 0.6197292651032E+00
 0.6080155881483E+00
 0.5917022272939E+00
 0.7697889891272E+00
 0.7552062627594E+00
 0.7398954335046E+00
 0.7244555954673E+00
 0.7094323314242E+00
 0.6952897760089E+00
 0.6823965423958E+00
 0.6710164809955E+00
 0.6612983298553E+00
 0.6532625468185E+00
 0.6467895105533E+00
 0.6416156512861E+00
 0.6373383460540E+00
 0.6334260285722E+00
 0.6292337627791E+00
 0.6240248055096E+00
 0.6169960281495E+00
 0.6073028561041E+00
 0.5940798183887E+00
 0.5764508181082E+00
 0.7873124826393E+00
 0.7732148412077E+00
 0.7576632631433E+00
 0.7413650443850E+00
 0.7249776243549E+00
 0.7090727893743E+00
 0.6941196405026E+00
 0.6804743770616E+00
 0.6683691332029E+00
 0.6578970238059E+00
 0.6489978006174E+00
 0.6414524887473E+00
 0.6348894552069E+00
 0.6287981821200E+00
 0.6225495515547E+00
 0.6154213843336E+00
 0.6066266187850E+00
 0.5953391345637E+00
 0.5807118458230E+00
 0.5618757227868E+00
 0.8051384337339E+00
 0.7914323529656E+00
 0.7755493081127E+00
 0.7583114659245E+00
 0.7404929271181E+00
 0.7227760906606E+00
 0.7057319656780E+00
 0.6898092156925E+00
 0.6753223924329E+00
 0.6624355043072E+00
 0.6511455879158E+00
 0.6412763544910E+00
 0.6324857202813E+00
 0.6242831922469E+00
 0.6160546460881E+00
 0.6070915361603E+00
 0.5966217571739E+00
 0.5838365888912E+00
 0.5679064059960E+00
 0.5479660761173E+00
 0.8233820765951E+00
 0.8099633130955E+00
 0.7936445803659E+00
 0.7753716731100E+00
 0.7560414923329E+00
 0.7364507719490E+00
 0.7172742016024E+00
 0.6990530787662E+00
 0.6821832434450E+00
 0.6668975649198E+00
 0.6532479635179E+00
 0.6410986340913E+00
 0.6301353768709E+00
 0.6198865731522E+00
 0.6097522155121E+00
 0.5990363368985E+00
 0.5869803539447E+00
 0.5727914307272E+00
 0.5556562283131E+00
 0.5347096534791E+00
 0.8421600823072E+00
 0.8289130458233E+00
 0.8120400394217E+00
 0.7926216140328E+00
 0.7716850632323E+00
 0.7501459769457E+00
 0.7287848420868E+00
 0.7082357785543E+00
 0.6889745847326E+00
 0.6713006307606E+00
 0.6553179378697E+00
 0.6409286184847E+00
 0.6278444302087E+00
 0.6156113924763E+00
 0.6036428271455E+00
 0.5912543204334E+00
 0.5776990565966E+00
 0.5621979579830E+00
 0.5439525911033E+00
 0.5220939048920E+00
 0.8615914979897E+00
 0.8483883486544E+00
 0.8308269603673E+00
 0.8101364956859E+00
 0.7874838315664E+00
 0.7639087734691E+00
 0.7403000443104E+00
 0.7173847359976E+00
 0.6957170068381E+00
 0.6756599722042E+00
 0.6573665099047E+00
 0.6407736232341E+00
 0.6256167592594E+00
 0.6114582752263E+00
 0.5977243213282E+00
 0.5837413347459E+00
 0.5687723219565E+00
 0.5520489630927E+00
 0.5327858936823E+00
 0.5101063680315E+00
 0.8817988344442E+00
 0.8684982474426E+00
 0.8500973307614E+00
 0.8279908886292E+00
 0.8034963514022E+00
 0.7777839789770E+00
 0.7518534448988E+00
 0.7265248325614E+00
 0.7024287009094E+00
 0.6799886868061E+00
 0.6594027426155E+00
 0.6406391551535E+00
 0.6234542976308E+00
 0.6074254462289E+00
 0.5919916157011E+00
 0.5764902101724E+00
 0.5601923117440E+00
 0.5423362122626E+00
 0.5221464243947E+00
 0.4987344051745E+00
 0.9029093491622E+00
 0.8893548659991E+00
 0.8699442730950E+00
 0.8462587907098E+00
 0.8197793821219E+00
 0.7918139187397E+00
 0.7634759287690E+00
 0.7356782333621E+00
 0.7091253439428E+00
 0.6842976541823E+00
 0.6614338271923E+00
 0.6405291313338E+00
 0.6213573503416E+00
 0.6035088987329E+00
 0.5864364547209E+00
 0.5694901768372E+00
 0.5519484111283E+00
 0.5330508271003E+00
 0.5120257103515E+00
 0.4879638099114E+00
 0.9250566021116E+00
 0.9110744510347E+00
 0.8904624931526E+00
 0.8650136230036E+00
 0.8363876310053E+00
 0.8060380983362E+00
 0.7751953465610E+00
 0.7448641876708E+00
 0.7158199675118E+00
 0.6885954533623E+00
 0.6634650913983E+00
 0.6404461144668E+00
 0.6193251000577E+00
 0.5997028448451E+00
 0.5810471917034E+00
 0.5627258273931E+00
 0.5440262902522E+00
 0.5241829592459E+00
 0.5024182664245E+00
 0.4777787819034E+00
 0.9483824061904E+00
 0.9337786138918E+00
 0.9117487423664E+00
 0.8843281099052E+00
 0.8533733475545E+00
 0.8204927699669E+00
 0.7870361770605E+00
 0.7540988144308E+00
 0.7225228322756E+00
 0.6928882490809E+00
 0.6654999002471E+00
 0.6403914418514E+00
 0.6173563173751E+00
 0.5960007220661E+00
 0.5758089197474E+00
 0.5561754521558E+00
 0.5364056904052E+00
 0.5157217836668E+00
 0.4933210582144E+00
 0.4681760652786E+00
 0.9730393823089E+00
 0.9575958750057E+00
 0.9339022687204E+00
 0.9042739366502E+00
 0.8707857103721E+00
 0.8352103594711E+00
 0.7990191336248E+00
 0.7633948659135E+00
 0.7292413103986E+00
 0.6971797114181E+00
 0.6675393912762E+00
 0.6403650358272E+00
 0.6154499950647E+00
 0.5923971944873E+00
 0.5707047242037E+00
 0.5498088622575E+00
 0.5290555828995E+00
 0.5076540496087E+00
 0.4847407425531E+00
 0.4591817427425E+00
 0.9991944793340E+00
 0.9826637208289E+00
 0.9570250738087E+00
 0.9249210602195E+00
 0.8886698578453E+00
 0.8502188076178E+00
 0.8111606921617E+00
 0.7727614868039E+00
 0.7359798028069E+00
 0.7014709951207E+00
 0.6695823940696E+00
 0.6403644318241E+00
 0.6136053920272E+00
 0.5888908954679E+00
 0.5657204725516E+00
 0.5435854044082E+00
 0.5219248757145E+00
 0.4999573967617E+00
 0.4767065886504E+00
 0.4508503890177E+00
 0.1027034549997E+01
 0.1009131104907E+01
 0.9812220838166E+00
 0.9463359364452E+00
 0.9070658821917E+00
 0.8655406709606E+00
 0.8234727293534E+00
 0.7822038122659E+00
 0.7427396980255E+00
 0.7057608941054E+00
 0.6716252939122E+00
 0.6403846720641E+00
 0.6118178913707E+00
 0.5854881168284E+00
 0.5608539992149E+00
 0.5374605990624E+00
 0.5149214480948E+00
 0.4925833406475E+00
 0.4692749127093E+00
 0.4432953730194E+00
 0.1056774323333E+01
 0.1037164145800E+01
 0.1006597584380E+01
 0.9685803099390E+00
 0.9260060940286E+00
 0.8811935933449E+00
 0.8359613350086E+00
 0.7917227170043E+00
 0.7495192455746E+00
 0.7100461577746E+00
 0.6736625946700E+00
 0.6404172263426E+00
 0.6100803552331E+00
 0.5821834052081E+00
 0.5561482575048E+00
 0.5314013626407E+00
 0.5078998217721E+00
 0.4853777685560E+00
 0.4625545768369E+00
 0.4367567328791E+00
 0.1088685396262E+01
 0.1066940045186E+01
 0.1033260509568E+01
 0.9916955258787E+00
 0.9455227253974E+00
 0.8971861842449E+00
 0.8486272316249E+00
 0.8013135299721E+00
 0.7563137318121E+00
 0.7143218838342E+00
 0.6756875283677E+00
 0.6404513716050E+00
 0.6083773973936E+00
 0.5789738407743E+00
 0.5515893278614E+00
 0.5256227048563E+00
 0.5005427547371E+00
 0.4779863019414E+00
 0.4565896587138E+00
 0.4319153593655E+00
 0.1123083926696E+01
 0.1098737248959E+01
 0.1061210417631E+01
 0.1015761341068E+01
 0.9656255673413E+00
 0.9135233262968E+00
 0.8614631763049E+00
 0.8109662646912E+00
 0.7631123876796E+00
 0.7185853036697E+00
 0.6776920141384E+00
 0.6404736384845E+00
 0.6066922049065E+00
 0.5758314758243E+00
 0.5472050451203E+00
 0.5200212696056E+00
 0.4939313976013E+00
 0.4680642030086E+00
 0.4517552430977E+00
 0.4303639419472E+00
 0.1161346887098E+01
 0.1132100746478E+01
 0.1090743923248E+01
 0.1040761246807E+01
 0.9863377280809E+00
 0.9301951159696E+00
 0.8744558860342E+00
 0.8206642217763E+00
 0.7699000724439E+00
 0.7228213768352E+00
 0.6796967566486E+00
 0.6404464531258E+00
 0.6050032062105E+00
 0.5727519282198E+00
 0.5429124864719E+00
 0.5147714845476E+00
 0.4873524979765E+00
 0.4612837419078E+00
 0.4325086980844E+00
 0.4472831332099E+00
-0.4426851623124E+01
-0.1153402926737E+01
-0.8758773086271E+00
-0.6826397188120E+00
-0.5367310951230E+00
-0.4077920746795E+00
-0.2935186128725E+00
-0.1877840366055E+00
-0.7998945797625E-01
 0.1218293846263E+00
 0.5483265900498E+00
 0.1132652226056E+01
 0.1672201285205E+01
 0.2122929596898E+01
 0.2481676596203E+01
 0.2743748858515E+01
 0.2910501863547E+01
 0.2990074787844E+01
 0.2989235163916E+01
 0.2912307249717E+01
-0.2669554356177E+01
-0.1751180133906E+01
-0.9079467853564E+00
-0.6835253110968E+00
-0.5205249179182E+00
-0.3876785313282E+00
-0.2664518857870E+00
-0.1490534985345E+00
-0.8856139463309E-02
 0.2087950459325E+00
 0.5666681351395E+00
 0.1041426081673E+01
 0.1532063166828E+01
 0.1961672164741E+01
 0.2308819906234E+01
 0.2567125954248E+01
 0.2736580598325E+01
 0.2823545702690E+01
 0.2835066928430E+01
 0.2774331880577E+01
-0.2105559744619E+01
-0.1559066883996E+01
-0.1049475986410E+01
-0.6903632339079E+00
-0.5097597673063E+00
-0.3669053209184E+00
-0.2392221606853E+00
-0.1094871091308E+00
 0.4545776128709E-01
 0.2607158460346E+00
 0.5761968294172E+00
 0.9823187392959E+00
 0.1415664718461E+01
 0.1815179157424E+01
 0.2147555985811E+01
 0.2400062952618E+01
 0.2570625515297E+01
 0.2663993946005E+01
 0.2686061487977E+01
 0.2634937759625E+01
-0.1745624744670E+01
-0.1391722696670E+01
-0.1028039580972E+01
-0.7167564657606E+00
-0.5008497840722E+00
-0.3478299841183E+00
-0.2121191688064E+00
-0.7405392863760E-01
 0.8694566085208E-01
 0.2953782745053E+00
 0.5795046875830E+00
 0.9348885553194E+00
 0.1319476589409E+01
 0.1684960610371E+01
 0.1998553792336E+01
 0.2242902570988E+01
 0.2412890619516E+01
 0.2511242965463E+01
 0.2541528818527E+01
 0.2502272215791E+01
-0.1485206092516E+01
-0.1237073624108E+01
-0.9672133307219E+00
-0.7052542589845E+00
-0.4940657159832E+00
-0.3293277619503E+00
-0.1867501146543E+00
-0.4318762221410E-01
 0.1193042457269E+00
 0.3194801729070E+00
 0.5782510506229E+00
 0.8937962315967E+00
 0.1236969501258E+01
 0.1569676466719E+01
 0.1862146886419E+01
 0.2095974552099E+01
 0.2263568456713E+01
 0.2365265320590E+01
 0.2403082826970E+01
 0.2375154704429E+01
-0.1276887735212E+01
-0.1098123237784E+01
-0.8897621271212E+00
-0.6716293883321E+00
-0.4762266324320E+00
-0.3105586424857E+00
-0.1629599688869E+00
-0.1643076147303E-01
 0.1450510954546E+00
 0.3364561404308E+00
 0.5738224435156E+00
 0.8566868855138E+00
 0.1164442844440E+01
 0.1466843742049E+01
 0.1737762179456E+01
 0.1959381067519E+01
 0.2122824611426E+01
 0.2226505932527E+01
 0.2270916724395E+01
 0.2253841957654E+01
-0.1101397316826E+01
-0.9714022176967E+00
-0.8068934526186E+00
-0.6243292899653E+00
-0.4481973008789E+00
-0.2880918152782E+00
-0.1399940703613E+00
 0.7186988676930E-02
 0.1659419732939E+00
 0.3484502864215E+00
 0.5672036132385E+00
 0.8224954336802E+00
 0.1099588138757E+01
 0.1374400628627E+01
 0.1624320507291E+01
 0.1832867849120E+01
 0.1990792796438E+01
 0.2095186466714E+01
 0.2145263973578E+01
 0.2138338916604E+01
-0.9486154217517E+00
-0.8545968987292E+00
-0.7230047759022E+00
-0.5692793705394E+00
-0.4122191786238E+00
-0.2613146299081E+00
-0.1164872478999E+00
 0.2874193225480E-01
 0.1833821189518E+00
 0.3569415310491E+00
 0.5591576282477E+00
 0.7906898267418E+00
 0.1040945196687E+01
 0.1290749346904E+01
 0.1520705132364E+01
 0.1715942360821E+01
 0.1867412787712E+01
 0.1971434072448E+01
 0.2026239954579E+01
 0.2028674323581E+01
-0.8127624715014E+00
-0.7460422729831E+00
-0.6401546947396E+00
-0.5100494794883E+00
-0.3706773556831E+00
-0.2306124980383E+00
-0.9172715967544E-01
 0.4930161770452E-01
 0.1985325799067E+00
 0.3630588424825E+00
 0.5503004223688E+00
 0.7610104049323E+00
 0.9875498048989E+00
 0.1214685571619E+01
 0.1425906314159E+01
 0.1608006325818E+01
 0.1752467093251E+01
 0.1855245595036E+01
 0.1913891694033E+01
 0.1924834063085E+01
-0.6902394800283E+00
-0.6445991580517E+00
-0.5593400336972E+00
-0.4488636282176E+00
-0.3254850632257E+00
-0.1967680596332E+00
-0.6548240405644E-01
 0.6963054644826E-01
 0.2123498123548E+00
 0.3677036302335E+00
 0.5411540086333E+00
 0.7333462412185E+00
 0.9387471376991E+00
 0.1145297729786E+01
 0.1339056685679E+01
 0.1508440410608E+01
 0.1645629574472E+01
 0.1746506030778E+01
 0.1808188949290E+01
 0.1826769474713E+01
-0.5786647099816E+00
-0.5494670121331E+00
-0.4810743305902E+00
-0.3871304639378E+00
-0.2780842328519E+00
-0.1606039724210E+00
-0.3782407399866E-01
 0.9019737313286E-01
 0.2255555748349E+00
 0.3715996640950E+00
 0.5321659002854E+00
 0.7076734459570E+00
 0.8940821568822E+00
 0.1081886927870E+01
 0.1259422946162E+01
 0.1416645891153E+01
 0.1546511055006E+01
 0.1645010866507E+01
 0.1709032260582E+01
 0.1734397639143E+01
-0.4763775071761E+00
-0.4600651199638E+00
-0.4056306321502E+00
-0.3257662085293E+00
-0.2295333263047E+00
-0.1228566030053E+00
-0.8969767830809E-02
 0.1112403275147E+00
 0.2386564296652E+00
 0.3753077117823E+00
 0.5237133141348E+00
 0.6840164723239E+00
 0.8532326610355E+00
 0.1023907738591E+01
 0.1186384437472E+01
 0.1332060969962E+01
 0.1454690006213E+01
 0.1550490281329E+01
 0.1616264890715E+01
 0.1647609791462E+01
-0.3821663719972E+00
-0.3759538785675E+00
-0.3331544703419E+00
-0.2653803719078E+00
-0.1806048591857E+00
-0.8414065908911E-01
 0.2080903985747E-01
 0.1328425981462E+00
 0.2519822739063E+00
 0.3792434437131E+00
 0.5161017917120E+00
 0.6624217779382E+00
 0.8159659369566E+00
 0.9709258617801E+00
 0.1119410083848E+01
 0.1254162372697E+01
 0.1369730208376E+01
 0.1462628274523E+01
 0.1529687318962E+01
 0.1566284782698E+01
-0.2951105424142E+00
-0.2967844387592E+00
-0.2637179671614E+00
-0.2063856608775E+00
-0.1318633829778E+00
-0.4495266861044E-01
 0.5123703951352E-01
 0.1549916368111E+00
 0.2657292587733E+00
 0.3836995493678E+00
 0.5095669500171E+00
 0.6429405113015E+00
 0.7821106424998E+00
 0.9225899641290E+00
 0.1058037519330E+01
 0.1182458969472E+01
 0.1291186034873E+01
 0.1381075040989E+01
 0.1449070329596E+01
 0.1490309396825E+01
-0.2144836113767E+00
-0.2222663534263E+00
-0.1973471842719E+00
-0.1490640814396E+00
-0.8372295609097E-01
-0.5686994112553E-02
 0.8205886523558E-01
 0.1776205028892E+00
 0.2799973030685E+00
 0.3888688978060E+00
 0.5042796235753E+00
 0.6256173506789E+00
 0.7515421346313E+00
 0.8786151321619E+00
 0.1001861782585E+01
 0.1116476363473E+01
 0.1218597510425E+01
 0.1305446746193E+01
 0.1374166948064E+01
 0.1419608663436E+01
-0.1396923486253E+00
-0.1521471195047E+00
-0.1340364893414E+00
-0.9360807696242E-01
-0.3648762117669E-01
 0.3334595170837E-01
 0.1130486549654E+00
 0.2006345873895E+00
 0.2948195739051E+00
 0.3948657551178E+00
 0.5003518151606E+00
 0.6104832194139E+00
 0.7241697366436E+00
 0.8387930679449E+00
 0.9505274302895E+00
 0.1055756044771E+01
 0.1151446443041E+01
 0.1235319600053E+01
 0.1304712067590E+01
 0.1354203261852E+01
-0.7023739044123E-01
-0.8619740585077E-01
-0.7375919137409E-01
-0.4014505435273E-01
 0.9619173073741E-02
 0.7190447334619E-01
 0.1440117483000E+00
 0.2239282954139E+00
 0.3101844631978E+00
 0.4017436542187E+00
 0.4978433834028E+00
 0.5975453144789E+00
 0.6999260511012E+00
 0.8029807690255E+00
 0.9038328075281E+00
 0.9997910694858E+00
 0.1089159527050E+01
 0.1170081990556E+01
 0.1240473569324E+01
 0.1294306565851E+01
-0.5674341397086E-02
-0.2421317515429E-01
-0.1646485957144E-01
 0.1123634368278E-01
 0.5444255830316E-01
 0.1097992600614E+00
 0.1747841045300E+00
 0.2473949920439E+00
 0.3260512525448E+00
 0.4095108404678E+00
 0.4967682021866E+00
 0.5867818208534E+00
 0.6787344677802E+00
 0.7710969751147E+00
 0.8616804520362E+00
 0.9485834035043E+00
 0.1030491592894E+01
 0.1109052758694E+01
 0.1180914457306E+01
 0.1240781741342E+01
 0.5436479251862E-01
 0.3406163789988E-01
 0.3782998805319E-01
 0.6053030750136E-01
 0.9786376245319E-01
 0.1468883751032E+00
 0.2052268109499E+00
 0.2709334723438E+00
 0.3423635090819E+00
 0.4181393568839E+00
 0.4971050423434E+00
 0.5781377631127E+00
 0.6604976066994E+00
 0.7430171479437E+00
 0.8241200322558E+00
 0.9022181009582E+00
 0.9766087585874E+00
 0.1046879071601E+01
 0.1126959440657E+01
 0.1195531119564E+01
 0.1109724264580E+00
 0.8822745699296E-01
 0.8942204750769E-01
 0.1076860611852E+00
 0.1398217338943E+00
 0.1830596930434E+00
 0.2352280774552E+00
 0.2944425142484E+00
 0.3590623063364E+00
 0.4275890030004E+00
 0.4987748830298E+00
 0.5715529036671E+00
 0.6450959999682E+00
 0.7185647548714E+00
 0.7909551307383E+00
 0.8612032251062E+00
 0.9278337477961E+00
 0.9915791089354E+00
 0.1049429039147E+01
 0.1180519725781E+01
 0.1190237429290E+01
 0.1164029663376E+01
 0.1120205820354E+01
 0.1067045140850E+01
 0.1008568992541E+01
 0.9480658315670E+00
 0.8879768422113E+00
 0.8301847057891E+00
 0.7760239189606E+00
 0.7262919957174E+00
 0.6812302948110E+00
 0.6405433042850E+00
 0.6035799331262E+00
 0.5697841606736E+00
 0.5384463724119E+00
 0.5088603559846E+00
 0.4804555508511E+00
 0.4515164891253E+00
 0.4226673458664E+00
 0.3530153498207E+00
 0.1233895797991E+01
 0.1201621997424E+01
 0.1152695278772E+01
 0.1093104878362E+01
 0.1028119584279E+01
 0.9613100959034E+00
 0.8954234099709E+00
 0.8324761433318E+00
 0.7738231497743E+00
 0.7201823699917E+00
 0.6716657136569E+00
 0.6278395038012E+00
 0.5882043777580E+00
 0.5521636454243E+00
 0.5189747255073E+00
 0.4879812586817E+00
 0.4579821984351E+00
 0.4279666040201E+00
 0.3902225938681E+00
 0.3563238489576E+00
 0.1279507316632E+01
 0.1242394921370E+01
 0.1186576719568E+01
 0.1119756452555E+01
 0.1047394139594E+01
 0.9736107268295E+00
 0.9014135002326E+00
 0.8329616195162E+00
 0.7696097516259E+00
 0.7119801965022E+00
 0.6600419722134E+00
 0.6132572358314E+00
 0.5711152063112E+00
 0.5330195024331E+00
 0.4981951113167E+00
 0.4658338709975E+00
 0.4348713496855E+00
 0.4031957837353E+00
 0.3718114623431E+00
 0.3426169740758E+00
 0.1328680638432E+01
 0.1285730004361E+01
 0.1222142536198E+01
 0.1146880371496E+01
 0.1066227068387E+01
 0.9847196155292E+00
 0.9056835659711E+00
 0.8314003253479E+00
 0.7631996722202E+00
 0.7015742845045E+00
 0.6463263432633E+00
 0.5967552956610E+00
 0.5523252654922E+00
 0.5124150402483E+00
 0.4761891775002E+00
 0.4428831087803E+00
 0.4113571619793E+00
 0.3810733323955E+00
 0.3518643962231E+00
 0.3255031560552E+00
 0.1381916867625E+01
 0.1331958406648E+01
 0.1259315437691E+01
 0.1174401072867E+01
 0.1084378799535E+01
 0.9943407616390E+00
 0.9079261363067E+00
 0.8275263551990E+00
 0.7543982643640E+00
 0.6888519475825E+00
 0.6304670451764E+00
 0.5783352867562E+00
 0.5318785852616E+00
 0.4904392595960E+00
 0.4531655461134E+00
 0.4193230530413E+00
 0.3880980638300E+00
 0.3588395787971E+00
 0.3313450763087E+00
 0.3066904787815E+00
 0.1439817108606E+01
 0.1381352865294E+01
 0.1298135144732E+01
 0.1202141854215E+01
 0.1101556008344E+01
 0.1002107304601E+01
 0.9077840695434E+00
 0.8210464548276E+00
 0.7430052293982E+00
 0.6737051013865E+00
 0.6124335068559E+00
 0.5580252513883E+00
 0.5098484532206E+00
 0.4672147057999E+00
 0.4292568562531E+00
 0.3953228475478E+00
 0.3646049413544E+00
 0.3363994336115E+00
 0.3103339287692E+00
 0.2870568933837E+00
 0.1503074526597E+01
 0.1434239230551E+01
 0.1338625869076E+01
 0.1229881399738E+01
 0.1117369826494E+01
 0.1007570381820E+01
 0.9048416388584E+00
 0.8116437155423E+00
 0.7288245098516E+00
 0.6560485650522E+00
 0.5922254678114E+00
 0.5358838560886E+00
 0.4863312455269E+00
 0.4428499242530E+00
 0.4045652653411E+00
 0.3708352783147E+00
 0.3408216619708E+00
 0.3137137996832E+00
 0.2890164441462E+00
 0.2670103846384E+00
 0.1572540716938E+01
 0.1490998886915E+01
 0.1380798395154E+01
 0.1257314342258E+01
 0.1131316504965E+01
 0.1010175156795E+01
 0.8986210413489E+00
 0.7989871708334E+00
 0.7116822053275E+00
 0.6358362572718E+00
 0.5698830073027E+00
 0.5120011058848E+00
 0.4614344661840E+00
 0.4174462466583E+00
 0.3791472773947E+00
 0.3458821778267E+00
 0.3167516194218E+00
 0.2908397860930E+00
 0.2675209933379E+00
 0.2467957101621E+00
 0.1649292146795E+01
 0.1552094879952E+01
 0.1424634726129E+01
 0.1284013119380E+01
 0.1142733059451E+01
 0.1009238013556E+01
 0.8885836894961E+00
 0.7827521826709E+00
 0.6914511860207E+00
 0.6130796347383E+00
 0.5454944016032E+00
 0.4864964203049E+00
 0.4352755277898E+00
 0.3910974651151E+00
 0.3530693856966E+00
 0.3205081647584E+00
 0.2924431155815E+00
 0.2678452659164E+00
 0.2459564320536E+00
 0.2265690585666E+00
 0.1734730057240E+01
 0.1618107036552E+01
 0.1470066273372E+01
 0.1309364301673E+01
 0.1150736164246E+01
 0.1003920979777E+01
 0.8741450902047E+00
 0.7626557111119E+00
 0.6680842046880E+00
 0.5878662841054E+00
 0.5192001146167E+00
 0.4595153580791E+00
 0.4079780571708E+00
 0.3638988165755E+00
 0.3264037618911E+00
 0.2947746517241E+00
 0.2679585013497E+00
 0.2448025457623E+00
 0.2244143809019E+00
 0.2064378721317E+00
 0.1830736281497E+01
 0.1689785658878E+01
 0.1516930666175E+01
 0.1332464968866E+01
 0.1154135687409E+01
 0.9932126456577E+00
 0.8547144518846E+00
 0.7385133126110E+00
 0.6416538706293E+00
 0.5603739307398E+00
 0.4911895208114E+00
 0.4312209552602E+00
 0.3796670976564E+00
 0.3359436322174E+00
 0.2992253645928E+00
 0.2687498415381E+00
 0.2433665723490E+00
 0.2217836558067E+00
 0.2029739167230E+00
 0.1864793804148E+00
 0.1939928904186E+01
 0.1768133884353E+01
 0.1564884102173E+01
 0.1351948137469E+01
 0.1151317749707E+01
 0.9759341823985E+00
 0.8297799854280E+00
 0.7103224990879E+00
 0.6123918767010E+00
 0.5308705997652E+00
 0.4616859547043E+00
 0.4017797947567E+00
 0.3504607523919E+00
 0.3073188782916E+00
 0.2716076705102E+00
 0.2425047953340E+00
 0.2187394198455E+00
 0.1988601028427E+00
 0.1817042795475E+00
 0.1667505517449E+00
 0.2066102501424E+01
 0.1854535888798E+01
 0.1613215911290E+01
 0.1365684120947E+01
 0.1140099708649E+01
 0.9508162019026E+00
 0.7990690877014E+00
 0.6783686008018E+00
 0.5807061480619E+00
 0.4996894736422E+00
 0.4309191003587E+00
 0.3713463045146E+00
 0.3204623720120E+00
 0.2781009358687E+00
 0.2436201432580E+00
 0.2161121115136E+00
 0.1941526847167E+00
 0.1761039422041E+00
 0.1606671286600E+00
 0.1472929922184E+00
 0.2215036139762E+01
 0.1950950912658E+01
 0.1660447706160E+01
 0.1370255294576E+01
 0.1117605975270E+01
 0.9167359159292E+00
 0.7628222934938E+00
 0.6433100563414E+00
 0.5471434334843E+00
 0.4671685572859E+00
 0.3990964860796E+00
 0.3400510320499E+00
 0.2897556024389E+00
 0.2483523678301E+00
 0.2153267540251E+00
 0.1896467624302E+00
 0.1696879163261E+00
 0.1535901215304E+00
 0.1399180990219E+00
 0.1281346734207E+00
 0.2396072308855E+01
 0.2060221869945E+01
 0.1703375390169E+01
 0.1360086363511E+01
 0.1080291998703E+01
 0.8733510804656E+00
 0.7221220304676E+00
 0.6061664218027E+00
 0.5122327348230E+00
 0.4335956401553E+00
 0.3663850497719E+00
 0.3079984236080E+00
 0.2584015440374E+00
 0.2181183356059E+00
 0.1867850186539E+00
 0.1631887811450E+00
 0.1454374232632E+00
 0.1313997429327E+00
 0.1195078607212E+00
 0.1092885854983E+00
 0.2625680519074E+01
 0.2186279920156E+01
 0.1734953471366E+01
 0.1325774712180E+01
 0.1024992208551E+01
 0.8221520850385E+00
 0.6792477901192E+00
 0.5678197755963E+00
 0.4763811534999E+00
 0.3991718255763E+00
 0.3329191414594E+00
 0.2752707449322E+00
 0.2264347889571E+00
 0.1874205656994E+00
 0.1580447192341E+00
 0.1368295080944E+00
 0.1215113152738E+00
 0.1096254995400E+00
 0.9948069559292E-01
 0.9075040047434E-01
 0.2935434483875E+01
 0.2335003766660E+01
 0.1736857777207E+01
 0.1253837656738E+01
 0.9509703551440E+00
 0.7695495964626E+00
 0.6357155143912E+00
 0.5288839031793E+00
 0.4397767569815E+00
 0.3640495569847E+00
 0.2988196564404E+00
 0.2419344935728E+00
 0.1938541375843E+00
 0.1562426250240E+00
 0.1291506280096E+00
 0.1106814347661E+00
 0.9805045331635E-01
 0.8837318318453E-01
 0.7987972110421E-01
 0.7248314048060E-01
 0.3403682847480E+01
 0.2501476012755E+01
 0.1671639532551E+01
 0.1118715634105E+01
 0.8810428108206E+00
 0.7177811422775E+00
 0.5926106516517E+00
 0.4893785436028E+00
 0.4025387218315E+00
 0.3283581234091E+00
 0.2642243712279E+00
 0.2080598613074E+00
 0.1605813289711E+00
 0.1245101632576E+00
 0.1001493555705E+00
 0.8491043999610E-01
 0.7522218665259E-01
 0.6778091138763E-01
 0.6073021943421E-01
 0.5444078257958E-01
 0.4203800924609E+01
 0.2706246580931E+01
 0.1333347616067E+01
 0.1017799405152E+01
 0.8154130237270E+00
 0.6692488594015E+00
 0.5492276644778E+00
 0.4493982884627E+00
 0.3646993428985E+00
 0.2922029097248E+00
 0.2294021679231E+00
 0.1736989760192E+00
 0.1264290433162E+00
 0.9195157143152E-01
 0.7121167648621E-01
 0.5979503645551E-01
 0.5315626007784E-01
 0.4798307464934E-01
 0.4224040840530E-01
 0.3630032669539E-01
 0.6990433309749E+01
 0.1584664544852E+01
 0.1180992514158E+01
 0.9291338929169E+00
 0.7604925325026E+00
 0.6206401072024E+00
 0.5055170565962E+00
 0.4090195512953E+00
 0.3264052022784E+00
 0.2553199457070E+00
 0.1948453890250E+00
 0.1397772938217E+00
 0.8976200064776E-01
 0.5847223129253E-01
 0.4310282280544E-01
 0.3538291145286E-01
 0.3203944722487E-01
 0.2905795083821E-01
 0.2458631705709E-01
 0.1870156033035E-01
 0.1119721964444E+01
 0.1173793380142E+01
 0.1228609657839E+01
 0.1286363521611E+01
 0.1347458189619E+01
 0.1412271114338E+01
 0.1481031727379E+01
 0.1553935001296E+01
 0.1631151291713E+01
 0.1712835271282E+01
 0.1799129139956E+01
 0.1890165197972E+01
 0.1986067844221E+01
 0.2086957153674E+01
 0.2192945367525E+01
 0.2304172207673E+01
 0.2420681986325E+01
 0.2543276485207E+01
 0.2669943121640E+01
 0.2825029543013E+01
 0.1073907422149E+01
 0.1135559696765E+01
 0.1190040195305E+01
 0.1245570485294E+01
 0.1303466020994E+01
 0.1364423622635E+01
 0.1428815810205E+01
 0.1496900610618E+01
 0.1568890785453E+01
 0.1644984468606E+01
 0.1725380001346E+01
 0.1810284291835E+01
 0.1899917647012E+01
 0.1994512662935E+01
 0.2094317180284E+01
 0.2199552798432E+01
 0.2310569864865E+01
 0.2427112255834E+01
 0.2552314095977E+01
 0.2673023949534E+01
 0.1048978793884E+01
 0.1099100144533E+01
 0.1151091575266E+01
 0.1203308253724E+01
 0.1257351406475E+01
 0.1313827917984E+01
 0.1373168203939E+01
 0.1435664744759E+01
 0.1501559586637E+01
 0.1571081982831E+01
 0.1644472226000E+01
 0.1721996463138E+01
 0.1803955378046E+01
 0.1890688325374E+01
 0.1982559866671E+01
 0.2079969408511E+01
 0.2183172503633E+01
 0.2292782110330E+01
 0.2406787032241E+01
 0.2526721965929E+01
 0.1022588870563E+01
 0.1066558242296E+01
 0.1112745456560E+01
 0.1160608249751E+01
 0.1209998472853E+01
 0.1261371041362E+01
 0.1315043108354E+01
 0.1371284700590E+01
 0.1430330568123E+01
 0.1492414498491E+01
 0.1557793106519E+01
 0.1626765349434E+01
 0.1699688023610E+01
 0.1776984099985E+01
 0.1859147770049E+01
 0.1946702410025E+01
 0.2040239442908E+01
 0.2139917652153E+01
 0.2246353900445E+01
 0.2359646259534E+01
 0.9957935845741E+00
 0.1034354370790E+01
 0.1075323410685E+01
 0.1117966977418E+01
 0.1162136480175E+01
 0.1207877138412E+01
 0.1255379149125E+01
 0.1304828493308E+01
 0.1356414393106E+01
 0.1410339974524E+01
 0.1466843254638E+01
 0.1526218634813E+01
 0.1588838562998E+01
 0.1655175288447E+01
 0.1725813182157E+01
 0.1801465613096E+01
 0.1882900107576E+01
 0.1971040817913E+01
 0.2066715711269E+01
 0.2170750827685E+01
 0.9685529922851E+00
 0.1002409295722E+01
 0.1038301690583E+01
 0.1075683318965E+01
 0.1114295866234E+01
 0.1154081602142E+01
 0.1195074563423E+01
 0.1237363029839E+01
 0.1281057411822E+01
 0.1326295534013E+01
 0.1373256833468E+01
 0.1422184036701E+01
 0.1473410392240E+01
 0.1527392019454E+01
 0.1584748462862E+01
 0.1646296618889E+01
 0.1713102354440E+01
 0.1786484027606E+01
 0.1867975403849E+01
 0.1959007810040E+01
 0.9411694517353E+00
 0.9706792755594E+00
 0.1001740678080E+01
 0.1033908816221E+01
 0.1066918682599E+01
 0.1100624630111E+01
 0.1134962942738E+01
 0.1169915656828E+01
 0.1205496500556E+01
 0.1241747703804E+01
 0.1278750514036E+01
 0.1316644329905E+01
 0.1355655134324E+01
 0.1396136380702E+01
 0.1438625836787E+01
 0.1483928129804E+01
 0.1533219465117E+01
 0.1588104054807E+01
 0.1650799299547E+01
 0.1723931567320E+01
 0.9138725771385E+00
 0.9392986107955E+00
 0.9657538136701E+00
 0.9928687899619E+00
 0.1020367968627E+01
 0.1048050532996E+01
 0.1075767174281E+01
 0.1103402504843E+01
 0.1130862735658E+01
 0.1158073024298E+01
 0.1184982627525E+01
 0.1211578639015E+01
 0.1237909572233E+01
 0.1264123372492E+01
 0.1290529670402E+01
 0.1317702846024E+01
 0.1346640776705E+01
 0.1379041984938E+01
 0.1417198095988E+01
 0.1465197943553E+01
 0.8868394758059E+00
 0.9083854539928E+00
 0.9304520294967E+00
 0.9527131678428E+00
 0.9748809470261E+00
 0.9967060524097E+00
 0.1017966016074E+01
 0.1038452766402E+01
 0.1057963187912E+01
 0.1076293532836E+01
 0.1093238711874E+01
 0.1108596653261E+01
 0.1122179394471E+01
 0.1133835064277E+01
 0.1143490446155E+01
 0.1151233335028E+01
 0.1157488778570E+01
 0.1163346595987E+01
 0.1171432100587E+01
 0.1183999862670E+01
 0.8601537640666E+00
 0.8779517946142E+00
 0.8958029967295E+00
 0.9133948076387E+00
 0.9304227982593E+00
 0.9465945000885E+00
 0.9616224353664E+00
 0.9752140898323E+00
 0.9870616454446E+00
 0.9968325485025E+00
 0.1004160918582E+01
 0.1008639581621E+01
 0.1009812518120E+01
 0.1007168554490E+01
 0.1000139363520E+01
 0.9881140639366E+00
 0.9704995459002E+00
 0.9469639464573E+00
 0.9182913114723E+00
 0.8899644157846E+00
 0.8339047157096E+00
 0.8480748848887E+00
 0.8618739337217E+00
 0.8749912531148E+00
 0.8871051280849E+00
 0.8978871576287E+00
 0.9069964210831E+00
 0.9140696747862E+00
 0.9187093246443E+00
 0.9204694558025E+00
 0.9188392242469E+00
 0.9132219489377E+00
 0.9029072020674E+00
 0.8870315124785E+00
 0.8645210390278E+00
 0.8340040345079E+00
 0.7936793959004E+00
 0.7411295533880E+00
 0.6730937439036E+00
 0.5892331214092E+00
 0.8081931746293E+00
 0.8188703619890E+00
 0.8288015934783E+00
 0.8376746506226E+00
 0.8451551237555E+00
 0.8508894948461E+00
 0.8544995639877E+00
 0.8555724278318E+00
 0.8536470941192E+00
 0.8481974062638E+00
 0.8386098797978E+00
 0.8241537645867E+00
 0.8039386628004E+00
 0.7768516644992E+00
 0.7414588794114E+00
 0.6958424444338E+00
 0.6373053772163E+00
 0.5617737373981E+00
 0.4624426490037E+00
 0.3233352536598E+00
 0.7831059744491E+00
 0.7904468653114E+00
 0.7967212277119E+00
 0.8016170180605E+00
 0.8047948970613E+00
 0.8058898326148E+00
 0.8045058252568E+00
 0.8002064511877E+00
 0.7925018497706E+00
 0.7808316516889E+00
 0.7645424026539E+00
 0.7428568408587E+00
 0.7148305503826E+00
 0.6792881713993E+00
 0.6347251904142E+00
 0.5791465438642E+00
 0.5097825157403E+00
 0.4225116307168E+00
 0.3105031920267E+00
 0.1585733464652E+00
 0.7587131599250E+00
 0.7628952275543E+00
 0.7657466452716E+00
 0.7669605866184E+00
 0.7662022260725E+00
 0.7631095515401E+00
 0.7572889526067E+00
 0.7483074756641E+00
 0.7356822156728E+00
 0.7188665908680E+00
 0.6972326759877E+00
 0.6700481535819E+00
 0.6364456082326E+00
 0.5953807634980E+00
 0.5455743204524E+00
 0.4854308083718E+00
 0.4129228341309E+00
 0.3254702082715E+00
 0.2198039927479E+00
 0.9599157996970E-01
 0.7350693874416E+00
 0.7362865851255E+00
 0.7359655231531E+00
 0.7338109686189E+00
 0.7295024075028E+00
 0.7226946234405E+00
 0.7130147842027E+00
 0.7000572871162E+00
 0.6833769291406E+00
 0.6624805895954E+00
 0.6368174905721E+00
 0.6057681691147E+00
 0.5686327275070E+00
 0.5246201228665E+00
 0.4728438142521E+00
 0.4123375940928E+00
 0.3421379803587E+00
 0.2615475150113E+00
 0.1712688978621E+00
 0.7648302067580E-01
 0.7122149837613E+00
 0.7106732898063E+00
 0.7074400656604E+00
 0.7022385259490E+00
 0.6947713871489E+00
 0.6847219426052E+00
 0.6717529460191E+00
 0.6555043987280E+00
 0.6355908970736E+00
 0.6115991444690E+00
 0.5830864350736E+00
 0.5495814721911E+00
 0.5105900736168E+00
 0.4656108541814E+00
 0.4141711931646E+00
 0.3559061829082E+00
 0.2907268751499E+00
 0.2191968985154E+00
 0.1432393829081E+00
 0.6579488157148E-01
 0.6901791314451E+00
 0.6860914998423E+00
 0.6802101246672E+00
 0.6722826354945E+00
 0.6620422920950E+00
 0.6492096909007E+00
 0.6334934831981E+00
 0.6145909074741E+00
 0.5921888783200E+00
 0.5659664863530E+00
 0.5356000934212E+00
 0.5007729061660E+00
 0.4611921744285E+00
 0.4166193683189E+00
 0.3669225412727E+00
 0.3121656699684E+00
 0.2527556142070E+00
 0.1896505456701E+00
 0.1243711337285E+00
 0.5879468043352E-01
 0.6689798843073E+00
 0.6625622368109E+00
 0.6542950075737E+00
 0.6439551423344E+00
 0.6313115789893E+00
 0.6161277839007E+00
 0.5981640216406E+00
 0.5771800131431E+00
 0.5529388196540E+00
 0.5252127817761E+00
 0.4937926967151E+00
 0.4585019406104E+00
 0.4192180273149E+00
 0.3759050919395E+00
 0.3286615606168E+00
 0.2777857523644E+00
 0.2238530816507E+00
 0.1677462832306E+00
 0.1106035170459E+00
 0.5361335337674E-01
 0.6486261626750E+00
 0.6400936170817E+00
 0.6296971016785E+00
 0.6172459341415E+00
 0.6025475097619E+00
 0.5854107370081E+00
 0.5656490740964E+00
 0.5430846128524E+00
 0.5175535911668E+00
 0.4889140622135E+00
 0.4570565856930E+00
 0.4219190453506E+00
 0.3835068445841E+00
 0.3419195116283E+00
 0.2973832867420E+00
 0.2502851486895E+00
 0.2011911062861E+00
 0.1508297364883E+00
 0.1000146682681E+00
 0.4954827418448E-01
 0.6291178169515E+00
 0.6186824913610E+00
 0.6064051999918E+00
 0.5921279297831E+00
 0.5756978709893E+00
 0.5569692228811E+00
 0.5358069546582E+00
 0.5120914398396E+00
 0.4857245503716E+00
 0.4566375636040E+00
 0.4248013476042E+00
 0.3902392196100E+00
 0.3530425713671E+00
 0.3133884847498E+00
 0.2715567103766E+00
 0.2279395769013E+00
 0.1830360462554E+00
 0.1374194272304E+00
 0.9168032773224E-01
 0.4634347870024E-01
 0.6104498961584E+00
 0.5983224295747E+00
 0.5844015888997E+00
 0.5685651827611E+00
 0.5506991720525E+00
 0.5307010346433E+00
 0.5084831764559E+00
 0.4839776269502E+00
 0.4571418511109E+00
 0.4279658518181E+00
 0.3964806096824E+00
 0.3627677086387E+00
 0.3269695185148E+00
 0.2892984504353E+00
 0.2500424184482E+00
 0.2095624624433E+00
 0.1682780260902E+00
 0.1266384201891E+00
 0.8508387975163E-01
 0.4399537349440E-01
 0.5926323626082E+00
 0.5790107000026E+00
 0.5636681238961E+00
 0.5465155959438E+00
 0.5274764079655E+00
 0.5064877184946E+00
 0.4835039211731E+00
 0.4585008245131E+00
 0.4314806828096E+00
 0.4024779166550E+00
 0.3715653132192E+00
 0.3388602440771E+00
 0.3045300393706E+00
 0.2687950912377E+00
 0.2319277418212E+00
 0.1942448658463E+00
 0.1560930636864E+00
 0.1178279023516E+00
 0.7979064398286E-01
 0.4230743948284E-01
 0.5756485942617E+00
 0.5607194419142E+00
 0.5441568317792E+00
 0.5259046749151E+00
 0.5059205553771E+00
 0.4841770847633E+00
 0.4606645478938E+00
 0.4353944253095E+00
 0.4084033729259E+00
 0.3797574007106E+00
 0.3495558768267E+00
 0.3179348181309E+00
 0.2850686895958E+00
 0.2511697246862E+00
 0.2164837454078E+00
 0.1812818661883E+00
 0.1458485300565E+00
 0.1104676431242E+00
 0.7541257737087E-01
 0.4093907779911E-01
 0.5594756717850E+00
 0.5434108347828E+00
 0.5258104532706E+00
 0.5066494955558E+00
 0.4859168295479E+00
 0.4636159188529E+00
 0.4397668730300E+00
 0.4144091667869E+00
 0.3876045752067E+00
 0.3594399297863E+00
 0.3300292912792E+00
 0.2995150551108E+00
 0.2680674398116E+00
 0.2358818298060E+00
 0.2031736592790E+00
 0.1701710208565E+00
 0.1371058525496E+00
 0.1042055565132E+00
 0.7168588358696E-01
 0.3974484349848E-01
 0.5440892769401E+00
 0.5270459065351E+00
 0.5085711146003E+00
 0.4886686130300E+00
 0.4673553517543E+00
 0.4446612462436E+00
 0.4206305565475E+00
 0.3953238961981E+00
 0.3688202754510E+00
 0.3412187404025E+00
 0.3126392162068E+00
 0.2832221863778E+00
 0.2531268915539E+00
 0.2225278712397E+00
 0.1916099550531E+00
 0.1605622178610E+00
 0.1295718762133E+00
 0.9881904284186E-01
 0.6847276792713E-01
 0.3868779746246E-01
 0.5294640348907E+00
 0.5115856377692E+00
 0.4923820847260E+00
 0.4718837933474E+00
 0.4501328621439E+00
 0.4271816661967E+00
 0.4030935861620E+00
 0.3779444812577E+00
 0.3518241320133E+00
 0.3248371608996E+00
 0.2971030755480E+00
 0.2687551811188E+00
 0.2399382266274E+00
 0.2108048209720E+00
 0.1815108918686E+00
 0.1522107929047E+00
 0.1230529540645E+00
 0.9417703760540E-01
 0.6571300520398E-01
 0.3778149601147E-01
 0.5155749137288E+00
 0.4969922393747E+00
 0.4771891182773E+00
 0.4562212548344E+00
 0.4341536217462E+00
 0.4110576818080E+00
 0.3870116217684E+00
 0.3621015913200E+00
 0.3364229355885E+00
 0.3100808477472E+00
 0.2831901124492E+00
 0.2558737836970E+00
 0.2282607854959E+00
 0.2004825630783E+00
 0.1726690708515E+00
 0.1449445240923E+00
 0.1174237159685E+00
 0.9021024646811E-01
 0.6339807833596E-01
 0.3707630765231E-01
 0.5023981155335E+00
 0.4832298160749E+00
 0.4629404713288E+00
 0.4416110369948E+00
 0.4193280663636E+00
 0.3961794776142E+00
 0.3722546143069E+00
 0.3476457350689E+00
 0.3224495393360E+00
 0.2967680265051E+00
 0.2707083884390E+00
 0.2443818677796E+00
 0.2179016589006E+00
 0.1913800203899E+00
 0.1649247892507E+00
 0.1386355090466E+00
 0.1125991908118E+00
 0.8688695625659E-01
 0.6155542874369E-01
 0.3665653915104E-01
 0.4899131850267E+00
 0.4702650896883E+00
 0.4495862319709E+00
 0.4279850037494E+00
 0.4055696192177E+00
 0.3824425219252E+00
 0.3587010089099E+00
 0.3344397698500E+00
 0.3097533169770E+00
 0.2847375313864E+00
 0.2594900918170E+00
 0.2341098182752E+00
 0.2086951089860E+00
 0.1833416804501E+00
 0.1581397673834E+00
 0.1331706723760E+00
 0.1085023700028E+00
 0.8418170762391E-01
 0.6022641209726E-01
 0.3663386631829E-01
 0.4781046786723E+00
 0.4580662333187E+00
 0.4370742329201E+00
 0.4152705074058E+00
 0.3927865620617E+00
 0.3697376920987E+00
 0.3462260196677E+00
 0.3223451358564E+00
 0.2981841244339E+00
 0.2738302800495E+00
 0.2493703725314E+00
 0.2248906656201E+00
 0.2004760093613E+00
 0.1762083288501E+00
 0.1521647102309E+00
 0.1284150826981E+00
 0.1050185811423E+00
 0.8201742901313E-01
 0.5941078634236E-01
 0.3711933935429E-01
 0.4669636362609E+00
 0.4465973121656E+00
 0.4253392589805E+00
 0.4033763028302E+00
 0.3808648991954E+00
 0.3579311802723E+00
 0.3346785905061E+00
 0.3111957760281E+00
 0.2875630765032E+00
 0.2638568371435E+00
 0.2401517114606E+00
 0.2165213770137E+00
 0.1930382506289E+00
 0.1697727043069E+00
 0.1467921581512E+00
 0.1241602941451E+00
 0.1019366183092E+00
 0.8017459711955E-01
 0.5892116279010E-01
 0.3810427873651E-01
 0.4564843289545E+00
 0.4358019612636E+00
 0.4142828925297E+00
 0.3921679371455E+00
 0.3696393067912E+00
 0.3468313726678E+00
 0.3238442332442E+00
 0.3007569172305E+00
 0.2776371829728E+00
 0.2545479312979E+00
 0.2315504798032E+00
 0.2087057896540E+00
 0.1860745473232E+00
 0.1637168471438E+00
 0.1416920669894E+00
 0.1200594222200E+00
 0.9888031368887E-01
 0.7822524597302E-01
 0.5819100750020E-01
 0.3900138779340E-01
 0.4466302261871E+00
 0.4255866928309E+00
 0.4037639789504E+00
 0.3814631901913E+00
 0.3588950285685E+00
 0.3361969512969E+00
 0.3134589423908E+00
 0.2907437411160E+00
 0.2681019170844E+00
 0.2455802278950E+00
 0.2232255921496E+00
 0.2010861848983E+00
 0.1792113674319E+00
 0.1576514296341E+00
 0.1364575531622E+00
 0.1156828421386E+00
 0.9538487045962E-01
 0.7563451843738E-01
 0.5653737900044E-01
 0.3836179363191E-01
 0.4373410509957E+00
 0.4158657827582E+00
 0.3936637277006E+00
 0.3711281582873E+00
 0.3484951344150E+00
 0.3258958820663E+00
 0.3033969877438E+00
 0.2810357612540E+00
 0.2588397624884E+00
 0.2368374128773E+00
 0.2150608687055E+00
 0.1935460013013E+00
 0.1723314923220E+00
 0.1514580200073E+00
 0.1309681947795E+00
 0.1109061748633E+00
 0.9131917380697E-01
 0.7225659530275E-01
 0.5378005612764E-01
 0.3587806308766E-01
 0.4286394682939E+00
 0.4065949830283E+00
 0.3839112191170E+00
 0.3610926876270E+00
 0.3383959364775E+00
 0.3159170121829E+00
 0.2936805808869E+00
 0.2716836700080E+00
 0.2499262073889E+00
 0.2284174453555E+00
 0.2071757047497E+00
 0.1862257818432E+00
 0.1655965514305E+00
 0.1453195431308E+00
 0.1254279194731E+00
 0.1059574326222E+00
 0.8694084631352E-01
 0.6840673547122E-01
 0.5034559727450E-01
 0.3267923841986E-01
 0.4205597581508E+00
 0.3976965532027E+00
 0.3743758220383E+00
 0.3512541142980E+00
 0.3285374194354E+00
 0.3062552234425E+00
 0.2843436781400E+00
 0.2627506721311E+00
 0.2414475030202E+00
 0.2204271167768E+00
 0.1996969825372E+00
 0.1792731260056E+00
 0.1591761024052E+00
 0.1394285590361E+00
 0.1200549440284E+00
 0.1010793918097E+00
 0.8253418404995E-01
 0.6442909151720E-01
 0.4676006539061E-01
 0.2945788341184E-01
 0.4131385200334E+00
 0.3889407458022E+00
 0.3648344345589E+00
 0.3414174387826E+00
 0.3188491026550E+00
 0.2969027920779E+00
 0.2754147850290E+00
 0.2542848586269E+00
 0.2334652303181E+00
 0.2129400961071E+00
 0.1927113714102E+00
 0.1727896962157E+00
 0.1531891218001E+00
 0.1339244807000E+00
 0.1150095271026E+00
 0.9646117819266E-01
 0.7828954532011E-01
 0.6056566363628E-01
 0.4327263125482E-01
 0.2644015120960E-01
 0.4061661998662E+00
 0.3799745985788E+00
 0.3546954923016E+00
 0.3314230062204E+00
 0.3093024974464E+00
 0.2878890245990E+00
 0.2669380048033E+00
 0.2463336171665E+00
 0.2260283837195E+00
 0.2060090347698E+00
 0.1862783399402E+00
 0.1668452793172E+00
 0.1477196987414E+00
 0.1289090550147E+00
 0.1104179148451E+00
 0.9224371741384E-01
 0.7440033131923E-01
 0.5684739364944E-01
 0.3995146834549E-01
 0.2354683452422E-01
 0.3998007399720E+00
 0.3684612550208E+00
 0.3436752113976E+00
 0.3212930418956E+00
 0.3000072662798E+00
 0.2793117352606E+00
 0.2589880603621E+00
 0.2389542583726E+00
 0.2191847662853E+00
 0.1996789477236E+00
 0.1804456038599E+00
 0.1614952882788E+00
 0.1428358108542E+00
 0.1244694947606E+00
 0.1063897826439E+00
 0.8858387232439E-01
 0.7100773885834E-01
 0.5369288532397E-01
 0.3618961725406E-01
 0.2060964214107E-01
 0.3813209058897E+00
 0.3542520794763E+00
 0.3322756653815E+00
 0.3114476548790E+00
 0.2912291878280E+00
 0.2713264694876E+00
 0.2516612461106E+00
 0.2322122429143E+00
 0.2129854241999E+00
 0.1939960114393E+00
 0.1752609772342E+00
 0.1567945681161E+00
 0.1386052928138E+00
 0.1206929078173E+00
 0.1030459383389E+00
 0.8563279944383E-01
 0.6841359453092E-01
 0.5121031409033E-01
 0.3418861428894E-01
 0.1366920903304E-01
</DataArray>
<DataArray type="Float64" Name="S_Oct" NumberOfComponents="1" ComponentName0="S_Oct" format="ascii">
 0.7119069846484E+01
 0.6402979088394E+01
 0.5821125960836E+01
 0.5588166310236E+01
 0.5399879920138E+01
 0.5252770165435E+01
 0.5122606800019E+01
 0.5002606389877E+01
 0.4887967362815E+01
 0.4776302922131E+01
 0.4666255296321E+01
 0.4557209796049E+01
 0.4449099744481E+01
 0.4342444487023E+01
 0.4238776082248E+01
 0.4141829215252E+01
 0.4051129440476E+01
 0.3954412642280E+01
 0.3840509246259E+01
 0.3709698595286E+01
 0.3567226107491E+01
 0.3418445580182E+01
 0.3267505184773E+01
 0.3117463767695E+01
 0.2970644271278E+01
 0.2828788779403E+01
 0.2692953234609E+01
 0.2565086378222E+01
 0.2449379531807E+01
 0.2350408129916E+01
 0.2272035075532E+01
 0.2217922945364E+01
 0.2191502518605E+01
 0.2195461658524E+01
 0.2231824871780E+01
 0.2304242612650E+01
 0.2440326404245E+01
 0.2655301923412E+01
 0.3114557748424E+01
 0.3323583345136E+01
 0.5949346822692E+01
 0.6034856855743E+01
 0.6221342079681E+01
 0.5766519738794E+01
 0.5481173114178E+01
 0.5292176385474E+01
 0.5136246904128E+01
 0.5002403701918E+01
 0.4880036543743E+01
 0.4764497733527E+01
 0.4652884099475E+01
 0.4543614638088E+01
 0.4435870987654E+01
 0.4329407722146E+01
 0.4224540563584E+01
 0.4122069133287E+01
 0.4022212263383E+01
 0.3922639231582E+01
 0.3818291936305E+01
 0.3704474744194E+01
 0.3579828800306E+01
 0.3446223968825E+01
 0.3306841968044E+01
 0.3164770731868E+01
 0.3022588165143E+01
 0.2882352950099E+01
 0.2745729106857E+01
 0.2614311555301E+01
 0.2490116467735E+01
 0.2375783397913E+01
 0.2274246225020E+01
 0.2188254396536E+01
 0.2120112373209E+01
 0.2071531837170E+01
 0.2043633587775E+01
 0.2037547647185E+01
 0.2057645278708E+01
 0.2105691475671E+01
 0.2190901429127E+01
 0.2249933677001E+01
 0.1934339902923E+01
 0.4027449625262E+01
 0.5381757167651E+01
 0.5789791067494E+01
 0.5617706317179E+01
 0.5354313951282E+01
 0.5166944982873E+01
 0.5012318723582E+01
 0.4877510710841E+01
 0.4754883791615E+01
 0.4639496851532E+01
 0.4528561180459E+01
 0.4420382100967E+01
 0.4314029698566E+01
 0.4209096815157E+01
 0.4105574338416E+01
 0.4003320656330E+01
 0.3901064476911E+01
 0.3796667244300E+01
 0.3688393138521E+01
 0.3574763902678E+01
 0.3454548825174E+01
 0.3327883186564E+01
 0.3196299644635E+01
 0.3061863422045E+01
 0.2926587438112E+01
 0.2792226889837E+01
 0.2660361711282E+01
 0.2532643570424E+01
 0.2410825907807E+01
 0.2296644619063E+01
 0.2191861224117E+01
 0.2098136710663E+01
 0.2016671326393E+01
 0.1948004846337E+01
 0.1892132609634E+01
 0.1849366437010E+01
 0.1819539304151E+01
 0.1796328905235E+01
 0.1760701309670E+01
 0.1600190198703E+01
 0.1408138066692E+01
 0.3366604573434E+01
 0.4925368156203E+01
 0.5365629578404E+01
 0.5381132589318E+01
 0.5199140951915E+01
 0.5026647803011E+01
 0.4879325244761E+01
 0.4747585105175E+01
 0.4626648811068E+01
 0.4512645895507E+01
 0.4403080089481E+01
 0.4296373240377E+01
 0.4191563968896E+01
 0.4088114031081E+01
 0.3985659696178E+01
 0.3883410324676E+01
 0.3779657076878E+01
 0.3672857778441E+01
 0.3562913913530E+01
 0.3449953056267E+01
 0.3333204727900E+01
 0.3212066308127E+01
 0.3086958532349E+01
 0.2959066242403E+01
 0.2829833867650E+01
 0.2700687192673E+01
 0.2573033869438E+01
 0.2448359550640E+01
 0.2328066213947E+01
 0.2213260495738E+01
 0.2104869368543E+01
 0.2003669727631E+01
 0.1910020852044E+01
 0.1823682960625E+01
 0.1743994103513E+01
 0.1670139891252E+01
 0.1599284760373E+01
 0.1521233504265E+01
 0.1405615840690E+01
 0.1207499954532E+01
 0.1261469420487E+01
 0.3011175379164E+01
 0.4574733584829E+01
 0.4989821163963E+01
 0.5109897069260E+01
 0.5013801402737E+01
 0.4872288971453E+01
 0.4737413836697E+01
 0.4612297034490E+01
 0.4495110440683E+01
 0.4383713849887E+01
 0.4276263211958E+01
 0.4171453904042E+01
 0.4068394907924E+01
 0.3966460581065E+01
 0.3865015500080E+01
 0.3762942805937E+01
 0.3658572120595E+01
 0.3550936773477E+01
 0.3440761451715E+01
 0.3328959243182E+01
 0.3215176967569E+01
 0.3098570732055E+01
 0.2978881107039E+01
 0.2856598117173E+01
 0.2732643383363E+01
 0.2608097828216E+01
 0.2484126237503E+01
 0.2361951597188E+01
 0.2242616844018E+01
 0.2126753746323E+01
 0.2014695081895E+01
 0.1906572117906E+01
 0.1802164588695E+01
 0.1700798457527E+01
 0.1601483523140E+01
 0.1502821043314E+01
 0.1401320589829E+01
 0.1286757732524E+01
 0.1140113090027E+01
 0.9920876874030E+00
 0.1253525594489E+01
 0.2762253172805E+01
 0.4287375445181E+01
 0.4661616594760E+01
 0.4834060903714E+01
 0.4808198232951E+01
 0.4704771522197E+01
 0.4587388993765E+01
 0.4471721374860E+01
 0.4360201446710E+01
 0.4252593520809E+01
 0.4148001905231E+01
 0.4045541817335E+01
 0.3944483808784E+01
 0.3844183092928E+01
 0.3743857140019E+01
 0.3642301949970E+01
 0.3538075765812E+01
 0.3430671537857E+01
 0.3321218459512E+01
 0.3210987418005E+01
 0.3099925600520E+01
 0.2987169431918E+01
 0.2872076427749E+01
 0.2754624097659E+01
 0.2635281538388E+01
 0.2514787196504E+01
 0.2394025957617E+01
 0.2273926044283E+01
 0.2155196796519E+01
 0.2038104194845E+01
 0.1922568584644E+01
 0.1808295922024E+01
 0.1694734642535E+01
 0.1581065411558E+01
 0.1466321420744E+01
 0.1349282368466E+01
 0.1227367693333E+01
 0.1094678903055E+01
 0.9521772869294E+00
 0.8842486626788E+00
 0.1277650842701E+01
 0.2564262599335E+01
 0.4040906909937E+01
 0.4372831842329E+01
 0.4567231272390E+01
 0.4592744996529E+01
 0.4526941712108E+01
 0.4430245797153E+01
 0.4326287151838E+01
 0.4222022748910E+01
 0.4119284397283E+01
 0.4018258705877E+01
 0.3918602853136E+01
 0.3819828963369E+01
 0.3721351363021E+01
 0.3622361896068E+01
 0.3521722308491E+01
 0.3418276769500E+01
 0.3311860876563E+01
 0.3203785337959E+01
 0.3095453094556E+01
 0.2987003545557E+01
 0.2877638619853E+01
 0.2766520016318E+01
 0.2653266199542E+01
 0.2537972182111E+01
 0.2421053892390E+01
 0.2303108509998E+01
 0.2184772479777E+01
 0.2066461807811E+01
 0.1948165498850E+01
 0.1829535550102E+01
 0.1710041994538E+01
 0.1589019997107E+01
 0.1465752184043E+01
 0.1339643017346E+01
 0.1210296902069E+01
 0.1077284069926E+01
 0.9414646527773E+00
 0.8229648492843E+00
 0.8362094497150E+00
 0.1296903068201E+01
 0.2396959999860E+01
 0.3822475727656E+01
 0.4115335225212E+01
 0.4314548323798E+01
 0.4375102224995E+01
 0.4342437889655E+01
 0.4267356410192E+01
 0.4176621397299E+01
 0.4080836739455E+01
 0.3983880980965E+01
 0.3887061604071E+01
 0.3790647538301E+01
 0.3694458933751E+01
 0.3598043107219E+01
 0.3500665393090E+01
 0.3401342172023E+01
 0.3299202796156E+01
 0.3194330904672E+01
 0.3088098358440E+01
 0.2981921530315E+01
 0.2876050174766E+01
 0.2769773740033E+01
 0.2662169123550E+01
 0.2552613793291E+01
 0.2440904630182E+01
 0.2327167914322E+01
 0.2211726474330E+01
 0.2094947612584E+01
 0.1977000748449E+01
 0.1857674953150E+01
 0.1736471031249E+01
 0.1612779390732E+01
 0.1486002803345E+01
 0.1355731867410E+01
 0.1222025369318E+01
 0.1085769024838E+01
 0.9493961727001E+00
 0.8208792004064E+00
 0.7352905713769E+00
 0.8175619265502E+00
 0.1302010213346E+01
 0.2250694115621E+01
 0.3624205324895E+01
 0.3882501090995E+01
 0.4077156921455E+01
 0.4160136578967E+01
 0.4154674183061E+01
 0.4100339863819E+01
 0.4023497655283E+01
 0.3937023592544E+01
 0.3846561754458E+01
 0.3754495541650E+01
 0.3661725747933E+01
 0.3568425699144E+01
 0.3474336289324E+01
 0.3378868376498E+01
 0.3281239246053E+01
 0.3180840030482E+01
 0.3077932017011E+01
 0.2973883832151E+01
 0.2870064785602E+01
 0.2766778191372E+01
 0.2663396326288E+01
 0.2558973595431E+01
 0.2452732380153E+01
 0.2344239239278E+01
 0.2233370932353E+01
 0.2120202905674E+01
 0.2004866682133E+01
 0.1887333747228E+01
 0.1767261180917E+01
 0.1644094235094E+01
 0.1517268201308E+01
 0.1386395564573E+01
 0.1251531106148E+01
 0.1113578402512E+01
 0.9749449388321E+00
 0.8410759713738E+00
 0.7261865467796E+00
 0.6756187327012E+00
 0.8105012882587E+00
 0.1292914010043E+01
 0.2119824922979E+01
 0.3441007676229E+01
 0.3669219582630E+01
 0.3854439469559E+01
 0.3950630801297E+01
 0.3966404344133E+01
 0.3930831798515E+01
 0.3867779435659E+01
 0.3791043506007E+01
 0.3707570972174E+01
 0.3620693233324E+01
 0.3531920112416E+01
 0.3441798837963E+01
 0.3350306233513E+01
 0.3257045506582E+01
 0.3161454019065E+01
 0.3063154694281E+01
 0.2962536161444E+01
 0.2860930710207E+01
 0.2759632069030E+01
 0.2658959857625E+01
 0.2558355198142E+01
 0.2456882819164E+01
 0.2353670397664E+01
 0.2248111755393E+01
 0.2139876696125E+01
 0.2028827798634E+01
 0.1914899272876E+01
 0.1797912342527E+01
 0.1677451541278E+01
 0.1552983584140E+01
 0.1424083829047E+01
 0.1290677929540E+01
 0.1153386449751E+01
 0.1014049617515E+01
 0.8766309519626E+00
 0.7493228483350E+00
 0.6512787734867E+00
 0.6338810225711E+00
 0.8055464200946E+00
 0.1271997136020E+01
 0.2000586147193E+01
 0.3269448698624E+01
 0.3471606568937E+01
 0.3645091501699E+01
 0.3747980333633E+01
 0.3779649903795E+01
 0.3760311677270E+01
 0.3710349536863E+01
 0.3643402981666E+01
 0.3567198923146E+01
 0.3485824559427E+01
 0.3401339137057E+01
 0.3314660783745E+01
 0.3226025111196E+01
 0.3135253237920E+01
 0.3042004904542E+01
 0.2946105004805E+01
 0.2848034284969E+01
 0.2749073252610E+01
 0.2650429170989E+01
 0.2552414783157E+01
 0.2454524657349E+01
 0.2355849602702E+01
 0.2255464136413E+01
 0.2152636732407E+01
 0.2046871820009E+01
 0.1937856650769E+01
 0.1825367939615E+01
 0.1709121382490E+01
 0.1588679882948E+01
 0.1463591861807E+01
 0.1333641296912E+01
 0.1199133584261E+01
 0.1061303100456E+01
 0.9229278604864E+00
 0.7893999933249E+00
 0.6711791108701E+00
 0.5910543662452E+00
 0.6028733894135E+00
 0.7981278896170E+00
 0.1241842321247E+01
 0.1890272653578E+01
 0.3107122398123E+01
 0.3286706645201E+01
 0.3447625464973E+01
 0.3552712997944E+01
 0.3595787978053E+01
 0.3590015796770E+01
 0.3552046355315E+01
 0.3494622606196E+01
 0.3425763064150E+01
 0.3350085408775E+01
 0.3270110342708E+01
 0.3187102942184E+01
 0.3101562305820E+01
 0.3013535980662E+01
 0.2922897950851E+01
 0.2829647822088E+01
 0.2734333951130E+01
 0.2638179507322E+01
 0.2542303993843E+01
 0.2446999802403E+01
 0.2351801348834E+01
 0.2255831897332E+01
 0.2158141066889E+01
 0.2057910223672E+01
 0.1954516914804E+01
 0.1847510463972E+01
 0.1736548710242E+01
 0.1621282280464E+01
 0.1501294747253E+01
 0.1376261193271E+01
 0.1246218954854E+01
 0.1111886263411E+01
 0.9751114992808E+00
 0.8395383365000E+00
 0.7117583208080E+00
 0.6039608502893E+00
 0.5414337618778E+00
 0.5776401712055E+00
 0.7863355767307E+00
 0.1204608449970E+01
 0.1786864137435E+01
 0.2952287816818E+01
 0.3112253469239E+01
 0.3260595516100E+01
 0.3364839931206E+01
 0.3415685647555E+01
 0.3420915349073E+01
 0.3393619621876E+01
 0.3345208505631E+01
 0.3283590719668E+01
 0.3213686894712E+01
 0.3138373678122E+01
 0.3059222383583E+01
 0.2976984888129E+01
 0.2891930535642E+01
 0.2804132957858E+01
 0.2713742231107E+01
 0.2621357136995E+01
 0.2528143304803E+01
 0.2435136181799E+01
 0.2342600829425E+01
 0.2250100721268E+01
 0.2156793130417E+01
 0.2061721943027E+01
 0.1964011899810E+01
 0.1862947967819E+01
 0.1757976725228E+01
 0.1648672857641E+01
 0.1534657246283E+01
 0.1415567888108E+01
 0.1291237631018E+01
 0.1161981086908E+01
 0.1028933606192E+01
 0.8945187514864E+00
 0.7631226333482E+00
 0.6422613171817E+00
 0.5453526074992E+00
 0.4992418608349E+00
 0.5549100332624E+00
 0.7696102422323E+00
 0.1161947756160E+01
 0.1688817656680E+01
 0.2803649249517E+01
 0.2946490072129E+01
 0.3082687536943E+01
 0.3184081041611E+01
 0.3239830528267E+01
 0.3253732478750E+01
 0.3235706917601E+01
 0.3195630102513E+01
 0.3141004003848E+01
 0.3076845511104E+01
 0.3006275430093E+01
 0.2931118909605E+01
 0.2852357867777E+01
 0.2770469062881E+01
 0.2685707204231E+01
 0.2598351305807E+01
 0.2509038209408E+01
 0.2418878471292E+01
 0.2328829539211E+01
 0.2239126383994E+01
 0.2149353570567E+01
 0.2058701719186E+01
 0.1966222029442E+01
 0.1871006721297E+01
 0.1772277874364E+01
 0.1669411039421E+01
 0.1561929514868E+01
 0.1449454158242E+01
 0.1331702899862E+01
 0.1208685117311E+01
 0.1080998965708E+01
 0.9501778394529E+00
 0.8191529436215E+00
 0.6929005745392E+00
 0.5795825820074E+00
 0.4934207522454E+00
 0.4620592254473E+00
 0.5326144126713E+00
 0.7480369016912E+00
 0.1115080563222E+01
 0.1594937516371E+01
 0.2660218185483E+01
 0.2788037613488E+01
 0.2912745338183E+01
 0.3010005299556E+01
 0.3068439764049E+01
 0.3088973949038E+01
 0.3078826802487E+01
 0.3046305221408E+01
 0.2998307598867E+01
 0.2939774580385E+01
 0.2873962789801E+01
 0.2802892400005E+01
 0.2727744125226E+01
 0.2649180899255E+01
 0.2567617580870E+01
 0.2483442776341E+01
 0.2397322073644E+01
 0.2310314497477E+01
 0.2223306375494E+01
 0.2136502463639E+01
 0.2049502890549E+01
 0.1961530158392E+01
 0.1871651740657E+01
 0.1778946276397E+01
 0.1682598044403E+01
 0.1581939176516E+01
 0.1476468821275E+01
 0.1365831792958E+01
 0.1249843736344E+01
 0.1128698607125E+01
 0.1003269993470E+01
 0.8754526268391E+00
 0.7485993852610E+00
 0.6281140669412E+00
 0.5225473615571E+00
 0.4465859550883E+00
 0.4280782114063E+00
 0.5095083246262E+00
 0.7219801526395E+00
 0.1064897335340E+01
 0.1504287269935E+01
 0.2521223725855E+01
 0.2635800204758E+01
 0.2749767965409E+01
 0.2842115713069E+01
 0.2901544413171E+01
 0.2926969876046E+01
 0.2923383108277E+01
 0.2897592064671E+01
 0.2855779719755E+01
 0.2802677214621E+01
 0.2741579173558E+01
 0.2674640417022E+01
 0.2603204049298E+01
 0.2528093518981E+01
 0.2449861663403E+01
 0.2368989032146E+01
 0.2286162484810E+01
 0.2202393197003E+01
 0.2118503205389E+01
 0.2034668477177E+01
 0.1950501114160E+01
 0.1865253936637E+01
 0.1778016913078E+01
 0.1687869876765E+01
 0.1593980030162E+01
 0.1495659359124E+01
 0.1392405365008E+01
 0.1283905181997E+01
 0.1170082926429E+01
 0.1051316168512E+01
 0.9287346911283E+00
 0.8045457740472E+00
 0.6824287502028E+00
 0.5680553874777E+00
 0.4701420242020E+00
 0.4035791945172E+00
 0.3959749579420E+00
 0.4848918485075E+00
 0.6919034259197E+00
 0.1012049365161E+01
 0.1416127833689E+01
 0.2386052758605E+01
 0.2488895768798E+01
 0.2592895168973E+01
 0.2679899272955E+01
 0.2739051931170E+01
 0.2767910843485E+01
 0.2769675641275E+01
 0.2749786745605E+01
 0.2713666207019E+01
 0.2665740884809E+01
 0.2609260351061E+01
 0.2546456081609E+01
 0.2478794958377E+01
 0.2407232884830E+01
 0.2332438086298E+01
 0.2254966728751E+01
 0.2175520512122E+01
 0.2095066062073E+01
 0.2014367421567E+01
 0.1933574009420E+01
 0.1852307756051E+01
 0.1769850437626E+01
 0.1685318868712E+01
 0.1597805484053E+01
 0.1506477137914E+01
 0.1410644662745E+01
 0.1309821744548E+01
 0.1203750911874E+01
 0.1092469326703E+01
 0.9765299279537E+00
 0.8572914257736E+00
 0.7372178048344E+00
 0.6202178199797E+00
 0.5120833664897E+00
 0.4215091531673E+00
 0.3633942760549E+00
 0.3648004250950E+00
 0.4584151797005E+00
 0.6582837719558E+00
 0.9570218495043E+00
 0.1329873632197E+01
 0.2254208966626E+01
 0.2346605499292E+01
 0.2441389213562E+01
 0.2522855101710E+01
 0.2580791058853E+01
 0.2611880398608E+01
 0.2617913809970E+01
 0.2603124835579E+01
 0.2572177386888E+01
 0.2529133567806E+01
 0.2477131394672E+01
 0.2418426247665E+01
 0.2354570397181E+01
 0.2286623389385E+01
 0.2215346468707E+01
 0.2141356169139E+01
 0.2065363147181E+01
 0.1988292127042E+01
 0.1910854679319E+01
 0.1833176237168E+01
 0.1754887432489E+01
 0.1675297915921E+01
 0.1593554379233E+01
 0.1508770522605E+01
 0.1420125999304E+01
 0.1326945435287E+01
 0.1228772116029E+01
 0.1125412226887E+01
 0.1017015292187E+01
 0.9042957862705E+00
 0.7888088886541E+00
 0.6732166843859E+00
 0.5615640025696E+00
 0.4596309271753E+00
 0.3759353771500E+00
 0.3252424129920E+00
 0.3338920603138E+00
 0.4299460001193E+00
 0.6215719800979E+00
 0.9001948067212E+00
 0.1245061915037E+01
 0.2125284085617E+01
 0.2208336598635E+01
 0.2294616778754E+01
 0.2370509250385E+01
 0.2426543328966E+01
 0.2458882019352E+01
 0.2468230898627E+01
 0.2457785506963E+01
 0.2431487178116E+01
 0.2393001335697E+01
 0.2345304425416E+01
 0.2290629997374E+01
 0.2230579394940E+01
 0.2166287541633E+01
 0.2098587066630E+01
 0.2028140571193E+01
 0.1955662048794E+01
 0.1882036214858E+01
 0.1807926814131E+01
 0.1733437858290E+01
 0.1658208220230E+01
 0.1581574593279E+01
 0.1502715600660E+01
 0.1420772617245E+01
 0.1334948085416E+01
 0.1244591668078E+01
 0.1149285628072E+01
 0.1048903831917E+01
 0.9437031871778E+00
 0.8345418873391E+00
 0.7231364438771E+00
 0.6122891535305E+00
 0.5060950002912E+00
 0.4102071280924E+00
 0.3328363996411E+00
 0.2885123571773E+00
 0.3028015148014E+00
 0.3994918042513E+00
 0.5821546846160E+00
 0.8419046446318E+00
 0.1161347047051E+01
 0.1998937328550E+01
 0.2073594537101E+01
 0.2152032514543E+01
 0.2222421458027E+01
 0.2276064728886E+01
 0.2308860712069E+01
 0.2320697644563E+01
 0.2313897129499E+01
 0.2291733885021E+01
 0.2257467183482E+01
 0.2213877097830E+01
 0.2163137469297E+01
 0.2106865755625E+01
 0.2046245516627E+01
 0.1982160274060E+01
 0.1915305295485E+01
 0.1846392418135E+01
 0.1776267481732E+01
 0.1705550166950E+01
 0.1634325428394E+01
 0.1562240312140E+01
 0.1488657894378E+01
 0.1412790021065E+01
 0.1333810281964E+01
 0.1250951151772E+01
 0.1163595269951E+01
 0.1071369673835E+01
 0.9742163252373E+00
 0.8724911956714E+00
 0.7671758761734E+00
 0.6601125463433E+00
 0.5541892783129E+00
 0.4534750000543E+00
 0.3633964977012E+00
 0.2917421197450E+00
 0.2527371782414E+00
 0.2712369665135E+00
 0.3671559804199E+00
 0.5403551658986E+00
 0.7823702236303E+00
 0.1078641785968E+01
 0.1874880377364E+01
 0.1941962188031E+01
 0.2013164756211E+01
 0.2078187185394E+01
 0.2129100281200E+01
 0.2161719871877E+01
 0.2175334428581E+01
 0.2171543479940E+01
 0.2153022157197E+01
 0.2122630859665E+01
 0.2082931740531E+01
 0.2036009016521E+01
 0.1983467432924E+01
 0.1926514655244E+01
 0.1866066059554E+01
 0.1802837083615E+01
 0.1737531999318E+01
 0.1670958201842E+01
 0.1603694228679E+01
 0.1535808024850E+01
 0.1466954929100E+01
 0.1396523824554E+01
 0.1323760444712E+01
 0.1247873575441E+01
 0.1168130605905E+01
 0.1083952210962E+01
 0.9950129129200E+00
 0.9013202193095E+00
 0.8033184256685E+00
 0.7020910246934E+00
 0.5995715050930E+00
 0.4986848559888E+00
 0.4034089131838E+00
 0.3188577713440E+00
 0.2522855241618E+00
 0.2175628301671E+00
 0.2390376372006E+00
 0.3330569972437E+00
 0.4966123869613E+00
 0.7212655669294E+00
 0.9979645761322E+00
 0.1752866247439E+01
 0.1813083971365E+01
 0.1877603411098E+01
 0.1937436967260E+01
 0.1985393611488E+01
 0.2017334184716E+01
 0.2032121806245E+01
 0.2030769992071E+01
 0.2015425676655E+01
 0.1988569462510E+01
 0.1952535053312E+01
 0.1909294677272E+01
 0.1860416023932E+01
 0.1807108975110E+01
 0.1750303397578E+01
 0.1690723339945E+01
 0.1629060200049E+01
 0.1566082750029E+01
 0.1502330539312E+01
 0.1437856175703E+01
 0.1372323450344E+01
 0.1305146481738E+01
 0.1235605021987E+01
 0.1162944730803E+01
 0.1086470790234E+01
 0.1005644512491E+01
 0.9201880326128E+00
 0.8301695299267E+00
 0.7361093279407E+00
 0.6391713453252E+00
 0.5413489035792E+00
 0.4455624651398E+00
 0.3556460645836E+00
 0.2763254087627E+00
 0.2141958676446E+00
 0.1827300240842E+00
 0.2061238764818E+00
 0.2974349638401E+00
 0.4510169250468E+00
 0.6596478408009E+00
 0.9142797836904E+00
 0.1632680896138E+01
 0.1686653679342E+01
 0.1744989822153E+01
 0.1799834332585E+01
 0.1844693015568E+01
 0.1875559335701E+01
 0.1891009358639E+01
 0.1891589688402E+01
 0.1878990228202E+01
 0.1855338585710E+01
 0.1822738257879E+01
 0.1783033930946E+01
 0.1737736401764E+01
 0.1688038735846E+01
 0.1634869736953E+01
 0.1578951480355E+01
 0.1520957329580E+01
 0.1461616754220E+01
 0.1401431796674E+01
 0.1340441007638E+01
 0.1278316731431E+01
 0.1214497692491E+01
 0.1148297328792E+01
 0.1078998764516E+01
 0.1005946177131E+01
 0.9286420714950E+00
 0.8468542347829E+00
 0.7607049350197E+00
 0.6707774781211E+00
 0.5782958437885E+00
 0.4852860774517E+00
 0.3946320079700E+00
 0.3099855710487E+00
 0.2356173930917E+00
 0.1773061139069E+00
 0.1480501797068E+00
 0.1725226848264E+00
 0.2605057612319E+00
 0.4040484987053E+00
 0.5967949753103E+00
 0.8310204416002E+00
 0.1514136808551E+01
 0.1562405035259E+01
 0.1615008343679E+01
 0.1665073044674E+01
 0.1706755111884E+01
 0.1736239201009E+01
 0.1751922976711E+01
 0.1753988591321E+01
 0.1743736897770E+01
 0.1722973827331E+01
 0.1693577601610E+01
 0.1657255704397E+01
 0.1615446493887E+01
 0.1569310085629E+01
 0.1519760534048E+01
 0.1467508362910E+01
 0.1413203950622E+01
 0.1357536396445E+01
 0.1300971141164E+01
 0.1243533577226E+01
 0.1184904583058E+01
 0.1124546759482E+01
 0.1061806493541E+01
 0.9960040653787E+00
 0.9265224736858E+00
 0.8529043124638E+00
 0.7749594448101E+00
 0.6928565193505E+00
 0.6072287905774E+00
 0.5193421097649E+00
 0.4312341298737E+00
 0.3457320607514E+00
 0.2662865481492E+00
 0.1966592949127E+00
 0.1415873878852E+00
 0.1133996200322E+00
 0.1383605369286E+00
 0.2226447997788E+00
 0.3559662585741E+00
 0.5331216577092E+00
 0.7481703073971E+00
 0.1397068029748E+01
 0.1440104300063E+01
 0.1487379360062E+01
 0.1532874104403E+01
 0.1571346848601E+01
 0.1599211090471E+01
 0.1614770756356E+01
 0.1617930520275E+01
 0.1609665220078E+01
 0.1591492510107E+01
 0.1565075121793E+01
 0.1531978589098E+01
 0.1493557202966E+01
 0.1450924803770E+01
 0.1404968867498E+01
 0.1356379809035E+01
 0.1305780341484E+01
 0.1253817846317E+01
 0.1200921591213E+01
 0.1147104357634E+01
 0.1092055388119E+01
 0.1035260307402E+01
 0.9760973670760E+00
 0.9139229623839E+00
 0.8481576342783E+00
 0.7783816646703E+00
 0.7044422465938E+00
 0.6265461330010E+00
 0.5453642580933E+00
 0.4621895025541E+00
 0.3790582199984E+00
 0.2987381144713E+00
 0.2244902288894E+00
 0.1595464212083E+00
 0.1072723314865E+00
 0.7871649162957E-01
 0.1039965010121E+00
 0.1843965550251E+00
 0.3072130248822E+00
 0.4690177979463E+00
 0.6656676656687E+00
 0.1281326270167E+01
 0.1319544427843E+01
 0.1361853502114E+01
 0.1402982769599E+01
 0.1438246406737E+01
 0.1464309500935E+01
 0.1479447702744E+01
 0.1483361255043E+01
 0.1476756161038E+01
 0.1460895497331E+01
 0.1437239592108E+01
 0.1407211231931E+01
 0.1372072463151E+01
 0.1332880148245E+01
 0.1290485146845E+01
 0.1245550222962E+01
 0.1198666068247E+01
 0.1150436818525E+01
 0.1101255614486E+01
 0.1051122863524E+01
 0.9997358427776E+00
 0.9466022196301E+00
 0.8911307340837E+00
 0.8327122734320E+00
 0.7708027836721E+00
 0.7050168689300E+00
 0.6352335567858E+00
 0.5616894075979E+00
 0.4850823493628E+00
 0.4067223313768E+00
 0.3286433661191E+00
 0.2535780853669E+00
 0.1846701756134E+00
 0.1247100951572E+00
 0.7530233734509E-01
 0.4407051202310E-01
 0.7049142957224E-01
 0.1467643605362E+00
 0.2584607025261E+00
 0.4048992191498E+00
 0.5835716703323E+00
 0.1166777817293E+01
 0.1200540403218E+01
 0.1238206848321E+01
 0.1275165726649E+01
 0.1307243376178E+01
 0.1331368744028E+01
 0.1345839437731E+01
 0.1350212089487E+01
 0.1344974868015E+01
 0.1331169019564E+01
 0.1310067587025E+01
 0.1282952865069E+01
 0.1250989421633E+01
 0.1215168812042E+01
 0.1176296923318E+01
 0.1135002315775E+01
 0.1091839668688E+01
 0.1047368250827E+01
 0.1001944827042E+01
 0.9555574046469E+00
 0.9079108139070E+00
 0.8585336623830E+00
 0.8068635672283E+00
 0.7523238385918E+00
 0.6944030549930E+00
 0.6327461200946E+00
 0.5672580557166E+00
 0.4981974900049E+00
 0.4262812680018E+00
 0.3528337266438E+00
 0.2799043265934E+00
 0.2102652356247E+00
 0.1471546165450E+00
 0.9339383373441E-01
 0.4925772270347E-01
 0.1126175199553E-01
 0.4228412937644E-01
 0.1119496659526E+00
 0.2108420954578E+00
 0.3413710006972E+00
 0.5021042788564E+00
 0.1053301060139E+01
 0.1082925488252E+01
 0.1116236932118E+01
 0.1149208479994E+01
 0.1178138465297E+01
 0.1200224731799E+01
 0.1213825088242E+01
 0.1218402826688E+01
 0.1214273157753E+01
 0.1202286455765E+01
 0.1183544616021E+01
 0.1159193947472E+01
 0.1130298737281E+01
 0.1097778992545E+01
 0.1062388812219E+01
 0.1024716944007E+01
 0.9852784561744E+00
 0.9445861084170E+00
 0.9029598242324E+00
 0.8603749712250E+00
 0.8165433174113E+00
 0.7710132037796E+00
 0.7232493339861E+00
 0.6727050484744E+00
 0.6188983517077E+00
 0.5615000544571E+00
 0.5004353979116E+00
 0.4359785849718E+00
 0.3688614373355E+00
 0.3004316515019E+00
 0.2328055871765E+00
 0.1689756713878E+00
 0.1128502863446E+00
 0.6902539850573E-01
 0.4113252916070E-01
 0.2806293226154E-01
 0.3797774346749E-01
 0.8540057391350E-01
 0.1665927288454E+00
 0.2795039799086E+00
 0.4217563424592E+00
 0.9407844843014E+00
 0.9665481747766E+00
 0.9957594070914E+00
 0.1024912983457E+01
 0.1050742923331E+01
 0.1070716139374E+01
 0.1083279513288E+01
 0.1087844281078E+01
 0.1084591739714E+01
 0.1074210038096E+01
 0.1057646297547E+01
 0.1035916901774E+01
 0.1009984995518E+01
 0.9806945845398E+00
 0.9487425440836E+00
 0.9146730830685E+00
 0.8789584652748E+00
 0.8420633371646E+00
 0.8042701665107E+00
 0.7655412754373E+00
 0.7255946436159E+00
 0.6839970558310E+00
 0.6402383842523E+00
 0.5937993922767E+00
 0.5442240509669E+00
 0.4912045936665E+00
 0.4346812321840E+00
 0.3749394682558E+00
 0.3127289824046E+00
 0.2494505421008E+00
 0.1874078503642E+00
 0.1302526621393E+00
 0.8414252925253E-01
 0.5927624693028E-01
 0.5832790081951E-01
 0.6295218429624E-01
 0.6391918727664E-01
 0.7808184646282E-01
 0.1306239010626E+00
 0.2214732656529E+00
 0.3435553352790E+00
 0.8291250317637E+00
 0.8512696877401E+00
 0.8766052487421E+00
 0.9020955136379E+00
 0.9248777983458E+00
 0.9426851142653E+00
 0.9540750082565E+00
 0.9584403628300E+00
 0.9558621967796E+00
 0.9468924761072E+00
 0.9323395657668E+00
 0.9130969497785E+00
 0.8900272564143E+00
 0.8638955260538E+00
 0.8353371831722E+00
 0.8048479813549E+00
 0.7728545912403E+00
 0.7397720237903E+00
 0.7058445836438E+00
 0.6710210173209E+00
 0.6350247017278E+00
 0.5974395123941E+00
 0.5577784875053E+00
 0.5155470819093E+00
 0.4703116835678E+00
 0.4217816597651E+00
 0.3699080755663E+00
 0.3149873152433E+00
 0.2578021307205E+00
 0.1998783776488E+00
 0.1439930469255E+00
 0.9561481105737E-01
 0.6681469429365E-01
 0.6950690216235E-01
 0.8662336009342E-01
 0.9842892734074E-01
 0.9925762429242E-01
 0.9582691197159E-01
 0.1127053917609E+00
 0.1721510786748E+00
 0.2697599816969E+00
 0.7182267456564E+00
 0.7369619217424E+00
 0.7586183937755E+00
 0.7805847733391E+00
 0.8003731163414E+00
 0.8159776674851E+00
 0.8260826130914E+00
 0.8300898323661E+00
 0.8280087741444E+00
 0.8202785320226E+00
 0.8075839413182E+00
 0.7907030892698E+00
 0.7703997951857E+00
 0.7473583735034E+00
 0.7221496064942E+00
 0.6952176046406E+00
 0.6669410496191E+00
 0.6376839059612E+00
 0.6076515563196E+00
 0.5767785479392E+00
 0.5447927655573E+00
 0.5112937662622E+00
 0.4758156897554E+00
 0.4378858891507E+00
 0.3970896710209E+00
 0.3531497818185E+00
 0.3060261237672E+00
 0.2560327409489E+00
 0.2040262199447E+00
 0.1518321558917E+00
 0.1034662258664E+00
 0.6941400671045E-01
 0.6853148802763E-01
 0.9272810577235E-01
 0.1181067094742E+00
 0.1341315206461E+00
 0.1373115213141E+00
 0.1294460168519E+00
 0.1222805902227E+00
 0.1420399118673E+00
 0.2057495237240E+00
 0.6079996392082E+00
 0.6235057199163E+00
 0.6416537364564E+00
 0.6602202088253E+00
 0.6770670467380E+00
 0.6904438658050E+00
 0.6991731568167E+00
 0.7026878451986E+00
 0.7009500818873E+00
 0.6943066496813E+00
 0.6833329805930E+00
 0.6686993502031E+00
 0.6510732037772E+00
 0.6310573094868E+00
 0.6091554843527E+00
 0.5857576525621E+00
 0.5611924817586E+00
 0.5357716039842E+00
 0.5096606918885E+00
 0.4827793862388E+00
 0.4548591043613E+00
 0.4255135941050E+00
 0.3942959466198E+00
 0.3607525644769E+00
 0.3244843333022E+00
 0.2852246311767E+00
 0.2429442066582E+00
 0.1979969139523E+00
 0.1514181110434E+00
 0.1058229245910E+00
 0.6893466304651E-01
 0.6138891561437E-01
 0.8725299858556E-01
 0.1212930473556E+00
 0.1506465423339E+00
 0.1699709077456E+00
 0.1765883716859E+00
 0.1702607728555E+00
 0.1550981072711E+00
 0.1447162719149E+00
 0.1642223806569E+00
 0.4983587420870E+00
 0.5107894245525E+00
 0.5255754172417E+00
 0.5408505293851E+00
 0.5548051225814E+00
 0.5659379662502E+00
 0.5732182289493E+00
 0.5761275097820E+00
 0.5746009637570E+00
 0.5689109290832E+00
 0.5595362492126E+00
 0.5470467438535E+00
 0.5320163477106E+00
 0.5149661699337E+00
 0.4963314540554E+00
 0.4764459569621E+00
 0.4555866468333E+00
 0.4340116545951E+00
 0.4118461155111E+00
 0.3889939393302E+00
 0.3651889442981E+00
 0.3400573870820E+00
 0.3131689341088E+00
 0.2840859929252E+00
 0.2524218500278E+00
 0.2179195834453E+00
 0.1805716090549E+00
 0.1408346090195E+00
 0.1002431199523E+00
 0.6405863583767E-01
 0.5130767560378E-01
 0.7616308668987E-01
 0.1143349142997E+00
 0.1519188487345E+00
 0.1835599359333E+00
 0.2058910531868E+00
 0.2165796396857E+00
 0.2145207288270E+00
 0.2005459367558E+00
 0.1794165194636E+00
 0.1641330853260E+00
 0.3892232879718E+00
 0.3987076441764E+00
 0.4102553537961E+00
 0.4223324428575E+00
 0.4334396486885E+00
 0.4423187747387E+00
 0.4480915151297E+00
 0.4503020523640E+00
 0.4488752904552E+00
 0.4440243860933E+00
 0.4361429651603E+00
 0.4257072867408E+00
 0.4132008322823E+00
 0.3990634590778E+00
 0.3836608182899E+00
 0.3672690105944E+00
 0.3501119201724E+00
 0.3323930817121E+00
 0.3141961455589E+00
 0.2954082055844E+00
 0.2757639598479E+00
 0.2548999500823E+00
 0.2323993196736E+00
 0.2078366052425E+00
 0.1808339824997E+00
 0.1511467066003E+00
 0.1188243588657E+00
 0.8464704745713E-01
 0.5218528750670E-01
 0.3909022800704E-01
 0.6436489243782E-01
 0.1036910665793E+00
 0.1447494600881E+00
 0.1833474930293E+00
 0.2165670554124E+00
 0.2418417500828E+00
 0.2570377817180E+00
 0.2606806681987E+00
 0.2522212875941E+00
 0.2326930698491E+00
 0.2061757699473E+00
 0.2805160164019E+00
 0.2871601941231E+00
 0.2955719873806E+00
 0.3045297359030E+00
 0.3128297690794E+00
 0.3194512018240E+00
 0.3236720795247E+00
 0.3251098537173E+00
 0.3236926877403E+00
 0.3195873266418E+00
 0.3131120566581E+00
 0.3046558883727E+00
 0.2946149769922E+00
 0.2833487688103E+00
 0.2711528533168E+00
 0.2582446695159E+00
 0.2447939089117E+00
 0.2309483686333E+00
 0.2167488743453E+00
 0.2020638903491E+00
 0.1866263317535E+00
 0.1700790755707E+00
 0.1520130439581E+00
 0.1320072234849E+00
 0.1096848254839E+00
 0.8482098615376E-01
 0.5766980942574E-01
 0.3100958049134E-01
 0.2702836772131E-01
 0.5721528490408E-01
 0.9546598785635E-01
 0.1359575351817E+00
 0.1764842625758E+00
 0.2150456585359E+00
 0.2495270262599E+00
 0.2777729638715E+00
 0.2978062019115E+00
 0.3080089927624E+00
 0.3072221925892E+00
 0.2949802053909E+00
 0.2719117304944E+00
 0.1721625778746E+00
 0.1760511824656E+00
 0.1814093138559E+00
 0.1873135843995E+00
 0.1928449406384E+00
 0.1972145949146E+00
 0.1998587445507E+00
 0.2004756380877E+00
 0.1990071181248E+00
 0.1955839794126E+00
 0.1904577721908E+00
 0.1839362655001E+00
 0.1763318512835E+00
 0.1679253051581E+00
 0.1589427841887E+00
 0.1495431273020E+00
 0.1398414525819E+00
 0.1299286400923E+00
 0.1198003705283E+00
 0.1093027502042E+00
 0.9816108301448E-01
 0.8601532949933E-01
 0.7244871801444E-01
 0.5701628483329E-01
 0.3928437458779E-01
 0.1894850732666E-01
 0.6343568572695E-02
 0.3222719386855E-01
 0.6240410104293E-01
 0.9581686076814E-01
 0.1319391381160E+00
 0.1699555073653E+00
 0.2087178826462E+00
 0.2467597137277E+00
 0.2823550601299E+00
 0.3136333822400E+00
 0.3387662150083E+00
 0.3561004109004E+00
 0.3641888977530E+00
 0.3618958370366E+00
 0.3485332117550E+00
 0.6409119974441E-01
 0.6528832000645E-01
 0.6765770231933E-01
 0.7057695385822E-01
 0.7341018106074E-01
 0.7559478109504E-01
 0.7672165710026E-01
 0.7657263593191E-01
 0.7511178217665E-01
 0.7244612207792E-01
 0.6877457630166E-01
 0.6433917493884E-01
 0.5938609192378E-01
 0.5413860236124E-01
 0.4878068102699E-01
 0.4344967010513E-01
 0.3825700275072E-01
 0.3330592561348E-01
 0.2865728089847E-01
 0.2435547985345E-01
 0.2061743609997E-01
 0.1822680296916E-01
 0.1885892318278E-01
 0.2398328060303E-01
 0.3354314201433E-01
 0.4702618410718E-01
 0.6424022073754E-01
 0.8519671140616E-01
 0.1099176271783E+00
 0.1383047224307E+00
 0.1700536651793E+00
 0.2045995123471E+00
 0.2410852924588E+00
 0.2783570697847E+00
 0.3149916211154E+00
 0.3493700553480E+00
 0.3798168468834E+00
 0.4046959704172E+00
 0.4224100513758E+00
 0.4314627566164E+00
 0.4305441968738E+00
 0.4377070308599E-01
 0.4521956651994E-01
 0.4581237435136E-01
 0.4598529125287E-01
 0.4616535821261E-01
 0.4668367948980E-01
 0.4773629904266E-01
 0.4938802312351E-01
 0.5160185378167E-01
 0.5427516706228E-01
 0.5727177032955E-01
 0.6044709603393E-01
 0.6366711165048E-01
 0.6682186805698E-01
 0.6983458813264E-01
 0.7266685123655E-01
 0.7530482671157E-01
 0.7774820441614E-01
 0.8004917951401E-01
 0.8234431012210E-01
 0.8484503233619E-01
 0.8782960512461E-01
 0.9164421902369E-01
 0.9670733935549E-01
 0.1035078814987E+00
 0.1125871179705E+00
 0.1244986160412E+00
 0.1397531097667E+00
 0.1587559439596E+00
 0.1817425167886E+00
 0.2087258236758E+00
 0.2394598864600E+00
 0.2734145349310E+00
 0.3097631792252E+00
 0.3473894841356E+00
 0.3849283568093E+00
 0.4208658932002E+00
 0.4536087964729E+00
 0.4814668609275E+00
 0.5026987541482E+00
 0.5155982811701E+00
 0.1514875074210E+00
 0.1555575011730E+00
 0.1590681823966E+00
 0.1621541639921E+00
 0.1649557482768E+00
 0.1675831983069E+00
 0.1700963917484E+00
 0.1725006692803E+00
 0.1747553844065E+00
 0.1767896776776E+00
 0.1785202070084E+00
 0.1798671197922E+00
 0.1807663903669E+00
 0.1811782152741E+00
 0.1810921683180E+00
 0.1805299256882E+00
 0.1795364874531E+00
 0.1781736048511E+00
 0.1765445272933E+00
 0.1748137511848E+00
 0.1732007593350E+00
 0.1719741725326E+00
 0.1714518931098E+00
 0.1720054607626E+00
 0.1740655828302E+00
 0.1781244627843E+00
 0.1847284345677E+00
 0.1944558279985E+00
 0.2078738100523E+00
 0.2254729352635E+00
 0.2475937273436E+00
 0.2743598566632E+00
 0.3056246353444E+00
 0.3409339734679E+00
 0.3795078576787E+00
 0.4202520426949E+00
 0.4618254440963E+00
 0.5026900302268E+00
 0.5410838162449E+00
 0.5750589078539E+00
 0.6025817149588E+00
 0.2591299502787E+00
 0.2658134881054E+00
 0.2722396706985E+00
 0.2782760592009E+00
 0.2838019871774E+00
 0.2887062416254E+00
 0.2928874330589E+00
 0.2962565026765E+00
 0.2987402791781E+00
 0.3002849213275E+00
 0.3008584366441E+00
 0.3004520027557E+00
 0.2990802388256E+00
 0.2967808511327E+00
 0.2936141283549E+00
 0.2896626593145E+00
 0.2850280707328E+00
 0.2798296575131E+00
 0.2742145505694E+00
 0.2683662034968E+00
 0.2625049191989E+00
 0.2568893271316E+00
 0.2518209291717E+00
 0.2476512185613E+00
 0.2447904957277E+00
 0.2437172170555E+00
 0.2449845405289E+00
 0.2492188366409E+00
 0.2571019668050E+00
 0.2693289313260E+00
 0.2865398956153E+00
 0.3092344634458E+00
 0.3376820728191E+00
 0.3718429094049E+00
 0.4113096192750E+00
 0.4552833430578E+00
 0.5026093897548E+00
 0.5518116908346E+00
 0.6010606078083E+00
 0.6482075433057E+00
 0.6909035405582E+00
 0.3667647564688E+00
 0.3760726485326E+00
 0.3854255396627E+00
 0.3944280486190E+00
 0.4027012709910E+00
 0.4099123295864E+00
 0.4157962050871E+00
 0.4201664022664E+00
 0.4229147217915E+00
 0.4240029095887E+00
 0.4234499290116E+00
 0.4213182914641E+00
 0.4177018486562E+00
 0.4127163270156E+00
 0.4064928878405E+00
 0.3991746361723E+00
 0.3909187900901E+00
 0.3819004921943E+00
 0.3723082660656E+00
 0.3623412641607E+00
 0.3522171115602E+00
 0.3421817830217E+00
 0.3325201590863E+00
 0.3235676985486E+00
 0.3157235173869E+00
 0.3094653291945E+00
 0.3053647732518E+00
 0.3040986729500E+00
 0.3064508041524E+00
 0.3132952583075E+00
 0.3255472066477E+00
 0.3440747662599E+00
 0.3695807344787E+00
 0.4024746340347E+00
 0.4427600595636E+00
 0.4899630726025E+00
 0.5431318874544E+00
 0.6008573160878E+00
 0.6612384411612E+00
 0.7219170593191E+00
 0.7802176051101E+00
 0.4744589293379E+00
 0.4864201332663E+00
 0.4987282907942E+00
 0.5107238289415E+00
 0.5217683433266E+00
 0.5313061461145E+00
 0.5389080097580E+00
 0.5442902606442E+00
 0.5473106920308E+00
 0.5479481069315E+00
 0.5462739717948E+00
 0.5424234593653E+00
 0.5365705898545E+00
 0.5289095928400E+00
 0.5196425368049E+00
 0.5089726530973E+00
 0.4971119876339E+00
 0.4842904340696E+00
 0.4707363971838E+00
 0.4566627382945E+00
 0.4422820771942E+00
 0.4278254338476E+00
 0.4135594271829E+00
 0.3998033624246E+00
 0.3869473879159E+00
 0.3754731577755E+00
 0.3659764757397E+00
 0.3591876683278E+00
 0.3559881293707E+00
 0.3574172696285E+00
 0.3646470032088E+00
 0.3789035243092E+00
 0.4013322240947E+00
 0.4328219109688E+00
 0.4738264313733E+00
 0.5242307666670E+00
 0.5833063332445E+00
 0.6497164500016E+00
 0.7214820963642E+00
 0.7960192194670E+00
 0.8703029318262E+00
 0.5822797146161E+00
 0.5969414490605E+00
 0.6122511768157E+00
 0.6272802768654E+00
 0.6411268090691E+00
 0.6530100690911E+00
 0.6623367098581E+00
 0.6687279929064E+00
 0.6720110608853E+00
 0.6721854631300E+00
 0.6693784582845E+00
 0.6638003509573E+00
 0.6557068637206E+00
 0.6453714137788E+00
 0.6330669915518E+00
 0.6190564803011E+00
 0.6036059572639E+00
 0.5869990569687E+00
 0.5695027769246E+00
 0.5513420183755E+00
 0.5327223706369E+00
 0.5138576597356E+00
 0.4949940834885E+00
 0.4764331735268E+00
 0.4585555713008E+00
 0.4418477585407E+00
 0.4269316451607E+00
 0.4145923499779E+00
 0.4058064855680E+00
 0.4017700324633E+00
 0.4038978929682E+00
 0.4137639039106E+00
 0.4329611430197E+00
 0.4628842914929E+00
 0.5044779804826E+00
 0.5580248574002E+00
 0.6230446192711E+00
 0.6982811500654E+00
 0.7816697095690E+00
 0.8703799468824E+00
 0.9610075493986E+00
 0.6902949737831E+00
 0.7077230354090E+00
 0.7260987120425E+00
 0.7442161297805E+00
 0.7609031980565E+00
 0.7751509279438E+00
 0.7862024690395E+00
 0.7935878149821E+00
 0.7971090157070E+00
 0.7967921988226E+00
 0.7928254186704E+00
 0.7854977265794E+00
 0.7751486895552E+00
 0.7621318014348E+00
 0.7467909516023E+00
 0.7294480640207E+00
 0.7104223207490E+00
 0.6900500239724E+00
 0.6686354832924E+00
 0.6464140155751E+00
 0.6235821743984E+00
 0.6003342438434E+00
 0.5768934469281E+00
 0.5535410424723E+00
 0.5306460809368E+00
 0.5086985362291E+00
 0.4883458470467E+00
 0.4704273043221E+00
 0.4560121852520E+00
 0.4464462870613E+00
 0.4433764026322E+00
 0.4487141329923E+00
 0.4645029561464E+00
 0.4926678052723E+00
 0.5346863093694E+00
 0.5912829103810E+00
 0.6622565670889E+00
 0.7464436057044E+00
 0.8416865684967E+00
 0.9448854419103E+00
 0.1052220152224E+01
 0.7985735969763E+00
 0.8188528809005E+00
 0.8403774076693E+00
 0.8616524101940E+00
 0.8812264325264E+00
 0.8978579059810E+00
 0.9106277050035E+00
 0.9189801406285E+00
 0.9227000178892E+00
 0.9218480660121E+00
 0.9166798573819E+00
 0.9075679201405E+00
 0.8949383692077E+00
 0.8792258173741E+00
 0.8608449437830E+00
 0.8401759196119E+00
 0.8175899283519E+00
 0.7934747482034E+00
 0.7681706556173E+00
 0.7419217108048E+00
 0.7149133472471E+00
 0.6873177828673E+00
 0.6593323481799E+00
 0.6312148617258E+00
 0.6033196068995E+00
 0.5761371462818E+00
 0.5503379698052E+00
 0.5268131512606E+00
 0.5067211784508E+00
 0.4915514134672E+00
 0.4831727789504E+00
 0.4838251151574E+00
 0.4960033139671E+00
 0.5221853130170E+00
 0.5644260125186E+00
 0.6239419468878E+00
 0.7008494816692E+00
 0.7940943885351E+00
 0.9014210934282E+00
 0.1019434107576E+01
 0.1143854984969E+01
 0.9071859469799E+00
 0.9304211832982E+00
 0.9551965885968E+00
 0.9797131780196E+00
 0.1002228207468E+01
 0.1021262275326E+01
 0.1035736022322E+01
 0.1045015690295E+01
 0.1048879168859E+01
 0.1047432103587E+01
 0.1041006035321E+01
 0.1030062760455E+01
 0.1015118123646E+01
 0.9966889673448E+00
 0.9752604943467E+00
 0.9512700963582E+00
 0.9251396441474E+00
 0.8973070578560E+00
 0.8681471486348E+00
 0.8379109733081E+00
 0.8067706529687E+00
 0.7748736220863E+00
 0.7423880602960E+00
 0.7095446120395E+00
 0.6766787391122E+00
 0.6442774405181E+00
 0.6130302110264E+00
 0.5838758814968E+00
 0.5580574783179E+00
 0.5372013625268E+00
 0.5233892511705E+00
 0.5191796405322E+00
 0.5275182703991E+00
 0.5514573452604E+00
 0.5936755699182E+00
 0.6559388829270E+00
 0.7387278003788E+00
 0.8411210669379E+00
 0.9607620477923E+00
 0.1093931616206E+01
 0.1235843466025E+01
 0.1016204342485E+01
 0.1042521068466E+01
 0.1070669287225E+01
 0.1098526414151E+01
 0.1124043625890E+01
 0.1145497587842E+01
 0.1161651865196E+01
 0.1171804620325E+01
 0.1175739905959E+01
 0.1173621020579E+01
 0.1165865654367E+01
 0.1153031642742E+01
 0.1135728102833E+01
 0.1114555170586E+01
 0.1090068058027E+01
 0.1062760057630E+01
 0.1033102171446E+01
 0.1001580974363E+01
 0.9686042935505E+00
 0.9344283648254E+00
 0.8992097006889E+00
 0.8630680521255E+00
 0.8261388798401E+00
 0.7886214252919E+00
 0.7508275243465E+00
 0.7132353956834E+00
 0.6765481172713E+00
 0.6417467047265E+00
 0.6101526636684E+00
 0.5835219715707E+00
 0.5641395739276E+00
 0.5548725316023E+00
 0.5591151098168E+00
 0.5805133475374E+00
 0.6224185155141E+00
 0.6872111239575E+00
 0.7757928294236E+00
 0.8874070269495E+00
 0.1019596449824E+01
 0.1168287751785E+01
 0.1328129466537E+01
 0.1125703592462E+01
 0.1155249386894E+01
 0.1186913230564E+01
 0.1218225003424E+01
 0.1246811941969E+01
 0.1270699999814E+01
 0.1288500357344E+01
 0.1299455920825E+01
 0.1303373069107E+01
 0.1300488061648E+01
 0.1291316634731E+01
 0.1276520296368E+01
 0.1256805185441E+01
 0.1232855602658E+01
 0.1205295894814E+01
 0.1174673572893E+01
 0.1141506941370E+01
 0.1106329586508E+01
 0.1069580759927E+01
 0.1031520008492E+01
 0.9922858585035E+00
 0.9519673219031E+00
 0.9106633036743E+00
 0.8685369845317E+00
 0.8258711200303E+00
 0.7831289965649E+00
 0.7410206069518E+00
 0.7005620899316E+00
 0.6631458670964E+00
 0.6306489774017E+00
 0.6055492893488E+00
 0.5910113863678E+00
 0.5908736360810E+00
 0.6093933066749E+00
 0.6506449196464E+00
 0.7176973649223E+00
 0.8119425736695E+00
 0.9328303995534E+00
 0.1077807874920E+01
 0.1242414293579E+01
 0.1420666693920E+01
 0.1235761596080E+01
 0.1268707610105E+01
 0.1304051944165E+01
 0.1338947820918E+01
 0.1370677370999E+01
 0.1397008625865E+01
 0.1416407154293E+01
 0.1428076840135E+01
 0.1431866036173E+01
 0.1428102000403E+01
 0.1417412084507E+01
 0.1400569805866E+01
 0.1378382085458E+01
 0.1351617890294E+01
 0.1320969335971E+01
 0.1287036028904E+01
 0.1250381443163E+01
 0.1211584379967E+01
 0.1171113874510E+01
 0.1129230898678E+01
 0.1086053568178E+01
 0.1041636983802E+01
 0.9960394401282E+00
 0.9493830414783E+00
 0.9019154534181E+00
 0.8540780541508E+00
 0.8065799381020E+00
 0.7604638558642E+00
 0.7171839805246E+00
 0.6787283973718E+00
 0.6477564226358E+00
 0.6277177397118E+00
 0.6228878507619E+00
 0.6381497661944E+00
 0.6783532439281E+00
 0.7473386598629E+00
 0.8470716782948E+00
 0.9772630249179E+00
 0.1135274951244E+01
 0.1316223529291E+01
 0.1513417365154E+01
 0.1346460025565E+01
 0.1383002853644E+01
 0.1422216001718E+01
 0.1460840936654E+01
 0.1495789952375E+01
 0.1524565873146E+01
 0.1545498226957E+01
 0.1557772230143E+01
 0.1561301803927E+01
 0.1556526124494E+01
 0.1544199313868E+01
 0.1525215725866E+01
 0.1500486593503E+01
 0.1470865472405E+01
 0.1437110239258E+01
 0.1399869946220E+01
 0.1359750770073E+01
 0.1317374787079E+01
 0.1273239158359E+01
 0.1227604418240E+01
 0.1180565844100E+01
 0.1132141384705E+01
 0.1082344511905E+01
 0.1031250960447E+01
 0.9790668426261E+00
 0.9262039415267E+00
 0.8733615929838E+00
 0.8215992349798E+00
 0.7724219389780E+00
 0.7279171041680E+00
 0.6909124547972E+00
 0.6651285446656E+00
 0.6552679890012E+00
 0.6668502608151E+00
 0.7055526463727E+00
 0.7760798456454E+00
 0.8810715156478E+00
 0.1020569398575E+01
 0.1191869905801E+01
 0.1389627158774E+01
 0.1606351732619E+01
 0.1457885113291E+01
 0.1498249059139E+01
 0.1541544454961E+01
 0.1584058958744E+01
 0.1622306458341E+01
 0.1653517720129E+01
 0.1675899520807E+01
 0.1688643747843E+01
 0.1691757948919E+01
 0.1685817148735E+01
 0.1671718831385E+01
 0.1650487226321E+01
 0.1623140885803E+01
 0.1590617055070E+01
 0.1553736555176E+01
 0.1513194616574E+01
 0.1469637290495E+01
 0.1423727861925E+01
 0.1375989985039E+01
 0.1326681967058E+01
 0.1275873866045E+01
 0.1223543223587E+01
 0.1169654387832E+01
 0.1114231245347E+01
 0.1057431553916E+01
 0.9996292302912E+00
 0.9415040540626E+00
 0.8841208591544E+00
 0.8290229974735E+00
 0.7783834895875E+00
 0.7351834785816E+00
 0.7033979170890E+00
 0.6881429046859E+00
 0.6955802155081E+00
 0.7322658351985E+00
 0.8038714321472E+00
 0.9138304718892E+00
 0.1062605549137E+01
 0.1247457033950E+01
 0.1462535444497E+01
 0.1699448231881E+01
 0.1570128569378E+01
 0.1614568375488E+01
 0.1662186485619E+01
 0.1708766538044E+01
 0.1750391340132E+01
 0.1784013902872E+01
 0.1807736438365E+01
 0.1820788860057E+01
 0.1823305423030E+01
 0.1816024020540E+01
 0.1800003293700E+01
 0.1776406242329E+01
 0.1746360875032E+01
 0.1710886132626E+01
 0.1670861973316E+01
 0.1627025826875E+01
 0.1580060406990E+01
 0.1530668040801E+01
 0.1479397318449E+01
 0.1426502660390E+01
 0.1372026626112E+01
 0.1315903139854E+01
 0.1258043113319E+01
 0.1198413026203E+01
 0.1137115276926E+01
 0.1074477209619E+01
 0.1011148445547E+01
 0.9481866244510E+00
 0.8871589381260E+00
 0.8303081432849E+00
 0.7807514727796E+00
 0.7426991080343E+00
 0.7216628092762E+00
 0.7244463656435E+00
 0.7585325918664E+00
 0.8306721089181E+00
 0.9452345215292E+00
 0.1103217797224E+01
 0.1301890946084E+01
 0.1534856511671E+01
 0.1792694150613E+01
 0.1683288662813E+01
 0.1732092789182E+01
 0.1784303329914E+01
 0.1835140059566E+01
 0.1880217697604E+01
 0.1916207962930E+01
 0.1941133086815E+01
 0.1954299599038E+01
 0.1956007146278E+01
 0.1947186595129E+01
 0.1929076396053E+01
 0.1902986620689E+01
 0.1870155595831E+01
 0.1831680566357E+01
 0.1788495638259E+01
 0.1741375657150E+01
 0.1691036388611E+01
 0.1638216972012E+01
 0.1583489513318E+01
 0.1527103079818E+01
 0.1469070612874E+01
 0.1409279316232E+01
 0.1347582424369E+01
 0.1283883490794E+01
 0.1218222502832E+01
 0.1150871269206E+01
 0.1082438013116E+01
 0.1013959393990E+01
 0.9470101518836E+00
 0.8838844836647E+00
 0.8278156410388E+00
 0.7832266762314E+00
 0.7560023743597E+00
 0.7535807622889E+00
 0.7844141066417E+00
 0.8564520673734E+00
 0.9751682332609E+00
 0.1142241350270E+01
 0.1355014383205E+01
 0.1606495702227E+01
 0.1886086816835E+01
 0.1797471507939E+01
 0.1850966066885E+01
 0.1908070537203E+01
 0.1963369547023E+01
 0.2011968248764E+01
 0.2050257096696E+01
 0.2076211221358E+01
 0.2089261012888E+01
 0.2089916363033E+01
 0.2079334166222E+01
 0.2058951701362E+01
 0.2030233265621E+01
 0.1994526627683E+01
 0.1953002221810E+01
 0.1906641934102E+01
 0.1856252349836E+01
 0.1802578272620E+01
 0.1746393410256E+01
 0.1688292173224E+01
 0.1628517071453E+01
 0.1567049527195E+01
 0.1503727090031E+01
 0.1438341237697E+01
 0.1370727251808E+01
 0.1300855792082E+01
 0.1228934126466E+01
 0.1155517412381E+01
 0.1081606496350E+01
 0.1008765538973E+01
 0.9393192784339E+00
 0.8765937611355E+00
 0.8251988325142E+00
 0.7913642083177E+00
 0.7831454310162E+00
 0.8099982913831E+00
 0.8811973964527E+00
 0.1003516440714E+01
 0.1179498721605E+01
 0.1406655272181E+01
 0.1677354809833E+01
 0.1979635406328E+01
 0.1912792610054E+01
 0.1971346090721E+01
 0.2033680638029E+01
 0.2093660806624E+01
 0.2145836260712E+01
 0.2186321725778E+01
 0.2213088799707E+01
 0.2225749249208E+01
 0.2225074730705E+01
 0.2212483845404E+01
 0.2189631413999E+01
 0.2158141293587E+01
 0.2119467563922E+01
 0.2074846670868E+01
 0.2025300341420E+01
 0.1971660252685E+01
 0.1914695837079E+01
 0.1855213176762E+01
 0.1793828067365E+01
 0.1730775592715E+01
 0.1666004030578E+01
 0.1599298572342E+01
 0.1530385114070E+01
 0.1459025642781E+01
 0.1385114919451E+01
 0.1308786877665E+01
 0.1230531774523E+01
 0.1151298973605E+01
 0.1072622167543E+01
 0.9968329858522E+00
 0.9273234824333E+00
 0.8688599201975E+00
 0.8279827123730E+00
 0.8133377538083E+00
 0.8354062534074E+00
 0.9049158691590E+00
 0.1030166947582E+01
 0.1214798082762E+01
 0.1456622500995E+01
 0.1747330761064E+01
 0.2073363610731E+01
 0.2029378739903E+01
 0.2093407689894E+01
 0.2161346313991E+01
 0.2226237833276E+01
 0.2282026381503E+01
 0.2324564680804E+01
 0.2351878044215E+01
 0.2363829204558E+01
 0.2361510114232E+01
 0.2346638792044E+01
 0.2321105113021E+01
 0.2286695213684E+01
 0.2244963539936E+01
 0.2197202967553E+01
 0.2144465372783E+01
 0.2087599840003E+01
 0.2027395648609E+01
 0.1964689189774E+01
 0.1900117111278E+01
 0.1833906613290E+01
 0.1765971531278E+01
 0.1696042278637E+01
 0.1623775695097E+01
 0.1548855938278E+01
 0.1471095885121E+01
 0.1390547852358E+01
 0.1307625515596E+01
 0.1223210529107E+01
 0.1138784622862E+01
 0.1056659836497E+01
 0.9802634941513E+00
 0.9144829807133E+00
 0.8661283098764E+00
 0.8443966394981E+00
 0.8608001370559E+00
 0.9276444808387E+00
 0.1055014793389E+01
 0.1247931998162E+01
 0.1504699691976E+01
 0.1816312573087E+01
 0.2167313663516E+01
 0.2147370228676E+01
 0.2217346103207E+01
 0.2291304182904E+01
 0.2361345494874E+01
 0.2420755280474E+01
 0.2465149855180E+01
 0.2492682885792E+01
 0.2503551667681E+01
 0.2499234067005E+01
 0.2481786306845E+01
 0.2453348469416E+01
 0.2415868156404E+01
 0.2370990836857E+01
 0.2320053507877E+01
 0.2264126593651E+01
 0.2204067817820E+01
 0.2140681191122E+01
 0.2074831572171E+01
 0.2007176419590E+01
 0.1937935079246E+01
 0.1866986016767E+01
 0.1794002777331E+01
 0.1718570116210E+01
 0.1640290495553E+01
 0.1558889781583E+01
 0.1474331250633E+01
 0.1386940854668E+01
 0.1297516121055E+01
 0.1207463970907E+01
 0.1119047560406E+01
 0.1035694465850E+01
 0.9623723298543E+00
 0.9061120280610E+00
 0.8766095264055E+00
 0.8863925785274E+00
 0.9494591453484E+00
 0.1077968619891E+01
 0.1278677764143E+01
 0.1550636482292E+01
 0.1884173408908E+01
 0.2261552469868E+01
 0.2266923805235E+01
 0.2343381249027E+01
 0.2423819338407E+01
 0.2499252495334E+01
 0.2562251958310E+01
 0.2608240138562E+01
 0.2635595638603E+01
 0.2644949882930E+01
 0.2638238990978E+01
 0.2617895817005E+01
 0.2586321983251E+01
 0.2545621179924E+01
 0.2497516579366E+01
 0.2443373984200E+01
 0.2384268735023E+01
 0.2321057318533E+01
 0.2254553082129E+01
 0.2185647844744E+01
 0.2115020441468E+01
 0.2042882952339E+01
 0.1969077944284E+01
 0.1893220365547E+01
 0.1814820400732E+01
 0.1733395816648E+01
 0.1648581507533E+01
 0.1560245543448E+01
 0.1468616005381E+01
 0.1374390144401E+01
 0.1278876251163E+01
 0.1184256646510E+01
 0.1093919634218E+01
 0.1012866036543E+01
 0.9482903826980E+00
 0.9103202553732E+00
 0.9124579484286E+00
 0.9704873307688E+00
 0.1098959012073E+01
 0.1306801668039E+01
 0.1594139621452E+01
 0.1950748928651E+01
 0.2356182077268E+01
 0.2388216139217E+01
 0.2471763036309E+01
 0.2559190813966E+01
 0.2640254589443E+01
 0.2706757521810E+01
 0.2753994379709E+01
 0.2780692727631E+01
 0.2788035464594E+01
 0.2778494987740E+01
 0.2754916800354E+01
 0.2719969789814E+01
 0.2675902689217E+01
 0.2624498547403E+01
 0.2567133443248E+01
 0.2504871902460E+01
 0.2438558189614E+01
 0.2369009383463E+01
 0.2297143215259E+01
 0.2223661192082E+01
 0.2148769339823E+01
 0.2072274204371E+01
 0.1993730783969E+01
 0.1912572841926E+01
 0.1828231531579E+01
 0.1740248321568E+01
 0.1648391617961E+01
 0.1552783006197E+01
 0.1454004141423E+01
 0.1353240404556E+01
 0.1252559002245E+01
 0.1155264873634E+01
 0.1066338158732E+01
 0.9930704541756E+00
 0.9459378732404E+00
 0.9393454471404E+00
 0.9909245010958E+00
 0.1117950139457E+01
 0.1332062562640E+01
 0.1634885967927E+01
 0.2015774419780E+01
 0.2451349460443E+01
 0.2511448312838E+01
 0.2602778028792E+01
 0.2697758176902E+01
 0.2784677974556E+01
 0.2854524123518E+01
 0.2902563052384E+01
 0.2928029265357E+01
 0.2932793606611E+01
 0.2919946440695E+01
 0.2892776720632E+01
 0.2854218598592E+01
 0.2806648009046E+01
 0.2751885121430E+01
 0.2691294454111E+01
 0.2625911883095E+01
 0.2556557379149E+01
 0.2484046013281E+01
 0.2409320975113E+01
 0.2333108596560E+01
 0.2255610733835E+01
 0.2176598175718E+01
 0.2095564985139E+01
 0.2011867381605E+01
 0.1924849304799E+01
 0.1833958230577E+01
 0.1738860652295E+01
 0.1639565156799E+01
 0.1536523980738E+01
 0.1430775535643E+01
 0.1324235858889E+01
 0.1220078054253E+01
 0.1123200509049E+01
 0.1040915065447E+01
 0.9839460971240E+00
 0.9674950290189E+00
 0.1011052454396E+01
 0.1134963468798E+01
 0.1354199367368E+01
 0.1672565834705E+01
 0.2078883904350E+01
 0.2547002795921E+01
 0.2636851528926E+01
 0.2736757883200E+01
 0.2839909497186E+01
 0.2932882703096E+01
 0.3005812631622E+01
 0.3054082203991E+01
 0.3077632253592E+01
 0.3079177560926E+01
 0.3062508408797E+01
 0.3031379076366E+01
 0.2988976844700E+01
 0.2937779156204E+01
 0.2879615378515E+01
 0.2815813387448E+01
 0.2747360547268E+01
 0.2675039417979E+01
 0.2599657265626E+01
 0.2522183017352E+01
 0.2443370966597E+01
 0.2363421383748E+01
 0.2282069893227E+01
 0.2198748971691E+01
 0.2112736994919E+01
 0.2023291668172E+01
 0.1929768209747E+01
 0.1831731707613E+01
 0.1729074031965E+01
 0.1622106446669E+01
 0.1511697402383E+01
 0.1399574751291E+01
 0.1288727433128E+01
 0.1183903696094E+01
 0.1092347698237E+01
 0.1024913832753E+01
 0.9974542294826E+00
 0.1031268404100E+01
 0.1150085428098E+01
 0.1373003624526E+01
 0.1706659954677E+01
 0.2140331164597E+01
 0.2641607906677E+01
 0.2764694485778E+01
 0.2874090134431E+01
 0.2986090974401E+01
 0.3085265825849E+01
 0.3160888406079E+01
 0.3208665155165E+01
 0.3229492181262E+01
 0.3227102409601E+01
 0.3206062968405E+01
 0.3170601702642E+01
 0.3124134149192E+01
 0.3069204860058E+01
 0.3007619353004E+01
 0.2940640800837E+01
 0.2869186335878E+01
 0.2793986995352E+01
 0.2715836444640E+01
 0.2635730493916E+01
 0.2554455636459E+01
 0.2472213832028E+01
 0.2388706356945E+01
 0.2303303724456E+01
 0.2215207092962E+01
 0.2123590786062E+01
 0.2027722255406E+01
 0.1927069031980E+01
 0.1821406052503E+01
 0.1710895187790E+01
 0.1596214028934E+01
 0.1478865380478E+01
 0.1361598796358E+01
 0.1248937018436E+01
 0.1147956983564E+01
 0.1069505707434E+01
 0.1029899456989E+01
 0.1052110405233E+01
 0.1163525030132E+01
 0.1388223889387E+01
 0.1736908017362E+01
 0.2199058106862E+01
 0.2739981573875E+01
 0.2895293031037E+01
 0.3015232114745E+01
 0.3136818533616E+01
 0.3242263755860E+01
 0.3320014290583E+01
 0.3366391291189E+01
 0.3383552810131E+01
 0.3376438237675E+01
 0.3350455710821E+01
 0.3310295503563E+01
 0.3259561197512E+01
 0.3200820878497E+01
 0.3135818466107E+01
 0.3065721912956E+01
 0.2991354813165E+01
 0.2913381617470E+01
 0.2832576617734E+01
 0.2749964631836E+01
 0.2666369789966E+01
 0.2581999649214E+01
 0.2496522011966E+01
 0.2409245239323E+01
 0.2319294951640E+01
 0.2225767155561E+01
 0.2127849272143E+01
 0.2024919074428E+01
 0.1916638599534E+01
 0.1803015981110E+01
 0.1684520337729E+01
 0.1562394160004E+01
 0.1439090995301E+01
 0.1318826781412E+01
 0.1208399997995E+01
 0.1118493303213E+01
 0.1065656855451E+01
 0.1074301438460E+01
 0.1175628314375E+01
 0.1399724362551E+01
 0.1762676254536E+01
 0.2255548554822E+01
 0.2839694705469E+01
 0.3029022979949E+01
 0.3160729098413E+01
 0.3292691697318E+01
 0.3404352987104E+01
 0.3483439564314E+01
 0.3527291158008E+01
 0.3539699013613E+01
 0.3527002941038E+01
 0.3495492693898E+01
 0.3450283835059E+01
 0.3395110156837E+01
 0.3332510653550E+01
 0.3264126118791E+01
 0.3190997136319E+01
 0.3113829253184E+01
 0.3033204331938E+01
 0.2949871492624E+01
 0.2864887735262E+01
 0.2779121521387E+01
 0.2692790414811E+01
 0.2605529436357E+01
 0.2516584693358E+01
 0.2425009174274E+01
 0.2329828245272E+01
 0.2230160800445E+01
 0.2125307217689E+01
 0.2014825673099E+01
 0.1898571284625E+01
 0.1776791712525E+01
 0.1650437239481E+01
 0.1521609508445E+01
 0.1394132371631E+01
 0.1274403879313E+01
 0.1172765336170E+01
 0.1105727531691E+01
 0.1098788979346E+01
 0.1186963074618E+01
 0.1407402818364E+01
 0.1783482993204E+01
 0.2309317374216E+01
 0.2941046769912E+01
 0.3166337401588E+01
 0.3311238198487E+01
 0.3454409962619E+01
 0.3572047728612E+01
 0.3651383102547E+01
 0.3691326972846E+01
 0.3697742690655E+01
 0.3678555086451E+01
 0.3640938251377E+01
 0.3590362794940E+01
 0.3530615758005E+01
 0.3464146343676E+01
 0.3392448428746E+01
 0.3316402621051E+01
 0.3236571212202E+01
 0.3153436491969E+01
 0.3067716423692E+01
 0.2980504410138E+01
 0.2892721188690E+01
 0.2804599005244E+01
 0.2715740281518E+01
 0.2625328760366E+01
 0.2532349191575E+01
 0.2435767074642E+01
 0.2334648595968E+01
 0.2228234250252E+01
 0.2115993114386E+01
 0.1997634073882E+01
 0.1873176424661E+01
 0.1743251817265E+01
 0.1609557607370E+01
 0.1475439420395E+01
 0.1346764509398E+01
 0.1233336810798E+01
 0.1151311886543E+01
 0.1126801311085E+01
 0.1198381617927E+01
 0.1411315399840E+01
 0.1798721779954E+01
 0.2359697356648E+01
 0.3044535627269E+01
 0.3307790331006E+01
 0.3467560167035E+01
 0.3622791675151E+01
 0.3745892094470E+01
 0.3824008345196E+01
 0.3858367636899E+01
 0.3857407063728E+01
 0.3830787486968E+01
 0.3786514171948E+01
 0.3730302699193E+01
 0.3665897160745E+01
 0.3595590255703E+01
 0.3520685072510E+01
 0.3441870736766E+01
 0.3359541014175E+01
 0.3274060517660E+01
 0.3186109550305E+01
 0.3096823059089E+01
 0.3007183135687E+01
 0.2917441265039E+01
 0.2827166513115E+01
 0.2735480088432E+01
 0.2641304790776E+01
 0.2543560728005E+01
 0.2441282072638E+01
 0.2333672609206E+01
 0.2220133430021E+01
 0.2100240982885E+01
 0.1973786884479E+01
 0.1841065572151E+01
 0.1703324724731E+01
 0.1563349182827E+01
 0.1426341105987E+01
 0.1301354834517E+01
 0.1203835231222E+01
 0.1159905285748E+01
 0.1211130962673E+01
 0.1411750447236E+01
 0.1807670786747E+01
 0.2405932586876E+01
 0.3150769092775E+01
 0.3454069912232E+01
 0.3630682148914E+01
 0.3798794827586E+01
 0.3926443023918E+01
 0.4001386865146E+01
 0.4028157503796E+01
 0.4018310154885E+01
 0.3983322468737E+01
 0.3931900856408E+01
 0.3869851024259E+01
 0.3800760705068E+01
 0.3726696684911E+01
 0.3648730174666E+01
 0.3567330391310E+01
 0.3482698045830E+01
 0.3395060592043E+01
 0.3305053070274E+01
 0.3213857714870E+01
 0.3122527890601E+01
 0.3031338162028E+01
 0.2939822007593E+01
 0.2847037942925E+01
 0.2751855651988E+01
 0.2653168790591E+01
 0.2550005627441E+01
 0.2441562443583E+01
 0.2327200285175E+01
 0.2206384806156E+01
 0.2078689720860E+01
 0.1944064094715E+01
 0.1803271635314E+01
 0.1658463278556E+01
 0.1514044925182E+01
 0.1378099259634E+01
 0.1264970796264E+01
 0.1200071376098E+01
 0.1226987612991E+01
 0.1409360664931E+01
 0.1809565353060E+01
 0.2447086392220E+01
 0.3260497146013E+01
 0.3606045694422E+01
 0.3801835725103E+01
 0.3983537992191E+01
 0.4114237784723E+01
 0.4183446419365E+01
 0.4200278698195E+01
 0.4179948988921E+01
 0.4135710157824E+01
 0.4076741110188E+01
 0.4008737059349E+01
 0.3935003622852E+01
 0.3857314155856E+01
 0.3776473165600E+01
 0.3692707048665E+01
 0.3606000713619E+01
 0.3516423198674E+01
 0.3424554650493E+01
 0.3331630310398E+01
 0.3238784991923E+01
 0.3146318558203E+01
 0.3053724562178E+01
 0.2959998999297E+01
 0.2863970846407E+01
 0.2764531681250E+01
 0.2660735869547E+01
 0.2551807568847E+01
 0.2437102765354E+01
 0.2316006460427E+01
 0.2187894743274E+01
 0.2052376258433E+01
 0.1909712147694E+01
 0.1761362911003E+01
 0.1610820178078E+01
 0.1464974645866E+01
 0.1336657348270E+01
 0.1249741324271E+01
 0.1248422128423E+01
 0.1405387998165E+01
 0.1803677414146E+01
 0.2481947228135E+01
 0.3374658243659E+01
 0.3764837698030E+01
 0.3982576392578E+01
 0.4178317076781E+01
 0.4309736282083E+01
 0.4369898565274E+01
 0.4374108010214E+01
 0.4341687160623E+01
 0.4287431439913E+01
 0.4220647185413E+01
 0.4146678433775E+01
 0.4068418745562E+01
 0.3987288044820E+01
 0.3903799513259E+01
 0.3817922264708E+01
 0.3729405852197E+01
 0.3638137360584E+01
 0.3544628975406E+01
 0.3450173529895E+01
 0.3355996657267E+01
 0.3262422768916E+01
 0.3168898373939E+01
 0.3074358238326E+01
 0.2977608217230E+01
 0.2877568840106E+01
 0.2773358783137E+01
 0.2664271410145E+01
 0.2549699547607E+01
 0.2428986554436E+01
 0.2301342899276E+01
 0.2166057552796E+01
 0.2022891116527E+01
 0.1872581841880E+01
 0.1717615067882E+01
 0.1563489157902E+01
 0.1421105678520E+01
 0.1311892504871E+01
 0.1278796233055E+01
 0.1401998323353E+01
 0.1789467422767E+01
 0.2508915468782E+01
 0.3494439324262E+01
 0.3931919895341E+01
 0.4174893079809E+01
 0.4384608487472E+01
 0.4513222830297E+01
 0.4560140787166E+01
 0.4548771805312E+01
 0.4502749808370E+01
 0.4437907397756E+01
 0.4363211502271E+01
 0.4283389562916E+01
 0.4200800200696E+01
 0.4116463563244E+01
 0.4030591229843E+01
 0.3942892508998E+01
 0.3852867283347E+01
 0.3760194366300E+01
 0.3665299431186E+01
 0.3569534459497E+01
 0.3474222608426E+01
 0.3379707136136E+01
 0.3285377029442E+01
 0.3190109845568E+01
 0.3092713516921E+01
 0.2992176708007E+01
 0.2887726862709E+01
 0.2778773066761E+01
 0.2664793172463E+01
 0.2545136772966E+01
 0.2418893405421E+01
 0.2285071490918E+01
 0.2142958751932E+01
 0.1992572664173E+01
 0.1835341059841E+01
 0.1675215081637E+01
 0.1520784361771E+01
 0.1390090988945E+01
 0.1322581122336E+01
 0.1402766613067E+01
 0.1766889679017E+01
 0.2525867332756E+01
 0.3621358527834E+01
 0.4109279778382E+01
 0.4381359311973E+01
 0.4604039014970E+01
 0.4724643837870E+01
 0.4753129897377E+01
 0.4723106661225E+01
 0.4662231522125E+01
 0.4586516772943E+01
 0.4504021131056E+01
 0.4418591909500E+01
 0.4331950043727E+01
 0.4244689098246E+01
 0.4156727074927E+01
 0.4067526986205E+01
 0.3976333089777E+01
 0.3882586647722E+01
 0.3786599918117E+01
 0.3689779375709E+01
 0.3593546514124E+01
 0.3498249906712E+01
 0.3403207009468E+01
 0.3307247938242E+01
 0.3209219111788E+01
 0.3108226408982E+01
 0.3003656272824E+01
 0.2895083675746E+01
 0.2782124671451E+01
 0.2664191347380E+01
 0.2540310295003E+01
 0.2409269297748E+01
 0.2269941397070E+01
 0.2121666330769E+01
 0.1964819158104E+01
 0.1801725339628E+01
 0.1638370870575E+01
 0.1488516557886E+01
 0.1385577617045E+01
 0.1413350169932E+01
 0.1736993628810E+01
 0.2530011326633E+01
 0.3757382748299E+01
 0.4299672525350E+01
 0.4605340379204E+01
 0.4838282109795E+01
 0.4943346696131E+01
 0.4947230058935E+01
 0.4895640239887E+01
 0.4819123546538E+01
 0.4732622040430E+01
 0.4642675664257E+01
 0.4552025808321E+01
 0.4461685719143E+01
 0.4371819951895E+01
 0.4282082444589E+01
 0.4191724122054E+01
 0.4099740965320E+01
 0.4005305270777E+01
 0.3908576773072E+01
 0.3811000211147E+01
 0.3714084739911E+01
 0.3618158779119E+01
 0.3522451632740E+01
 0.3425766826368E+01
 0.3327041987020E+01
 0.3225561017467E+01
 0.3120924101577E+01
 0.3012923313116E+01
 0.2901368887206E+01
 0.2785798959704E+01
 0.2665248685692E+01
 0.2538368167296E+01
 0.2403709151685E+01
 0.2260025424134E+01
 0.2106713114311E+01
 0.1944501701614E+01
 0.1776649843440E+01
 0.1611927383765E+01
 0.1475107540967E+01
 0.1442356789645E+01
 0.1703076449285E+01
 0.2517807382249E+01
 0.3905103863222E+01
 0.4507041070929E+01
 0.4851269933221E+01
 0.5088798466044E+01
 0.5167672877947E+01
 0.5140055787372E+01
 0.5064616041954E+01
 0.4972365195511E+01
 0.4875602923226E+01
 0.4778807750053E+01
 0.4683463446382E+01
 0.4589848172017E+01
 0.4497722607970E+01
 0.4406529088193E+01
 0.4315366362282E+01
 0.4223010692172E+01
 0.4128335144051E+01
 0.4031290764104E+01
 0.3933323584995E+01
 0.3835998448047E+01
 0.3739580542925E+01
 0.3643195202604E+01
 0.3545660351275E+01
 0.3446080698616E+01
 0.3343992259384E+01
 0.3239265796061E+01
 0.3131958752953E+01
 0.3022130935039E+01
 0.2909515511009E+01
 0.2793241112895E+01
 0.2671928431778E+01
 0.2543940910159E+01
 0.2407592233841E+01
 0.2261451056018E+01
 0.2104813865222E+01
 0.1938340042575E+01
 0.1765507075247E+01
 0.1600119637593E+01
 0.1502346005960E+01
 0.1672816168913E+01
 0.2485170477815E+01
 0.4068028114022E+01
 0.4737240601825E+01
 0.5124993137435E+01
 0.5356253962405E+01
 0.5394354517471E+01
 0.5328368024506E+01
 0.5228093538642E+01
 0.5120918050565E+01
 0.5014894331015E+01
 0.4912105525921E+01
 0.4812722336626E+01
 0.4716310347817E+01
 0.4622279781017E+01
 0.4529935087711E+01
 0.4438313017326E+01
 0.4346032315158E+01
 0.4251646406044E+01
 0.4154819083916E+01
 0.4056923911745E+01
 0.3959510639413E+01
 0.3862713230747E+01
 0.3765546821050E+01
 0.3666919632912E+01
 0.3566210841146E+01
 0.3463296457838E+01
 0.3358372878525E+01
 0.3251802518949E+01
 0.3143944418996E+01
 0.3034798274925E+01
 0.2923684278949E+01
 0.2809330003680E+01
 0.2690087509790E+01
 0.2564033288705E+01
 0.2429138727017E+01
 0.2283574027468E+01
 0.2125841139027E+01
 0.1954509883492E+01
 0.1771075097737E+01
 0.1610814254292E+01
 0.1661988890138E+01
 0.2428592594631E+01
 0.4251124251412E+01
 0.4999352552327E+01
 0.5434102353503E+01
 0.5639275664675E+01
 0.5617703793768E+01
 0.5508154078188E+01
 0.5384148112582E+01
 0.5263848694178E+01
 0.5150026201730E+01
 0.5042336136570E+01
 0.4939678204803E+01
 0.4840985780065E+01
 0.4745396598475E+01
 0.4652166061250E+01
 0.4560391234129E+01
 0.4468647842540E+01
 0.4375179232388E+01
 0.4279257211449E+01
 0.4182043278858E+01
 0.4084930573644E+01
 0.3987820997635E+01
 0.3889642804288E+01
 0.3789528323361E+01
 0.3687278569623E+01
 0.3583209479695E+01
 0.3477891015338E+01
 0.3372013828424E+01
 0.3266272280486E+01
 0.3161002046302E+01
 0.3055826478438E+01
 0.2949748453261E+01
 0.2841333713925E+01
 0.2728682374826E+01
 0.2609469396812E+01
 0.2481176931830E+01
 0.2340915257963E+01
 0.2183622866495E+01
 0.1999292466697E+01
 0.1790925355063E+01
 0.1700253723717E+01
 0.2348929255934E+01
 0.4462062869238E+01
 0.5308218396132E+01
 0.5787927068813E+01
 0.5931866946865E+01
 0.5828782371045E+01
 0.5675128805267E+01
 0.5531138785972E+01
 0.5400395582462E+01
 0.5280668137570E+01
 0.5169367553070E+01
 0.5064276250972E+01
 0.4963836885819E+01
 0.4867008168119E+01
 0.4773089426923E+01
 0.4681386175315E+01
 0.4590623204471E+01
 0.4498816870485E+01
 0.4404720436588E+01
 0.4309023112288E+01
 0.4212689242134E+01
 0.4115251217477E+01
 0.4015645767695E+01
 0.3913454292526E+01
 0.3809091793990E+01
 0.3703420345025E+01
 0.3597418373313E+01
 0.3492102281120E+01
 0.3388511632455E+01
 0.3287377962328E+01
 0.3188755646822E+01
 0.3092131099747E+01
 0.2996559889461E+01
 0.2900483508135E+01
 0.2801638103892E+01
 0.2697338924002E+01
 0.2584345935800E+01
 0.2456062658278E+01
 0.2295166758157E+01
 0.2071348530969E+01
 0.1838569173516E+01
 0.2262534130204E+01
 0.4714594752380E+01
 0.5689722195815E+01
 0.6195855461847E+01
 0.6218225708688E+01
 0.6015431980028E+01
 0.5825909141031E+01
 0.5667862383046E+01
 0.5530030269922E+01
 0.5406681018220E+01
 0.5293182139948E+01
 0.5186541621703E+01
 0.5084881779677E+01
 0.4987088451742E+01
 0.4892584639909E+01
 0.4801034108392E+01
 0.4711605762990E+01
 0.4622336512290E+01
 0.4531344831071E+01
 0.4438357537843E+01
 0.4343391114402E+01
 0.4245451327303E+01
 0.4143737242744E+01
 0.4038636733117E+01
 0.3931408943396E+01
 0.3823563008480E+01
 0.3716503757058E+01
 0.3611535543004E+01
 0.3510004900094E+01
 0.3413075598110E+01
 0.3321387256192E+01
 0.3235173381016E+01
 0.3154305343919E+01
 0.3077932842028E+01
 0.3004268686092E+01
 0.2930961665937E+01
 0.2855607047209E+01
 0.2772662918684E+01
 0.2664731977742E+01
 0.2482714859843E+01
 0.2156745699111E+01
 0.2231238694140E+01
 0.5039170558281E+01
 0.6193022673636E+01
 0.6658680687817E+01
 0.6463475833387E+01
 0.6166023610861E+01
 0.5959353531965E+01
 0.5793342909329E+01
 0.5652639361843E+01
 0.5528126104597E+01
 0.5413890889810E+01
 0.5306586655431E+01
 0.5204198961712E+01
 0.5105658997422E+01
 0.5010562703928E+01
 0.4919028625332E+01
 0.4831061763019E+01
 0.4745315467278E+01
 0.4659287959520E+01
 0.4570789374127E+01
 0.4477888056079E+01
 0.4378978389000E+01
 0.4274099674690E+01
 0.4164968099478E+01
 0.4053925782390E+01
 0.3943205724112E+01
 0.3834642741042E+01
 0.3729752889202E+01
 0.3630061851930E+01
 0.3537148295682E+01
 0.3452449573241E+01
 0.3377296183582E+01
 0.3312736092356E+01
 0.3259021032133E+01
 0.3215339058677E+01
 0.3180102828553E+01
 0.3152507133316E+01
 0.3131318263770E+01
 0.3105571406618E+01
 0.3044171072573E+01
 0.2768553608559E+01
 0.2430756115613E+01
 0.5523338498531E+01
 0.6923433931881E+01
 0.7128975314927E+01
 0.6605954590773E+01
 0.6282443276432E+01
 0.6074226189691E+01
 0.5907370850049E+01
 0.5768585889211E+01
 0.5645249771876E+01
 0.5531753903952E+01
 0.5424608910115E+01
 0.5321932232900E+01
 0.5222793422215E+01
 0.5126994028601E+01
 0.5035065143197E+01
 0.4948193497926E+01
 0.4866937735016E+01
 0.4788733177370E+01
 0.4707496781544E+01
 0.4617374635266E+01
 0.4516486046814E+01
 0.4406884708710E+01
 0.4292270557691E+01
 0.4176261831181E+01
 0.4061838142741E+01
 0.3951266342194E+01
 0.3846187169119E+01
 0.3748003215175E+01
 0.3658558941518E+01
 0.3580459332138E+01
 0.3516628872052E+01
 0.3469617393525E+01
 0.3441186399485E+01
 0.3432071081620E+01
 0.3442062693416E+01
 0.3471251550796E+01
 0.3525586934038E+01
 0.3607842625579E+01
 0.3732764559191E+01
 0.3800035304403E+01
 0.3254890303830E+01
 0.6489382765143E+01
 0.8152340255082E+01
 0.7309280541543E+01
 0.6637413630136E+01
 0.6374270169607E+01
 0.6167628438443E+01
 0.6011835560759E+01
 0.5878260385464E+01
 0.5758627433960E+01
 0.5647139596309E+01
 0.5540900209512E+01
 0.5438289403195E+01
 0.5338621485497E+01
 0.5241919810223E+01
 0.5148974315224E+01
 0.5061882187709E+01
 0.4985541661900E+01
 0.4919923014037E+01
 0.4850492070089E+01
 0.4763456822642E+01
 0.4658674201968E+01
 0.4542165951886E+01
 0.4420267428523E+01
 0.4297947673826E+01
 0.4178862266503E+01
 0.4065706260168E+01
 0.3960295773533E+01
 0.3863257792371E+01
 0.3776168712621E+01
 0.3703675358347E+01
 0.3651008719104E+01
 0.3622305007888E+01
 0.3621238890211E+01
 0.3650912502517E+01
 0.3713061185462E+01
 0.3808379125367E+01
 0.3941198840624E+01
 0.4156956158571E+01
 0.4483671583025E+01
 0.5182526106281E+01
 0.5472431271572E+01
 0.9510588900774E+01
 0.2352439136058E-01
 0.7265296007098E-01
 0.9920532237450E-01
 0.1125441078177E+00
 0.1189785577289E+00
 0.1219238019869E+00
 0.1226690413831E+00
 0.1209678870666E+00
 0.1155684509328E+00
 0.1047183088822E+00
 0.8680409313063E-01
 0.6119645856082E-01
 0.3034883611210E-01
 0.2787822176614E-01
 0.7089188317044E-01
 0.1225504106673E+00
 0.1775979172606E+00
 0.2338242366420E+00
 0.2898392453504E+00
 0.3342574471872E+00
 0.2810698769882E-01
 0.7862192449567E-01
 0.1071307332246E+00
 0.1219634196774E+00
 0.1289489481350E+00
 0.1314539373909E+00
 0.1308833920402E+00
 0.1272028626188E+00
 0.1194259609237E+00
 0.1060994890868E+00
 0.8591882776697E-01
 0.5851256095191E-01
 0.2713110676856E-01
 0.3190641248200E-01
 0.7717159089363E-01
 0.1299956465660E+00
 0.1861753410302E+00
 0.2438024117032E+00
 0.2972864318644E+00
 0.3365639509685E+00
 0.3202481964519E-01
 0.8347828016015E-01
 0.1135410874290E+00
 0.1296348987356E+00
 0.1371483738393E+00
 0.1393283229929E+00
 0.1376563553510E+00
 0.1322765821993E+00
 0.1224401363822E+00
 0.1069674341058E+00
 0.8481779376429E-01
 0.5584115329447E-01
 0.2436846879817E-01
 0.3607802452572E-01
 0.8306138683162E-01
 0.1368167126834E+00
 0.1937639999958E+00
 0.2509384731424E+00
 0.3021557491294E+00
 0.3435032344965E+00
 0.3545791236121E-01
 0.8731796241663E-01
 0.1185855882489E+00
 0.1357419489145E+00
 0.1437490493205E+00
 0.1457073433152E+00
 0.1431334656239E+00
 0.1363178240519E+00
 0.1247212340230E+00
 0.1074058830061E+00
 0.8355921960224E-01
 0.5324274482756E-01
 0.2217302807477E-01
 0.4015882473638E-01
 0.8843738818377E-01
 0.1428472848663E+00
 0.1999211558242E+00
 0.2562330965080E+00
 0.3070081328753E+00
 0.3508550372034E+00
 0.3848720858737E-01
 0.9029573146644E-01
 0.1224178599097E+00
 0.1404533467391E+00
 0.1489194474892E+00
 0.1507471866761E+00
 0.1474560276190E+00
 0.1394507804456E+00
 0.1263730384640E+00
 0.1074963131792E+00
 0.8220881001653E-01
 0.5077673993897E-01
 0.2061212700714E-01
 0.4397434359970E-01
 0.9318970358374E-01
 0.1479259334288E+00
 0.2047857040525E+00
 0.2605151483303E+00
 0.3115029324096E+00
 0.3575009464020E+00
 0.4117369735378E-01
 0.9253641675402E-01
 0.1251929954745E+00
 0.1439308188268E+00
 0.1528204628903E+00
 0.1545990906506E+00
 0.1507605769810E+00
 0.1417946205293E+00
 0.1274951952664E+00
 0.1073193915140E+00
 0.8083284821534E-01
 0.4849972386598E-01
 0.1967999880303E-01
 0.4739399524091E-01
 0.9722744923643E-01
 0.1520373674541E+00
 0.2085913014949E+00
 0.2639582408803E+00
 0.3153643481222E+00
 0.3630153440185E+00
 0.4356624780544E-01
 0.9414779692343E-01
 0.1270530791298E+00
 0.1463290301584E+00
 0.1556057914119E+00
 0.1574082087823E+00
 0.1531784789012E+00
 0.1434638351421E+00
 0.1281838930741E+00
 0.1069538742644E+00
 0.7949608468862E-01
 0.4646405869683E-01
 0.1928424961583E-01
 0.5032074833133E-01
 0.1005076926618E+00
 0.1552289961243E+00
 0.2114553276196E+00
 0.2665792760218E+00
 0.3183939799911E+00
 0.3672236439281E+00
 0.4570627105388E-01
 0.9522373761996E-01
 0.1281275066370E+00
 0.1477928745753E+00
 0.1574216634920E+00
 0.1593132953526E+00
 0.1548356666851E+00
 0.1445683527895E+00
 0.1285317304275E+00
 0.1064757862652E+00
 0.7826048066163E-01
 0.4471637336707E-01
 0.1926691314680E-01
 0.5268982150777E-01
 0.1030202267950E+00
 0.1575432862419E+00
 0.2134302680484E+00
 0.2683477578556E+00
 0.3204647620937E+00
 0.3700584480177E+00
 0.4762985159673E-01
 0.9584722171291E-01
 0.1285338023906E+00
 0.1484571463981E+00
 0.1584062063290E+00
 0.1604465023136E+00
 0.1558525199564E+00
 0.1452134399202E+00
 0.1286274307878E+00
 0.1059577576950E+00
 0.7718421772606E-01
 0.4329651518036E-01
 0.1944981999407E-01
 0.5446126326877E-01
 0.1047672174637E+00
 0.1590094799952E+00
 0.2145353978163E+00
 0.2692276677949E+00
 0.3214990346920E+00
 0.3715030444072E+00
 0.4936902871539E-01
 0.9609235647275E-01
 0.1283788896340E+00
 0.1484467841872E+00
 0.1586892943049E+00
 0.1609331937315E+00
 0.1563437554766E+00
 0.1454995507301E+00
 0.1285555368477E+00
 0.1054684782089E+00
 0.7632096277743E-01
 0.4223740111679E-01
 0.1967540521637E-01
 0.5561133492397E-01
 0.1057545730411E+00
 0.1596461442294E+00
 0.2147762681234E+00
 0.2691907260113E+00
 0.3214541184102E+00
 0.3715621430148E+00
 0.5095260795238E-01
 0.9602584867193E-01
 0.1277602828745E+00
 0.1478774430255E+00
 0.1583926710715E+00
 0.1608919057292E+00
 0.1564183410591E+00
 0.1455221865766E+00
 0.1283961492102E+00
 0.1050722922580E+00
 0.7571947227263E-01
 0.4156608036644E-01
 0.1982819972091E-01
 0.5612669209134E-01
 0.1059889899752E+00
 0.1594657900660E+00
 0.2141548407128E+00
 0.2682201562495E+00
 0.3203128031233E+00
 0.3702551666443E+00
 0.5240672227533E-01
 0.9570811024886E-01
 0.1267671540004E+00
 0.1468561712010E+00
 0.1576302505764E+00
 0.1604344249559E+00
 0.1561794684604E+00
 0.1453717949076E+00
 0.1282247442347E+00
 0.1048289751244E+00
 0.7542360478967E-01
 0.4130564057777E-01
 0.1984111781581E-01
 0.5600107619734E-01
 0.1054775643616E+00
 0.1584785977743E+00
 0.2126745763473E+00
 0.2663108038166E+00
 0.3180777936248E+00
 0.3676195217197E+00
 0.5375524003187E-01
 0.9519411720924E-01
 0.1254812622722E+00
 0.1454821085751E+00
 0.1565085181236E+00
 0.1596659666556E+00
 0.1557245979134E+00
 0.1451337343029E+00
 0.1281120948176E+00
 0.1047937051955E+00
 0.7547265186396E-01
 0.4147722933259E-01
 0.1969644682986E-01
 0.5523375957899E-01
 0.1042282755986E+00
 0.1566949448548E+00
 0.2103428019551E+00
 0.2634683145343E+00
 0.3147677759573E+00
 0.3637083634938E+00
 0.5502007775205E-01
 0.9453409772070E-01
 0.1239777659164E+00
 0.1438471682056E+00
 0.1551269861221E+00
 0.1586854286666E+00
 0.1551455756787E+00
 0.1448883171966E+00
 0.1281243018351E+00
 0.1050172018006E+00
 0.7590181784709E-01
 0.4210165048827E-01
 0.1942833382958E-01
 0.5382911613114E-01
 0.1022506449456E+00
 0.1541269567422E+00
 0.2071717025037E+00
 0.2597080299962E+00
 0.3104142115047E+00
 0.3585866346852E+00
 0.5622145111167E-01
 0.9377410029724E-01
 0.1223259367570E+00
 0.1420366887845E+00
 0.1535786795664E+00
 0.1575857047094E+00
 0.1545288206383E+00
 0.1447109311609E+00
 0.1283229235978E+00
 0.1055459678903E+00
 0.7674271634324E-01
 0.4320020140740E-01
 0.1912914188864E-01
 0.5179700786625E-01
 0.9955632516862E-01
 0.1507893857781E+00
 0.2031785793774E+00
 0.2550537519760E+00
 0.3050586990343E+00
 0.3523278525045E+00
 0.5737808457916E-01
 0.9295647718074E-01
 0.1205897983889E+00
 0.1401300564167E+00
 0.1519506380099E+00
 0.1564540442397E+00
 0.1539555721377E+00
 0.1446722300159E+00
 0.1287651786725E+00
 0.1064225825251E+00
 0.7802380462266E-01
 0.4479465967167E-01
 0.1895703303748E-01
 0.4915398240033E-01
 0.9615957328471E-01
 0.1467000424870E+00
 0.1983856853939E+00
 0.2495364819409E+00
 0.2987507601145E+00
 0.3450115347969E+00
 0.5850739245013E-01
 0.9212030779599E-01
 0.1188287059688E+00
 0.1382012998462E+00
 0.1503244281338E+00
 0.1553724499409E+00
 0.1535021898796E+00
 0.1448383813393E+00
 0.1295041966472E+00
 0.1076860040814E+00
 0.7977072061942E-01
 0.4690656191139E-01
 0.1913441073051E-01
 0.4592563834296E-01
 0.9207763872207E-01
 0.1418799326082E+00
 0.1928198184189E+00
 0.2431931909234E+00
 0.2915459553077E+00
 0.3367210697108E+00
 0.5962564102266E-01
 0.9130178110727E-01
 0.1170978838649E+00
 0.1363196660218E+00
 0.1487766652757E+00
 0.1544181062527E+00
 0.1532404959715E+00
 0.1452713554971E+00
 0.1305892948259E+00
 0.1093718593412E+00
 0.8200651490865E-01
 0.4955608337134E-01
 0.1991949243641E-01
 0.4215111335717E-01
 0.8733114237794E-01
 0.1363532122167E+00
 0.1865117863480E+00
 0.2360656508326E+00
 0.2835042471121E+00
 0.3275419843524E+00
 0.6074809808141E-01
 0.9053455119476E-01
 0.1154489350337E+00
 0.1345501835882E+00
 0.1473795443155E+00
 0.1536638337769E+00
 0.1532381497081E+00
 0.1460292427053E+00
 0.1320662644839E+00
 0.1115127053451E+00
 0.8475178927036E-01
 0.5276087624485E-01
 0.2154356682372E-01
 0.3789190441802E-01
 0.8194456242531E-01
 0.1301470414845E+00
 0.1794958162427E+00
 0.2281993357361E+00
 0.2746885567222E+00
 0.3175604407833E+00
 0.6188917451752E-01
 0.8985007774568E-01
 0.1139303348037E+00
 0.1329542225459E+00
 0.1462013819151E+00
 0.1531785658422E+00
 0.1535590468994E+00
 0.1471665869258E+00
 0.1339776552071E+00
 0.1141382585951E+00
 0.8802476428331E-01
 0.5653515300550E-01
 0.2414505750786E-01
 0.3325022490077E-01
 0.7594701939910E-01
 0.1232914034210E+00
 0.1718089542610E+00
 0.2196424233588E+00
 0.2651634448265E+00
 0.3068619019458E+00
 0.6306256190539E-01
 0.8927796130850E-01
 0.1125879207955E+00
 0.1315900585169E+00
 0.1453071728961E+00
 0.1530278444088E+00
 0.1542637367145E+00
 0.1487347275530E+00
 0.1363630496108E+00
 0.1172755913205E+00
 0.9184130279569E-01
 0.6088915939450E-01
 0.2775101886683E-01
 0.2840957475249E-01
 0.6937371196950E-01
 0.1158189531054E+00
 0.1634904815178E+00
 0.2104449114830E+00
 0.2549940042723E+00
 0.2955298716700E+00
 0.6428136929668E-01
 0.8884628206201E-01
 0.1114653902079E+00
 0.1305134501568E+00
 0.1447591639313E+00
 0.1532743330206E+00
 0.1554098499328E+00
 0.1507821416534E+00
 0.1392593236291E+00
 0.1209492980077E+00
 0.9621491511755E-01
 0.6582903983911E-01
 0.3231136313256E-01
 0.2372743556741E-01
 0.6226872030304E-01
 0.1077649718547E+00
 0.1545813785845E+00
 0.2006578082472E+00
 0.2442451035095E+00
 0.2836452863219E+00
 0.6555826223867E-01
 0.8858195025322E-01
 0.1106048154998E+00
 0.1297782382375E+00
 0.1446174476937E+00
 0.1539783445925E+00
 0.1570525330374E+00
 0.1533547808715E+00
 0.1427008897597E+00
 0.1251816376057E+00
 0.1011567667534E+00
 0.7135700473672E-01
 0.3774546275117E-01
 0.1992751780136E-01
 0.5469078897237E-01
 0.9916754279194E-01
 0.1451238517008E+00
 0.1903324516641E+00
 0.2329806855710E+00
 0.2712867259847E+00
 0.6690560709351E-01
 0.8851107631704E-01
 0.1100471895303E+00
 0.1294369747473E+00
 0.1449405801561E+00
 0.1551983814319E+00
 0.1592448827005E+00
 0.1564963980128E+00
 0.1467199222137E+00
 0.1299926578327E+00
 0.1066757023706E+00
 0.7747167634971E-01
 0.4397182200025E-01
 0.1828205292832E-01
 0.4672610519787E-01
 0.9006814617946E-01
 0.1351609620222E+00
 0.1795198984516E+00
 0.2212632640832E+00
 0.2585292998832E+00
 0.6833562406397E-01
 0.8865936897973E-01
 0.1098330113712E+00
 0.1295415899171E+00
 0.1457862228476E+00
 0.1569916841232E+00
 0.1620383750527E+00
 0.1602488589490E+00
 0.1513465640843E+00
 0.1354003082766E+00
 0.1127782930345E+00
 0.8416850307320E-01
 0.5091934641708E-01
 0.1999337283501E-01
 0.3851921915522E-01
 0.8051307605891E-01
 0.1247363892608E+00
 0.1682703930466E+00
 0.2091533016217E+00
 0.2454439695205E+00
 0.6986055294359E-01
 0.8905257045568E-01
 0.1100029242974E+00
 0.1301441044120E+00
 0.1472118106503E+00
 0.1594147848722E+00
 0.1654832837308E+00
 0.1646524357505E+00
 0.1566091171445E+00
 0.1414205484073E+00
 0.1194689088133E+00
 0.9144016630366E-01
 0.5852868679616E-01
 0.2488368256170E-01
 0.3035675604943E-01
 0.7055655290225E-01
 0.1138944085811E+00
 0.1566328680291E+00
 0.1967086227185E+00
 0.2320974793745E+00
 0.7149283663902E-01
 0.8971693937143E-01
 0.1105984180016E+00
 0.1312973931122E+00
 0.1492752442633E+00
 0.1625240596798E+00
 0.1696290800619E+00
 0.1697460766819E+00
 0.1625342144456E+00
 0.1480674551730E+00
 0.1267498162297E+00
 0.9927694117968E-01
 0.6675008551343E-01
 0.3190730692549E-01
 0.2291837238650E-01
 0.6026766915357E-01
 0.1026802211768E+00
 0.1446545140509E+00
 0.1839839765671E+00
 0.2185525788898E+00
 0.7324532905312E-01
 0.9067979454672E-01
 0.1116626080254E+00
 0.1330560059485E+00
 0.1520356046678E+00
 0.1663762721011E+00
 0.1745248075483E+00
 0.1755676474519E+00
 0.1691469739017E+00
 0.1553533319330E+00
 0.1346212987752E+00
 0.1076670021463E+00
 0.7554065984851E-01
 0.4026565289202E-01
 0.1795290776798E-01
 0.4974701661972E-01
 0.9114095033071E-01
 0.1323804777790E+00
 0.1710306966226E+00
 0.2048683329522E+00
 0.7513153631530E-01
 0.9197013685733E-01
 0.1132411073302E+00
 0.1354770507639E+00
 0.1555538855750E+00
 0.1710291005596E+00
 0.1802194230129E+00
 0.1821541386098E+00
 0.1764711308487E+00
 0.1632888198810E+00
 0.1430818024251E+00
 0.1165966901485E+00
 0.8486209485069E-01
 0.4952777217254E-01
 0.1840264194209E-01
 0.3917141368922E-01
 0.7932799087833E-01
 0.1198537169827E+00
 0.1578963987140E+00
 0.1911004408692E+00
 0.7716590378089E-01
 0.9361937239759E-01
 0.1153830075292E+00
 0.1386211417698E+00
 0.1598937363871E+00
 0.1765416375565E+00
 0.1867620935768E+00
 0.1895418302448E+00
 0.1845291414351E+00
 0.1718830043655E+00
 0.1521281025148E+00
 0.1260507669970E+00
 0.9467893492242E-01
 0.5946321025198E-01
 0.2446269629864E-01
 0.2893507305719E-01
 0.6730241644166E-01
 0.1071150918478E+00
 0.1446246069647E+00
 0.1773014126107E+00
 0.7936416703008E-01
 0.9566216983205E-01
 0.1181419919494E+00
 0.1425534158350E+00
 0.1651222040156E+00
 0.1829748453551E+00
 0.1942024367442E+00
 0.1977664041315E+00
 0.1933422455783E+00
 0.1811435009319E+00
 0.1617554813198E+00
 0.1360126863984E+00
 0.1049574389955E+00
 0.6993552160584E-01
 0.3351816938464E-01
 0.2017120720966E-01
 0.5514815783546E-01
 0.9420393247758E-01
 0.1312540383511E+00
 0.1635198598674E+00
 0.8174379396613E-01
 0.9813749932399E-01
 0.1215776085649E+00
 0.1473446152344E+00
 0.1713104548563E+00
 0.1903919478067E+00
 0.2025906905150E+00
 0.2068629970434E+00
 0.2029304819951E+00
 0.1910765036063E+00
 0.1719578965363E+00
 0.1464649084112E+00
 0.1156649536590E+00
 0.8085280269817E-01
 0.4396475620335E-01
 0.1625007153103E-01
 0.4300799809704E-01
 0.8115981074998E-01
 0.1178170924119E+00
 0.1497976896069E+00
 0.8432456068117E-01
 0.1010899234590E+00
 0.1257567374721E+00
 0.1530722269349E+00
 0.1785344456115E+00
 0.1988587305158E+00
 0.2119777992115E+00
 0.2168661930770E+00
 0.2133126554374E+00
 0.2016867782392E+00
 0.1827280993360E+00
 0.1573892469895E+00
 0.1267697889679E+00
 0.9214533636647E-01
 0.5515876884337E-01
 0.2064596630468E-01
 0.3120089957568E-01
 0.6802742314990E-01
 0.1043376702660E+00
 0.1361675518503E+00
 0.8712933157805E-01
 0.1045712450023E+00
 0.1307552893675E+00
 0.1598216413879E+00
 0.1868754835940E+00
 0.2084437014870E+00
 0.2224153877161E+00
 0.2278099411753E+00
 0.2245062501515E+00
 0.2129775820006E+00
 0.1940576193970E+00
 0.1687671347686E+00
 0.1382415276107E+00
 0.1037555670456E+00
 0.6681322361822E-01
 0.3011461146879E-01
 0.2070266976231E-01
 0.5486984365266E-01
 0.9082961786814E-01
 0.1226591294063E+00
 0.9018516701785E-01
 0.1086426822469E+00
 0.1366601579217E+00
 0.1676872544022E+00
 0.1964205884433E+00
 0.2192180752411E+00
 0.2339556150123E+00
 0.2397274089992E+00
 0.2365273193305E+00
 0.2249505560266E+00
 0.2059366173631E+00
 0.1805796027821E+00
 0.1500515637774E+00
 0.1156343919619E+00
 0.7876972270107E-01
 0.4140308943335E-01
 0.1508244370294E-01
 0.4180898788096E-01
 0.7729511786127E-01
 0.1092990697332E+00
 0.9352500748412E-01
 0.1133778083050E+00
 0.1435714073942E+00
 0.1767732782985E+00
 0.2072625311731E+00
 0.2312555185201E+00
 0.2466508873761E+00
 0.2526507364615E+00
 0.2493903459420E+00
 0.2376056259362E+00
 0.2183536607300E+00
 0.1928068326190E+00
 0.1621729858985E+00
 0.1277411419337E+00
 0.9092427700199E-01
 0.5338216853967E-01
 0.1943543129674E-01
 0.2917323013804E-01
 0.6372211861157E-01
 0.9609594255427E-01
 0.9719039996706E-01
 0.1188668600772E+00
 0.1516042282270E+00
 0.1871939676393E+00
 0.2194993167151E+00
 0.2446317837308E+00
 0.2605534106748E+00
 0.2666106665656E+00
 0.2631080978771E+00
 0.2509410217459E+00
 0.2312955829345E+00
 0.2054275327593E+00
 0.1745792179719E+00
 0.1400431321429E+00
 0.1032085310266E+00
 0.6562306468974E-01
 0.2963740986894E-01
 0.1819541588596E-01
 0.5008786729609E-01
 0.8301011493510E-01
 0.1012370459447E+00
 0.1252218452475E+00
 0.1608905316418E+00
 0.1990713911932E+00
 0.2332338067729E+00
 0.2594242181060E+00
 0.2757144684386E+00
 0.2816359312002E+00
 0.2776914131396E+00
 0.2649534379812E+00
 0.2447476361220E+00
 0.2184182595418E+00
 0.1872422634879E+00
 0.1525111397542E+00
 0.1155847339460E+00
 0.7793298245851E-01
 0.4137474530624E-01
 0.1397573727426E-01
 0.3641496118806E-01
 0.6987628521861E-01
 0.1057443886526E+00
 0.1325917617456E+00
 0.1715666457413E+00
 0.2125348698809E+00
 0.2485737856465E+00
 0.2757106951997E+00
 0.2921836349017E+00
 0.2977522672063E+00
 0.2931484850840E+00
 0.2796387031137E+00
 0.2586940147374E+00
 0.2317531814269E+00
 0.2001303654878E+00
 0.1651156324957E+00
 0.1280269351578E+00
 0.9025818285186E-01
 0.5336191395809E-01
 0.2063251637812E-01
 0.2309895109823E-01
 0.5617332802553E-01
 0.1108943891204E+00
 0.1410873181221E+00
 0.1837691983067E+00
 0.2277253481917E+00
 0.2656292295248E+00
 0.2935691776133E+00
 0.3100076144996E+00
 0.3149814560443E+00
 0.3094834111075E+00
 0.2949911908288E+00
 0.2731224549906E+00
 0.2454021956749E+00
 0.2132066411799E+00
 0.1778222993433E+00
 0.1405136239919E+00
 0.1025788984801E+00
 0.6538803405319E-01
 0.3088255409530E-01
 0.1344526682956E-01
 0.3990924791664E-01
 0.8858138547627E+00
 0.1085330860242E+01
 0.7876818815428E+00
 0.6047412852964E+00
 0.4678273220868E+00
 0.3572986948680E+00
 0.2624583713496E+00
 0.1770153673588E+00
 0.9140467289116E-01
 0.4183710606213E-02
 0.6368668542657E-01
 0.7309244738975E-01
 0.7137028299993E-01
 0.7248038416700E-01
 0.7614951495972E-01
 0.8028253127423E-01
 0.8402564700570E-01
 0.8661398156030E-01
 0.8772285977167E-01
 0.8717498423504E-01
 0.6740005810667E+00
 0.1026932191481E+01
 0.8235119787387E+00
 0.6221644427398E+00
 0.4728514815817E+00
 0.3519410639956E+00
 0.2463765199564E+00
 0.1470053012434E+00
 0.4663248206501E-01
 0.4891180291081E-01
 0.9366108225943E-01
 0.7903288636846E-01
 0.5963258208748E-01
 0.5823771158442E-01
 0.6694742722845E-01
 0.7755764425793E-01
 0.8699674808321E-01
 0.9425255781725E-01
 0.9891298551812E-01
 0.1004659539686E+00
 0.5265778719818E+00
 0.8639409452745E+00
 0.7913726069451E+00
 0.6244457801065E+00
 0.4720900387740E+00
 0.3447396840938E+00
 0.2315891392216E+00
 0.1241224623054E+00
 0.1884634548502E-01
 0.7350492818470E-01
 0.1115093086223E+00
 0.8856097510466E-01
 0.5605910217535E-01
 0.5239048769159E-01
 0.6873661099420E-01
 0.8670703063925E-01
 0.1018592933601E+00
 0.1135301747363E+00
 0.1213886180536E+00
 0.1257530848647E+00
 0.4183638221692E+00
 0.7134836129308E+00
 0.7128646047500E+00
 0.5993366214456E+00
 0.4618369819637E+00
 0.3343375544828E+00
 0.2178407758825E+00
 0.1072478788175E+00
 0.3274523619061E-02
 0.8545793736260E-01
 0.1201837448248E+00
 0.9586733257682E-01
 0.5591483339071E-01
 0.4915110130890E-01
 0.7348331657087E-01
 0.9915183127019E-01
 0.1203747990773E+00
 0.1369071413640E+00
 0.1487231197526E+00
 0.1564733751895E+00
 0.3353662032406E+00
 0.5830746494391E+00
 0.6210892365386E+00
 0.5514510244146E+00
 0.4385613274145E+00
 0.3190437915828E+00
 0.2040973211350E+00
 0.9445746121852E-01
 0.8207516771144E-02
 0.8954629991459E-01
 0.1222519517116E+00
 0.9961417980809E-01
 0.5663661399721E-01
 0.4637571661445E-01
 0.7757915211743E-01
 0.1107542031853E+00
 0.1384554247624E+00
 0.1605127058696E+00
 0.1770070909994E+00
 0.1886999238964E+00
 0.2700170504699E+00
 0.4722915311437E+00
 0.5285775884660E+00
 0.4912038664869E+00
 0.4034728901260E+00
 0.2975616958122E+00
 0.1890303644346E+00
 0.8384086945779E-01
 0.1336102723129E-01
 0.8881998924358E-01
 0.1197739659019E+00
 0.9989253575817E-01
 0.5683564038380E-01
 0.4375297767183E-01
 0.8041479126631E-01
 0.1203948984338E+00
 0.1546114073031E+00
 0.1825842388052E+00
 0.2042565762050E+00
 0.2202823521648E+00
 0.2175860056360E+00
 0.3786278640740E+00
 0.4409340537290E+00
 0.4257369769079E+00
 0.3602545549506E+00
 0.2701332830704E+00
 0.1716043138052E+00
 0.7377939045050E-01
 0.1641507438731E-01
 0.8540474209153E-01
 0.1143863763079E+00
 0.9732950876932E-01
 0.5588960866616E-01
 0.4139471314287E-01
 0.8230093912294E-01
 0.1280864607135E+00
 0.1684426264396E+00
 0.2023573545656E+00
 0.2294201129025E+00
 0.2499879344150E+00
 0.1749275306313E+00
 0.2995319205312E+00
 0.3604799107126E+00
 0.3596452437996E+00
 0.3124382772547E+00
 0.2380760154531E+00
 0.1514864315724E+00
 0.6311109852172E-01
 0.1878721666743E-01
 0.8084526595619E-01
 0.1073957871096E+00
 0.9271529312694E-01
 0.5370392207345E-01
 0.3942626843773E-01
 0.8364218629959E-01
 0.1341259560395E+00
 0.1799594884210E+00
 0.2195260861575E+00
 0.2519252121321E+00
 0.2770556303616E+00
 0.1398447702138E+00
 0.2327532150838E+00
 0.2880114137977E+00
 0.2957332051984E+00
 0.2628553273850E+00
 0.2030011276199E+00
 0.1289477781969E+00
 0.5120426320550E-01
 0.2150127305561E-01
 0.7626007688151E-01
 0.9983560449848E-01
 0.8684224961309E-01
 0.5049496144432E-01
 0.3793050117789E-01
 0.8470932245458E-01
 0.1387981490634E+00
 0.1892920172405E+00
 0.2339993510450E+00
 0.2714684670055E+00
 0.3010183227573E+00
 0.1107480120132E+00
 0.1763937889672E+00
 0.2235742380555E+00
 0.2356470697401E+00
 0.2135894456591E+00
 0.1664370866823E+00
 0.1045912920788E+00
 0.3788414856181E-01
 0.2518472801974E-01
 0.7241723861698E-01
 0.9249771735282E-01
 0.8042684560982E-01
 0.4662961497045E-01
 0.3694177783706E-01
 0.8561210352860E-01
 0.1422918594127E+00
 0.1965740914717E+00
 0.2457825667573E+00
 0.2879121383817E+00
 0.3216141162327E+00
 0.8645385297331E-01
 0.1288727639530E+00
 0.1668441445858E+00
 0.1802880906138E+00
 0.1660977248490E+00
 0.1296760985468E+00
 0.7914314947060E-01
 0.2331475573316E-01
 0.3013821370074E-01
 0.6978829428973E-01
 0.8595347714839E-01
 0.7406955352717E-01
 0.4251509891773E-01
 0.3642542542223E-01
 0.8633141517338E-01
 0.1446957584141E+00
 0.2019038132441E+00
 0.2549196677225E+00
 0.3012253908227E+00
 0.3387354921488E+00
 0.6606068282436E-01
 0.8887931907630E-01
 0.1173226109966E+00
 0.1300797859816E+00
 0.1213517951007E+00
 0.9373932563561E-01
 0.5332401356625E-01
 0.8160724176891E-02
 0.3641378873804E-01
 0.6860452456431E-01
 0.8057637761353E-01
 0.6823658405074E-01
 0.3852517796603E-01
 0.3626229888313E-01
 0.8676553284646E-01
 0.1460218504595E+00
 0.2053373639847E+00
 0.2614640439943E+00
 0.3114466495665E+00
 0.3523943108700E+00
 0.4886820430922E-01
 0.5534122962137E-01
 0.7444789044035E-01
 0.8514221947800E-01
 0.7996149496162E-01
 0.5939334476479E-01
 0.2778732241843E-01
 0.9583581231309E-02
 0.4389137039617E-01
 0.6891602467488E-01
 0.7657173096536E-01
 0.6325823177886E-01
 0.3495354934596E-01
 0.3626361474155E-01
 0.8677625514743E-01
 0.1462375010618E+00
 0.2068973415170E+00
 0.2654631076683E+00
 0.3186554828955E+00
 0.3626958873248E+00
 0.3432394727935E-01
 0.2748388511836E-01
 0.3770192668859E-01
 0.4542119924360E-01
 0.4227772861346E-01
 0.2718546619286E-01
 0.3386726882107E-02
 0.2568087247886E-01
 0.5234772150277E-01
 0.7064699192901E-01
 0.7401198471158E-01
 0.5934118057497E-01
 0.3199221413953E-01
 0.3621392334938E-01
 0.8623065984211E-01
 0.1453001511730E+00
 0.2065885701219E+00
 0.2669488984056E+00
 0.3229469305846E+00
 0.3698192474751E+00
 0.2198804556838E-01
 0.6934657162646E-02
 0.7882497097015E-02
 0.1109418605932E-01
 0.8608331894703E-02
 0.2534631059580E-02
 0.2058758600714E-01
 0.4195110546481E-01
 0.6151125117144E-01
 0.7364238626424E-01
 0.7287338892139E-01
 0.5659165349067E-01
 0.2973720498750E-01
 0.3591932124496E-01
 0.8503701620417E-01
 0.1431954348368E+00
 0.2044217622783E+00
 0.2659324944939E+00
 0.3244017744491E+00
 0.3740015792002E+00
 0.1151839468928E-01
 0.1741379798199E-01
 0.2152172773878E-01
 0.2007903478465E-01
 0.2175668727889E-01
 0.2950243993549E-01
 0.4251586807446E-01
 0.5779001183716E-01
 0.7110057983694E-01
 0.7770430316225E-01
 0.7306952261205E-01
 0.5504463108658E-01
 0.2822182344991E-01
 0.3523794815914E-01
 0.8317213136233E-01
 0.1399822753349E+00
 0.2004547775913E+00
 0.2624052056608E+00
 0.3230452234954E+00
 0.3755218493254E+00
 0.2865132986991E-02
 0.3301336026597E-01
 0.4351815625023E-01
 0.4568063925327E-01
 0.4796370988697E-01
 0.5365102687065E-01
 0.6268283311243E-01
 0.7288934234804E-01
 0.8084899014130E-01
 0.8261851043741E-01
 0.7447821003111E-01
 0.5469262003011E-01
 0.2746721637644E-01
 0.3407701132382E-01
 0.8068454401101E-01
 0.1358506434761E+00
 0.1948707191879E+00
 0.2563718028743E+00
 0.3187765553318E+00
 0.3746715805283E+00
 0.5449456944913E-02
 0.4607597904169E-01
 0.6192901439271E-01
 0.6742987665751E-01
 0.7060728290028E-01
 0.7495000967339E-01
 0.8092602533320E-01
 0.8702370729300E-01
 0.9051819729292E-01
 0.8817244244179E-01
 0.7696032285353E-01
 0.5550663324470E-01
 0.2752983747964E-01
 0.3236573499164E-01
 0.7762030006808E-01
 0.1311429282141E+00
 0.1881769586709E+00
 0.2479589378670E+00
 0.3112840527302E+00
 0.3716385939525E+00
 0.1194397644636E-01
 0.5675051728930E-01
 0.7700385411187E-01
 0.8555740420209E-01
 0.8985997808654E-01
 0.9344710464726E-01
 0.9716492452888E-01
 0.1000287365697E+00
 0.9990476500317E-01
 0.9416589824821E-01
 0.8037124771875E-01
 0.5744580549366E-01
 0.2852186999905E-01
 0.3003698312134E-01
 0.7390763244915E-01
 0.1260722736659E+00
 0.1813712356536E+00
 0.2382099877591E+00
 0.2997753401457E+00
 0.3661674103873E+00
 0.1767790293431E-01
 0.6529846062658E-01
 0.8910960712224E-01
 0.1004035451010E+00
 0.1059499686325E+00
 0.1092394314874E+00
 0.1113752993359E+00
 0.1117910531805E+00
 0.1088436961052E+00
 0.1004159412149E+00
 0.8456344418129E-01
 0.6046160395443E-01
 0.3059194308949E-01
 0.2708723315160E-01
 0.6929832822040E-01
 0.1204217336800E+00
 0.1747342307303E+00
 0.2299723828286E+00
 0.2862968679460E+00
 0.3539763367926E+00
 0.1178084066130E+00
 0.1522594314824E+00
 0.1999931490983E+00
 0.2478315026939E+00
 0.2879946314490E+00
 0.3166149816062E+00
 0.3324667992067E+00
 0.3359744971144E+00
 0.3285024298936E+00
 0.3118341510747E+00
 0.2878149867094E+00
 0.2581395591351E+00
 0.2243006178765E+00
 0.1875603300770E+00
 0.1491661775348E+00
 0.1103561591269E+00
 0.7239471933233E-01
 0.3695459183337E-01
 0.1238080648705E-01
 0.2209465424788E-01
 0.1252514247268E+00
 0.1661446168520E+00
 0.2203696192563E+00
 0.2731181742692E+00
 0.3159371935334E+00
 0.3450809501719E+00
 0.3597654588089E+00
 0.3609483373768E+00
 0.3504894984823E+00
 0.3305714338750E+00
 0.3033369052244E+00
 0.2707070284511E+00
 0.2342981121046E+00
 0.1953621721672E+00
 0.1551441950226E+00
 0.1148875863869E+00
 0.7594873114236E-01
 0.4018492767569E-01
 0.1364233609090E-01
 0.1935936508981E-01
 0.1335071301564E+00
 0.1823413499701E+00
 0.2439679622533E+00
 0.3018360362324E+00
 0.3470086813938E+00
 0.3760374858655E+00
 0.3887695516540E+00
 0.3868466781641E+00
 0.3727296718870E+00
 0.3490582231826E+00
 0.3182899807517E+00
 0.2825473135970E+00
 0.2435096599340E+00
 0.2024184336260E+00
 0.1605314396861E+00
 0.1191404767455E+00
 0.7971862034579E-01
 0.4428442536930E-01
 0.1623277673323E-01
 0.1869932933546E-01
 0.1428892574886E+00
 0.2011925604694E+00
 0.2711728851697E+00
 0.3342737511752E+00
 0.3812940622466E+00
 0.4093610164408E+00
 0.4191868043234E+00
 0.4132707553630E+00
 0.3947773622474E+00
 0.3668446329206E+00
 0.3322393276549E+00
 0.2932536029060E+00
 0.2515897251989E+00
 0.2084660868296E+00
 0.1651518352075E+00
 0.1229493634622E+00
 0.8332690975209E-01
 0.4782100689570E-01
 0.1807487654960E-01
 0.1793490006792E-01
 0.1536683011122E+00
 0.2232168268185E+00
 0.3024414070994E+00
 0.3707102872547E+00
 0.4188222348945E+00
 0.4448363981491E+00
 0.4506195943139E+00
 0.4397194436897E+00
 0.4160990866547E+00
 0.3834144449438E+00
 0.3447149930573E+00
 0.3024179576546E+00
 0.2582006115643E+00
 0.2132353972535E+00
 0.1687598061157E+00
 0.1259926133735E+00
 0.8618601403531E-01
 0.5036229868697E-01
 0.1933295428802E-01
 0.1685702116027E-01
 0.1661615286128E+00
 0.2490181556038E+00
 0.3383038114350E+00
 0.4114107729076E+00
 0.4595403758581E+00
 0.4821294939976E+00
 0.4825426998155E+00
 0.4655788257709E+00
 0.4360769005071E+00
 0.3982011219354E+00
 0.3552296402694E+00
 0.3096376508143E+00
 0.2630169174860E+00
 0.2164543181076E+00
 0.1710905612341E+00
 0.1279590556804E+00
 0.8803968693214E-01
 0.5198336614777E-01
 0.2019545180335E-01
 0.1551196901110E-01
 0.1807549577823E+00
 0.2793152774271E+00
 0.3793461368311E+00
 0.4566063892197E+00
 0.5032817533342E+00
 0.5207536791499E+00
 0.5142806673268E+00
 0.4901155369347E+00
 0.4540172545467E+00
 0.4106060919540E+00
 0.3632978669854E+00
 0.3145318754251E+00
 0.2657410407939E+00
 0.2178789545830E+00
 0.1719238884210E+00
 0.1286672693355E+00
 0.8882653966024E-01
 0.5278978164448E-01
 0.2077281389778E-01
 0.1400275142818E-01
 0.1979286253321E+00
 0.3149680088071E+00
 0.4262047307342E+00
 0.5064592325087E+00
 0.5497207805737E+00
 0.5600297924050E+00
 0.5449855255733E+00
 0.5124761645781E+00
 0.4691674871243E+00
 0.4200234977393E+00
 0.3684613466625E+00
 0.3167636957357E+00
 0.2661253275498E+00
 0.2173211030115E+00
 0.1711165248511E+00
 0.1280345368037E+00
 0.8855156110010E-01
 0.5286589210291E-01
 0.2110325525636E-01
 0.1242651563298E-01
 0.2182875116467E+00
 0.3570110428344E+00
 0.4795549078871E+00
 0.5610133205706E+00
 0.5983114676702E+00
 0.5990385527632E+00
 0.5736176525327E+00
 0.5316967665111E+00
 0.4807437849007E+00
 0.4258738101702E+00
 0.3703189500085E+00
 0.3160638382452E+00
 0.2639907685888E+00
 0.2146619511479E+00
 0.1685960479637E+00
 0.1260378396325E+00
 0.8724384249172E-01
 0.5226712253839E-01
 0.2118607825741E-01
 0.1086219934731E-01
 0.2426032754074E+00
 0.4066956135550E+00
 0.5400882451677E+00
 0.6201217515108E+00
 0.6482050441088E+00
 0.6365662436996E+00
 0.5989353711683E+00
 0.5467289714417E+00
 0.4879746301171E+00
 0.4276466361477E+00
 0.3685592165727E+00
 0.3122512776935E+00
 0.2592376096981E+00
 0.2098517604611E+00
 0.1643467324553E+00
 0.1226911738897E+00
 0.8494007575818E-01
 0.5102816190497E-01
 0.2100273664491E-01
 0.9369325280954E-02
 0.2718727588644E+00
 0.4655413531530E+00
 0.6084681586362E+00
 0.6833363855612E+00
 0.6981400230762E+00
 0.6710480068206E+00
 0.6195035701737E+00
 0.5564915749224E+00
 0.4901628303036E+00
 0.4249504098198E+00
 0.3629902583579E+00
 0.3052461639550E+00
 0.2518463441081E+00
 0.2029021099909E+00
 0.1583959186827E+00
 0.1180317300262E+00
 0.8167932526213E-01
 0.4917151309078E-01
 0.2052976369273E-01
 0.7989614416387E-02
 0.3074027276563E+00
 0.5354001624009E+00
 0.6852453343023E+00
 0.7497379879270E+00
 0.7462979151505E+00
 0.7005201384636E+00
 0.6337390238664E+00
 0.5599583068184E+00
 0.4867659474934E+00
 0.4175623011128E+00
 0.3535601625788E+00
 0.2950713234373E+00
 0.2418697354777E+00
 0.1938738713657E+00
 0.1508014462575E+00
 0.1121109700858E+00
 0.7750168411701E-01
 0.4671457063956E-01
 0.1974643514296E-01
 0.6748527016673E-02
 0.3509367170535E+00
 0.6185320768465E+00
 0.7706971859393E+00
 0.8176711843215E+00
 0.7901216596263E+00
 0.7226080755174E+00
 0.6400202868394E+00
 0.5562908498505E+00
 0.4774868147569E+00
 0.4054657104003E+00
 0.3403599222362E+00
 0.2818404807891E+00
 0.2294174774777E+00
 0.1828626943424E+00
 0.1416400723037E+00
 0.1049881951464E+00
 0.7244846194892E-01
 0.4367527729442E-01
 0.1863977914983E-01
 0.5656389486101E-02
 0.4048520787761E+00
 0.7176858394765E+00
 0.8645188702392E+00
 0.8843263987685E+00
 0.8261111579608E+00
 0.7346067072105E+00
 0.6369011629467E+00
 0.5450136544090E+00
 0.4623508134228E+00
 0.3888572400969E+00
 0.3236038015797E+00
 0.2657350653194E+00
 0.2146364430965E+00
 0.1699836431307E+00
 0.1309967276658E+00
 0.9672551622626E-01
 0.6656316414167E-01
 0.4007720217375E-01
 0.1720868248595E-01
 0.4709667243289E-02
 0.4724803496553E+00
 0.8361549259708E+00
 0.9652077102294E+00
 0.9450839362131E+00
 0.8496613992543E+00
 0.7337690669453E+00
 0.6234606303742E+00
 0.5261930968939E+00
 0.4417247815228E+00
 0.3681095739073E+00
 0.3035911797351E+00
 0.2469756141385E+00
 0.1976901594097E+00
 0.1553560213966E+00
 0.1189542439987E+00
 0.8738360110690E-01
 0.5989331884831E-01
 0.3595508193970E-01
 0.1546844656752E-01
 0.3893252127450E-02
 0.5586578716019E+00
 0.9776887733479E+00
 0.1068796929660E+01
 0.9925000552403E+00
 0.8551893236992E+00
 0.7179821676901E+00
 0.5997713850648E+00
 0.5004972892999E+00
 0.4162373262423E+00
 0.3437010712207E+00
 0.2806633290715E+00
 0.2257955733476E+00
 0.1787397539056E+00
 0.1390880272725E+00
 0.1055825208324E+00
 0.7701787149347E-01
 0.5249366461029E-01
 0.3136216015074E-01
 0.1345689288069E-01
 0.3183823523411E-02
 0.6707644028400E+00
 0.1145916594600E+01
 0.1165958588673E+01
 0.1015092044359E+01
 0.8371033365549E+00
 0.6871386884884E+00
 0.5671139869714E+00
 0.4690024647130E+00
 0.3866358651805E+00
 0.3161425582467E+00
 0.2551720026126E+00
 0.2024222261325E+00
 0.1579257636430E+00
 0.1212583368880E+00
 0.9092564731071E-01
 0.6567535949015E-01
 0.4443211033187E-01
 0.2638020209572E-01
 0.1124387134092E-01
 0.2552729848405E-02
 0.8207963081967E+00
 0.1340955791116E+01
 0.1235980374884E+01
 0.9961801211319E+00
 0.7942251438015E+00
 0.6439864344586E+00
 0.5274267649799E+00
 0.4328894016493E+00
 0.3536501476632E+00
 0.2859352534695E+00
 0.2274677324236E+00
 0.1770674276886E+00
 0.1353440169455E+00
 0.1018882415547E+00
 0.7498551270202E-01
 0.5339633219690E-01
 0.3579922789859E-01
 0.2113311212519E-01
 0.8943647693972E-02
 0.1960099427355E-02
 0.1031374118143E+01
 0.1549684036356E+01
 0.1224040376346E+01
 0.9291562146360E+00
 0.7335519977761E+00
 0.5922342160251E+00
 0.4826544162247E+00
 0.3931902190965E+00
 0.3179331529434E+00
 0.2535544418663E+00
 0.1979203439664E+00
 0.1499267187829E+00
 0.1110051224019E+00
 0.8087778156061E-01
 0.5770773635935E-01
 0.4024547498319E-01
 0.2671975206718E-01
 0.1577736940848E-01
 0.6759088863933E-02
 0.1335330848120E-02
 0.1344021089666E+01
 0.1575543817227E+01
 0.1095221599275E+01
 0.8359917049558E+00
 0.6625204340653E+00
 0.5352375689095E+00
 0.4342357055954E+00
 0.3507900284616E+00
 0.2800481872788E+00
 0.2193954717728E+00
 0.1669990464299E+00
 0.1213020924295E+00
 0.8458731406064E-01
 0.5787005369401E-01
 0.3909866729392E-01
 0.2637585742757E-01
 0.1734189719424E-01
 0.1047184430413E-01
 0.4935865833516E-02
 0.5399287229849E-03
 0.3591478872578E+00
 0.3663372352589E+00
 0.3762652544134E+00
 0.3838178708198E+00
 0.3884691236454E+00
 0.3900948686001E+00
 0.3885915072441E+00
 0.3838242011369E+00
 0.3756420891880E+00
 0.3639034385201E+00
 0.3485031092795E+00
 0.3294023947637E+00
 0.3066623065084E+00
 0.2804812303804E+00
 0.2512386306888E+00
 0.2195524687995E+00
 0.1863694841590E+00
 0.1531742137601E+00
 0.1223679915580E+00
 0.9900024094496E-01
 0.3710850788716E+00
 0.3833355621300E+00
 0.3936554357050E+00
 0.4023172115763E+00
 0.4085586926840E+00
 0.4119379523500E+00
 0.4121213656859E+00
 0.4088170952277E+00
 0.4017515826183E+00
 0.3906759687681E+00
 0.3753868627789E+00
 0.3557564289043E+00
 0.3317697392790E+00
 0.3035685563975E+00
 0.2715019596540E+00
 0.2361868423877E+00
 0.1986004611417E+00
 0.1602207666749E+00
 0.1236425874345E+00
 0.9225685680753E-01
 0.3798838361892E+00
 0.3969234496693E+00
 0.4095758374238E+00
 0.4198255205883E+00
 0.4276888447955E+00
 0.4327784570632E+00
 0.4346761260781E+00
 0.4329759373123E+00
 0.4272912821481E+00
 0.4172619697253E+00
 0.4025719804295E+00
 0.3829779125103E+00
 0.3583476901914E+00
 0.3287095627086E+00
 0.2943117026265E+00
 0.2556977470772E+00
 0.2137998422161E+00
 0.1701553200698E+00
 0.1271600697841E+00
 0.9100132292961E-01
 0.3872066167606E+00
 0.4070957539311E+00
 0.4227216719291E+00
 0.4352336824951E+00
 0.4450521637192E+00
 0.4520246005121E+00
 0.4557838413255E+00
 0.4558920590117E+00
 0.4518912139382E+00
 0.4433272186773E+00
 0.4297710289876E+00
 0.4108462059123E+00
 0.3862671297363E+00
 0.3558910534719E+00
 0.3197884939057E+00
 0.2783365697182E+00
 0.2323618171261E+00
 0.1833507733016E+00
 0.1342257644131E+00
 0.9176653773883E-01
 0.3935893176909E+00
 0.4151718841165E+00
 0.4332234767308E+00
 0.4481033353770E+00
 0.4600809266076E+00
 0.4691079414836E+00
 0.4748941095796E+00
 0.4770194095989E+00
 0.4749975473228E+00
 0.4683099648864E+00
 0.4564295322898E+00
 0.4388454687058E+00
 0.4150972238606E+00
 0.3848245165994E+00
 0.3478422202467E+00
 0.3042556459432E+00
 0.2546360613079E+00
 0.2003594798223E+00
 0.1443572417721E+00
 0.9347783721631E-01
 0.3989303934850E+00
 0.4215856870648E+00
 0.4414746798298E+00
 0.4584346576052E+00
 0.4725087864665E+00
 0.4836145041484E+00
 0.4914976360289E+00
 0.4957669171007E+00
 0.4959365262238E+00
 0.4914548009894E+00
 0.4817233461010E+00
 0.4661142005620E+00
 0.4439928658042E+00
 0.4147562817662E+00
 0.3778992489527E+00
 0.3331299651360E+00
 0.2805759136520E+00
 0.2211516784220E+00
 0.1573347112651E+00
 0.9568519409545E-01
 0.4030865025764E+00
 0.4264692996974E+00
 0.4476971649972E+00
 0.4663415152820E+00
 0.4822555453639E+00
 0.4952868976465E+00
 0.5051812638120E+00
 0.5115706292965E+00
 0.5139861722551E+00
 0.5118719937247E+00
 0.5045930697978E+00
 0.4914392901013E+00
 0.4716305586232E+00
 0.4443309713179E+00
 0.4086855806444E+00
 0.3639049863846E+00
 0.3094438149841E+00
 0.2453590079603E+00
 0.1730685723815E+00
 0.9804821436516E-01
 0.4059459507665E+00
 0.4298389778775E+00
 0.4520097682698E+00
 0.4719283541601E+00
 0.4893264888004E+00
 0.5039868574107E+00
 0.5156432381386E+00
 0.5239452772899E+00
 0.5284505929149E+00
 0.5286228978106E+00
 0.5238269011420E+00
 0.5133171673696E+00
 0.4962216716226E+00
 0.4715235681696E+00
 0.4380494951341E+00
 0.3944831924182E+00
 0.3394465250865E+00
 0.2717533481510E+00
 0.1910813282180E+00
 0.1003983770941E+00
 0.4074335655846E+00
 0.4316636808332E+00
 0.4544499751155E+00
 0.4752494819914E+00
 0.4937281162389E+00
 0.5096219246978E+00
 0.5226518057331E+00
 0.5324816989019E+00
 0.5386991644079E+00
 0.5408027059963E+00
 0.5381862985395E+00
 0.5301156641255E+00
 0.5156927658472E+00
 0.4938057947078E+00
 0.4630629144294E+00
 0.4217117320568E+00
 0.3675619280189E+00
 0.2979780435331E+00
 0.2102608673671E+00
 0.1036234721082E+00
 0.4074641789077E+00
 0.4318360372122E+00
 0.4549278287532E+00
 0.4762183826813E+00
 0.4953427970863E+00
 0.5120064412480E+00
 0.5259188951357E+00
 0.5367542048776E+00
 0.5441273935489E+00
 0.5475764793878E+00
 0.5465416602468E+00
 0.5403350485067E+00
 0.5280944862806E+00
 0.5087132382572E+00
 0.4807334400729E+00
 0.4421849060841E+00
 0.3903425882615E+00
 0.3213820207556E+00
 0.2300020458012E+00
 0.1105518153812E+00
 0.4060022927647E+00
 0.4302935494098E+00
 0.4533801952386E+00
 0.4747725300198E+00
 0.4940930885385E+00
 0.5110256221876E+00
 0.5252667078291E+00
 0.5364917551031E+00
 0.5443318712350E+00
 0.5483548472564E+00
 0.5480437357635E+00
 0.5427667843244E+00
 0.5317315100518E+00
 0.5139124775173E+00
 0.4879353228870E+00
 0.4518852047944E+00
 0.4029784940703E+00
 0.3369722213781E+00
 0.2470300544920E+00
 0.1217958288243E+00
 0.4030591207098E+00
 0.4270370974535E+00
 0.4498156021136E+00
 0.4709345250553E+00
 0.4900103995292E+00
 0.5067073650976E+00
 0.5207024701548E+00
 0.5316575644299E+00
 0.5391976739054E+00
 0.5428919386260E+00
 0.5422323636240E+00
 0.5366052209779E+00
 0.5252486618919E+00
 0.5071868671362E+00
 0.4811240417227E+00
 0.4452666541912E+00
 0.3970085243989E+00
 0.3323253967714E+00
 0.2444794294756E+00
 0.1200192461000E+00
 0.3986777427098E+00
 0.4221144195762E+00
 0.4443022106762E+00
 0.4648034334067E+00
 0.4832288825218E+00
 0.4992215615911E+00
 0.5124314283778E+00
 0.5224917439490E+00
 0.5289983972475E+00
 0.5314900012875E+00
 0.5294253545306E+00
 0.5221542366244E+00
 0.5088765191562E+00
 0.4885825258747E+00
 0.4599635845831E+00
 0.4212739231637E+00
 0.3701093006624E+00
 0.3030326469802E+00
 0.2148728415044E+00
 0.9726009908595E-01
 0.3929246050852E+00
 0.4156078730022E+00
 0.4369531838945E+00
 0.4565373491959E+00
 0.4739641351917E+00
 0.4888548600904E+00
 0.5008294317954E+00
 0.5094862141553E+00
 0.5143825974563E+00
 0.5150152544047E+00
 0.5107980051692E+00
 0.5010349028496E+00
 0.4848861108491E+00
 0.4613243735939E+00
 0.4290809302738E+00
 0.3865835599235E+00
 0.3319017673359E+00
 0.2627590243490E+00
 0.1768292577573E+00
 0.7384723288947E-01
 0.3858829645518E+00
 0.4076244624457E+00
 0.4279133269014E+00
 0.4463348790819E+00
 0.4624860106179E+00
 0.4759693244433E+00
 0.4863787519986E+00
 0.4932830211565E+00
 0.4962090364047E+00
 0.4946252039409E+00
 0.4879241651236E+00
 0.4754047433209E+00
 0.4562541120455E+00
 0.4295338009811E+00
 0.3941787810744E+00
 0.3490314208607E+00
 0.2929626622468E+00
 0.2252084981738E+00
 0.1463037825530E+00
 0.6045442571119E-01
 0.3776477747699E+00
 0.3982879335483E+00
 0.4173479789764E+00
 0.4344189189000E+00
 0.4490935324320E+00
 0.4609625037629E+00
 0.4696039107867E+00
 0.4745708748710E+00
 0.4753795130517E+00
 0.4714981335650E+00
 0.4623385744282E+00
 0.4472514995844E+00
 0.4255294939040E+00
 0.3964256154464E+00
 0.3592021908156E+00
 0.3132383228549E+00
 0.2582506664756E+00
 0.1947330648344E+00
 0.1247742167852E+00
 0.5305232434589E-01
 0.3683215256409E+00
 0.3877320281587E+00
 0.4054333747530E+00
 0.4210226361987E+00
 0.4340937832046E+00
 0.4442352098333E+00
 0.4510228477915E+00
 0.4540124765446E+00
 0.4527333484332E+00
 0.4466846776417E+00
 0.4353368551764E+00
 0.4181403809697E+00
 0.3945475866979E+00
 0.3640556522200E+00
 0.3262848482952E+00
 0.2811139519690E+00
 0.2289042822893E+00
 0.1708428163399E+00
 0.1093455267911E+00
 0.4825065132846E-01
 0.3580108410168E+00
 0.3760951046280E+00
 0.3923489540385E+00
 0.4063785692749E+00
 0.4177862317288E+00
 0.4261690281148E+00
 0.4311153794128E+00
 0.4322020646520E+00
 0.4289936503043E+00
 0.4210460828956E+00
 0.4079166377855E+00
 0.3891833806042E+00
 0.3644787895332E+00
 0.3335441764090E+00
 0.2963137043992E+00
 0.2530376513776E+00
 0.2044492653454E+00
 0.1519513805285E+00
 0.9773743722154E-01
 0.4470346806480E-01
 0.3468237021956E+00
 0.3635158010812E+00
 0.3782712940970E+00
 0.3907104119804E+00
 0.4004518025731E+00
 0.4071121325501E+00
 0.4103057019521E+00
 0.4096457660447E+00
 0.4047490422101E+00
 0.3952449982411E+00
 0.3807918856035E+00
 0.3611020546770E+00
 0.3359797243667E+00
 0.3053747489435E+00
 0.2694552076825E+00
 0.2286979637272E+00
 0.1839854866817E+00
 0.1366760414784E+00
 0.8858989463925E-01
 0.4185241450569E-01
 0.3348674369154E+00
 0.3501299106183E+00
 0.3633696160711E+00
 0.3742272861059E+00
 0.3823460724429E+00
 0.3873718381944E+00
 0.3889554706078E+00
 0.3867577261472E+00
 0.3804575596698E+00
 0.3697650998516E+00
 0.3544406631028E+00
 0.3343213476341E+00
 0.3093566338198E+00
 0.2796536395671E+00
 0.2455305083249E+00
 0.2075716186319E+00
 0.1666699760896E+00
 0.1240320052024E+00
 0.8111472313899E-01
 0.3947373379242E-01
 0.3222483674120E+00
 0.3360685797352E+00
 0.3478030731062E+00
 0.3571204873674E+00
 0.3636957610535E+00
 0.3672115041064E+00
 0.3673624799261E+00
 0.3638630600252E+00
 0.3564579524886E+00
 0.3449368300817E+00
 0.3291535724832E+00
 0.3090506781850E+00
 0.2846888368460E+00
 0.2562804067684E+00
 0.2242232260622E+00
 0.1891275481644E+00
 0.1518245001200E+00
 0.1133415123668E+00
 0.7483271950480E-01
 0.3746100911714E-01
 0.3090713551593E+00
 0.3214568177127E+00
 0.3317193634787E+00
 0.3395617877570E+00
 0.3446966139549E+00
 0.3468481747018E+00
 0.3457588131110E+00
 0.3411980564129E+00
 0.3329744702383E+00
 0.3209502780839E+00
 0.3050588687574E+00
 0.2853250102618E+00
 0.2618868920209E+00
 0.2350179275703E+00
 0.2051445230261E+00
 0.1728539930099E+00
 0.1388853072375E+00
 0.1040959971854E+00
 0.6940283141745E-01
 0.3570546102814E-01
 0.2954348980502E+00
 0.3064103747037E+00
 0.3152517027564E+00
 0.3217011451893E+00
 0.3255127028131E+00
 0.3264548011456E+00
 0.3243177885217E+00
 0.3189241631963E+00
 0.3101406146789E+00
 0.2978915259918E+00
 0.2821736544366E+00
 0.2630714087441E+00
 0.2407715279646E+00
 0.2155750970533E+00
 0.1879038478443E+00
 0.1582969390109E+00
 0.1273945245294E+00
 0.9590615289731E-01
 0.6456624532288E-01
 0.3408512285075E-01
 0.2814293723759E+00
 0.2910326906241E+00
 0.2985156880703E+00
 0.3036645081210E+00
 0.3062768427869E+00
 0.3061652558050E+00
 0.3031658599321E+00
 0.2971492421683E+00
 0.2880321595317E+00
 0.2757893562522E+00
 0.2604650444886E+00
 0.2421833807825E+00
 0.2211568327607E+00
 0.1976908163631E+00
 0.1721825909770E+00
 0.1451124159470E+00
 0.1170257227051E+00
 0.8850678473998E-01
 0.6014684252396E-01
 0.3251129783468E-01
 0.2671376313189E+00
 0.2754151171621E+00
 0.2816100255145E+00
 0.2855559007630E+00
 0.2870948107519E+00
 0.2860815034838E+00
 0.2823935261987E+00
 0.2759428665291E+00
 0.2666871490629E+00
 0.2546396322729E+00
 0.2398776037688E+00
 0.2225486699454E+00
 0.2028741587019E+00
 0.1811486050133E+00
 0.1577342576101E+00
 0.1330499170408E+00
 0.1075543091000E+00
 0.8172548655911E-01
 0.5603881685260E-01
 0.3094611308571E-01
 0.2526354069140E+00
 0.2596378091300E+00
 0.2646181138781E+00
 0.2674602160674E+00
 0.2680497683181E+00
 0.2662799475109E+00
 0.2620637587817E+00
 0.2553467773093E+00
 0.2461179897237E+00
 0.2344181139816E+00
 0.2203452829042E+00
 0.2040579335501E+00
 0.1857745460707E+00
 0.1657697539935E+00
 0.1443664574934E+00
 0.1219240239960E+00
 0.9882349489406E-01
 0.7545174259767E-01
 0.5218715789930E-01
 0.2938884469251E-01
 0.2379916492117E+00
 0.2437703752310E+00
 0.2476095385742E+00
 0.2494459537779E+00
 0.2492064933192E+00
 0.2468172284204E+00
 0.2422192833843E+00
 0.2353833764131E+00
 0.2263206138908E+00
 0.2150893820465E+00
 0.2017987543217E+00
 0.1866087372665E+00
 0.1697274409723E+00
 0.1514051270863E+00
 0.1319251698612E+00
 0.1115923122801E+00
 0.9071926007196E-01
 0.6961370814764E-01
 0.4856904123973E-01
 0.2786192457627E-01
 0.2232688175474E+00
 0.2278723957554E+00
 0.2306414711749E+00
 0.2315678585970E+00
 0.2306152722071E+00
 0.2277351868688E+00
 0.2228883148301E+00
 0.2160618261290E+00
 0.2072803783490E+00
 0.1966117534668E+00
 0.1841683286892E+00
 0.1701052873668E+00
 0.1546160704629E+00
 0.1379253143678E+00
 0.1202794673285E+00
 0.1019354104285E+00
 0.8314771103272E-01
 0.6415595022666E-01
 0.4517587860282E-01
 0.2640127216743E-01
 0.2085226662559E+00
 0.2119932810162E+00
 0.2137597191862E+00
 0.2138694081377E+00
 0.2123155398253E+00
 0.2090651929224E+00
 0.2040891119544E+00
 0.1973823765867E+00
 0.1889756732199E+00
 0.1789395957194E+00
 0.1673843056276E+00
 0.1544561100458E+00
 0.1403318123647E+00
 0.1252112458506E+00
 0.1093081813143E+00
 0.9283968637820E-01
 0.7601389942345E-01
 0.5901588403127E-01
 0.4199264913693E-01
 0.2504734791495E-01
 0.1938017836460E+00
 0.1961727478545E+00
 0.1970013209124E+00
 0.1963872281486E+00
 0.1943412448692E+00
 0.1908336338433E+00
 0.1858349448705E+00
 0.1793403221394E+00
 0.1713804578343E+00
 0.1620240568211E+00
 0.1513755275537E+00
 0.1395701124885E+00
 0.1267675606308E+00
 0.1131447920689E+00
 0.9888766448409E-01
 0.8418171042689E-01
 0.6920124665410E-01
 0.5409518697470E-01
 0.3896390109547E-01
 0.2382407560043E-01
 0.1791460749853E+00
 0.1804419763421E+00
 0.1803988649682E+00
 0.1791570773059E+00
 0.1767270273557E+00
 0.1730672145770E+00
 0.1681378368070E+00
 0.1619278059629E+00
 0.1544639309253E+00
 0.1458105056642E+00
 0.1360645814068E+00
 0.1253496673021E+00
 0.1138090067890E+00
 0.1015987636972E+00
 0.8888110244709E-01
 0.7581696894304E-01
 0.6255805208697E-01
 0.4923618990839E-01
 0.3594449818982E-01
 0.2267711274993E-01
 0.1645847622098E+00
 0.1648278846858E+00
 0.1639881165732E+00
 0.1622224322645E+00
 0.1595160808870E+00
 0.1557989340877E+00
 0.1510121049788E+00
 0.1451348175977E+00
 0.1381891176821E+00
 0.1302349500277E+00
 0.1213623891553E+00
 0.1116839003082E+00
 0.1013274707462E+00
 0.9043060078512E-01
 0.7913493366054E-01
 0.6758136937890E-01
 0.5590571351374E-01
 0.4423503903586E-01
 0.3268497487855E-01
 0.2135057105705E-01
 0.1501278306167E+00
 0.1493463262273E+00
 0.1478004347896E+00
 0.1456257505815E+00
 0.1427491727416E+00
 0.1390547389293E+00
 0.1344596100568E+00
 0.1289346599353E+00
 0.1225003100822E+00
 0.1152150806993E+00
 0.1071643232881E+00
 0.9845132727395E-01
 0.8919075199743E-01
 0.7950377339377E-01
 0.6951439837394E-01
 0.5934675823126E-01
 0.4912386198395E-01
 0.3897010408609E-01
 0.2902369458760E-01
 0.1949553801466E-01
 0.1357520401688E+00
 0.1339770858388E+00
 0.1318377961648E+00
 0.1293823575364E+00
 0.1264363463123E+00
 0.1228249142339E+00
 0.1184449278546E+00
 0.1132674149734E+00
 0.1073187210342E+00
 0.1006609230171E+00
 0.9337763427007E-01
 0.8556500923572E-01
 0.7732637448273E-01
 0.6876913726808E-01
 0.6000315990010E-01
 0.5114013518867E-01
 0.4229426558093E-01
 0.3358609961923E-01
 0.2515711162189E-01
 0.1720933553423E-01
 0.1214473149373E+00
 0.1187410988770E+00
 0.1161722342784E+00
 0.1135865341835E+00
 0.1106628509640E+00
 0.1071705469741E+00
 0.1030047219551E+00
 0.9815348992356E-01
 0.9265895484019E-01
 0.8659096923571E-01
 0.8003260689618E-01
 0.7307296630097E-01
 0.6580403701303E-01
 0.5831981699446E-01
 0.5071676120160E-01
 0.4309518642258E-01
 0.3556039515440E-01
 0.2822297994845E-01
 0.2119793364185E-01
 0.1459297260143E-01
 0.1072015023239E+00
 0.1037125423148E+00
 0.1009499555912E+00
 0.9838483209792E-01
 0.9553168450696E-01
 0.9214275478768E-01
 0.8815210146403E-01
 0.8358602047148E-01
 0.7850895718010E-01
 0.7299818457748E-01
 0.6713358079582E-01
 0.6099432345533E-01
 0.5465857908284E-01
 0.4820466791709E-01
 0.4171329972024E-01
 0.3527040107724E-01
 0.2897053392404E-01
 0.2291303362489E-01
 0.1718370888790E-01
 0.1181564232049E-01
 0.9301034861820E-01
 0.8907121431556E-01
 0.8640930480170E-01
 0.8394590008627E-01
 0.8110002120096E-01
 0.7771818691371E-01
 0.7382263058377E-01
 0.6948695472727E-01
 0.6479241950817E-01
 0.5981534986631E-01
 0.5462538123867E-01
 0.4928664317671E-01
 0.4385962842055E-01
 0.3840346682515E-01
 0.3297887546418E-01
 0.2765251841941E-01
 0.2250160837835E-01
 0.1762368836430E-01
 0.1311179762005E-01
 0.8990735599899E-02
 0.7893731642724E-01
 0.7521740853034E-01
 0.7290114185681E-01
 0.7035838281043E-01
 0.6728379796703E-01
 0.6374566542625E-01
 0.5985574539993E-01
 0.5570981162378E-01
 0.5138270757987E-01
 0.4693454082548E-01
 0.4241595733532E-01
 0.3787133849930E-01
 0.3334073663700E-01
 0.2886155503937E-01
 0.2447096625283E-01
 0.2020981194580E-01
 0.1613119552438E-01
 0.1231051869296E-01
 0.8914434745620E-02
 0.6100596673685E-02
 0.6547752204930E-01
 0.6308409383522E-01
 0.6059940507642E-01
 0.5737041359020E-01
 0.5374545833980E-01
 0.4992620897430E-01
 0.4601756084269E-01
 0.4207678788718E-01
 0.3814222843647E-01
 0.3424486002050E-01
 0.3041204924901E-01
 0.2666809363621E-01
 0.2303375738749E-01
 0.1952587965866E-01
 0.1615779073880E-01
 0.1294160603210E-01
 0.9893609680118E-02
 0.7053682973441E-02
 0.4508651179489E-02
 0.2863236688130E-02
 0.5393245838197E-01
 0.5292107020817E-01
 0.4862508975012E-01
 0.4416575376877E-01
 0.3992766985854E-01
 0.3592111271362E-01
 0.3211126893472E-01
 0.2847504434872E-01
 0.2500582896494E-01
 0.2170807997154E-01
 0.1859161496675E-01
 0.1566705606037E-01
 0.1294239048296E-01
 0.1042041842536E-01
 0.8097174626001E-02
 0.5961954151007E-02
 0.4002476574613E-02
 0.2230560732134E-02
 0.9871724221480E-03
 0.1662060642625E-02
</DataArray>
<DataArray type="Float64" Name="OI" NumberOfComponents="1" ComponentName0="OI" format="ascii">
 0.7119069846484E+01
 0.6402979088394E+01
 0.5821125960836E+01
 0.5588166310236E+01
 0.5399879920138E+01
 0.5252770165435E+01
 0.5122606800019E+01
 0.5002606389877E+01
 0.4887967362815E+01
 0.4776302922131E+01
 0.4666255296321E+01
 0.4557209796049E+01
 0.4449099744481E+01
 0.4342444487023E+01
 0.4238776082248E+01
 0.4141829215252E+01
 0.4051129440476E+01
 0.3954412642280E+01
 0.3840509246259E+01
 0.3709698595286E+01
 0.3567226107491E+01
 0.3418445580182E+01
 0.3267505184773E+01
 0.3117463767695E+01
 0.2970644271278E+01
 0.2828788779403E+01
 0.2692953234609E+01
 0.2565086378222E+01
 0.2449379531807E+01
 0.2350408129916E+01
 0.2272035075532E+01
 0.2217922945364E+01
 0.2191502518605E+01
 0.2195461658524E+01
 0.2231824871780E+01
 0.2304242612650E+01
 0.2440326404245E+01
 0.2655301923412E+01
 0.3114557748424E+01
 0.3323583345136E+01
 0.5949346822692E+01
 0.6034856855743E+01
 0.6221342079681E+01
 0.5766519738794E+01
 0.5481173114178E+01
 0.5292176385474E+01
 0.5136246904128E+01
 0.5002403701918E+01
 0.4880036543743E+01
 0.4764497733527E+01
 0.4652884099475E+01
 0.4543614638088E+01
 0.4435870987654E+01
 0.4329407722146E+01
 0.4224540563584E+01
 0.4122069133287E+01
 0.4022212263383E+01
 0.3922639231582E+01
 0.3818291936305E+01
 0.3704474744194E+01
 0.3579828800306E+01
 0.3446223968825E+01
 0.3306841968044E+01
 0.3164770731868E+01
 0.3022588165143E+01
 0.2882352950099E+01
 0.2745729106857E+01
 0.2614311555301E+01
 0.2490116467735E+01
 0.2375783397913E+01
 0.2274246225020E+01
 0.2188254396536E+01
 0.2120112373209E+01
 0.2071531837170E+01
 0.2043633587775E+01
 0.2037547647185E+01
 0.2057645278708E+01
 0.2105691475671E+01
 0.2190901429127E+01
 0.2249933677001E+01
 0.1934339902923E+01
 0.4027449625262E+01
 0.5381757167651E+01
 0.5789791067494E+01
 0.5617706317179E+01
 0.5354313951282E+01
 0.5166944982873E+01
 0.5012318723582E+01
 0.4877510710841E+01
 0.4754883791615E+01
 0.4639496851532E+01
 0.4528561180459E+01
 0.4420382100967E+01
 0.4314029698566E+01
 0.4209096815157E+01
 0.4105574338416E+01
 0.4003320656330E+01
 0.3901064476911E+01
 0.3796667244300E+01
 0.3688393138521E+01
 0.3574763902678E+01
 0.3454548825174E+01
 0.3327883186564E+01
 0.3196299644635E+01
 0.3061863422045E+01
 0.2926587438112E+01
 0.2792226889837E+01
 0.2660361711282E+01
 0.2532643570424E+01
 0.2410825907807E+01
 0.2296644619063E+01
 0.2191861224117E+01
 0.2098136710663E+01
 0.2016671326393E+01
 0.1948004846337E+01
 0.1892132609634E+01
 0.1849366437010E+01
 0.1819539304151E+01
 0.1796328905235E+01
 0.1760701309670E+01
 0.1600190198703E+01
 0.1408138066692E+01
 0.3366604573434E+01
 0.4925368156203E+01
 0.5365629578404E+01
 0.5381132589318E+01
 0.5199140951915E+01
 0.5026647803011E+01
 0.4879325244761E+01
 0.4747585105175E+01
 0.4626648811068E+01
 0.4512645895507E+01
 0.4403080089481E+01
 0.4296373240377E+01
 0.4191563968896E+01
 0.4088114031081E+01
 0.3985659696178E+01
 0.3883410324676E+01
 0.3779657076878E+01
 0.3672857778441E+01
 0.3562913913530E+01
 0.3449953056267E+01
 0.3333204727900E+01
 0.3212066308127E+01
 0.3086958532349E+01
 0.2959066242403E+01
 0.2829833867650E+01
 0.2700687192673E+01
 0.2573033869438E+01
 0.2448359550640E+01
 0.2328066213947E+01
 0.2213260495738E+01
 0.2104869368543E+01
 0.2003669727631E+01
 0.1910020852044E+01
 0.1823682960625E+01
 0.1743994103513E+01
 0.1670139891252E+01
 0.1599284760373E+01
 0.1521233504265E+01
 0.1405615840690E+01
 0.1207499954532E+01
 0.1261469420487E+01
 0.3011175379164E+01
 0.4574733584829E+01
 0.4989821163963E+01
 0.5109897069260E+01
 0.5013801402737E+01
 0.4872288971453E+01
 0.4737413836697E+01
 0.4612297034490E+01
 0.4495110440683E+01
 0.4383713849887E+01
 0.4276263211958E+01
 0.4171453904042E+01
 0.4068394907924E+01
 0.3966460581065E+01
 0.3865015500080E+01
 0.3762942805937E+01
 0.3658572120595E+01
 0.3550936773477E+01
 0.3440761451715E+01
 0.3328959243182E+01
 0.3215176967569E+01
 0.3098570732055E+01
 0.2978881107039E+01
 0.2856598117173E+01
 0.2732643383363E+01
 0.2608097828216E+01
 0.2484126237503E+01
 0.2361951597188E+01
 0.2242616844018E+01
 0.2126753746323E+01
 0.2014695081895E+01
 0.1906572117906E+01
 0.1802164588695E+01
 0.1700798457527E+01
 0.1601483523140E+01
 0.1502821043314E+01
 0.1401320589829E+01
 0.1286757732524E+01
 0.1140113090027E+01
 0.9920876874030E+00
 0.1253525594489E+01
 0.2762253172805E+01
 0.4287375445181E+01
 0.4661616594760E+01
 0.4834060903714E+01
 0.4808198232951E+01
 0.4704771522197E+01
 0.4587388993765E+01
 0.4471721374860E+01
 0.4360201446710E+01
 0.4252593520809E+01
 0.4148001905231E+01
 0.4045541817335E+01
 0.3944483808784E+01
 0.3844183092928E+01
 0.3743857140019E+01
 0.3642301949970E+01
 0.3538075765812E+01
 0.3430671537857E+01
 0.3321218459512E+01
 0.3210987418005E+01
 0.3099925600520E+01
 0.2987169431918E+01
 0.2872076427749E+01
 0.2754624097659E+01
 0.2635281538388E+01
 0.2514787196504E+01
 0.2394025957617E+01
 0.2273926044283E+01
 0.2155196796519E+01
 0.2038104194845E+01
 0.1922568584644E+01
 0.1808295922024E+01
 0.1694734642535E+01
 0.1581065411558E+01
 0.1466321420744E+01
 0.1349282368466E+01
 0.1227367693333E+01
 0.1094678903055E+01
 0.9521772869294E+00
 0.8842486626788E+00
 0.1277650842701E+01
 0.2564262599335E+01
 0.4040906909937E+01
 0.4372831842329E+01
 0.4567231272390E+01
 0.4592744996529E+01
 0.4526941712108E+01
 0.4430245797153E+01
 0.4326287151838E+01
 0.4222022748910E+01
 0.4119284397283E+01
 0.4018258705877E+01
 0.3918602853136E+01
 0.3819828963369E+01
 0.3721351363021E+01
 0.3622361896068E+01
 0.3521722308491E+01
 0.3418276769500E+01
 0.3311860876563E+01
 0.3203785337959E+01
 0.3095453094556E+01
 0.2987003545557E+01
 0.2877638619853E+01
 0.2766520016318E+01
 0.2653266199542E+01
 0.2537972182111E+01
 0.2421053892390E+01
 0.2303108509998E+01
 0.2184772479777E+01
 0.2066461807811E+01
 0.1948165498850E+01
 0.1829535550102E+01
 0.1710041994538E+01
 0.1589019997107E+01
 0.1465752184043E+01
 0.1339643017346E+01
 0.1210296902069E+01
 0.1077284069926E+01
 0.9414646527773E+00
 0.8229648492843E+00
 0.8362094497150E+00
 0.1296903068201E+01
 0.2396959999860E+01
 0.3822475727656E+01
 0.4115335225212E+01
 0.4314548323798E+01
 0.4375102224995E+01
 0.4342437889655E+01
 0.4267356410192E+01
 0.4176621397299E+01
 0.4080836739455E+01
 0.3983880980965E+01
 0.3887061604071E+01
 0.3790647538301E+01
 0.3694458933751E+01
 0.3598043107219E+01
 0.3500665393090E+01
 0.3401342172023E+01
 0.3299202796156E+01
 0.3194330904672E+01
 0.3088098358440E+01
 0.2981921530315E+01
 0.2876050174766E+01
 0.2769773740033E+01
 0.2662169123550E+01
 0.2552613793291E+01
 0.2440904630182E+01
 0.2327167914322E+01
 0.2211726474330E+01
 0.2094947612584E+01
 0.1977000748449E+01
 0.1857674953150E+01
 0.1736471031249E+01
 0.1612779390732E+01
 0.1486002803345E+01
 0.1355731867410E+01
 0.1222025369318E+01
 0.1085769024838E+01
 0.9493961727001E+00
 0.8208792004064E+00
 0.7352905713769E+00
 0.8175619265502E+00
 0.1302010213346E+01
 0.2250694115621E+01
 0.3624205324895E+01
 0.3882501090995E+01
 0.4077156921455E+01
 0.4160136578967E+01
 0.4154674183061E+01
 0.4100339863819E+01
 0.4023497655283E+01
 0.3937023592544E+01
 0.3846561754458E+01
 0.3754495541650E+01
 0.3661725747933E+01
 0.3568425699144E+01
 0.3474336289324E+01
 0.3378868376498E+01
 0.3281239246053E+01
 0.3180840030482E+01
 0.3077932017011E+01
 0.2973883832151E+01
 0.2870064785602E+01
 0.2766778191372E+01
 0.2663396326288E+01
 0.2558973595431E+01
 0.2452732380153E+01
 0.2344239239278E+01
 0.2233370932353E+01
 0.2120202905674E+01
 0.2004866682133E+01
 0.1887333747228E+01
 0.1767261180917E+01
 0.1644094235094E+01
 0.1517268201308E+01
 0.1386395564573E+01
 0.1251531106148E+01
 0.1113578402512E+01
 0.9749449388321E+00
 0.8410759713738E+00
 0.7261865467796E+00
 0.6756187327012E+00
 0.8105012882587E+00
 0.1292914010043E+01
 0.2119824922979E+01
 0.3441007676229E+01
 0.3669219582630E+01
 0.3854439469559E+01
 0.3950630801297E+01
 0.3966404344133E+01
 0.3930831798515E+01
 0.3867779435659E+01
 0.3791043506007E+01
 0.3707570972174E+01
 0.3620693233324E+01
 0.3531920112416E+01
 0.3441798837963E+01
 0.3350306233513E+01
 0.3257045506582E+01
 0.3161454019065E+01
 0.3063154694281E+01
 0.2962536161444E+01
 0.2860930710207E+01
 0.2759632069030E+01
 0.2658959857625E+01
 0.2558355198142E+01
 0.2456882819164E+01
 0.2353670397664E+01
 0.2248111755393E+01
 0.2139876696125E+01
 0.2028827798634E+01
 0.1914899272876E+01
 0.1797912342527E+01
 0.1677451541278E+01
 0.1552983584140E+01
 0.1424083829047E+01
 0.1290677929540E+01
 0.1153386449751E+01
 0.1014049617515E+01
 0.8766309519626E+00
 0.7493228483350E+00
 0.6512787734867E+00
 0.6338810225711E+00
 0.8055464200946E+00
 0.1271997136020E+01
 0.2000586147193E+01
 0.3269448698624E+01
 0.3471606568937E+01
 0.3645091501699E+01
 0.3747980333633E+01
 0.3779649903795E+01
 0.3760311677270E+01
 0.3710349536863E+01
 0.3643402981666E+01
 0.3567198923146E+01
 0.3485824559427E+01
 0.3401339137057E+01
 0.3314660783745E+01
 0.3226025111196E+01
 0.3135253237920E+01
 0.3042004904542E+01
 0.2946105004805E+01
 0.2848034284969E+01
 0.2749073252610E+01
 0.2650429170989E+01
 0.2552414783157E+01
 0.2454524657349E+01
 0.2355849602702E+01
 0.2255464136413E+01
 0.2152636732407E+01
 0.2046871820009E+01
 0.1937856650769E+01
 0.1825367939615E+01
 0.1709121382490E+01
 0.1588679882948E+01
 0.1463591861807E+01
 0.1333641296912E+01
 0.1199133584261E+01
 0.1061303100456E+01
 0.9229278604864E+00
 0.7893999933249E+00
 0.6711791108701E+00
 0.5910543662452E+00
 0.6028733894135E+00
 0.7981278896170E+00
 0.1241842321247E+01
 0.1890272653578E+01
 0.3107122398123E+01
 0.3286706645201E+01
 0.3447625464973E+01
 0.3552712997944E+01
 0.3595787978053E+01
 0.3590015796770E+01
 0.3552046355315E+01
 0.3494622606196E+01
 0.3425763064150E+01
 0.3350085408775E+01
 0.3270110342708E+01
 0.3187102942184E+01
 0.3101562305820E+01
 0.3013535980662E+01
 0.2922897950851E+01
 0.2829647822088E+01
 0.2734333951130E+01
 0.2638179507322E+01
 0.2542303993843E+01
 0.2446999802403E+01
 0.2351801348834E+01
 0.2255831897332E+01
 0.2158141066889E+01
 0.2057910223672E+01
 0.1954516914804E+01
 0.1847510463972E+01
 0.1736548710242E+01
 0.1621282280464E+01
 0.1501294747253E+01
 0.1376261193271E+01
 0.1246218954854E+01
 0.1111886263411E+01
 0.9751114992808E+00
 0.8395383365000E+00
 0.7117583208080E+00
 0.6039608502893E+00
 0.5414337618778E+00
 0.5776401712055E+00
 0.7863355767307E+00
 0.1204608449970E+01
 0.1786864137435E+01
 0.2952287816818E+01
 0.3112253469239E+01
 0.3260595516100E+01
 0.3364839931206E+01
 0.3415685647555E+01
 0.3420915349073E+01
 0.3393619621876E+01
 0.3345208505631E+01
 0.3283590719668E+01
 0.3213686894712E+01
 0.3138373678122E+01
 0.3059222383583E+01
 0.2976984888129E+01
 0.2891930535642E+01
 0.2804132957858E+01
 0.2713742231107E+01
 0.2621357136995E+01
 0.2528143304803E+01
 0.2435136181799E+01
 0.2342600829425E+01
 0.2250100721268E+01
 0.2156793130417E+01
 0.2061721943027E+01
 0.1964011899810E+01
 0.1862947967819E+01
 0.1757976725228E+01
 0.1648672857641E+01
 0.1534657246283E+01
 0.1415567888108E+01
 0.1291237631018E+01
 0.1161981086908E+01
 0.1028933606192E+01
 0.8945187514864E+00
 0.7631226333482E+00
 0.6422613171817E+00
 0.5453526074992E+00
 0.4992418608349E+00
 0.5549100332624E+00
 0.7696102422323E+00
 0.1161947756160E+01
 0.1688817656680E+01
 0.2803649249517E+01
 0.2946490072129E+01
 0.3082687536943E+01
 0.3184081041611E+01
 0.3239830528267E+01
 0.3253732478750E+01
 0.3235706917601E+01
 0.3195630102513E+01
 0.3141004003848E+01
 0.3076845511104E+01
 0.3006275430093E+01
 0.2931118909605E+01
 0.2852357867777E+01
 0.2770469062881E+01
 0.2685707204231E+01
 0.2598351305807E+01
 0.2509038209408E+01
 0.2418878471292E+01
 0.2328829539211E+01
 0.2239126383994E+01
 0.2149353570567E+01
 0.2058701719186E+01
 0.1966222029442E+01
 0.1871006721297E+01
 0.1772277874364E+01
 0.1669411039421E+01
 0.1561929514868E+01
 0.1449454158242E+01
 0.1331702899862E+01
 0.1208685117311E+01
 0.1080998965708E+01
 0.9501778394529E+00
 0.8191529436215E+00
 0.6929005745392E+00
 0.5795825820074E+00
 0.4934207522454E+00
 0.4620592254473E+00
 0.5326144126713E+00
 0.7480369016912E+00
 0.1115080563222E+01
 0.1594937516371E+01
 0.2660218185483E+01
 0.2788037613488E+01
 0.2912745338183E+01
 0.3010005299556E+01
 0.3068439764049E+01
 0.3088973949038E+01
 0.3078826802487E+01
 0.3046305221408E+01
 0.2998307598867E+01
 0.2939774580385E+01
 0.2873962789801E+01
 0.2802892400005E+01
 0.2727744125226E+01
 0.2649180899255E+01
 0.2567617580870E+01
 0.2483442776341E+01
 0.2397322073644E+01
 0.2310314497477E+01
 0.2223306375494E+01
 0.2136502463639E+01
 0.2049502890549E+01
 0.1961530158392E+01
 0.1871651740657E+01
 0.1778946276397E+01
 0.1682598044403E+01
 0.1581939176516E+01
 0.1476468821275E+01
 0.1365831792958E+01
 0.1249843736344E+01
 0.1128698607125E+01
 0.1003269993470E+01
 0.8754526268391E+00
 0.7485993852610E+00
 0.6281140669412E+00
 0.5225473615571E+00
 0.4465859550883E+00
 0.4280782114063E+00
 0.5095083246262E+00
 0.7219801526395E+00
 0.1064897335340E+01
 0.1504287269935E+01
 0.2521223725855E+01
 0.2635800204758E+01
 0.2749767965409E+01
 0.2842115713069E+01
 0.2901544413171E+01
 0.2926969876046E+01
 0.2923383108277E+01
 0.2897592064671E+01
 0.2855779719755E+01
 0.2802677214621E+01
 0.2741579173558E+01
 0.2674640417022E+01
 0.2603204049298E+01
 0.2528093518981E+01
 0.2449861663403E+01
 0.2368989032146E+01
 0.2286162484810E+01
 0.2202393197003E+01
 0.2118503205389E+01
 0.2034668477177E+01
 0.1950501114160E+01
 0.1865253936637E+01
 0.1778016913078E+01
 0.1687869876765E+01
 0.1593980030162E+01
 0.1495659359124E+01
 0.1392405365008E+01
 0.1283905181997E+01
 0.1170082926429E+01
 0.1051316168512E+01
 0.9287346911283E+00
 0.8045457740472E+00
 0.6824287502028E+00
 0.5680553874777E+00
 0.4701420242020E+00
 0.4035791945172E+00
 0.3959749579420E+00
 0.4848918485075E+00
 0.6919034259197E+00
 0.1012049365161E+01
 0.1416127833689E+01
 0.2386052758605E+01
 0.2488895768798E+01
 0.2592895168973E+01
 0.2679899272955E+01
 0.2739051931170E+01
 0.2767910843485E+01
 0.2769675641275E+01
 0.2749786745605E+01
 0.2713666207019E+01
 0.2665740884809E+01
 0.2609260351061E+01
 0.2546456081609E+01
 0.2478794958377E+01
 0.2407232884830E+01
 0.2332438086298E+01
 0.2254966728751E+01
 0.2175520512122E+01
 0.2095066062073E+01
 0.2014367421567E+01
 0.1933574009420E+01
 0.1852307756051E+01
 0.1769850437626E+01
 0.1685318868712E+01
 0.1597805484053E+01
 0.1506477137914E+01
 0.1410644662745E+01
 0.1309821744548E+01
 0.1203750911874E+01
 0.1092469326703E+01
 0.9765299279537E+00
 0.8572914257736E+00
 0.7372178048344E+00
 0.6202178199797E+00
 0.5120833664897E+00
 0.4215091531673E+00
 0.3633942760549E+00
 0.3648004250950E+00
 0.4584151797005E+00
 0.6582837719558E+00
 0.9570218495043E+00
 0.1329873632197E+01
 0.2254208966626E+01
 0.2346605499292E+01
 0.2441389213562E+01
 0.2522855101710E+01
 0.2580791058853E+01
 0.2611880398608E+01
 0.2617913809970E+01
 0.2603124835579E+01
 0.2572177386888E+01
 0.2529133567806E+01
 0.2477131394672E+01
 0.2418426247665E+01
 0.2354570397181E+01
 0.2286623389385E+01
 0.2215346468707E+01
 0.2141356169139E+01
 0.2065363147181E+01
 0.1988292127042E+01
 0.1910854679319E+01
 0.1833176237168E+01
 0.1754887432489E+01
 0.1675297915921E+01
 0.1593554379233E+01
 0.1508770522605E+01
 0.1420125999304E+01
 0.1326945435287E+01
 0.1228772116029E+01
 0.1125412226887E+01
 0.1017015292187E+01
 0.9042957862705E+00
 0.7888088886541E+00
 0.6732166843859E+00
 0.5615640025696E+00
 0.4596309271753E+00
 0.3759353771500E+00
 0.3252424129920E+00
 0.3338920603138E+00
 0.4299460001193E+00
 0.6215719800979E+00
 0.9001948067212E+00
 0.1245061915037E+01
 0.2125284085617E+01
 0.2208336598635E+01
 0.2294616778754E+01
 0.2370509250385E+01
 0.2426543328966E+01
 0.2458882019352E+01
 0.2468230898627E+01
 0.2457785506963E+01
 0.2431487178116E+01
 0.2393001335697E+01
 0.2345304425416E+01
 0.2290629997374E+01
 0.2230579394940E+01
 0.2166287541633E+01
 0.2098587066630E+01
 0.2028140571193E+01
 0.1955662048794E+01
 0.1882036214858E+01
 0.1807926814131E+01
 0.1733437858290E+01
 0.1658208220230E+01
 0.1581574593279E+01
 0.1502715600660E+01
 0.1420772617245E+01
 0.1334948085416E+01
 0.1244591668078E+01
 0.1149285628072E+01
 0.1048903831917E+01
 0.9437031871778E+00
 0.8345418873391E+00
 0.7231364438771E+00
 0.6122891535305E+00
 0.5060950002912E+00
 0.4102071280924E+00
 0.3328363996411E+00
 0.2885123571773E+00
 0.3028015148014E+00
 0.3994918042513E+00
 0.5821546846160E+00
 0.8419046446318E+00
 0.1161347047051E+01
 0.1998937328550E+01
 0.2073594537101E+01
 0.2152032514543E+01
 0.2222421458027E+01
 0.2276064728886E+01
 0.2308860712069E+01
 0.2320697644563E+01
 0.2313897129499E+01
 0.2291733885021E+01
 0.2257467183482E+01
 0.2213877097830E+01
 0.2163137469297E+01
 0.2106865755625E+01
 0.2046245516627E+01
 0.1982160274060E+01
 0.1915305295485E+01
 0.1846392418135E+01
 0.1776267481732E+01
 0.1705550166950E+01
 0.1634325428394E+01
 0.1562240312140E+01
 0.1488657894378E+01
 0.1412790021065E+01
 0.1333810281964E+01
 0.1250951151772E+01
 0.1163595269951E+01
 0.1071369673835E+01
 0.9742163252373E+00
 0.8724911956714E+00
 0.7671758761734E+00
 0.6601125463433E+00
 0.5541892783129E+00
 0.4534750000543E+00
 0.3633964977012E+00
 0.2917421197450E+00
 0.2527371782414E+00
 0.2712369665135E+00
 0.3671559804199E+00
 0.5403551658986E+00
 0.7823702236303E+00
 0.1078641785968E+01
 0.1874880377364E+01
 0.1941962188031E+01
 0.2013164756211E+01
 0.2078187185394E+01
 0.2129100281200E+01
 0.2161719871877E+01
 0.2175334428581E+01
 0.2171543479940E+01
 0.2153022157197E+01
 0.2122630859665E+01
 0.2082931740531E+01
 0.2036009016521E+01
 0.1983467432924E+01
 0.1926514655244E+01
 0.1866066059554E+01
 0.1802837083615E+01
 0.1737531999318E+01
 0.1670958201842E+01
 0.1603694228679E+01
 0.1535808024850E+01
 0.1466954929100E+01
 0.1396523824554E+01
 0.1323760444712E+01
 0.1247873575441E+01
 0.1168130605905E+01
 0.1083952210962E+01
 0.9950129129200E+00
 0.9013202193095E+00
 0.8033184256685E+00
 0.7020910246934E+00
 0.5995715050930E+00
 0.4986848559888E+00
 0.4034089131838E+00
 0.3188577713440E+00
 0.2522855241618E+00
 0.2175628301671E+00
 0.2390376372006E+00
 0.3330569972437E+00
 0.4966123869613E+00
 0.7212655669294E+00
 0.9979645761322E+00
 0.1752866247439E+01
 0.1813083971365E+01
 0.1877603411098E+01
 0.1937436967260E+01
 0.1985393611488E+01
 0.2017334184716E+01
 0.2032121806245E+01
 0.2030769992071E+01
 0.2015425676655E+01
 0.1988569462510E+01
 0.1952535053312E+01
 0.1909294677272E+01
 0.1860416023932E+01
 0.1807108975110E+01
 0.1750303397578E+01
 0.1690723339945E+01
 0.1629060200049E+01
 0.1566082750029E+01
 0.1502330539312E+01
 0.1437856175703E+01
 0.1372323450344E+01
 0.1305146481738E+01
 0.1235605021987E+01
 0.1162944730803E+01
 0.1086470790234E+01
 0.1005644512491E+01
 0.9201880326128E+00
 0.8301695299267E+00
 0.7361093279407E+00
 0.6391713453252E+00
 0.5413489035792E+00
 0.4455624651398E+00
 0.3556460645836E+00
 0.2763254087627E+00
 0.2141958676446E+00
 0.1827300240842E+00
 0.2061238764818E+00
 0.2974349638401E+00
 0.4510169250468E+00
 0.6596478408009E+00
 0.9142797836904E+00
 0.1632680896138E+01
 0.1686653679342E+01
 0.1744989822153E+01
 0.1799834332585E+01
 0.1844693015568E+01
 0.1875559335701E+01
 0.1891009358639E+01
 0.1891589688402E+01
 0.1878990228202E+01
 0.1855338585710E+01
 0.1822738257879E+01
 0.1783033930946E+01
 0.1737736401764E+01
 0.1688038735846E+01
 0.1634869736953E+01
 0.1578951480355E+01
 0.1520957329580E+01
 0.1461616754220E+01
 0.1401431796674E+01
 0.1340441007638E+01
 0.1278316731431E+01
 0.1214497692491E+01
 0.1148297328792E+01
 0.1078998764516E+01
 0.1005946177131E+01
 0.9286420714950E+00
 0.8468542347829E+00
 0.7607049350197E+00
 0.6707774781211E+00
 0.5782958437885E+00
 0.4852860774517E+00
 0.3946320079700E+00
 0.3099855710487E+00
 0.2356173930917E+00
 0.1773061139069E+00
 0.1480501797068E+00
 0.1725226848264E+00
 0.2605057612319E+00
 0.4040484987053E+00
 0.5967949753103E+00
 0.8310204416002E+00
 0.1514136808551E+01
 0.1562405035259E+01
 0.1615008343679E+01
 0.1665073044674E+01
 0.1706755111884E+01
 0.1736239201009E+01
 0.1751922976711E+01
 0.1753988591321E+01
 0.1743736897770E+01
 0.1722973827331E+01
 0.1693577601610E+01
 0.1657255704397E+01
 0.1615446493887E+01
 0.1569310085629E+01
 0.1519760534048E+01
 0.1467508362910E+01
 0.1413203950622E+01
 0.1357536396445E+01
 0.1300971141164E+01
 0.1243533577226E+01
 0.1184904583058E+01
 0.1124546759482E+01
 0.1061806493541E+01
 0.9960040653787E+00
 0.9265224736858E+00
 0.8529043124638E+00
 0.7749594448101E+00
 0.6928565193505E+00
 0.6072287905774E+00
 0.5193421097649E+00
 0.4312341298737E+00
 0.3457320607514E+00
 0.2662865481492E+00
 0.1966592949127E+00
 0.1415873878852E+00
 0.1133996200322E+00
 0.1383605369286E+00
 0.2226447997788E+00
 0.3559662585741E+00
 0.5331216577092E+00
 0.7481703073971E+00
 0.1397068029748E+01
 0.1440104300063E+01
 0.1487379360062E+01
 0.1532874104403E+01
 0.1571346848601E+01
 0.1599211090471E+01
 0.1614770756356E+01
 0.1617930520275E+01
 0.1609665220078E+01
 0.1591492510107E+01
 0.1565075121793E+01
 0.1531978589098E+01
 0.1493557202966E+01
 0.1450924803770E+01
 0.1404968867498E+01
 0.1356379809035E+01
 0.1305780341484E+01
 0.1253817846317E+01
 0.1200921591213E+01
 0.1147104357634E+01
 0.1092055388119E+01
 0.1035260307402E+01
 0.9760973670760E+00
 0.9139229623839E+00
 0.8481576342783E+00
 0.7783816646703E+00
 0.7044422465938E+00
 0.6265461330010E+00
 0.5453642580933E+00
 0.4621895025541E+00
 0.3790582199984E+00
 0.2987381144713E+00
 0.2244902288894E+00
 0.1595464212083E+00
 0.1072723314865E+00
 0.7871649162957E-01
 0.1039965010121E+00
 0.1843965550251E+00
 0.3072130248822E+00
 0.4690177979463E+00
 0.6656676656687E+00
 0.1281326270167E+01
 0.1319544427843E+01
 0.1361853502114E+01
 0.1402982769599E+01
 0.1438246406737E+01
 0.1464309500935E+01
 0.1479447702744E+01
 0.1483361255043E+01
 0.1476756161038E+01
 0.1460895497331E+01
 0.1437239592108E+01
 0.1407211231931E+01
 0.1372072463151E+01
 0.1332880148245E+01
 0.1290485146845E+01
 0.1245550222962E+01
 0.1198666068247E+01
 0.1150436818525E+01
 0.1101255614486E+01
 0.1051122863524E+01
 0.9997358427776E+00
 0.9466022196301E+00
 0.8911307340837E+00
 0.8327122734320E+00
 0.7708027836721E+00
 0.7050168689300E+00
 0.6352335567858E+00
 0.5616894075979E+00
 0.4850823493628E+00
 0.4067223313768E+00
 0.3286433661191E+00
 0.2535780853669E+00
 0.1846701756134E+00
 0.1247100951572E+00
 0.7530233734509E-01
 0.4407051202310E-01
 0.7049142957224E-01
 0.1467643605362E+00
 0.2584607025261E+00
 0.4048992191498E+00
 0.5835716703323E+00
 0.1166777817293E+01
 0.1200540403218E+01
 0.1238206848321E+01
 0.1275165726649E+01
 0.1307243376178E+01
 0.1331368744028E+01
 0.1345839437731E+01
 0.1350212089487E+01
 0.1344974868015E+01
 0.1331169019564E+01
 0.1310067587025E+01
 0.1282952865069E+01
 0.1250989421633E+01
 0.1215168812042E+01
 0.1176296923318E+01
 0.1135002315775E+01
 0.1091839668688E+01
 0.1047368250827E+01
 0.1001944827042E+01
 0.9555574046469E+00
 0.9079108139070E+00
 0.8585336623830E+00
 0.8068635672283E+00
 0.7523238385918E+00
 0.6944030549930E+00
 0.6327461200946E+00
 0.5672580557166E+00
 0.4981974900049E+00
 0.4262812680018E+00
 0.3528337266438E+00
 0.2799043265934E+00
 0.2102652356247E+00
 0.1471546165450E+00
 0.9339383373441E-01
 0.4925772270347E-01
 0.1126175199553E-01
 0.4228412937644E-01
 0.1119496659526E+00
 0.2108420954578E+00
 0.3413710006972E+00
 0.5021042788564E+00
 0.1053301060139E+01
 0.1082925488252E+01
 0.1116236932118E+01
 0.1149208479994E+01
 0.1178138465297E+01
 0.1200224731799E+01
 0.1213825088242E+01
 0.1218402826688E+01
 0.1214273157753E+01
 0.1202286455765E+01
 0.1183544616021E+01
 0.1159193947472E+01
 0.1130298737281E+01
 0.1097778992545E+01
 0.1062388812219E+01
 0.1024716944007E+01
 0.9852784561744E+00
 0.9445861084170E+00
 0.9029598242324E+00
 0.8603749712250E+00
 0.8165433174113E+00
 0.7710132037796E+00
 0.7232493339861E+00
 0.6727050484744E+00
 0.6188983517077E+00
 0.5615000544571E+00
 0.5004353979116E+00
 0.4359785849718E+00
 0.3688614373355E+00
 0.3004316515019E+00
 0.2328055871765E+00
 0.1689756713878E+00
 0.1128502863446E+00
 0.6902539850573E-01
 0.4113252916070E-01
 0.2806293226154E-01
 0.3797774346749E-01
 0.8540057391350E-01
 0.1665927288454E+00
 0.2795039799086E+00
 0.4217563424592E+00
 0.9407844843014E+00
 0.9665481747766E+00
 0.9957594070914E+00
 0.1024912983457E+01
 0.1050742923331E+01
 0.1070716139374E+01
 0.1083279513288E+01
 0.1087844281078E+01
 0.1084591739714E+01
 0.1074210038096E+01
 0.1057646297547E+01
 0.1035916901774E+01
 0.1009984995518E+01
 0.9806945845398E+00
 0.9487425440836E+00
 0.9146730830685E+00
 0.8789584652748E+00
 0.8420633371646E+00
 0.8042701665107E+00
 0.7655412754373E+00
 0.7255946436159E+00
 0.6839970558310E+00
 0.6402383842523E+00
 0.5937993922767E+00
 0.5442240509669E+00
 0.4912045936665E+00
 0.4346812321840E+00
 0.3749394682558E+00
 0.3127289824046E+00
 0.2494505421008E+00
 0.1874078503642E+00
 0.1302526621393E+00
 0.8414252925253E-01
 0.5927624693028E-01
 0.5832790081951E-01
 0.6295218429624E-01
 0.6391918727664E-01
 0.7808184646282E-01
 0.1306239010626E+00
 0.2214732656529E+00
 0.3435553352790E+00
 0.8291250317637E+00
 0.8512696877401E+00
 0.8766052487421E+00
 0.9020955136379E+00
 0.9248777983458E+00
 0.9426851142653E+00
 0.9540750082565E+00
 0.9584403628300E+00
 0.9558621967796E+00
 0.9468924761072E+00
 0.9323395657668E+00
 0.9130969497785E+00
 0.8900272564143E+00
 0.8638955260538E+00
 0.8353371831722E+00
 0.8048479813549E+00
 0.7728545912403E+00
 0.7397720237903E+00
 0.7058445836438E+00
 0.6710210173209E+00
 0.6350247017278E+00
 0.5974395123941E+00
 0.5577784875053E+00
 0.5155470819093E+00
 0.4703116835678E+00
 0.4217816597651E+00
 0.3699080755663E+00
 0.3149873152433E+00
 0.2578021307205E+00
 0.1998783776488E+00
 0.1439930469255E+00
 0.9561481105737E-01
 0.6681469429365E-01
 0.6950690216235E-01
 0.8662336009342E-01
 0.9842892734074E-01
 0.9925762429242E-01
 0.9582691197159E-01
 0.1127053917609E+00
 0.1721510786748E+00
 0.2697599816969E+00
 0.7182267456564E+00
 0.7369619217424E+00
 0.7586183937755E+00
 0.7805847733391E+00
 0.8003731163414E+00
 0.8159776674851E+00
 0.8260826130914E+00
 0.8300898323661E+00
 0.8280087741444E+00
 0.8202785320226E+00
 0.8075839413182E+00
 0.7907030892698E+00
 0.7703997951857E+00
 0.7473583735034E+00
 0.7221496064942E+00
 0.6952176046406E+00
 0.6669410496191E+00
 0.6376839059612E+00
 0.6076515563196E+00
 0.5767785479392E+00
 0.5447927655573E+00
 0.5112937662622E+00
 0.4758156897554E+00
 0.4378858891507E+00
 0.3970896710209E+00
 0.3531497818185E+00
 0.3060261237672E+00
 0.2560327409489E+00
 0.2040262199447E+00
 0.1518321558917E+00
 0.1034662258664E+00
 0.6941400671045E-01
 0.6853148802763E-01
 0.9272810577235E-01
 0.1181067094742E+00
 0.1341315206461E+00
 0.1373115213141E+00
 0.1294460168519E+00
 0.1222805902227E+00
 0.1420399118673E+00
 0.2057495237240E+00
 0.6079996392082E+00
 0.6235057199163E+00
 0.6416537364564E+00
 0.6602202088253E+00
 0.6770670467380E+00
 0.6904438658050E+00
 0.6991731568167E+00
 0.7026878451986E+00
 0.7009500818873E+00
 0.6943066496813E+00
 0.6833329805930E+00
 0.6686993502031E+00
 0.6510732037772E+00
 0.6310573094868E+00
 0.6091554843527E+00
 0.5857576525621E+00
 0.5611924817586E+00
 0.5357716039842E+00
 0.5096606918885E+00
 0.4827793862388E+00
 0.4548591043613E+00
 0.4255135941050E+00
 0.3942959466198E+00
 0.3607525644769E+00
 0.3244843333022E+00
 0.2852246311767E+00
 0.2429442066582E+00
 0.1979969139523E+00
 0.1514181110434E+00
 0.1058229245910E+00
 0.6893466304651E-01
 0.6138891561437E-01
 0.8725299858556E-01
 0.1212930473556E+00
 0.1506465423339E+00
 0.1699709077456E+00
 0.1765883716859E+00
 0.1702607728555E+00
 0.1550981072711E+00
 0.1447162719149E+00
 0.1642223806569E+00
 0.4983587420870E+00
 0.5107894245525E+00
 0.5255754172417E+00
 0.5408505293851E+00
 0.5548051225814E+00
 0.5659379662502E+00
 0.5732182289493E+00
 0.5761275097820E+00
 0.5746009637570E+00
 0.5689109290832E+00
 0.5595362492126E+00
 0.5470467438535E+00
 0.5320163477106E+00
 0.5149661699337E+00
 0.4963314540554E+00
 0.4764459569621E+00
 0.4555866468333E+00
 0.4340116545951E+00
 0.4118461155111E+00
 0.3889939393302E+00
 0.3651889442981E+00
 0.3400573870820E+00
 0.3131689341088E+00
 0.2840859929252E+00
 0.2524218500278E+00
 0.2179195834453E+00
 0.1805716090549E+00
 0.1408346090195E+00
 0.1002431199523E+00
 0.6405863583767E-01
 0.5130767560378E-01
 0.7616308668987E-01
 0.1143349142997E+00
 0.1519188487345E+00
 0.1835599359333E+00
 0.2058910531868E+00
 0.2165796396857E+00
 0.2145207288270E+00
 0.2005459367558E+00
 0.1794165194636E+00
 0.1641330853260E+00
 0.3892232879718E+00
 0.3987076441764E+00
 0.4102553537961E+00
 0.4223324428575E+00
 0.4334396486885E+00
 0.4423187747387E+00
 0.4480915151297E+00
 0.4503020523640E+00
 0.4488752904552E+00
 0.4440243860933E+00
 0.4361429651603E+00
 0.4257072867408E+00
 0.4132008322823E+00
 0.3990634590778E+00
 0.3836608182899E+00
 0.3672690105944E+00
 0.3501119201724E+00
 0.3323930817121E+00
 0.3141961455589E+00
 0.2954082055844E+00
 0.2757639598479E+00
 0.2548999500823E+00
 0.2323993196736E+00
 0.2078366052425E+00
 0.1808339824997E+00
 0.1511467066003E+00
 0.1188243588657E+00
 0.8464704745713E-01
 0.5218528750670E-01
 0.3909022800704E-01
 0.6436489243782E-01
 0.1036910665793E+00
 0.1447494600881E+00
 0.1833474930293E+00
 0.2165670554124E+00
 0.2418417500828E+00
 0.2570377817180E+00
 0.2606806681987E+00
 0.2522212875941E+00
 0.2326930698491E+00
 0.2061757699473E+00
 0.2805160164019E+00
 0.2871601941231E+00
 0.2955719873806E+00
 0.3045297359030E+00
 0.3128297690794E+00
 0.3194512018240E+00
 0.3236720795247E+00
 0.3251098537173E+00
 0.3236926877403E+00
 0.3195873266418E+00
 0.3131120566581E+00
 0.3046558883727E+00
 0.2946149769922E+00
 0.2833487688103E+00
 0.2711528533168E+00
 0.2582446695159E+00
 0.2447939089117E+00
 0.2309483686333E+00
 0.2167488743453E+00
 0.2020638903491E+00
 0.1866263317535E+00
 0.1700790755707E+00
 0.1520130439581E+00
 0.1320072234849E+00
 0.1096848254839E+00
 0.8482098615376E-01
 0.5766980942574E-01
 0.3100958049134E-01
 0.2702836772131E-01
 0.5721528490408E-01
 0.9546598785635E-01
 0.1359575351817E+00
 0.1764842625758E+00
 0.2150456585359E+00
 0.2495270262599E+00
 0.2777729638715E+00
 0.2978062019115E+00
 0.3080089927624E+00
 0.3072221925892E+00
 0.2949802053909E+00
 0.2719117304944E+00
 0.1721625778746E+00
 0.1760511824656E+00
 0.1814093138559E+00
 0.1873135843995E+00
 0.1928449406384E+00
 0.1972145949146E+00
 0.1998587445507E+00
 0.2004756380877E+00
 0.1990071181248E+00
 0.1955839794126E+00
 0.1904577721908E+00
 0.1839362655001E+00
 0.1763318512835E+00
 0.1679253051581E+00
 0.1589427841887E+00
 0.1495431273020E+00
 0.1398414525819E+00
 0.1299286400923E+00
 0.1198003705283E+00
 0.1093027502042E+00
 0.9816108301448E-01
 0.8601532949933E-01
 0.7244871801444E-01
 0.5701628483329E-01
 0.3928437458779E-01
 0.1894850732666E-01
 0.6343568572695E-02
 0.3222719386855E-01
 0.6240410104293E-01
 0.9581686076814E-01
 0.1319391381160E+00
 0.1699555073653E+00
 0.2087178826462E+00
 0.2467597137277E+00
 0.2823550601299E+00
 0.3136333822400E+00
 0.3387662150083E+00
 0.3561004109004E+00
 0.3641888977530E+00
 0.3618958370366E+00
 0.3485332117550E+00
 0.6409119974441E-01
 0.6528832000645E-01
 0.6765770231933E-01
 0.7057695385822E-01
 0.7341018106074E-01
 0.7559478109504E-01
 0.7672165710026E-01
 0.7657263593191E-01
 0.7511178217665E-01
 0.7244612207792E-01
 0.6877457630166E-01
 0.6433917493884E-01
 0.5938609192378E-01
 0.5413860236124E-01
 0.4878068102699E-01
 0.4344967010513E-01
 0.3825700275072E-01
 0.3330592561348E-01
 0.2865728089847E-01
 0.2435547985345E-01
 0.2061743609997E-01
 0.1822680296916E-01
 0.1885892318278E-01
 0.2398328060303E-01
 0.3354314201433E-01
 0.4702618410718E-01
 0.6424022073754E-01
 0.8519671140616E-01
 0.1099176271783E+00
 0.1383047224307E+00
 0.1700536651793E+00
 0.2045995123471E+00
 0.2410852924588E+00
 0.2783570697847E+00
 0.3149916211154E+00
 0.3493700553480E+00
 0.3798168468834E+00
 0.4046959704172E+00
 0.4224100513758E+00
 0.4314627566164E+00
 0.4305441968738E+00
 0.4377070308599E-01
 0.4521956651994E-01
 0.4581237435136E-01
 0.4598529125287E-01
 0.4616535821261E-01
 0.4668367948980E-01
 0.4773629904266E-01
 0.4938802312351E-01
 0.5160185378167E-01
 0.5427516706228E-01
 0.5727177032955E-01
 0.6044709603393E-01
 0.6366711165048E-01
 0.6682186805698E-01
 0.6983458813264E-01
 0.7266685123655E-01
 0.7530482671157E-01
 0.7774820441614E-01
 0.8004917951401E-01
 0.8234431012210E-01
 0.8484503233619E-01
 0.8782960512461E-01
 0.9164421902369E-01
 0.9670733935549E-01
 0.1035078814987E+00
 0.1125871179705E+00
 0.1244986160412E+00
 0.1397531097667E+00
 0.1587559439596E+00
 0.1817425167886E+00
 0.2087258236758E+00
 0.2394598864600E+00
 0.2734145349310E+00
 0.3097631792252E+00
 0.3473894841356E+00
 0.3849283568093E+00
 0.4208658932002E+00
 0.4536087964729E+00
 0.4814668609275E+00
 0.5026987541482E+00
 0.5155982811701E+00
 0.1514875074210E+00
 0.1555575011730E+00
 0.1590681823966E+00
 0.1621541639921E+00
 0.1649557482768E+00
 0.1675831983069E+00
 0.1700963917484E+00
 0.1725006692803E+00
 0.1747553844065E+00
 0.1767896776776E+00
 0.1785202070084E+00
 0.1798671197922E+00
 0.1807663903669E+00
 0.1811782152741E+00
 0.1810921683180E+00
 0.1805299256882E+00
 0.1795364874531E+00
 0.1781736048511E+00
 0.1765445272933E+00
 0.1748137511848E+00
 0.1732007593350E+00
 0.1719741725326E+00
 0.1714518931098E+00
 0.1720054607626E+00
 0.1740655828302E+00
 0.1781244627843E+00
 0.1847284345677E+00
 0.1944558279985E+00
 0.2078738100523E+00
 0.2254729352635E+00
 0.2475937273436E+00
 0.2743598566632E+00
 0.3056246353444E+00
 0.3409339734679E+00
 0.3795078576787E+00
 0.4202520426949E+00
 0.4618254440963E+00
 0.5026900302268E+00
 0.5410838162449E+00
 0.5750589078539E+00
 0.6025817149588E+00
 0.2591299502787E+00
 0.2658134881054E+00
 0.2722396706985E+00
 0.2782760592009E+00
 0.2838019871774E+00
 0.2887062416254E+00
 0.2928874330589E+00
 0.2962565026765E+00
 0.2987402791781E+00
 0.3002849213275E+00
 0.3008584366441E+00
 0.3004520027557E+00
 0.2990802388256E+00
 0.2967808511327E+00
 0.2936141283549E+00
 0.2896626593145E+00
 0.2850280707328E+00
 0.2798296575131E+00
 0.2742145505694E+00
 0.2683662034968E+00
 0.2625049191989E+00
 0.2568893271316E+00
 0.2518209291717E+00
 0.2476512185613E+00
 0.2447904957277E+00
 0.2437172170555E+00
 0.2449845405289E+00
 0.2492188366409E+00
 0.2571019668050E+00
 0.2693289313260E+00
 0.2865398956153E+00
 0.3092344634458E+00
 0.3376820728191E+00
 0.3718429094049E+00
 0.4113096192750E+00
 0.4552833430578E+00
 0.5026093897548E+00
 0.5518116908346E+00
 0.6010606078083E+00
 0.6482075433057E+00
 0.6909035405582E+00
 0.3667647564688E+00
 0.3760726485326E+00
 0.3854255396627E+00
 0.3944280486190E+00
 0.4027012709910E+00
 0.4099123295864E+00
 0.4157962050871E+00
 0.4201664022664E+00
 0.4229147217915E+00
 0.4240029095887E+00
 0.4234499290116E+00
 0.4213182914641E+00
 0.4177018486562E+00
 0.4127163270156E+00
 0.4064928878405E+00
 0.3991746361723E+00
 0.3909187900901E+00
 0.3819004921943E+00
 0.3723082660656E+00
 0.3623412641607E+00
 0.3522171115602E+00
 0.3421817830217E+00
 0.3325201590863E+00
 0.3235676985486E+00
 0.3157235173869E+00
 0.3094653291945E+00
 0.3053647732518E+00
 0.3040986729500E+00
 0.3064508041524E+00
 0.3132952583075E+00
 0.3255472066477E+00
 0.3440747662599E+00
 0.3695807344787E+00
 0.4024746340347E+00
 0.4427600595636E+00
 0.4899630726025E+00
 0.5431318874544E+00
 0.6008573160878E+00
 0.6612384411612E+00
 0.7219170593191E+00
 0.7802176051101E+00
 0.4744589293379E+00
 0.4864201332663E+00
 0.4987282907942E+00
 0.5107238289415E+00
 0.5217683433266E+00
 0.5313061461145E+00
 0.5389080097580E+00
 0.5442902606442E+00
 0.5473106920308E+00
 0.5479481069315E+00
 0.5462739717948E+00
 0.5424234593653E+00
 0.5365705898545E+00
 0.5289095928400E+00
 0.5196425368049E+00
 0.5089726530973E+00
 0.4971119876339E+00
 0.4842904340696E+00
 0.4707363971838E+00
 0.4566627382945E+00
 0.4422820771942E+00
 0.4278254338476E+00
 0.4135594271829E+00
 0.3998033624246E+00
 0.3869473879159E+00
 0.3754731577755E+00
 0.3659764757397E+00
 0.3591876683278E+00
 0.3559881293707E+00
 0.3574172696285E+00
 0.3646470032088E+00
 0.3789035243092E+00
 0.4013322240947E+00
 0.4328219109688E+00
 0.4738264313733E+00
 0.5242307666670E+00
 0.5833063332445E+00
 0.6497164500016E+00
 0.7214820963642E+00
 0.7960192194670E+00
 0.8703029318262E+00
 0.5822797146161E+00
 0.5969414490605E+00
 0.6122511768157E+00
 0.6272802768654E+00
 0.6411268090691E+00
 0.6530100690911E+00
 0.6623367098581E+00
 0.6687279929064E+00
 0.6720110608853E+00
 0.6721854631300E+00
 0.6693784582845E+00
 0.6638003509573E+00
 0.6557068637206E+00
 0.6453714137788E+00
 0.6330669915518E+00
 0.6190564803011E+00
 0.6036059572639E+00
 0.5869990569687E+00
 0.5695027769246E+00
 0.5513420183755E+00
 0.5327223706369E+00
 0.5138576597356E+00
 0.4949940834885E+00
 0.4764331735268E+00
 0.4585555713008E+00
 0.4418477585407E+00
 0.4269316451607E+00
 0.4145923499779E+00
 0.4058064855680E+00
 0.4017700324633E+00
 0.4038978929682E+00
 0.4137639039106E+00
 0.4329611430197E+00
 0.4628842914929E+00
 0.5044779804826E+00
 0.5580248574002E+00
 0.6230446192711E+00
 0.6982811500654E+00
 0.7816697095690E+00
 0.8703799468824E+00
 0.9610075493986E+00
 0.6902949737831E+00
 0.7077230354090E+00
 0.7260987120425E+00
 0.7442161297805E+00
 0.7609031980565E+00
 0.7751509279438E+00
 0.7862024690395E+00
 0.7935878149821E+00
 0.7971090157070E+00
 0.7967921988226E+00
 0.7928254186704E+00
 0.7854977265794E+00
 0.7751486895552E+00
 0.7621318014348E+00
 0.7467909516023E+00
 0.7294480640207E+00
 0.7104223207490E+00
 0.6900500239724E+00
 0.6686354832924E+00
 0.6464140155751E+00
 0.6235821743984E+00
 0.6003342438434E+00
 0.5768934469281E+00
 0.5535410424723E+00
 0.5306460809368E+00
 0.5086985362291E+00
 0.4883458470467E+00
 0.4704273043221E+00
 0.4560121852520E+00
 0.4464462870613E+00
 0.4433764026322E+00
 0.4487141329923E+00
 0.4645029561464E+00
 0.4926678052723E+00
 0.5346863093694E+00
 0.5912829103810E+00
 0.6622565670889E+00
 0.7464436057044E+00
 0.8416865684967E+00
 0.9448854419103E+00
 0.1052220152224E+01
 0.7985735969763E+00
 0.8188528809005E+00
 0.8403774076693E+00
 0.8616524101940E+00
 0.8812264325264E+00
 0.8978579059810E+00
 0.9106277050035E+00
 0.9189801406285E+00
 0.9227000178892E+00
 0.9218480660121E+00
 0.9166798573819E+00
 0.9075679201405E+00
 0.8949383692077E+00
 0.8792258173741E+00
 0.8608449437830E+00
 0.8401759196119E+00
 0.8175899283519E+00
 0.7934747482034E+00
 0.7681706556173E+00
 0.7419217108048E+00
 0.7149133472471E+00
 0.6873177828673E+00
 0.6593323481799E+00
 0.6312148617258E+00
 0.6033196068995E+00
 0.5761371462818E+00
 0.5503379698052E+00
 0.5268131512606E+00
 0.5067211784508E+00
 0.4915514134672E+00
 0.4831727789504E+00
 0.4838251151574E+00
 0.4960033139671E+00
 0.5221853130170E+00
 0.5644260125186E+00
 0.6239419468878E+00
 0.7008494816692E+00
 0.7940943885351E+00
 0.9014210934282E+00
 0.1019434107576E+01
 0.1143854984969E+01
 0.9071859469799E+00
 0.9304211832982E+00
 0.9551965885968E+00
 0.9797131780196E+00
 0.1002228207468E+01
 0.1021262275326E+01
 0.1035736022322E+01
 0.1045015690295E+01
 0.1048879168859E+01
 0.1047432103587E+01
 0.1041006035321E+01
 0.1030062760455E+01
 0.1015118123646E+01
 0.9966889673448E+00
 0.9752604943467E+00
 0.9512700963582E+00
 0.9251396441474E+00
 0.8973070578560E+00
 0.8681471486348E+00
 0.8379109733081E+00
 0.8067706529687E+00
 0.7748736220863E+00
 0.7423880602960E+00
 0.7095446120395E+00
 0.6766787391122E+00
 0.6442774405181E+00
 0.6130302110264E+00
 0.5838758814968E+00
 0.5580574783179E+00
 0.5372013625268E+00
 0.5233892511705E+00
 0.5191796405322E+00
 0.5275182703991E+00
 0.5514573452604E+00
 0.5936755699182E+00
 0.6559388829270E+00
 0.7387278003788E+00
 0.8411210669379E+00
 0.9607620477923E+00
 0.1093931616206E+01
 0.1235843466025E+01
 0.1016204342485E+01
 0.1042521068466E+01
 0.1070669287225E+01
 0.1098526414151E+01
 0.1124043625890E+01
 0.1145497587842E+01
 0.1161651865196E+01
 0.1171804620325E+01
 0.1175739905959E+01
 0.1173621020579E+01
 0.1165865654367E+01
 0.1153031642742E+01
 0.1135728102833E+01
 0.1114555170586E+01
 0.1090068058027E+01
 0.1062760057630E+01
 0.1033102171446E+01
 0.1001580974363E+01
 0.9686042935505E+00
 0.9344283648254E+00
 0.8992097006889E+00
 0.8630680521255E+00
 0.8261388798401E+00
 0.7886214252919E+00
 0.7508275243465E+00
 0.7132353956834E+00
 0.6765481172713E+00
 0.6417467047265E+00
 0.6101526636684E+00
 0.5835219715707E+00
 0.5641395739276E+00
 0.5548725316023E+00
 0.5591151098168E+00
 0.5805133475374E+00
 0.6224185155141E+00
 0.6872111239575E+00
 0.7757928294236E+00
 0.8874070269495E+00
 0.1019596449824E+01
 0.1168287751785E+01
 0.1328129466537E+01
 0.1125703592462E+01
 0.1155249386894E+01
 0.1186913230564E+01
 0.1218225003424E+01
 0.1246811941969E+01
 0.1270699999814E+01
 0.1288500357344E+01
 0.1299455920825E+01
 0.1303373069107E+01
 0.1300488061648E+01
 0.1291316634731E+01
 0.1276520296368E+01
 0.1256805185441E+01
 0.1232855602658E+01
 0.1205295894814E+01
 0.1174673572893E+01
 0.1141506941370E+01
 0.1106329586508E+01
 0.1069580759927E+01
 0.1031520008492E+01
 0.9922858585035E+00
 0.9519673219031E+00
 0.9106633036743E+00
 0.8685369845317E+00
 0.8258711200303E+00
 0.7831289965649E+00
 0.7410206069518E+00
 0.7005620899316E+00
 0.6631458670964E+00
 0.6306489774017E+00
 0.6055492893488E+00
 0.5910113863678E+00
 0.5908736360810E+00
 0.6093933066749E+00
 0.6506449196464E+00
 0.7176973649223E+00
 0.8119425736695E+00
 0.9328303995534E+00
 0.1077807874920E+01
 0.1242414293579E+01
 0.1420666693920E+01
 0.1235761596080E+01
 0.1268707610105E+01
 0.1304051944165E+01
 0.1338947820918E+01
 0.1370677370999E+01
 0.1397008625865E+01
 0.1416407154293E+01
 0.1428076840135E+01
 0.1431866036173E+01
 0.1428102000403E+01
 0.1417412084507E+01
 0.1400569805866E+01
 0.1378382085458E+01
 0.1351617890294E+01
 0.1320969335971E+01
 0.1287036028904E+01
 0.1250381443163E+01
 0.1211584379967E+01
 0.1171113874510E+01
 0.1129230898678E+01
 0.1086053568178E+01
 0.1041636983802E+01
 0.9960394401282E+00
 0.9493830414783E+00
 0.9019154534181E+00
 0.8540780541508E+00
 0.8065799381020E+00
 0.7604638558642E+00
 0.7171839805246E+00
 0.6787283973718E+00
 0.6477564226358E+00
 0.6277177397118E+00
 0.6228878507619E+00
 0.6381497661944E+00
 0.6783532439281E+00
 0.7473386598629E+00
 0.8470716782948E+00
 0.9772630249179E+00
 0.1135274951244E+01
 0.1316223529291E+01
 0.1513417365154E+01
 0.1346460025565E+01
 0.1383002853644E+01
 0.1422216001718E+01
 0.1460840936654E+01
 0.1495789952375E+01
 0.1524565873146E+01
 0.1545498226957E+01
 0.1557772230143E+01
 0.1561301803927E+01
 0.1556526124494E+01
 0.1544199313868E+01
 0.1525215725866E+01
 0.1500486593503E+01
 0.1470865472405E+01
 0.1437110239258E+01
 0.1399869946220E+01
 0.1359750770073E+01
 0.1317374787079E+01
 0.1273239158359E+01
 0.1227604418240E+01
 0.1180565844100E+01
 0.1132141384705E+01
 0.1082344511905E+01
 0.1031250960447E+01
 0.9790668426261E+00
 0.9262039415267E+00
 0.8733615929838E+00
 0.8215992349798E+00
 0.7724219389780E+00
 0.7279171041680E+00
 0.6909124547972E+00
 0.6651285446656E+00
 0.6552679890012E+00
 0.6668502608151E+00
 0.7055526463727E+00
 0.7760798456454E+00
 0.8810715156478E+00
 0.1020569398575E+01
 0.1191869905801E+01
 0.1389627158774E+01
 0.1606351732619E+01
 0.1457885113291E+01
 0.1498249059139E+01
 0.1541544454961E+01
 0.1584058958744E+01
 0.1622306458341E+01
 0.1653517720129E+01
 0.1675899520807E+01
 0.1688643747843E+01
 0.1691757948919E+01
 0.1685817148735E+01
 0.1671718831385E+01
 0.1650487226321E+01
 0.1623140885803E+01
 0.1590617055070E+01
 0.1553736555176E+01
 0.1513194616574E+01
 0.1469637290495E+01
 0.1423727861925E+01
 0.1375989985039E+01
 0.1326681967058E+01
 0.1275873866045E+01
 0.1223543223587E+01
 0.1169654387832E+01
 0.1114231245347E+01
 0.1057431553916E+01
 0.9996292302912E+00
 0.9415040540626E+00
 0.8841208591544E+00
 0.8290229974735E+00
 0.7783834895875E+00
 0.7351834785816E+00
 0.7033979170890E+00
 0.6881429046859E+00
 0.6955802155081E+00
 0.7322658351985E+00
 0.8038714321472E+00
 0.9138304718892E+00
 0.1062605549137E+01
 0.1247457033950E+01
 0.1462535444497E+01
 0.1699448231881E+01
 0.1570128569378E+01
 0.1614568375488E+01
 0.1662186485619E+01
 0.1708766538044E+01
 0.1750391340132E+01
 0.1784013902872E+01
 0.1807736438365E+01
 0.1820788860057E+01
 0.1823305423030E+01
 0.1816024020540E+01
 0.1800003293700E+01
 0.1776406242329E+01
 0.1746360875032E+01
 0.1710886132626E+01
 0.1670861973316E+01
 0.1627025826875E+01
 0.1580060406990E+01
 0.1530668040801E+01
 0.1479397318449E+01
 0.1426502660390E+01
 0.1372026626112E+01
 0.1315903139854E+01
 0.1258043113319E+01
 0.1198413026203E+01
 0.1137115276926E+01
 0.1074477209619E+01
 0.1011148445547E+01
 0.9481866244510E+00
 0.8871589381260E+00
 0.8303081432849E+00
 0.7807514727796E+00
 0.7426991080343E+00
 0.7216628092762E+00
 0.7244463656435E+00
 0.7585325918664E+00
 0.8306721089181E+00
 0.9452345215292E+00
 0.1103217797224E+01
 0.1301890946084E+01
 0.1534856511671E+01
 0.1792694150613E+01
 0.1683288662813E+01
 0.1732092789182E+01
 0.1784303329914E+01
 0.1835140059566E+01
 0.1880217697604E+01
 0.1916207962930E+01
 0.1941133086815E+01
 0.1954299599038E+01
 0.1956007146278E+01
 0.1947186595129E+01
 0.1929076396053E+01
 0.1902986620689E+01
 0.1870155595831E+01
 0.1831680566357E+01
 0.1788495638259E+01
 0.1741375657150E+01
 0.1691036388611E+01
 0.1638216972012E+01
 0.1583489513318E+01
 0.1527103079818E+01
 0.1469070612874E+01
 0.1409279316232E+01
 0.1347582424369E+01
 0.1283883490794E+01
 0.1218222502832E+01
 0.1150871269206E+01
 0.1082438013116E+01
 0.1013959393990E+01
 0.9470101518836E+00
 0.8838844836647E+00
 0.8278156410388E+00
 0.7832266762314E+00
 0.7560023743597E+00
 0.7535807622889E+00
 0.7844141066417E+00
 0.8564520673734E+00
 0.9751682332609E+00
 0.1142241350270E+01
 0.1355014383205E+01
 0.1606495702227E+01
 0.1886086816835E+01
 0.1797471507939E+01
 0.1850966066885E+01
 0.1908070537203E+01
 0.1963369547023E+01
 0.2011968248764E+01
 0.2050257096696E+01
 0.2076211221358E+01
 0.2089261012888E+01
 0.2089916363033E+01
 0.2079334166222E+01
 0.2058951701362E+01
 0.2030233265621E+01
 0.1994526627683E+01
 0.1953002221810E+01
 0.1906641934102E+01
 0.1856252349836E+01
 0.1802578272620E+01
 0.1746393410256E+01
 0.1688292173224E+01
 0.1628517071453E+01
 0.1567049527195E+01
 0.1503727090031E+01
 0.1438341237697E+01
 0.1370727251808E+01
 0.1300855792082E+01
 0.1228934126466E+01
 0.1155517412381E+01
 0.1081606496350E+01
 0.1008765538973E+01
 0.9393192784339E+00
 0.8765937611355E+00
 0.8251988325142E+00
 0.7913642083177E+00
 0.7831454310162E+00
 0.8099982913831E+00
 0.8811973964527E+00
 0.1003516440714E+01
 0.1179498721605E+01
 0.1406655272181E+01
 0.1677354809833E+01
 0.1979635406328E+01
 0.1912792610054E+01
 0.1971346090721E+01
 0.2033680638029E+01
 0.2093660806624E+01
 0.2145836260712E+01
 0.2186321725778E+01
 0.2213088799707E+01
 0.2225749249208E+01
 0.2225074730705E+01
 0.2212483845404E+01
 0.2189631413999E+01
 0.2158141293587E+01
 0.2119467563922E+01
 0.2074846670868E+01
 0.2025300341420E+01
 0.1971660252685E+01
 0.1914695837079E+01
 0.1855213176762E+01
 0.1793828067365E+01
 0.1730775592715E+01
 0.1666004030578E+01
 0.1599298572342E+01
 0.1530385114070E+01
 0.1459025642781E+01
 0.1385114919451E+01
 0.1308786877665E+01
 0.1230531774523E+01
 0.1151298973605E+01
 0.1072622167543E+01
 0.9968329858522E+00
 0.9273234824333E+00
 0.8688599201975E+00
 0.8279827123730E+00
 0.8133377538083E+00
 0.8354062534074E+00
 0.9049158691590E+00
 0.1030166947582E+01
 0.1214798082762E+01
 0.1456622500995E+01
 0.1747330761064E+01
 0.2073363610731E+01
 0.2029378739903E+01
 0.2093407689894E+01
 0.2161346313991E+01
 0.2226237833276E+01
 0.2282026381503E+01
 0.2324564680804E+01
 0.2351878044215E+01
 0.2363829204558E+01
 0.2361510114232E+01
 0.2346638792044E+01
 0.2321105113021E+01
 0.2286695213684E+01
 0.2244963539936E+01
 0.2197202967553E+01
 0.2144465372783E+01
 0.2087599840003E+01
 0.2027395648609E+01
 0.1964689189774E+01
 0.1900117111278E+01
 0.1833906613290E+01
 0.1765971531278E+01
 0.1696042278637E+01
 0.1623775695097E+01
 0.1548855938278E+01
 0.1471095885121E+01
 0.1390547852358E+01
 0.1307625515596E+01
 0.1223210529107E+01
 0.1138784622862E+01
 0.1056659836497E+01
 0.9802634941513E+00
 0.9144829807133E+00
 0.8661283098764E+00
 0.8443966394981E+00
 0.8608001370559E+00
 0.9276444808387E+00
 0.1055014793389E+01
 0.1247931998162E+01
 0.1504699691976E+01
 0.1816312573087E+01
 0.2167313663516E+01
 0.2147370228676E+01
 0.2217346103207E+01
 0.2291304182904E+01
 0.2361345494874E+01
 0.2420755280474E+01
 0.2465149855180E+01
 0.2492682885792E+01
 0.2503551667681E+01
 0.2499234067005E+01
 0.2481786306845E+01
 0.2453348469416E+01
 0.2415868156404E+01
 0.2370990836857E+01
 0.2320053507877E+01
 0.2264126593651E+01
 0.2204067817820E+01
 0.2140681191122E+01
 0.2074831572171E+01
 0.2007176419590E+01
 0.1937935079246E+01
 0.1866986016767E+01
 0.1794002777331E+01
 0.1718570116210E+01
 0.1640290495553E+01
 0.1558889781583E+01
 0.1474331250633E+01
 0.1386940854668E+01
 0.1297516121055E+01
 0.1207463970907E+01
 0.1119047560406E+01
 0.1035694465850E+01
 0.9623723298543E+00
 0.9061120280610E+00
 0.8766095264055E+00
 0.8863925785274E+00
 0.9494591453484E+00
 0.1077968619891E+01
 0.1278677764143E+01
 0.1550636482292E+01
 0.1884173408908E+01
 0.2261552469868E+01
 0.2266923805235E+01
 0.2343381249027E+01
 0.2423819338407E+01
 0.2499252495334E+01
 0.2562251958310E+01
 0.2608240138562E+01
 0.2635595638603E+01
 0.2644949882930E+01
 0.2638238990978E+01
 0.2617895817005E+01
 0.2586321983251E+01
 0.2545621179924E+01
 0.2497516579366E+01
 0.2443373984200E+01
 0.2384268735023E+01
 0.2321057318533E+01
 0.2254553082129E+01
 0.2185647844744E+01
 0.2115020441468E+01
 0.2042882952339E+01
 0.1969077944284E+01
 0.1893220365547E+01
 0.1814820400732E+01
 0.1733395816648E+01
 0.1648581507533E+01
 0.1560245543448E+01
 0.1468616005381E+01
 0.1374390144401E+01
 0.1278876251163E+01
 0.1184256646510E+01
 0.1093919634218E+01
 0.1012866036543E+01
 0.9482903826980E+00
 0.9103202553732E+00
 0.9124579484286E+00
 0.9704873307688E+00
 0.1098959012073E+01
 0.1306801668039E+01
 0.1594139621452E+01
 0.1950748928651E+01
 0.2356182077268E+01
 0.2388216139217E+01
 0.2471763036309E+01
 0.2559190813966E+01
 0.2640254589443E+01
 0.2706757521810E+01
 0.2753994379709E+01
 0.2780692727631E+01
 0.2788035464594E+01
 0.2778494987740E+01
 0.2754916800354E+01
 0.2719969789814E+01
 0.2675902689217E+01
 0.2624498547403E+01
 0.2567133443248E+01
 0.2504871902460E+01
 0.2438558189614E+01
 0.2369009383463E+01
 0.2297143215259E+01
 0.2223661192082E+01
 0.2148769339823E+01
 0.2072274204371E+01
 0.1993730783969E+01
 0.1912572841926E+01
 0.1828231531579E+01
 0.1740248321568E+01
 0.1648391617961E+01
 0.1552783006197E+01
 0.1454004141423E+01
 0.1353240404556E+01
 0.1252559002245E+01
 0.1155264873634E+01
 0.1066338158732E+01
 0.9930704541756E+00
 0.9459378732404E+00
 0.9393454471404E+00
 0.9909245010958E+00
 0.1117950139457E+01
 0.1332062562640E+01
 0.1634885967927E+01
 0.2015774419780E+01
 0.2451349460443E+01
 0.2511448312838E+01
 0.2602778028792E+01
 0.2697758176902E+01
 0.2784677974556E+01
 0.2854524123518E+01
 0.2902563052384E+01
 0.2928029265357E+01
 0.2932793606611E+01
 0.2919946440695E+01
 0.2892776720632E+01
 0.2854218598592E+01
 0.2806648009046E+01
 0.2751885121430E+01
 0.2691294454111E+01
 0.2625911883095E+01
 0.2556557379149E+01
 0.2484046013281E+01
 0.2409320975113E+01
 0.2333108596560E+01
 0.2255610733835E+01
 0.2176598175718E+01
 0.2095564985139E+01
 0.2011867381605E+01
 0.1924849304799E+01
 0.1833958230577E+01
 0.1738860652295E+01
 0.1639565156799E+01
 0.1536523980738E+01
 0.1430775535643E+01
 0.1324235858889E+01
 0.1220078054253E+01
 0.1123200509049E+01
 0.1040915065447E+01
 0.9839460971240E+00
 0.9674950290189E+00
 0.1011052454396E+01
 0.1134963468798E+01
 0.1354199367368E+01
 0.1672565834705E+01
 0.2078883904350E+01
 0.2547002795921E+01
 0.2636851528926E+01
 0.2736757883200E+01
 0.2839909497186E+01
 0.2932882703096E+01
 0.3005812631622E+01
 0.3054082203991E+01
 0.3077632253592E+01
 0.3079177560926E+01
 0.3062508408797E+01
 0.3031379076366E+01
 0.2988976844700E+01
 0.2937779156204E+01
 0.2879615378515E+01
 0.2815813387448E+01
 0.2747360547268E+01
 0.2675039417979E+01
 0.2599657265626E+01
 0.2522183017352E+01
 0.2443370966597E+01
 0.2363421383748E+01
 0.2282069893227E+01
 0.2198748971691E+01
 0.2112736994919E+01
 0.2023291668172E+01
 0.1929768209747E+01
 0.1831731707613E+01
 0.1729074031965E+01
 0.1622106446669E+01
 0.1511697402383E+01
 0.1399574751291E+01
 0.1288727433128E+01
 0.1183903696094E+01
 0.1092347698237E+01
 0.1024913832753E+01
 0.9974542294826E+00
 0.1031268404100E+01
 0.1150085428098E+01
 0.1373003624526E+01
 0.1706659954677E+01
 0.2140331164597E+01
 0.2641607906677E+01
 0.2764694485778E+01
 0.2874090134431E+01
 0.2986090974401E+01
 0.3085265825849E+01
 0.3160888406079E+01
 0.3208665155165E+01
 0.3229492181262E+01
 0.3227102409601E+01
 0.3206062968405E+01
 0.3170601702642E+01
 0.3124134149192E+01
 0.3069204860058E+01
 0.3007619353004E+01
 0.2940640800837E+01
 0.2869186335878E+01
 0.2793986995352E+01
 0.2715836444640E+01
 0.2635730493916E+01
 0.2554455636459E+01
 0.2472213832028E+01
 0.2388706356945E+01
 0.2303303724456E+01
 0.2215207092962E+01
 0.2123590786062E+01
 0.2027722255406E+01
 0.1927069031980E+01
 0.1821406052503E+01
 0.1710895187790E+01
 0.1596214028934E+01
 0.1478865380478E+01
 0.1361598796358E+01
 0.1248937018436E+01
 0.1147956983564E+01
 0.1069505707434E+01
 0.1029899456989E+01
 0.1052110405233E+01
 0.1163525030132E+01
 0.1388223889387E+01
 0.1736908017362E+01
 0.2199058106862E+01
 0.2739981573875E+01
 0.2895293031037E+01
 0.3015232114745E+01
 0.3136818533616E+01
 0.3242263755860E+01
 0.3320014290583E+01
 0.3366391291189E+01
 0.3383552810131E+01
 0.3376438237675E+01
 0.3350455710821E+01
 0.3310295503563E+01
 0.3259561197512E+01
 0.3200820878497E+01
 0.3135818466107E+01
 0.3065721912956E+01
 0.2991354813165E+01
 0.2913381617470E+01
 0.2832576617734E+01
 0.2749964631836E+01
 0.2666369789966E+01
 0.2581999649214E+01
 0.2496522011966E+01
 0.2409245239323E+01
 0.2319294951640E+01
 0.2225767155561E+01
 0.2127849272143E+01
 0.2024919074428E+01
 0.1916638599534E+01
 0.1803015981110E+01
 0.1684520337729E+01
 0.1562394160004E+01
 0.1439090995301E+01
 0.1318826781412E+01
 0.1208399997995E+01
 0.1118493303213E+01
 0.1065656855451E+01
 0.1074301438460E+01
 0.1175628314375E+01
 0.1399724362551E+01
 0.1762676254536E+01
 0.2255548554822E+01
 0.2839694705469E+01
 0.3029022979949E+01
 0.3160729098413E+01
 0.3292691697318E+01
 0.3404352987104E+01
 0.3483439564314E+01
 0.3527291158008E+01
 0.3539699013613E+01
 0.3527002941038E+01
 0.3495492693898E+01
 0.3450283835059E+01
 0.3395110156837E+01
 0.3332510653550E+01
 0.3264126118791E+01
 0.3190997136319E+01
 0.3113829253184E+01
 0.3033204331938E+01
 0.2949871492624E+01
 0.2864887735262E+01
 0.2779121521387E+01
 0.2692790414811E+01
 0.2605529436357E+01
 0.2516584693358E+01
 0.2425009174274E+01
 0.2329828245272E+01
 0.2230160800445E+01
 0.2125307217689E+01
 0.2014825673099E+01
 0.1898571284625E+01
 0.1776791712525E+01
 0.1650437239481E+01
 0.1521609508445E+01
 0.1394132371631E+01
 0.1274403879313E+01
 0.1172765336170E+01
 0.1105727531691E+01
 0.1098788979346E+01
 0.1186963074618E+01
 0.1407402818364E+01
 0.1783482993204E+01
 0.2309317374216E+01
 0.2941046769912E+01
 0.3166337401588E+01
 0.3311238198487E+01
 0.3454409962619E+01
 0.3572047728612E+01
 0.3651383102547E+01
 0.3691326972846E+01
 0.3697742690655E+01
 0.3678555086451E+01
 0.3640938251377E+01
 0.3590362794940E+01
 0.3530615758005E+01
 0.3464146343676E+01
 0.3392448428746E+01
 0.3316402621051E+01
 0.3236571212202E+01
 0.3153436491969E+01
 0.3067716423692E+01
 0.2980504410138E+01
 0.2892721188690E+01
 0.2804599005244E+01
 0.2715740281518E+01
 0.2625328760366E+01
 0.2532349191575E+01
 0.2435767074642E+01
 0.2334648595968E+01
 0.2228234250252E+01
 0.2115993114386E+01
 0.1997634073882E+01
 0.1873176424661E+01
 0.1743251817265E+01
 0.1609557607370E+01
 0.1475439420395E+01
 0.1346764509398E+01
 0.1233336810798E+01
 0.1151311886543E+01
 0.1126801311085E+01
 0.1198381617927E+01
 0.1411315399840E+01
 0.1798721779954E+01
 0.2359697356648E+01
 0.3044535627269E+01
 0.3307790331006E+01
 0.3467560167035E+01
 0.3622791675151E+01
 0.3745892094470E+01
 0.3824008345196E+01
 0.3858367636899E+01
 0.3857407063728E+01
 0.3830787486968E+01
 0.3786514171948E+01
 0.3730302699193E+01
 0.3665897160745E+01
 0.3595590255703E+01
 0.3520685072510E+01
 0.3441870736766E+01
 0.3359541014175E+01
 0.3274060517660E+01
 0.3186109550305E+01
 0.3096823059089E+01
 0.3007183135687E+01
 0.2917441265039E+01
 0.2827166513115E+01
 0.2735480088432E+01
 0.2641304790776E+01
 0.2543560728005E+01
 0.2441282072638E+01
 0.2333672609206E+01
 0.2220133430021E+01
 0.2100240982885E+01
 0.1973786884479E+01
 0.1841065572151E+01
 0.1703324724731E+01
 0.1563349182827E+01
 0.1426341105987E+01
 0.1301354834517E+01
 0.1203835231222E+01
 0.1159905285748E+01
 0.1211130962673E+01
 0.1411750447236E+01
 0.1807670786747E+01
 0.2405932586876E+01
 0.3150769092775E+01
 0.3454069912232E+01
 0.3630682148914E+01
 0.3798794827586E+01
 0.3926443023918E+01
 0.4001386865146E+01
 0.4028157503796E+01
 0.4018310154885E+01
 0.3983322468737E+01
 0.3931900856408E+01
 0.3869851024259E+01
 0.3800760705068E+01
 0.3726696684911E+01
 0.3648730174666E+01
 0.3567330391310E+01
 0.3482698045830E+01
 0.3395060592043E+01
 0.3305053070274E+01
 0.3213857714870E+01
 0.3122527890601E+01
 0.3031338162028E+01
 0.2939822007593E+01
 0.2847037942925E+01
 0.2751855651988E+01
 0.2653168790591E+01
 0.2550005627441E+01
 0.2441562443583E+01
 0.2327200285175E+01
 0.2206384806156E+01
 0.2078689720860E+01
 0.1944064094715E+01
 0.1803271635314E+01
 0.1658463278556E+01
 0.1514044925182E+01
 0.1378099259634E+01
 0.1264970796264E+01
 0.1200071376098E+01
 0.1226987612991E+01
 0.1409360664931E+01
 0.1809565353060E+01
 0.2447086392220E+01
 0.3260497146013E+01
 0.3606045694422E+01
 0.3801835725103E+01
 0.3983537992191E+01
 0.4114237784723E+01
 0.4183446419365E+01
 0.4200278698195E+01
 0.4179948988921E+01
 0.4135710157824E+01
 0.4076741110188E+01
 0.4008737059349E+01
 0.3935003622852E+01
 0.3857314155856E+01
 0.3776473165600E+01
 0.3692707048665E+01
 0.3606000713619E+01
 0.3516423198674E+01
 0.3424554650493E+01
 0.3331630310398E+01
 0.3238784991923E+01
 0.3146318558203E+01
 0.3053724562178E+01
 0.2959998999297E+01
 0.2863970846407E+01
 0.2764531681250E+01
 0.2660735869547E+01
 0.2551807568847E+01
 0.2437102765354E+01
 0.2316006460427E+01
 0.2187894743274E+01
 0.2052376258433E+01
 0.1909712147694E+01
 0.1761362911003E+01
 0.1610820178078E+01
 0.1464974645866E+01
 0.1336657348270E+01
 0.1249741324271E+01
 0.1248422128423E+01
 0.1405387998165E+01
 0.1803677414146E+01
 0.2481947228135E+01
 0.3374658243659E+01
 0.3764837698030E+01
 0.3982576392578E+01
 0.4178317076781E+01
 0.4309736282083E+01
 0.4369898565274E+01
 0.4374108010214E+01
 0.4341687160623E+01
 0.4287431439913E+01
 0.4220647185413E+01
 0.4146678433775E+01
 0.4068418745562E+01
 0.3987288044820E+01
 0.3903799513259E+01
 0.3817922264708E+01
 0.3729405852197E+01
 0.3638137360584E+01
 0.3544628975406E+01
 0.3450173529895E+01
 0.3355996657267E+01
 0.3262422768916E+01
 0.3168898373939E+01
 0.3074358238326E+01
 0.2977608217230E+01
 0.2877568840106E+01
 0.2773358783137E+01
 0.2664271410145E+01
 0.2549699547607E+01
 0.2428986554436E+01
 0.2301342899276E+01
 0.2166057552796E+01
 0.2022891116527E+01
 0.1872581841880E+01
 0.1717615067882E+01
 0.1563489157902E+01
 0.1421105678520E+01
 0.1311892504871E+01
 0.1278796233055E+01
 0.1401998323353E+01
 0.1789467422767E+01
 0.2508915468782E+01
 0.3494439324262E+01
 0.3931919895341E+01
 0.4174893079809E+01
 0.4384608487472E+01
 0.4513222830297E+01
 0.4560140787166E+01
 0.4548771805312E+01
 0.4502749808370E+01
 0.4437907397756E+01
 0.4363211502271E+01
 0.4283389562916E+01
 0.4200800200696E+01
 0.4116463563244E+01
 0.4030591229843E+01
 0.3942892508998E+01
 0.3852867283347E+01
 0.3760194366300E+01
 0.3665299431186E+01
 0.3569534459497E+01
 0.3474222608426E+01
 0.3379707136136E+01
 0.3285377029442E+01
 0.3190109845568E+01
 0.3092713516921E+01
 0.2992176708007E+01
 0.2887726862709E+01
 0.2778773066761E+01
 0.2664793172463E+01
 0.2545136772966E+01
 0.2418893405421E+01
 0.2285071490918E+01
 0.2142958751932E+01
 0.1992572664173E+01
 0.1835341059841E+01
 0.1675215081637E+01
 0.1520784361771E+01
 0.1390090988945E+01
 0.1322581122336E+01
 0.1402766613067E+01
 0.1766889679017E+01
 0.2525867332756E+01
 0.3621358527834E+01
 0.4109279778382E+01
 0.4381359311973E+01
 0.4604039014970E+01
 0.4724643837870E+01
 0.4753129897377E+01
 0.4723106661225E+01
 0.4662231522125E+01
 0.4586516772943E+01
 0.4504021131056E+01
 0.4418591909500E+01
 0.4331950043727E+01
 0.4244689098246E+01
 0.4156727074927E+01
 0.4067526986205E+01
 0.3976333089777E+01
 0.3882586647722E+01
 0.3786599918117E+01
 0.3689779375709E+01
 0.3593546514124E+01
 0.3498249906712E+01
 0.3403207009468E+01
 0.3307247938242E+01
 0.3209219111788E+01
 0.3108226408982E+01
 0.3003656272824E+01
 0.2895083675746E+01
 0.2782124671451E+01
 0.2664191347380E+01
 0.2540310295003E+01
 0.2409269297748E+01
 0.2269941397070E+01
 0.2121666330769E+01
 0.1964819158104E+01
 0.1801725339628E+01
 0.1638370870575E+01
 0.1488516557886E+01
 0.1385577617045E+01
 0.1413350169932E+01
 0.1736993628810E+01
 0.2530011326633E+01
 0.3757382748299E+01
 0.4299672525350E+01
 0.4605340379204E+01
 0.4838282109795E+01
 0.4943346696131E+01
 0.4947230058935E+01
 0.4895640239887E+01
 0.4819123546538E+01
 0.4732622040430E+01
 0.4642675664257E+01
 0.4552025808321E+01
 0.4461685719143E+01
 0.4371819951895E+01
 0.4282082444589E+01
 0.4191724122054E+01
 0.4099740965320E+01
 0.4005305270777E+01
 0.3908576773072E+01
 0.3811000211147E+01
 0.3714084739911E+01
 0.3618158779119E+01
 0.3522451632740E+01
 0.3425766826368E+01
 0.3327041987020E+01
 0.3225561017467E+01
 0.3120924101577E+01
 0.3012923313116E+01
 0.2901368887206E+01
 0.2785798959704E+01
 0.2665248685692E+01
 0.2538368167296E+01
 0.2403709151685E+01
 0.2260025424134E+01
 0.2106713114311E+01
 0.1944501701614E+01
 0.1776649843440E+01
 0.1611927383765E+01
 0.1475107540967E+01
 0.1442356789645E+01
 0.1703076449285E+01
 0.2517807382249E+01
 0.3905103863222E+01
 0.4507041070929E+01
 0.4851269933221E+01
 0.5088798466044E+01
 0.5167672877947E+01
 0.5140055787372E+01
 0.5064616041954E+01
 0.4972365195511E+01
 0.4875602923226E+01
 0.4778807750053E+01
 0.4683463446382E+01
 0.4589848172017E+01
 0.4497722607970E+01
 0.4406529088193E+01
 0.4315366362282E+01
 0.4223010692172E+01
 0.4128335144051E+01
 0.4031290764104E+01
 0.3933323584995E+01
 0.3835998448047E+01
 0.3739580542925E+01
 0.3643195202604E+01
 0.3545660351275E+01
 0.3446080698616E+01
 0.3343992259384E+01
 0.3239265796061E+01
 0.3131958752953E+01
 0.3022130935039E+01
 0.2909515511009E+01
 0.2793241112895E+01
 0.2671928431778E+01
 0.2543940910159E+01
 0.2407592233841E+01
 0.2261451056018E+01
 0.2104813865222E+01
 0.1938340042575E+01
 0.1765507075247E+01
 0.1600119637593E+01
 0.1502346005960E+01
 0.1672816168913E+01
 0.2485170477815E+01
 0.4068028114022E+01
 0.4737240601825E+01
 0.5124993137435E+01
 0.5356253962405E+01
 0.5394354517471E+01
 0.5328368024506E+01
 0.5228093538642E+01
 0.5120918050565E+01
 0.5014894331015E+01
 0.4912105525921E+01
 0.4812722336626E+01
 0.4716310347817E+01
 0.4622279781017E+01
 0.4529935087711E+01
 0.4438313017326E+01
 0.4346032315158E+01
 0.4251646406044E+01
 0.4154819083916E+01
 0.4056923911745E+01
 0.3959510639413E+01
 0.3862713230747E+01
 0.3765546821050E+01
 0.3666919632912E+01
 0.3566210841146E+01
 0.3463296457838E+01
 0.3358372878525E+01
 0.3251802518949E+01
 0.3143944418996E+01
 0.3034798274925E+01
 0.2923684278949E+01
 0.2809330003680E+01
 0.2690087509790E+01
 0.2564033288705E+01
 0.2429138727017E+01
 0.2283574027468E+01
 0.2125841139027E+01
 0.1954509883492E+01
 0.1771075097737E+01
 0.1610814254292E+01
 0.1661988890138E+01
 0.2428592594631E+01
 0.4251124251412E+01
 0.4999352552327E+01
 0.5434102353503E+01
 0.5639275664675E+01
 0.5617703793768E+01
 0.5508154078188E+01
 0.5384148112582E+01
 0.5263848694178E+01
 0.5150026201730E+01
 0.5042336136570E+01
 0.4939678204803E+01
 0.4840985780065E+01
 0.4745396598475E+01
 0.4652166061250E+01
 0.4560391234129E+01
 0.4468647842540E+01
 0.4375179232388E+01
 0.4279257211449E+01
 0.4182043278858E+01
 0.4084930573644E+01
 0.3987820997635E+01
 0.3889642804288E+01
 0.3789528323361E+01
 0.3687278569623E+01
 0.3583209479695E+01
 0.3477891015338E+01
 0.3372013828424E+01
 0.3266272280486E+01
 0.3161002046302E+01
 0.3055826478438E+01
 0.2949748453261E+01
 0.2841333713925E+01
 0.2728682374826E+01
 0.2609469396812E+01
 0.2481176931830E+01
 0.2340915257963E+01
 0.2183622866495E+01
 0.1999292466697E+01
 0.1790925355063E+01
 0.1700253723717E+01
 0.2348929255934E+01
 0.4462062869238E+01
 0.5308218396132E+01
 0.5787927068813E+01
 0.5931866946865E+01
 0.5828782371045E+01
 0.5675128805267E+01
 0.5531138785972E+01
 0.5400395582462E+01
 0.5280668137570E+01
 0.5169367553070E+01
 0.5064276250972E+01
 0.4963836885819E+01
 0.4867008168119E+01
 0.4773089426923E+01
 0.4681386175315E+01
 0.4590623204471E+01
 0.4498816870485E+01
 0.4404720436588E+01
 0.4309023112288E+01
 0.4212689242134E+01
 0.4115251217477E+01
 0.4015645767695E+01
 0.3913454292526E+01
 0.3809091793990E+01
 0.3703420345025E+01
 0.3597418373313E+01
 0.3492102281120E+01
 0.3388511632455E+01
 0.3287377962328E+01
 0.3188755646822E+01
 0.3092131099747E+01
 0.2996559889461E+01
 0.2900483508135E+01
 0.2801638103892E+01
 0.2697338924002E+01
 0.2584345935800E+01
 0.2456062658278E+01
 0.2295166758157E+01
 0.2071348530969E+01
 0.1838569173516E+01
 0.2262534130204E+01
 0.4714594752380E+01
 0.5689722195815E+01
 0.6195855461847E+01
 0.6218225708688E+01
 0.6015431980028E+01
 0.5825909141031E+01
 0.5667862383046E+01
 0.5530030269922E+01
 0.5406681018220E+01
 0.5293182139948E+01
 0.5186541621703E+01
 0.5084881779677E+01
 0.4987088451742E+01
 0.4892584639909E+01
 0.4801034108392E+01
 0.4711605762990E+01
 0.4622336512290E+01
 0.4531344831071E+01
 0.4438357537843E+01
 0.4343391114402E+01
 0.4245451327303E+01
 0.4143737242744E+01
 0.4038636733117E+01
 0.3931408943396E+01
 0.3823563008480E+01
 0.3716503757058E+01
 0.3611535543004E+01
 0.3510004900094E+01
 0.3413075598110E+01
 0.3321387256192E+01
 0.3235173381016E+01
 0.3154305343919E+01
 0.3077932842028E+01
 0.3004268686092E+01
 0.2930961665937E+01
 0.2855607047209E+01
 0.2772662918684E+01
 0.2664731977742E+01
 0.2482714859843E+01
 0.2156745699111E+01
 0.2231238694140E+01
 0.5039170558281E+01
 0.6193022673636E+01
 0.6658680687817E+01
 0.6463475833387E+01
 0.6166023610861E+01
 0.5959353531965E+01
 0.5793342909329E+01
 0.5652639361843E+01
 0.5528126104597E+01
 0.5413890889810E+01
 0.5306586655431E+01
 0.5204198961712E+01
 0.5105658997422E+01
 0.5010562703928E+01
 0.4919028625332E+01
 0.4831061763019E+01
 0.4745315467278E+01
 0.4659287959520E+01
 0.4570789374127E+01
 0.4477888056079E+01
 0.4378978389000E+01
 0.4274099674690E+01
 0.4164968099478E+01
 0.4053925782390E+01
 0.3943205724112E+01
 0.3834642741042E+01
 0.3729752889202E+01
 0.3630061851930E+01
 0.3537148295682E+01
 0.3452449573241E+01
 0.3377296183582E+01
 0.3312736092356E+01
 0.3259021032133E+01
 0.3215339058677E+01
 0.3180102828553E+01
 0.3152507133316E+01
 0.3131318263770E+01
 0.3105571406618E+01
 0.3044171072573E+01
 0.2768553608559E+01
 0.2430756115613E+01
 0.5523338498531E+01
 0.6923433931881E+01
 0.7128975314927E+01
 0.6605954590773E+01
 0.6282443276432E+01
 0.6074226189691E+01
 0.5907370850049E+01
 0.5768585889211E+01
 0.5645249771876E+01
 0.5531753903952E+01
 0.5424608910115E+01
 0.5321932232900E+01
 0.5222793422215E+01
 0.5126994028601E+01
 0.5035065143197E+01
 0.4948193497926E+01
 0.4866937735016E+01
 0.4788733177370E+01
 0.4707496781544E+01
 0.4617374635266E+01
 0.4516486046814E+01
 0.4406884708710E+01
 0.4292270557691E+01
 0.4176261831181E+01
 0.4061838142741E+01
 0.3951266342194E+01
 0.3846187169119E+01
 0.3748003215175E+01
 0.3658558941518E+01
 0.3580459332138E+01
 0.3516628872052E+01
 0.3469617393525E+01
 0.3441186399485E+01
 0.3432071081620E+01
 0.3442062693416E+01
 0.3471251550796E+01
 0.3525586934038E+01
 0.3607842625579E+01
 0.3732764559191E+01
 0.3800035304403E+01
 0.3254890303830E+01
 0.6489382765143E+01
 0.8152340255082E+01
 0.7309280541543E+01
 0.6637413630136E+01
 0.6374270169607E+01
 0.6167628438443E+01
 0.6011835560759E+01
 0.5878260385464E+01
 0.5758627433960E+01
 0.5647139596309E+01
 0.5540900209512E+01
 0.5438289403195E+01
 0.5338621485497E+01
 0.5241919810223E+01
 0.5148974315224E+01
 0.5061882187709E+01
 0.4985541661900E+01
 0.4919923014037E+01
 0.4850492070089E+01
 0.4763456822642E+01
 0.4658674201968E+01
 0.4542165951886E+01
 0.4420267428523E+01
 0.4297947673826E+01
 0.4178862266503E+01
 0.4065706260168E+01
 0.3960295773533E+01
 0.3863257792371E+01
 0.3776168712621E+01
 0.3703675358347E+01
 0.3651008719104E+01
 0.3622305007888E+01
 0.3621238890211E+01
 0.3650912502517E+01
 0.3713061185462E+01
 0.3808379125367E+01
 0.3941198840624E+01
 0.4156956158571E+01
 0.4483671583025E+01
 0.5182526106281E+01
 0.5472431271572E+01
 0.9510588900774E+01
 0.2352439136058E-01
 0.7265296007098E-01
 0.9920532237450E-01
 0.1125441078177E+00
 0.1189785577289E+00
 0.1219238019869E+00
 0.1226690413831E+00
 0.1209678870666E+00
 0.1155684509328E+00
 0.1047183088822E+00
 0.8680409313063E-01
 0.6119645856082E-01
 0.3034883611210E-01
 0.2787822176614E-01
 0.7089188317044E-01
 0.1225504106673E+00
 0.1775979172606E+00
 0.2338242366420E+00
 0.2898392453504E+00
 0.3342574471872E+00
 0.2810698769882E-01
 0.7862192449567E-01
 0.1071307332246E+00
 0.1219634196774E+00
 0.1289489481350E+00
 0.1314539373909E+00
 0.1308833920402E+00
 0.1272028626188E+00
 0.1194259609237E+00
 0.1060994890868E+00
 0.8591882776697E-01
 0.5851256095191E-01
 0.2713110676856E-01
 0.3190641248200E-01
 0.7717159089363E-01
 0.1299956465660E+00
 0.1861753410302E+00
 0.2438024117032E+00
 0.2972864318644E+00
 0.3365639509685E+00
 0.3202481964519E-01
 0.8347828016015E-01
 0.1135410874290E+00
 0.1296348987356E+00
 0.1371483738393E+00
 0.1393283229929E+00
 0.1376563553510E+00
 0.1322765821993E+00
 0.1224401363822E+00
 0.1069674341058E+00
 0.8481779376429E-01
 0.5584115329447E-01
 0.2436846879817E-01
 0.3607802452572E-01
 0.8306138683162E-01
 0.1368167126834E+00
 0.1937639999958E+00
 0.2509384731424E+00
 0.3021557491294E+00
 0.3435032344965E+00
 0.3545791236121E-01
 0.8731796241663E-01
 0.1185855882489E+00
 0.1357419489145E+00
 0.1437490493205E+00
 0.1457073433152E+00
 0.1431334656239E+00
 0.1363178240519E+00
 0.1247212340230E+00
 0.1074058830061E+00
 0.8355921960224E-01
 0.5324274482756E-01
 0.2217302807477E-01
 0.4015882473638E-01
 0.8843738818377E-01
 0.1428472848663E+00
 0.1999211558242E+00
 0.2562330965080E+00
 0.3070081328753E+00
 0.3508550372034E+00
 0.3848720858737E-01
 0.9029573146644E-01
 0.1224178599097E+00
 0.1404533467391E+00
 0.1489194474892E+00
 0.1507471866761E+00
 0.1474560276190E+00
 0.1394507804456E+00
 0.1263730384640E+00
 0.1074963131792E+00
 0.8220881001653E-01
 0.5077673993897E-01
 0.2061212700714E-01
 0.4397434359970E-01
 0.9318970358374E-01
 0.1479259334288E+00
 0.2047857040525E+00
 0.2605151483303E+00
 0.3115029324096E+00
 0.3575009464020E+00
 0.4117369735378E-01
 0.9253641675402E-01
 0.1251929954745E+00
 0.1439308188268E+00
 0.1528204628903E+00
 0.1545990906506E+00
 0.1507605769810E+00
 0.1417946205293E+00
 0.1274951952664E+00
 0.1073193915140E+00
 0.8083284821534E-01
 0.4849972386598E-01
 0.1967999880303E-01
 0.4739399524091E-01
 0.9722744923643E-01
 0.1520373674541E+00
 0.2085913014949E+00
 0.2639582408803E+00
 0.3153643481222E+00
 0.3630153440185E+00
 0.4356624780544E-01
 0.9414779692343E-01
 0.1270530791298E+00
 0.1463290301584E+00
 0.1556057914119E+00
 0.1574082087823E+00
 0.1531784789012E+00
 0.1434638351421E+00
 0.1281838930741E+00
 0.1069538742644E+00
 0.7949608468862E-01
 0.4646405869683E-01
 0.1928424961583E-01
 0.5032074833133E-01
 0.1005076926618E+00
 0.1552289961243E+00
 0.2114553276196E+00
 0.2665792760218E+00
 0.3183939799911E+00
 0.3672236439281E+00
 0.4570627105388E-01
 0.9522373761996E-01
 0.1281275066370E+00
 0.1477928745753E+00
 0.1574216634920E+00
 0.1593132953526E+00
 0.1548356666851E+00
 0.1445683527895E+00
 0.1285317304275E+00
 0.1064757862652E+00
 0.7826048066163E-01
 0.4471637336707E-01
 0.1926691314680E-01
 0.5268982150777E-01
 0.1030202267950E+00
 0.1575432862419E+00
 0.2134302680484E+00
 0.2683477578556E+00
 0.3204647620937E+00
 0.3700584480177E+00
 0.4762985159673E-01
 0.9584722171291E-01
 0.1285338023906E+00
 0.1484571463981E+00
 0.1584062063290E+00
 0.1604465023136E+00
 0.1558525199564E+00
 0.1452134399202E+00
 0.1286274307878E+00
 0.1059577576950E+00
 0.7718421772606E-01
 0.4329651518036E-01
 0.1944981999407E-01
 0.5446126326877E-01
 0.1047672174637E+00
 0.1590094799952E+00
 0.2145353978163E+00
 0.2692276677949E+00
 0.3214990346920E+00
 0.3715030444072E+00
 0.4936902871539E-01
 0.9609235647275E-01
 0.1283788896340E+00
 0.1484467841872E+00
 0.1586892943049E+00
 0.1609331937315E+00
 0.1563437554766E+00
 0.1454995507301E+00
 0.1285555368477E+00
 0.1054684782089E+00
 0.7632096277743E-01
 0.4223740111679E-01
 0.1967540521637E-01
 0.5561133492397E-01
 0.1057545730411E+00
 0.1596461442294E+00
 0.2147762681234E+00
 0.2691907260113E+00
 0.3214541184102E+00
 0.3715621430148E+00
 0.5095260795238E-01
 0.9602584867193E-01
 0.1277602828745E+00
 0.1478774430255E+00
 0.1583926710715E+00
 0.1608919057292E+00
 0.1564183410591E+00
 0.1455221865766E+00
 0.1283961492102E+00
 0.1050722922580E+00
 0.7571947227263E-01
 0.4156608036644E-01
 0.1982819972091E-01
 0.5612669209134E-01
 0.1059889899752E+00
 0.1594657900660E+00
 0.2141548407128E+00
 0.2682201562495E+00
 0.3203128031233E+00
 0.3702551666443E+00
 0.5240672227533E-01
 0.9570811024886E-01
 0.1267671540004E+00
 0.1468561712010E+00
 0.1576302505764E+00
 0.1604344249559E+00
 0.1561794684604E+00
 0.1453717949076E+00
 0.1282247442347E+00
 0.1048289751244E+00
 0.7542360478967E-01
 0.4130564057777E-01
 0.1984111781581E-01
 0.5600107619734E-01
 0.1054775643616E+00
 0.1584785977743E+00
 0.2126745763473E+00
 0.2663108038166E+00
 0.3180777936248E+00
 0.3676195217197E+00
 0.5375524003187E-01
 0.9519411720924E-01
 0.1254812622722E+00
 0.1454821085751E+00
 0.1565085181236E+00
 0.1596659666556E+00
 0.1557245979134E+00
 0.1451337343029E+00
 0.1281120948176E+00
 0.1047937051955E+00
 0.7547265186396E-01
 0.4147722933259E-01
 0.1969644682986E-01
 0.5523375957899E-01
 0.1042282755986E+00
 0.1566949448548E+00
 0.2103428019551E+00
 0.2634683145343E+00
 0.3147677759573E+00
 0.3637083634938E+00
 0.5502007775205E-01
 0.9453409772070E-01
 0.1239777659164E+00
 0.1438471682056E+00
 0.1551269861221E+00
 0.1586854286666E+00
 0.1551455756787E+00
 0.1448883171966E+00
 0.1281243018351E+00
 0.1050172018006E+00
 0.7590181784709E-01
 0.4210165048827E-01
 0.1942833382958E-01
 0.5382911613114E-01
 0.1022506449456E+00
 0.1541269567422E+00
 0.2071717025037E+00
 0.2597080299962E+00
 0.3104142115047E+00
 0.3585866346852E+00
 0.5622145111167E-01
 0.9377410029724E-01
 0.1223259367570E+00
 0.1420366887845E+00
 0.1535786795664E+00
 0.1575857047094E+00
 0.1545288206383E+00
 0.1447109311609E+00
 0.1283229235978E+00
 0.1055459678903E+00
 0.7674271634324E-01
 0.4320020140740E-01
 0.1912914188864E-01
 0.5179700786625E-01
 0.9955632516862E-01
 0.1507893857781E+00
 0.2031785793774E+00
 0.2550537519760E+00
 0.3050586990343E+00
 0.3523278525045E+00
 0.5737808457916E-01
 0.9295647718074E-01
 0.1205897983889E+00
 0.1401300564167E+00
 0.1519506380099E+00
 0.1564540442397E+00
 0.1539555721377E+00
 0.1446722300159E+00
 0.1287651786725E+00
 0.1064225825251E+00
 0.7802380462266E-01
 0.4479465967167E-01
 0.1895703303748E-01
 0.4915398240033E-01
 0.9615957328471E-01
 0.1467000424870E+00
 0.1983856853939E+00
 0.2495364819409E+00
 0.2987507601145E+00
 0.3450115347969E+00
 0.5850739245013E-01
 0.9212030779599E-01
 0.1188287059688E+00
 0.1382012998462E+00
 0.1503244281338E+00
 0.1553724499409E+00
 0.1535021898796E+00
 0.1448383813393E+00
 0.1295041966472E+00
 0.1076860040814E+00
 0.7977072061942E-01
 0.4690656191139E-01
 0.1913441073051E-01
 0.4592563834296E-01
 0.9207763872207E-01
 0.1418799326082E+00
 0.1928198184189E+00
 0.2431931909234E+00
 0.2915459553077E+00
 0.3367210697108E+00
 0.5962564102266E-01
 0.9130178110727E-01
 0.1170978838649E+00
 0.1363196660218E+00
 0.1487766652757E+00
 0.1544181062527E+00
 0.1532404959715E+00
 0.1452713554971E+00
 0.1305892948259E+00
 0.1093718593412E+00
 0.8200651490865E-01
 0.4955608337134E-01
 0.1991949243641E-01
 0.4215111335717E-01
 0.8733114237794E-01
 0.1363532122167E+00
 0.1865117863480E+00
 0.2360656508326E+00
 0.2835042471121E+00
 0.3275419843524E+00
 0.6074809808141E-01
 0.9053455119476E-01
 0.1154489350337E+00
 0.1345501835882E+00
 0.1473795443155E+00
 0.1536638337769E+00
 0.1532381497081E+00
 0.1460292427053E+00
 0.1320662644839E+00
 0.1115127053451E+00
 0.8475178927036E-01
 0.5276087624485E-01
 0.2154356682372E-01
 0.3789190441802E-01
 0.8194456242531E-01
 0.1301470414845E+00
 0.1794958162427E+00
 0.2281993357361E+00
 0.2746885567222E+00
 0.3175604407833E+00
 0.6188917451752E-01
 0.8985007774568E-01
 0.1139303348037E+00
 0.1329542225459E+00
 0.1462013819151E+00
 0.1531785658422E+00
 0.1535590468994E+00
 0.1471665869258E+00
 0.1339776552071E+00
 0.1141382585951E+00
 0.8802476428331E-01
 0.5653515300550E-01
 0.2414505750786E-01
 0.3325022490077E-01
 0.7594701939910E-01
 0.1232914034210E+00
 0.1718089542610E+00
 0.2196424233588E+00
 0.2651634448265E+00
 0.3068619019458E+00
 0.6306256190539E-01
 0.8927796130850E-01
 0.1125879207955E+00
 0.1315900585169E+00
 0.1453071728961E+00
 0.1530278444088E+00
 0.1542637367145E+00
 0.1487347275530E+00
 0.1363630496108E+00
 0.1172755913205E+00
 0.9184130279569E-01
 0.6088915939450E-01
 0.2775101886683E-01
 0.2840957475249E-01
 0.6937371196950E-01
 0.1158189531054E+00
 0.1634904815178E+00
 0.2104449114830E+00
 0.2549940042723E+00
 0.2955298716700E+00
 0.6428136929668E-01
 0.8884628206201E-01
 0.1114653902079E+00
 0.1305134501568E+00
 0.1447591639313E+00
 0.1532743330206E+00
 0.1554098499328E+00
 0.1507821416534E+00
 0.1392593236291E+00
 0.1209492980077E+00
 0.9621491511755E-01
 0.6582903983911E-01
 0.3231136313256E-01
 0.2372743556741E-01
 0.6226872030304E-01
 0.1077649718547E+00
 0.1545813785845E+00
 0.2006578082472E+00
 0.2442451035095E+00
 0.2836452863219E+00
 0.6555826223867E-01
 0.8858195025322E-01
 0.1106048154998E+00
 0.1297782382375E+00
 0.1446174476937E+00
 0.1539783445925E+00
 0.1570525330374E+00
 0.1533547808715E+00
 0.1427008897597E+00
 0.1251816376057E+00
 0.1011567667534E+00
 0.7135700473672E-01
 0.3774546275117E-01
 0.1992751780136E-01
 0.5469078897237E-01
 0.9916754279194E-01
 0.1451238517008E+00
 0.1903324516641E+00
 0.2329806855710E+00
 0.2712867259847E+00
 0.6690560709351E-01
 0.8851107631704E-01
 0.1100471895303E+00
 0.1294369747473E+00
 0.1449405801561E+00
 0.1551983814319E+00
 0.1592448827005E+00
 0.1564963980128E+00
 0.1467199222137E+00
 0.1299926578327E+00
 0.1066757023706E+00
 0.7747167634971E-01
 0.4397182200025E-01
 0.1828205292832E-01
 0.4672610519787E-01
 0.9006814617946E-01
 0.1351609620222E+00
 0.1795198984516E+00
 0.2212632640832E+00
 0.2585292998832E+00
 0.6833562406397E-01
 0.8865936897973E-01
 0.1098330113712E+00
 0.1295415899171E+00
 0.1457862228476E+00
 0.1569916841232E+00
 0.1620383750527E+00
 0.1602488589490E+00
 0.1513465640843E+00
 0.1354003082766E+00
 0.1127782930345E+00
 0.8416850307320E-01
 0.5091934641708E-01
 0.1999337283501E-01
 0.3851921915522E-01
 0.8051307605891E-01
 0.1247363892608E+00
 0.1682703930466E+00
 0.2091533016217E+00
 0.2454439695205E+00
 0.6986055294359E-01
 0.8905257045568E-01
 0.1100029242974E+00
 0.1301441044120E+00
 0.1472118106503E+00
 0.1594147848722E+00
 0.1654832837308E+00
 0.1646524357505E+00
 0.1566091171445E+00
 0.1414205484073E+00
 0.1194689088133E+00
 0.9144016630366E-01
 0.5852868679616E-01
 0.2488368256170E-01
 0.3035675604943E-01
 0.7055655290225E-01
 0.1138944085811E+00
 0.1566328680291E+00
 0.1967086227185E+00
 0.2320974793745E+00
 0.7149283663902E-01
 0.8971693937143E-01
 0.1105984180016E+00
 0.1312973931122E+00
 0.1492752442633E+00
 0.1625240596798E+00
 0.1696290800619E+00
 0.1697460766819E+00
 0.1625342144456E+00
 0.1480674551730E+00
 0.1267498162297E+00
 0.9927694117968E-01
 0.6675008551343E-01
 0.3190730692549E-01
 0.2291837238650E-01
 0.6026766915357E-01
 0.1026802211768E+00
 0.1446545140509E+00
 0.1839839765671E+00
 0.2185525788898E+00
 0.7324532905312E-01
 0.9067979454672E-01
 0.1116626080254E+00
 0.1330560059485E+00
 0.1520356046678E+00
 0.1663762721011E+00
 0.1745248075483E+00
 0.1755676474519E+00
 0.1691469739017E+00
 0.1553533319330E+00
 0.1346212987752E+00
 0.1076670021463E+00
 0.7554065984851E-01
 0.4026565289202E-01
 0.1795290776798E-01
 0.4974701661972E-01
 0.9114095033071E-01
 0.1323804777790E+00
 0.1710306966226E+00
 0.2048683329522E+00
 0.7513153631530E-01
 0.9197013685733E-01
 0.1132411073302E+00
 0.1354770507639E+00
 0.1555538855750E+00
 0.1710291005596E+00
 0.1802194230129E+00
 0.1821541386098E+00
 0.1764711308487E+00
 0.1632888198810E+00
 0.1430818024251E+00
 0.1165966901485E+00
 0.8486209485069E-01
 0.4952777217254E-01
 0.1840264194209E-01
 0.3917141368922E-01
 0.7932799087833E-01
 0.1198537169827E+00
 0.1578963987140E+00
 0.1911004408692E+00
 0.7716590378089E-01
 0.9361937239759E-01
 0.1153830075292E+00
 0.1386211417698E+00
 0.1598937363871E+00
 0.1765416375565E+00
 0.1867620935768E+00
 0.1895418302448E+00
 0.1845291414351E+00
 0.1718830043655E+00
 0.1521281025148E+00
 0.1260507669970E+00
 0.9467893492242E-01
 0.5946321025198E-01
 0.2446269629864E-01
 0.2893507305719E-01
 0.6730241644166E-01
 0.1071150918478E+00
 0.1446246069647E+00
 0.1773014126107E+00
 0.7936416703008E-01
 0.9566216983205E-01
 0.1181419919494E+00
 0.1425534158350E+00
 0.1651222040156E+00
 0.1829748453551E+00
 0.1942024367442E+00
 0.1977664041315E+00
 0.1933422455783E+00
 0.1811435009319E+00
 0.1617554813198E+00
 0.1360126863984E+00
 0.1049574389955E+00
 0.6993552160584E-01
 0.3351816938464E-01
 0.2017120720966E-01
 0.5514815783546E-01
 0.9420393247758E-01
 0.1312540383511E+00
 0.1635198598674E+00
 0.8174379396613E-01
 0.9813749932399E-01
 0.1215776085649E+00
 0.1473446152344E+00
 0.1713104548563E+00
 0.1903919478067E+00
 0.2025906905150E+00
 0.2068629970434E+00
 0.2029304819951E+00
 0.1910765036063E+00
 0.1719578965363E+00
 0.1464649084112E+00
 0.1156649536590E+00
 0.8085280269817E-01
 0.4396475620335E-01
 0.1625007153103E-01
 0.4300799809704E-01
 0.8115981074998E-01
 0.1178170924119E+00
 0.1497976896069E+00
 0.8432456068117E-01
 0.1010899234590E+00
 0.1257567374721E+00
 0.1530722269349E+00
 0.1785344456115E+00
 0.1988587305158E+00
 0.2119777992115E+00
 0.2168661930770E+00
 0.2133126554374E+00
 0.2016867782392E+00
 0.1827280993360E+00
 0.1573892469895E+00
 0.1267697889679E+00
 0.9214533636647E-01
 0.5515876884337E-01
 0.2064596630468E-01
 0.3120089957568E-01
 0.6802742314990E-01
 0.1043376702660E+00
 0.1361675518503E+00
 0.8712933157805E-01
 0.1045712450023E+00
 0.1307552893675E+00
 0.1598216413879E+00
 0.1868754835940E+00
 0.2084437014870E+00
 0.2224153877161E+00
 0.2278099411753E+00
 0.2245062501515E+00
 0.2129775820006E+00
 0.1940576193970E+00
 0.1687671347686E+00
 0.1382415276107E+00
 0.1037555670456E+00
 0.6681322361822E-01
 0.3011461146879E-01
 0.2070266976231E-01
 0.5486984365266E-01
 0.9082961786814E-01
 0.1226591294063E+00
 0.9018516701785E-01
 0.1086426822469E+00
 0.1366601579217E+00
 0.1676872544022E+00
 0.1964205884433E+00
 0.2192180752411E+00
 0.2339556150123E+00
 0.2397274089992E+00
 0.2365273193305E+00
 0.2249505560266E+00
 0.2059366173631E+00
 0.1805796027821E+00
 0.1500515637774E+00
 0.1156343919619E+00
 0.7876972270107E-01
 0.4140308943335E-01
 0.1508244370294E-01
 0.4180898788096E-01
 0.7729511786127E-01
 0.1092990697332E+00
 0.9352500748412E-01
 0.1133778083050E+00
 0.1435714073942E+00
 0.1767732782985E+00
 0.2072625311731E+00
 0.2312555185201E+00
 0.2466508873761E+00
 0.2526507364615E+00
 0.2493903459420E+00
 0.2376056259362E+00
 0.2183536607300E+00
 0.1928068326190E+00
 0.1621729858985E+00
 0.1277411419337E+00
 0.9092427700199E-01
 0.5338216853967E-01
 0.1943543129674E-01
 0.2917323013804E-01
 0.6372211861157E-01
 0.9609594255427E-01
 0.9719039996706E-01
 0.1188668600772E+00
 0.1516042282270E+00
 0.1871939676393E+00
 0.2194993167151E+00
 0.2446317837308E+00
 0.2605534106748E+00
 0.2666106665656E+00
 0.2631080978771E+00
 0.2509410217459E+00
 0.2312955829345E+00
 0.2054275327593E+00
 0.1745792179719E+00
 0.1400431321429E+00
 0.1032085310266E+00
 0.6562306468974E-01
 0.2963740986894E-01
 0.1819541588596E-01
 0.5008786729609E-01
 0.8301011493510E-01
 0.1012370459447E+00
 0.1252218452475E+00
 0.1608905316418E+00
 0.1990713911932E+00
 0.2332338067729E+00
 0.2594242181060E+00
 0.2757144684386E+00
 0.2816359312002E+00
 0.2776914131396E+00
 0.2649534379812E+00
 0.2447476361220E+00
 0.2184182595418E+00
 0.1872422634879E+00
 0.1525111397542E+00
 0.1155847339460E+00
 0.7793298245851E-01
 0.4137474530624E-01
 0.1397573727426E-01
 0.3641496118806E-01
 0.6987628521861E-01
 0.1057443886526E+00
 0.1325917617456E+00
 0.1715666457413E+00
 0.2125348698809E+00
 0.2485737856465E+00
 0.2757106951997E+00
 0.2921836349017E+00
 0.2977522672063E+00
 0.2931484850840E+00
 0.2796387031137E+00
 0.2586940147374E+00
 0.2317531814269E+00
 0.2001303654878E+00
 0.1651156324957E+00
 0.1280269351578E+00
 0.9025818285186E-01
 0.5336191395809E-01
 0.2063251637812E-01
 0.2309895109823E-01
 0.5617332802553E-01
 0.1108943891204E+00
 0.1410873181221E+00
 0.1837691983067E+00
 0.2277253481917E+00
 0.2656292295248E+00
 0.2935691776133E+00
 0.3100076144996E+00
 0.3149814560443E+00
 0.3094834111075E+00
 0.2949911908288E+00
 0.2731224549906E+00
 0.2454021956749E+00
 0.2132066411799E+00
 0.1778222993433E+00
 0.1405136239919E+00
 0.1025788984801E+00
 0.6538803405319E-01
 0.3088255409530E-01
 0.1344526682956E-01
 0.3990924791664E-01
 0.8858138547627E+00
 0.1085330860242E+01
 0.7876818815428E+00
 0.6047412852964E+00
 0.4678273220868E+00
 0.3572986948680E+00
 0.2624583713496E+00
 0.1770153673588E+00
 0.9140467289116E-01
 0.4183710606213E-02
 0.6368668542657E-01
 0.7309244738975E-01
 0.7137028299993E-01
 0.7248038416700E-01
 0.7614951495972E-01
 0.8028253127423E-01
 0.8402564700570E-01
 0.8661398156030E-01
 0.8772285977167E-01
 0.8717498423504E-01
 0.6740005810667E+00
 0.1026932191481E+01
 0.8235119787387E+00
 0.6221644427398E+00
 0.4728514815817E+00
 0.3519410639956E+00
 0.2463765199564E+00
 0.1470053012434E+00
 0.4663248206501E-01
 0.4891180291081E-01
 0.9366108225943E-01
 0.7903288636846E-01
 0.5963258208748E-01
 0.5823771158442E-01
 0.6694742722845E-01
 0.7755764425793E-01
 0.8699674808321E-01
 0.9425255781725E-01
 0.9891298551812E-01
 0.1004659539686E+00
 0.5265778719818E+00
 0.8639409452745E+00
 0.7913726069451E+00
 0.6244457801065E+00
 0.4720900387740E+00
 0.3447396840938E+00
 0.2315891392216E+00
 0.1241224623054E+00
 0.1884634548502E-01
 0.7350492818470E-01
 0.1115093086223E+00
 0.8856097510466E-01
 0.5605910217535E-01
 0.5239048769159E-01
 0.6873661099420E-01
 0.8670703063925E-01
 0.1018592933601E+00
 0.1135301747363E+00
 0.1213886180536E+00
 0.1257530848647E+00
 0.4183638221692E+00
 0.7134836129308E+00
 0.7128646047500E+00
 0.5993366214456E+00
 0.4618369819637E+00
 0.3343375544828E+00
 0.2178407758825E+00
 0.1072478788175E+00
 0.3274523619061E-02
 0.8545793736260E-01
 0.1201837448248E+00
 0.9586733257682E-01
 0.5591483339071E-01
 0.4915110130890E-01
 0.7348331657087E-01
 0.9915183127019E-01
 0.1203747990773E+00
 0.1369071413640E+00
 0.1487231197526E+00
 0.1564733751895E+00
 0.3353662032406E+00
 0.5830746494391E+00
 0.6210892365386E+00
 0.5514510244146E+00
 0.4385613274145E+00
 0.3190437915828E+00
 0.2040973211350E+00
 0.9445746121852E-01
 0.8207516771144E-02
 0.8954629991459E-01
 0.1222519517116E+00
 0.9961417980809E-01
 0.5663661399721E-01
 0.4637571661445E-01
 0.7757915211743E-01
 0.1107542031853E+00
 0.1384554247624E+00
 0.1605127058696E+00
 0.1770070909994E+00
 0.1886999238964E+00
 0.2700170504699E+00
 0.4722915311437E+00
 0.5285775884660E+00
 0.4912038664869E+00
 0.4034728901260E+00
 0.2975616958122E+00
 0.1890303644346E+00
 0.8384086945779E-01
 0.1336102723129E-01
 0.8881998924358E-01
 0.1197739659019E+00
 0.9989253575817E-01
 0.5683564038380E-01
 0.4375297767183E-01
 0.8041479126631E-01
 0.1203948984338E+00
 0.1546114073031E+00
 0.1825842388052E+00
 0.2042565762050E+00
 0.2202823521648E+00
 0.2175860056360E+00
 0.3786278640740E+00
 0.4409340537290E+00
 0.4257369769079E+00
 0.3602545549506E+00
 0.2701332830704E+00
 0.1716043138052E+00
 0.7377939045050E-01
 0.1641507438731E-01
 0.8540474209153E-01
 0.1143863763079E+00
 0.9732950876932E-01
 0.5588960866616E-01
 0.4139471314287E-01
 0.8230093912294E-01
 0.1280864607135E+00
 0.1684426264396E+00
 0.2023573545656E+00
 0.2294201129025E+00
 0.2499879344150E+00
 0.1749275306313E+00
 0.2995319205312E+00
 0.3604799107126E+00
 0.3596452437996E+00
 0.3124382772547E+00
 0.2380760154531E+00
 0.1514864315724E+00
 0.6311109852172E-01
 0.1878721666743E-01
 0.8084526595619E-01
 0.1073957871096E+00
 0.9271529312694E-01
 0.5370392207345E-01
 0.3942626843773E-01
 0.8364218629959E-01
 0.1341259560395E+00
 0.1799594884210E+00
 0.2195260861575E+00
 0.2519252121321E+00
 0.2770556303616E+00
 0.1398447702138E+00
 0.2327532150838E+00
 0.2880114137977E+00
 0.2957332051984E+00
 0.2628553273850E+00
 0.2030011276199E+00
 0.1289477781969E+00
 0.5120426320550E-01
 0.2150127305561E-01
 0.7626007688151E-01
 0.9983560449848E-01
 0.8684224961309E-01
 0.5049496144432E-01
 0.3793050117789E-01
 0.8470932245458E-01
 0.1387981490634E+00
 0.1892920172405E+00
 0.2339993510450E+00
 0.2714684670055E+00
 0.3010183227573E+00
 0.1107480120132E+00
 0.1763937889672E+00
 0.2235742380555E+00
 0.2356470697401E+00
 0.2135894456591E+00
 0.1664370866823E+00
 0.1045912920788E+00
 0.3788414856181E-01
 0.2518472801974E-01
 0.7241723861698E-01
 0.9249771735282E-01
 0.8042684560982E-01
 0.4662961497045E-01
 0.3694177783706E-01
 0.8561210352860E-01
 0.1422918594127E+00
 0.1965740914717E+00
 0.2457825667573E+00
 0.2879121383817E+00
 0.3216141162327E+00
 0.8645385297331E-01
 0.1288727639530E+00
 0.1668441445858E+00
 0.1802880906138E+00
 0.1660977248490E+00
 0.1296760985468E+00
 0.7914314947060E-01
 0.2331475573316E-01
 0.3013821370074E-01
 0.6978829428973E-01
 0.8595347714839E-01
 0.7406955352717E-01
 0.4251509891773E-01
 0.3642542542223E-01
 0.8633141517338E-01
 0.1446957584141E+00
 0.2019038132441E+00
 0.2549196677225E+00
 0.3012253908227E+00
 0.3387354921488E+00
 0.6606068282436E-01
 0.8887931907630E-01
 0.1173226109966E+00
 0.1300797859816E+00
 0.1213517951007E+00
 0.9373932563561E-01
 0.5332401356625E-01
 0.8160724176891E-02
 0.3641378873804E-01
 0.6860452456431E-01
 0.8057637761353E-01
 0.6823658405074E-01
 0.3852517796603E-01
 0.3626229888313E-01
 0.8676553284646E-01
 0.1460218504595E+00
 0.2053373639847E+00
 0.2614640439943E+00
 0.3114466495665E+00
 0.3523943108700E+00
 0.4886820430922E-01
 0.5534122962137E-01
 0.7444789044035E-01
 0.8514221947800E-01
 0.7996149496162E-01
 0.5939334476479E-01
 0.2778732241843E-01
 0.9583581231309E-02
 0.4389137039617E-01
 0.6891602467488E-01
 0.7657173096536E-01
 0.6325823177886E-01
 0.3495354934596E-01
 0.3626361474155E-01
 0.8677625514743E-01
 0.1462375010618E+00
 0.2068973415170E+00
 0.2654631076683E+00
 0.3186554828955E+00
 0.3626958873248E+00
 0.3432394727935E-01
 0.2748388511836E-01
 0.3770192668859E-01
 0.4542119924360E-01
 0.4227772861346E-01
 0.2718546619286E-01
 0.3386726882107E-02
 0.2568087247886E-01
 0.5234772150277E-01
 0.7064699192901E-01
 0.7401198471158E-01
 0.5934118057497E-01
 0.3199221413953E-01
 0.3621392334938E-01
 0.8623065984211E-01
 0.1453001511730E+00
 0.2065885701219E+00
 0.2669488984056E+00
 0.3229469305846E+00
 0.3698192474751E+00
 0.2198804556838E-01
 0.6934657162646E-02
 0.7882497097015E-02
 0.1109418605932E-01
 0.8608331894703E-02
 0.2534631059580E-02
 0.2058758600714E-01
 0.4195110546481E-01
 0.6151125117144E-01
 0.7364238626424E-01
 0.7287338892139E-01
 0.5659165349067E-01
 0.2973720498750E-01
 0.3591932124496E-01
 0.8503701620417E-01
 0.1431954348368E+00
 0.2044217622783E+00
 0.2659324944939E+00
 0.3244017744491E+00
 0.3740015792002E+00
 0.1151839468928E-01
 0.1741379798199E-01
 0.2152172773878E-01
 0.2007903478465E-01
 0.2175668727889E-01
 0.2950243993549E-01
 0.4251586807446E-01
 0.5779001183716E-01
 0.7110057983694E-01
 0.7770430316225E-01
 0.7306952261205E-01
 0.5504463108658E-01
 0.2822182344991E-01
 0.3523794815914E-01
 0.8317213136233E-01
 0.1399822753349E+00
 0.2004547775913E+00
 0.2624052056608E+00
 0.3230452234954E+00
 0.3755218493254E+00
 0.2865132986991E-02
 0.3301336026597E-01
 0.4351815625023E-01
 0.4568063925327E-01
 0.4796370988697E-01
 0.5365102687065E-01
 0.6268283311243E-01
 0.7288934234804E-01
 0.8084899014130E-01
 0.8261851043741E-01
 0.7447821003111E-01
 0.5469262003011E-01
 0.2746721637644E-01
 0.3407701132382E-01
 0.8068454401101E-01
 0.1358506434761E+00
 0.1948707191879E+00
 0.2563718028743E+00
 0.3187765553318E+00
 0.3746715805283E+00
 0.5449456944913E-02
 0.4607597904169E-01
 0.6192901439271E-01
 0.6742987665751E-01
 0.7060728290028E-01
 0.7495000967339E-01
 0.8092602533320E-01
 0.8702370729300E-01
 0.9051819729292E-01
 0.8817244244179E-01
 0.7696032285353E-01
 0.5550663324470E-01
 0.2752983747964E-01
 0.3236573499164E-01
 0.7762030006808E-01
 0.1311429282141E+00
 0.1881769586709E+00
 0.2479589378670E+00
 0.3112840527302E+00
 0.3716385939525E+00
 0.1194397644636E-01
 0.5675051728930E-01
 0.7700385411187E-01
 0.8555740420209E-01
 0.8985997808654E-01
 0.9344710464726E-01
 0.9716492452888E-01
 0.1000287365697E+00
 0.9990476500317E-01
 0.9416589824821E-01
 0.8037124771875E-01
 0.5744580549366E-01
 0.2852186999905E-01
 0.3003698312134E-01
 0.7390763244915E-01
 0.1260722736659E+00
 0.1813712356536E+00
 0.2382099877591E+00
 0.2997753401457E+00
 0.3661674103873E+00
 0.1767790293431E-01
 0.6529846062658E-01
 0.8910960712224E-01
 0.1004035451010E+00
 0.1059499686325E+00
 0.1092394314874E+00
 0.1113752993359E+00
 0.1117910531805E+00
 0.1088436961052E+00
 0.1004159412149E+00
 0.8456344418129E-01
 0.6046160395443E-01
 0.3059194308949E-01
 0.2708723315160E-01
 0.6929832822040E-01
 0.1204217336800E+00
 0.1747342307303E+00
 0.2299723828286E+00
 0.2862968679460E+00
 0.3539763367926E+00
 0.1178084066130E+00
 0.1522594314824E+00
 0.1999931490983E+00
 0.2478315026939E+00
 0.2879946314490E+00
 0.3166149816062E+00
 0.3324667992067E+00
 0.3359744971144E+00
 0.3285024298936E+00
 0.3118341510747E+00
 0.2878149867094E+00
 0.2581395591351E+00
 0.2243006178765E+00
 0.1875603300770E+00
 0.1491661775348E+00
 0.1103561591269E+00
 0.7239471933233E-01
 0.3695459183337E-01
 0.1238080648705E-01
 0.2209465424788E-01
 0.1252514247268E+00
 0.1661446168520E+00
 0.2203696192563E+00
 0.2731181742692E+00
 0.3159371935334E+00
 0.3450809501719E+00
 0.3597654588089E+00
 0.3609483373768E+00
 0.3504894984823E+00
 0.3305714338750E+00
 0.3033369052244E+00
 0.2707070284511E+00
 0.2342981121046E+00
 0.1953621721672E+00
 0.1551441950226E+00
 0.1148875863869E+00
 0.7594873114236E-01
 0.4018492767569E-01
 0.1364233609090E-01
 0.1935936508981E-01
 0.1335071301564E+00
 0.1823413499701E+00
 0.2439679622533E+00
 0.3018360362324E+00
 0.3470086813938E+00
 0.3760374858655E+00
 0.3887695516540E+00
 0.3868466781641E+00
 0.3727296718870E+00
 0.3490582231826E+00
 0.3182899807517E+00
 0.2825473135970E+00
 0.2435096599340E+00
 0.2024184336260E+00
 0.1605314396861E+00
 0.1191404767455E+00
 0.7971862034579E-01
 0.4428442536930E-01
 0.1623277673323E-01
 0.1869932933546E-01
 0.1428892574886E+00
 0.2011925604694E+00
 0.2711728851697E+00
 0.3342737511752E+00
 0.3812940622466E+00
 0.4093610164408E+00
 0.4191868043234E+00
 0.4132707553630E+00
 0.3947773622474E+00
 0.3668446329206E+00
 0.3322393276549E+00
 0.2932536029060E+00
 0.2515897251989E+00
 0.2084660868296E+00
 0.1651518352075E+00
 0.1229493634622E+00
 0.8332690975209E-01
 0.4782100689570E-01
 0.1807487654960E-01
 0.1793490006792E-01
 0.1536683011122E+00
 0.2232168268185E+00
 0.3024414070994E+00
 0.3707102872547E+00
 0.4188222348945E+00
 0.4448363981491E+00
 0.4506195943139E+00
 0.4397194436897E+00
 0.4160990866547E+00
 0.3834144449438E+00
 0.3447149930573E+00
 0.3024179576546E+00
 0.2582006115643E+00
 0.2132353972535E+00
 0.1687598061157E+00
 0.1259926133735E+00
 0.8618601403531E-01
 0.5036229868697E-01
 0.1933295428802E-01
 0.1685702116027E-01
 0.1661615286128E+00
 0.2490181556038E+00
 0.3383038114350E+00
 0.4114107729076E+00
 0.4595403758581E+00
 0.4821294939976E+00
 0.4825426998155E+00
 0.4655788257709E+00
 0.4360769005071E+00
 0.3982011219354E+00
 0.3552296402694E+00
 0.3096376508143E+00
 0.2630169174860E+00
 0.2164543181076E+00
 0.1710905612341E+00
 0.1279590556804E+00
 0.8803968693214E-01
 0.5198336614777E-01
 0.2019545180335E-01
 0.1551196901110E-01
 0.1807549577823E+00
 0.2793152774271E+00
 0.3793461368311E+00
 0.4566063892197E+00
 0.5032817533342E+00
 0.5207536791499E+00
 0.5142806673268E+00
 0.4901155369347E+00
 0.4540172545467E+00
 0.4106060919540E+00
 0.3632978669854E+00
 0.3145318754251E+00
 0.2657410407939E+00
 0.2178789545830E+00
 0.1719238884210E+00
 0.1286672693355E+00
 0.8882653966024E-01
 0.5278978164448E-01
 0.2077281389778E-01
 0.1400275142818E-01
 0.1979286253321E+00
 0.3149680088071E+00
 0.4262047307342E+00
 0.5064592325087E+00
 0.5497207805737E+00
 0.5600297924050E+00
 0.5449855255733E+00
 0.5124761645781E+00
 0.4691674871243E+00
 0.4200234977393E+00
 0.3684613466625E+00
 0.3167636957357E+00
 0.2661253275498E+00
 0.2173211030115E+00
 0.1711165248511E+00
 0.1280345368037E+00
 0.8855156110010E-01
 0.5286589210291E-01
 0.2110325525636E-01
 0.1242651563298E-01
 0.2182875116467E+00
 0.3570110428344E+00
 0.4795549078871E+00
 0.5610133205706E+00
 0.5983114676702E+00
 0.5990385527632E+00
 0.5736176525327E+00
 0.5316967665111E+00
 0.4807437849007E+00
 0.4258738101702E+00
 0.3703189500085E+00
 0.3160638382452E+00
 0.2639907685888E+00
 0.2146619511479E+00
 0.1685960479637E+00
 0.1260378396325E+00
 0.8724384249172E-01
 0.5226712253839E-01
 0.2118607825741E-01
 0.1086219934731E-01
 0.2426032754074E+00
 0.4066956135550E+00
 0.5400882451677E+00
 0.6201217515108E+00
 0.6482050441088E+00
 0.6365662436996E+00
 0.5989353711683E+00
 0.5467289714417E+00
 0.4879746301171E+00
 0.4276466361477E+00
 0.3685592165727E+00
 0.3122512776935E+00
 0.2592376096981E+00
 0.2098517604611E+00
 0.1643467324553E+00
 0.1226911738897E+00
 0.8494007575818E-01
 0.5102816190497E-01
 0.2100273664491E-01
 0.9369325280954E-02
 0.2718727588644E+00
 0.4655413531530E+00
 0.6084681586362E+00
 0.6833363855612E+00
 0.6981400230762E+00
 0.6710480068206E+00
 0.6195035701737E+00
 0.5564915749224E+00
 0.4901628303036E+00
 0.4249504098198E+00
 0.3629902583579E+00
 0.3052461639550E+00
 0.2518463441081E+00
 0.2029021099909E+00
 0.1583959186827E+00
 0.1180317300262E+00
 0.8167932526213E-01
 0.4917151309078E-01
 0.2052976369273E-01
 0.7989614416387E-02
 0.3074027276563E+00
 0.5354001624009E+00
 0.6852453343023E+00
 0.7497379879270E+00
 0.7462979151505E+00
 0.7005201384636E+00
 0.6337390238664E+00
 0.5599583068184E+00
 0.4867659474934E+00
 0.4175623011128E+00
 0.3535601625788E+00
 0.2950713234373E+00
 0.2418697354777E+00
 0.1938738713657E+00
 0.1508014462575E+00
 0.1121109700858E+00
 0.7750168411701E-01
 0.4671457063956E-01
 0.1974643514296E-01
 0.6748527016673E-02
 0.3509367170535E+00
 0.6185320768465E+00
 0.7706971859393E+00
 0.8176711843215E+00
 0.7901216596263E+00
 0.7226080755174E+00
 0.6400202868394E+00
 0.5562908498505E+00
 0.4774868147569E+00
 0.4054657104003E+00
 0.3403599222362E+00
 0.2818404807891E+00
 0.2294174774777E+00
 0.1828626943424E+00
 0.1416400723037E+00
 0.1049881951464E+00
 0.7244846194892E-01
 0.4367527729442E-01
 0.1863977914983E-01
 0.5656389486101E-02
 0.4048520787761E+00
 0.7176858394765E+00
 0.8645188702392E+00
 0.8843263987685E+00
 0.8261111579608E+00
 0.7346067072105E+00
 0.6369011629467E+00
 0.5450136544090E+00
 0.4623508134228E+00
 0.3888572400969E+00
 0.3236038015797E+00
 0.2657350653194E+00
 0.2146364430965E+00
 0.1699836431307E+00
 0.1309967276658E+00
 0.9672551622626E-01
 0.6656316414167E-01
 0.4007720217375E-01
 0.1720868248595E-01
 0.4709667243289E-02
 0.4724803496553E+00
 0.8361549259708E+00
 0.9652077102294E+00
 0.9450839362131E+00
 0.8496613992543E+00
 0.7337690669453E+00
 0.6234606303742E+00
 0.5261930968939E+00
 0.4417247815228E+00
 0.3681095739073E+00
 0.3035911797351E+00
 0.2469756141385E+00
 0.1976901594097E+00
 0.1553560213966E+00
 0.1189542439987E+00
 0.8738360110690E-01
 0.5989331884831E-01
 0.3595508193970E-01
 0.1546844656752E-01
 0.3893252127450E-02
 0.5586578716019E+00
 0.9776887733479E+00
 0.1068796929660E+01
 0.9925000552403E+00
 0.8551893236992E+00
 0.7179821676901E+00
 0.5997713850648E+00
 0.5004972892999E+00
 0.4162373262423E+00
 0.3437010712207E+00
 0.2806633290715E+00
 0.2257955733476E+00
 0.1787397539056E+00
 0.1390880272725E+00
 0.1055825208324E+00
 0.7701787149347E-01
 0.5249366461029E-01
 0.3136216015074E-01
 0.1345689288069E-01
 0.3183823523411E-02
 0.6707644028400E+00
 0.1145916594600E+01
 0.1165958588673E+01
 0.1015092044359E+01
 0.8371033365549E+00
 0.6871386884884E+00
 0.5671139869714E+00
 0.4690024647130E+00
 0.3866358651805E+00
 0.3161425582467E+00
 0.2551720026126E+00
 0.2024222261325E+00
 0.1579257636430E+00
 0.1212583368880E+00
 0.9092564731071E-01
 0.6567535949015E-01
 0.4443211033187E-01
 0.2638020209572E-01
 0.1124387134092E-01
 0.2552729848405E-02
 0.8207963081967E+00
 0.1340955791116E+01
 0.1235980374884E+01
 0.9961801211319E+00
 0.7942251438015E+00
 0.6439864344586E+00
 0.5274267649799E+00
 0.4328894016493E+00
 0.3536501476632E+00
 0.2859352534695E+00
 0.2274677324236E+00
 0.1770674276886E+00
 0.1353440169455E+00
 0.1018882415547E+00
 0.7498551270202E-01
 0.5339633219690E-01
 0.3579922789859E-01
 0.2113311212519E-01
 0.8943647693972E-02
 0.1960099427355E-02
 0.1031374118143E+01
 0.1549684036356E+01
 0.1224040376346E+01
 0.9291562146360E+00
 0.7335519977761E+00
 0.5922342160251E+00
 0.4826544162247E+00
 0.3931902190965E+00
 0.3179331529434E+00
 0.2535544418663E+00
 0.1979203439664E+00
 0.1499267187829E+00
 0.1110051224019E+00
 0.8087778156061E-01
 0.5770773635935E-01
 0.4024547498319E-01
 0.2671975206718E-01
 0.1577736940848E-01
 0.6759088863933E-02
 0.1335330848120E-02
 0.1344021089666E+01
 0.1575543817227E+01
 0.1095221599275E+01
 0.8359917049558E+00
 0.6625204340653E+00
 0.5352375689095E+00
 0.4342357055954E+00
 0.3507900284616E+00
 0.2800481872788E+00
 0.2193954717728E+00
 0.1669990464299E+00
 0.1213020924295E+00
 0.8458731406064E-01
 0.5787005369401E-01
 0.3909866729392E-01
 0.2637585742757E-01
 0.1734189719424E-01
 0.1047184430413E-01
 0.4935865833516E-02
 0.5399287229849E-03
 0.3591478872578E+00
 0.3663372352589E+00
 0.3762652544134E+00
 0.3838178708198E+00
 0.3884691236454E+00
 0.3900948686001E+00
 0.3885915072441E+00
 0.3838242011369E+00
 0.3756420891880E+00
 0.3639034385201E+00
 0.3485031092795E+00
 0.3294023947637E+00
 0.3066623065084E+00
 0.2804812303804E+00
 0.2512386306888E+00
 0.2195524687995E+00
 0.1863694841590E+00
 0.1531742137601E+00
 0.1223679915580E+00
 0.9900024094496E-01
 0.3710850788716E+00
 0.3833355621300E+00
 0.3936554357050E+00
 0.4023172115763E+00
 0.4085586926840E+00
 0.4119379523500E+00
 0.4121213656859E+00
 0.4088170952277E+00
 0.4017515826183E+00
 0.3906759687681E+00
 0.3753868627789E+00
 0.3557564289043E+00
 0.3317697392790E+00
 0.3035685563975E+00
 0.2715019596540E+00
 0.2361868423877E+00
 0.1986004611417E+00
 0.1602207666749E+00
 0.1236425874345E+00
 0.9225685680753E-01
 0.3798838361892E+00
 0.3969234496693E+00
 0.4095758374238E+00
 0.4198255205883E+00
 0.4276888447955E+00
 0.4327784570632E+00
 0.4346761260781E+00
 0.4329759373123E+00
 0.4272912821481E+00
 0.4172619697253E+00
 0.4025719804295E+00
 0.3829779125103E+00
 0.3583476901914E+00
 0.3287095627086E+00
 0.2943117026265E+00
 0.2556977470772E+00
 0.2137998422161E+00
 0.1701553200698E+00
 0.1271600697841E+00
 0.9100132292961E-01
 0.3872066167606E+00
 0.4070957539311E+00
 0.4227216719291E+00
 0.4352336824951E+00
 0.4450521637192E+00
 0.4520246005121E+00
 0.4557838413255E+00
 0.4558920590117E+00
 0.4518912139382E+00
 0.4433272186773E+00
 0.4297710289876E+00
 0.4108462059123E+00
 0.3862671297363E+00
 0.3558910534719E+00
 0.3197884939057E+00
 0.2783365697182E+00
 0.2323618171261E+00
 0.1833507733016E+00
 0.1342257644131E+00
 0.9176653773883E-01
 0.3935893176909E+00
 0.4151718841165E+00
 0.4332234767308E+00
 0.4481033353770E+00
 0.4600809266076E+00
 0.4691079414836E+00
 0.4748941095796E+00
 0.4770194095989E+00
 0.4749975473228E+00
 0.4683099648864E+00
 0.4564295322898E+00
 0.4388454687058E+00
 0.4150972238606E+00
 0.3848245165994E+00
 0.3478422202467E+00
 0.3042556459432E+00
 0.2546360613079E+00
 0.2003594798223E+00
 0.1443572417721E+00
 0.9347783721631E-01
 0.3989303934850E+00
 0.4215856870648E+00
 0.4414746798298E+00
 0.4584346576052E+00
 0.4725087864665E+00
 0.4836145041484E+00
 0.4914976360289E+00
 0.4957669171007E+00
 0.4959365262238E+00
 0.4914548009894E+00
 0.4817233461010E+00
 0.4661142005620E+00
 0.4439928658042E+00
 0.4147562817662E+00
 0.3778992489527E+00
 0.3331299651360E+00
 0.2805759136520E+00
 0.2211516784220E+00
 0.1573347112651E+00
 0.9568519409545E-01
 0.4030865025764E+00
 0.4264692996974E+00
 0.4476971649972E+00
 0.4663415152820E+00
 0.4822555453639E+00
 0.4952868976465E+00
 0.5051812638120E+00
 0.5115706292965E+00
 0.5139861722551E+00
 0.5118719937247E+00
 0.5045930697978E+00
 0.4914392901013E+00
 0.4716305586232E+00
 0.4443309713179E+00
 0.4086855806444E+00
 0.3639049863846E+00
 0.3094438149841E+00
 0.2453590079603E+00
 0.1730685723815E+00
 0.9804821436516E-01
 0.4059459507665E+00
 0.4298389778775E+00
 0.4520097682698E+00
 0.4719283541601E+00
 0.4893264888004E+00
 0.5039868574107E+00
 0.5156432381386E+00
 0.5239452772899E+00
 0.5284505929149E+00
 0.5286228978106E+00
 0.5238269011420E+00
 0.5133171673696E+00
 0.4962216716226E+00
 0.4715235681696E+00
 0.4380494951341E+00
 0.3944831924182E+00
 0.3394465250865E+00
 0.2717533481510E+00
 0.1910813282180E+00
 0.1003983770941E+00
 0.4074335655846E+00
 0.4316636808332E+00
 0.4544499751155E+00
 0.4752494819914E+00
 0.4937281162389E+00
 0.5096219246978E+00
 0.5226518057331E+00
 0.5324816989019E+00
 0.5386991644079E+00
 0.5408027059963E+00
 0.5381862985395E+00
 0.5301156641255E+00
 0.5156927658472E+00
 0.4938057947078E+00
 0.4630629144294E+00
 0.4217117320568E+00
 0.3675619280189E+00
 0.2979780435331E+00
 0.2102608673671E+00
 0.1036234721082E+00
 0.4074641789077E+00
 0.4318360372122E+00
 0.4549278287532E+00
 0.4762183826813E+00
 0.4953427970863E+00
 0.5120064412480E+00
 0.5259188951357E+00
 0.5367542048776E+00
 0.5441273935489E+00
 0.5475764793878E+00
 0.5465416602468E+00
 0.5403350485067E+00
 0.5280944862806E+00
 0.5087132382572E+00
 0.4807334400729E+00
 0.4421849060841E+00
 0.3903425882615E+00
 0.3213820207556E+00
 0.2300020458012E+00
 0.1105518153812E+00
 0.4060022927647E+00
 0.4302935494098E+00
 0.4533801952386E+00
 0.4747725300198E+00
 0.4940930885385E+00
 0.5110256221876E+00
 0.5252667078291E+00
 0.5364917551031E+00
 0.5443318712350E+00
 0.5483548472564E+00
 0.5480437357635E+00
 0.5427667843244E+00
 0.5317315100518E+00
 0.5139124775173E+00
 0.4879353228870E+00
 0.4518852047944E+00
 0.4029784940703E+00
 0.3369722213781E+00
 0.2470300544920E+00
 0.1217958288243E+00
 0.4030591207098E+00
 0.4270370974535E+00
 0.4498156021136E+00
 0.4709345250553E+00
 0.4900103995292E+00
 0.5067073650976E+00
 0.5207024701548E+00
 0.5316575644299E+00
 0.5391976739054E+00
 0.5428919386260E+00
 0.5422323636240E+00
 0.5366052209779E+00
 0.5252486618919E+00
 0.5071868671362E+00
 0.4811240417227E+00
 0.4452666541912E+00
 0.3970085243989E+00
 0.3323253967714E+00
 0.2444794294756E+00
 0.1200192461000E+00
 0.3986777427098E+00
 0.4221144195762E+00
 0.4443022106762E+00
 0.4648034334067E+00
 0.4832288825218E+00
 0.4992215615911E+00
 0.5124314283778E+00
 0.5224917439490E+00
 0.5289983972475E+00
 0.5314900012875E+00
 0.5294253545306E+00
 0.5221542366244E+00
 0.5088765191562E+00
 0.4885825258747E+00
 0.4599635845831E+00
 0.4212739231637E+00
 0.3701093006624E+00
 0.3030326469802E+00
 0.2148728415044E+00
 0.9726009908595E-01
 0.3929246050852E+00
 0.4156078730022E+00
 0.4369531838945E+00
 0.4565373491959E+00
 0.4739641351917E+00
 0.4888548600904E+00
 0.5008294317954E+00
 0.5094862141553E+00
 0.5143825974563E+00
 0.5150152544047E+00
 0.5107980051692E+00
 0.5010349028496E+00
 0.4848861108491E+00
 0.4613243735939E+00
 0.4290809302738E+00
 0.3865835599235E+00
 0.3319017673359E+00
 0.2627590243490E+00
 0.1768292577573E+00
 0.7384723288947E-01
 0.3858829645518E+00
 0.4076244624457E+00
 0.4279133269014E+00
 0.4463348790819E+00
 0.4624860106179E+00
 0.4759693244433E+00
 0.4863787519986E+00
 0.4932830211565E+00
 0.4962090364047E+00
 0.4946252039409E+00
 0.4879241651236E+00
 0.4754047433209E+00
 0.4562541120455E+00
 0.4295338009811E+00
 0.3941787810744E+00
 0.3490314208607E+00
 0.2929626622468E+00
 0.2252084981738E+00
 0.1463037825530E+00
 0.6045442571119E-01
 0.3776477747699E+00
 0.3982879335483E+00
 0.4173479789764E+00
 0.4344189189000E+00
 0.4490935324320E+00
 0.4609625037629E+00
 0.4696039107867E+00
 0.4745708748710E+00
 0.4753795130517E+00
 0.4714981335650E+00
 0.4623385744282E+00
 0.4472514995844E+00
 0.4255294939040E+00
 0.3964256154464E+00
 0.3592021908156E+00
 0.3132383228549E+00
 0.2582506664756E+00
 0.1947330648344E+00
 0.1247742167852E+00
 0.5305232434589E-01
 0.3683215256409E+00
 0.3877320281587E+00
 0.4054333747530E+00
 0.4210226361987E+00
 0.4340937832046E+00
 0.4442352098333E+00
 0.4510228477915E+00
 0.4540124765446E+00
 0.4527333484332E+00
 0.4466846776417E+00
 0.4353368551764E+00
 0.4181403809697E+00
 0.3945475866979E+00
 0.3640556522200E+00
 0.3262848482952E+00
 0.2811139519690E+00
 0.2289042822893E+00
 0.1708428163399E+00
 0.1093455267911E+00
 0.4825065132846E-01
 0.3580108410168E+00
 0.3760951046280E+00
 0.3923489540385E+00
 0.4063785692749E+00
 0.4177862317288E+00
 0.4261690281148E+00
 0.4311153794128E+00
 0.4322020646520E+00
 0.4289936503043E+00
 0.4210460828956E+00
 0.4079166377855E+00
 0.3891833806042E+00
 0.3644787895332E+00
 0.3335441764090E+00
 0.2963137043992E+00
 0.2530376513776E+00
 0.2044492653454E+00
 0.1519513805285E+00
 0.9773743722154E-01
 0.4470346806480E-01
 0.3468237021956E+00
 0.3635158010812E+00
 0.3782712940970E+00
 0.3907104119804E+00
 0.4004518025731E+00
 0.4071121325501E+00
 0.4103057019521E+00
 0.4096457660447E+00
 0.4047490422101E+00
 0.3952449982411E+00
 0.3807918856035E+00
 0.3611020546770E+00
 0.3359797243667E+00
 0.3053747489435E+00
 0.2694552076825E+00
 0.2286979637272E+00
 0.1839854866817E+00
 0.1366760414784E+00
 0.8858989463925E-01
 0.4185241450569E-01
 0.3348674369154E+00
 0.3501299106183E+00
 0.3633696160711E+00
 0.3742272861059E+00
 0.3823460724429E+00
 0.3873718381944E+00
 0.3889554706078E+00
 0.3867577261472E+00
 0.3804575596698E+00
 0.3697650998516E+00
 0.3544406631028E+00
 0.3343213476341E+00
 0.3093566338198E+00
 0.2796536395671E+00
 0.2455305083249E+00
 0.2075716186319E+00
 0.1666699760896E+00
 0.1240320052024E+00
 0.8111472313899E-01
 0.3947373379242E-01
 0.3222483674120E+00
 0.3360685797352E+00
 0.3478030731062E+00
 0.3571204873674E+00
 0.3636957610535E+00
 0.3672115041064E+00
 0.3673624799261E+00
 0.3638630600252E+00
 0.3564579524886E+00
 0.3449368300817E+00
 0.3291535724832E+00
 0.3090506781850E+00
 0.2846888368460E+00
 0.2562804067684E+00
 0.2242232260622E+00
 0.1891275481644E+00
 0.1518245001200E+00
 0.1133415123668E+00
 0.7483271950480E-01
 0.3746100911714E-01
 0.3090713551593E+00
 0.3214568177127E+00
 0.3317193634787E+00
 0.3395617877570E+00
 0.3446966139549E+00
 0.3468481747018E+00
 0.3457588131110E+00
 0.3411980564129E+00
 0.3329744702383E+00
 0.3209502780839E+00
 0.3050588687574E+00
 0.2853250102618E+00
 0.2618868920209E+00
 0.2350179275703E+00
 0.2051445230261E+00
 0.1728539930099E+00
 0.1388853072375E+00
 0.1040959971854E+00
 0.6940283141745E-01
 0.3570546102814E-01
 0.2954348980502E+00
 0.3064103747037E+00
 0.3152517027564E+00
 0.3217011451893E+00
 0.3255127028131E+00
 0.3264548011456E+00
 0.3243177885217E+00
 0.3189241631963E+00
 0.3101406146789E+00
 0.2978915259918E+00
 0.2821736544366E+00
 0.2630714087441E+00
 0.2407715279646E+00
 0.2155750970533E+00
 0.1879038478443E+00
 0.1582969390109E+00
 0.1273945245294E+00
 0.9590615289731E-01
 0.6456624532288E-01
 0.3408512285075E-01
 0.2814293723759E+00
 0.2910326906241E+00
 0.2985156880703E+00
 0.3036645081210E+00
 0.3062768427869E+00
 0.3061652558050E+00
 0.3031658599321E+00
 0.2971492421683E+00
 0.2880321595317E+00
 0.2757893562522E+00
 0.2604650444886E+00
 0.2421833807825E+00
 0.2211568327607E+00
 0.1976908163631E+00
 0.1721825909770E+00
 0.1451124159470E+00
 0.1170257227051E+00
 0.8850678473998E-01
 0.6014684252396E-01
 0.3251129783468E-01
 0.2671376313189E+00
 0.2754151171621E+00
 0.2816100255145E+00
 0.2855559007630E+00
 0.2870948107519E+00
 0.2860815034838E+00
 0.2823935261987E+00
 0.2759428665291E+00
 0.2666871490629E+00
 0.2546396322729E+00
 0.2398776037688E+00
 0.2225486699454E+00
 0.2028741587019E+00
 0.1811486050133E+00
 0.1577342576101E+00
 0.1330499170408E+00
 0.1075543091000E+00
 0.8172548655911E-01
 0.5603881685260E-01
 0.3094611308571E-01
 0.2526354069140E+00
 0.2596378091300E+00
 0.2646181138781E+00
 0.2674602160674E+00
 0.2680497683181E+00
 0.2662799475109E+00
 0.2620637587817E+00
 0.2553467773093E+00
 0.2461179897237E+00
 0.2344181139816E+00
 0.2203452829042E+00
 0.2040579335501E+00
 0.1857745460707E+00
 0.1657697539935E+00
 0.1443664574934E+00
 0.1219240239960E+00
 0.9882349489406E-01
 0.7545174259767E-01
 0.5218715789930E-01
 0.2938884469251E-01
 0.2379916492117E+00
 0.2437703752310E+00
 0.2476095385742E+00
 0.2494459537779E+00
 0.2492064933192E+00
 0.2468172284204E+00
 0.2422192833843E+00
 0.2353833764131E+00
 0.2263206138908E+00
 0.2150893820465E+00
 0.2017987543217E+00
 0.1866087372665E+00
 0.1697274409723E+00
 0.1514051270863E+00
 0.1319251698612E+00
 0.1115923122801E+00
 0.9071926007196E-01
 0.6961370814764E-01
 0.4856904123973E-01
 0.2786192457627E-01
 0.2232688175474E+00
 0.2278723957554E+00
 0.2306414711749E+00
 0.2315678585970E+00
 0.2306152722071E+00
 0.2277351868688E+00
 0.2228883148301E+00
 0.2160618261290E+00
 0.2072803783490E+00
 0.1966117534668E+00
 0.1841683286892E+00
 0.1701052873668E+00
 0.1546160704629E+00
 0.1379253143678E+00
 0.1202794673285E+00
 0.1019354104285E+00
 0.8314771103272E-01
 0.6415595022666E-01
 0.4517587860282E-01
 0.2640127216743E-01
 0.2085226662559E+00
 0.2119932810162E+00
 0.2137597191862E+00
 0.2138694081377E+00
 0.2123155398253E+00
 0.2090651929224E+00
 0.2040891119544E+00
 0.1973823765867E+00
 0.1889756732199E+00
 0.1789395957194E+00
 0.1673843056276E+00
 0.1544561100458E+00
 0.1403318123647E+00
 0.1252112458506E+00
 0.1093081813143E+00
 0.9283968637820E-01
 0.7601389942345E-01
 0.5901588403127E-01
 0.4199264913693E-01
 0.2504734791495E-01
 0.1938017836460E+00
 0.1961727478545E+00
 0.1970013209124E+00
 0.1963872281486E+00
 0.1943412448692E+00
 0.1908336338433E+00
 0.1858349448705E+00
 0.1793403221394E+00
 0.1713804578343E+00
 0.1620240568211E+00
 0.1513755275537E+00
 0.1395701124885E+00
 0.1267675606308E+00
 0.1131447920689E+00
 0.9888766448409E-01
 0.8418171042689E-01
 0.6920124665410E-01
 0.5409518697470E-01
 0.3896390109547E-01
 0.2382407560043E-01
 0.1791460749853E+00
 0.1804419763421E+00
 0.1803988649682E+00
 0.1791570773059E+00
 0.1767270273557E+00
 0.1730672145770E+00
 0.1681378368070E+00
 0.1619278059629E+00
 0.1544639309253E+00
 0.1458105056642E+00
 0.1360645814068E+00
 0.1253496673021E+00
 0.1138090067890E+00
 0.1015987636972E+00
 0.8888110244709E-01
 0.7581696894304E-01
 0.6255805208697E-01
 0.4923618990839E-01
 0.3594449818982E-01
 0.2267711274993E-01
 0.1645847622098E+00
 0.1648278846858E+00
 0.1639881165732E+00
 0.1622224322645E+00
 0.1595160808870E+00
 0.1557989340877E+00
 0.1510121049788E+00
 0.1451348175977E+00
 0.1381891176821E+00
 0.1302349500277E+00
 0.1213623891553E+00
 0.1116839003082E+00
 0.1013274707462E+00
 0.9043060078512E-01
 0.7913493366054E-01
 0.6758136937890E-01
 0.5590571351374E-01
 0.4423503903586E-01
 0.3268497487855E-01
 0.2135057105705E-01
 0.1501278306167E+00
 0.1493463262273E+00
 0.1478004347896E+00
 0.1456257505815E+00
 0.1427491727416E+00
 0.1390547389293E+00
 0.1344596100568E+00
 0.1289346599353E+00
 0.1225003100822E+00
 0.1152150806993E+00
 0.1071643232881E+00
 0.9845132727395E-01
 0.8919075199743E-01
 0.7950377339377E-01
 0.6951439837394E-01
 0.5934675823126E-01
 0.4912386198395E-01
 0.3897010408609E-01
 0.2902369458760E-01
 0.1949553801466E-01
 0.1357520401688E+00
 0.1339770858388E+00
 0.1318377961648E+00
 0.1293823575364E+00
 0.1264363463123E+00
 0.1228249142339E+00
 0.1184449278546E+00
 0.1132674149734E+00
 0.1073187210342E+00
 0.1006609230171E+00
 0.9337763427007E-01
 0.8556500923572E-01
 0.7732637448273E-01
 0.6876913726808E-01
 0.6000315990010E-01
 0.5114013518867E-01
 0.4229426558093E-01
 0.3358609961923E-01
 0.2515711162189E-01
 0.1720933553423E-01
 0.1214473149373E+00
 0.1187410988770E+00
 0.1161722342784E+00
 0.1135865341835E+00
 0.1106628509640E+00
 0.1071705469741E+00
 0.1030047219551E+00
 0.9815348992356E-01
 0.9265895484019E-01
 0.8659096923571E-01
 0.8003260689618E-01
 0.7307296630097E-01
 0.6580403701303E-01
 0.5831981699446E-01
 0.5071676120160E-01
 0.4309518642258E-01
 0.3556039515440E-01
 0.2822297994845E-01
 0.2119793364185E-01
 0.1459297260143E-01
 0.1072015023239E+00
 0.1037125423148E+00
 0.1009499555912E+00
 0.9838483209792E-01
 0.9553168450696E-01
 0.9214275478768E-01
 0.8815210146403E-01
 0.8358602047148E-01
 0.7850895718010E-01
 0.7299818457748E-01
 0.6713358079582E-01
 0.6099432345533E-01
 0.5465857908284E-01
 0.4820466791709E-01
 0.4171329972024E-01
 0.3527040107724E-01
 0.2897053392404E-01
 0.2291303362489E-01
 0.1718370888790E-01
 0.1181564232049E-01
 0.9301034861820E-01
 0.8907121431556E-01
 0.8640930480170E-01
 0.8394590008627E-01
 0.8110002120096E-01
 0.7771818691371E-01
 0.7382263058377E-01
 0.6948695472727E-01
 0.6479241950817E-01
 0.5981534986631E-01
 0.5462538123867E-01
 0.4928664317671E-01
 0.4385962842055E-01
 0.3840346682515E-01
 0.3297887546418E-01
 0.2765251841941E-01
 0.2250160837835E-01
 0.1762368836430E-01
 0.1311179762005E-01
 0.8990735599899E-02
 0.7893731642724E-01
 0.7521740853034E-01
 0.7290114185681E-01
 0.7035838281043E-01
 0.6728379796703E-01
 0.6374566542625E-01
 0.5985574539993E-01
 0.5570981162378E-01
 0.5138270757987E-01
 0.4693454082548E-01
 0.4241595733532E-01
 0.3787133849930E-01
 0.3334073663700E-01
 0.2886155503937E-01
 0.2447096625283E-01
 0.2020981194580E-01
 0.1613119552438E-01
 0.1231051869296E-01
 0.8914434745620E-02
 0.6100596673685E-02
 0.6547752204930E-01
 0.6308409383522E-01
 0.6059940507642E-01
 0.5737041359020E-01
 0.5374545833980E-01
 0.4992620897430E-01
 0.4601756084269E-01
 0.4207678788718E-01
 0.3814222843647E-01
 0.3424486002050E-01
 0.3041204924901E-01
 0.2666809363621E-01
 0.2303375738749E-01
 0.1952587965866E-01
 0.1615779073880E-01
 0.1294160603210E-01
 0.9893609680118E-02
 0.7053682973441E-02
 0.4508651179489E-02
 0.2863236688130E-02
 0.5393245838197E-01
 0.5292107020817E-01
 0.4862508975012E-01
 0.4416575376877E-01
 0.3992766985854E-01
 0.3592111271362E-01
 0.3211126893472E-01
 0.2847504434872E-01
 0.2500582896494E-01
 0.2170807997154E-01
 0.1859161496675E-01
 0.1566705606037E-01
 0.1294239048296E-01
 0.1042041842536E-01
 0.8097174626001E-02
 0.5961954151007E-02
 0.4002476574613E-02
 0.2230560732134E-02
 0.9871724221480E-03
 0.1662060642625E-02
</DataArray>
<DataArray type="Float64" Name="CK" NumberOfComponents="1" ComponentName0="CK" format="ascii">
 0.0000000000000E+00
 0.0000000000000E+00
 0.0000000000000E+00
 0.0000000000000E+00
 0.0000000000000E+00
 0.0000000000000E+00
 0.0000000000000E+00
 0.0000000000000E+00
 0.0000000000000E+00
 0.0000000000000E+00
 0.0000000000000E+00
 0.0000000000000E+00
 0.0000000000000E+00
 0.0000000000000E+00
 0.0000000000000E+00
 0.0000000000000E+00
 0.0000000000000E+00
 0.0000000000000E+00
 0.0000000000000E+00
 0.0000000000000E+00
 0.0000000000000E+00
 0.0000000000000E+00
 0.0000000000000E+00
 0.0000000000000E+00
 0.0000000000000E+00
 0.0000000000000E+00
 0.0000000000000E+00
 0.0000000000000E+00
 0.0000000000000E+00
 0.0000000000000E+00
 0.0000000000000E+00
 0.0000000000000E+00
 0.0000000000000E+00
 0.0000000000000E+00
 0.0000000000000E+00
 0.0000000000000E+00
 0.0000000000000E+00
 0.0000000000000E+00
 0.0000000000000E+00
 0.0000000000000E+00
 0.0000000000000E+00
 0.0000000000000E+00
 0.0000000000000E+00
 0.0000000000000E+00
 0.0000000000000E+00
 0.0000000000000E+00
 0.0000000000000E+00
 0.0000000000000E+00
 0.0000000000000E+00
 0.0000000000000E+00
 0.0000000000000E+00
 0.0000000000000E+00
 0.0000000000000E+00
 0.0000000000000E+00
 0.0000000000000E+00
 0.0000000000000E+00
 0.0000000000000E+00
 0.0000000000000E+00
 0.0000000000000E+00
 0.0000000000000E+00
 0.0000000000000E+00
 0.0000000000000E+00
 0.0000000000000E+00
 0.0000000000000E+00
 0.0000000000000E+00
 0.0000000000000E+00
 0.0000000000000E+00
 0.0000000000000E+00
 0.0000000000000E+00
 0.0000000000000E+00
 0.0000000000000E+00
 0.0000000000000E+00
 0.0000000000000E+00
 0.0000000000000E+00
 0.0000000000000E+00
 0.0000000000000E+00
 0.0000000000000E+00
 0.0000000000000E+00
 0.0000000000000E+00
 0.0000000000000E+00
 0.0000000000000E+00
 0.0000000000000E+00
 0.0000000000000E+00
 0.0000000000000E+00
 0.0000000000000E+00
 0.0000000000000E+00
 0.0000000000000E+00
 0.0000000000000E+00
 0.0000000000000E+00
 0.0000000000000E+00
 0.0000000000000E+00
 0.0000000000000E+00
 0.0000000000000E+00
 0.0000000000000E+00
 0.0000000000000E+00
 0.0000000000000E+00
 0.0000000000000E+00
 0.0000000000000E+00
 0.0000000000000E+00
 0.0000000000000E+00
 0.0000000000000E+00
 0.0000000000000E+00
 0.0000000000000E+00
 0.0000000000000E+00
 0.0000000000000E+00
 0.0000000000000E+00
 0.0000000000000E+00
 0.0000000000000E+00
 0.0000000000000E+00
 0.0000000000000E+00
 0.0000000000000E+00
 0.0000000000000E+00
 0.0000000000000E+00
 0.0000000000000E+00
 0.0000000000000E+00
 0.0000000000000E+00
 0.0000000000000E+00
 0.0000000000000E+00
 0.0000000000000E+00
 0.0000000000000E+00
 0.0000000000000E+00
 0.0000000000000E+00
 0.0000000000000E+00
 0.0000000000000E+00
 0.0000000000000E+00
 0.0000000000000E+00
 0.0000000000000E+00
 0.0000000000000E+00
 0.0000000000000E+00
 0.0000000000000E+00
 0.0000000000000E+00
 0.0000000000000E+00
 0.0000000000000E+00
 0.0000000000000E+00
 0.0000000000000E+00
 0.0000000000000E+00
 0.0000000000000E+00
 0.0000000000000E+00
 0.0000000000000E+00
 0.0000000000000E+00
 0.0000000000000E+00
 0.0000000000000E+00
 0.0000000000000E+00
 0.0000000000000E+00
 0.0000000000000E+00
 0.0000000000000E+00
 0.0000000000000E+00
 0.0000000000000E+00
 0.0000000000000E+00
 0.0000000000000E+00
 0.0000000000000E+00
 0.0000000000000E+00
 0.0000000000000E+00
 0.0000000000000E+00
 0.0000000000000E+00
 0.0000000000000E+00
 0.0000000000000E+00
 0.0000000000000E+00
 0.0000000000000E+00
 0.0000000000000E+00
 0.0000000000000E+00
 0.0000000000000E+00
 0.0000000000000E+00
 0.0000000000000E+00
 0.0000000000000E+00
 0.0000000000000E+00
 0.0000000000000E+00
 0.0000000000000E+00
 0.0000000000000E+00
 0.0000000000000E+00
 0.0000000000000E+00
 0.0000000000000E+00
 0.0000000000000E+00
 0.0000000000000E+00
 0.0000000000000E+00
 0.0000000000000E+00
 0.0000000000000E+00
 0.0000000000000E+00
 0.0000000000000E+00
 0.0000000000000E+00
 0.0000000000000E+00
 0.0000000000000E+00
 0.0000000000000E+00
 0.0000000000000E+00
 0.0000000000000E+00
 0.0000000000000E+00
 0.0000000000000E+00
 0.0000000000000E+00
 0.0000000000000E+00
 0.0000000000000E+00
 0.0000000000000E+00
 0.0000000000000E+00
 0.0000000000000E+00
 0.0000000000000E+00
 0.0000000000000E+00
 0.0000000000000E+00
 0.0000000000000E+00
 0.0000000000000E+00
 0.0000000000000E+00
 0.0000000000000E+00
 0.0000000000000E+00
 0.0000000000000E+00
 0.0000000000000E+00
 0.0000000000000E+00
 0.0000000000000E+00
 0.0000000000000E+00
 0.0000000000000E+00
 0.0000000000000E+00
 0.0000000000000E+00
 0.0000000000000E+00
 0.0000000000000E+00
 0.0000000000000E+00
 0.0000000000000E+00
 0.0000000000000E+00
 0.0000000000000E+00
 0.0000000000000E+00
 0.0000000000000E+00
 0.0000000000000E+00
 0.0000000000000E+00
 0.0000000000000E+00
 0.0000000000000E+00
 0.0000000000000E+00
 0.0000000000000E+00
 0.0000000000000E+00
 0.0000000000000E+00
 0.0000000000000E+00
 0.0000000000000E+00
 0.0000000000000E+00
 0.0000000000000E+00
 0.0000000000000E+00
 0.0000000000000E+00
 0.0000000000000E+00
 0.0000000000000E+00
 0.0000000000000E+00
 0.0000000000000E+00
 0.0000000000000E+00
 0.0000000000000E+00
 0.0000000000000E+00
 0.0000000000000E+00
 0.0000000000000E+00
 0.0000000000000E+00
 0.0000000000000E+00
 0.0000000000000E+00
 0.0000000000000E+00
 0.0000000000000E+00
 0.0000000000000E+00
 0.0000000000000E+00
 0.0000000000000E+00
 0.0000000000000E+00
 0.0000000000000E+00
 0.0000000000000E+00
 0.0000000000000E+00
 0.0000000000000E+00
 0.0000000000000E+00
 0.0000000000000E+00
 0.0000000000000E+00
 0.0000000000000E+00
 0.0000000000000E+00
 0.0000000000000E+00
 0.0000000000000E+00
 0.0000000000000E+00
 0.0000000000000E+00
 0.0000000000000E+00
 0.0000000000000E+00
 0.0000000000000E+00
 0.0000000000000E+00
 0.0000000000000E+00
 0.0000000000000E+00
 0.0000000000000E+00
 0.0000000000000E+00
 0.0000000000000E+00
 0.0000000000000E+00
 0.0000000000000E+00
 0.0000000000000E+00
 0.0000000000000E+00
 0.0000000000000E+00
 0.0000000000000E+00
 0.0000000000000E+00
 0.0000000000000E+00
 0.0000000000000E+00
 0.0000000000000E+00
 0.0000000000000E+00
 0.0000000000000E+00
 0.0000000000000E+00
 0.0000000000000E+00
 0.0000000000000E+00
 0.0000000000000E+00
 0.0000000000000E+00
 0.0000000000000E+00
 0.0000000000000E+00
 0.0000000000000E+00
 0.0000000000000E+00
 0.0000000000000E+00
 0.0000000000000E+00
 0.0000000000000E+00
 0.0000000000000E+00
 0.0000000000000E+00
 0.0000000000000E+00
 0.0000000000000E+00
 0.0000000000000E+00
 0.0000000000000E+00
 0.0000000000000E+00
 0.0000000000000E+00
 0.0000000000000E+00
 0.0000000000000E+00
 0.0000000000000E+00
 0.0000000000000E+00
 0.0000000000000E+00
 0.0000000000000E+00
 0.0000000000000E+00
 0.0000000000000E+00
 0.0000000000000E+00
 0.0000000000000E+00
 0.0000000000000E+00
 0.0000000000000E+00
 0.0000000000000E+00
 0.0000000000000E+00
 0.0000000000000E+00
 0.0000000000000E+00
 0.0000000000000E+00
 0.0000000000000E+00
 0.0000000000000E+00
 0.0000000000000E+00
 0.0000000000000E+00
 0.0000000000000E+00
 0.0000000000000E+00
 0.0000000000000E+00
 0.0000000000000E+00
 0.0000000000000E+00
 0.0000000000000E+00
 0.0000000000000E+00
 0.0000000000000E+00
 0.0000000000000E+00
 0.0000000000000E+00
 0.0000000000000E+00
 0.0000000000000E+00
 0.0000000000000E+00
 0.0000000000000E+00
 0.0000000000000E+00
 0.0000000000000E+00
 0.0000000000000E+00
 0.0000000000000E+00
 0.0000000000000E+00
 0.0000000000000E+00
 0.0000000000000E+00
 0.0000000000000E+00
 0.0000000000000E+00
 0.0000000000000E+00
 0.0000000000000E+00
 0.0000000000000E+00
 0.0000000000000E+00
 0.0000000000000E+00
 0.0000000000000E+00
 0.0000000000000E+00
 0.0000000000000E+00
 0.0000000000000E+00
 0.0000000000000E+00
 0.0000000000000E+00
 0.0000000000000E+00
 0.0000000000000E+00
 0.0000000000000E+00
 0.0000000000000E+00
 0.0000000000000E+00
 0.0000000000000E+00
 0.0000000000000E+00
 0.0000000000000E+00
 0.0000000000000E+00
 0.0000000000000E+00
 0.0000000000000E+00
 0.0000000000000E+00
 0.0000000000000E+00
 0.0000000000000E+00
 0.0000000000000E+00
 0.0000000000000E+00
 0.0000000000000E+00
 0.0000000000000E+00
 0.0000000000000E+00
 0.0000000000000E+00
 0.0000000000000E+00
 0.0000000000000E+00
 0.0000000000000E+00
 0.0000000000000E+00
 0.0000000000000E+00
 0.0000000000000E+00
 0.0000000000000E+00
 0.0000000000000E+00
 0.0000000000000E+00
 0.0000000000000E+00
 0.0000000000000E+00
 0.0000000000000E+00
 0.0000000000000E+00
 0.0000000000000E+00
 0.0000000000000E+00
 0.0000000000000E+00
 0.0000000000000E+00
 0.0000000000000E+00
 0.0000000000000E+00
 0.0000000000000E+00
 0.0000000000000E+00
 0.0000000000000E+00
 0.0000000000000E+00
 0.0000000000000E+00
 0.0000000000000E+00
 0.0000000000000E+00
 0.0000000000000E+00
 0.0000000000000E+00
 0.0000000000000E+00
 0.0000000000000E+00
 0.0000000000000E+00
 0.0000000000000E+00
 0.0000000000000E+00
 0.0000000000000E+00
 0.0000000000000E+00
 0.0000000000000E+00
 0.0000000000000E+00
 0.0000000000000E+00
 0.0000000000000E+00
 0.0000000000000E+00
 0.0000000000000E+00
 0.0000000000000E+00
 0.0000000000000E+00
 0.0000000000000E+00
 0.0000000000000E+00
 0.0000000000000E+00
 0.0000000000000E+00
 0.0000000000000E+00
 0.0000000000000E+00
 0.0000000000000E+00
 0.0000000000000E+00
 0.0000000000000E+00
 0.0000000000000E+00
 0.0000000000000E+00
 0.0000000000000E+00
 0.0000000000000E+00
 0.0000000000000E+00
 0.0000000000000E+00
 0.0000000000000E+00
 0.0000000000000E+00
 0.0000000000000E+00
 0.0000000000000E+00
 0.0000000000000E+00
 0.0000000000000E+00
 0.0000000000000E+00
 0.0000000000000E+00
 0.0000000000000E+00
 0.0000000000000E+00
 0.0000000000000E+00
 0.0000000000000E+00
 0.0000000000000E+00
 0.0000000000000E+00
 0.0000000000000E+00
 0.0000000000000E+00
 0.0000000000000E+00
 0.0000000000000E+00
 0.0000000000000E+00
 0.0000000000000E+00
 0.0000000000000E+00
 0.0000000000000E+00
 0.0000000000000E+00
 0.0000000000000E+00
 0.0000000000000E+00
 0.0000000000000E+00
 0.0000000000000E+00
 0.0000000000000E+00
 0.0000000000000E+00
 0.0000000000000E+00
 0.0000000000000E+00
 0.0000000000000E+00
 0.0000000000000E+00
 0.0000000000000E+00
 0.0000000000000E+00
 0.0000000000000E+00
 0.0000000000000E+00
 0.0000000000000E+00
 0.0000000000000E+00
 0.0000000000000E+00
 0.0000000000000E+00
 0.0000000000000E+00
 0.0000000000000E+00
 0.0000000000000E+00
 0.0000000000000E+00
 0.0000000000000E+00
 0.0000000000000E+00
 0.0000000000000E+00
 0.0000000000000E+00
 0.0000000000000E+00
 0.0000000000000E+00
 0.0000000000000E+00
 0.0000000000000E+00
 0.0000000000000E+00
 0.0000000000000E+00
 0.0000000000000E+00
 0.0000000000000E+00
 0.0000000000000E+00
 0.0000000000000E+00
 0.0000000000000E+00
 0.0000000000000E+00
 0.0000000000000E+00
 0.0000000000000E+00
 0.0000000000000E+00
 0.0000000000000E+00
 0.0000000000000E+00
 0.0000000000000E+00
 0.0000000000000E+00
 0.0000000000000E+00
 0.0000000000000E+00
 0.0000000000000E+00
 0.0000000000000E+00
 0.0000000000000E+00
 0.0000000000000E+00
 0.0000000000000E+00
 0.0000000000000E+00
 0.0000000000000E+00
 0.0000000000000E+00
 0.0000000000000E+00
 0.0000000000000E+00
 0.0000000000000E+00
 0.0000000000000E+00
 0.0000000000000E+00
 0.0000000000000E+00
 0.0000000000000E+00
 0.0000000000000E+00
 0.0000000000000E+00
 0.0000000000000E+00
 0.0000000000000E+00
 0.0000000000000E+00
 0.0000000000000E+00
 0.0000000000000E+00
 0.0000000000000E+00
 0.0000000000000E+00
 0.0000000000000E+00
 0.0000000000000E+00
 0.0000000000000E+00
 0.0000000000000E+00
 0.0000000000000E+00
 0.0000000000000E+00
 0.0000000000000E+00
 0.0000000000000E+00
 0.0000000000000E+00
 0.0000000000000E+00
 0.0000000000000E+00
 0.0000000000000E+00
 0.0000000000000E+00
 0.0000000000000E+00
 0.0000000000000E+00
 0.0000000000000E+00
 0.0000000000000E+00
 0.0000000000000E+00
 0.0000000000000E+00
 0.0000000000000E+00
 0.0000000000000E+00
 0.0000000000000E+00
 0.0000000000000E+00
 0.0000000000000E+00
 0.0000000000000E+00
 0.0000000000000E+00
 0.0000000000000E+00
 0.0000000000000E+00
 0.0000000000000E+00
 0.0000000000000E+00
 0.0000000000000E+00
 0.0000000000000E+00
 0.0000000000000E+00
 0.0000000000000E+00
 0.0000000000000E+00
 0.0000000000000E+00
 0.0000000000000E+00
 0.0000000000000E+00
 0.0000000000000E+00
 0.0000000000000E+00
 0.0000000000000E+00
 0.0000000000000E+00
 0.0000000000000E+00
 0.0000000000000E+00
 0.0000000000000E+00
 0.0000000000000E+00
 0.0000000000000E+00
 0.0000000000000E+00
 0.0000000000000E+00
 0.0000000000000E+00
 0.0000000000000E+00
 0.0000000000000E+00
 0.0000000000000E+00
 0.0000000000000E+00
 0.0000000000000E+00
 0.0000000000000E+00
 0.0000000000000E+00
 0.0000000000000E+00
 0.0000000000000E+00
 0.0000000000000E+00
 0.0000000000000E+00
 0.0000000000000E+00
 0.0000000000000E+00
 0.0000000000000E+00
 0.0000000000000E+00
 0.0000000000000E+00
 0.0000000000000E+00
 0.0000000000000E+00
 0.0000000000000E+00
 0.0000000000000E+00
 0.0000000000000E+00
 0.0000000000000E+00
 0.0000000000000E+00
 0.0000000000000E+00
 0.0000000000000E+00
 0.0000000000000E+00
 0.0000000000000E+00
 0.0000000000000E+00
 0.0000000000000E+00
 0.0000000000000E+00
 0.0000000000000E+00
 0.0000000000000E+00
 0.0000000000000E+00
 0.0000000000000E+00
 0.0000000000000E+00
 0.0000000000000E+00
 0.0000000000000E+00
 0.0000000000000E+00
 0.0000000000000E+00
 0.0000000000000E+00
 0.0000000000000E+00
 0.0000000000000E+00
 0.0000000000000E+00
 0.0000000000000E+00
 0.0000000000000E+00
 0.0000000000000E+00
 0.0000000000000E+00
 0.0000000000000E+00
 0.0000000000000E+00
 0.0000000000000E+00
 0.0000000000000E+00
 0.0000000000000E+00
 0.0000000000000E+00
 0.0000000000000E+00
 0.0000000000000E+00
 0.0000000000000E+00
 0.0000000000000E+00
 0.0000000000000E+00
 0.0000000000000E+00
 0.0000000000000E+00
 0.0000000000000E+00
 0.0000000000000E+00
 0.0000000000000E+00
 0.0000000000000E+00
 0.0000000000000E+00
 0.0000000000000E+00
 0.0000000000000E+00
 0.0000000000000E+00
 0.0000000000000E+00
 0.0000000000000E+00
 0.0000000000000E+00
 0.0000000000000E+00
 0.0000000000000E+00
 0.0000000000000E+00
 0.0000000000000E+00
 0.0000000000000E+00
 0.0000000000000E+00
 0.0000000000000E+00
 0.0000000000000E+00
 0.0000000000000E+00
 0.0000000000000E+00
 0.0000000000000E+00
 0.0000000000000E+00
 0.0000000000000E+00
 0.0000000000000E+00
 0.0000000000000E+00
 0.0000000000000E+00
 0.0000000000000E+00
 0.0000000000000E+00
 0.0000000000000E+00
 0.0000000000000E+00
 0.0000000000000E+00
 0.0000000000000E+00
 0.0000000000000E+00
 0.0000000000000E+00
 0.0000000000000E+00
 0.0000000000000E+00
 0.0000000000000E+00
 0.0000000000000E+00
 0.0000000000000E+00
 0.0000000000000E+00
 0.0000000000000E+00
 0.0000000000000E+00
 0.0000000000000E+00
 0.0000000000000E+00
 0.0000000000000E+00
 0.0000000000000E+00
 0.0000000000000E+00
 0.0000000000000E+00
 0.0000000000000E+00
 0.0000000000000E+00
 0.0000000000000E+00
 0.0000000000000E+00
 0.0000000000000E+00
 0.0000000000000E+00
 0.0000000000000E+00
 0.0000000000000E+00
 0.0000000000000E+00
 0.0000000000000E+00
 0.0000000000000E+00
 0.0000000000000E+00
 0.0000000000000E+00
 0.0000000000000E+00
 0.0000000000000E+00
 0.0000000000000E+00
 0.0000000000000E+00
 0.0000000000000E+00
 0.0000000000000E+00
 0.0000000000000E+00
 0.0000000000000E+00
 0.0000000000000E+00
 0.0000000000000E+00
 0.0000000000000E+00
 0.0000000000000E+00
 0.0000000000000E+00
 0.0000000000000E+00
 0.0000000000000E+00
 0.0000000000000E+00
 0.0000000000000E+00
 0.0000000000000E+00
 0.0000000000000E+00
 0.0000000000000E+00
 0.0000000000000E+00
 0.0000000000000E+00
 0.0000000000000E+00
 0.0000000000000E+00
 0.0000000000000E+00
 0.0000000000000E+00
 0.0000000000000E+00
 0.0000000000000E+00
 0.0000000000000E+00
 0.0000000000000E+00
 0.0000000000000E+00
 0.0000000000000E+00
 0.0000000000000E+00
 0.0000000000000E+00
 0.0000000000000E+00
 0.0000000000000E+00
 0.0000000000000E+00
 0.0000000000000E+00
 0.0000000000000E+00
 0.0000000000000E+00
 0.0000000000000E+00
 0.0000000000000E+00
 0.0000000000000E+00
 0.0000000000000E+00
 0.0000000000000E+00
 0.0000000000000E+00
 0.0000000000000E+00
 0.0000000000000E+00
 0.0000000000000E+00
 0.0000000000000E+00
 0.0000000000000E+00
 0.0000000000000E+00
 0.0000000000000E+00
 0.0000000000000E+00
 0.0000000000000E+00
 0.0000000000000E+00
 0.0000000000000E+00
 0.0000000000000E+00
 0.0000000000000E+00
 0.0000000000000E+00
 0.0000000000000E+00
 0.0000000000000E+00
 0.0000000000000E+00
 0.0000000000000E+00
 0.0000000000000E+00
 0.0000000000000E+00
 0.0000000000000E+00
 0.0000000000000E+00
 0.0000000000000E+00
 0.0000000000000E+00
 0.0000000000000E+00
 0.0000000000000E+00
 0.0000000000000E+00
 0.0000000000000E+00
 0.0000000000000E+00
 0.0000000000000E+00
 0.0000000000000E+00
 0.0000000000000E+00
 0.0000000000000E+00
 0.0000000000000E+00
 0.0000000000000E+00
 0.0000000000000E+00
 0.0000000000000E+00
 0.0000000000000E+00
 0.0000000000000E+00
 0.0000000000000E+00
 0.0000000000000E+00
 0.0000000000000E+00
 0.0000000000000E+00
 0.0000000000000E+00
 0.0000000000000E+00
 0.0000000000000E+00
 0.0000000000000E+00
 0.0000000000000E+00
 0.0000000000000E+00
 0.0000000000000E+00
 0.0000000000000E+00
 0.0000000000000E+00
 0.0000000000000E+00
 0.0000000000000E+00
 0.0000000000000E+00
 0.0000000000000E+00
 0.0000000000000E+00
 0.0000000000000E+00
 0.0000000000000E+00
 0.0000000000000E+00
 0.0000000000000E+00
 0.0000000000000E+00
 0.0000000000000E+00
 0.0000000000000E+00
 0.0000000000000E+00
 0.0000000000000E+00
 0.0000000000000E+00
 0.0000000000000E+00
 0.0000000000000E+00
 0.0000000000000E+00
 0.0000000000000E+00
 0.0000000000000E+00
 0.0000000000000E+00
 0.0000000000000E+00
 0.0000000000000E+00
 0.0000000000000E+00
 0.0000000000000E+00
 0.0000000000000E+00
 0.0000000000000E+00
 0.0000000000000E+00
 0.0000000000000E+00
 0.0000000000000E+00
 0.0000000000000E+00
 0.0000000000000E+00
 0.0000000000000E+00
 0.0000000000000E+00
 0.0000000000000E+00
 0.0000000000000E+00
 0.0000000000000E+00
 0.0000000000000E+00
 0.0000000000000E+00
 0.0000000000000E+00
 0.0000000000000E+00
 0.0000000000000E+00
 0.0000000000000E+00
 0.0000000000000E+00
 0.0000000000000E+00
 0.0000000000000E+00
 0.0000000000000E+00
 0.0000000000000E+00
 0.0000000000000E+00
 0.0000000000000E+00
 0.0000000000000E+00
 0.0000000000000E+00
 0.0000000000000E+00
 0.0000000000000E+00
 0.0000000000000E+00
 0.0000000000000E+00
 0.0000000000000E+00
 0.0000000000000E+00
 0.0000000000000E+00
 0.0000000000000E+00
 0.0000000000000E+00
 0.0000000000000E+00
 0.0000000000000E+00
 0.0000000000000E+00
 0.0000000000000E+00
 0.0000000000000E+00
 0.0000000000000E+00
 0.0000000000000E+00
 0.0000000000000E+00
 0.0000000000000E+00
 0.0000000000000E+00
 0.0000000000000E+00
 0.0000000000000E+00
 0.0000000000000E+00
 0.0000000000000E+00
 0.0000000000000E+00
 0.0000000000000E+00
 0.0000000000000E+00
 0.0000000000000E+00
 0.0000000000000E+00
 0.0000000000000E+00
 0.0000000000000E+00
 0.0000000000000E+00
 0.0000000000000E+00
 0.0000000000000E+00
 0.0000000000000E+00
 0.0000000000000E+00
 0.0000000000000E+00
 0.0000000000000E+00
 0.0000000000000E+00
 0.0000000000000E+00
 0.0000000000000E+00
 0.0000000000000E+00
 0.0000000000000E+00
 0.0000000000000E+00
 0.0000000000000E+00
 0.0000000000000E+00
 0.0000000000000E+00
 0.0000000000000E+00
 0.0000000000000E+00
 0.0000000000000E+00
 0.0000000000000E+00
 0.0000000000000E+00
 0.0000000000000E+00
 0.0000000000000E+00
 0.0000000000000E+00
 0.0000000000000E+00
 0.0000000000000E+00
 0.0000000000000E+00
 0.0000000000000E+00
 0.0000000000000E+00
 0.0000000000000E+00
 0.0000000000000E+00
 0.0000000000000E+00
 0.0000000000000E+00
 0.0000000000000E+00
 0.0000000000000E+00
 0.0000000000000E+00
 0.0000000000000E+00
 0.0000000000000E+00
 0.0000000000000E+00
 0.0000000000000E+00
 0.0000000000000E+00
 0.0000000000000E+00
 0.0000000000000E+00
 0.0000000000000E+00
 0.0000000000000E+00
 0.0000000000000E+00
 0.0000000000000E+00
 0.0000000000000E+00
 0.0000000000000E+00
 0.0000000000000E+00
 0.0000000000000E+00
 0.0000000000000E+00
 0.0000000000000E+00
 0.0000000000000E+00
 0.0000000000000E+00
 0.0000000000000E+00
 0.0000000000000E+00
 0.0000000000000E+00
 0.0000000000000E+00
 0.0000000000000E+00
 0.0000000000000E+00
 0.0000000000000E+00
 0.0000000000000E+00
 0.0000000000000E+00
 0.0000000000000E+00
 0.0000000000000E+00
 0.0000000000000E+00
 0.0000000000000E+00
 0.0000000000000E+00
 0.0000000000000E+00
 0.0000000000000E+00
 0.0000000000000E+00
 0.0000000000000E+00
 0.0000000000000E+00
 0.0000000000000E+00
 0.0000000000000E+00
 0.0000000000000E+00
 0.0000000000000E+00
 0.0000000000000E+00
 0.0000000000000E+00
 0.0000000000000E+00
 0.0000000000000E+00
 0.0000000000000E+00
 0.0000000000000E+00
 0.0000000000000E+00
 0.0000000000000E+00
 0.0000000000000E+00
 0.0000000000000E+00
 0.0000000000000E+00
 0.0000000000000E+00
 0.0000000000000E+00
 0.0000000000000E+00
 0.0000000000000E+00
 0.0000000000000E+00
 0.0000000000000E+00
 0.0000000000000E+00
 0.0000000000000E+00
 0.0000000000000E+00
 0.0000000000000E+00
 0.0000000000000E+00
 0.0000000000000E+00
 0.0000000000000E+00
 0.0000000000000E+00
 0.0000000000000E+00
 0.0000000000000E+00
 0.0000000000000E+00
 0.0000000000000E+00
 0.0000000000000E+00
 0.0000000000000E+00
 0.0000000000000E+00
 0.0000000000000E+00
 0.0000000000000E+00
 0.0000000000000E+00
 0.0000000000000E+00
 0.0000000000000E+00
 0.0000000000000E+00
 0.0000000000000E+00
 0.0000000000000E+00
 0.0000000000000E+00
 0.0000000000000E+00
 0.0000000000000E+00
 0.0000000000000E+00
 0.0000000000000E+00
 0.0000000000000E+00
 0.0000000000000E+00
 0.0000000000000E+00
 0.0000000000000E+00
 0.0000000000000E+00
 0.0000000000000E+00
 0.0000000000000E+00
 0.0000000000000E+00
 0.0000000000000E+00
 0.0000000000000E+00
 0.0000000000000E+00
 0.0000000000000E+00
 0.0000000000000E+00
 0.0000000000000E+00
 0.0000000000000E+00
 0.0000000000000E+00
 0.0000000000000E+00
 0.0000000000000E+00
 0.0000000000000E+00
 0.0000000000000E+00
 0.0000000000000E+00
 0.0000000000000E+00
 0.0000000000000E+00
 0.0000000000000E+00
 0.0000000000000E+00
 0.0000000000000E+00
 0.0000000000000E+00
 0.0000000000000E+00
 0.0000000000000E+00
 0.0000000000000E+00
 0.0000000000000E+00
 0.0000000000000E+00
 0.0000000000000E+00
 0.0000000000000E+00
 0.0000000000000E+00
 0.0000000000000E+00
 0.0000000000000E+00
 0.0000000000000E+00
 0.0000000000000E+00
 0.0000000000000E+00
 0.0000000000000E+00
 0.0000000000000E+00
 0.0000000000000E+00
 0.0000000000000E+00
 0.0000000000000E+00
 0.0000000000000E+00
 0.0000000000000E+00
 0.0000000000000E+00
 0.0000000000000E+00
 0.0000000000000E+00
 0.0000000000000E+00
 0.0000000000000E+00
 0.0000000000000E+00
 0.0000000000000E+00
 0.0000000000000E+00
 0.0000000000000E+00
 0.0000000000000E+00
 0.0000000000000E+00
 0.0000000000000E+00
 0.0000000000000E+00
 0.0000000000000E+00
 0.0000000000000E+00
 0.0000000000000E+00
 0.0000000000000E+00
 0.0000000000000E+00
 0.0000000000000E+00
 0.0000000000000E+00
 0.0000000000000E+00
 0.0000000000000E+00
 0.0000000000000E+00
 0.0000000000000E+00
 0.0000000000000E+00
 0.0000000000000E+00
 0.0000000000000E+00
 0.0000000000000E+00
 0.0000000000000E+00
 0.0000000000000E+00
 0.0000000000000E+00
 0.0000000000000E+00
 0.0000000000000E+00
 0.0000000000000E+00
 0.0000000000000E+00
 0.0000000000000E+00
 0.0000000000000E+00
 0.0000000000000E+00
 0.0000000000000E+00
 0.0000000000000E+00
 0.0000000000000E+00
 0.0000000000000E+00
 0.0000000000000E+00
 0.0000000000000E+00
 0.0000000000000E+00
 0.0000000000000E+00
 0.0000000000000E+00
 0.0000000000000E+00
 0.0000000000000E+00
 0.0000000000000E+00
 0.0000000000000E+00
 0.0000000000000E+00
 0.0000000000000E+00
 0.0000000000000E+00
 0.0000000000000E+00
 0.0000000000000E+00
 0.0000000000000E+00
 0.0000000000000E+00
 0.0000000000000E+00
 0.0000000000000E+00
 0.0000000000000E+00
 0.0000000000000E+00
 0.0000000000000E+00
 0.0000000000000E+00
 0.0000000000000E+00
 0.0000000000000E+00
 0.0000000000000E+00
 0.0000000000000E+00
 0.0000000000000E+00
 0.0000000000000E+00
 0.0000000000000E+00
 0.0000000000000E+00
 0.0000000000000E+00
 0.0000000000000E+00
 0.0000000000000E+00
 0.0000000000000E+00
 0.0000000000000E+00
 0.0000000000000E+00
 0.0000000000000E+00
 0.0000000000000E+00
 0.0000000000000E+00
 0.0000000000000E+00
 0.0000000000000E+00
 0.0000000000000E+00
 0.0000000000000E+00
 0.0000000000000E+00
 0.0000000000000E+00
 0.0000000000000E+00
 0.0000000000000E+00
 0.0000000000000E+00
 0.0000000000000E+00
 0.0000000000000E+00
 0.0000000000000E+00
 0.0000000000000E+00
 0.0000000000000E+00
 0.0000000000000E+00
 0.0000000000000E+00
 0.0000000000000E+00
 0.0000000000000E+00
 0.0000000000000E+00
 0.0000000000000E+00
 0.0000000000000E+00
 0.0000000000000E+00
 0.0000000000000E+00
 0.0000000000000E+00
 0.0000000000000E+00
 0.0000000000000E+00
 0.0000000000000E+00
 0.0000000000000E+00
 0.0000000000000E+00
 0.0000000000000E+00
 0.0000000000000E+00
 0.0000000000000E+00
 0.0000000000000E+00
 0.0000000000000E+00
 0.0000000000000E+00
 0.0000000000000E+00
 0.0000000000000E+00
 0.0000000000000E+00
 0.0000000000000E+00
 0.0000000000000E+00
 0.0000000000000E+00
 0.0000000000000E+00
 0.0000000000000E+00
 0.0000000000000E+00
 0.0000000000000E+00
 0.0000000000000E+00
 0.0000000000000E+00
 0.0000000000000E+00
 0.0000000000000E+00
 0.0000000000000E+00
 0.0000000000000E+00
 0.0000000000000E+00
 0.0000000000000E+00
 0.0000000000000E+00
 0.0000000000000E+00
 0.0000000000000E+00
 0.0000000000000E+00
 0.0000000000000E+00
 0.0000000000000E+00
 0.0000000000000E+00
 0.0000000000000E+00
 0.0000000000000E+00
 0.0000000000000E+00
 0.0000000000000E+00
 0.0000000000000E+00
 0.0000000000000E+00
 0.0000000000000E+00
 0.0000000000000E+00
 0.0000000000000E+00
 0.0000000000000E+00
 0.0000000000000E+00
 0.0000000000000E+00
 0.0000000000000E+00
 0.0000000000000E+00
 0.0000000000000E+00
 0.0000000000000E+00
 0.0000000000000E+00
 0.0000000000000E+00
 0.0000000000000E+00
 0.0000000000000E+00
 0.0000000000000E+00
 0.0000000000000E+00
 0.0000000000000E+00
 0.0000000000000E+00
 0.0000000000000E+00
 0.0000000000000E+00
 0.0000000000000E+00
 0.0000000000000E+00
 0.0000000000000E+00
 0.0000000000000E+00
 0.0000000000000E+00
 0.0000000000000E+00
 0.0000000000000E+00
 0.0000000000000E+00
 0.0000000000000E+00
 0.0000000000000E+00
 0.0000000000000E+00
 0.0000000000000E+00
 0.0000000000000E+00
 0.0000000000000E+00
 0.0000000000000E+00
 0.0000000000000E+00
 0.0000000000000E+00
 0.0000000000000E+00
 0.0000000000000E+00
 0.0000000000000E+00
 0.0000000000000E+00
 0.0000000000000E+00
 0.0000000000000E+00
 0.0000000000000E+00
 0.0000000000000E+00
 0.0000000000000E+00
 0.0000000000000E+00
 0.0000000000000E+00
 0.0000000000000E+00
 0.0000000000000E+00
 0.0000000000000E+00
 0.0000000000000E+00
 0.0000000000000E+00
 0.0000000000000E+00
 0.0000000000000E+00
 0.0000000000000E+00
 0.0000000000000E+00
 0.0000000000000E+00
 0.0000000000000E+00
 0.0000000000000E+00
 0.0000000000000E+00
 0.0000000000000E+00
 0.0000000000000E+00
 0.0000000000000E+00
 0.0000000000000E+00
 0.0000000000000E+00
 0.0000000000000E+00
 0.0000000000000E+00
 0.0000000000000E+00
 0.0000000000000E+00
 0.0000000000000E+00
 0.0000000000000E+00
 0.0000000000000E+00
 0.0000000000000E+00
 0.0000000000000E+00
 0.0000000000000E+00
 0.0000000000000E+00
 0.0000000000000E+00
 0.0000000000000E+00
 0.0000000000000E+00
 0.0000000000000E+00
 0.0000000000000E+00
 0.0000000000000E+00
 0.0000000000000E+00
 0.0000000000000E+00
 0.0000000000000E+00
 0.0000000000000E+00
 0.0000000000000E+00
 0.0000000000000E+00
 0.0000000000000E+00
 0.0000000000000E+00
 0.0000000000000E+00
 0.0000000000000E+00
 0.0000000000000E+00
 0.0000000000000E+00
 0.0000000000000E+00
 0.0000000000000E+00
 0.0000000000000E+00
 0.0000000000000E+00
 0.0000000000000E+00
 0.0000000000000E+00
 0.0000000000000E+00
 0.0000000000000E+00
 0.0000000000000E+00
 0.0000000000000E+00
 0.0000000000000E+00
 0.0000000000000E+00
 0.0000000000000E+00
 0.0000000000000E+00
 0.0000000000000E+00
 0.0000000000000E+00
 0.0000000000000E+00
 0.0000000000000E+00
 0.0000000000000E+00
 0.0000000000000E+00
 0.0000000000000E+00
 0.0000000000000E+00
 0.0000000000000E+00
 0.0000000000000E+00
 0.0000000000000E+00
 0.0000000000000E+00
 0.0000000000000E+00
 0.0000000000000E+00
 0.0000000000000E+00
 0.0000000000000E+00
 0.0000000000000E+00
 0.0000000000000E+00
 0.0000000000000E+00
 0.0000000000000E+00
 0.0000000000000E+00
 0.0000000000000E+00
 0.0000000000000E+00
 0.0000000000000E+00
 0.0000000000000E+00
 0.0000000000000E+00
 0.0000000000000E+00
 0.0000000000000E+00
 0.0000000000000E+00
 0.0000000000000E+00
 0.0000000000000E+00
 0.0000000000000E+00
 0.0000000000000E+00
 0.0000000000000E+00
 0.0000000000000E+00
 0.0000000000000E+00
 0.0000000000000E+00
 0.0000000000000E+00
 0.0000000000000E+00
 0.0000000000000E+00
 0.0000000000000E+00
 0.0000000000000E+00
 0.0000000000000E+00
 0.0000000000000E+00
 0.0000000000000E+00
 0.0000000000000E+00
 0.0000000000000E+00
 0.0000000000000E+00
 0.0000000000000E+00
 0.0000000000000E+00
 0.0000000000000E+00
 0.0000000000000E+00
 0.0000000000000E+00
 0.0000000000000E+00
 0.0000000000000E+00
 0.0000000000000E+00
 0.0000000000000E+00
 0.0000000000000E+00
 0.0000000000000E+00
 0.0000000000000E+00
 0.0000000000000E+00
 0.0000000000000E+00
 0.0000000000000E+00
 0.0000000000000E+00
 0.0000000000000E+00
 0.0000000000000E+00
 0.0000000000000E+00
 0.0000000000000E+00
 0.0000000000000E+00
 0.0000000000000E+00
 0.0000000000000E+00
 0.0000000000000E+00
 0.0000000000000E+00
 0.0000000000000E+00
 0.0000000000000E+00
 0.0000000000000E+00
 0.0000000000000E+00
 0.0000000000000E+00
 0.0000000000000E+00
 0.0000000000000E+00
 0.0000000000000E+00
 0.0000000000000E+00
 0.0000000000000E+00
 0.0000000000000E+00
 0.0000000000000E+00
 0.0000000000000E+00
 0.0000000000000E+00
 0.0000000000000E+00
 0.0000000000000E+00
 0.0000000000000E+00
 0.0000000000000E+00
 0.0000000000000E+00
 0.0000000000000E+00
 0.0000000000000E+00
 0.0000000000000E+00
 0.0000000000000E+00
 0.0000000000000E+00
 0.0000000000000E+00
 0.0000000000000E+00
 0.0000000000000E+00
 0.0000000000000E+00
 0.0000000000000E+00
 0.0000000000000E+00
 0.0000000000000E+00
 0.0000000000000E+00
 0.0000000000000E+00
 0.0000000000000E+00
 0.0000000000000E+00
 0.0000000000000E+00
 0.0000000000000E+00
 0.0000000000000E+00
 0.0000000000000E+00
 0.0000000000000E+00
 0.0000000000000E+00
 0.0000000000000E+00
 0.0000000000000E+00
 0.0000000000000E+00
 0.0000000000000E+00
 0.0000000000000E+00
 0.0000000000000E+00
 0.0000000000000E+00
 0.0000000000000E+00
 0.0000000000000E+00
 0.0000000000000E+00
 0.0000000000000E+00
 0.0000000000000E+00
 0.0000000000000E+00
 0.0000000000000E+00
 0.0000000000000E+00
 0.0000000000000E+00
 0.0000000000000E+00
 0.0000000000000E+00
 0.0000000000000E+00
 0.0000000000000E+00
 0.0000000000000E+00
 0.0000000000000E+00
 0.0000000000000E+00
 0.0000000000000E+00
 0.0000000000000E+00
 0.0000000000000E+00
 0.0000000000000E+00
 0.0000000000000E+00
 0.0000000000000E+00
 0.0000000000000E+00
 0.0000000000000E+00
 0.0000000000000E+00
 0.0000000000000E+00
 0.0000000000000E+00
 0.0000000000000E+00
 0.0000000000000E+00
 0.0000000000000E+00
 0.0000000000000E+00
 0.0000000000000E+00
 0.0000000000000E+00
 0.0000000000000E+00
 0.0000000000000E+00
 0.0000000000000E+00
 0.0000000000000E+00
 0.0000000000000E+00
 0.0000000000000E+00
 0.0000000000000E+00
 0.0000000000000E+00
 0.0000000000000E+00
 0.0000000000000E+00
 0.0000000000000E+00
 0.0000000000000E+00
 0.0000000000000E+00
 0.0000000000000E+00
 0.0000000000000E+00
 0.0000000000000E+00
 0.0000000000000E+00
 0.0000000000000E+00
 0.0000000000000E+00
 0.0000000000000E+00
 0.0000000000000E+00
 0.0000000000000E+00
 0.0000000000000E+00
 0.0000000000000E+00
 0.0000000000000E+00
 0.0000000000000E+00
 0.0000000000000E+00
 0.0000000000000E+00
 0.0000000000000E+00
 0.0000000000000E+00
 0.0000000000000E+00
 0.0000000000000E+00
 0.0000000000000E+00
 0.0000000000000E+00
 0.0000000000000E+00
 0.0000000000000E+00
 0.0000000000000E+00
 0.0000000000000E+00
 0.0000000000000E+00
 0.0000000000000E+00
 0.0000000000000E+00
 0.0000000000000E+00
 0.0000000000000E+00
 0.0000000000000E+00
 0.0000000000000E+00
 0.0000000000000E+00
 0.0000000000000E+00
 0.0000000000000E+00
 0.0000000000000E+00
 0.0000000000000E+00
 0.0000000000000E+00
 0.0000000000000E+00
 0.0000000000000E+00
 0.0000000000000E+00
 0.0000000000000E+00
 0.0000000000000E+00
 0.0000000000000E+00
 0.0000000000000E+00
 0.0000000000000E+00
 0.0000000000000E+00
 0.0000000000000E+00
 0.0000000000000E+00
 0.0000000000000E+00
 0.0000000000000E+00
 0.0000000000000E+00
 0.0000000000000E+00
 0.0000000000000E+00
 0.0000000000000E+00
 0.0000000000000E+00
 0.0000000000000E+00
 0.0000000000000E+00
 0.0000000000000E+00
 0.0000000000000E+00
 0.0000000000000E+00
 0.0000000000000E+00
 0.0000000000000E+00
 0.0000000000000E+00
 0.0000000000000E+00
 0.0000000000000E+00
 0.0000000000000E+00
 0.0000000000000E+00
 0.0000000000000E+00
 0.0000000000000E+00
 0.0000000000000E+00
 0.0000000000000E+00
 0.0000000000000E+00
 0.0000000000000E+00
 0.0000000000000E+00
 0.0000000000000E+00
 0.0000000000000E+00
 0.0000000000000E+00
 0.0000000000000E+00
 0.0000000000000E+00
 0.0000000000000E+00
 0.0000000000000E+00
 0.0000000000000E+00
 0.0000000000000E+00
 0.0000000000000E+00
 0.0000000000000E+00
 0.0000000000000E+00
 0.0000000000000E+00
 0.0000000000000E+00
 0.0000000000000E+00
 0.0000000000000E+00
 0.0000000000000E+00
 0.0000000000000E+00
 0.0000000000000E+00
 0.0000000000000E+00
 0.0000000000000E+00
 0.0000000000000E+00
 0.0000000000000E+00
 0.0000000000000E+00
 0.0000000000000E+00
 0.0000000000000E+00
 0.0000000000000E+00
 0.0000000000000E+00
 0.0000000000000E+00
 0.0000000000000E+00
 0.0000000000000E+00
 0.0000000000000E+00
 0.0000000000000E+00
 0.0000000000000E+00
 0.0000000000000E+00
 0.0000000000000E+00
 0.0000000000000E+00
 0.0000000000000E+00
 0.0000000000000E+00
 0.0000000000000E+00
 0.0000000000000E+00
 0.0000000000000E+00
 0.0000000000000E+00
 0.0000000000000E+00
 0.0000000000000E+00
 0.0000000000000E+00
 0.0000000000000E+00
 0.0000000000000E+00
 0.0000000000000E+00
 0.0000000000000E+00
 0.0000000000000E+00
 0.0000000000000E+00
 0.0000000000000E+00
 0.0000000000000E+00
 0.0000000000000E+00
 0.0000000000000E+00
 0.0000000000000E+00
 0.0000000000000E+00
 0.0000000000000E+00
 0.0000000000000E+00
 0.0000000000000E+00
 0.0000000000000E+00
 0.0000000000000E+00
 0.0000000000000E+00
 0.0000000000000E+00
 0.0000000000000E+00
 0.0000000000000E+00
 0.0000000000000E+00
 0.0000000000000E+00
 0.0000000000000E+00
 0.0000000000000E+00
 0.0000000000000E+00
 0.0000000000000E+00
 0.0000000000000E+00
 0.0000000000000E+00
 0.0000000000000E+00
 0.0000000000000E+00
 0.0000000000000E+00
 0.0000000000000E+00
 0.0000000000000E+00
 0.0000000000000E+00
 0.0000000000000E+00
 0.0000000000000E+00
 0.0000000000000E+00
 0.0000000000000E+00
 0.0000000000000E+00
 0.0000000000000E+00
 0.0000000000000E+00
 0.0000000000000E+00
 0.0000000000000E+00
 0.0000000000000E+00
 0.0000000000000E+00
 0.0000000000000E+00
 0.0000000000000E+00
 0.0000000000000E+00
 0.0000000000000E+00
 0.0000000000000E+00
 0.0000000000000E+00
 0.0000000000000E+00
 0.0000000000000E+00
 0.0000000000000E+00
 0.0000000000000E+00
 0.0000000000000E+00
 0.0000000000000E+00
 0.0000000000000E+00
 0.0000000000000E+00
 0.0000000000000E+00
 0.0000000000000E+00
 0.0000000000000E+00
 0.0000000000000E+00
 0.0000000000000E+00
 0.0000000000000E+00
 0.0000000000000E+00
 0.0000000000000E+00
 0.0000000000000E+00
 0.0000000000000E+00
 0.0000000000000E+00
 0.0000000000000E+00
 0.0000000000000E+00
 0.0000000000000E+00
 0.0000000000000E+00
 0.0000000000000E+00
 0.0000000000000E+00
 0.0000000000000E+00
 0.0000000000000E+00
 0.0000000000000E+00
 0.0000000000000E+00
 0.0000000000000E+00
 0.0000000000000E+00
 0.0000000000000E+00
 0.0000000000000E+00
 0.0000000000000E+00
 0.0000000000000E+00
 0.0000000000000E+00
 0.0000000000000E+00
 0.0000000000000E+00
 0.0000000000000E+00
 0.0000000000000E+00
 0.0000000000000E+00
 0.0000000000000E+00
 0.0000000000000E+00
 0.0000000000000E+00
 0.0000000000000E+00
 0.0000000000000E+00
 0.0000000000000E+00
 0.0000000000000E+00
 0.0000000000000E+00
 0.0000000000000E+00
 0.0000000000000E+00
 0.0000000000000E+00
 0.0000000000000E+00
 0.0000000000000E+00
 0.0000000000000E+00
 0.0000000000000E+00
 0.0000000000000E+00
 0.0000000000000E+00
 0.0000000000000E+00
 0.0000000000000E+00
 0.0000000000000E+00
 0.0000000000000E+00
 0.0000000000000E+00
 0.0000000000000E+00
 0.0000000000000E+00
 0.0000000000000E+00
 0.0000000000000E+00
 0.0000000000000E+00
 0.0000000000000E+00
 0.0000000000000E+00
 0.0000000000000E+00
 0.0000000000000E+00
 0.0000000000000E+00
 0.0000000000000E+00
 0.0000000000000E+00
 0.0000000000000E+00
 0.0000000000000E+00
 0.0000000000000E+00
 0.0000000000000E+00
 0.0000000000000E+00
 0.0000000000000E+00
 0.0000000000000E+00
 0.0000000000000E+00
 0.0000000000000E+00
 0.0000000000000E+00
 0.0000000000000E+00
 0.0000000000000E+00
 0.0000000000000E+00
 0.0000000000000E+00
 0.0000000000000E+00
 0.0000000000000E+00
 0.0000000000000E+00
 0.0000000000000E+00
 0.0000000000000E+00
 0.0000000000000E+00
 0.0000000000000E+00
 0.0000000000000E+00
 0.0000000000000E+00
 0.0000000000000E+00
 0.0000000000000E+00
 0.0000000000000E+00
 0.0000000000000E+00
 0.0000000000000E+00
 0.0000000000000E+00
 0.0000000000000E+00
 0.0000000000000E+00
 0.0000000000000E+00
 0.0000000000000E+00
 0.0000000000000E+00
 0.0000000000000E+00
 0.0000000000000E+00
 0.0000000000000E+00
 0.0000000000000E+00
 0.0000000000000E+00
 0.0000000000000E+00
 0.0000000000000E+00
 0.0000000000000E+00
 0.0000000000000E+00
 0.0000000000000E+00
 0.0000000000000E+00
 0.0000000000000E+00
 0.0000000000000E+00
 0.0000000000000E+00
 0.0000000000000E+00
 0.0000000000000E+00
 0.0000000000000E+00
 0.0000000000000E+00
 0.0000000000000E+00
 0.0000000000000E+00
 0.0000000000000E+00
 0.0000000000000E+00
 0.0000000000000E+00
 0.0000000000000E+00
 0.0000000000000E+00
 0.0000000000000E+00
 0.0000000000000E+00
 0.0000000000000E+00
 0.0000000000000E+00
 0.0000000000000E+00
 0.0000000000000E+00
 0.0000000000000E+00
 0.0000000000000E+00
 0.0000000000000E+00
 0.0000000000000E+00
 0.0000000000000E+00
 0.0000000000000E+00
 0.0000000000000E+00
 0.0000000000000E+00
 0.0000000000000E+00
 0.0000000000000E+00
 0.0000000000000E+00
 0.0000000000000E+00
 0.0000000000000E+00
 0.0000000000000E+00
 0.0000000000000E+00
 0.0000000000000E+00
 0.0000000000000E+00
 0.0000000000000E+00
 0.0000000000000E+00
 0.0000000000000E+00
 0.0000000000000E+00
 0.0000000000000E+00
 0.0000000000000E+00
 0.0000000000000E+00
 0.0000000000000E+00
 0.0000000000000E+00
 0.0000000000000E+00
 0.0000000000000E+00
 0.0000000000000E+00
 0.0000000000000E+00
 0.0000000000000E+00
 0.0000000000000E+00
 0.0000000000000E+00
 0.0000000000000E+00
 0.0000000000000E+00
 0.0000000000000E+00
 0.0000000000000E+00
 0.0000000000000E+00
 0.0000000000000E+00
 0.0000000000000E+00
 0.0000000000000E+00
 0.0000000000000E+00
 0.0000000000000E+00
 0.0000000000000E+00
 0.0000000000000E+00
 0.0000000000000E+00
 0.0000000000000E+00
 0.0000000000000E+00
 0.0000000000000E+00
 0.0000000000000E+00
 0.0000000000000E+00
 0.0000000000000E+00
 0.0000000000000E+00
 0.0000000000000E+00
 0.0000000000000E+00
 0.0000000000000E+00
 0.0000000000000E+00
 0.0000000000000E+00
 0.0000000000000E+00
 0.0000000000000E+00
 0.0000000000000E+00
 0.0000000000000E+00
 0.0000000000000E+00
 0.0000000000000E+00
 0.0000000000000E+00
 0.0000000000000E+00
 0.0000000000000E+00
 0.0000000000000E+00
 0.0000000000000E+00
 0.0000000000000E+00
 0.0000000000000E+00
 0.0000000000000E+00
 0.0000000000000E+00
 0.0000000000000E+00
 0.0000000000000E+00
 0.0000000000000E+00
 0.0000000000000E+00
 0.0000000000000E+00
 0.0000000000000E+00
 0.0000000000000E+00
 0.0000000000000E+00
 0.0000000000000E+00
 0.0000000000000E+00
 0.0000000000000E+00
 0.0000000000000E+00
 0.0000000000000E+00
 0.0000000000000E+00
 0.0000000000000E+00
 0.0000000000000E+00
 0.0000000000000E+00
 0.0000000000000E+00
 0.0000000000000E+00
 0.0000000000000E+00
 0.0000000000000E+00
 0.0000000000000E+00
 0.0000000000000E+00
 0.0000000000000E+00
 0.0000000000000E+00
 0.0000000000000E+00
 0.0000000000000E+00
 0.0000000000000E+00
 0.0000000000000E+00
 0.0000000000000E+00
 0.0000000000000E+00
 0.0000000000000E+00
 0.0000000000000E+00
 0.0000000000000E+00
 0.0000000000000E+00
 0.0000000000000E+00
 0.0000000000000E+00
 0.0000000000000E+00
 0.0000000000000E+00
 0.0000000000000E+00
 0.0000000000000E+00
 0.0000000000000E+00
 0.0000000000000E+00
 0.0000000000000E+00
 0.0000000000000E+00
 0.0000000000000E+00
 0.0000000000000E+00
 0.0000000000000E+00
 0.0000000000000E+00
 0.0000000000000E+00
 0.0000000000000E+00
 0.0000000000000E+00
 0.0000000000000E+00
 0.0000000000000E+00
 0.0000000000000E+00
 0.0000000000000E+00
 0.0000000000000E+00
 0.0000000000000E+00
 0.0000000000000E+00
 0.0000000000000E+00
 0.0000000000000E+00
 0.0000000000000E+00
 0.0000000000000E+00
 0.0000000000000E+00
 0.0000000000000E+00
 0.0000000000000E+00
 0.0000000000000E+00
 0.0000000000000E+00
 0.0000000000000E+00
 0.0000000000000E+00
 0.0000000000000E+00
 0.0000000000000E+00
 0.0000000000000E+00
 0.0000000000000E+00
 0.0000000000000E+00
 0.0000000000000E+00
 0.0000000000000E+00
 0.0000000000000E+00
 0.0000000000000E+00
 0.0000000000000E+00
 0.0000000000000E+00
 0.0000000000000E+00
 0.0000000000000E+00
 0.0000000000000E+00
 0.0000000000000E+00
 0.0000000000000E+00
 0.0000000000000E+00
 0.0000000000000E+00
 0.0000000000000E+00
 0.0000000000000E+00
 0.0000000000000E+00
 0.0000000000000E+00
 0.0000000000000E+00
 0.0000000000000E+00
 0.0000000000000E+00
 0.0000000000000E+00
 0.0000000000000E+00
 0.0000000000000E+00
 0.0000000000000E+00
 0.0000000000000E+00
 0.0000000000000E+00
 0.0000000000000E+00
 0.0000000000000E+00
 0.0000000000000E+00
 0.0000000000000E+00
 0.0000000000000E+00
 0.0000000000000E+00
 0.0000000000000E+00
 0.0000000000000E+00
 0.0000000000000E+00
 0.0000000000000E+00
 0.0000000000000E+00
 0.0000000000000E+00
 0.0000000000000E+00
 0.0000000000000E+00
 0.0000000000000E+00
 0.0000000000000E+00
 0.0000000000000E+00
 0.0000000000000E+00
 0.0000000000000E+00
 0.0000000000000E+00
 0.0000000000000E+00
 0.0000000000000E+00
 0.0000000000000E+00
 0.0000000000000E+00
 0.0000000000000E+00
 0.0000000000000E+00
 0.0000000000000E+00
 0.0000000000000E+00
 0.0000000000000E+00
 0.0000000000000E+00
 0.0000000000000E+00
 0.0000000000000E+00
 0.0000000000000E+00
 0.0000000000000E+00
 0.0000000000000E+00
 0.0000000000000E+00
 0.0000000000000E+00
 0.0000000000000E+00
 0.0000000000000E+00
 0.0000000000000E+00
 0.0000000000000E+00
 0.0000000000000E+00
 0.0000000000000E+00
 0.0000000000000E+00
 0.0000000000000E+00
 0.0000000000000E+00
 0.0000000000000E+00
 0.0000000000000E+00
 0.0000000000000E+00
 0.0000000000000E+00
 0.0000000000000E+00
 0.0000000000000E+00
 0.0000000000000E+00
 0.0000000000000E+00
 0.0000000000000E+00
 0.0000000000000E+00
 0.0000000000000E+00
 0.0000000000000E+00
 0.0000000000000E+00
 0.0000000000000E+00
 0.0000000000000E+00
 0.0000000000000E+00
 0.0000000000000E+00
 0.0000000000000E+00
 0.0000000000000E+00
 0.0000000000000E+00
 0.0000000000000E+00
 0.0000000000000E+00
 0.0000000000000E+00
 0.0000000000000E+00
 0.0000000000000E+00
 0.0000000000000E+00
 0.0000000000000E+00
 0.0000000000000E+00
 0.0000000000000E+00
 0.0000000000000E+00
 0.0000000000000E+00
 0.0000000000000E+00
 0.0000000000000E+00
 0.0000000000000E+00
 0.0000000000000E+00
 0.0000000000000E+00
 0.0000000000000E+00
 0.0000000000000E+00
 0.0000000000000E+00
 0.0000000000000E+00
 0.0000000000000E+00
 0.0000000000000E+00
 0.0000000000000E+00
 0.0000000000000E+00
 0.0000000000000E+00
 0.0000000000000E+00
 0.0000000000000E+00
 0.0000000000000E+00
 0.0000000000000E+00
 0.0000000000000E+00
 0.0000000000000E+00
 0.0000000000000E+00
 0.0000000000000E+00
 0.0000000000000E+00
 0.0000000000000E+00
 0.0000000000000E+00
 0.0000000000000E+00
 0.0000000000000E+00
 0.0000000000000E+00
 0.0000000000000E+00
 0.0000000000000E+00
 0.0000000000000E+00
 0.0000000000000E+00
 0.0000000000000E+00
 0.0000000000000E+00
 0.0000000000000E+00
 0.0000000000000E+00
 0.0000000000000E+00
 0.0000000000000E+00
 0.0000000000000E+00
 0.0000000000000E+00
 0.0000000000000E+00
 0.0000000000000E+00
 0.0000000000000E+00
 0.0000000000000E+00
 0.0000000000000E+00
 0.0000000000000E+00
 0.0000000000000E+00
 0.0000000000000E+00
 0.0000000000000E+00
 0.0000000000000E+00
 0.0000000000000E+00
 0.0000000000000E+00
 0.0000000000000E+00
 0.0000000000000E+00
 0.0000000000000E+00
 0.0000000000000E+00
 0.0000000000000E+00
 0.0000000000000E+00
 0.0000000000000E+00
 0.0000000000000E+00
 0.0000000000000E+00
 0.0000000000000E+00
 0.0000000000000E+00
 0.0000000000000E+00
 0.0000000000000E+00
 0.0000000000000E+00
 0.0000000000000E+00
 0.0000000000000E+00
 0.0000000000000E+00
 0.0000000000000E+00
 0.0000000000000E+00
 0.0000000000000E+00
 0.0000000000000E+00
 0.0000000000000E+00
 0.0000000000000E+00
 0.0000000000000E+00
 0.0000000000000E+00
 0.0000000000000E+00
 0.0000000000000E+00
 0.0000000000000E+00
 0.0000000000000E+00
 0.0000000000000E+00
 0.0000000000000E+00
 0.0000000000000E+00
 0.0000000000000E+00
 0.0000000000000E+00
 0.0000000000000E+00
 0.0000000000000E+00
 0.0000000000000E+00
 0.0000000000000E+00
 0.0000000000000E+00
 0.0000000000000E+00
 0.0000000000000E+00
 0.0000000000000E+00
 0.0000000000000E+00
 0.0000000000000E+00
 0.0000000000000E+00
 0.0000000000000E+00
 0.0000000000000E+00
 0.0000000000000E+00
 0.0000000000000E+00
 0.0000000000000E+00
 0.0000000000000E+00
 0.0000000000000E+00
 0.0000000000000E+00
 0.0000000000000E+00
 0.0000000000000E+00
 0.0000000000000E+00
 0.0000000000000E+00
 0.0000000000000E+00
 0.0000000000000E+00
 0.0000000000000E+00
 0.0000000000000E+00
 0.0000000000000E+00
 0.0000000000000E+00
 0.0000000000000E+00
 0.0000000000000E+00
 0.0000000000000E+00
 0.0000000000000E+00
 0.0000000000000E+00
 0.0000000000000E+00
 0.0000000000000E+00
 0.0000000000000E+00
 0.0000000000000E+00
 0.0000000000000E+00
 0.0000000000000E+00
 0.0000000000000E+00
 0.0000000000000E+00
 0.0000000000000E+00
 0.0000000000000E+00
 0.0000000000000E+00
 0.0000000000000E+00
 0.0000000000000E+00
 0.0000000000000E+00
 0.0000000000000E+00
 0.0000000000000E+00
 0.0000000000000E+00
 0.0000000000000E+00
 0.0000000000000E+00
 0.0000000000000E+00
 0.0000000000000E+00
 0.0000000000000E+00
 0.0000000000000E+00
 0.0000000000000E+00
 0.0000000000000E+00
 0.0000000000000E+00
 0.0000000000000E+00
 0.0000000000000E+00
 0.0000000000000E+00
 0.0000000000000E+00
 0.0000000000000E+00
 0.0000000000000E+00
 0.0000000000000E+00
 0.0000000000000E+00
 0.0000000000000E+00
 0.0000000000000E+00
 0.0000000000000E+00
 0.0000000000000E+00
 0.0000000000000E+00
 0.0000000000000E+00
 0.0000000000000E+00
 0.0000000000000E+00
 0.0000000000000E+00
 0.0000000000000E+00
 0.0000000000000E+00
 0.0000000000000E+00
 0.0000000000000E+00
 0.0000000000000E+00
 0.0000000000000E+00
 0.0000000000000E+00
 0.0000000000000E+00
 0.0000000000000E+00
 0.0000000000000E+00
 0.0000000000000E+00
 0.0000000000000E+00
 0.0000000000000E+00
 0.0000000000000E+00
 0.0000000000000E+00
 0.0000000000000E+00
 0.0000000000000E+00
 0.0000000000000E+00
 0.0000000000000E+00
 0.0000000000000E+00
 0.0000000000000E+00
 0.0000000000000E+00
 0.0000000000000E+00
 0.0000000000000E+00
 0.0000000000000E+00
 0.0000000000000E+00
 0.0000000000000E+00
 0.0000000000000E+00
 0.0000000000000E+00
 0.0000000000000E+00
 0.0000000000000E+00
 0.0000000000000E+00
 0.0000000000000E+00
 0.0000000000000E+00
 0.0000000000000E+00
 0.0000000000000E+00
 0.0000000000000E+00
 0.0000000000000E+00
 0.0000000000000E+00
 0.0000000000000E+00
 0.0000000000000E+00
 0.0000000000000E+00
 0.0000000000000E+00
 0.0000000000000E+00
 0.0000000000000E+00
 0.0000000000000E+00
 0.0000000000000E+00
 0.0000000000000E+00
 0.0000000000000E+00
 0.0000000000000E+00
 0.0000000000000E+00
 0.0000000000000E+00
 0.0000000000000E+00
 0.0000000000000E+00
 0.0000000000000E+00
 0.0000000000000E+00
 0.0000000000000E+00
 0.0000000000000E+00
 0.0000000000000E+00
 0.0000000000000E+00
 0.0000000000000E+00
 0.0000000000000E+00
 0.0000000000000E+00
 0.0000000000000E+00
 0.0000000000000E+00
 0.0000000000000E+00
 0.0000000000000E+00
 0.0000000000000E+00
 0.0000000000000E+00
 0.0000000000000E+00
 0.0000000000000E+00
 0.0000000000000E+00
 0.0000000000000E+00
 0.0000000000000E+00
 0.0000000000000E+00
 0.0000000000000E+00
 0.0000000000000E+00
 0.0000000000000E+00
 0.0000000000000E+00
 0.0000000000000E+00
 0.0000000000000E+00
 0.0000000000000E+00
 0.0000000000000E+00
 0.0000000000000E+00
 0.0000000000000E+00
 0.0000000000000E+00
 0.0000000000000E+00
 0.0000000000000E+00
 0.0000000000000E+00
 0.0000000000000E+00
 0.0000000000000E+00
 0.0000000000000E+00
 0.0000000000000E+00
 0.0000000000000E+00
 0.0000000000000E+00
 0.0000000000000E+00
 0.0000000000000E+00
 0.0000000000000E+00
 0.0000000000000E+00
 0.0000000000000E+00
 0.0000000000000E+00
 0.0000000000000E+00
 0.0000000000000E+00
 0.0000000000000E+00
 0.0000000000000E+00
 0.0000000000000E+00
 0.0000000000000E+00
 0.0000000000000E+00
 0.0000000000000E+00
 0.0000000000000E+00
 0.0000000000000E+00
 0.0000000000000E+00
 0.0000000000000E+00
 0.0000000000000E+00
 0.0000000000000E+00
 0.0000000000000E+00
 0.0000000000000E+00
 0.0000000000000E+00
 0.0000000000000E+00
 0.0000000000000E+00
 0.0000000000000E+00
 0.0000000000000E+00
 0.0000000000000E+00
 0.0000000000000E+00
 0.0000000000000E+00
 0.0000000000000E+00
 0.0000000000000E+00
 0.0000000000000E+00
 0.0000000000000E+00
 0.0000000000000E+00
 0.0000000000000E+00
 0.0000000000000E+00
 0.0000000000000E+00
 0.0000000000000E+00
 0.0000000000000E+00
 0.0000000000000E+00
 0.0000000000000E+00
 0.0000000000000E+00
 0.0000000000000E+00
 0.0000000000000E+00
 0.0000000000000E+00
 0.0000000000000E+00
 0.0000000000000E+00
 0.0000000000000E+00
 0.0000000000000E+00
 0.0000000000000E+00
 0.0000000000000E+00
 0.0000000000000E+00
 0.0000000000000E+00
 0.0000000000000E+00
 0.0000000000000E+00
 0.0000000000000E+00
 0.0000000000000E+00
 0.0000000000000E+00
 0.0000000000000E+00
 0.0000000000000E+00
 0.0000000000000E+00
 0.0000000000000E+00
 0.0000000000000E+00
 0.0000000000000E+00
 0.0000000000000E+00
 0.0000000000000E+00
 0.0000000000000E+00
 0.0000000000000E+00
 0.0000000000000E+00
 0.0000000000000E+00
 0.0000000000000E+00
 0.0000000000000E+00
 0.0000000000000E+00
 0.0000000000000E+00
 0.0000000000000E+00
 0.0000000000000E+00
 0.0000000000000E+00
 0.0000000000000E+00
 0.0000000000000E+00
 0.0000000000000E+00
 0.0000000000000E+00
 0.0000000000000E+00
 0.0000000000000E+00
 0.0000000000000E+00
 0.0000000000000E+00
 0.0000000000000E+00
 0.0000000000000E+00
 0.0000000000000E+00
 0.0000000000000E+00
 0.0000000000000E+00
 0.0000000000000E+00
 0.0000000000000E+00
 0.0000000000000E+00
 0.0000000000000E+00
 0.0000000000000E+00
 0.0000000000000E+00
 0.0000000000000E+00
 0.0000000000000E+00
 0.0000000000000E+00
 0.0000000000000E+00
 0.0000000000000E+00
 0.0000000000000E+00
 0.0000000000000E+00
 0.0000000000000E+00
 0.0000000000000E+00
 0.0000000000000E+00
 0.0000000000000E+00
 0.0000000000000E+00
 0.0000000000000E+00
 0.0000000000000E+00
 0.0000000000000E+00
 0.0000000000000E+00
 0.0000000000000E+00
 0.0000000000000E+00
 0.0000000000000E+00
 0.0000000000000E+00
 0.0000000000000E+00
 0.0000000000000E+00
 0.0000000000000E+00
 0.0000000000000E+00
 0.0000000000000E+00
 0.0000000000000E+00
 0.0000000000000E+00
 0.0000000000000E+00
 0.0000000000000E+00
 0.0000000000000E+00
 0.0000000000000E+00
 0.0000000000000E+00
 0.0000000000000E+00
 0.0000000000000E+00
 0.0000000000000E+00
 0.0000000000000E+00
 0.0000000000000E+00
 0.0000000000000E+00
 0.0000000000000E+00
 0.0000000000000E+00
 0.0000000000000E+00
 0.0000000000000E+00
 0.0000000000000E+00
 0.0000000000000E+00
 0.0000000000000E+00
 0.0000000000000E+00
 0.0000000000000E+00
 0.0000000000000E+00
 0.0000000000000E+00
 0.0000000000000E+00
 0.0000000000000E+00
 0.0000000000000E+00
 0.0000000000000E+00
 0.0000000000000E+00
 0.0000000000000E+00
 0.0000000000000E+00
 0.0000000000000E+00
 0.0000000000000E+00
 0.0000000000000E+00
 0.0000000000000E+00
 0.0000000000000E+00
 0.0000000000000E+00
 0.0000000000000E+00
 0.0000000000000E+00
 0.0000000000000E+00
 0.0000000000000E+00
 0.0000000000000E+00
 0.0000000000000E+00
 0.0000000000000E+00
 0.0000000000000E+00
 0.0000000000000E+00
 0.0000000000000E+00
 0.0000000000000E+00
 0.0000000000000E+00
 0.0000000000000E+00
 0.0000000000000E+00
 0.0000000000000E+00
 0.0000000000000E+00
 0.0000000000000E+00
 0.0000000000000E+00
 0.0000000000000E+00
 0.0000000000000E+00
 0.0000000000000E+00
 0.0000000000000E+00
 0.0000000000000E+00
 0.0000000000000E+00
 0.0000000000000E+00
 0.0000000000000E+00
 0.0000000000000E+00
 0.0000000000000E+00
 0.0000000000000E+00
 0.0000000000000E+00
 0.0000000000000E+00
 0.0000000000000E+00
 0.0000000000000E+00
 0.0000000000000E+00
 0.0000000000000E+00
 0.0000000000000E+00
 0.0000000000000E+00
 0.0000000000000E+00
 0.0000000000000E+00
 0.0000000000000E+00
 0.0000000000000E+00
 0.0000000000000E+00
 0.0000000000000E+00
 0.0000000000000E+00
 0.0000000000000E+00
 0.0000000000000E+00
 0.0000000000000E+00
 0.0000000000000E+00
 0.0000000000000E+00
 0.0000000000000E+00
 0.0000000000000E+00
 0.0000000000000E+00
 0.0000000000000E+00
 0.0000000000000E+00
 0.0000000000000E+00
 0.0000000000000E+00
 0.0000000000000E+00
 0.0000000000000E+00
 0.0000000000000E+00
 0.0000000000000E+00
 0.0000000000000E+00
 0.0000000000000E+00
 0.0000000000000E+00
 0.0000000000000E+00
 0.0000000000000E+00
 0.0000000000000E+00
 0.0000000000000E+00
 0.0000000000000E+00
 0.0000000000000E+00
 0.0000000000000E+00
 0.0000000000000E+00
 0.0000000000000E+00
 0.0000000000000E+00
 0.0000000000000E+00
 0.0000000000000E+00
 0.0000000000000E+00
 0.0000000000000E+00
 0.0000000000000E+00
 0.0000000000000E+00
 0.0000000000000E+00
 0.0000000000000E+00
 0.0000000000000E+00
 0.0000000000000E+00
 0.0000000000000E+00
 0.0000000000000E+00
 0.0000000000000E+00
 0.0000000000000E+00
 0.0000000000000E+00
 0.0000000000000E+00
 0.0000000000000E+00
 0.0000000000000E+00
 0.0000000000000E+00
 0.0000000000000E+00
 0.0000000000000E+00
 0.0000000000000E+00
 0.0000000000000E+00
 0.0000000000000E+00
 0.0000000000000E+00
 0.0000000000000E+00
 0.0000000000000E+00
 0.0000000000000E+00
 0.0000000000000E+00
 0.0000000000000E+00
 0.0000000000000E+00
 0.0000000000000E+00
 0.0000000000000E+00
 0.0000000000000E+00
 0.0000000000000E+00
 0.0000000000000E+00
 0.0000000000000E+00
 0.0000000000000E+00
 0.0000000000000E+00
 0.0000000000000E+00
 0.0000000000000E+00
 0.0000000000000E+00
 0.0000000000000E+00
 0.0000000000000E+00
 0.0000000000000E+00
 0.0000000000000E+00
 0.0000000000000E+00
 0.0000000000000E+00
 0.0000000000000E+00
 0.0000000000000E+00
 0.0000000000000E+00
 0.0000000000000E+00
 0.0000000000000E+00
 0.0000000000000E+00
 0.0000000000000E+00
 0.0000000000000E+00
 0.0000000000000E+00
 0.0000000000000E+00
 0.0000000000000E+00
 0.0000000000000E+00
 0.0000000000000E+00
 0.0000000000000E+00
 0.0000000000000E+00
 0.0000000000000E+00
 0.0000000000000E+00
 0.0000000000000E+00
 0.0000000000000E+00
 0.0000000000000E+00
 0.0000000000000E+00
 0.0000000000000E+00
 0.0000000000000E+00
 0.0000000000000E+00
 0.0000000000000E+00
 0.0000000000000E+00
 0.0000000000000E+00
 0.0000000000000E+00
 0.0000000000000E+00
 0.0000000000000E+00
 0.0000000000000E+00
 0.0000000000000E+00
 0.0000000000000E+00
 0.0000000000000E+00
 0.0000000000000E+00
 0.0000000000000E+00
 0.0000000000000E+00
 0.0000000000000E+00
 0.0000000000000E+00
 0.0000000000000E+00
 0.0000000000000E+00
 0.0000000000000E+00
 0.0000000000000E+00
 0.0000000000000E+00
 0.0000000000000E+00
 0.0000000000000E+00
 0.0000000000000E+00
 0.0000000000000E+00
 0.0000000000000E+00
 0.0000000000000E+00
 0.0000000000000E+00
 0.0000000000000E+00
 0.0000000000000E+00
 0.0000000000000E+00
 0.0000000000000E+00
 0.0000000000000E+00
 0.0000000000000E+00
 0.0000000000000E+00
 0.0000000000000E+00
 0.0000000000000E+00
 0.0000000000000E+00
 0.0000000000000E+00
 0.0000000000000E+00
 0.0000000000000E+00
 0.0000000000000E+00
 0.0000000000000E+00
 0.0000000000000E+00
 0.0000000000000E+00
 0.0000000000000E+00
 0.0000000000000E+00
 0.0000000000000E+00
 0.0000000000000E+00
 0.0000000000000E+00
 0.0000000000000E+00
 0.0000000000000E+00
 0.0000000000000E+00
 0.0000000000000E+00
 0.0000000000000E+00
 0.0000000000000E+00
 0.0000000000000E+00
 0.0000000000000E+00
 0.0000000000000E+00
 0.0000000000000E+00
 0.0000000000000E+00
 0.0000000000000E+00
 0.0000000000000E+00
 0.0000000000000E+00
 0.0000000000000E+00
 0.0000000000000E+00
 0.0000000000000E+00
 0.0000000000000E+00
 0.0000000000000E+00
 0.0000000000000E+00
 0.0000000000000E+00
 0.0000000000000E+00
 0.0000000000000E+00
 0.0000000000000E+00
 0.0000000000000E+00
 0.0000000000000E+00
 0.0000000000000E+00
 0.0000000000000E+00
 0.0000000000000E+00
 0.0000000000000E+00
 0.0000000000000E+00
 0.0000000000000E+00
 0.0000000000000E+00
 0.0000000000000E+00
 0.0000000000000E+00
 0.0000000000000E+00
 0.0000000000000E+00
 0.0000000000000E+00
 0.0000000000000E+00
 0.0000000000000E+00
 0.0000000000000E+00
 0.0000000000000E+00
 0.0000000000000E+00
 0.0000000000000E+00
 0.0000000000000E+00
 0.0000000000000E+00
 0.0000000000000E+00
 0.0000000000000E+00
 0.0000000000000E+00
 0.0000000000000E+00
 0.0000000000000E+00
 0.0000000000000E+00
 0.0000000000000E+00
 0.0000000000000E+00
 0.0000000000000E+00
 0.0000000000000E+00
 0.0000000000000E+00
 0.0000000000000E+00
 0.0000000000000E+00
 0.0000000000000E+00
 0.0000000000000E+00
 0.0000000000000E+00
 0.0000000000000E+00
 0.0000000000000E+00
 0.0000000000000E+00
 0.0000000000000E+00
 0.0000000000000E+00
 0.0000000000000E+00
 0.0000000000000E+00
 0.0000000000000E+00
 0.0000000000000E+00
 0.0000000000000E+00
 0.0000000000000E+00
 0.0000000000000E+00
 0.0000000000000E+00
 0.0000000000000E+00
 0.0000000000000E+00
 0.0000000000000E+00
 0.0000000000000E+00
 0.0000000000000E+00
 0.0000000000000E+00
 0.0000000000000E+00
 0.0000000000000E+00
 0.0000000000000E+00
 0.0000000000000E+00
 0.0000000000000E+00
 0.0000000000000E+00
 0.0000000000000E+00
 0.0000000000000E+00
 0.0000000000000E+00
 0.0000000000000E+00
 0.0000000000000E+00
 0.0000000000000E+00
 0.0000000000000E+00
 0.0000000000000E+00
 0.0000000000000E+00
 0.0000000000000E+00
 0.0000000000000E+00
 0.0000000000000E+00
 0.0000000000000E+00
 0.0000000000000E+00
 0.0000000000000E+00
 0.0000000000000E+00
 0.0000000000000E+00
 0.0000000000000E+00
 0.0000000000000E+00
 0.0000000000000E+00
 0.0000000000000E+00
 0.0000000000000E+00
 0.0000000000000E+00
 0.0000000000000E+00
 0.0000000000000E+00
 0.0000000000000E+00
 0.0000000000000E+00
 0.0000000000000E+00
 0.0000000000000E+00
 0.0000000000000E+00
 0.0000000000000E+00
 0.0000000000000E+00
 0.0000000000000E+00
 0.0000000000000E+00
 0.0000000000000E+00
 0.0000000000000E+00
 0.0000000000000E+00
 0.0000000000000E+00
 0.0000000000000E+00
 0.0000000000000E+00
 0.0000000000000E+00
 0.0000000000000E+00
 0.0000000000000E+00
 0.0000000000000E+00
 0.0000000000000E+00
 0.0000000000000E+00
 0.0000000000000E+00
 0.0000000000000E+00
 0.0000000000000E+00
 0.0000000000000E+00
 0.0000000000000E+00
 0.0000000000000E+00
 0.0000000000000E+00
 0.0000000000000E+00
 0.0000000000000E+00
 0.0000000000000E+00
 0.0000000000000E+00
 0.0000000000000E+00
 0.0000000000000E+00
 0.0000000000000E+00
 0.0000000000000E+00
 0.0000000000000E+00
 0.0000000000000E+00
 0.0000000000000E+00
 0.0000000000000E+00
 0.0000000000000E+00
 0.0000000000000E+00
 0.0000000000000E+00
 0.0000000000000E+00
 0.0000000000000E+00
 0.0000000000000E+00
 0.0000000000000E+00
 0.0000000000000E+00
 0.0000000000000E+00
 0.0000000000000E+00
 0.0000000000000E+00
 0.0000000000000E+00
 0.0000000000000E+00
 0.0000000000000E+00
 0.0000000000000E+00
 0.0000000000000E+00
 0.0000000000000E+00
 0.0000000000000E+00
 0.0000000000000E+00
 0.0000000000000E+00
 0.0000000000000E+00
 0.0000000000000E+00
 0.0000000000000E+00
 0.0000000000000E+00
 0.0000000000000E+00
 0.0000000000000E+00
 0.0000000000000E+00
 0.0000000000000E+00
 0.0000000000000E+00
 0.0000000000000E+00
 0.0000000000000E+00
 0.0000000000000E+00
 0.0000000000000E+00
 0.0000000000000E+00
 0.0000000000000E+00
 0.0000000000000E+00
 0.0000000000000E+00
 0.0000000000000E+00
 0.0000000000000E+00
 0.0000000000000E+00
 0.0000000000000E+00
 0.0000000000000E+00
 0.0000000000000E+00
 0.0000000000000E+00
 0.0000000000000E+00
 0.0000000000000E+00
 0.0000000000000E+00
 0.0000000000000E+00
 0.0000000000000E+00
 0.0000000000000E+00
 0.0000000000000E+00
 0.0000000000000E+00
 0.0000000000000E+00
 0.0000000000000E+00
 0.0000000000000E+00
 0.0000000000000E+00
 0.0000000000000E+00
 0.0000000000000E+00
 0.0000000000000E+00
 0.0000000000000E+00
 0.0000000000000E+00
 0.0000000000000E+00
 0.0000000000000E+00
 0.0000000000000E+00
 0.0000000000000E+00
 0.0000000000000E+00
 0.0000000000000E+00
 0.0000000000000E+00
 0.0000000000000E+00
 0.0000000000000E+00
 0.0000000000000E+00
 0.0000000000000E+00
 0.0000000000000E+00
 0.0000000000000E+00
 0.0000000000000E+00
 0.0000000000000E+00
 0.0000000000000E+00
 0.0000000000000E+00
 0.0000000000000E+00
 0.0000000000000E+00
 0.0000000000000E+00
 0.0000000000000E+00
 0.0000000000000E+00
 0.0000000000000E+00
 0.0000000000000E+00
 0.0000000000000E+00
 0.0000000000000E+00
 0.0000000000000E+00
 0.0000000000000E+00
 0.0000000000000E+00
 0.0000000000000E+00
 0.0000000000000E+00
 0.0000000000000E+00
 0.0000000000000E+00
 0.0000000000000E+00
 0.0000000000000E+00
 0.0000000000000E+00
 0.0000000000000E+00
 0.0000000000000E+00
 0.0000000000000E+00
 0.0000000000000E+00
 0.0000000000000E+00
 0.0000000000000E+00
 0.0000000000000E+00
 0.0000000000000E+00
 0.0000000000000E+00
 0.0000000000000E+00
 0.0000000000000E+00
 0.0000000000000E+00
 0.0000000000000E+00
 0.0000000000000E+00
 0.0000000000000E+00
 0.0000000000000E+00
 0.0000000000000E+00
 0.0000000000000E+00
 0.0000000000000E+00
 0.0000000000000E+00
 0.0000000000000E+00
 0.0000000000000E+00
 0.0000000000000E+00
 0.0000000000000E+00
 0.0000000000000E+00
 0.0000000000000E+00
 0.0000000000000E+00
 0.0000000000000E+00
 0.0000000000000E+00
 0.0000000000000E+00
 0.0000000000000E+00
 0.0000000000000E+00
 0.0000000000000E+00
 0.0000000000000E+00
 0.0000000000000E+00
 0.0000000000000E+00
 0.0000000000000E+00
 0.0000000000000E+00
 0.0000000000000E+00
 0.0000000000000E+00
 0.0000000000000E+00
 0.0000000000000E+00
 0.0000000000000E+00
 0.0000000000000E+00
 0.0000000000000E+00
 0.0000000000000E+00
 0.0000000000000E+00
 0.0000000000000E+00
 0.0000000000000E+00
 0.0000000000000E+00
 0.0000000000000E+00
 0.0000000000000E+00
 0.0000000000000E+00
 0.0000000000000E+00
 0.0000000000000E+00
 0.0000000000000E+00
 0.0000000000000E+00
 0.0000000000000E+00
 0.0000000000000E+00
 0.0000000000000E+00
 0.0000000000000E+00
 0.0000000000000E+00
 0.0000000000000E+00
 0.0000000000000E+00
 0.0000000000000E+00
 0.0000000000000E+00
 0.0000000000000E+00
 0.0000000000000E+00
 0.0000000000000E+00
 0.0000000000000E+00
 0.0000000000000E+00
 0.0000000000000E+00
 0.0000000000000E+00
 0.0000000000000E+00
 0.0000000000000E+00
 0.0000000000000E+00
 0.0000000000000E+00
 0.0000000000000E+00
 0.0000000000000E+00
 0.0000000000000E+00
 0.0000000000000E+00
 0.0000000000000E+00
 0.0000000000000E+00
 0.0000000000000E+00
 0.0000000000000E+00
 0.0000000000000E+00
 0.0000000000000E+00
 0.0000000000000E+00
 0.0000000000000E+00
 0.0000000000000E+00
 0.0000000000000E+00
 0.0000000000000E+00
 0.0000000000000E+00
 0.0000000000000E+00
 0.0000000000000E+00
 0.0000000000000E+00
 0.0000000000000E+00
 0.0000000000000E+00
 0.0000000000000E+00
 0.0000000000000E+00
 0.0000000000000E+00
 0.0000000000000E+00
 0.0000000000000E+00
 0.0000000000000E+00
 0.0000000000000E+00
 0.0000000000000E+00
 0.0000000000000E+00
 0.0000000000000E+00
 0.0000000000000E+00
 0.0000000000000E+00
 0.0000000000000E+00
 0.0000000000000E+00
 0.0000000000000E+00
 0.0000000000000E+00
 0.0000000000000E+00
 0.0000000000000E+00
 0.0000000000000E+00
 0.0000000000000E+00
 0.0000000000000E+00
 0.0000000000000E+00
 0.0000000000000E+00
 0.0000000000000E+00
 0.0000000000000E+00
 0.0000000000000E+00
 0.0000000000000E+00
 0.0000000000000E+00
 0.0000000000000E+00
 0.0000000000000E+00
 0.0000000000000E+00
 0.0000000000000E+00
 0.0000000000000E+00
 0.0000000000000E+00
 0.0000000000000E+00
 0.0000000000000E+00
 0.0000000000000E+00
 0.0000000000000E+00
 0.0000000000000E+00
 0.0000000000000E+00
 0.0000000000000E+00
 0.0000000000000E+00
 0.0000000000000E+00
 0.0000000000000E+00
 0.0000000000000E+00
 0.0000000000000E+00
 0.0000000000000E+00
 0.0000000000000E+00
 0.0000000000000E+00
 0.0000000000000E+00
 0.0000000000000E+00
 0.0000000000000E+00
 0.0000000000000E+00
 0.0000000000000E+00
 0.0000000000000E+00
 0.0000000000000E+00
 0.0000000000000E+00
 0.0000000000000E+00
 0.0000000000000E+00
 0.0000000000000E+00
 0.0000000000000E+00
 0.0000000000000E+00
 0.0000000000000E+00
 0.0000000000000E+00
 0.0000000000000E+00
 0.0000000000000E+00
 0.0000000000000E+00
 0.0000000000000E+00
 0.0000000000000E+00
 0.0000000000000E+00
 0.0000000000000E+00
 0.0000000000000E+00
 0.0000000000000E+00
 0.0000000000000E+00
 0.0000000000000E+00
 0.0000000000000E+00
 0.0000000000000E+00
 0.0000000000000E+00
 0.0000000000000E+00
 0.0000000000000E+00
 0.0000000000000E+00
 0.0000000000000E+00
 0.0000000000000E+00
 0.0000000000000E+00
 0.0000000000000E+00
 0.0000000000000E+00
 0.0000000000000E+00
 0.0000000000000E+00
 0.0000000000000E+00
 0.0000000000000E+00
 0.0000000000000E+00
 0.0000000000000E+00
 0.0000000000000E+00
 0.0000000000000E+00
 0.0000000000000E+00
 0.0000000000000E+00
 0.0000000000000E+00
 0.0000000000000E+00
 0.0000000000000E+00
 0.0000000000000E+00
 0.0000000000000E+00
 0.0000000000000E+00
 0.0000000000000E+00
 0.0000000000000E+00
 0.0000000000000E+00
 0.0000000000000E+00
 0.0000000000000E+00
 0.0000000000000E+00
 0.0000000000000E+00
 0.0000000000000E+00
 0.0000000000000E+00
 0.0000000000000E+00
 0.0000000000000E+00
 0.0000000000000E+00
 0.0000000000000E+00
 0.0000000000000E+00
 0.0000000000000E+00
 0.0000000000000E+00
 0.0000000000000E+00
 0.0000000000000E+00
 0.0000000000000E+00
 0.0000000000000E+00
 0.0000000000000E+00
 0.0000000000000E+00
 0.0000000000000E+00
 0.0000000000000E+00
 0.0000000000000E+00
 0.0000000000000E+00
 0.0000000000000E+00
 0.0000000000000E+00
 0.0000000000000E+00
 0.0000000000000E+00
 0.0000000000000E+00
 0.0000000000000E+00
 0.0000000000000E+00
 0.0000000000000E+00
 0.0000000000000E+00
 0.0000000000000E+00
 0.0000000000000E+00
 0.0000000000000E+00
 0.0000000000000E+00
 0.0000000000000E+00
 0.0000000000000E+00
 0.0000000000000E+00
 0.0000000000000E+00
 0.0000000000000E+00
 0.0000000000000E+00
 0.0000000000000E+00
 0.0000000000000E+00
 0.0000000000000E+00
 0.0000000000000E+00
 0.0000000000000E+00
 0.0000000000000E+00
 0.0000000000000E+00
 0.0000000000000E+00
 0.0000000000000E+00
 0.0000000000000E+00
 0.0000000000000E+00
 0.0000000000000E+00
 0.0000000000000E+00
 0.0000000000000E+00
 0.0000000000000E+00
 0.0000000000000E+00
 0.0000000000000E+00
 0.0000000000000E+00
 0.0000000000000E+00
 0.0000000000000E+00
 0.0000000000000E+00
 0.0000000000000E+00
 0.0000000000000E+00
 0.0000000000000E+00
 0.0000000000000E+00
 0.0000000000000E+00
 0.0000000000000E+00
 0.0000000000000E+00
 0.0000000000000E+00
 0.0000000000000E+00
 0.0000000000000E+00
 0.0000000000000E+00
 0.0000000000000E+00
 0.0000000000000E+00
 0.0000000000000E+00
 0.0000000000000E+00
 0.0000000000000E+00
 0.0000000000000E+00
 0.0000000000000E+00
 0.0000000000000E+00
 0.0000000000000E+00
 0.0000000000000E+00
 0.0000000000000E+00
 0.0000000000000E+00
 0.0000000000000E+00
 0.0000000000000E+00
 0.0000000000000E+00
 0.0000000000000E+00
 0.0000000000000E+00
 0.0000000000000E+00
 0.0000000000000E+00
 0.0000000000000E+00
 0.0000000000000E+00
 0.0000000000000E+00
 0.0000000000000E+00
 0.0000000000000E+00
 0.0000000000000E+00
 0.0000000000000E+00
 0.0000000000000E+00
 0.0000000000000E+00
 0.0000000000000E+00
 0.0000000000000E+00
 0.0000000000000E+00
 0.0000000000000E+00
 0.0000000000000E+00
 0.0000000000000E+00
 0.0000000000000E+00
 0.0000000000000E+00
 0.0000000000000E+00
 0.0000000000000E+00
 0.0000000000000E+00
 0.0000000000000E+00
 0.0000000000000E+00
 0.0000000000000E+00
 0.0000000000000E+00
 0.0000000000000E+00
 0.0000000000000E+00
 0.0000000000000E+00
 0.0000000000000E+00
 0.0000000000000E+00
 0.0000000000000E+00
 0.0000000000000E+00
 0.0000000000000E+00
 0.0000000000000E+00
 0.0000000000000E+00
 0.0000000000000E+00
 0.0000000000000E+00
 0.0000000000000E+00
 0.0000000000000E+00
 0.0000000000000E+00
 0.0000000000000E+00
 0.0000000000000E+00
 0.0000000000000E+00
 0.0000000000000E+00
 0.0000000000000E+00
 0.0000000000000E+00
 0.0000000000000E+00
 0.0000000000000E+00
 0.0000000000000E+00
 0.0000000000000E+00
 0.0000000000000E+00
 0.0000000000000E+00
 0.0000000000000E+00
 0.0000000000000E+00
 0.0000000000000E+00
 0.0000000000000E+00
 0.0000000000000E+00
 0.0000000000000E+00
 0.0000000000000E+00
 0.0000000000000E+00
 0.0000000000000E+00
 0.0000000000000E+00
 0.0000000000000E+00
 0.0000000000000E+00
 0.0000000000000E+00
 0.0000000000000E+00
 0.0000000000000E+00
 0.0000000000000E+00
 0.0000000000000E+00
 0.0000000000000E+00
 0.0000000000000E+00
 0.0000000000000E+00
 0.0000000000000E+00
 0.0000000000000E+00
 0.0000000000000E+00
 0.0000000000000E+00
 0.0000000000000E+00
 0.0000000000000E+00
 0.0000000000000E+00
 0.0000000000000E+00
 0.0000000000000E+00
 0.0000000000000E+00
 0.0000000000000E+00
 0.0000000000000E+00
 0.0000000000000E+00
 0.0000000000000E+00
 0.0000000000000E+00
 0.0000000000000E+00
 0.0000000000000E+00
 0.0000000000000E+00
 0.0000000000000E+00
 0.0000000000000E+00
 0.0000000000000E+00
 0.0000000000000E+00
 0.0000000000000E+00
 0.0000000000000E+00
 0.0000000000000E+00
 0.0000000000000E+00
 0.0000000000000E+00
 0.0000000000000E+00
 0.0000000000000E+00
 0.0000000000000E+00
 0.0000000000000E+00
 0.0000000000000E+00
 0.0000000000000E+00
 0.0000000000000E+00
 0.0000000000000E+00
 0.0000000000000E+00
 0.0000000000000E+00
 0.0000000000000E+00
 0.0000000000000E+00
 0.0000000000000E+00
 0.0000000000000E+00
 0.0000000000000E+00
 0.0000000000000E+00
 0.0000000000000E+00
 0.0000000000000E+00
 0.0000000000000E+00
 0.0000000000000E+00
 0.0000000000000E+00
 0.0000000000000E+00
 0.0000000000000E+00
 0.0000000000000E+00
 0.0000000000000E+00
 0.0000000000000E+00
 0.0000000000000E+00
 0.0000000000000E+00
 0.0000000000000E+00
 0.0000000000000E+00
 0.0000000000000E+00
 0.0000000000000E+00
 0.0000000000000E+00
 0.0000000000000E+00
 0.0000000000000E+00
 0.0000000000000E+00
 0.0000000000000E+00
 0.0000000000000E+00
 0.0000000000000E+00
 0.0000000000000E+00
 0.0000000000000E+00
 0.0000000000000E+00
 0.0000000000000E+00
 0.0000000000000E+00
 0.0000000000000E+00
 0.0000000000000E+00
 0.0000000000000E+00
 0.0000000000000E+00
 0.0000000000000E+00
 0.0000000000000E+00
 0.0000000000000E+00
 0.0000000000000E+00
 0.0000000000000E+00
 0.0000000000000E+00
 0.0000000000000E+00
 0.0000000000000E+00
 0.0000000000000E+00
 0.0000000000000E+00
 0.0000000000000E+00
 0.0000000000000E+00
 0.0000000000000E+00
 0.0000000000000E+00
 0.0000000000000E+00
 0.0000000000000E+00
 0.0000000000000E+00
 0.0000000000000E+00
 0.0000000000000E+00
 0.0000000000000E+00
 0.0000000000000E+00
 0.0000000000000E+00
 0.0000000000000E+00
 0.0000000000000E+00
 0.0000000000000E+00
 0.0000000000000E+00
 0.0000000000000E+00
 0.0000000000000E+00
 0.0000000000000E+00
 0.0000000000000E+00
 0.0000000000000E+00
 0.0000000000000E+00
 0.0000000000000E+00
 0.0000000000000E+00
 0.0000000000000E+00
 0.0000000000000E+00
 0.0000000000000E+00
 0.0000000000000E+00
 0.0000000000000E+00
 0.0000000000000E+00
 0.0000000000000E+00
 0.0000000000000E+00
 0.0000000000000E+00
 0.0000000000000E+00
 0.0000000000000E+00
 0.0000000000000E+00
 0.0000000000000E+00
 0.0000000000000E+00
 0.0000000000000E+00
 0.0000000000000E+00
 0.0000000000000E+00
 0.0000000000000E+00
 0.0000000000000E+00
 0.0000000000000E+00
 0.0000000000000E+00
 0.0000000000000E+00
 0.0000000000000E+00
 0.0000000000000E+00
 0.0000000000000E+00
 0.0000000000000E+00
 0.0000000000000E+00
 0.0000000000000E+00
 0.0000000000000E+00
 0.0000000000000E+00
 0.0000000000000E+00
 0.0000000000000E+00
 0.0000000000000E+00
 0.0000000000000E+00
 0.0000000000000E+00
 0.0000000000000E+00
 0.0000000000000E+00
 0.0000000000000E+00
 0.0000000000000E+00
 0.0000000000000E+00
 0.0000000000000E+00
 0.0000000000000E+00
 0.0000000000000E+00
 0.0000000000000E+00
 0.0000000000000E+00
 0.0000000000000E+00
 0.0000000000000E+00
 0.0000000000000E+00
 0.0000000000000E+00
 0.0000000000000E+00
 0.0000000000000E+00
 0.0000000000000E+00
 0.0000000000000E+00
 0.0000000000000E+00
 0.0000000000000E+00
 0.0000000000000E+00
 0.0000000000000E+00
 0.0000000000000E+00
 0.0000000000000E+00
 0.0000000000000E+00
 0.0000000000000E+00
 0.0000000000000E+00
 0.0000000000000E+00
 0.0000000000000E+00
 0.0000000000000E+00
 0.0000000000000E+00
 0.0000000000000E+00
 0.0000000000000E+00
 0.0000000000000E+00
 0.0000000000000E+00
 0.0000000000000E+00
 0.0000000000000E+00
 0.0000000000000E+00
 0.0000000000000E+00
 0.0000000000000E+00
 0.0000000000000E+00
 0.0000000000000E+00
 0.0000000000000E+00
 0.0000000000000E+00
 0.0000000000000E+00
 0.0000000000000E+00
 0.0000000000000E+00
 0.0000000000000E+00
 0.0000000000000E+00
 0.0000000000000E+00
 0.0000000000000E+00
 0.0000000000000E+00
 0.0000000000000E+00
 0.0000000000000E+00
 0.0000000000000E+00
 0.0000000000000E+00
 0.0000000000000E+00
 0.0000000000000E+00
 0.0000000000000E+00
 0.0000000000000E+00
 0.0000000000000E+00
 0.0000000000000E+00
 0.0000000000000E+00
 0.0000000000000E+00
 0.0000000000000E+00
 0.0000000000000E+00
 0.0000000000000E+00
 0.0000000000000E+00
 0.0000000000000E+00
 0.0000000000000E+00
 0.0000000000000E+00
 0.0000000000000E+00
 0.0000000000000E+00
 0.0000000000000E+00
 0.0000000000000E+00
 0.0000000000000E+00
 0.0000000000000E+00
 0.0000000000000E+00
 0.0000000000000E+00
 0.0000000000000E+00
 0.0000000000000E+00
 0.0000000000000E+00
 0.0000000000000E+00
 0.0000000000000E+00
 0.0000000000000E+00
 0.0000000000000E+00
 0.0000000000000E+00
 0.0000000000000E+00
 0.0000000000000E+00
 0.0000000000000E+00
 0.0000000000000E+00
 0.0000000000000E+00
 0.0000000000000E+00
 0.0000000000000E+00
 0.0000000000000E+00
 0.0000000000000E+00
 0.0000000000000E+00
 0.0000000000000E+00
 0.0000000000000E+00
 0.0000000000000E+00
 0.0000000000000E+00
 0.0000000000000E+00
 0.0000000000000E+00
 0.0000000000000E+00
 0.0000000000000E+00
 0.0000000000000E+00
 0.0000000000000E+00
 0.0000000000000E+00
 0.0000000000000E+00
 0.0000000000000E+00
 0.0000000000000E+00
 0.0000000000000E+00
 0.0000000000000E+00
 0.0000000000000E+00
 0.0000000000000E+00
 0.0000000000000E+00
 0.0000000000000E+00
 0.0000000000000E+00
 0.0000000000000E+00
 0.0000000000000E+00
 0.0000000000000E+00
 0.0000000000000E+00
 0.0000000000000E+00
 0.0000000000000E+00
 0.0000000000000E+00
 0.0000000000000E+00
 0.0000000000000E+00
 0.0000000000000E+00
 0.0000000000000E+00
 0.0000000000000E+00
 0.0000000000000E+00
 0.0000000000000E+00
 0.0000000000000E+00
 0.0000000000000E+00
 0.0000000000000E+00
 0.0000000000000E+00
 0.0000000000000E+00
 0.0000000000000E+00
 0.0000000000000E+00
 0.0000000000000E+00
 0.0000000000000E+00
 0.0000000000000E+00
 0.0000000000000E+00
 0.0000000000000E+00
 0.0000000000000E+00
 0.0000000000000E+00
 0.0000000000000E+00
 0.0000000000000E+00
 0.0000000000000E+00
 0.0000000000000E+00
 0.0000000000000E+00
 0.0000000000000E+00
 0.0000000000000E+00
 0.0000000000000E+00
 0.0000000000000E+00
 0.0000000000000E+00
 0.0000000000000E+00
 0.0000000000000E+00
 0.0000000000000E+00
 0.0000000000000E+00
 0.0000000000000E+00
 0.0000000000000E+00
 0.0000000000000E+00
 0.0000000000000E+00
 0.0000000000000E+00
 0.0000000000000E+00
 0.0000000000000E+00
 0.0000000000000E+00
 0.0000000000000E+00
 0.0000000000000E+00
 0.0000000000000E+00
 0.0000000000000E+00
 0.0000000000000E+00
 0.0000000000000E+00
 0.0000000000000E+00
 0.0000000000000E+00
 0.0000000000000E+00
 0.0000000000000E+00
 0.0000000000000E+00
 0.0000000000000E+00
 0.0000000000000E+00
 0.0000000000000E+00
 0.0000000000000E+00
 0.0000000000000E+00
 0.0000000000000E+00
 0.0000000000000E+00
 0.0000000000000E+00
 0.0000000000000E+00
 0.0000000000000E+00
 0.0000000000000E+00
 0.0000000000000E+00
 0.0000000000000E+00
 0.0000000000000E+00
 0.0000000000000E+00
 0.0000000000000E+00
 0.0000000000000E+00
 0.0000000000000E+00
 0.0000000000000E+00
 0.0000000000000E+00
 0.0000000000000E+00
 0.0000000000000E+00
 0.0000000000000E+00
 0.0000000000000E+00
 0.0000000000000E+00
 0.0000000000000E+00
 0.0000000000000E+00
 0.0000000000000E+00
 0.0000000000000E+00
 0.0000000000000E+00
 0.0000000000000E+00
 0.0000000000000E+00
 0.0000000000000E+00
 0.0000000000000E+00
 0.0000000000000E+00
 0.0000000000000E+00
 0.0000000000000E+00
 0.0000000000000E+00
 0.0000000000000E+00
 0.0000000000000E+00
 0.0000000000000E+00
 0.0000000000000E+00
 0.0000000000000E+00
 0.0000000000000E+00
 0.0000000000000E+00
 0.0000000000000E+00
 0.0000000000000E+00
 0.0000000000000E+00
 0.0000000000000E+00
 0.0000000000000E+00
 0.0000000000000E+00
 0.0000000000000E+00
 0.0000000000000E+00
 0.0000000000000E+00
 0.0000000000000E+00
 0.0000000000000E+00
 0.0000000000000E+00
 0.0000000000000E+00
 0.0000000000000E+00
 0.0000000000000E+00
 0.0000000000000E+00
 0.0000000000000E+00
 0.0000000000000E+00
 0.0000000000000E+00
 0.0000000000000E+00
 0.0000000000000E+00
 0.0000000000000E+00
 0.0000000000000E+00
 0.0000000000000E+00
 0.0000000000000E+00
 0.0000000000000E+00
 0.0000000000000E+00
 0.0000000000000E+00
 0.0000000000000E+00
 0.0000000000000E+00
 0.0000000000000E+00
 0.0000000000000E+00
 0.0000000000000E+00
 0.0000000000000E+00
 0.0000000000000E+00
 0.0000000000000E+00
 0.0000000000000E+00
 0.0000000000000E+00
 0.0000000000000E+00
 0.0000000000000E+00
 0.0000000000000E+00
 0.0000000000000E+00
 0.0000000000000E+00
 0.0000000000000E+00
 0.0000000000000E+00
 0.0000000000000E+00
 0.0000000000000E+00
 0.0000000000000E+00
 0.0000000000000E+00
 0.0000000000000E+00
 0.0000000000000E+00
 0.0000000000000E+00
 0.0000000000000E+00
 0.0000000000000E+00
 0.0000000000000E+00
 0.0000000000000E+00
 0.0000000000000E+00
 0.0000000000000E+00
 0.0000000000000E+00
 0.0000000000000E+00
 0.0000000000000E+00
 0.0000000000000E+00
 0.0000000000000E+00
 0.0000000000000E+00
 0.0000000000000E+00
 0.0000000000000E+00
 0.0000000000000E+00
 0.0000000000000E+00
 0.0000000000000E+00
 0.0000000000000E+00
 0.0000000000000E+00
 0.0000000000000E+00
 0.0000000000000E+00
 0.0000000000000E+00
 0.0000000000000E+00
 0.0000000000000E+00
 0.0000000000000E+00
 0.0000000000000E+00
 0.0000000000000E+00
 0.0000000000000E+00
 0.0000000000000E+00
 0.0000000000000E+00
 0.0000000000000E+00
 0.0000000000000E+00
 0.0000000000000E+00
 0.0000000000000E+00
 0.0000000000000E+00
 0.0000000000000E+00
 0.0000000000000E+00
 0.0000000000000E+00
 0.0000000000000E+00
 0.0000000000000E+00
 0.0000000000000E+00
 0.0000000000000E+00
 0.0000000000000E+00
 0.0000000000000E+00
 0.0000000000000E+00
 0.0000000000000E+00
 0.0000000000000E+00
 0.0000000000000E+00
 0.0000000000000E+00
 0.0000000000000E+00
 0.0000000000000E+00
 0.0000000000000E+00
 0.0000000000000E+00
 0.0000000000000E+00
 0.0000000000000E+00
 0.0000000000000E+00
 0.0000000000000E+00
 0.0000000000000E+00
 0.0000000000000E+00
 0.0000000000000E+00
 0.0000000000000E+00
 0.0000000000000E+00
 0.0000000000000E+00
 0.0000000000000E+00
 0.0000000000000E+00
 0.0000000000000E+00
 0.0000000000000E+00
 0.0000000000000E+00
 0.0000000000000E+00
 0.0000000000000E+00
 0.0000000000000E+00
 0.0000000000000E+00
 0.0000000000000E+00
 0.0000000000000E+00
 0.0000000000000E+00
 0.0000000000000E+00
 0.0000000000000E+00
 0.0000000000000E+00
 0.0000000000000E+00
 0.0000000000000E+00
 0.0000000000000E+00
 0.0000000000000E+00
 0.0000000000000E+00
 0.0000000000000E+00
 0.0000000000000E+00
 0.0000000000000E+00
 0.0000000000000E+00
 0.0000000000000E+00
 0.0000000000000E+00
 0.0000000000000E+00
 0.0000000000000E+00
 0.0000000000000E+00
 0.0000000000000E+00
 0.0000000000000E+00
 0.0000000000000E+00
 0.0000000000000E+00
 0.0000000000000E+00
 0.0000000000000E+00
 0.0000000000000E+00
 0.0000000000000E+00
 0.0000000000000E+00
 0.0000000000000E+00
 0.0000000000000E+00
 0.0000000000000E+00
 0.0000000000000E+00
 0.0000000000000E+00
 0.0000000000000E+00
 0.0000000000000E+00
 0.0000000000000E+00
 0.0000000000000E+00
 0.0000000000000E+00
 0.0000000000000E+00
 0.0000000000000E+00
 0.0000000000000E+00
 0.0000000000000E+00
 0.0000000000000E+00
 0.0000000000000E+00
 0.0000000000000E+00
 0.0000000000000E+00
 0.0000000000000E+00
 0.0000000000000E+00
 0.0000000000000E+00
 0.0000000000000E+00
 0.0000000000000E+00
 0.0000000000000E+00
 0.0000000000000E+00
 0.0000000000000E+00
 0.0000000000000E+00
 0.0000000000000E+00
 0.0000000000000E+00
 0.0000000000000E+00
 0.0000000000000E+00
 0.0000000000000E+00
 0.0000000000000E+00
 0.0000000000000E+00
 0.0000000000000E+00
 0.0000000000000E+00
 0.0000000000000E+00
 0.0000000000000E+00
 0.0000000000000E+00
 0.0000000000000E+00
 0.0000000000000E+00
 0.0000000000000E+00
 0.0000000000000E+00
 0.0000000000000E+00
 0.0000000000000E+00
 0.0000000000000E+00
 0.0000000000000E+00
 0.0000000000000E+00
 0.0000000000000E+00
 0.0000000000000E+00
 0.0000000000000E+00
 0.0000000000000E+00
 0.0000000000000E+00
 0.0000000000000E+00
 0.0000000000000E+00
 0.0000000000000E+00
 0.0000000000000E+00
 0.0000000000000E+00
 0.0000000000000E+00
 0.0000000000000E+00
 0.0000000000000E+00
 0.0000000000000E+00
 0.0000000000000E+00
 0.0000000000000E+00
 0.0000000000000E+00
 0.0000000000000E+00
 0.0000000000000E+00
 0.0000000000000E+00
 0.0000000000000E+00
 0.0000000000000E+00
 0.0000000000000E+00
 0.0000000000000E+00
 0.0000000000000E+00
 0.0000000000000E+00
 0.0000000000000E+00
 0.0000000000000E+00
 0.0000000000000E+00
 0.0000000000000E+00
 0.0000000000000E+00
 0.0000000000000E+00
 0.0000000000000E+00
 0.0000000000000E+00
 0.0000000000000E+00
 0.0000000000000E+00
 0.0000000000000E+00
 0.0000000000000E+00
 0.0000000000000E+00
 0.0000000000000E+00
 0.0000000000000E+00
 0.0000000000000E+00
 0.0000000000000E+00
 0.0000000000000E+00
 0.0000000000000E+00
 0.0000000000000E+00
 0.0000000000000E+00
 0.0000000000000E+00
 0.0000000000000E+00
 0.0000000000000E+00
 0.0000000000000E+00
 0.0000000000000E+00
 0.0000000000000E+00
 0.0000000000000E+00
 0.0000000000000E+00
 0.0000000000000E+00
 0.0000000000000E+00
 0.0000000000000E+00
 0.0000000000000E+00
 0.0000000000000E+00
 0.0000000000000E+00
 0.0000000000000E+00
 0.0000000000000E+00
 0.0000000000000E+00
 0.0000000000000E+00
 0.0000000000000E+00
 0.0000000000000E+00
 0.0000000000000E+00
 0.0000000000000E+00
 0.0000000000000E+00
 0.0000000000000E+00
 0.0000000000000E+00
 0.0000000000000E+00
 0.0000000000000E+00
 0.0000000000000E+00
 0.0000000000000E+00
 0.0000000000000E+00
 0.0000000000000E+00
 0.0000000000000E+00
 0.0000000000000E+00
 0.0000000000000E+00
 0.0000000000000E+00
 0.0000000000000E+00
 0.0000000000000E+00
 0.0000000000000E+00
 0.0000000000000E+00
 0.0000000000000E+00
 0.0000000000000E+00
 0.0000000000000E+00
 0.0000000000000E+00
 0.0000000000000E+00
 0.0000000000000E+00
 0.0000000000000E+00
 0.0000000000000E+00
 0.0000000000000E+00
 0.0000000000000E+00
 0.0000000000000E+00
 0.0000000000000E+00
 0.0000000000000E+00
 0.0000000000000E+00
 0.0000000000000E+00
 0.0000000000000E+00
 0.0000000000000E+00
 0.0000000000000E+00
 0.0000000000000E+00
 0.0000000000000E+00
 0.0000000000000E+00
 0.0000000000000E+00
 0.0000000000000E+00
 0.0000000000000E+00
 0.0000000000000E+00
 0.0000000000000E+00
 0.0000000000000E+00
 0.0000000000000E+00
 0.0000000000000E+00
 0.0000000000000E+00
 0.0000000000000E+00
 0.0000000000000E+00
 0.0000000000000E+00
 0.0000000000000E+00
 0.0000000000000E+00
 0.0000000000000E+00
 0.0000000000000E+00
 0.0000000000000E+00
 0.0000000000000E+00
 0.0000000000000E+00
 0.0000000000000E+00
 0.0000000000000E+00
 0.0000000000000E+00
 0.0000000000000E+00
 0.0000000000000E+00
 0.0000000000000E+00
 0.0000000000000E+00
 0.0000000000000E+00
 0.0000000000000E+00
 0.0000000000000E+00
 0.0000000000000E+00
 0.0000000000000E+00
 0.0000000000000E+00
 0.0000000000000E+00
 0.0000000000000E+00
 0.0000000000000E+00
 0.0000000000000E+00
 0.0000000000000E+00
 0.0000000000000E+00
 0.0000000000000E+00
 0.0000000000000E+00
 0.0000000000000E+00
 0.0000000000000E+00
 0.0000000000000E+00
 0.0000000000000E+00
 0.0000000000000E+00
 0.0000000000000E+00
 0.0000000000000E+00
 0.0000000000000E+00
 0.0000000000000E+00
 0.0000000000000E+00
 0.0000000000000E+00
 0.0000000000000E+00
 0.0000000000000E+00
 0.0000000000000E+00
 0.0000000000000E+00
 0.0000000000000E+00
 0.0000000000000E+00
 0.0000000000000E+00
 0.0000000000000E+00
 0.0000000000000E+00
 0.0000000000000E+00
 0.0000000000000E+00
 0.0000000000000E+00
 0.0000000000000E+00
 0.0000000000000E+00
 0.0000000000000E+00
 0.0000000000000E+00
 0.0000000000000E+00
 0.0000000000000E+00
 0.0000000000000E+00
 0.0000000000000E+00
 0.0000000000000E+00
 0.0000000000000E+00
 0.0000000000000E+00
 0.0000000000000E+00
 0.0000000000000E+00
 0.0000000000000E+00
 0.0000000000000E+00
 0.0000000000000E+00
 0.0000000000000E+00
 0.0000000000000E+00
 0.0000000000000E+00
 0.0000000000000E+00
 0.0000000000000E+00
 0.0000000000000E+00
 0.0000000000000E+00
 0.0000000000000E+00
 0.0000000000000E+00
 0.0000000000000E+00
 0.0000000000000E+00
 0.0000000000000E+00
 0.0000000000000E+00
 0.0000000000000E+00
 0.0000000000000E+00
 0.0000000000000E+00
 0.0000000000000E+00
 0.0000000000000E+00
 0.0000000000000E+00
 0.0000000000000E+00
 0.0000000000000E+00
 0.0000000000000E+00
 0.0000000000000E+00
 0.0000000000000E+00
 0.0000000000000E+00
 0.0000000000000E+00
 0.0000000000000E+00
 0.0000000000000E+00
 0.0000000000000E+00
 0.0000000000000E+00
 0.0000000000000E+00
 0.0000000000000E+00
 0.0000000000000E+00
 0.0000000000000E+00
 0.0000000000000E+00
 0.0000000000000E+00
 0.0000000000000E+00
 0.0000000000000E+00
 0.0000000000000E+00
 0.0000000000000E+00
 0.0000000000000E+00
 0.0000000000000E+00
 0.0000000000000E+00
 0.0000000000000E+00
 0.0000000000000E+00
 0.0000000000000E+00
 0.0000000000000E+00
 0.0000000000000E+00
 0.0000000000000E+00
 0.0000000000000E+00
 0.0000000000000E+00
 0.0000000000000E+00
 0.0000000000000E+00
 0.0000000000000E+00
 0.0000000000000E+00
 0.0000000000000E+00
 0.0000000000000E+00
 0.0000000000000E+00
 0.0000000000000E+00
 0.0000000000000E+00
 0.0000000000000E+00
 0.0000000000000E+00
 0.0000000000000E+00
 0.0000000000000E+00
 0.0000000000000E+00
 0.0000000000000E+00
 0.0000000000000E+00
 0.0000000000000E+00
 0.0000000000000E+00
 0.0000000000000E+00
 0.0000000000000E+00
 0.0000000000000E+00
 0.0000000000000E+00
 0.0000000000000E+00
 0.0000000000000E+00
 0.0000000000000E+00
 0.0000000000000E+00
 0.0000000000000E+00
 0.0000000000000E+00
 0.0000000000000E+00
 0.0000000000000E+00
 0.0000000000000E+00
 0.0000000000000E+00
 0.0000000000000E+00
 0.0000000000000E+00
 0.0000000000000E+00
 0.0000000000000E+00
 0.0000000000000E+00
 0.0000000000000E+00
 0.0000000000000E+00
 0.0000000000000E+00
 0.0000000000000E+00
 0.0000000000000E+00
 0.0000000000000E+00
 0.0000000000000E+00
 0.0000000000000E+00
 0.0000000000000E+00
 0.0000000000000E+00
 0.0000000000000E+00
 0.0000000000000E+00
 0.0000000000000E+00
 0.0000000000000E+00
 0.0000000000000E+00
 0.0000000000000E+00
 0.0000000000000E+00
 0.0000000000000E+00
 0.0000000000000E+00
 0.0000000000000E+00
 0.0000000000000E+00
 0.0000000000000E+00
 0.0000000000000E+00
 0.0000000000000E+00
 0.0000000000000E+00
 0.0000000000000E+00
 0.0000000000000E+00
 0.0000000000000E+00
 0.0000000000000E+00
 0.0000000000000E+00
 0.0000000000000E+00
 0.0000000000000E+00
 0.0000000000000E+00
 0.0000000000000E+00
 0.0000000000000E+00
 0.0000000000000E+00
 0.0000000000000E+00
 0.0000000000000E+00
 0.0000000000000E+00
 0.0000000000000E+00
 0.0000000000000E+00
 0.0000000000000E+00
 0.0000000000000E+00
 0.0000000000000E+00
 0.0000000000000E+00
 0.0000000000000E+00
 0.0000000000000E+00
 0.0000000000000E+00
 0.0000000000000E+00
 0.0000000000000E+00
 0.0000000000000E+00
 0.0000000000000E+00
 0.0000000000000E+00
 0.0000000000000E+00
 0.0000000000000E+00
 0.0000000000000E+00
 0.0000000000000E+00
 0.0000000000000E+00
 0.0000000000000E+00
 0.0000000000000E+00
 0.0000000000000E+00
 0.0000000000000E+00
 0.0000000000000E+00
 0.0000000000000E+00
 0.0000000000000E+00
 0.0000000000000E+00
 0.0000000000000E+00
 0.0000000000000E+00
 0.0000000000000E+00
 0.0000000000000E+00
 0.0000000000000E+00
 0.0000000000000E+00
 0.0000000000000E+00
 0.0000000000000E+00
 0.0000000000000E+00
 0.0000000000000E+00
 0.0000000000000E+00
 0.0000000000000E+00
 0.0000000000000E+00
 0.0000000000000E+00
 0.0000000000000E+00
 0.0000000000000E+00
 0.0000000000000E+00
 0.0000000000000E+00
 0.0000000000000E+00
 0.0000000000000E+00
 0.0000000000000E+00
 0.0000000000000E+00
 0.0000000000000E+00
 0.0000000000000E+00
 0.0000000000000E+00
 0.0000000000000E+00
 0.0000000000000E+00
 0.0000000000000E+00
 0.0000000000000E+00
 0.0000000000000E+00
 0.0000000000000E+00
 0.0000000000000E+00
 0.0000000000000E+00
 0.0000000000000E+00
 0.0000000000000E+00
 0.0000000000000E+00
 0.0000000000000E+00
 0.0000000000000E+00
 0.0000000000000E+00
 0.0000000000000E+00
 0.0000000000000E+00
 0.0000000000000E+00
 0.0000000000000E+00
 0.0000000000000E+00
 0.0000000000000E+00
 0.0000000000000E+00
 0.0000000000000E+00
 0.0000000000000E+00
 0.0000000000000E+00
 0.0000000000000E+00
 0.0000000000000E+00
 0.0000000000000E+00
 0.0000000000000E+00
 0.0000000000000E+00
 0.0000000000000E+00
 0.0000000000000E+00
 0.0000000000000E+00
 0.0000000000000E+00
 0.0000000000000E+00
 0.0000000000000E+00
 0.0000000000000E+00
 0.0000000000000E+00
 0.0000000000000E+00
 0.0000000000000E+00
 0.0000000000000E+00
 0.0000000000000E+00
 0.0000000000000E+00
 0.0000000000000E+00
 0.0000000000000E+00
 0.0000000000000E+00
 0.0000000000000E+00
 0.0000000000000E+00
 0.0000000000000E+00
 0.0000000000000E+00
 0.0000000000000E+00
 0.0000000000000E+00
 0.0000000000000E+00
 0.0000000000000E+00
 0.0000000000000E+00
 0.0000000000000E+00
 0.0000000000000E+00
 0.0000000000000E+00
 0.0000000000000E+00
 0.0000000000000E+00
 0.0000000000000E+00
 0.0000000000000E+00
 0.0000000000000E+00
 0.0000000000000E+00
 0.0000000000000E+00
 0.0000000000000E+00
 0.0000000000000E+00
 0.0000000000000E+00
 0.0000000000000E+00
 0.0000000000000E+00
 0.0000000000000E+00
 0.0000000000000E+00
 0.0000000000000E+00
 0.0000000000000E+00
 0.0000000000000E+00
 0.0000000000000E+00
 0.0000000000000E+00
 0.0000000000000E+00
 0.0000000000000E+00
 0.0000000000000E+00
 0.0000000000000E+00
 0.0000000000000E+00
 0.0000000000000E+00
 0.0000000000000E+00
 0.0000000000000E+00
 0.0000000000000E+00
 0.0000000000000E+00
 0.0000000000000E+00
 0.0000000000000E+00
 0.0000000000000E+00
 0.0000000000000E+00
 0.0000000000000E+00
 0.0000000000000E+00
 0.0000000000000E+00
 0.0000000000000E+00
 0.0000000000000E+00
 0.0000000000000E+00
 0.0000000000000E+00
 0.0000000000000E+00
 0.0000000000000E+00
 0.0000000000000E+00
 0.0000000000000E+00
 0.0000000000000E+00
 0.0000000000000E+00
 0.0000000000000E+00
 0.0000000000000E+00
 0.0000000000000E+00
 0.0000000000000E+00
 0.0000000000000E+00
 0.0000000000000E+00
 0.0000000000000E+00
 0.0000000000000E+00
 0.0000000000000E+00
 0.0000000000000E+00
 0.0000000000000E+00
 0.0000000000000E+00
 0.0000000000000E+00
 0.0000000000000E+00
 0.0000000000000E+00
 0.0000000000000E+00
 0.0000000000000E+00
 0.0000000000000E+00
 0.0000000000000E+00
 0.0000000000000E+00
 0.0000000000000E+00
 0.0000000000000E+00
 0.0000000000000E+00
 0.0000000000000E+00
 0.0000000000000E+00
 0.0000000000000E+00
 0.0000000000000E+00
 0.0000000000000E+00
 0.0000000000000E+00
 0.0000000000000E+00
 0.0000000000000E+00
 0.0000000000000E+00
 0.0000000000000E+00
 0.0000000000000E+00
 0.0000000000000E+00
 0.0000000000000E+00
 0.0000000000000E+00
 0.0000000000000E+00
 0.0000000000000E+00
 0.0000000000000E+00
 0.0000000000000E+00
 0.0000000000000E+00
 0.0000000000000E+00
 0.0000000000000E+00
 0.0000000000000E+00
 0.0000000000000E+00
 0.0000000000000E+00
 0.0000000000000E+00
 0.0000000000000E+00
 0.0000000000000E+00
 0.0000000000000E+00
 0.0000000000000E+00
 0.0000000000000E+00
 0.0000000000000E+00
 0.0000000000000E+00
 0.0000000000000E+00
 0.0000000000000E+00
 0.0000000000000E+00
 0.0000000000000E+00
 0.0000000000000E+00
 0.0000000000000E+00
 0.0000000000000E+00
 0.0000000000000E+00
 0.0000000000000E+00
 0.0000000000000E+00
 0.0000000000000E+00
 0.0000000000000E+00
 0.0000000000000E+00
 0.0000000000000E+00
 0.0000000000000E+00
 0.0000000000000E+00
 0.0000000000000E+00
 0.0000000000000E+00
 0.0000000000000E+00
 0.0000000000000E+00
 0.0000000000000E+00
 0.0000000000000E+00
 0.0000000000000E+00
 0.0000000000000E+00
 0.0000000000000E+00
 0.0000000000000E+00
 0.0000000000000E+00
 0.0000000000000E+00
 0.0000000000000E+00
 0.0000000000000E+00
 0.0000000000000E+00
 0.0000000000000E+00
 0.0000000000000E+00
 0.0000000000000E+00
 0.0000000000000E+00
 0.0000000000000E+00
 0.0000000000000E+00
 0.0000000000000E+00
 0.0000000000000E+00
 0.0000000000000E+00
 0.0000000000000E+00
 0.0000000000000E+00
 0.0000000000000E+00
 0.0000000000000E+00
 0.0000000000000E+00
 0.0000000000000E+00
 0.0000000000000E+00
 0.0000000000000E+00
 0.0000000000000E+00
 0.0000000000000E+00
 0.0000000000000E+00
 0.0000000000000E+00
 0.0000000000000E+00
 0.0000000000000E+00
 0.0000000000000E+00
 0.0000000000000E+00
 0.0000000000000E+00
 0.0000000000000E+00
 0.0000000000000E+00
 0.0000000000000E+00
 0.0000000000000E+00
 0.0000000000000E+00
 0.0000000000000E+00
 0.0000000000000E+00
 0.0000000000000E+00
 0.0000000000000E+00
 0.0000000000000E+00
 0.0000000000000E+00
 0.0000000000000E+00
 0.0000000000000E+00
 0.0000000000000E+00
 0.0000000000000E+00
 0.0000000000000E+00
 0.0000000000000E+00
 0.0000000000000E+00
 0.0000000000000E+00
 0.0000000000000E+00
 0.0000000000000E+00
 0.0000000000000E+00
 0.0000000000000E+00
 0.0000000000000E+00
 0.0000000000000E+00
 0.0000000000000E+00
 0.0000000000000E+00
 0.0000000000000E+00
 0.0000000000000E+00
 0.0000000000000E+00
 0.0000000000000E+00
 0.0000000000000E+00
 0.0000000000000E+00
 0.0000000000000E+00
 0.0000000000000E+00
 0.0000000000000E+00
 0.0000000000000E+00
 0.0000000000000E+00
 0.0000000000000E+00
 0.0000000000000E+00
 0.0000000000000E+00
 0.0000000000000E+00
 0.0000000000000E+00
 0.0000000000000E+00
 0.0000000000000E+00
 0.0000000000000E+00
 0.0000000000000E+00
 0.0000000000000E+00
 0.0000000000000E+00
 0.0000000000000E+00
 0.0000000000000E+00
 0.0000000000000E+00
 0.0000000000000E+00
 0.0000000000000E+00
 0.0000000000000E+00
 0.0000000000000E+00
 0.0000000000000E+00
 0.0000000000000E+00
 0.0000000000000E+00
 0.0000000000000E+00
 0.0000000000000E+00
 0.0000000000000E+00
 0.0000000000000E+00
 0.0000000000000E+00
 0.0000000000000E+00
 0.0000000000000E+00
 0.0000000000000E+00
 0.0000000000000E+00
 0.0000000000000E+00
 0.0000000000000E+00
 0.0000000000000E+00
 0.0000000000000E+00
 0.0000000000000E+00
 0.0000000000000E+00
 0.0000000000000E+00
 0.0000000000000E+00
 0.0000000000000E+00
 0.0000000000000E+00
 0.0000000000000E+00
 0.0000000000000E+00
 0.0000000000000E+00
 0.0000000000000E+00
 0.0000000000000E+00
 0.0000000000000E+00
 0.0000000000000E+00
 0.0000000000000E+00
 0.0000000000000E+00
 0.0000000000000E+00
 0.0000000000000E+00
 0.0000000000000E+00
 0.0000000000000E+00
 0.0000000000000E+00
 0.0000000000000E+00
 0.0000000000000E+00
 0.0000000000000E+00
 0.0000000000000E+00
 0.0000000000000E+00
 0.0000000000000E+00
 0.0000000000000E+00
 0.0000000000000E+00
 0.0000000000000E+00
 0.0000000000000E+00
 0.0000000000000E+00
 0.0000000000000E+00
 0.0000000000000E+00
 0.0000000000000E+00
 0.0000000000000E+00
 0.0000000000000E+00
 0.0000000000000E+00
 0.0000000000000E+00
 0.0000000000000E+00
 0.0000000000000E+00
 0.0000000000000E+00
 0.0000000000000E+00
 0.0000000000000E+00
 0.0000000000000E+00
 0.0000000000000E+00
 0.0000000000000E+00
 0.0000000000000E+00
 0.0000000000000E+00
 0.0000000000000E+00
 0.0000000000000E+00
 0.0000000000000E+00
 0.0000000000000E+00
 0.0000000000000E+00
 0.0000000000000E+00
 0.0000000000000E+00
 0.0000000000000E+00
 0.0000000000000E+00
 0.0000000000000E+00
 0.0000000000000E+00
 0.0000000000000E+00
 0.0000000000000E+00
 0.0000000000000E+00
 0.0000000000000E+00
 0.0000000000000E+00
 0.0000000000000E+00
 0.0000000000000E+00
 0.0000000000000E+00
 0.0000000000000E+00
 0.0000000000000E+00
 0.0000000000000E+00
 0.0000000000000E+00
 0.0000000000000E+00
 0.0000000000000E+00
 0.0000000000000E+00
 0.0000000000000E+00
 0.0000000000000E+00
 0.0000000000000E+00
 0.0000000000000E+00
 0.0000000000000E+00
 0.0000000000000E+00
 0.0000000000000E+00
 0.0000000000000E+00
 0.0000000000000E+00
 0.0000000000000E+00
 0.0000000000000E+00
 0.0000000000000E+00
 0.0000000000000E+00
 0.0000000000000E+00
 0.0000000000000E+00
 0.0000000000000E+00
 0.0000000000000E+00
 0.0000000000000E+00
 0.0000000000000E+00
 0.0000000000000E+00
 0.0000000000000E+00
 0.0000000000000E+00
 0.0000000000000E+00
 0.0000000000000E+00
 0.0000000000000E+00
 0.0000000000000E+00
 0.0000000000000E+00
 0.0000000000000E+00
 0.0000000000000E+00
 0.0000000000000E+00
 0.0000000000000E+00
 0.0000000000000E+00
 0.0000000000000E+00
 0.0000000000000E+00
 0.0000000000000E+00
 0.0000000000000E+00
 0.0000000000000E+00
 0.0000000000000E+00
 0.0000000000000E+00
 0.0000000000000E+00
 0.0000000000000E+00
 0.0000000000000E+00
 0.0000000000000E+00
 0.0000000000000E+00
 0.0000000000000E+00
 0.0000000000000E+00
 0.0000000000000E+00
 0.0000000000000E+00
 0.0000000000000E+00
 0.0000000000000E+00
 0.0000000000000E+00
 0.0000000000000E+00
 0.0000000000000E+00
 0.0000000000000E+00
 0.0000000000000E+00
 0.0000000000000E+00
 0.0000000000000E+00
 0.0000000000000E+00
 0.0000000000000E+00
 0.0000000000000E+00
 0.0000000000000E+00
 0.0000000000000E+00
 0.0000000000000E+00
 0.0000000000000E+00
 0.0000000000000E+00
 0.0000000000000E+00
 0.0000000000000E+00
 0.0000000000000E+00
 0.0000000000000E+00
 0.0000000000000E+00
 0.0000000000000E+00
 0.0000000000000E+00
 0.0000000000000E+00
 0.0000000000000E+00
 0.0000000000000E+00
 0.0000000000000E+00
 0.0000000000000E+00
 0.0000000000000E+00
 0.0000000000000E+00
 0.0000000000000E+00
 0.0000000000000E+00
 0.0000000000000E+00
 0.0000000000000E+00
 0.0000000000000E+00
 0.0000000000000E+00
 0.0000000000000E+00
 0.0000000000000E+00
 0.0000000000000E+00
 0.0000000000000E+00
 0.0000000000000E+00
 0.0000000000000E+00
 0.0000000000000E+00
 0.0000000000000E+00
 0.0000000000000E+00
 0.0000000000000E+00
 0.0000000000000E+00
 0.0000000000000E+00
 0.0000000000000E+00
 0.0000000000000E+00
 0.0000000000000E+00
 0.0000000000000E+00
 0.0000000000000E+00
 0.0000000000000E+00
 0.0000000000000E+00
 0.0000000000000E+00
 0.0000000000000E+00
 0.0000000000000E+00
 0.0000000000000E+00
 0.0000000000000E+00
 0.0000000000000E+00
 0.0000000000000E+00
 0.0000000000000E+00
 0.0000000000000E+00
 0.0000000000000E+00
 0.0000000000000E+00
 0.0000000000000E+00
 0.0000000000000E+00
 0.0000000000000E+00
 0.0000000000000E+00
 0.0000000000000E+00
 0.0000000000000E+00
 0.0000000000000E+00
 0.0000000000000E+00
 0.0000000000000E+00
 0.0000000000000E+00
 0.0000000000000E+00
 0.0000000000000E+00
 0.0000000000000E+00
 0.0000000000000E+00
 0.0000000000000E+00
 0.0000000000000E+00
 0.0000000000000E+00
 0.0000000000000E+00
 0.0000000000000E+00
 0.0000000000000E+00
 0.0000000000000E+00
 0.0000000000000E+00
 0.0000000000000E+00
 0.0000000000000E+00
 0.0000000000000E+00
 0.0000000000000E+00
 0.0000000000000E+00
 0.0000000000000E+00
 0.0000000000000E+00
 0.0000000000000E+00
 0.0000000000000E+00
 0.0000000000000E+00
 0.0000000000000E+00
 0.0000000000000E+00
 0.0000000000000E+00
 0.0000000000000E+00
 0.0000000000000E+00
 0.0000000000000E+00
 0.0000000000000E+00
 0.0000000000000E+00
 0.0000000000000E+00
 0.0000000000000E+00
 0.0000000000000E+00
 0.0000000000000E+00
 0.0000000000000E+00
 0.0000000000000E+00
 0.0000000000000E+00
 0.0000000000000E+00
 0.0000000000000E+00
 0.0000000000000E+00
 0.0000000000000E+00
 0.0000000000000E+00
 0.0000000000000E+00
 0.0000000000000E+00
 0.0000000000000E+00
 0.0000000000000E+00
 0.0000000000000E+00
 0.0000000000000E+00
 0.0000000000000E+00
 0.0000000000000E+00
 0.0000000000000E+00
 0.0000000000000E+00
 0.0000000000000E+00
 0.0000000000000E+00
 0.0000000000000E+00
 0.0000000000000E+00
 0.0000000000000E+00
 0.0000000000000E+00
 0.0000000000000E+00
 0.0000000000000E+00
 0.0000000000000E+00
 0.0000000000000E+00
 0.0000000000000E+00
 0.0000000000000E+00
 0.0000000000000E+00
 0.0000000000000E+00
 0.0000000000000E+00
 0.0000000000000E+00
 0.0000000000000E+00
 0.0000000000000E+00
 0.0000000000000E+00
 0.0000000000000E+00
 0.0000000000000E+00
 0.0000000000000E+00
 0.0000000000000E+00
 0.0000000000000E+00
 0.0000000000000E+00
 0.0000000000000E+00
 0.0000000000000E+00
 0.0000000000000E+00
 0.0000000000000E+00
 0.0000000000000E+00
 0.0000000000000E+00
 0.0000000000000E+00
 0.0000000000000E+00
 0.0000000000000E+00
 0.0000000000000E+00
 0.0000000000000E+00
 0.0000000000000E+00
 0.0000000000000E+00
 0.0000000000000E+00
 0.0000000000000E+00
 0.0000000000000E+00
 0.0000000000000E+00
 0.0000000000000E+00
 0.0000000000000E+00
 0.0000000000000E+00
 0.0000000000000E+00
 0.0000000000000E+00
 0.0000000000000E+00
 0.0000000000000E+00
 0.0000000000000E+00
 0.0000000000000E+00
 0.0000000000000E+00
 0.0000000000000E+00
 0.0000000000000E+00
 0.0000000000000E+00
 0.0000000000000E+00
 0.0000000000000E+00
 0.0000000000000E+00
 0.0000000000000E+00
 0.0000000000000E+00
 0.0000000000000E+00
 0.0000000000000E+00
 0.0000000000000E+00
 0.0000000000000E+00
 0.0000000000000E+00
 0.0000000000000E+00
 0.0000000000000E+00
 0.0000000000000E+00
 0.0000000000000E+00
 0.0000000000000E+00
 0.0000000000000E+00
 0.0000000000000E+00
 0.0000000000000E+00
 0.0000000000000E+00
 0.0000000000000E+00
 0.0000000000000E+00
 0.0000000000000E+00
 0.0000000000000E+00
 0.0000000000000E+00
 0.0000000000000E+00
 0.0000000000000E+00
 0.0000000000000E+00
 0.0000000000000E+00
 0.0000000000000E+00
 0.0000000000000E+00
 0.0000000000000E+00
 0.0000000000000E+00
 0.0000000000000E+00
 0.0000000000000E+00
 0.0000000000000E+00
 0.0000000000000E+00
 0.0000000000000E+00
 0.0000000000000E+00
 0.0000000000000E+00
 0.0000000000000E+00
 0.0000000000000E+00
 0.0000000000000E+00
 0.0000000000000E+00
 0.0000000000000E+00
 0.0000000000000E+00
 0.0000000000000E+00
 0.0000000000000E+00
 0.0000000000000E+00
 0.0000000000000E+00
 0.0000000000000E+00
 0.0000000000000E+00
 0.0000000000000E+00
 0.0000000000000E+00
 0.0000000000000E+00
 0.0000000000000E+00
 0.0000000000000E+00
 0.0000000000000E+00
 0.0000000000000E+00
 0.0000000000000E+00
 0.0000000000000E+00
 0.0000000000000E+00
 0.0000000000000E+00
 0.0000000000000E+00
 0.0000000000000E+00
 0.0000000000000E+00
 0.0000000000000E+00
 0.0000000000000E+00
 0.0000000000000E+00
 0.0000000000000E+00
 0.0000000000000E+00
 0.0000000000000E+00
 0.0000000000000E+00
 0.0000000000000E+00
 0.0000000000000E+00
 0.0000000000000E+00
 0.0000000000000E+00
 0.0000000000000E+00
 0.0000000000000E+00
 0.0000000000000E+00
 0.0000000000000E+00
 0.0000000000000E+00
 0.0000000000000E+00
 0.0000000000000E+00
 0.0000000000000E+00
 0.0000000000000E+00
 0.0000000000000E+00
 0.0000000000000E+00
 0.0000000000000E+00
 0.0000000000000E+00
 0.0000000000000E+00
 0.0000000000000E+00
 0.0000000000000E+00
 0.0000000000000E+00
 0.0000000000000E+00
 0.0000000000000E+00
 0.0000000000000E+00
 0.0000000000000E+00
 0.0000000000000E+00
 0.0000000000000E+00
 0.0000000000000E+00
 0.0000000000000E+00
 0.0000000000000E+00
 0.0000000000000E+00
 0.0000000000000E+00
 0.0000000000000E+00
 0.0000000000000E+00
 0.0000000000000E+00
 0.0000000000000E+00
 0.0000000000000E+00
 0.0000000000000E+00
 0.0000000000000E+00
 0.0000000000000E+00
 0.0000000000000E+00
 0.0000000000000E+00
 0.0000000000000E+00
 0.0000000000000E+00
 0.0000000000000E+00
 0.0000000000000E+00
 0.0000000000000E+00
 0.0000000000000E+00
 0.0000000000000E+00
 0.0000000000000E+00
 0.0000000000000E+00
 0.0000000000000E+00
 0.0000000000000E+00
 0.0000000000000E+00
 0.0000000000000E+00
 0.0000000000000E+00
 0.0000000000000E+00
 0.0000000000000E+00
 0.0000000000000E+00
 0.0000000000000E+00
 0.0000000000000E+00
 0.0000000000000E+00
 0.0000000000000E+00
 0.0000000000000E+00
 0.0000000000000E+00
 0.0000000000000E+00
 0.0000000000000E+00
 0.0000000000000E+00
 0.0000000000000E+00
 0.0000000000000E+00
 0.0000000000000E+00
 0.0000000000000E+00
 0.0000000000000E+00
 0.0000000000000E+00
 0.0000000000000E+00
 0.0000000000000E+00
 0.0000000000000E+00
 0.0000000000000E+00
 0.0000000000000E+00
 0.0000000000000E+00
 0.0000000000000E+00
 0.0000000000000E+00
 0.0000000000000E+00
 0.0000000000000E+00
 0.0000000000000E+00
 0.0000000000000E+00
 0.0000000000000E+00
 0.0000000000000E+00
 0.0000000000000E+00
 0.0000000000000E+00
 0.0000000000000E+00
 0.0000000000000E+00
 0.0000000000000E+00
 0.0000000000000E+00
 0.0000000000000E+00
 0.0000000000000E+00
 0.0000000000000E+00
 0.0000000000000E+00
 0.0000000000000E+00
 0.0000000000000E+00
 0.0000000000000E+00
 0.0000000000000E+00
 0.0000000000000E+00
 0.0000000000000E+00
 0.0000000000000E+00
 0.0000000000000E+00
 0.0000000000000E+00
 0.0000000000000E+00
 0.0000000000000E+00
 0.0000000000000E+00
 0.0000000000000E+00
 0.0000000000000E+00
 0.0000000000000E+00
 0.0000000000000E+00
 0.0000000000000E+00
 0.0000000000000E+00
 0.0000000000000E+00
 0.0000000000000E+00
 0.0000000000000E+00
 0.0000000000000E+00
 0.0000000000000E+00
 0.0000000000000E+00
 0.0000000000000E+00
 0.0000000000000E+00
 0.0000000000000E+00
 0.0000000000000E+00
 0.0000000000000E+00
 0.0000000000000E+00
 0.0000000000000E+00
 0.0000000000000E+00
 0.0000000000000E+00
 0.0000000000000E+00
 0.0000000000000E+00
 0.0000000000000E+00
 0.0000000000000E+00
 0.0000000000000E+00
 0.0000000000000E+00
 0.0000000000000E+00
 0.0000000000000E+00
 0.0000000000000E+00
 0.0000000000000E+00
 0.0000000000000E+00
 0.0000000000000E+00
 0.0000000000000E+00
 0.0000000000000E+00
 0.0000000000000E+00
 0.0000000000000E+00
 0.0000000000000E+00
 0.0000000000000E+00
 0.0000000000000E+00
 0.0000000000000E+00
 0.0000000000000E+00
 0.0000000000000E+00
 0.0000000000000E+00
 0.0000000000000E+00
 0.0000000000000E+00
 0.0000000000000E+00
 0.0000000000000E+00
 0.0000000000000E+00
 0.0000000000000E+00
 0.0000000000000E+00
 0.0000000000000E+00
 0.0000000000000E+00
 0.0000000000000E+00
 0.0000000000000E+00
 0.0000000000000E+00
 0.0000000000000E+00
 0.0000000000000E+00
 0.0000000000000E+00
 0.0000000000000E+00
 0.0000000000000E+00
 0.0000000000000E+00
 0.0000000000000E+00
 0.0000000000000E+00
 0.0000000000000E+00
 0.0000000000000E+00
 0.0000000000000E+00
 0.0000000000000E+00
 0.0000000000000E+00
 0.0000000000000E+00
 0.0000000000000E+00
 0.0000000000000E+00
 0.0000000000000E+00
 0.0000000000000E+00
 0.0000000000000E+00
 0.0000000000000E+00
 0.0000000000000E+00
 0.0000000000000E+00
 0.0000000000000E+00
 0.0000000000000E+00
 0.0000000000000E+00
 0.0000000000000E+00
 0.0000000000000E+00
 0.0000000000000E+00
 0.0000000000000E+00
 0.0000000000000E+00
 0.0000000000000E+00
 0.0000000000000E+00
 0.0000000000000E+00
 0.0000000000000E+00
 0.0000000000000E+00
 0.0000000000000E+00
 0.0000000000000E+00
 0.0000000000000E+00
 0.0000000000000E+00
 0.0000000000000E+00
 0.0000000000000E+00
 0.0000000000000E+00
 0.0000000000000E+00
 0.0000000000000E+00
 0.0000000000000E+00
 0.0000000000000E+00
 0.0000000000000E+00
 0.0000000000000E+00
 0.0000000000000E+00
 0.0000000000000E+00
 0.0000000000000E+00
 0.0000000000000E+00
 0.0000000000000E+00
 0.0000000000000E+00
 0.0000000000000E+00
 0.0000000000000E+00
 0.0000000000000E+00
 0.0000000000000E+00
 0.0000000000000E+00
 0.0000000000000E+00
 0.0000000000000E+00
 0.0000000000000E+00
 0.0000000000000E+00
 0.0000000000000E+00
 0.0000000000000E+00
 0.0000000000000E+00
 0.0000000000000E+00
 0.0000000000000E+00
 0.0000000000000E+00
 0.0000000000000E+00
 0.0000000000000E+00
 0.0000000000000E+00
 0.0000000000000E+00
 0.0000000000000E+00
 0.0000000000000E+00
 0.0000000000000E+00
 0.0000000000000E+00
 0.0000000000000E+00
 0.0000000000000E+00
 0.0000000000000E+00
 0.0000000000000E+00
 0.0000000000000E+00
 0.0000000000000E+00
 0.0000000000000E+00
 0.0000000000000E+00
 0.0000000000000E+00
 0.0000000000000E+00
 0.0000000000000E+00
 0.0000000000000E+00
 0.0000000000000E+00
 0.0000000000000E+00
 0.0000000000000E+00
 0.0000000000000E+00
 0.0000000000000E+00
 0.0000000000000E+00
 0.0000000000000E+00
 0.0000000000000E+00
 0.0000000000000E+00
 0.0000000000000E+00
 0.0000000000000E+00
 0.0000000000000E+00
 0.0000000000000E+00
 0.0000000000000E+00
 0.0000000000000E+00
 0.0000000000000E+00
 0.0000000000000E+00
 0.0000000000000E+00
 0.0000000000000E+00
 0.0000000000000E+00
 0.0000000000000E+00
 0.0000000000000E+00
 0.0000000000000E+00
 0.0000000000000E+00
 0.0000000000000E+00
 0.0000000000000E+00
 0.0000000000000E+00
 0.0000000000000E+00
 0.0000000000000E+00
 0.0000000000000E+00
 0.0000000000000E+00
 0.0000000000000E+00
 0.0000000000000E+00
 0.0000000000000E+00
 0.0000000000000E+00
 0.0000000000000E+00
 0.0000000000000E+00
 0.0000000000000E+00
 0.0000000000000E+00
 0.0000000000000E+00
 0.0000000000000E+00
 0.0000000000000E+00
 0.0000000000000E+00
 0.0000000000000E+00
 0.0000000000000E+00
 0.0000000000000E+00
 0.0000000000000E+00
 0.0000000000000E+00
 0.0000000000000E+00
 0.0000000000000E+00
 0.0000000000000E+00
 0.0000000000000E+00
 0.0000000000000E+00
 0.0000000000000E+00
 0.0000000000000E+00
 0.0000000000000E+00
 0.0000000000000E+00
 0.0000000000000E+00
 0.0000000000000E+00
 0.0000000000000E+00
 0.0000000000000E+00
 0.0000000000000E+00
 0.0000000000000E+00
 0.0000000000000E+00
 0.0000000000000E+00
 0.0000000000000E+00
 0.0000000000000E+00
 0.0000000000000E+00
 0.0000000000000E+00
 0.0000000000000E+00
 0.0000000000000E+00
 0.0000000000000E+00
 0.0000000000000E+00
 0.0000000000000E+00
 0.0000000000000E+00
 0.0000000000000E+00
 0.0000000000000E+00
 0.0000000000000E+00
 0.0000000000000E+00
 0.0000000000000E+00
 0.0000000000000E+00
 0.0000000000000E+00
 0.0000000000000E+00
 0.0000000000000E+00
 0.0000000000000E+00
 0.0000000000000E+00
 0.0000000000000E+00
 0.0000000000000E+00
 0.0000000000000E+00
 0.0000000000000E+00
 0.0000000000000E+00
 0.0000000000000E+00
 0.0000000000000E+00
 0.0000000000000E+00
 0.0000000000000E+00
 0.0000000000000E+00
 0.0000000000000E+00
 0.0000000000000E+00
 0.0000000000000E+00
 0.0000000000000E+00
 0.0000000000000E+00
 0.0000000000000E+00
 0.0000000000000E+00
 0.0000000000000E+00
 0.0000000000000E+00
 0.0000000000000E+00
 0.0000000000000E+00
 0.0000000000000E+00
 0.0000000000000E+00
 0.0000000000000E+00
 0.0000000000000E+00
 0.0000000000000E+00
 0.0000000000000E+00
 0.0000000000000E+00
 0.0000000000000E+00
 0.0000000000000E+00
 0.0000000000000E+00
 0.0000000000000E+00
 0.0000000000000E+00
 0.0000000000000E+00
 0.0000000000000E+00
 0.0000000000000E+00
 0.0000000000000E+00
 0.0000000000000E+00
 0.0000000000000E+00
 0.0000000000000E+00
 0.0000000000000E+00
 0.0000000000000E+00
 0.0000000000000E+00
 0.0000000000000E+00
 0.0000000000000E+00
 0.0000000000000E+00
 0.0000000000000E+00
 0.0000000000000E+00
 0.0000000000000E+00
 0.0000000000000E+00
 0.0000000000000E+00
 0.0000000000000E+00
 0.0000000000000E+00
 0.0000000000000E+00
 0.0000000000000E+00
 0.0000000000000E+00
 0.0000000000000E+00
 0.0000000000000E+00
 0.0000000000000E+00
 0.0000000000000E+00
 0.0000000000000E+00
 0.0000000000000E+00
 0.0000000000000E+00
 0.0000000000000E+00
 0.0000000000000E+00
 0.0000000000000E+00
 0.0000000000000E+00
 0.0000000000000E+00
 0.0000000000000E+00
 0.0000000000000E+00
 0.0000000000000E+00
 0.0000000000000E+00
 0.0000000000000E+00
 0.0000000000000E+00
 0.0000000000000E+00
 0.0000000000000E+00
 0.0000000000000E+00
 0.0000000000000E+00
 0.0000000000000E+00
 0.0000000000000E+00
 0.0000000000000E+00
 0.0000000000000E+00
 0.0000000000000E+00
 0.0000000000000E+00
 0.0000000000000E+00
 0.0000000000000E+00
 0.0000000000000E+00
 0.0000000000000E+00
 0.0000000000000E+00
 0.0000000000000E+00
 0.0000000000000E+00
 0.0000000000000E+00
 0.0000000000000E+00
 0.0000000000000E+00
 0.0000000000000E+00
 0.0000000000000E+00
 0.0000000000000E+00
 0.0000000000000E+00
 0.0000000000000E+00
 0.0000000000000E+00
 0.0000000000000E+00
 0.0000000000000E+00
 0.0000000000000E+00
 0.0000000000000E+00
 0.0000000000000E+00
 0.0000000000000E+00
 0.0000000000000E+00
 0.0000000000000E+00
 0.0000000000000E+00
 0.0000000000000E+00
 0.0000000000000E+00
 0.0000000000000E+00
 0.0000000000000E+00
 0.0000000000000E+00
 0.0000000000000E+00
 0.0000000000000E+00
 0.0000000000000E+00
 0.0000000000000E+00
 0.0000000000000E+00
 0.0000000000000E+00
 0.0000000000000E+00
 0.0000000000000E+00
 0.0000000000000E+00
 0.0000000000000E+00
 0.0000000000000E+00
 0.0000000000000E+00
 0.0000000000000E+00
 0.0000000000000E+00
 0.0000000000000E+00
 0.0000000000000E+00
 0.0000000000000E+00
 0.0000000000000E+00
 0.0000000000000E+00
 0.0000000000000E+00
 0.0000000000000E+00
 0.0000000000000E+00
 0.0000000000000E+00
 0.0000000000000E+00
 0.0000000000000E+00
 0.0000000000000E+00
 0.0000000000000E+00
 0.0000000000000E+00
 0.0000000000000E+00
 0.0000000000000E+00
 0.0000000000000E+00
 0.0000000000000E+00
 0.0000000000000E+00
 0.0000000000000E+00
 0.0000000000000E+00
 0.0000000000000E+00
 0.0000000000000E+00
 0.0000000000000E+00
 0.0000000000000E+00
 0.0000000000000E+00
 0.0000000000000E+00
 0.0000000000000E+00
 0.0000000000000E+00
 0.0000000000000E+00
 0.0000000000000E+00
 0.0000000000000E+00
 0.0000000000000E+00
 0.0000000000000E+00
 0.0000000000000E+00
 0.0000000000000E+00
 0.0000000000000E+00
 0.0000000000000E+00
 0.0000000000000E+00
 0.0000000000000E+00
 0.0000000000000E+00
 0.0000000000000E+00
 0.0000000000000E+00
 0.0000000000000E+00
 0.0000000000000E+00
 0.0000000000000E+00
 0.0000000000000E+00
 0.0000000000000E+00
 0.0000000000000E+00
 0.0000000000000E+00
 0.0000000000000E+00
 0.0000000000000E+00
 0.0000000000000E+00
 0.0000000000000E+00
 0.0000000000000E+00
 0.0000000000000E+00
 0.0000000000000E+00
 0.0000000000000E+00
 0.0000000000000E+00
 0.0000000000000E+00
 0.0000000000000E+00
 0.0000000000000E+00
 0.0000000000000E+00
 0.0000000000000E+00
 0.0000000000000E+00
 0.0000000000000E+00
 0.0000000000000E+00
 0.0000000000000E+00
 0.0000000000000E+00
 0.0000000000000E+00
 0.0000000000000E+00
 0.0000000000000E+00
 0.0000000000000E+00
 0.0000000000000E+00
 0.0000000000000E+00
 0.0000000000000E+00
 0.0000000000000E+00
 0.0000000000000E+00
 0.0000000000000E+00
 0.0000000000000E+00
 0.0000000000000E+00
 0.0000000000000E+00
 0.0000000000000E+00
 0.0000000000000E+00
 0.0000000000000E+00
 0.0000000000000E+00
 0.0000000000000E+00
 0.0000000000000E+00
 0.0000000000000E+00
 0.0000000000000E+00
 0.0000000000000E+00
 0.0000000000000E+00
 0.0000000000000E+00
 0.0000000000000E+00
 0.0000000000000E+00
 0.0000000000000E+00
 0.0000000000000E+00
 0.0000000000000E+00
 0.0000000000000E+00
 0.0000000000000E+00
 0.0000000000000E+00
 0.0000000000000E+00
 0.0000000000000E+00
 0.0000000000000E+00
 0.0000000000000E+00
 0.0000000000000E+00
 0.0000000000000E+00
 0.0000000000000E+00
 0.0000000000000E+00
 0.0000000000000E+00
 0.0000000000000E+00
 0.0000000000000E+00
 0.0000000000000E+00
 0.0000000000000E+00
 0.0000000000000E+00
 0.0000000000000E+00
 0.0000000000000E+00
 0.0000000000000E+00
 0.0000000000000E+00
 0.0000000000000E+00
 0.0000000000000E+00
 0.0000000000000E+00
 0.0000000000000E+00
 0.0000000000000E+00
 0.0000000000000E+00
 0.0000000000000E+00
 0.0000000000000E+00
 0.0000000000000E+00
 0.0000000000000E+00
 0.0000000000000E+00
 0.0000000000000E+00
 0.0000000000000E+00
 0.0000000000000E+00
 0.0000000000000E+00
 0.0000000000000E+00
 0.0000000000000E+00
 0.0000000000000E+00
 0.0000000000000E+00
 0.0000000000000E+00
 0.0000000000000E+00
 0.0000000000000E+00
 0.0000000000000E+00
 0.0000000000000E+00
 0.0000000000000E+00
 0.0000000000000E+00
 0.0000000000000E+00
 0.0000000000000E+00
 0.0000000000000E+00
 0.0000000000000E+00
 0.0000000000000E+00
 0.0000000000000E+00
 0.0000000000000E+00
 0.0000000000000E+00
 0.0000000000000E+00
 0.0000000000000E+00
 0.0000000000000E+00
 0.0000000000000E+00
 0.0000000000000E+00
 0.0000000000000E+00
 0.0000000000000E+00
 0.0000000000000E+00
 0.0000000000000E+00
 0.0000000000000E+00
 0.0000000000000E+00
 0.0000000000000E+00
 0.0000000000000E+00
 0.0000000000000E+00
 0.0000000000000E+00
 0.0000000000000E+00
 0.0000000000000E+00
 0.0000000000000E+00
 0.0000000000000E+00
 0.0000000000000E+00
 0.0000000000000E+00
 0.0000000000000E+00
 0.0000000000000E+00
 0.0000000000000E+00
 0.0000000000000E+00
 0.0000000000000E+00
 0.0000000000000E+00
 0.0000000000000E+00
 0.0000000000000E+00
 0.0000000000000E+00
 0.0000000000000E+00
 0.0000000000000E+00
 0.0000000000000E+00
 0.0000000000000E+00
 0.0000000000000E+00
 0.0000000000000E+00
 0.0000000000000E+00
 0.0000000000000E+00
 0.0000000000000E+00
 0.0000000000000E+00
 0.0000000000000E+00
 0.0000000000000E+00
 0.0000000000000E+00
 0.0000000000000E+00
 0.0000000000000E+00
 0.0000000000000E+00
 0.0000000000000E+00
 0.0000000000000E+00
 0.0000000000000E+00
 0.0000000000000E+00
 0.0000000000000E+00
 0.0000000000000E+00
 0.0000000000000E+00
 0.0000000000000E+00
 0.0000000000000E+00
 0.0000000000000E+00
 0.0000000000000E+00
 0.0000000000000E+00
 0.0000000000000E+00
 0.0000000000000E+00
 0.0000000000000E+00
 0.0000000000000E+00
 0.0000000000000E+00
 0.0000000000000E+00
 0.0000000000000E+00
 0.0000000000000E+00
 0.0000000000000E+00
 0.0000000000000E+00
 0.0000000000000E+00
 0.0000000000000E+00
 0.0000000000000E+00
 0.0000000000000E+00
 0.0000000000000E+00
 0.0000000000000E+00
 0.0000000000000E+00
 0.0000000000000E+00
 0.0000000000000E+00
 0.0000000000000E+00
 0.0000000000000E+00
 0.0000000000000E+00
 0.0000000000000E+00
 0.0000000000000E+00
 0.0000000000000E+00
 0.0000000000000E+00
 0.0000000000000E+00
 0.0000000000000E+00
 0.0000000000000E+00
 0.0000000000000E+00
 0.0000000000000E+00
 0.0000000000000E+00
 0.0000000000000E+00
 0.0000000000000E+00
 0.0000000000000E+00
 0.0000000000000E+00
 0.0000000000000E+00
 0.0000000000000E+00
 0.0000000000000E+00
 0.0000000000000E+00
 0.0000000000000E+00
 0.0000000000000E+00
 0.0000000000000E+00
 0.0000000000000E+00
 0.0000000000000E+00
 0.0000000000000E+00
 0.0000000000000E+00
 0.0000000000000E+00
 0.0000000000000E+00
 0.0000000000000E+00
 0.0000000000000E+00
 0.0000000000000E+00
 0.0000000000000E+00
 0.0000000000000E+00
 0.0000000000000E+00
 0.0000000000000E+00
 0.0000000000000E+00
 0.0000000000000E+00
 0.0000000000000E+00
 0.0000000000000E+00
 0.0000000000000E+00
 0.0000000000000E+00
 0.0000000000000E+00
 0.0000000000000E+00
 0.0000000000000E+00
 0.0000000000000E+00
 0.0000000000000E+00
 0.0000000000000E+00
 0.0000000000000E+00
 0.0000000000000E+00
 0.0000000000000E+00
 0.0000000000000E+00
 0.0000000000000E+00
 0.0000000000000E+00
 0.0000000000000E+00
 0.0000000000000E+00
 0.0000000000000E+00
 0.0000000000000E+00
 0.0000000000000E+00
 0.0000000000000E+00
 0.0000000000000E+00
 0.0000000000000E+00
 0.0000000000000E+00
 0.0000000000000E+00
 0.0000000000000E+00
 0.0000000000000E+00
 0.0000000000000E+00
 0.0000000000000E+00
 0.0000000000000E+00
 0.0000000000000E+00
 0.0000000000000E+00
 0.0000000000000E+00
 0.0000000000000E+00
 0.0000000000000E+00
 0.0000000000000E+00
 0.0000000000000E+00
 0.0000000000000E+00
 0.0000000000000E+00
 0.0000000000000E+00
 0.0000000000000E+00
 0.0000000000000E+00
 0.0000000000000E+00
 0.0000000000000E+00
 0.0000000000000E+00
 0.0000000000000E+00
 0.0000000000000E+00
 0.0000000000000E+00
 0.0000000000000E+00
 0.0000000000000E+00
 0.0000000000000E+00
 0.0000000000000E+00
 0.0000000000000E+00
 0.0000000000000E+00
 0.0000000000000E+00
 0.0000000000000E+00
 0.0000000000000E+00
 0.0000000000000E+00
 0.0000000000000E+00
 0.0000000000000E+00
 0.0000000000000E+00
 0.0000000000000E+00
 0.0000000000000E+00
 0.0000000000000E+00
 0.0000000000000E+00
 0.0000000000000E+00
 0.0000000000000E+00
 0.0000000000000E+00
 0.0000000000000E+00
 0.0000000000000E+00
 0.0000000000000E+00
 0.0000000000000E+00
 0.0000000000000E+00
 0.0000000000000E+00
 0.0000000000000E+00
 0.0000000000000E+00
</DataArray>
<DataArray type="Int32" Name="Region" format="ascii">
           1
           1
           1
           1
           1
           1
           1
           1
           1
           1
           1
           1
           1
           1
           1
           1
           1
           1
           1
           1
           1
           1
           1
           1
           1
           1
           1
           1
           1
           1
           1
           1
           1
           1
           1
           1
           1
           1
           1
           1
           1
           1
           1
           1
           1
           1
           1
           1
           1
           1
           1
           1
           1
           1
           1
           1
           1
           1
           1
           1
           1
           1
           1
           1
           1
           1
           1
           1
           1
           1
           1
           1
           1
           1
           1
           1
           1
           1
           1
           1
           1
           1
           1
           1
           1
           1
           1
           1
           1
           1
           1
           1
           1
           1
           1
           1
           1
           1
           1
           1
           1
           1
           1
           1
           1
           1
           1
           1
           1
           1
           1
           1
           1
           1
           1
           1
           1
           1
           1
           1
           1
           1
           1
           1
           1
           1
           1
           1
           1
           1
           1
           1
           1
           1
           1
           1
           1
           1
           1
           1
           1
           1
           1
           1
           1
           1
           1
           1
           1
           1
           1
           1
           1
           1
           1
           1
           1
           1
           1
           1
           1
           1
           1
           1
           1
           1
           1
           1
           1
           1
           1
           1
           1
           1
           1
           1
           1
           1
           1
           1
           1
           1
           1
           1
           1
           1
           1
           1
           1
           1
           1
           1
           1
           1
           1
           1
           1
           1
           1
           1
           1
           1
           1
           1
           1
           1
           1
           1
           1
           1
           1
           1
           1
           1
           1
           1
           1
           1
           1
           1
           1
           1
           1
           1
           1
           1
           1
           1
           1
           1
           1
           1
           1
           1
           1
           1
           1
           1
           1
           1
           1
           1
           1
           1
           1
           1
           1
           1
           1
           1
           1
           1
           1
           1
           1
           1
           1
           1
           1
           1
           1
           1
           1
           1
           1
           1
           1
           1
           1
           1
           1
           1
           1
           1
           1
           1
           1
           1
           1
           1
           1
           1
           1
           1
           1
           1
           1
           1
           1
           1
           1
           1
           1
           1
           1
           1
           1
           1
           1
           1
           1
           1
           1
           1
           1
           1
           1
           1
           1
           1
           1
           1
           1
           1
           1
           1
           1
           1
           1
           1
           1
           1
           1
           1
           1
           1
           1
           1
           1
           1
           1
           1
           1
           1
           1
           1
           1
           1
           1
           1
           1
           1
           1
           1
           1
           1
           1
           1
           1
           1
           1
           1
           1
           1
           1
           1
           1
           1
           1
           1
           1
           1
           1
           1
           1
           1
           1
           1
           1
           1
           1
           1
           1
           1
           1
           1
           1
           1
           1
           1
           1
           1
           1
           1
           1
           1
           1
           1
           1
           1
           1
           1
           1
           1
           1
           1
           1
           1
           1
           1
           1
           1
           1
           1
           1
           1
           1
           1
           1
           1
           1
           1
           1
           1
           1
           1
           1
           1
           1
           1
           1
           1
           1
           1
           1
           1
           1
           1
           1
           1
           1
           1
           1
           1
           1
           1
           1
           1
           1
           1
           1
           1
           1
           1
           1
           1
           1
           1
           1
           1
           1
           1
           1
           1
           1
           1
           1
           1
           1
           1
           1
           1
           1
           1
           1
           1
           1
           1
           1
           1
           1
           1
           1
           1
           1
           1
           1
           1
           1
           1
           1
           1
           1
           1
           1
           1
           1
           1
           1
           1
           1
           1
           1
           1
           1
           1
           1
           1
           1
           1
           1
           1
           1
           1
           1
           1
           1
           1
           1
           1
           1
           1
           1
           1
           1
           1
           1
           1
           1
           1
           1
           1
           1
           1
           1
           1
           1
           1
           1
           1
           1
           1
           1
           1
           1
           1
           1
           1
           1
           1
           1
           1
           1
           1
           1
           1
           1
           1
           1
           1
           1
           1
           1
           1
           1
           1
           1
           1
           1
           1
           1
           1
           1
           1
           1
           1
           1
           1
           1
           1
           1
           1
           1
           1
           1
           1
           1
           1
           1
           1
           1
           1
           1
           1
           1
           1
           1
           1
           1
           1
           1
           1
           1
           1
           1
           1
           1
           1
           1
           1
           1
           1
           1
           1
           1
           1
           1
           1
           1
           1
           1
           1
           1
           1
           1
           1
           1
           1
           1
           1
           1
           1
           1
           1
           1
           1
           1
           1
           1
           1
           1
           1
           1
           1
           1
           1
           1
           1
           1
           1
           1
           1
           1
           1
           1
           1
           1
           1
           1
           1
           1
           1
           1
           1
           1
           1
           1
           1
           1
           1
           1
           1
           1
           1
           1
           1
           1
           1
           1
           1
           1
           1
           1
           1
           1
           1
           1
           1
           1
           1
           1
           1
           1
           1
           1
           1
           1
           1
           1
           1
           1
           1
           1
           1
           1
           1
           1
           1
           1
           1
           1
           1
           1
           1
           1
           1
           1
           1
           1
           1
           1
           1
           1
           1
           1
           1
           1
           1
           1
           1
           1
           1
           1
           1
           1
           1
           1
           1
           1
           1
           1
           1
           1
           1
           1
           1
           1
           1
           1
           1
           1
           1
           1
           1
           1
           1
           1
           1
           1
           1
           1
           1
           1
           1
           1
           1
           1
           1
           1
           1
           1
           1
           1
           1
           1
           1
           1
           1
           1
           1
           1
           1
           1
           1
           1
           1
           1
           1
           1
           1
           1
           1
           1
           1
           1
           1
           1
           1
           1
           1
           1
           1
           1
           1
           1
           1
           1
           1
           1
           1
           1
           1
           1
           1
           1
           1
           1
           1
           1
           1
           1
           1
           1
           1
           1
           1
           1
           1
           1
           1
           1
           1
           1
           1
           1
           1
           1
           1
           1
           1
           1
           1
           1
           1
           1
           1
           1
           1
           1
           1
           1
           1
           1
           1
           1
           1
           1
           1
           1
           1
           1
           1
           1
           1
           1
           1
           1
           1
           1
           1
           1
           1
           1
           1
           1
           1
           1
           1
           1
           1
           1
           1
           1
           1
           1
           1
           1
           1
           1
           1
           1
           1
           1
           1
           1
           1
           1
           1
           1
           1
           1
           1
           1
           1
           1
           1
           1
           1
           1
           1
           1
           1
           1
           1
           1
           1
           1
           1
           1
           1
           1
           1
           1
           1
           1
           1
           1
           1
           1
           1
           1
           1
           1
           1
           1
           1
           1
           1
           1
           1
           1
           1
           1
           1
           1
           1
           1
           1
           1
           1
           1
           1
           1
           1
           1
           1
           1
           1
           1
           1
           1
           1
           1
           1
           1
           1
           1
           1
           1
           1
           1
           1
           1
           1
           1
           1
           1
           1
           1
           1
           1
           1
           1
           1
           1
           1
           1
           1
           1
           1
           1
           1
           1
           1
           1
           1
           1
           1
           1
           1
           1
           1
           1
           1
           1
           1
           1
           1
           1
           1
           1
           1
           1
           1
           1
           1
           1
           1
           1
           1
           1
           1
           1
           1
           1
           1
           1
           1
           1
           1
           1
           1
           1
           1
           1
           1
           1
           1
           1
           1
           1
           1
           1
           1
           1
           1
           1
           1
           1
           1
           1
           1
           1
           1
           1
           1
           1
           1
           1
           1
           1
           1
           1
           1
           1
           1
           1
           1
           1
           1
           1
           1
           1
           1
           1
           1
           1
           1
           1
           1
           1
           1
           1
           1
           1
           1
           1
           1
           1
           1
           1
           1
           1
           1
           1
           1
           1
           1
           1
           1
           1
           1
           1
           1
           1
           1
           1
           1
           1
           1
           1
           1
           1
           1
           1
           1
           1
           1
           1
           1
           1
           1
           1
           1
           1
           1
           1
           1
           1
           1
           1
           1
           1
           1
           1
           1
           1
           1
           1
           1
           1
           1
           1
           1
           1
           1
           1
           1
           1
           1
           1
           1
           1
           1
           1
           1
           1
           1
           1
           1
           1
           1
           1
           1
           1
           1
           1
           1
           1
           1
           1
           1
           1
           1
           1
           1
           1
           1
           1
           1
           1
           1
           1
           1
           1
           1
           1
           1
           1
           1
           1
           1
           1
           1
           1
           1
           1
           1
           1
           1
           1
           1
           1
           1
           1
           1
           1
           1
           1
           1
           1
           1
           1
           1
           1
           1
           1
           1
           1
           1
           1
           1
           1
           1
           1
           1
           1
           1
           1
           1
           1
           1
           1
           1
           1
           1
           1
           1
           1
           1
           1
           1
           1
           1
           1
           1
           1
           1
           1
           1
           1
           1
           1
           1
           1
           1
           1
           1
           1
           1
           1
           1
           1
           1
           1
           1
           1
           1
           1
           1
           1
           1
           1
           1
           1
           1
           1
           1
           1
           1
           1
           1
           1
           1
           1
           1
           1
           1
           1
           1
           1
           1
           1
           1
           1
           1
           1
           1
           1
           1
           1
           1
           1
           1
           1
           1
           1
           1
           1
           1
           1
           1
           1
           1
           1
           1
           1
           1
           1
           1
           1
           1
           1
           1
           1
           1
           1
           1
           1
           1
           1
           1
           1
           1
           1
           1
           1
           1
           1
           1
           1
           1
           1
           1
           1
           1
           1
           1
           1
           1
           1
           1
           1
           1
           1
           1
           1
           1
           1
           1
           1
           1
           1
           1
           1
           1
           1
           1
           1
           1
           1
           1
           1
           1
           1
           1
           1
           1
           1
           1
           1
           1
           1
           1
           1
           1
           1
           1
           1
           1
           1
           1
           1
           1
           1
           1
           1
           1
           1
           1
           1
           1
           1
           1
           1
           1
           1
           1
           1
           1
           1
           1
           1
           1
           1
           1
           1
           1
           1
           1
           1
           1
           1
           1
           1
           1
           1
           1
           1
           1
           1
           1
           1
           1
           1
           1
           1
           1
           1
           1
           1
           1
           1
           1
           1
           1
           1
           1
           1
           1
           1
           1
           1
           1
           1
           1
           1
           1
           1
           1
           1
           1
           1
           1
           1
           1
           1
           1
           1
           1
           1
           1
           1
           1
           1
           1
           1
           1
           1
           1
           1
           1
           1
           1
           1
           1
           1
           1
           1
           1
           1
           1
           1
           1
           1
           1
           1
           1
           1
           1
           1
           1
           1
           1
           1
           1
           1
           1
           1
           1
           1
           1
           1
           1
           1
           1
           1
           1
           1
           1
           1
           1
           1
           1
           1
           1
           1
           1
           1
           1
           1
           1
           1
           1
           1
           1
           1
           1
           1
           1
           1
           1
           1
           1
           1
           1
           1
           1
           1
           1
           1
           1
           1
           1
           1
           1
           1
           1
           1
           1
           1
           1
           1
           1
           1
           1
           1
           1
           1
           1
           1
           1
           1
           1
           1
           1
           1
           1
           1
           1
           1
           1
           1
           1
           1
           1
           1
           1
           1
           1
           1
           1
           1
           1
           1
           1
           1
           1
           1
           1
           1
           1
           1
           1
           1
           1
           1
           1
           1
           1
           1
           1
           1
           1
           1
           1
           1
           1
           1
           1
           1
           1
           1
           1
           1
           1
           1
           1
           1
           1
           1
           1
           1
           1
           1
           1
           1
           1
           1
           1
           1
           1
           1
           1
           1
           1
           1
           1
           1
           1
           1
           1
           1
           1
           1
           1
           1
           1
           1
           1
           1
           1
           1
           1
           1
           1
           1
           1
           1
           1
           1
           1
           1
           1
           1
           1
           1
           1
           1
           1
           1
           1
           1
           1
           1
           1
           1
           1
           1
           1
           1
           1
           1
           1
           1
           1
           1
           1
           1
           1
           1
           1
           1
           1
           1
           1
           1
           1
           1
           1
           1
           1
           1
           1
           1
           1
           1
           1
           1
           1
           1
           1
           1
           1
           1
           1
           1
           1
           1
           1
           1
           1
           1
           1
           1
           1
           1
           1
           1
           1
           1
           1
           1
           1
           1
           1
           1
           1
           1
           1
           1
           1
           1
           1
           1
           1
           1
           1
           1
           1
           1
           1
           1
           1
           1
           1
           1
           1
           1
           1
           1
           1
           1
           1
           1
           1
           1
           1
           1
           1
           1
           1
           1
           1
           1
           1
           1
           1
           1
           1
           1
           1
           1
           1
           1
           1
           1
           1
           1
           1
           1
           1
           1
           1
           1
           1
           1
           1
           1
           1
           1
           1
           1
           1
           1
           1
           1
           1
           1
           1
           1
           1
           1
           1
           1
           1
           1
           1
           1
           1
           1
           1
           1
           1
           1
           1
           1
           1
           1
           1
           1
           1
           1
           1
           1
           1
           1
           1
           1
           1
           1
           1
           1
           1
           1
           1
           1
           1
           1
           1
           1
           1
           1
           1
           1
           1
           1
           1
           1
           1
           1
           1
           1
           1
           1
           1
           1
           1
           1
           1
           1
           1
           1
           1
           1
           1
           1
           1
           1
           1
           1
           1
           1
           1
           1
           1
           1
           1
           1
           1
           1
           1
           1
           1
           1
           1
           1
           1
           1
           1
           1
           1
           1
           1
           1
           1
           1
           1
           1
           1
           1
           1
           1
           1
           1
           1
           1
           1
           1
           1
           1
           1
           1
           1
           1
           1
           1
           1
           1
           1
           1
           1
           1
           1
           1
           1
           1
           1
           1
           1
           1
           1
           1
           1
           1
           1
           1
           1
           1
           1
           1
           1
           1
           1
           1
           1
           1
           1
           1
           1
           1
           1
           1
           1
           1
           1
           1
           1
           1
           1
           1
           1
           1
           1
           1
           1
           1
           1
           1
           1
           1
           1
           1
           1
           1
           1
           1
           1
           1
           1
           1
           1
           1
           1
           1
           1
           1
           1
           1
           1
           1
           1
           1
           1
           1
           1
           1
           1
           1
           1
           1
           1
           1
           1
           1
           1
           1
           1
           1
           1
           1
           1
           1
           1
           1
           1
           1
           1
           1
           1
           1
           1
           1
           1
           1
           1
           1
           1
           1
           1
           1
           1
           1
           1
           1
           1
           1
           1
           1
           1
           1
           1
           1
           1
           1
           1
           1
           1
           1
           1
           1
           1
           1
           1
           1
           1
           1
           1
           1
           1
           1
           1
           1
           1
           1
           1
           1
           1
           1
           1
           1
           1
           1
           1
           1
           1
           1
           1
           1
           1
           1
           1
           1
           1
           1
           1
           1
           1
           1
           1
           1
           1
           1
           1
           1
           1
           1
           1
           1
           1
           1
           1
           1
           1
           1
           1
           1
           1
           1
           1
           1
           1
           1
           1
           1
           1
           1
           1
           1
           1
           1
           1
           1
           1
           1
           1
           1
           1
           1
           1
           1
           1
           1
           1
           1
           1
           1
           1
           1
           1
           1
           1
           1
           1
           1
           1
           1
           1
           1
           1
           1
           1
           1
           1
           1
           1
           1
           1
           1
           1
           1
           1
           1
           1
           1
           1
           1
           1
           1
           1
           1
           1
           1
           1
           1
           1
           1
           1
           1
           1
           1
           1
           1
           1
           1
           1
           1
           1
           1
           1
           1
           1
           1
           1
           1
           1
           1
           1
           1
           1
           1
           1
           1
           1
           1
           1
           1
           1
           1
           1
           1
           1
           1
           1
           1
           1
           1
           1
           1
           1
           1
           1
           1
           1
           1
           1
           1
           1
           1
           1
           1
           1
           1
           1
           1
           1
           1
           1
           1
           1
           1
           1
           1
           1
           1
           1
           1
           1
           1
           1
           1
           1
           1
           1
           1
           1
           1
           1
           1
           1
           1
           1
           1
           1
           1
           1
           1
           1
           1
           1
           1
           1
           1
           1
           1
           1
           1
           1
           1
           1
           1
           1
           1
           1
           1
           1
           1
           1
           1
           1
           1
           1
           1
           1
           1
           1
           1
           1
           1
           1
           1
           1
           1
           1
           1
           1
           1
           1
           1
           1
           1
           1
           1
           1
           1
           1
           1
           1
           1
           1
           1
           1
           1
           1
           1
           1
           1
           1
           1
           1
           1
           1
           1
           1
           1
           1
           1
           1
           1
           1
           1
           1
           1
           1
           1
           1
           1
           1
           1
           1
           1
           1
           1
           1
           1
           1
           1
           1
           1
           1
           1
           1
           1
           1
           1
           1
           1
           1
           1
           1
           1
           1
           1
           1
           1
           1
           1
           1
           1
           1
           1
           1
           1
           1
           1
           1
           1
           1
           1
           1
           1
           1
           1
           1
           1
           1
           1
           1
           1
           1
           1
           1
           1
           1
           1
           1
           1
           1
           1
           1
           1
           1
           1
           1
           1
           1
           1
           1
           1
           1
           1
           1
           1
           1
           1
           1
           1
           1
           1
           1
           1
           1
           1
           1
           1
           1
           1
           1
           1
           1
           1
           1
           1
           1
           1
           1
           1
           1
           1
           1
           1
           1
           1
           1
           1
           1
           1
           1
           1
           1
           1
           1
           1
           1
           1
           1
           1
           1
           1
           1
           1
           1
           1
           1
           1
           1
           1
           1
           1
           1
           1
           1
           1
           1
           1
           1
           1
           1
           1
           1
           1
           1
           1
           1
           1
           1
           1
           1
           1
           1
           1
           1
           1
           1
           1
           1
           1
           1
           1
           1
           1
           1
           1
           1
           1
           1
           1
           1
           1
           1
           1
           1
           1
           1
           1
           1
           1
           1
           1
           1
           1
           1
           1
           1
           1
           1
           1
           1
           1
           1
           1
           1
           1
           1
           1
           1
           1
           1
           1
           1
           1
           1
           1
           1
           1
           1
           1
           1
           1
           1
           1
           1
           1
           1
           1
           1
           1
           1
           1
           1
           1
           1
           1
           1
           1
           1
           1
           1
           1
           1
           1
           1
           1
           1
           1
           1
           1
           1
           1
           1
           1
           1
           1
           1
           1
           1
           1
           1
           1
           1
           1
           1
           1
           1
           1
           1
           1
           1
           1
           1
           1
           1
           1
           1
           1
           1
           1
           1
           1
           1
           1
           1
           1
           1
           1
           1
           1
           1
           1
           1
           1
           1
           1
           1
           1
           1
           1
           1
           1
           1
           1
           1
           1
           1
           1
           1
           1
           1
           1
           1
           1
           1
           1
           1
           1
           1
           1
           1
           1
           1
           1
           1
           1
           1
           1
           1
           1
           1
           1
           1
           1
           1
           1
           1
           1
           1
           1
           1
           1
           1
           1
           1
           1
           1
           1
           1
           1
           1
           1
           1
           1
           1
           1
           1
           1
           1
           1
           1
           1
           1
           1
           1
           1
           1
           1
           1
           1
           1
           1
           1
           1
           1
           1
           1
           1
           1
           1
           1
           1
           1
           1
           1
           1
           1
           1
           1
           1
           1
           1
           1
           1
           1
           1
           1
           1
           1
           1
           1
           1
           1
           1
           1
           1
           1
           1
           1
           1
           1
           1
           1
           1
           1
           1
           1
           1
           1
           1
           1
           1
           1
           1
           1
           1
           1
           1
           1
           1
           1
           1
           1
           1
           1
           1
           1
           1
           1
           1
           1
           1
           1
           1
           1
           1
           1
           1
           1
           1
           1
           1
           1
           1
           1
           1
           1
           1
           1
           1
           1
           1
           1
           1
           1
           1
           1
           1
           1
           1
           1
           1
           1
           1
           1
           1
           1
           1
           1
           1
           1
           1
           1
           1
           1
           1
           1
           1
           1
           1
           1
           1
           1
           1
           1
           1
           1
           1
           1
           1
           1
           1
           1
           1
           1
           1
           1
           1
           1
           1
           1
           1
           1
           1
           1
           1
           1
           1
           1
           1
           1
           1
           1
           1
           1
           1
           1
           1
           1
           1
           1
           1
           1
           1
           1
           1
           1
           1
           1
           1
           1
           1
           1
           1
           1
           1
           1
           1
           1
           1
           1
           1
           1
           1
           1
           1
           1
           1
           1
           1
           1
           1
           1
           1
           1
           1
           1
           1
           1
           1
           1
           1
           1
           1
           1
           1
           1
           1
           1
           1
           1
           1
           1
           1
           1
           1
           1
           1
           1
           1
           1
           1
           1
           1
           1
           1
           1
           1
           1
           1
           1
           1
           1
           1
           1
           1
           1
           1
           1
           1
           1
           1
           1
           1
           1
           1
           1
           1
           1
           1
           1
           1
           1
           1
           1
           1
           1
           1
           1
           1
           1
           1
           1
           1
           1
           1
           1
           1
           1
           1
           1
           1
           1
           1
           1
           1
           1
           1
           1
           1
           1
           1
           1
           1
           1
           1
           1
           1
           1
           1
           1
           1
           1
           1
           1
           1
           1
           1
           1
           1
           1
           1
           1
           1
           1
           1
           1
           1
           1
           1
           1
           1
           1
           1
           1
           1
           1
           1
           1
           1
           1
           1
           1
           1
           1
           1
           1
           1
           1
           1
           1
           1
           1
           1
           1
           1
           1
           1
           1
           1
           1
           1
           1
           1
           1
           1
           1
           1
           1
           1
           1
           1
           1
           1
           1
           1
           1
           1
           1
           1
           1
           1
           1
           1
           1
           1
           1
           1
           1
           1
           1
           1
           1
           1
           1
           1
           1
           1
           1
           1
           1
           1
           1
           1
           1
           1
           1
           1
           1
           1
           1
           1
           1
           1
           1
           1
           1
           1
           1
           1
           1
           1
           1
           1
           1
           1
           1
           1
           1
           1
           1
           1
           1
           1
           1
           1
           1
           1
           1
           1
           1
           1
           1
           1
           1
           1
           1
           1
           1
           1
           1
           1
           1
           1
           1
           1
           1
           1
           1
           1
           1
           1
           1
           1
           1
           1
           1
           1
           1
           1
           1
           1
           1
           1
           1
           1
           1
           1
           1
           1
           1
           1
           1
           1
           1
           1
           1
           1
           1
           1
           1
           1
           1
           1
           1
           1
           1
           1
           1
           1
           1
           1
           1
           1
           1
           1
           1
           1
           1
           1
           1
           1
           1
           1
           1
           1
           1
           1
           1
           1
           1
           1
           1
           1
           1
           1
           1
           1
           1
           1
           1
           1
           1
           1
           1
           1
           1
           1
           1
           1
           1
           1
           1
           1
           1
           1
           1
           1
           1
           1
           1
           1
           1
           1
           1
           1
           1
           1
           1
           1
           1
           1
           1
           1
           1
           1
           1
           1
           1
           1
           1
           1
           1
           1
           1
           1
           1
           1
           1
           1
           1
           1
           1
           2
           2
           2
           2
           2
           2
           2
           2
           2
           2
           2
           2
           2
           2
           2
           2
           2
           2
           2
           2
           2
           2
           2
           2
           2
           2
           2
           2
           2
           2
           2
           2
           2
           2
           2
           2
           2
           2
           2
           2
           2
           2
           2
           2
           2
           2
           2
           2
           2
           2
           2
           2
           2
           2
           2
           2
           2
           2
           2
           2
           2
           2
           2
           2
           2
           2
           2
           2
           2
           2
           2
           2
           2
           2
           2
           2
           2
           2
           2
           2
           2
           2
           2
           2
           2
           2
           2
           2
           2
           2
           2
           2
           2
           2
           2
           2
           2
           2
           2
           2
           2
           2
           2
           2
           2
           2
           2
           2
           2
           2
           2
           2
           2
           2
           2
           2
           2
           2
           2
           2
           2
           2
           2
           2
           2
           2
           2
           2
           2
           2
           2
           2
           2
           2
           2
           2
           2
           2
           2
           2
           2
           2
           2
           2
           2
           2
           2
           2
           2
           2
           2
           2
           2
           2
           2
           2
           2
           2
           2
           2
           2
           2
           2
           2
           2
           2
           2
           2
           2
           2
           2
           2
           2
           2
           2
           2
           2
           2
           2
           2
           2
           2
           2
           2
           2
           2
           2
           2
           2
           2
           2
           2
           2
           2
           2
           2
           2
           2
           2
           2
           2
           2
           2
           2
           2
           2
           2
           2
           2
           2
           2
           2
           2
           2
           2
           2
           2
           2
           2
           2
           2
           2
           2
           2
           2
           2
           2
           2
           2
           2
           2
           2
           2
           2
           2
           2
           2
           2
           2
           2
           2
           2
           2
           2
           2
           2
           2
           2
           2
           2
           2
           2
           2
           2
           2
           2
           2
           2
           2
           2
           2
           2
           2
           2
           2
           2
           2
           2
           2
           2
           2
           2
           2
           2
           2
           2
           2
           2
           2
           2
           2
           2
           2
           2
           2
           2
           2
           2
           2
           2
           2
           2
           2
           2
           2
           2
           2
           2
           2
           2
           2
           2
           2
           2
           2
           2
           2
           2
           2
           2
           2
           2
           2
           2
           2
           2
           2
           2
           2
           2
           2
           2
           2
           2
           2
           2
           2
           2
           2
           2
           2
           2
           2
           2
           2
           2
           2
           2
           2
           2
           2
           2
           2
           2
           2
           2
           2
           2
           2
           2
           2
           2
           2
           2
           2
           2
           2
           2
           2
           2
           2
           2
           2
           2
           2
           2
           2
           2
           2
           2
           2
           2
           2
           2
           2
           2
           2
           2
           2
           2
           2
           2
           2
           2
           2
           2
           2
           2
           2
           2
           2
           2
           2
           2
           2
           2
           2
           2
           2
           2
           2
           2
           2
           2
           2
           2
           2
           2
           2
           2
           2
           2
           2
           2
           2
           2
           2
           2
           2
           2
           2
           2
           2
           2
           2
           2
           2
           2
           2
           2
           2
           2
           2
           2
           2
           2
           2
           2
           2
           2
           2
           2
           2
           2
           2
           2
           2
           2
           2
           2
           2
           2
           2
           2
           2
           2
           2
           2
           2
           2
           2
           2
           2
           2
           2
           2
           2
           2
           2
           2
           2
           2
           2
           2
           2
           2
           2
           2
           2
           2
           2
           2
           2
           2
           2
           2
           2
           2
           2
           2
           2
           2
           2
           2
           2
           2
           2
           2
           2
           2
           2
           2
           2
           2
           2
           2
           2
           2
           2
           2
           2
           2
           2
           2
           2
           2
           2
           2
           2
           2
           2
           2
           2
           2
           2
           2
           2
           2
           2
           2
           2
           2
           2
           2
           2
           2
           2
           2
           2
           2
           2
           2
           2
           2
           2
           2
           2
           2
           2
           2
           2
           2
           2
           2
           2
           2
           2
           2
           2
           2
           2
           2
           2
           2
           2
           2
           2
           2
           2
           2
           2
           2
           2
           2
           2
           2
           2
           2
           2
           2
           2
           2
           2
           2
           2
           2
           2
           2
           2
           2
           2
           2
           2
           2
           2
           2
           2
           2
           2
           2
           2
           2
           2
           2
           2
           2
           2
           2
           2
           2
           2
           2
           2
           2
           2
           2
           2
           2
           2
           2
           2
           2
           2
           2
           2
           2
           2
           2
           2
           2
           2
           2
           2
           2
           2
           2
           2
           2
           2
           2
           2
           2
           2
           2
           2
           2
           2
           2
           2
           2
           2
           2
           2
           2
           2
           2
           2
           2
           2
           2
           2
           2
           2
           2
           2
           2
           2
           2
           2
           2
           2
           2
           2
           2
           2
           2
           2
           2
           2
           2
           2
           2
           2
           2
           2
           2
           2
           2
           2
           2
           2
           2
           2
           2
           2
           2
           2
           2
           2
           2
           2
           2
           2
           2
           2
           2
           2
           2
           2
           2
           2
           2
           2
           2
           2
           2
           2
           2
           2
           2
           2
           2
           2
           2
           2
           2
           2
           2
           2
           2
           2
           2
           2
           2
           2
           2
           2
           2
           2
           2
           2
           2
           2
           2
           2
           2
           2
           2
           2
           2
           2
           2
           2
           2
           2
           2
           2
           2
           2
           2
           2
           2
           2
           2
           2
           2
           2
           2
           2
           2
           2
           2
           2
           2
           2
           2
           2
           2
           2
           2
           2
           2
           2
           2
           2
           2
           2
           2
           2
           2
           2
           2
           2
           2
           2
           2
           2
           2
           2
           2
           2
           2
           2
           2
           2
           2
           2
           2
           2
           2
           2
           2
           2
           2
           2
           2
           2
           2
           2
           2
           2
           2
           2
           2
           2
           2
           2
           2
           2
           2
           2
           2
           2
           2
           2
           2
           2
           2
           2
           2
           2
           2
           2
           2
           2
           2
           2
           2
           2
           2
           2
           2
           2
           2
           2
           2
           2
           2
           2
           2
           2
           2
           2
           2
           2
           2
           2
           2
           2
           2
           2
           2
           2
           2
           2
           2
           2
           2
           2
           2
           2
           2
           2
           2
           2
           2
           2
           2
           2
           2
           2
           2
           2
           2
           2
           2
           2
           2
           2
           2
           2
           2
           2
           2
           2
           2
           2
           2
           2
           2
           2
           2
           2
           2
           2
           2
           2
           2
           2
           2
           2
           2
           2
           2
           2
           2
           2
           2
           2
           2
           2
           2
           2
           2
           2
           2
           2
           2
           2
           2
           2
           2
           2
           2
           2
           2
           2
           2
           2
           2
           2
           2
           2
           2
           2
           2
           2
           2
           2
           2
           2
           2
           2
           2
           2
           2
           2
           2
           2
           2
           2
           2
           2
           2
           2
           2
           2
           2
           2
           2
           2
           2
           2
           2
           2
           2
           2
           2
           2
           2
           2
           2
           2
           2
           2
           2
           2
           2
           2
           2
           2
           2
           2
           2
           2
           2
           2
           2
           2
           2
           2
           2
           2
           2
           2
           2
           2
           2
           2
           2
           2
           2
           2
           2
           2
           2
           2
           2
           2
           2
           2
           2
           2
           2
           2
           2
           2
           2
           2
           2
           2
           2
           2
           2
           2
           2
           2
           2
           2
           2
           2
           2
           2
           2
           2
           2
           2
           2
           2
           2
           2
           2
           2
           2
           2
           2
           2
           2
           2
           2
           2
           2
           2
           2
           2
           2
           2
           2
           2
           2
           2
           2
           2
           2
           2
           2
           2
           2
           2
           2
           2
           2
           2
           2
           2
           2
           2
           2
           2
           2
           2
           2
           2
           2
           2
           2
           2
           2
           2
           2
           2
           2
           2
           2
           2
           2
           2
           2
           2
           2
           2
           2
           2
           2
           2
           2
           2
           2
           2
           2
           2
           2
           2
           2
           2
           2
           2
           2
           2
           2
           2
           2
           2
           2
           2
           2
           2
           2
           2
           2
           2
           2
           2
           2
           2
           2
           2
           2
           2
           2
           2
           2
           2
           2
           2
           2
           2
           2
           2
           2
           2
           2
           2
           2
           2
           2
           2
           2
           2
           2
           2
           2
           2
           2
           2
           2
           2
           2
           2
           2
           2
           2
           2
           2
           2
           2
           2
           2
           2
           2
           2
           2
           2
           2
           2
           2
           2
           2
           2
           2
           2
           2
           2
           2
           2
           2
           2
           2
           2
           2
           2
           2
           2
           2
           2
           2
           2
           2
           2
           2
           2
           2
           2
           2
           2
           2
           2
           2
           2
           2
           2
           2
           2
           2
           2
           2
           2
           2
           2
           2
           2
           2
           2
           2
           2
           2
           2
           2
           2
           2
           2
           2
           2
           2
           2
           2
           2
           2
           2
           2
           2
           2
           2
           2
           2
           2
           2
           2
           2
           2
           2
           2
           2
           2
           2
           2
           2
           2
           2
           2
           2
           2
           2
           2
           2
           2
           2
           2
           2
           2
           2
           2
           2
           2
           2
           2
           2
           2
           2
           2
           2
           2
           2
           2
           2
           2
           2
           2
           2
           2
           2
           2
           2
           2
           2
           2
           2
           2
           2
           2
           2
           2
           2
           2
           2
           2
           2
           2
           2
           2
           2
           2
           2
           2
           2
           2
           2
           2
           2
           2
           2
           2
           2
           2
           2
           2
           2
           2
           2
           2
           2
           2
           2
           2
           2
           2
           2
           2
           2
           2
           2
           2
           2
           2
           2
           2
           2
           2
           2
           2
           2
           2
           2
           2
           2
           2
           2
           2
           2
           2
           2
           2
           2
           2
           2
           2
           2
           2
           2
           2
           2
           2
           2
           2
           2
           2
           2
           2
           2
           2
           2
           2
           2
           2
           2
           2
           2
           2
           2
           2
           2
           2
           2
           2
           2
           2
           2
           2
           2
           2
           2
           2
           2
           2
           2
           2
           2
           2
           2
           2
           2
           2
           2
           2
           2
           2
           2
           2
           2
           2
           2
           2
           2
           2
           2
           2
           2
           2
           2
           2
           2
           2
           2
           2
           2
           2
           2
           2
           2
           2
           2
           2
           2
           2
           2
           2
           2
           2
           2
           2
           2
           2
           2
           2
           2
           2
           2
           2
           2
           2
           2
           2
           2
           2
           2
           2
           2
           2
           2
           2
           2
           2
           2
           2
           2
           2
           2
           2
           2
           2
           2
           2
           2
           2
           2
           2
           2
           2
           2
           2
           2
           2
           2
           2
           2
           2
           2
           2
           2
           2
           2
           2
           2
           2
           2
           2
           2
           2
           2
           2
           2
           2
           2
           2
           2
           2
           2
           2
           2
           2
           2
           2
           2
           2
           2
           2
           2
           2
           2
           2
           2
           2
           2
           2
           2
           2
           2
           2
           2
           2
           2
           2
           2
           2
           2
           2
           2
           2
           2
           2
           2
           2
           2
           2
           2
           2
           2
           2
           2
           2
           2
           2
           2
           2
           2
           2
           2
           2
           2
           2
           2
           2
           2
           2
           2
           2
           2
           2
           2
           2
           2
           2
           2
           2
           2
           2
           2
           2
           2
           2
           2
           2
           2
           2
           2
           2
           2
           2
           2
           2
           2
           2
           2
           2
           2
           2
           2
           2
           2
           2
           2
           2
           2
           2
           2
           2
           2
           2
           2
           2
           2
           2
           2
           2
           2
           2
           2
           2
           2
           2
           2
           2
           2
           2
           2
           2
           2
           2
           2
           2
           2
           2
           2
           2
           2
           2
           2
           2
           2
           2
           2
           2
           2
           2
           2
           2
           2
           2
           2
           2
           2
           2
           2
           2
           2
           2
           2
           2
           2
           2
           2
           2
           2
           2
           2
           2
           2
           2
           2
           2
           2
           2
           2
           2
           2
           2
           2
           2
           2
           2
           2
           2
           2
           2
           2
           2
           2
           2
           2
           2
           2
           2
           2
           2
           2
           2
           2
           2
           2
           2
           2
           2
           2
           2
           2
           2
           2
           2
           2
           2
           2
           2
           2
           2
           2
           2
           2
           2
           2
           2
           2
           2
           2
           2
           2
           2
           2
           2
           2
           2
           2
           2
           2
           2
           2
           2
           2
           2
           2
           2
           2
           2
           2
           2
           2
           2
           2
           2
           2
           2
           2
           2
           2
           2
           2
           2
           2
           2
           2
           2
           2
           2
           2
           2
           2
           2
           2
           2
           2
           2
           2
           2
           2
           2
           2
           2
           2
           2
           2
           2
           2
           2
           2
           2
           2
           2
           2
           2
           2
           2
           2
           2
           2
           2
           2
           2
           2
           2
           2
           2
           2
           2
           2
           2
           2
           2
           2
           2
           2
           2
           2
           2
           2
           2
           2
           2
           2
           2
           2
           2
           2
           2
           2
           2
           2
           2
           2
           2
           2
           2
           2
           2
           2
           2
           2
           2
           2
           2
           2
           2
           2
           2
           2
           2
           2
           2
           2
           2
           2
           2
           2
           2
           2
           2
           2
           2
           2
           2
           2
           2
           2
           2
           2
           2
           2
           2
           2
           2
           2
           2
           2
           2
           2
           2
           2
           2
           2
           2
           2
           2
           2
           2
           2
           2
           2
           2
           2
           2
           2
           2
           2
           2
           2
           2
           2
           2
           2
           2
           2
           2
           2
           2
           2
           2
           2
           2
           2
           2
           2
           2
           2
           2
           2
           2
           2
           2
           2
           2
           2
           2
           2
           2
           2
           2
           2
           2
           2
           2
           2
           2
           2
           2
           2
           2
           2
           2
           2
           2
           2
           2
           2
           2
           2
           2
           2
           2
           2
           2
           2
           2
           2
           2
           2
           2
           2
           2
           2
           2
           2
           2
           2
           2
           2
           2
           2
           2
           2
           2
           2
           2
           2
           2
           2
           2
           2
           2
           2
           2
           2
           2
           2
           2
           2
           2
           2
           2
           2
           2
           2
           2
           2
           2
           2
           2
           2
           2
           2
           2
           2
           2
           2
           2
           2
           2
           2
           2
           2
           2
           2
           2
           2
           2
           2
           2
           2
           2
           2
           2
           2
           2
           2
           2
           2
           2
           2
           2
           2
           2
           2
           2
           2
           2
           2
           2
           2
           2
           2
           2
           2
           2
           2
           2
           2
           2
           2
           2
           2
           2
           2
           2
           2
           2
           2
           2
           2
           2
           2
           2
           2
           2
           2
           2
           2
           2
           2
           2
           2
           2
           2
           2
           2
           2
           2
           2
           2
           2
           2
           2
           2
           2
           2
           2
           2
           2
           2
           2
           2
           2
           2
           2
           2
           2
           2
           2
           2
           2
           2
           2
           2
           2
           2
           2
           2
           2
           2
           2
           2
           2
           2
           2
           2
           2
           2
           2
           2
           2
           2
           2
           2
           2
           2
           2
           2
           2
           2
           2
           2
           2
           2
           2
           2
           2
           2
           2
           2
           2
           2
           2
           2
           2
           2
           2
           2
           2
           2
           2
           2
           2
           2
           2
           2
           2
           2
           2
           2
           2
           2
           2
           2
           2
           2
           2
           2
           2
           2
           2
           2
           2
           2
           2
           2
           2
           2
           2
           2
           2
           2
           2
           2
           2
           2
           2
           2
           2
           2
           2
           2
           2
           2
           2
           2
           2
           2
           2
           2
           2
           2
           2
           2
           2
           2
           2
           2
           2
           2
           2
           2
           2
           2
           2
           2
           2
           2
           2
           2
           2
           2
           2
           2
           2
           2
           2
           2
           2
           2
           2
           2
           2
           2
           2
           2
           2
           2
           2
           2
           2
           2
           2
           2
           2
           2
           2
           2
           2
           2
           2
           2
           2
           2
           2
           2
           2
           2
           2
           2
           2
           2
           2
           2
           2
           2
           2
           2
           2
           2
           2
           2
           2
           2
           2
           2
           2
           2
           2
           2
           2
           2
           2
           2
           2
           2
           2
           2
           2
           2
           2
           2
           2
           2
           2
           2
           2
           2
           2
           2
           2
           2
           2
           2
           2
           2
           2
           2
           2
           2
           2
           2
           2
           2
           2
           2
           2
           2
           2
           2
           2
           2
           2
           2
           2
           2
           2
           2
           2
           2
           2
           2
           2
           2
           2
           2
           2
           2
           2
           2
           2
           2
           2
           2
           2
           2
           2
           2
           2
           2
           2
           2
           2
           2
           2
           2
           2
           2
           2
           2
           2
           2
           2
           2
           2
</DataArray>
</CellData>
</Piece>
</UnstructuredGrid>
</VTKFile>
